LAMMPS (30 Jul 2021)
  using 1 OpenMP thread(s) per MPI task
package omp 0
using multi-threaded neighbor list subroutines
echo both

include		in.partitions
variable        pid world 0
include		in.temp
variable        temperature equal 229.45
variable	tempDamp equal 100.0
include		in.pressure
variable        pressure equal 3000.0
variable        pressureDamp equal 1000.0 # This is 1 ps
include		in.seed
variable        seed world 745823

units		real
atom_style	full
read_restart	restart.lmp.${pid}
read_restart	restart.lmp.0
Reading restart file ...
  restart file = 30 Jul 2021, LAMMPS = 30 Jul 2021
  restoring atom style full from restart
  orthogonal box = (0.37126521 1.5288327 0.45294269) to (17.836307 22.100345 21.760253)
  4 by 4 by 4 MPI processor grid
  restoring pair style lj/cut/tip4p/long/omp from restart
  restoring bond style harmonic/omp from restart
  restoring angle style harmonic/omp from restart
  864 atoms
  576 bonds
  288 angles
Finding 1-2 1-3 1-4 neighbors ...
  special bond factors lj:    0        0        0       
  special bond factors coul:  0        0        0       
     2 = max # of 1-2 neighbors
     1 = max # of 1-3 neighbors
     1 = max # of 1-4 neighbors
     2 = max # of special neighbors
  special bonds CPU = 1.849 seconds
  read_restart CPU = 2.169 seconds
include 	in.setup
variable	out_freq equal 1000
variable	out_freq2 equal 10000
variable	out_freq3 equal 1000

timestep	2.0

neigh_modify    delay 7 every 1

include		in.tip4p
# This is TIP4P/Ice

# create groups ###
group ox type 2
288 atoms in group ox
group hy type 1
576 atoms in group hy

# set charges - beside manually ###
set group ox charge -1.1794
Setting atom values ...
  288 settings made for charge
set group hy charge 0.5897
Setting atom values ...
  576 settings made for charge

# ### TIP3P Potential Parameters ###
pair_style lj/cut/tip4p/long/omp 2 1 1 1 0.1577 8.5
pair_coeff 1 1*2 0.000 0.000
pair_coeff 2 2 0.21084 3.1668
bond_style  harmonic
bond_coeff  1 450 0.9572
angle_style harmonic
angle_coeff 1 55 104.52
kspace_style pppm/tip4p/omp 1.0e-5
pair_modify tail yes

thermo          ${out_freq}
thermo          1000
thermo_style    custom step temp pe etotal epair emol press lx ly lz vol pxx pyy pzz pxy pxz pyz enthalpy

restart 	${out_freq3} restart.lmp.${pid} restart2.lmp.${pid}
restart 	1000 restart.lmp.${pid} restart2.lmp.${pid}
restart 	1000 restart.lmp.0 restart2.lmp.${pid}
restart 	1000 restart.lmp.0 restart2.lmp.0


include         in.dump
dump            myDump all atom ${out_freq2} dump.water.${pid}
dump            myDump all atom 10000 dump.water.${pid}
dump            myDump all atom 10000 dump.water.0
dump            myDump2 all dcd ${out_freq2} dump.dcd
dump            myDump2 all dcd 10000 dump.dcd
dump_modify     myDump append yes
dump_modify     myDump2 append yes


variable natoms 	equal  "count(all)"                        # NUMBER ATOMS
variable H      	equal  "enthalpy/v_natoms"                 # ENTHALPY-per-atom
variable Vol      	equal  "vol/v_natoms"                 # volume-per-atom
fix AVG all 		ave/time ${out_freq} 1 ${out_freq} v_Vol v_H file vol_enthalpy.dat
fix AVG all 		ave/time 1000 1 ${out_freq} v_Vol v_H file vol_enthalpy.dat
fix AVG all 		ave/time 1000 1 1000 v_Vol v_H file vol_enthalpy.dat


timer           timeout 23:50:00 every 1000
New timer settings: style=normal  mode=nosync  timeout=23:50:00

fix 		1 all shake 1e-6 200 0 b 1 a 1
       0 = # of size 2 clusters
       0 = # of size 3 clusters
       0 = # of size 4 clusters
     288 = # of frozen angles
  find clusters CPU = 0.303 seconds
fix             2 all nph iso ${pressure} ${pressure} ${pressureDamp}
fix             2 all nph iso 3000 ${pressure} ${pressureDamp}
fix             2 all nph iso 3000 3000 ${pressureDamp}
fix             2 all nph iso 3000 3000 1000
fix             3 all temp/csvr ${temperature} ${temperature} ${tempDamp} ${seed}
fix             3 all temp/csvr 229.45 ${temperature} ${tempDamp} ${seed}
fix             3 all temp/csvr 229.45 229.45 ${tempDamp} ${seed}
fix             3 all temp/csvr 229.45 229.45 100 ${seed}
fix             3 all temp/csvr 229.45 229.45 100 745823

run             250000
PPPM initialization ...
  extracting TIP4P info from pair style
  using 12-bit tables for long-range coulomb (../kspace.cpp:340)
  G vector (1/distance) = 0.3734769
  grid = 24 24 25
  stencil order = 5
  estimated absolute RMS force accuracy = 0.0031600318
  estimated relative force accuracy = 9.5163418e-06
  using double precision FFTW3
  3d grid and FFT values/proc = 2730 288
Last active /omp style is kspace_style pppm/tip4p/omp
Neighbor list info ...
  update every 1 steps, delay 7 steps, check yes
  max neighbors/atom: 2000, page size: 100000
  master list distance cutoff = 10.8154
  ghost atom cutoff = 10.8154
  binsize = 5.4077, bins = 4 4 4
  1 neighbor lists, perpetual/occasional/extra = 1 0 0
  (1) pair lj/cut/tip4p/long/omp, perpetual
      attributes: half, newton on, omp
      pair build: half/bin/newton/omp
      stencil: half/bin/3d
      bin: standard
Per MPI rank memory allocation (min/avg/max) = 9.237 | 9.241 | 9.248 Mbytes
Step Temp PotEng TotEng E_pair E_mol Press Lx Ly Lz Volume Pxx Pyy Pzz Pxy Pxz Pyz Enthalpy 
16000000    223.40533   -3951.2422   -3568.3331   -3951.2422            0    3874.7065    17.465042    20.571512     21.30731    7655.3401    3972.2198    2475.3232    5176.5764    1129.9018   -42.823494    1667.9274   -3135.7404 
16001000    233.70483   -4002.2435   -3601.6814   -4002.2435            0    3272.2121    17.456902    20.561925     21.29738    7644.6411    2549.3139    2974.6446    4292.6779   -679.39557    1966.7442    -117.1344   -3236.8649 
16002000    232.72939   -3998.0324   -3599.1422   -3998.0324            0     3800.819    17.494251    20.605916    21.342945    7693.8129    3913.0729    2848.9952    4640.3889   -290.65116   -172.92357   -357.48559   -3172.6661 
16003000    232.71261   -4004.1369   -3605.2754   -4004.1369            0    3454.0922    17.511542    20.626284    21.364041    7716.6497    2366.1233    3846.2484     4149.905    533.04643    992.96937    589.43354   -3216.5539 
16004000     208.9758   -4004.0507   -3645.8733   -4004.0507            0    3313.6372    17.545055    20.665757    21.404926    7761.0374    4174.0926    3125.7517    2641.0672    1054.9391    1505.5678    520.43628   -3270.8134 
16005000     238.9116   -4015.7899   -3606.3036   -4015.7899            0    2315.1058    17.481437    20.590824    21.327312    7676.9195    2399.8622    1739.9471    2805.5082   -1275.8465    322.26245    37.664867   -3347.1043 
16006000    227.40802   -3979.0424   -3589.2728   -3979.0424            0    2330.3302    17.507089    20.621038    21.358607    7710.7635    1587.3588    2191.7058    3211.9258   -973.17537   -1262.0553   -864.17782   -3327.2189 
16007000    227.44179   -3987.8883   -3598.0609   -3987.8883            0    3253.5618    17.510258    20.624771    21.362474    7714.9518    2025.2645    3569.7074    4165.7135   -140.39847    718.95222   -709.05171   -3231.9875 
16008000    231.07238   -3979.6016   -3583.5515   -3979.6016            0    961.17024    17.562159    20.685903    21.425793    7783.7574    518.51504     2448.098   -83.102313    443.98387    1475.8124    -443.1462   -3474.4412 
16009000    252.64742    -3997.849     -3564.82    -3997.849            0    3099.9892    17.535977    20.655065    21.393851    7748.9972    2756.0924    2523.6023     4020.273    19.914179   -581.03594    526.12142   -3214.4866 
16010000    236.44778   -3987.2541   -3581.9906   -3987.2541            0    1959.5344    17.523302    20.640136    21.378388    7732.2066    1532.7465    2464.1896     1881.667     155.9902   -338.78836   -340.45929   -3361.0212 
16011000    233.97953   -3976.5486   -3575.5157   -3976.5486            0    2516.3301    17.441978    20.544346    21.279172    7625.0514    2071.9224    2834.4724    2642.5955    159.91538    1371.5768   -429.80503   -3295.6908 
16012000    238.26201   -3957.5262   -3549.1533   -3957.5262            0     3479.534    17.467291    20.574161    21.310054    7658.2978    3686.1499     4128.104    2624.3481   -1608.7969    583.24268   -703.45283   -3160.5297 
16013000    234.78006   -3959.8668   -3557.4619   -3959.8668            0    2070.9402    17.488964    20.599689    21.336495    7686.8397    1794.4473    1918.0499    2500.3233    324.34599   -482.52071     -1387.82   -3325.2998 
16014000    225.05008   -3993.4391    -3607.711   -3993.4391            0    2209.7075    17.566143    20.690596    21.430653    7789.0559     1392.713    1971.5051    3264.9046   -835.40698    31.347887   -1973.3084   -3356.6984 
16015000    231.94334   -3986.0959    -3588.553   -3986.0959            0    4069.1812    17.458068    20.563298    21.298802    7646.1732    3562.3889    4710.7936    3934.3611    20.148644    1180.1723   -707.57458   -3134.7921 
16016000    240.25703    -4007.706   -3595.9137    -4007.706            0    4833.9349    17.424337    20.523568    21.257651    7601.9391    3672.3298    4530.8484    6298.6266    463.45681    544.34163   -490.60138   -3059.9923 
16017000    230.08446     -3993.84   -3599.4831     -3993.84            0    2853.3529    17.533765    20.652459    21.391152    7746.0649    3307.8875    1704.4722    3547.6991   -411.50344    429.63704    552.49684   -3277.1444 
16018000    219.28242   -3995.4529   -3619.6104   -3995.4529            0    2820.7202    17.495631    20.607542    21.344629    7695.6345      2524.82    2532.3735    3404.9672   -406.45964   -1686.8931    240.25797   -3303.0327 
16019000     233.1028   -3990.9959   -3591.4656   -3990.9959            0    3379.6424    17.519258    20.635372    21.373454    7726.8546    208.76122    4931.4419    4998.7242    622.57338    374.05133   -979.91491   -3210.6197 
16020000    220.52031    -3984.292   -3606.3278    -3984.292            0    2737.5212    17.530152    20.648203    21.386744    7741.2772    1885.5057    3924.3375    2402.7204   -403.86653    4.0964799   -599.02235   -3297.2655 
16021000    226.73614   -3993.0133   -3604.3953   -3993.0133            0    3318.4933    17.444012    20.546742    21.281653    7627.7191    4054.0792    2178.1814    3723.2192    322.27841   -793.79664    1348.8658    -3235.238 
16022000    238.00371   -3991.4036   -3583.4734   -3991.4036            0    4241.8956    17.467557    20.574475    21.310379    7658.6477    3787.8146    3628.2276    5309.6446   -666.82309    1545.6366    1045.3425   -3109.6812 
16023000    219.33053   -3995.9397   -3620.0147   -3995.9397            0    1527.3874    17.566476    20.690988     21.43106    7789.4991    771.01938    1091.2061    2719.9366   -715.09264   -402.21236    190.36689   -3446.5006 
16024000    237.68628   -3953.2738   -3545.8877   -3953.2738            0    2431.0746    17.471863    20.579547    21.315632    7664.3128    2323.1623    1686.1186    3283.9429    156.56712    673.83264   -70.402039   -3274.1516 
16025000    226.67114    -3976.536   -3588.0294    -3976.536            0    2610.7374    17.492834    20.604247    21.341216    7691.9434    2822.3826    2354.1724    2655.6573    789.01811   -1187.4411     869.4674   -3295.1592 
16026000    250.12674   -3974.6137    -3545.905   -3974.6137            0     2421.307    17.576971     20.70335    21.443864    7803.4692    2644.2131    2138.8011    2480.9069   -456.72845   -290.27549   -31.685144   -3270.3467 
16027000    244.08673   -4001.9838   -3583.6275   -4001.9838            0    2899.5202    17.535383    20.654365    21.393126    7748.2097    2212.8682    4338.8159    2146.8765    1755.1508    270.99949   -331.06027   -3255.9826 
16028000    235.66447   -4019.4914   -3615.5706   -4019.4914            0    2995.6362    17.589317    20.717892    21.458926    7819.9239    4688.6635    885.71737    3412.5277    329.20013   -1382.5274   -477.36517   -3273.9316 
16029000    220.93081   -4010.0582   -3631.3903   -4010.0582            0    3061.9699    17.539434    20.659137    21.398069     7753.581    2361.7461    3365.6888    3458.4749   -61.892141    1030.4815    1442.9284   -3285.1488 
16030000    237.52369    -3962.347   -3555.2395    -3962.347            0    4055.6357    17.450618    20.554523    21.289713    7636.3882    5071.5556     2383.187    4712.1647    285.20135     447.9705   -1219.0989   -3103.5678 
16031000    224.55068   -3956.7158   -3571.8437   -3956.7158            0    4642.4663    17.564689    20.688883    21.428879    7787.1218    3914.8669    4757.4382    5255.0939   -89.151328    950.03931   -218.72389   -3044.6118 
16032000    238.48929   -3992.8753   -3584.1128   -3992.8753            0    2404.1193    17.551972    20.673904    21.413365    7770.2203    2423.6204    2431.8829    2356.8545    -243.0094    703.93474    353.04428   -3311.6764 
16033000    224.16322   -3973.4377   -3589.2296   -3973.4377            0    4088.9311    17.474241    20.582348    21.318533    7667.4431    4633.3606    3337.7359    4295.6967    1276.6896    600.36546   -929.01661    -3131.998 
16034000    222.42678   -4005.8898   -3624.6579   -4005.8898            0    2586.7041    17.552352    20.674352    21.413829    7770.7252    1096.8567    2658.2888    4004.9668    188.72723    429.86268   -640.98154   -3331.5118 
16035000    215.78341   -4003.8645   -3634.0191   -4003.8645            0     3362.453    17.514262    20.629487    21.367359    7720.2456     3164.564    3207.0606    3715.7343    103.40235    409.63055    466.37648   -3255.4343 
16036000    227.38073   -4012.2908    -3622.568   -4012.2908            0     2265.342    17.517735    20.633578    21.371595    7724.8388    2602.4269    3207.7107    985.88836   -378.17494    161.16094    35.555975   -3367.3572 
16037000    224.51903   -3961.3421   -3576.5242   -3961.3421            0    2810.3028    17.457512    20.562643    21.298123    7645.4422    3497.0972    2582.2557    2351.5555   -68.407822    419.20047   -852.66329   -3263.1728 
16038000     234.0678   -4003.3705   -3602.1862   -4003.3705            0    2347.2116    17.581476    20.708656    21.449359    7809.4699     1570.022    2757.6378    2713.9752   -762.69983    821.36682   -342.37519    -3334.855 
16039000    238.93894   -4007.1961   -3597.6629   -4007.1961            0    2787.6861     17.59047     20.71925    21.460332    7821.4611    3060.9255    1980.8079    3321.3248   -302.88433    997.30954    1219.5179   -3279.6772 
16040000    235.71541   -4002.7222    -3598.714   -4002.7222            0    2221.8444    17.533224    20.651822    21.390492    7745.3481    2299.0983    1266.0656    3100.3692   -1161.4543   -1095.2995    341.99297    -3347.739 
16041000    217.08876   -3959.5567   -3587.4739   -3959.5567            0    3862.6152    17.513655    20.628773    21.366619    7719.4433    3319.0851     3185.165    5083.5956   -202.89864    811.58825    -12.31126   -3152.6201 
16042000    227.44405    -3985.424   -3595.5927    -3985.424            0    3799.1947    17.590215     20.71895    21.460022    7821.1221    2781.3639    4585.9702      4030.25     -95.6457   -31.717278    461.55379    -3162.245 
16043000     226.5192   -3955.1264   -3566.8802   -3955.1264            0    1787.8829    17.513918    20.629082    21.366939     7719.791    2661.4013    604.46197    2097.7853    712.21751    925.46507    1343.4413    -3365.591 
16044000    227.68646   -3967.2349   -3576.9881   -3967.2349            0    3416.9521    17.465559    20.572121    21.307941    7656.0196    2177.0888    4391.7331    3682.0343   -1412.8032     617.1489    143.23746   -3195.4677 
16045000    224.82108   -4014.9699   -3629.6343   -4014.9699            0     4312.275    17.430291     20.53058    21.264914    7609.7341    4073.3914    4477.8988    4385.5348   -559.33358    846.65089    682.35147   -3151.0573 
16046000    239.00147   -3970.5491   -3560.9087   -3970.5491            0     2792.144    17.498365    20.610763    21.347965    7699.2428    2971.2164    2958.2907     2446.925   -1390.8298    79.581255   -1372.6935   -3247.3912 
16047000    230.39828   -3993.4398    -3598.545   -3993.4398            0    1589.4592    17.530517    20.648633    21.387189    7741.7606    904.74369     1358.323    2505.3108    445.84523    1343.8257    219.76243   -3419.0861 
16048000    227.83515   -3979.1236   -3588.6219   -3979.1236            0    1925.4544    17.608721    20.740747    21.482598     7845.832    829.02608    896.01872    4051.3185   -470.43109    110.94287    -610.4003   -3368.3049 
16049000    239.35701   -3989.4522   -3579.2024   -3989.4522            0    3078.4163    17.617114    20.750633    21.492838    7857.0562    1374.4466    4024.5247    3836.2775    -853.1729    321.75546    459.46401   -3226.4556 
16050000    225.51542   -3991.0566   -3604.5309   -3991.0566            0    4318.5908    17.544259    20.664819    21.403955     7759.981    4728.5471    2972.2713    5254.9538   -25.551197   -547.01935   -191.73703   -3115.7901 
16051000    235.05262   -3981.8049   -3578.9328   -3981.8049            0    1522.3404    17.645577    20.784159    21.527563    7895.2011    2775.3144    654.78814    1136.9187   -116.26986    387.81995   -158.35674   -3403.6453 
16052000    230.76633   -4010.9338   -3615.4082   -4010.9338            0    3008.8118    17.590707    20.719529    21.460621    7821.7774    2112.1621    4990.1432      1924.13    1368.8455    697.74207   -593.61299   -3272.1852 
16053000    236.71007    -4022.396    -3616.683    -4022.396            0    4400.0477    17.473047    20.580941    21.317077    7665.8713    4081.3212    6295.4665    2823.3554    131.99378    472.10795   -774.23262   -3124.7627 
16054000    238.41698   -3992.1549   -3583.5164   -3992.1549            0    3696.1912    17.441112    20.543326    21.278116    7623.9161    3084.5324    3614.3009    4389.7403   -709.48875   -805.80996    411.24997    -3172.548 
16055000    229.58176   -4004.3761   -3610.8808   -4004.3761            0    3694.5136    17.432748    20.533475    21.267912    7612.9533     4346.896    3618.2036    3118.4411    -752.5572   -1090.5347    1200.1871   -3200.6897 
16056000    236.03143   -3981.9379   -3577.3882   -3981.9379            0    2411.8295    17.540502    20.660395    21.399372    7754.9975    4415.8336    857.00906    1962.6458   -2.7532114   -1516.6264    1944.3327   -3304.6134 
16057000    231.10576    -4012.684   -3616.5766    -4012.684            0     3591.083     17.45969    20.565209    21.300781    7648.3049    3646.5684    6016.7652    1109.9154    493.47823   -934.37984   -48.825563   -3216.0176 
16058000    227.12845   -3995.2095   -3605.9192   -3995.2095            0     4484.123    17.424862    20.524186    21.258291    7602.6262    3659.3044    5381.7624    4411.3022   -743.46652     559.8929    786.15057   -3108.7353 
16059000     236.5139   -4019.2141   -3613.8373   -4019.2141            0    3046.8569    17.427253    20.527002    21.261207    7605.7556    2375.2257    3311.8547    3453.4902    31.101552    374.47831    590.59901   -3275.8735 
16060000    221.01166   -4022.4566   -3643.6502   -4022.4566            0    2960.5522    17.436594    20.538005    21.272604     7617.993    4072.6307    3740.2642    1068.7618   -1432.3112    658.44876   -1162.5945    -3314.731 
16061000    216.58952   -3974.5902   -3603.3631   -3974.5902            0    2230.1396    17.577726     20.70424    21.444785    7804.4748      3166.24     2677.081    847.09775    1265.3859    491.81344    500.09919   -3349.5281 
16062000    225.86866   -3983.9013   -3596.7701   -3983.9013            0    1742.0602    17.534613    20.653458    21.392186    7747.1884    560.22788    2512.9414    2153.0114    858.51876   -1053.4597    955.95408   -3399.9438 
16063000    240.53127   -3982.4411   -3570.1787   -3982.4411            0    2806.6144    17.475661    20.584021    21.320266    7669.3128    2426.2834     3050.412    2943.1479     1887.287    -163.6362    1006.5122   -3256.2615 
16064000    233.48383   -3989.0662   -3588.8829   -3989.0662            0    3978.6509    17.468123    20.575142     21.31107    7659.3926    3697.4883    4753.7137    3484.7508    1589.0141   -1769.8621    792.73652   -3144.4502 
16065000    230.78571   -4021.2986   -3625.7398   -4021.2986            0    4243.3525    17.415759    20.513464    21.247186    7590.7175    4304.8767    4347.6714    4077.5095    518.16926    2128.4082   -1249.4988   -3155.9887 
16066000    252.45641   -4013.1359   -3580.4343   -4013.1359            0    2935.5753    17.555873    20.678499    21.418124    7775.4025    2276.9605    3351.3982    3178.3673    415.78555    1412.1003   -108.11643    -3247.551 
16067000    219.36714    -4029.632   -3653.6442    -4029.632            0    3583.3151    17.491935    20.603189     21.34012    7690.7585    3816.2632     4056.852      2876.83    455.05158    1356.4775   -1128.0059    -3251.733 
16068000    234.51424   -4012.7833   -3610.8339   -4012.7833            0    4012.5569    17.446267    20.549398    21.284405    7630.6783    4221.3416    5998.9263    1817.4028    177.75204   -334.11986      8.54483    -3164.294 
16069000    229.33169   -4049.3918   -3656.3251   -4049.3918            0    2865.7381    17.481024    20.590338    21.326809    7676.3757    2947.0208    3770.5611    1879.6323   -28.651346   -487.59633   -582.09149   -3335.4998 
16070000    222.07192   -3989.0969   -3608.4732   -3989.0969            0    2754.0478     17.48284    20.592476    21.329024    7678.7682    3363.1482    2169.1614    2729.8339    964.34119   -113.59985   -759.92456   -3300.0558 
16071000    229.44473   -4003.3961   -3610.1357   -4003.3961            0    3584.3972    17.458303    20.563575    21.299089    7646.4819    3423.5643    3843.8344    3485.7928    695.11495    736.98361     762.8953   -3210.4177 
16072000     246.3881   -3970.3668    -3548.066   -3970.3668            0    3460.8641    17.469669    20.576963    21.312956    7661.4266    2392.3786    2930.3651    5059.8485   -410.56207    1136.2677   -427.51997   -3161.3697 
16073000    209.42336   -4012.0918   -3653.1473   -4012.0918            0    3000.7936     17.46695     20.57376    21.309638    7657.8494    3410.6308    2801.5386    2790.2115    354.76674    1105.0852   -184.94352   -3318.0131 
16074000    238.99151   -4006.4309   -3596.8076   -4006.4309            0    4010.3932    17.447933     20.55136    21.286437    7632.8639    5225.7659    4105.6461    2699.7677     57.05327   -702.79724    1220.6146   -3150.3807 
16075000    232.56056    -3992.492   -3593.8912    -3992.492            0    2722.7457    17.431039    20.531462    21.265827    7610.7145    2376.9062    3708.8463    2082.4846    8.7033755     637.1563   -631.67723   -3291.6814 
16076000    226.14478   -4003.8973   -3616.2929   -4003.8973            0    4278.3669      17.4992    20.611746    21.348983    7700.3444    4931.8468    4201.6766    3701.5774    1184.8693    44.910275    599.05771   -3135.8254 
16077000    233.21635   -4026.2636   -3626.5387   -4026.2636            0    3846.1232    17.544906    20.665582    21.404744    7760.8397    4039.1763    4777.6049    2721.5883    1647.5941    524.28444    213.48538   -3191.2196 
16078000    237.30182   -3983.0654   -3576.3382   -3983.0654            0    2624.3006    17.557663    20.680608    21.420308    7777.7811    4898.0156     1801.117    1173.7692    901.36849     756.7677     859.5749   -3278.6612 
16079000    229.82927   -4020.9641   -3627.0446   -4020.9641            0    3351.3012    17.587845    20.716158    21.457129    7817.9601    4695.9989    2804.4166     2553.488   -61.054529   -656.86363    696.43709   -3244.9395 
16080000    250.88528   -4005.9372   -3575.9284   -4005.9372            0    2440.4326    17.621079    20.755304    21.497675     7862.363    2551.4066    2025.8731    2744.0179    -253.4181   -77.585889    887.79636   -3296.0974 
16081000    222.09365   -4009.0133   -3628.3524   -4009.0133            0    3503.5901    17.599961     20.73043    21.471912    7834.1291    3952.4278    3502.0625    3056.2798    38.111397   -932.84233    2180.8704   -3228.0577 
16082000    223.67218   -4034.0296   -3650.6632   -4034.0296            0    3259.2114    17.610362    20.742681    21.484601    7848.0265    3814.3012    2758.4704    3204.8626    553.07349   -29.879342    180.43261   -3277.6288 
16083000    220.36422   -4025.6457    -3647.949   -4025.6457            0    3632.6721    17.605351    20.736778    21.478487    7841.3283    4928.9495    2763.3891    3205.6777    949.02343     982.9715   -921.57176   -3232.5249 
16084000    237.22043   -3992.1277     -3585.54   -3992.1277            0    2796.0964    17.566333     20.69082    21.430886    7789.3092    2042.0619    3002.0149    3344.2124    286.70556     -1399.74    465.49418    -3267.906 
16085000    232.75795   -4043.0489   -3644.1098   -4043.0489            0    1299.4391    17.640569     20.77826    21.521453    7888.4808    1521.3725    1709.9866    666.95824    98.287399   -697.41893   -668.88698   -3494.6153 
16086000    223.87617   -4030.9213   -3647.2052   -4030.9213            0    3650.0207    17.624415    20.759233    21.501745    7866.8292    4150.8711    1898.9488     4900.242    804.04051    495.50041    1230.7133   -3228.4396 
16087000    225.65505   -4052.2073   -3665.4423   -4052.2073            0    3447.4853    17.585554    20.713459    21.454334    7814.9055    3028.0201    3345.7796    3968.6562    364.32073    460.13555    1485.9761   -3272.5242 
16088000    241.35919   -4025.9469   -3612.2655   -4025.9469            0     3290.235    17.622001    20.756389      21.4988     7863.597    3489.2858    3711.6667    2669.7526    279.40948    525.68044    12.417359   -3234.9331 
16089000    228.30291   -4063.1242   -3671.8208   -4063.1242            0    3027.4786    17.632717    20.769011    21.511873     7877.951    1601.8434     3992.043    3488.5494   -1909.5227   -215.13228    1211.7761   -3323.9882 
16090000    222.68318   -4026.1819   -3644.5106   -4026.1819            0    3488.4338     17.60018    20.730688    21.472179    7834.4215    5863.9147    2365.0601    2236.3265    -718.6932     1098.559   -424.40468   -3245.9326 
16091000    215.32338    -4033.245   -3664.1881    -4033.245            0    3095.9186     17.54914    20.670569     21.40991    7766.4602    3084.2745    2502.5248    3700.9566    202.90032    152.64141   -330.22769   -3313.5262 
16092000    231.73014   -4019.0964   -3621.9189   -4019.0964            0    2478.8151    17.643103    20.781245    21.524545    7891.8807    3279.0114    3257.5655    899.86831   -1006.3783   -1426.7558   -714.56958   -3336.6197 
16093000    216.89041    -4020.625   -3648.8823    -4020.625            0    3105.4912    17.578437    20.705077    21.445653     7805.422    2734.7993     3419.812    3161.8622   -1153.9597   -239.46712   -362.80905   -3295.3715 
16094000    232.13604   -4034.1249   -3636.2517   -4034.1249            0    2648.7734    17.591566    20.720541    21.461669    7822.9232    2148.4853    3899.6501    1898.1847   -371.27476    760.02609   -510.75858    -3334.055 
16095000    220.44674   -4013.3287   -3635.4906   -4013.3287            0    3147.4292    17.570967    20.696278    21.436539    7795.4749    2550.2728    3234.9951    3657.0198    1392.7492    -20.16231    346.13748   -3277.6625 
16096000    240.57549   -4020.3678   -3608.0297   -4020.3678            0    3410.7546    17.543019    20.663359    21.402442    7758.3356    2798.6684    3798.8755    3634.7198    826.57767    2071.1552   -1147.1619   -3222.1118 
16097000    233.58616   -4016.3658   -3616.0071   -4016.3658            0    2627.8632    17.536559     20.65575    21.394561    7749.7688    2319.2852    2556.7367    3007.5678    988.55614    321.92102    378.22888   -3318.9996 
16098000    222.58837   -4026.5967   -3645.0878   -4026.5967            0    1896.1824    17.567282    20.691937    21.432043    7790.5708    1346.2103    1842.6996    2499.6373   -647.17888   -696.86684    537.29409   -3429.6483 
16099000     236.2663   -4026.5548   -3621.6025   -4026.5548            0    2963.0194    17.565991    20.690417    21.430468    7788.8539    3309.4597    2055.9234    3523.6752   -320.07586   -13.164912   -110.69927   -3285.0259 
16100000    245.07107   -4039.7555   -3619.7121   -4039.7555            0    5219.9747    17.485792    20.595953    21.332626    7682.6584    5701.0106    5090.7327    4868.1807   -568.80769   -871.66405    44.688907   -3034.8469 
16101000    232.75479   -4048.0271   -3649.0934   -4048.0271            0     2136.381    17.567428     20.69211    21.432221    7790.7655      3688.31    556.05237    2164.7807   -864.99783   -854.51082   -314.68537   -3406.3571 
16102000    234.17023   -3991.2469   -3589.8871   -3991.2469            0    2972.0886    17.555841    20.678461    21.418085    7775.3597    3207.5439    1598.4718      4110.25   -964.05766    1296.7859    -1271.913   -3252.8652 
16103000    233.76729   -3994.9115   -3594.2424   -3994.9115            0    625.85368    17.592064    20.721128    21.462277    7823.5885    1693.7035   -63.747356    247.60492   -627.46748   -149.21874   -1221.3613   -3522.8331 
16104000    226.59329    -3989.741   -3601.3678    -3989.741            0    1545.4927     17.59627    20.726082    21.467409    7829.2016    268.25141    2345.9394    2022.2872   -203.79669     650.3746    437.08915   -3424.9021 
16105000    236.96591   -3981.4231   -3575.2716   -3981.4231            0    2793.7911    17.582197    20.709506     21.45024    7810.4316    3049.5384    2507.0753    2824.7598   -280.02995   -224.55208    631.10815   -3257.0389 
16106000    221.10862   -4003.1508   -3624.1781   -4003.1508            0    2773.5272    17.587931    20.716259    21.457234    7818.0747    2981.2506    2416.8548    2922.4763   -267.99347    58.162888     154.8804   -3307.9445 
16107000    226.87058   -4014.6102   -3625.7618   -4014.6102            0     3254.769    17.545879    20.666728    21.405931    7762.1308     4812.434    1797.8696    3154.0034    620.19955    822.51655   -477.36808   -3257.3131 
16108000    227.08258   -4000.2728    -3611.061   -4000.2728            0    2684.9791    17.546879    20.667905    21.407151    7763.4578    2222.1849    2578.3863    3254.3662   -90.882696    920.86631   -364.73202   -3307.0621 
16109000    223.68427   -3998.7637   -3615.3765   -3998.7637            0    2112.2872    17.579278    20.706067    21.446678    7806.5416    1911.2565    1977.1099    2448.4952    819.19759     939.7422    674.90507   -3374.8918 
16110000    222.81105   -4002.4796   -3620.5891   -4002.4796            0    3224.2384     17.51611    20.631664    21.369614    7722.6899    3718.0436    3428.9573    2525.7143   -231.46482    1133.8755    816.10929   -3257.4511 
16111000    233.87989   -4000.2101    -3599.348   -4000.2101            0     1601.329    17.618896    20.752732    21.495012    7859.4414    803.63895    1806.3197    2194.0283    212.44594    411.34357   -316.08184   -3415.8007 
16112000    237.39298   -4017.8238   -3610.9404   -4017.8238            0    1626.1536     17.55128     20.67309    21.412521    7769.3016    1059.5249    1504.9114    2314.0245   -782.27299    662.82266   -472.04832   -3426.6853 
16113000    223.84877   -4000.4785   -3616.8094   -4000.4785            0    3744.7405    17.493326    20.604827    21.341817     7692.593    4986.9502     3972.687    2274.5844     11.89597   -61.245023   -1267.7103   -3196.6923 
16114000    228.85071   -3958.6511   -3566.4089   -3958.6511            0    1683.8272    17.558463     20.68155    21.421283    7778.8439    1449.8992    2119.2247    1482.3576    651.09099    1663.3386      455.886   -3375.3846 
16115000    238.47687   -4007.0855   -3598.3443   -4007.0855            0    2188.8878    17.528182    20.645883    21.384341    7738.6682    1566.5255    2937.9508    2062.1871    495.24885    193.25872    20.111099   -3351.3052 
16116000    235.10567   -4036.1102   -3633.1471   -4036.1102            0    3781.9757    17.492784     20.60419    21.341156    7691.8787    3607.8806    4425.0267    3313.0197   -38.471327    788.86367   -875.93869   -3208.8921 
16117000    221.51477   -4028.5124   -3648.8436   -4028.5124            0     1239.138    17.553667    20.675901    21.415433    7772.4718    655.50659    560.56341    2501.3441    989.91585   -896.03265    616.88982    -3508.383 
16118000    221.64557   -4008.5151   -3628.6222   -4008.5151            0    3961.8984    17.533891    20.652608    21.391306    7746.2321    4232.6092    4323.9181     3329.168    749.84996   -1016.3392   -677.29405   -3181.0431 
16119000    223.70994   -3985.4319   -3602.0007   -3985.4319            0    2686.9835    17.552304    20.674296     21.41377    7770.6613    4753.5541    1551.6075     1755.789   -962.90331    299.81066    240.66642   -3297.4926 
16120000    220.18659   -4007.5219   -3630.1297   -4007.5219            0    2510.8066    17.631176    20.767196    21.509993     7875.886    2146.3106    3542.2543     1843.855    28.009518   -308.01765    1025.9216   -3341.7341 
16121000    217.12769   -3994.6816   -3622.5321   -3994.6816            0    2772.5668    17.545307    20.666054    21.405233    7761.3715     3369.684     2894.162    2053.8545   -647.63326   -329.29286   0.38245541   -3308.7007 
16122000    241.16406   -4000.8693   -3587.5224   -4000.8693            0    3111.8054    17.529012    20.646861    21.385354    7739.7671    4577.9231    971.49107     3786.002    220.33867    390.85138   -644.31271   -3236.2725 
16123000    221.93699   -4010.2735   -3629.8812   -4010.2735            0     3205.869    17.550861    20.672596     21.41201    7768.7453    1636.8234    2625.0574    5355.7263   -1237.2205    -962.7484   -346.34251   -3266.6588 
16124000    239.23224   -4012.6196   -3602.5838   -4012.6196            0    2240.3681     17.61122    20.743691    21.485648    7849.1736    2085.4742    1788.0346    2847.5955    271.52851   -228.13121   -731.02322    -3346.124 
16125000    234.97172    -3982.707   -3579.9735    -3982.707            0    4066.7701    17.542468    20.662711    21.401771    7757.6057     3530.114    3519.5647    5150.6317    1372.9494   -345.88431    329.35009   -3119.8724 
16126000    226.55366   -3986.5939   -3598.2887   -3986.5939            0    3342.9671     17.52882    20.646635     21.38512    7739.5136    3675.7749    4843.7868    1509.3395   -321.33597    166.45285    679.19118   -3220.9584 
16127000     225.9388   -3987.5847   -3600.3333   -3987.5847            0    3972.0736    17.573311    20.699039    21.439398    7798.5945    4086.3808    2541.4188    5288.4213   -96.453197    1021.8847    765.47351   -3148.5715 
16128000    230.51703   -3987.2856   -3592.1873   -3987.2856            0    3388.9744    17.571441    20.696836    21.437117    7796.1056    3564.3699    5139.7452    1462.8083   -709.54258    371.52517   -860.50481    -3206.867 
16129000    222.52985   -3958.8858   -3577.4772   -3958.8858            0    2844.2436    17.594099    20.723525     21.46476    7826.3036     1903.314    3604.1186    3025.2982   -763.58093   -629.31982   -466.42682   -3252.8392 
16130000    221.64077   -4006.1976   -3626.3129   -4006.1976            0    1719.5361    17.607045    20.738773    21.480554    7843.5925   -93.498751    3734.2131    1517.8939   -1082.2878    194.61626   -1363.8654   -3429.6139 
16131000    229.37486   -4020.6112   -3627.4706   -4020.6112            0    2179.6463    17.533738    20.652428     21.39112    7746.0294    1937.3595    1583.1962    3018.3833   -13.959515    1431.5183   -10.615474   -3381.2405 
16132000    234.36026   -3973.2528   -3571.5673   -3973.2528            0    1469.4117    17.526992    20.644481    21.382889    7737.0919    810.19255    2129.5263    1468.5163   -554.65113   -1225.4295   -26.739563   -3405.7625 
16133000    222.59422   -3990.9687   -3609.4499   -3990.9687            0    2734.1997    17.561569    20.685208    21.425073    7782.9726    1977.0598    2986.3027    3239.2367    94.420877    132.43358   -204.57983   -3299.0999 
16134000    223.17791   -4017.4866   -3634.9673   -4017.4866            0    1892.1156    17.713362    20.864001    21.610261    7986.5388     1916.334    1843.1396    1916.8731   -53.443414    108.89608    109.99354   -3414.5822 
16135000    223.38589   -4016.4206   -3633.5448   -4016.4206            0    1487.3399    17.591537    20.720507    21.461635    7822.8856    2759.8653    353.46295    1348.6914    102.19382     211.0779   -938.94218    -3463.856 
16136000    233.68649   -3994.0875   -3593.5568   -3994.0875            0    4362.5949    17.561136    20.684699    21.424545    7782.3979    4544.4774    3933.5936    4609.7136    109.37187    599.24196   -322.81809   -3098.4098 
16137000    230.28919   -4014.5687   -3619.8609   -4014.5687            0    3564.6119    17.522694    20.639419    21.377646    7731.4013    5298.9928    2329.3667    3065.4763    718.09777     97.43528   -97.188324   -3217.9346 
16138000    238.63245    -4011.901   -3602.8931    -4011.901            0    3121.7442    17.586521    20.714599    21.455515    7816.1952    4096.0791    1352.6038    3916.5497    1392.5221    772.52854    519.59703   -3247.0418 
16139000    223.35541   -4027.3925    -3644.569   -4027.3925            0     4883.726    17.524506    20.641554    21.379857    7733.8007    3836.0559    4869.7943    5945.3279    1003.3037    178.23451    -64.96744   -3093.7357 
16140000    231.13051   -4004.2849   -3608.1351   -4004.2849            0    3881.7941     17.59928    20.729628    21.471081    7833.2198    5069.6208    3048.6904     3527.071   -652.30212    1327.5441   -120.97529    -3164.681 
16141000    223.71551   -4017.3903   -3633.9496   -4017.3903            0    901.50042    17.601671    20.732444    21.473998    7836.4126    333.70049    1041.7209    1329.0799   -310.60955   -902.84272   -329.34544   -3530.9207 
16142000    225.56876   -4000.2103   -3613.5932   -4000.2103            0    2841.7274    17.604738    20.736056    21.477739    7840.5091    2528.4016    3397.0628     2599.718   -885.58521    66.420563   -25.009774   -3288.6536 
16143000    222.17616   -3989.7104    -3608.908   -3989.7104            0    2460.2346    17.558604    20.681716    21.421456     7779.032    3700.1911    813.10742    2867.4052   -387.07168    788.24446    18.013759   -3329.7964 
16144000    230.76923   -3997.4832   -3601.9527   -3997.4832            0    1477.8746    17.518018    20.633912    21.371941     7725.214   -349.14234    3746.1493    1036.6167    35.837334   -221.22113   -427.62061    -3435.449 
16145000    231.10778   -3969.7304   -3573.6196   -3969.7304            0    2628.4104    17.603162      20.7342    21.475817    7838.4046    4660.8954    796.80215    2427.5337   -1468.0494    60.113147   -760.50697   -3273.1526 
16146000    225.73873   -4002.0559   -3615.1475   -4002.0559            0    2840.8521    17.556866     20.67967    21.419336    7776.7225    2361.0194    3142.2654    3019.2715    779.85797     107.0722   -294.87034   -3292.9508 
16147000    219.27939   -3987.9253    -3612.088   -3987.9253            0    3579.5233    17.522382    20.639051    21.377265    7730.9879     5204.402    3086.4507    2447.7173   -706.08993    738.34967    839.14919    -3208.502 
16148000     227.5241   -4006.2553   -3616.2868   -4006.2553            0     2280.697    17.474438    20.582579    21.318773    7667.7017    871.59113    4074.6544    1895.8454    193.05778   -550.20765   -217.99143   -3361.2466 
16149000     244.7048   -3972.2456   -3552.8299   -3972.2456            0    2014.2684    17.504971    20.618544    21.356024     7707.966    1180.3841    2357.0364    2505.3848    408.66644    471.27552   -526.06047   -3326.4004 
16150000    211.63596   -3965.1016   -3602.3648   -3965.1016            0    2012.9863    17.529412    20.647331    21.385841    7740.2967    2452.4578    2799.8455    786.65543   -979.04837   -7.6619551    494.93456   -3375.1302 
16151000    236.42998   -3986.3369    -3581.104   -3986.3369            0    4247.2217    17.525616     20.64286     21.38121    7735.2692     3674.698    5031.5868    4035.3803    173.24889    348.17165     248.5332   -3101.9708 
16152000    216.45616   -3993.3512   -3622.3528   -3993.3512            0     520.0666    17.625655    20.760693    21.503258    7868.4897    776.80136   -477.09236    1260.4908    742.49512    498.81725    328.43876   -3562.6731 
16153000    219.12783   -3966.2069   -3590.6293   -3966.2069            0    2596.9209    17.521833    20.638405    21.376595    7730.2616    4503.4652    559.29737    2728.0002   -695.82263    405.63151    796.69909   -3297.8578 
16154000    222.12695   -3976.5504   -3595.8324   -3976.5504            0    2461.3193    17.605416    20.736855    21.478566    7841.4154     2183.799    2203.7458    2996.4131   -887.36939    185.41646   -358.23308   -3314.3584 
16155000    229.73916   -3983.9659   -3590.2008   -3983.9659            0    3679.3939    17.463894    20.570161     21.30591    7653.8309    4750.7112    2302.9099    3984.5606   -1546.4902     154.6566    495.01146   -3179.4949 
16156000    212.40545   -3988.6755   -3624.6198   -3988.6755            0    3724.3925    17.486249    20.596491    21.333183    7683.2602    4663.5821    3375.4157    3134.1799   -616.49164    262.60049   -426.34074   -3207.2924 
16157000    225.29954   -3997.4624   -3611.3067   -3997.4624            0    3472.7103    17.527912    20.645565    21.384012    7738.3107    3683.4671    1882.3156    4852.3481   -1023.1032   -649.16148   -200.49824   -3219.3929 
16158000    233.12968   -4010.1484   -3610.5721   -4010.1484            0    3115.4208    17.553856    20.676124    21.415664    7772.7235    3960.0326    1660.7923    3725.4376    -154.0577   -1407.0908   -23.125303   -3257.4167 
16159000    234.01966   -4016.2233   -3615.1216   -4016.2233            0    3397.4923    17.526232    20.643586    21.381962    7736.0856    3637.1609    3758.3953    2796.9207   -1041.7258   -1008.5656    684.68639   -3231.8067 
16160000    234.01792   -3982.4344   -3581.3357   -3982.4344            0    2820.7033    17.585012    20.712821    21.453673    7814.1833    3500.5321    2048.3933    2913.1845   -406.42297    778.19688   -228.70084   -3259.8831 
16161000    223.49007   -4020.6652   -3637.6109   -4020.6652            0    2962.2656    17.528134    20.645826    21.384282    7738.6038    1286.7997    3309.1854    4290.8118   -275.62731    79.135372    -157.3951   -3303.2908 
16162000    225.35764   -4004.8418   -3618.5865   -4004.8418            0      1922.16    17.581453     20.70863    21.449332    7809.4404    1368.5386    2317.3473     2080.594    813.81929    49.589674    422.69322   -3399.6666 
16163000    223.48208   -3989.3829   -3606.3422   -3989.3829            0    3061.2614    17.580211    20.707166    21.447816     7807.785    3181.2076    2402.4161    3600.1606    1218.4691    1110.9758    305.95989   -3257.7609 
16164000    222.20161    -4005.802   -3624.9561    -4005.802            0     2663.933    17.580344    20.707324    21.447979    7807.9627    2056.8611    3842.5598    2092.3781   -262.51067    510.48569    -1496.078    -3321.611 
16165000    227.70581   -3991.8138   -3601.5338   -3991.8138            0    3106.9245      17.5247    20.641782    21.380093    7734.0571    3222.7155    2489.3653    3608.6928   -865.33166    -728.1713    957.69014   -3251.0936 
16166000    231.87567   -3975.6686   -3578.2416   -3975.6686            0    3361.6033    17.527484    20.645061    21.383489    7737.7432    3040.9921      4562.78    2481.0377   -1730.3907    -803.3956   -177.02934   -3198.8946 
16167000    215.49646   -4001.4524   -3632.0988   -4001.4524            0    2882.6648    17.544448    20.665043    21.404186    7760.2327    3772.1165    2542.0622    2333.8157    265.57146    1121.1588   -305.36396   -3305.8531 
16168000    236.65245   -3981.6257   -3576.0115   -3981.6257            0    3235.6971    17.523987    20.640942    21.379223    7733.1127     1676.735    4315.2616    3715.0948   -478.59788   -870.40944     506.8428   -3211.0912 
16169000    231.51971   -3962.4494   -3565.6325   -3962.4494            0    2788.5865     17.58961    20.718237    21.459283    7820.3144    3185.8951    2864.0389    2315.8254   -220.53874   -774.37669    647.18907   -3247.5907 
16170000    227.76875    -3991.326   -3600.9382    -3991.326            0    4604.2028    17.484267    20.594157    21.330764    7680.6477    5083.1491    4450.2389    4279.2206     57.25161    -770.9974   -593.14818   -3085.2013 
16171000    219.37388   -3983.5555   -3607.5562   -3983.5555            0    3117.4477    17.501593    20.614565    21.351903    7703.5044    3993.3255    2630.6282    2728.3893   -2439.6747   -1804.2026    228.29011   -3257.3181 
16172000    238.79264   -4022.5249   -3613.2425   -4022.5249            0    3195.0945    17.494844    20.606615    21.343669    7694.5956    2979.1401    4403.7764    2202.3671    335.04878    120.15802   -634.83542   -3254.6961 
16173000    225.14654   -3998.0074    -3612.114   -3998.0074            0    2653.1725    17.508066    20.622189      21.3598    7712.0551    4021.9082    1536.2107    2401.3988    1151.3153   -14.465283    291.66622   -3313.7052 
16174000    222.15966   -3995.0564   -3614.2824   -3995.0564            0    3474.8742    17.573939    20.699779    21.440165    7799.4318    3578.5026      4001.38    2844.7401   -421.60921    981.13723    -412.5602   -3219.0269 
16175000    229.80098   -3971.9561    -3578.085   -3971.9561            0    4035.9874    17.524156    20.641142     21.37943    7733.3374    3800.1587    3482.2572    4825.5464   -1377.0108    166.60386   -1515.8756   -3122.8951 
16176000    227.03907   -4001.0726   -3611.9354   -4001.0726            0    2769.5475    17.517915     20.63379    21.371815     7725.077    1955.4779    3170.1815    3182.9832   -1031.1145    75.046061    -700.2796   -3299.9117 
16177000    232.58789   -3974.3466    -3575.699   -3974.3466            0    3645.3008    17.538571    20.658119    21.397015    7752.4357    3197.1377    3854.6331    3884.1316    -1627.043    278.43497   -1019.8479   -3163.5564 
16178000    243.90149   -4000.8268   -3582.7879   -4000.8268            0     2984.478     17.49598    20.607954    21.345055    7696.0954    2724.4067    3465.8423     2763.185   -447.03812   -890.78798   -483.87278   -3247.8112 
16179000    238.65347   -4003.2817   -3594.2378   -4003.2817            0    2313.1607    17.467032    20.573856    21.309738    7657.9567    2286.5134    2784.4249    1868.5439   -398.76152    1275.6541   -389.32949    -3335.896 
16180000    222.10292    -3969.843   -3589.1662    -3969.843            0    3644.1494    17.427724    20.527557    21.261782    7606.3728    4975.7728    3388.3611    2568.3143   -382.39083   -598.51132   -1223.0557   -3184.9165 
16181000    235.14875   -3970.3175   -3567.2806   -3970.3175            0    2817.0073    17.503211    20.616471    21.353877    7705.6414     2507.873    2068.1314    3875.0175   -1592.4733   -1494.3342    170.51751   -3250.7085 
16182000    238.06639   -3959.8496   -3551.8119   -3959.8496            0    3660.4132    17.510958    20.625595    21.363327    7715.8766    4239.2054    3695.2802     3046.754    417.42108    -1000.574    788.17333   -3139.9124 
16183000    215.09256   -3964.1155   -3595.4542   -3964.1155            0    2824.7325    17.596981    20.726919    21.468276    7830.1499    3016.2356     3740.727     1717.235    1120.2253    1076.0906    368.90447   -3272.8847 
16184000    230.06296   -3975.1034   -3580.7834   -3975.1034            0    3103.7118    17.512854    20.627829    21.365641    7718.3843    3347.3977     3061.032    2902.7057    723.82416    274.25848    179.93495   -3231.4149 
16185000    228.25063   -3964.6416   -3573.4278   -3964.6416            0    4841.3538    17.509429    20.623795    21.361463    7713.8566     6626.774     4264.561    3632.7265   -880.51985      871.222    1175.8101   -3028.7819 
16186000    231.44317   -3955.1826   -3558.4969   -3955.1826            0     1792.928    17.648842    20.788004    21.531546    7899.5839    2581.7063    1249.3618    1547.7161   -350.48209   -243.08461    2029.9715   -3351.9385 
16187000    215.95042   -3972.8408   -3602.7092   -3972.8408            0    5133.4621    17.466897    20.573697    21.309573    7657.7791    4501.4317    4999.4342    5899.5203    113.55439    148.32495    1240.3398   -3029.3998 
16188000    234.33298   -3962.4869   -3560.8482   -3962.4869            0    3560.3726    17.521468    20.637975     21.37615    7729.7789    3094.8629    3255.0057    4331.2492    155.55101   -1931.4322    660.39184   -3159.4842 
16189000    229.42831   -3992.3406   -3599.1084   -3992.3406            0    2066.1825    17.419952    20.518402    21.252301    7596.2009    863.49727    1177.3929    4157.6574   -599.50366   -98.556608   -344.24323   -3370.2109 
16190000    245.74762   -3982.5522   -3561.3492   -3982.5522            0    2921.1569    17.485343    20.595425    21.332078    7682.0669    3513.1355    3687.5977    1562.7374   -165.84199    205.47479    466.95664   -3234.0772 
16191000    229.90326   -3986.8624   -3592.8161   -3986.8624            0     4414.413     17.51127    20.625963    21.363709    7716.2898    4081.4257    5008.1953    4153.6182   -453.94593    554.91268    -914.2034   -3096.0438 
16192000    221.21375   -3962.5891   -3583.4363   -3962.5891            0     4617.149    17.503355     20.61664    21.354052    7705.8312    4592.9328    3606.9601     5651.554   -105.90385     1288.875   -290.43914   -3064.5535 
16193000    223.62614    -3978.008   -3594.7205    -3978.008            0    2481.9396     17.58472    20.712477    21.453317    7813.7941    2614.0056    1903.6009    2928.2123   -177.65738   -643.71815   -203.91708   -3311.8881 
16194000    226.70771   -3971.1327   -3582.5634   -3971.1327            0    2551.6426    17.541489    20.661557    21.400576    7756.3066    2161.2123     2394.782    3098.9334    177.22213    152.48016    597.21226   -3293.9273 
16195000    231.96283   -4009.4797   -3611.9034   -4009.4797            0    2921.2297    17.534792    20.653669    21.392406    7747.4267    3277.6149    2527.2961    2958.7781    -1106.611     985.4304   -723.32197   -3281.8387 
16196000    225.41698   -3993.5911   -3607.2341   -3993.5911            0     4172.791    17.556829    20.679626    21.419291     7776.673    2070.0307    3956.7629    6491.5795   -40.852443   -372.66092   -582.71828   -3133.9779 
16197000     216.1087   -3987.5846   -3617.1817   -3987.5846            0    3215.9607    17.548799    20.670167    21.409494    7766.0071    1549.0761    2563.1525    5535.6534    1523.7385    1218.4872   -449.06128   -3252.9444 
16198000    236.02735    -4020.596   -3616.0532    -4020.596            0     2250.924    17.515782    20.631278    21.369213    7722.2558    3201.8812     1348.482    2202.4088   -665.29574    793.64299   -1615.6531   -3362.5515 
16199000     236.5721   -4000.0356   -3594.5592   -4000.0356            0     3432.714      17.5339    20.652618    21.391317    7746.2433    2332.5291     3472.985     4492.628    1514.1779   -101.84157   -331.69988    -3206.762 
16200000     233.0394   -4017.2283   -3617.8067   -4017.2283            0    3625.7086    17.462163    20.568121    21.303798    7651.5547    3531.7375    3283.6331    4061.7553   -28.097615   -468.60235    1243.3088   -3213.2136 
16201000    226.63467   -4010.2757   -3621.8317   -4010.2757            0    3596.0697    17.581205    20.708338    21.449029    7809.1097    2497.8303    3631.9728     4658.406    667.54131   -388.25332   -385.94534    -3212.283 
16202000    229.65367   -3995.7469   -3602.1284   -3995.7469            0     3813.177    17.552937    20.675041    21.414542    7771.5021    2822.8696    4058.1767    4558.4848   -1264.3045    155.14699   -537.93696   -3169.9452 
16203000    220.55589   -4009.2325   -3631.2072   -4009.2325            0    3892.0827     17.49276    20.604161    21.341127    7691.8468    3074.6519    4468.0252    4133.5709   -1797.1696   -188.56537    806.00842   -3194.6024 
16204000     213.0931   -3995.5026   -3630.2683   -3995.5026            0    2477.8544    17.581303    20.708452    21.449148    7809.2393      1783.55    3433.2621     2216.751     306.9976   -129.55569    667.97337   -3348.0661 
16205000    218.97019   -4009.8172   -3634.5098   -4009.8172            0    2614.8641    17.522106    20.638727    21.376929    7730.6233    1781.0198    1947.5719    4116.0006    471.77265   -1821.8381   -639.50557   -3339.7016 
16206000    218.41697   -3984.3833   -3610.0241   -3984.3833            0    2111.7492    17.436056    20.537371    21.271947    7617.2875    2557.6224    2208.2643    1569.3608   -308.79404    399.73821   -253.63847   -3375.4292 
16207000    228.22026   -3999.1349   -3607.9732   -3999.1349            0    4189.7421    17.435978    20.537279    21.271853    7617.1855    4923.1134     4141.522    3504.5909   -593.56846    555.28531    19.011655   -3142.5396 
16208000    237.07271   -3980.6762   -3574.3417   -3980.6762            0    4187.5958    17.494615    20.606346     21.34339    7694.2939    4926.7584    3417.6018    4218.4271    195.74015   -56.293101    162.40263   -3104.4374 
16209000    225.29192    -3999.821   -3613.6784    -3999.821            0     3973.754    17.505245    20.618866    21.356358    7708.3279     4534.258    4456.0909    2930.9131    749.55772   -751.78309   -164.26616   -3166.9567 
16210000    233.64045   -3982.5724   -3582.1207   -3982.5724            0    4720.7284    17.521151    20.637602    21.375763    7729.3591    4763.3679    5060.3587    4338.4585   -516.54981   -211.51824    424.29316   -3049.9777 
16211000    232.34693   -4013.6275   -3615.3928   -4013.6275            0    4006.2109    17.500327    20.613074    21.350359    7701.8334    4892.1148    4399.7952    2726.7228    5.7446415   -201.45563   -156.39183   -3165.4018 
16212000    229.06239   -3994.5005   -3601.8954   -3994.5005            0    2144.8919    17.557985    20.680988    21.420701    7778.2097    1639.3711    1037.4668    3757.8378   -891.99835    611.87713    986.17156   -3358.5849 
16213000    236.77171   -3988.5166    -3582.698   -3988.5166            0    3260.7624    17.486625    20.596935    21.333642    7683.7565    3069.4842    4390.6209    2322.1823   -44.994383    1244.1228    1007.5148   -3217.2979 
16214000    225.05901   -3981.4895    -3595.746   -3981.4895            0    2840.1956    17.544107    20.664641     21.40377    7759.7803    1715.0524    3053.3298    3752.2045     192.8816   -1439.3584    97.730296   -3274.3256 
16215000    221.10649   -4026.7415   -3647.7725   -4026.7415            0    3625.5097    17.485733    20.595884    21.332554     7682.581    2669.4917    3195.1158    5011.9215   -302.48942   -1086.7633    574.45506   -3241.5611 
16216000    226.09998   -4000.9978   -3613.4702   -4000.9978            0    3033.1956    17.558575    20.681682     21.42142    7778.9927    3575.3307    2213.2497    3311.0064    541.70315   -196.84101    2205.4243   -3269.3583 
16217000    228.01285   -3990.6261   -3599.8199   -3990.6261            0     3385.998    17.494921    20.606706    21.343762    7694.6971    4417.2306    2490.6934    3250.0701   -364.37247   -1331.6359    90.215519   -3219.8457 
16218000    236.03507   -3968.2712   -3563.7152   -3968.2712            0    1939.8556    17.530785    20.648949    21.387517    7742.1165    2027.1354    595.73279    3196.6987    428.44727    1008.9822   -637.92826   -3344.6844 
16219000    238.16864   -3975.0298   -3566.8169   -3975.0298            0    4400.2695    17.484157    20.594027    21.330631    7680.5032    3957.1697    4548.9323    4694.7065    834.85814    175.37814   -1274.5804   -3073.9328 
16220000    215.67494   -3973.8162   -3604.1568   -3973.8162            0      3798.27    17.477911     20.58667     21.32301    7672.2746    5106.9496     3003.042    3284.8185    537.65156    305.19568    516.64186   -3179.1598 
16221000    230.90851   -3979.5968   -3583.8275   -3979.5968            0    4483.6981    17.494057    20.605688    21.342708     7693.557    3831.7837    4187.4286    5431.8821     610.8795    1256.3927    65.356403   -3080.7448 
16222000    225.07135   -3980.8738   -3595.1092   -3980.8738            0    2581.6558    17.551533    20.673387    21.412829    7769.6373    3632.4913    1884.0982    2228.3778    109.80433   -145.32174    85.853647   -3302.5762 
16223000    231.77425   -4000.6614   -3603.4083   -4000.6614            0    2281.5275    17.602166    20.733027    21.474602    7837.0742    1308.1011    3101.4333    2435.0482    891.64237    353.32528   -194.41738   -3342.6396 
16224000    226.17822   -3984.7032   -3597.0414   -3984.7032            0    2230.0842    17.576495     20.70279    21.443283    7802.8352     2448.391    968.97666    3272.8849     284.9029    1916.8347   -478.29321    -3343.266 
16225000    236.13282   -4005.7793   -3601.0557   -4005.7793            0    2449.6051     17.45485    20.559508    21.294877    7641.9464    2128.9734     2638.357     2581.485    844.88499    -406.7479   -158.49199   -3328.0473 
16226000    241.67409   -3993.6505   -3579.4294   -3993.6505            0    3172.5558    17.487708     20.59821    21.334963    7685.1841    2606.0747    3522.9309    3388.6617   -215.89777   -1041.7051   -376.92961   -3223.8477 
16227000    252.62441   -3957.7916    -3524.802   -3957.7916            0     4116.004    17.488398    20.599023    21.335805    7686.0935    4655.4817    3996.4412     3696.089   -634.13509     423.1349    -2370.504   -3063.4235 
16228000    227.65155   -3962.9666   -3572.7797   -3962.9666            0    4077.6445    17.457269    20.562357    21.297827    7645.1234    4408.4006    3579.6694    4244.8634   -33.458436   -1138.9388    -561.8236   -3118.1375 
16229000    227.30592   -3983.2882   -3593.6936   -3983.2882            0    2456.5148    17.550217    20.671838    21.411224      7767.89    2170.0551    2109.0192    3090.4701   -352.02911    298.98777    459.43761   -3315.4031 
16230000    239.86341   -3967.8797    -3556.762   -3967.8797            0    1005.8998    17.562542    20.686355     21.42626    7784.2669     1676.665    992.57605     348.4582   -558.53282   -1199.1412   -1055.4017   -3442.5667 
16231000    238.86529   -3989.9985   -3580.5915   -3989.9985            0    3827.6569    17.453793    20.558263    21.293587    7640.5581    3818.3603    3715.1755    3949.4349   -1156.4491     -340.713    23.274558   -3154.0769 
16232000    226.23289   -3994.1627   -3606.4072   -3994.1627            0    2420.0533    17.465133     20.57162    21.307422    7655.4603    3305.9432    2227.8665    1726.3501   -603.02824   -843.82833   -135.32991   -3336.2155 
16233000    227.50187   -4012.5211   -3622.5907   -4012.5211            0    4863.0518    17.375327     20.46584    21.197858    7537.9724    6221.4035    3185.8243    5181.9275   -809.86476   -284.65545    405.93274   -3087.9779 
16234000    235.06596   -4008.9639   -3606.0689   -4008.9639            0    3700.4663    17.429933    20.530158    21.264477     7609.265     4023.332    2299.8228    4778.2441      7.83466   -191.85677   -401.11895   -3195.4159 
16235000    223.80163   -4030.8038   -3647.2155   -4030.8038            0    3222.4627    17.479696    20.588774    21.325189    7674.6265    4669.7626     1963.506    3034.1196   -363.42454    -109.0913    195.03767   -3286.5363 
16236000     217.0467   -3995.9058   -3623.8952   -3995.9058            0    4573.9166    17.420403    20.518934    21.252851    7596.7916    3988.9377    4270.4225    5462.3897    1212.8978    51.750153    243.94576   -3117.1445 
16237000    226.51925   -4013.5775   -3625.3313   -4013.5775            0    2287.0495    17.508447    20.622637    21.360264    7712.5579     2721.592    1905.6087    2233.9477    -27.83597   -957.40161    83.951793   -3368.0845 
16238000    233.21352    -3996.403    -3596.683    -3996.403            0    3539.7234    17.420492    20.519039     21.25296    7596.9079    4611.1029    4892.9336    1115.1337    -1637.297    273.88915    268.19658   -3204.5061 
16239000     232.2885   -4010.4587   -3612.3242   -4010.4587            0    2935.8621    17.498263    20.610642     21.34784    7699.1075      3560.06    2646.2357    2601.2906    1350.9261    1434.1335    1320.8401    -3282.675 
16240000    230.02581   -4009.7215   -3615.4651   -4009.7215            0    1880.6573    17.505403    20.619053    21.356551     7708.537    1731.6576    1869.5379    2040.7764    806.14589    116.74364   -55.865436   -3404.0395 
16241000    225.68872   -4029.1458   -3642.3231   -4029.1458            0    2119.9411    17.517146    20.632884    21.370877    7724.0603    3003.4759    835.18302    2521.1645    627.06795   -41.839054    -673.1553    -3403.517 
16242000    224.84831   -3990.0943    -3604.712   -3990.0943            0    2664.9577    17.514588    20.629871    21.367756    7720.6761    2284.8942    3268.0995    2441.8793   -88.451225   -296.51793    194.25774   -3304.6427 
16243000    231.18999   -3983.9926   -3587.7409   -3983.9926            0    4029.0102    17.455378     20.56013    21.295521    7642.6398    1756.3693    3279.4729    7051.1884   -159.15497   -954.77582    -402.6974   -3138.6671 
16244000    237.32539   -3995.3998   -3588.6322   -3995.3998            0    3755.7595    17.394791    20.488766    21.221604    7563.3327    3502.5265    4491.1294    3273.6226    526.68928   -66.016581   -509.30474   -3174.3589 
16245000    227.15954   -3970.0336     -3580.69   -3970.0336            0    3937.1283    17.541744    20.661858    21.400887    7756.6448    3182.9963    3969.4484    4658.9403    1483.7781    91.386267   -425.86129   -3135.3113 
16246000     220.9032   -3994.9463   -3616.3258   -3994.9463            0    2981.0303    17.547873    20.669077    21.408364    7764.7784    2491.4258    3564.9671    2886.6979    480.31163    1119.5636     -32.0607     -3278.75 
16247000    227.45946   -4001.7265   -3611.8687   -4001.7265            0     3977.701    17.532716    20.651224    21.389873    7744.6747    3437.8315    4975.4591    3519.8126    619.04343   -1246.5041   -988.43244   -3162.5948 
16248000    240.89799   -4001.1538   -3588.2628   -4001.1538            0    958.14919    17.604992    20.736355    21.478049    7840.8491    644.86301    2772.2423    -542.6577    54.443961   -874.57043    51.453933   -3478.6978 
16249000    208.46521   -3968.9485   -3611.6462   -3968.9485            0    5607.3871    17.459702    20.565222    21.300795    7648.3198     4310.822    6939.8785    5571.4608    -129.0796    -260.7157    179.14086    -2986.182 
16250000    233.39745   -3959.4813   -3559.4461   -3959.4813            0    2028.8528     17.57204    20.697542    21.437848    7796.9032    785.10738    2126.0433    3175.4078    927.17066    231.37697   -370.46508   -3328.7456 
Loop time of 540.937 on 64 procs for 250000 steps with 864 atoms

Performance: 79.861 ns/day, 0.301 hours/ns, 462.161 timesteps/s
99.1% CPU use with 64 MPI tasks x 1 OpenMP threads

MPI task timing breakdown:
Section |  min time  |  avg time  |  max time  |%varavg| %total
---------------------------------------------------------------
Pair    | 18.611     | 24.22      | 28.497     |  51.8 |  4.48
Bond    | 0.27839    | 0.29767    | 0.31995    |   1.3 |  0.06
Kspace  | 243.39     | 255.99     | 270.53     |  46.9 | 47.32
Neigh   | 3.9307     | 4.8504     | 5.7581     |  29.5 |  0.90
Comm    | 109.32     | 121.64     | 136.66     |  72.1 | 22.49
Output  | 1.1403     | 1.1412     | 1.1433     |   0.1 |  0.21
Modify  | 121.41     | 125.41     | 129.49     |  16.5 | 23.18
Other   |            | 7.388      |            |       |  1.37

Nlocal:        13.5000 ave          22 max           7 min
Histogram: 1 1 18 5 18 7 8 2 3 1
Nghost:        2071.72 ave        2114 max        2032 min
Histogram: 3 2 4 12 15 12 6 4 4 2
Neighs:        3960.09 ave        6279 max        2118 min
Histogram: 3 11 8 5 10 11 9 2 2 3

Total # of neighbors = 253446
Ave neighs/atom = 293.34028
Ave special neighs/atom = 2.0000000
Neighbor list builds = 10016
Dangerous builds = 0

unfix		3
unfix		2
unfix		1

write_data	data.final.${pid}
write_data	data.final.0
System init for write_data ...
PPPM initialization ...
  extracting TIP4P info from pair style
  using 12-bit tables for long-range coulomb (../kspace.cpp:340)
  G vector (1/distance) = 0.37297184
  grid = 24 24 25
  stencil order = 5
  estimated absolute RMS force accuracy = 0.0032179799
  estimated relative force accuracy = 9.690851e-06
  using double precision FFTW3
  3d grid and FFT values/proc = 2730 288
Last active /omp style is kspace_style pppm/tip4p/omp
WARNING: Not all mixed pair coeffs generated from mixing. Use write_data with 'pair ij' option to store all pair coeffs. (../write_data.cpp:312)

write_restart   restart.lmp.${pid}
write_restart   restart.lmp.0
System init for write_restart ...
PPPM initialization ...
  extracting TIP4P info from pair style
  using 12-bit tables for long-range coulomb (../kspace.cpp:340)
  G vector (1/distance) = 0.37297184
  grid = 24 24 25
  stencil order = 5
  estimated absolute RMS force accuracy = 0.0032179799
  estimated relative force accuracy = 9.690851e-06
  using double precision FFTW3
  3d grid and FFT values/proc = 2730 288
Last active /omp style is kspace_style pppm/tip4p/omp
Total wall time: 0:09:04
