LAMMPS (30 Jul 2021)
Processor partition = 0
  using 2 OpenMP thread(s) per MPI task
using multi-threaded neighbor list subroutines
variable        pid world 0 1
variable        phase world IceIII Liquid

shell cd ${phase}
shell cd IceIII
include Restart.lmp
echo both
log log.lammps
#include		in.partitions
include		in.temp
variable        temperature equal 263.69
variable	tempDamp equal 100.0
include		in.pressure
variable        pressure equal 4500.0
variable        pressureDamp equal 1000.0 # This is 1 ps
include		in.seed
variable        seed equal 745823

units		real
atom_style	full

read_restart	restart.lmp.${pid}
read_restart	restart.lmp.0
Reading restart file ...
  restart file = 30 Jul 2021, LAMMPS = 30 Jul 2021
  restoring atom style full from restart
  orthogonal box = (-0.072082717 -0.066539868 0.084759822) to (20.072084 20.066541 20.615238)
  4 by 2 by 4 MPI processor grid
  restoring pair style lj/cut/tip4p/long/omp from restart
  restoring bond style harmonic/omp from restart
  restoring angle style harmonic/omp from restart
  972 atoms
  648 bonds
  324 angles
Finding 1-2 1-3 1-4 neighbors ...
  special bond factors lj:    0        0        0       
  special bond factors coul:  0        0        0       
     2 = max # of 1-2 neighbors
     1 = max # of 1-3 neighbors
     1 = max # of 1-4 neighbors
     2 = max # of special neighbors
  special bonds CPU = 0.002 seconds
  read_restart CPU = 0.007 seconds
include 	in.setup
variable	out_freq equal 1000
variable	out_freq2 equal 10000
variable	out_freq3 equal 1000

timestep	2.0

neigh_modify    delay 7 every 1

include		in.tip4p
# This is TIP4P/Ice

# create groups ###
group ox type 2
324 atoms in group ox
group hy type 1
648 atoms in group hy

# set charges - beside manually ###
set group ox charge -1.1794
Setting atom values ...
  324 settings made for charge
set group hy charge 0.5897
Setting atom values ...
  648 settings made for charge

# ### TIP3P Potential Parameters ###
pair_style lj/cut/tip4p/long/omp 2 1 1 1 0.1577 8.5
pair_coeff 1 1*2 0.000 0.000
pair_coeff 2 2 0.21084 3.1668
bond_style  harmonic
bond_coeff  1 450 0.9572
angle_style harmonic
angle_coeff 1 55 104.52
kspace_style pppm/tip4p/omp 1.0e-5
pair_modify tail yes

thermo          ${out_freq}
thermo          1000
thermo_style    custom step temp pe etotal epair emol press lx ly lz vol pxx pyy pzz pxy pxz pyz enthalpy

restart 	${out_freq3} restart.lmp.${pid} restart2.lmp.${pid}
restart 	1000 restart.lmp.${pid} restart2.lmp.${pid}
restart 	1000 restart.lmp.0 restart2.lmp.${pid}
restart 	1000 restart.lmp.0 restart2.lmp.0


include         in.dump
dump            myDump all atom ${out_freq2} dump.water.${pid}
dump            myDump all atom 10000 dump.water.${pid}
dump            myDump all atom 10000 dump.water.0
dump            myDump2 all dcd ${out_freq2} dump.dcd
dump            myDump2 all dcd 10000 dump.dcd
dump_modify     myDump append yes
dump_modify     myDump2 append yes


variable natoms 	equal  "count(all)"                        # NUMBER ATOMS
variable H      	equal  "enthalpy/v_natoms"                 # ENTHALPY-per-atom
variable Vol      	equal  "vol/v_natoms"                 # volume-per-atom
fix AVG all 		ave/time ${out_freq} 1 ${out_freq} v_Vol v_H file vol_enthalpy.dat
fix AVG all 		ave/time 1000 1 ${out_freq} v_Vol v_H file vol_enthalpy.dat
fix AVG all 		ave/time 1000 1 1000 v_Vol v_H file vol_enthalpy.dat


timer           timeout 02:55:00 every 1000
New timer settings: style=normal  mode=nosync  timeout=02:55:00

fix 		1 all shake 1e-6 200 0 b 1 a 1
Finding SHAKE clusters ...
       0 = # of size 2 clusters
       0 = # of size 3 clusters
       0 = # of size 4 clusters
     324 = # of frozen angles
  find clusters CPU = 0.001 seconds
fix             2 all nph aniso ${pressure} ${pressure} ${pressureDamp}
fix             2 all nph aniso 4500 ${pressure} ${pressureDamp}
fix             2 all nph aniso 4500 4500 ${pressureDamp}
fix             2 all nph aniso 4500 4500 1000
fix             3 all temp/csvr ${temperature} ${temperature} ${tempDamp} ${seed}
fix             3 all temp/csvr 263.69 ${temperature} ${tempDamp} ${seed}
fix             3 all temp/csvr 263.69 263.69 ${tempDamp} ${seed}
fix             3 all temp/csvr 263.69 263.69 100 ${seed}
fix             3 all temp/csvr 263.69 263.69 100 745823


run             250000
PPPM initialization ...
  extracting TIP4P info from pair style
  using 12-bit tables for long-range coulomb (../kspace.cpp:340)
  G vector (1/distance) = 0.37123488
  grid = 24 24 24
  stencil order = 5
  estimated absolute RMS force accuracy = 0.0036274966
  estimated relative force accuracy = 1.0924098e-05
  using double precision FFTW3
  3d grid and FFT values/proc = 3211 432
Last active /omp style is kspace_style pppm/tip4p/omp
Neighbor list info ...
  update every 1 steps, delay 7 steps, check yes
  max neighbors/atom: 2000, page size: 100000
  master list distance cutoff = 10.8154
  ghost atom cutoff = 10.8154
  binsize = 5.4077, bins = 4 4 4
  1 neighbor lists, perpetual/occasional/extra = 1 0 0
  (1) pair lj/cut/tip4p/long/omp, perpetual
      attributes: half, newton on, omp
      pair build: half/bin/newton/omp
      stencil: half/bin/3d
      bin: standard
Setting up Verlet run ...
  Unit style    : real
  Current step  : 10000000
  Time step     : 2
  Walltime left : 2:54:59.95
Per MPI rank memory allocation (min/avg/max) = 10.18 | 10.18 | 10.19 Mbytes
Step Temp PotEng TotEng E_pair E_mol Press Lx Ly Lz Volume Pxx Pyy Pzz Pxy Pxz Pyz Enthalpy 
10000000    276.74254   -4669.0701   -4135.3488   -4669.0701            0    4545.3629    20.144166    20.133081    20.530478    8326.4256    3506.5097    5018.6197    5110.9593    389.95326   -291.06618   -1182.0666   -3583.3946 
10001000    258.61124   -4693.1889   -4194.4354   -4693.1889            0    4084.7498    20.309501    19.842112    20.844069    8399.8142    4210.1868    4406.7526      3637.31   -824.67851    1082.8631   -70.596388   -3694.0426 
10002000    265.82039   -4697.5413   -4184.8843   -4697.5413            0    3119.6494    19.920883    20.196901    20.757897    8351.7345    5575.5764     1695.329    2088.0429   -23.038536   -66.730249   -1141.2667   -3804.9064 
10003000    266.28837   -4705.1188   -4191.5593   -4705.1188            0    6726.6242     19.93575    20.194036    20.459635    8236.7065    8048.1625     4850.374    7281.3361   -191.86887   -1138.2868   -216.10043   -3383.5309 
10004000     253.6666    -4709.362   -4220.1446    -4709.362            0    4290.5529    20.024476    20.148638     20.69229    8348.6343    4243.1699    3745.8628     4882.626   -172.23287    -130.5396   -817.24826   -3697.7429 
10005000    249.58798   -4667.2208   -4185.8694   -4667.2208            0    3002.4828     20.11796    19.982906    21.037687    8457.4726    4654.3314      3263.52    1089.5969    85.312048      721.822    542.77336   -3815.5325 
10006000    263.58694   -4671.3387   -4162.9891   -4671.3387            0    4171.3421    19.956856    20.053632    20.930579    8376.5737    5022.4799     3683.422    3808.1244    29.039657    925.50208   -1475.7614   -3653.4024 
10007000    260.35668   -4673.5918    -4171.472   -4673.5918            0    6212.4563    20.037701    19.917384    20.693301     8258.667    5691.7732    5764.5886    7181.0071    -101.6049   -17.869611   -406.71701   -3423.2178 
10008000    266.56701    -4692.775   -4178.6781    -4692.775            0    3497.3352    20.018215     20.18526     20.71017     8368.418    3321.0773    3578.3175    3592.6107     689.7806     24.00408    778.96408   -3751.8465 
10009000    258.16719   -4658.0485   -4160.1513   -4658.0485            0     4488.279    20.256086      19.9512    20.747716    8384.8411    3301.6208    5575.5378    4587.6785   -887.16776    960.19489   -1097.8712   -3611.3052 
10010000    264.50566    -4670.762   -4160.6405    -4670.762            0    3925.7404    19.859617    20.106438    21.014493    8391.2163    4021.2353     4476.377     3279.609   -540.78658   -226.02606    333.54405   -3680.2191 
10011000    256.10625   -4684.8645    -4190.942   -4684.8645            0    4868.4938    20.075477    19.957321    20.824862    8343.5382    5458.7724    4969.9059     4176.803    148.62355    1008.2955    1373.6652   -3598.5342 
10012000     266.9455   -4646.1594   -4131.3326   -4646.1594            0    5434.4813    19.972401    20.184658    20.558989    8288.0703    5902.7817    6238.6173     4162.045     398.1932   -865.87282   -1948.4667   -3474.4505 
10013000    272.66433   -4664.4094   -4138.5533   -4664.4094            0    4058.8616    20.179387    20.075495    20.587763    8340.3333    4381.4326    4477.3003     3317.852   -472.41939    272.65544   -101.87882   -3644.8528 
10014000    263.54223   -4703.5509   -4195.2875   -4703.5509            0    5102.7007    19.962754    19.972207     20.93766    8347.8507    4979.9729    6778.1043    3550.0248    294.84336    1287.0379    185.54365   -3574.0601 
10015000    264.34292   -4695.9869   -4186.1793   -4695.9869            0    3937.5672    20.035627    20.065058    20.797846    8361.0672    2849.8032    4938.5593     4024.339    197.41475     208.3608   -767.28013   -3706.0419 
10016000    266.53904   -4688.9414   -4174.8985   -4688.9414            0    4493.9385    19.836012    20.196866    20.707855    8296.0903    5631.2145     2194.929     5655.672     392.2357   -502.90821   -379.56138    -3631.177 
10017000    246.77389   -4662.4467   -4186.5225   -4662.4467            0    3296.8116    20.100786    19.998926    21.024125    8451.5748    4195.4022    2513.1267     3181.906   -264.19539    731.60784    424.66854   -3780.1655 
10018000    245.86808   -4683.6474   -4209.4701   -4683.6474            0    3980.9199    20.310193    19.879007     20.68194    8350.2602    2433.5229    4790.8661    4718.3707   -665.71118    1887.6595   -891.20532   -3724.6738 
10019000    265.26523   -4696.3407   -4184.7544   -4696.3407            0    4049.5574    19.968164    20.031261    20.702529    8280.7529    3471.1131    3303.3361    5374.2229   -759.79009    240.74329    76.667924   -3695.7044 
10020000    269.97577   -4709.9776   -4189.3067   -4709.9776            0    3849.8995    20.262558    19.909391    20.806075    8393.4867    3552.1858    4544.6583    3452.8543    318.78713    590.07753   -305.57291    -3718.039 
10021000    265.08877   -4722.9389   -4211.6929   -4722.9389            0     3937.045    19.948114     20.05835    20.711198    8287.0942    3629.4316    2830.0424     5351.661    117.63451   -261.22114    1088.3381   -3735.8665 
10022000      272.108   -4712.5465   -4187.7634   -4712.5465            0    3888.4229    20.183818    20.085734    20.728213    8403.3584    6235.8811    2628.1266    2801.2609   -669.15226    1854.3618    436.59276   -3711.2202 
10023000    267.97365   -4725.5308    -4208.721   -4725.5308            0    3743.9678    20.063403    20.148756     20.67788     8359.087    4324.1634    2260.6023    4647.1378    482.96548    754.05155    109.44359   -3752.2988 
10024000    274.23458   -4669.3836   -4140.4992   -4669.3836            0     5618.895    20.128367    20.105787     20.50861    8299.7661    4423.2961    5384.6589      7048.73    4.9532603     1346.628   -355.36606    -3460.368 
10025000    273.55204   -4681.9413   -4154.3731   -4681.9413            0    4939.7433    19.959022    19.916508    20.894415    8305.8231    4960.7666    7070.6016    2787.8617   -151.37925   -422.05602   -1282.2178   -3556.0126 
10026000    267.13835   -4668.5073   -4153.3085   -4668.5073            0    4213.7503    20.227722    20.095773    20.687909    8409.4637     4210.874    4095.2523    4335.1245   -282.93445    1027.9795    409.56081   -3636.5198 
10027000    275.60174   -4677.5938   -4146.0727   -4677.5938            0    4001.6084    20.161107    20.153112    20.638768    8385.7185     1797.556    6078.2578    4129.0115   -224.03215    1024.8214    934.94688   -3656.6876 
10028000    256.32487   -4698.1149   -4203.7708   -4698.1149            0    4489.3772    20.021685    19.911438    20.861014    8316.4632    5776.9378    3850.9299    3840.2638   -70.465557   -661.64097   -355.89259   -3659.2674 
10029000    258.70201   -4683.5002   -4184.5717   -4683.5002            0    2938.5651     20.06448    20.119574    20.921672    8445.8444    3673.2294    2289.0831    2853.3829    118.23654    502.16059    626.36729   -3822.6169 
10030000    265.45163   -4677.7226   -4165.7768   -4677.7226            0    3861.4702    20.001425    19.893805    21.006659    8358.6434    3214.2863    5192.1877    3177.9366    26.125799    919.63371   -347.33023   -3695.0549 
10031000    270.18339   -4678.9447   -4157.8733   -4678.9447            0    4427.4443     20.11338    20.074886    20.717139    8365.0384    4513.9089    4115.8613    4652.5626   -156.72905      365.852   -1631.2186    -3617.745 
10032000     260.8635   -4676.7653   -4173.6681   -4676.7653            0    3782.6178    20.127091    20.148325    20.602163    8354.7369    5083.2137    2274.5691    3990.0706    614.84448   -1078.3492    394.49485   -3712.7741 
10033000    259.72564   -4680.6261   -4179.7233   -4680.6261            0    5569.2446    20.264129    19.866478    20.660039    8317.2541    2969.4403     7835.593    5902.7006    563.37136    652.05209    -46.15134   -3504.1816 
10034000    263.56694   -4712.1009   -4203.7899   -4712.1009            0    6116.9035    20.003773    19.947168    20.812893    8304.7316    6508.8523    6421.8471     5420.011    896.69669    439.82046   -406.79718   -3462.9351 
10035000    256.12769   -4733.9861   -4240.0223   -4733.9861            0    3029.9991    20.087766     19.97116    20.993066    8421.9137    3602.8067    2822.6935    2664.4971    200.29031   -1962.2073    68.283278   -3867.8628 
10036000    257.55995   -4705.1053   -4208.3793   -4705.1053            0    3348.4884    19.998505    19.979902    20.840354     8327.142    4400.6731    3080.5262    2564.2658   -184.64251    1113.4591     -90.1038   -3801.7294 
10037000    270.68243   -4714.3352   -4192.3014   -4714.3352            0    4126.9777    20.089445    20.096347     20.66548    8343.1597     4266.725    4956.7291    3157.4789    -525.5773   -176.49206    416.95298   -3690.1455 
10038000     275.8384    -4685.306   -4153.3285    -4685.306            0     5779.844    20.165412    19.946544     20.53448    8259.5892    6489.6741    5127.4949     5722.363   -1116.4661   -134.29319    447.56268   -3457.1021 
10039000    266.99928   -4735.0934   -4220.1628   -4735.0934            0    3500.0328    19.939095    20.191283    20.937466    8429.3385    5149.0303    2151.6796    3199.3884    182.51036   -1065.4216   -830.63281   -3789.8924 
10040000    262.10144   -4693.2848   -4187.8002   -4693.2848            0     4404.395    20.192835    19.827134    20.790233    8323.7034    2587.9839    6688.8262    3936.3748    571.80662    85.061999   -879.61093   -3653.1389 
10041000    263.25891   -4682.3998   -4174.6829   -4682.3998            0    3344.1558    19.883054    20.271246    20.875399    8413.9187    4822.8592    3225.8018    1983.8063    358.64013    1254.1402    1272.0293   -3764.3269 
10042000    270.23244   -4707.8506   -4186.6846   -4707.8506            0     5431.059    20.270533    20.039685    20.455006    8309.1323     3092.411    6363.2768    6837.4893    662.52713   -1543.7333   -514.96478   -3528.5479 
10043000     265.1017    -4669.276   -4158.0051    -4669.276            0    3914.3705    20.136173    20.074637    20.656199    8349.7798    2157.0232    4871.7131    4714.3753   -346.10868    184.56087   -806.80963   -3681.3406 
10044000    259.98929   -4718.3705   -4216.9593   -4718.3705            0    5889.4955    20.122045    19.791653    20.778913    8275.1719    3435.4488    7246.5414    6986.4963    117.28044    232.69676    883.41578   -3506.1861 
10045000    251.54451   -4705.1613   -4220.0365   -4705.1613            0    4539.7074    20.013072     20.04637    20.930131     8396.948    5041.8519    3946.9517    4630.3187    261.05949    355.19445   -591.57095      -3664.1 
10046000    257.05878   -4700.7391   -4204.9796   -4700.7391            0    4232.9699    20.261859    19.969585    20.662124    8360.3277    3462.7024    4570.6177    4665.5897   -355.56268   -544.79185   -93.955325   -3688.8671 
10047000     269.5914    -4706.478   -4186.5483    -4706.478            0    3869.1335    20.157736    20.033031    20.722157    8368.0328    5656.1301     2324.539    3626.7315   -510.64939     82.30622   -86.425184   -3714.3625 
10048000    247.34752   -4691.6945    -4214.664   -4691.6945            0     4404.227    19.897193     20.13363    20.776978    8323.3141    3544.3239    5504.4927    4163.8646   -498.50619    719.53093   -651.82489   -3680.0481 
10049000    272.25087   -4698.8566   -4173.7979   -4698.8566            0    5366.1738    20.174357    19.954155    20.672831    8322.1016    4108.6331    6309.8413    5680.0469    -371.8347    144.01342    1211.5773   -3522.5091 
10050000    250.88518   -4688.9067   -4205.0535   -4688.9067            0    5177.7065    19.933045    20.331622    20.558635    8331.8214    5714.3849    4264.2609    5554.4736     63.65566    -507.8947   -357.32626   -3575.9049 
10051000    280.19828   -4645.4503   -4105.0644   -4645.4503            0    4133.0396    20.165413    19.965174    20.623808    8303.2684     4757.773    3814.4236    3826.9221   -559.54515   -483.15355    471.14231   -3604.5754 
10052000    261.01005    -4718.539   -4215.1592    -4718.539            0    4263.5868    19.886665    20.030681    20.876666    8316.0832    5805.5258    3936.1862    3049.0483    513.21358    29.579162   -1457.2816   -3698.0648 
10053000    265.32896   -4732.5928   -4220.8836   -4732.5928            0    4028.2694    19.910468    20.146516    20.806602    8346.0805    5364.5585    2948.0276    3772.2222    942.36181    25.790826   -797.77136   -3730.5666 
10054000     265.9964    -4667.338   -4154.3415    -4667.338            0    4539.4782    20.264795    19.945978    20.652027     8347.573     5603.677    3631.8777    4382.8797    504.18478    1146.0831   -205.27178   -3601.7019 
10055000    268.75677    -4689.159    -4170.839    -4689.159            0    4934.1181    19.983863    20.201076    20.665837    8342.7062    3492.4767    7556.3751    3753.5024    209.16072   -1347.7382   -2104.9114   -3570.5057 
10056000    272.03291   -4663.3503   -4138.7119   -4663.3503            0    4936.2395    20.009808    20.010326    20.966954    8395.2267    6949.2468    5280.5314    2578.9404    68.288108    -707.9179    265.25494   -3534.3396 
10057000    251.36938   -4697.0655   -4212.2785   -4697.0655            0    4937.9864    19.968651    19.921705    20.934552    8327.9654    3695.0398    5745.2755    5373.6438    35.849827    86.720765   -290.50351   -3612.5362 
10058000    264.52221   -4689.2079   -4179.0546   -4689.2079            0    4885.0801    20.139972     20.14887    20.702297    8400.9443    2265.4697    6439.4238    5950.3469    787.91265    331.72723   -1060.4593   -3580.5387 
10059000    252.06197   -4674.3698   -4188.2471   -4674.3698            0    3339.0047    20.322015    20.034059    20.653462    8408.6947    4508.6777    1702.4895     3805.847   -349.68123    1114.1185   -57.287679   -3778.7776 
10060000    269.89171   -4716.2522   -4195.7434   -4716.2522            0    2365.4588    20.141104    20.098343     20.77046    8407.9413    2640.2902    1791.8543    2664.2321   -374.31127    280.42265    69.885111    -3905.688 
10061000    252.54217   -4650.5647   -4163.5159   -4650.5647            0    6455.9479    19.858464    20.055434    20.739323    8259.8527    9019.4482    4421.9825    5926.4131    135.19299   -210.24186   -285.26699   -3385.8229 
10062000    272.86101   -4665.7687   -4139.5333   -4665.7687            0    3233.4977    20.310029    20.044024      20.6563    8409.0705    3216.0218    2511.9044    3972.5667    -230.8156    492.19569    850.56897   -3742.9847 
10063000    275.93911   -4690.9721   -4158.8003   -4690.9721            0    5013.8851    20.115123    20.100345    20.726414    8380.1228    5146.8881    3838.3283    6056.4389    -719.5907    214.94018    930.39834   -3546.0258 
10064000    274.84511   -4710.9487   -4180.8868   -4710.9487            0    4344.0069    20.095362    19.932654    20.805802    8333.8449    4051.6644    4533.8962      4446.46    -244.5694     1063.707    1270.5712   -3652.9137 
10065000      247.806   -4675.9801   -4198.0654   -4675.9801            0    4395.6441    20.193026    19.914914    20.736889    8339.1818     2534.561    6589.4201    4062.9513   -334.05864    996.67374   -237.61245   -3663.4742 
10066000    277.68173   -4676.2723   -4140.7398   -4676.2723            0    4122.6886    20.237893    20.004744    20.681653    8373.0474    5296.2156    3297.4482    3774.4022   -378.59604    24.478444    1052.7928   -3637.3087 
10067000     256.2046   -4690.9901    -4196.878   -4690.9901            0    5781.5631    20.018977    19.953937    20.786909    8303.4848    6178.9509    6773.6777    4392.0609    703.20063    252.69401    1595.5714   -3496.7434 
10068000    262.64729   -4696.7551   -4190.2177   -4696.7551            0    3928.1379    20.047622    19.989146    20.899502    8375.1589    3329.7209    4288.5225    4166.1703     119.6068   -858.23977   -1758.3065   -3710.4227 
10069000    247.17974   -4695.0479   -4218.3409   -4695.0479            0    4625.6318    20.194697    19.952228    20.576291    8290.7888    4838.5662    4664.3481     4373.981    353.91363   -157.65744   -165.74739   -3659.0435 
10070000    270.91803   -4704.2623   -4181.7741   -4704.2623            0    4156.3692    20.060401     20.02544    20.840567    8372.0385    3764.3561    5267.8683    3436.8832    74.241802   -404.08996   -1423.8628   -3674.2914 
10071000    274.38559   -4705.4489   -4176.2732   -4705.4489            0    3958.0982    19.909604    19.976703    20.951943    8333.1798    5893.8667    1582.9107     4397.517   -313.62464    361.93906    -1263.854   -3695.2421 
10072000    283.64145   -4670.0516   -4123.0252   -4670.0516            0    4119.7358    20.097605    20.228715    20.581985    8367.5797    3318.8247    4159.8862    4880.4964    277.65944   -609.11778   -878.49738   -3620.2832 
10073000    252.37721   -4717.4551   -4230.7244   -4717.4551            0    3615.1316    20.391555     19.93632    20.611634    8379.3001    2415.9455    5003.7848    3425.6647   -216.94174   -130.50626   -356.49849   -3788.9427 
10074000    269.71318   -4734.8022   -4214.6376   -4734.8022            0    5014.7376    20.054786    19.890613    20.874188    8326.7549    5624.2394    4167.1433    5252.8302   -499.46468    658.84809   -348.64848   -3605.6621 
10075000    264.26613   -4704.8742   -4195.2147   -4704.8742            0    4927.0785    19.945199    19.999301    21.124501    8426.3528    6386.8549    5551.1775    2843.2031   -805.28682    1314.4422    -188.9113   -3589.7275 
10076000    257.71709   -4686.8326   -4189.8035   -4686.8326            0    3643.9358     20.01723    20.023009    20.807938    8339.9289    4405.5082    3007.8278    3518.4715    656.64533    1969.0232    382.23021   -3746.5941 
10077000    250.68451   -4718.4663   -4235.0001   -4718.4663            0    2803.2512    20.209094    20.061829    20.793467    8430.3241     511.3978     4197.809    3700.5467    65.771995   -378.32637   -228.97123    -3890.347 
10078000    270.45696   -4670.2296   -4148.6306   -4670.2296            0    5026.4188    20.078006    20.043693    20.728472    8341.9121    5094.0519    4751.4414    5233.7631   -543.10316   -199.48744    171.85301   -3537.1254 
10079000    250.96155   -4695.7926   -4211.7922   -4695.7926            0    4983.7662    19.816637    20.309546    20.666638    8317.6379    6784.4452     2884.064    5282.7894   -57.658899   -331.38578   -821.22259   -3607.2403 
10080000    262.57419   -4667.2915   -4160.8951   -4667.2915            0    4171.7309    20.152067    20.108872    20.740888    8404.9407     3216.321    4375.0881    4923.7835   -393.45515    288.19607    620.94944    -3649.535 
10081000    272.76479    -4705.405   -4179.3552    -4705.405            0    4699.1754     20.08155    20.094776    20.718243    8360.5208    5025.1904     3576.364     5495.972    -233.0917   -1160.5388   -7.7992856   -3606.3865 
10082000    273.71609   -4736.4241   -4208.5396   -4736.4241            0    3752.2395    20.068707    19.884809    21.009614    8384.1471    3595.9005    5253.9755    2406.8426    606.91367   0.81181989    196.86668   -3749.7375 
10083000     269.9044   -4692.9868   -4172.4534   -4692.9868            0     3949.657    19.937398    20.052788    21.033968    8409.3896    3573.2081    4944.9373    3330.8257   -345.43879     509.4772    186.93586   -3688.0583 
10084000    276.50503   -4675.1548   -4141.8916   -4675.1548            0    4208.9963    20.276174    20.034638    20.716294    8415.4934    5713.6532    2703.1655    4210.1702    394.62804   -1395.4706   -533.87042   -3625.3159 
10085000    258.68371   -4711.8442   -4212.9509   -4711.8442            0    4133.6834    19.898899    20.448221    20.500851    8341.7367     6251.716    1380.4059    4768.9282   -157.02908    338.32827    1532.2927   -3710.0648 
10086000    253.52961   -4682.5946   -4193.6414   -4682.5946            0    4474.9559    20.045897    20.056939     20.63537    8296.6429    4356.6525    3953.2707    5114.9444    299.69638    -949.4957   -628.17264   -3652.1806 
10087000    263.20454   -4704.6759   -4197.0639   -4704.6759            0    4356.2639    20.019386     20.05638    20.783441    8344.8924     3809.847    4733.4647      4525.48     78.61121   -59.197882   -277.59192   -3666.8991 
10088000    266.09548   -4694.1657   -4180.9782   -4694.1657            0    4009.6446    20.046401    20.000554    20.831032    8351.9754    3318.7383    6146.3923    2563.8031    305.60598    53.572908   -165.08495   -3692.5834 
10089000    254.40958   -4727.5895   -4236.9392   -4727.5895            0     3847.154    19.938346    20.345898    20.633893    8370.4185    4018.9156    3355.1619    4167.3844   -496.17505     759.8101   -8.5649093   -3767.3019 
10090000    254.79075   -4690.5408   -4199.1554   -4690.5408            0    5158.1216    20.139954     19.96391    20.835274    8377.2848    3444.5281    7716.8139    4313.0229   -369.45834    127.55236    11.977483   -3568.9665 
10091000    254.99211   -4695.1856   -4203.4119   -4695.1856            0    5328.7754    20.009727    19.941131    20.802416    8300.5089    6555.8776    4355.7508    5074.6979   -332.73017   -384.68533    29.556609   -3558.3401 
10092000    267.86965    -4704.919   -4188.3098    -4704.919            0      5108.89    20.051838    20.005463    20.629683    8275.5207    5656.1598    4822.7119    4847.7984    437.75323    308.46619   -414.84122    -3571.718 
10093000    274.27278   -4688.6769   -4159.7188   -4688.6769            0    3514.0835    20.037343    20.051923    20.829085    8368.8613    4030.4918    4099.9473    2411.8116   -136.20233    241.11263    420.24338   -3730.8205 
10094000    267.72384   -4705.1522   -4188.8242   -4705.1522            0    5060.0402    19.872216     20.02848    20.900851    8318.7534    3944.3372    6237.6984     4998.085   -163.45855   -1363.7117    579.04021   -3574.9377 
10095000    245.97548   -4699.2076   -4224.8232   -4699.2076            0    6018.2921    20.091202    19.900052      20.6408    8252.5215     5316.348    5820.4761    6918.0524   -230.14524    799.73084    462.99991   -3500.4943 
10096000    274.38025   -4703.4047   -4174.2393   -4703.4047            0    3763.3084    20.245117    19.930692    20.700307    8352.5577    4222.6322    4058.9698    3008.3231    1056.0636   -1098.0684   -1653.0611   -3715.8176 
10097000     267.5442   -4700.8115     -4184.83   -4700.8115            0    4644.9138    19.922166    19.985656    20.975507    8351.5566    6603.3676    3065.3524    4266.0213    62.835753    1952.1207    111.08204   -3619.0847 
10098000    267.14809   -4705.8547   -4190.6371   -4705.8547            0    5079.7759    19.932074    20.024204    20.941167    8358.1204     6525.201    4078.7041    4635.4227    3.9500475    613.36556    -271.4596   -3571.4398 
10099000    260.11248   -4695.1526   -4193.5038   -4695.1526            0     4558.352     20.08868    20.065774    20.592355    8300.6736    2433.0844    6321.1503    4920.8212    284.53848   -675.20081    1074.8523   -3641.6843 
10100000    265.55804    -4701.172    -4189.021    -4701.172            0    4653.3866    19.993646    20.092426    20.807093    8358.6432    7024.5894    2938.0564     3997.514   -147.61453    203.46884   -433.79209   -3621.7627 
10101000    252.19967   -4723.4754   -4237.0871   -4723.4754            0    2770.3349    20.124555    19.953223    21.058826    8456.1661    5104.9289     1496.256    1709.8198   -9.4997866   -1099.1286    138.89678   -3895.4369 
10102000    267.84341   -4699.2892   -4182.7307   -4699.2892            0    4878.6081    20.160802     19.92753    20.777303    8347.3849    5556.6759    4839.8037    4239.3448    480.38384    829.70471    18.796577   -3588.8185 
10103000    260.01413   -4664.3341    -4162.875   -4664.3341            0     2186.129    20.283077    20.212294    20.497395    8403.2658    2296.2439     975.3778    3286.7652   -172.45103   -829.98725    332.84295   -3894.9583 
10104000    267.52272   -4693.5675   -4177.6274   -4693.5675            0    4073.6074    20.224173    20.003527    20.674583    8364.0017    3835.4152    3986.0577    4399.3494   -125.28533   -629.99374     977.4824   -3680.7272 
10105000    271.37605   -4664.6206   -4141.2491   -4664.6206            0    6349.2272    19.889568    20.183664    20.691661    8306.5507    7349.0511    5381.9824    6316.6481    86.452522    712.16347    30.206845   -3372.0877 
10106000    257.35464   -4702.5042   -4206.1742   -4702.5042            0    4679.6158    19.889647    20.093272     20.92014    8360.6944    5045.1734    4531.6891    4461.9848    613.41629   -137.35375   -688.38561   -3635.5785 
10107000    253.31761   -4679.7436   -4191.1993   -4679.7436            0    2535.9774    20.144796    20.150869    20.903042     8485.279     2303.243      2954.66    2350.0291   -917.22529   -145.01843   -728.49168   -3877.3744 
10108000    264.91553   -4674.7795   -4163.8677   -4674.7795            0    5014.9508    19.989743    20.186565    20.734718    8366.9618      4787.94    4835.5538    5421.3585   -445.62161   -103.37528   -6.3672257   -3551.9255 
10109000     260.6704   -4695.5775   -4192.8527   -4695.5775            0    4123.8059    20.269945    20.022502    20.565633    8346.6653    3532.7173     2643.708    6194.9926   -89.182823    8.2475648    300.69513   -3690.8719 
10110000    279.26836   -4692.5054   -4153.9129   -4692.5054            0    4377.0006       19.824    20.163983    20.855766    8336.6919    4406.6415    4502.0449    4222.3155   -339.55367    1229.1085    764.91663   -3621.7479 
10111000    272.38184   -4672.9702   -4147.6589   -4672.9702            0    5929.9625    19.944298    19.831121    21.019768    8313.6919    5403.6513    6555.1855    5831.0505   -482.23389    45.553627    470.94811   -3428.6707 
10112000    262.73604   -4679.0611   -4172.3526   -4679.0611            0    3982.1502    20.081164    20.097868    20.680559    8346.4376    3703.2966    4317.1697    3925.9843     -738.083    541.91552   -567.77385   -3687.6284 
10113000    250.67384   -4699.5064   -4216.0608   -4699.5064            0    4545.2037    20.182559    19.929984     20.68259    8319.3251    3812.9592    4758.3657    5064.2863     421.3356    -111.1434   -253.17692   -3664.5966 
10114000    265.98596   -4686.5224   -4173.5461   -4686.5224            0    3084.6242    19.906884    20.310332    20.826162    8420.3381    4412.5241    1735.0075    3106.3411   -734.81512   -656.12171   -1802.4823   -3794.7481 
10115000    276.91354   -4720.6523   -4186.6012   -4720.6523            0    6077.9294    20.011143    20.143132    20.491487    8259.8541    5664.3039     5145.091    7424.3932   -206.87994   -361.94773   -1139.0853   -3454.4448 
10116000    268.61673   -4731.2538   -4213.2039   -4731.2538            0    4471.8098    19.973502    20.130631    20.649609    8302.7784     2380.236     4819.371    6215.8224     108.8016    410.92779   -852.96144   -3671.7236 
10117000    253.39374   -4710.9052   -4222.2141   -4710.9052            0    2871.7552    20.191873     20.04352    20.764096    8403.5661    3788.9398    1922.8633    2903.4625   -257.12327   -47.784143   -57.265938   -3870.2593 
10118000    247.21998   -4683.6832   -4206.8987   -4683.6832            0    3861.9369    20.164028    20.066503    20.702692    8376.7548    4311.2042    3712.3349    3562.2717    618.35152    584.12873    1220.7072   -3735.0998 
10119000    263.16485   -4720.7231   -4213.1875   -4720.7231            0    4498.7115    19.942048    20.188218    20.779459    8365.6941    6017.7994    3074.9585    4403.3766    712.39713    1092.8479    1211.9148   -3664.3219 
10120000    265.21814   -4697.3355     -4185.84   -4697.3355            0    3832.5331    20.157933    19.863305     20.94905    8388.0659    2300.8111     4752.034    4444.7542    109.44387   -298.89419    107.80135   -3717.0011 
10121000     258.3371   -4715.8511   -4217.6263   -4715.8511            0    4156.3859    20.051289    20.131216    20.765415    8382.1016     5043.454    3241.0615    4184.6423    119.04959    751.63839     1007.077   -3709.5315 
10122000    275.00511   -4680.0363   -4149.6659   -4680.0363            0    3912.2706    20.497692    20.078955    20.356738    8378.2681    764.68725    5056.7573    5915.3673    505.39793    534.75893   -144.37939   -3671.6316 
10123000    270.59461   -4708.4546   -4186.5902   -4708.4546            0    3036.7402    20.196611    20.055803    20.638142    8359.6703    1079.2093    4312.4519    3718.5594   -688.80809   -314.98567    966.57361   -3816.3593 
10124000      265.472   -4692.5139   -4180.5288   -4692.5139            0    5167.6391    20.058873    20.032995    20.788102    8353.4761    5748.0566    4552.2717    5202.5889    109.28698    1176.0624    834.41465   -3550.9714 
10125000    270.34121   -4691.3773   -4170.0015   -4691.3773            0     3880.656    19.940171    20.159694     20.97926    8433.4057    4704.3174    3892.1314    3045.5192   -1023.2213   -219.80249    600.91027   -3692.7097 
10126000    254.42785   -4715.8817   -4225.1962   -4715.8817            0     2814.804    20.052046    20.012466    20.811586    8351.4994    3052.0434     3792.415    1599.9536   -610.78325   -572.64532    89.279773   -3882.3586 
10127000    273.58267   -4723.5289   -4195.9017   -4723.5289            0    4170.8469    20.020987    20.257551    20.578533    8346.1623    4973.0029    2352.8704    5186.6673    346.14469    44.085958   -876.88033   -3688.2254 
10128000    261.31307   -4704.6961   -4200.7319   -4704.6961            0    5694.3644    20.195271    20.027011    20.730977    8384.6623     4568.259     7384.745    5130.0891   -405.90276    2148.9235    43.775979   -3504.4153 
10129000    270.85419   -4667.0111    -4144.646   -4667.0111            0    4232.3198    20.094708    19.949278    20.893352     8375.621    4886.9132    4318.5448    3491.5015    814.28585    651.82773    -1180.252   -3627.6688 
10130000    248.73436   -4707.1842   -4227.4791   -4707.1842            0      2957.81    20.155499     19.81081    20.878761    8336.8216    3046.1233    3168.5351    2658.7716   -297.15522   -566.08285   -517.21915   -3867.8567 
10131000    249.46524     -4705.68   -4224.5653     -4705.68            0    3353.6106    20.146335    20.112746    20.635102    8361.3047    4805.3662    2467.5024    2787.9634   -166.23929    1258.6867    -380.3694   -3815.6225 
10132000    275.19666   -4682.8914   -4152.1515   -4682.8914            0    5353.1267     20.15764    19.957045    20.775298    8357.6307    5348.3412     5722.961    4988.0779    423.30255    562.99676    -137.3008   -3499.6724 
10133000    276.06555    -4674.589   -4142.1734    -4674.589            0    6042.8337    19.927577    20.175104    20.666911     8308.944    7283.9091    6217.7568    4626.8351   -308.36373   -486.70876    505.35394   -3409.9184 
10134000    262.53856    -4712.948   -4206.6203    -4712.948            0    5331.1301    19.969692    19.978581    20.774266     8288.228    5857.3677    5824.3494    4311.6731    264.48427    337.06003   -289.94131   -3562.2184 
10135000    263.61839   -4701.5827   -4193.1725   -4701.5827            0    5382.1697    19.974482    19.885427     20.95711    8324.1871    5727.1902    5777.8684    4641.4505    459.41843    1140.9498   -775.07163   -3539.7785 
10136000    276.86736   -4708.5442   -4174.5822   -4708.5442            0    4954.3458    19.998001    19.976363    20.809925    8313.3013    6044.9848    3700.6144    5117.4383   -245.58157   -447.86434     364.7879   -3573.9125 
10137000    262.95127    -4715.431   -4208.3074    -4715.431            0    4877.6685    20.128306    20.134905    20.457121    8290.8936    2856.5875     5790.752    5985.6662    302.02877    146.59175     322.2694   -3618.5281 
10138000    255.70921   -4691.4628    -4198.306   -4691.4628            0    3864.0677    20.034548    20.042318     20.81183     8356.757    3363.7722    4043.7051    4184.7259    634.83371    288.21062    215.63809   -3727.3738 
10139000    248.70266   -4721.5502   -4241.9062   -4721.5502            0    4697.2331    20.153204     20.22262    20.576963    8386.1533    4642.2063    4279.7708    5169.7222   -922.00783   -681.18746    159.63438   -3667.4184 
10140000    257.89422   -4667.8673   -4170.4966   -4667.8673            0    4170.4709    20.234534    20.120339    20.515386    8352.3406    3557.0506     4209.419    4744.9431    411.98808    507.56909   -381.62417   -3662.4902 
10141000     268.3495   -4713.5683   -4196.0337   -4713.5683            0    3738.4163    20.121679     20.01395     20.76362    8361.8061    3840.1163    3252.9183    4122.2143    78.030479     924.8487    -1424.944   -3740.1399 
10142000     254.2842   -4682.1846   -4191.7761   -4682.1846            0    2550.5375    20.026893    20.099039     20.83262    8385.5733    1240.3024    3565.8208    2845.4892   -505.17762    317.65434   -687.89529   -3879.8582 
10143000    262.42839   -4701.9156   -4195.8004   -4701.9156            0    4871.8892    20.141953    19.823773    20.799384    8304.9755    5603.8499    6313.8029    2698.0148    216.00647    377.98038   -1896.5206   -3605.7194 
10144000       265.29   -4691.3022   -4179.6681   -4691.3022            0    5475.6219    20.212893    19.842803    20.715528    8308.5932    3718.3428    7628.3645    5080.1585    529.75229    92.638634   -491.07778   -3516.1743 
10145000     262.9465   -4693.6945     -4186.58   -4693.6945            0     3187.751    20.241864    20.155303    20.488323    8358.8442     4242.088    441.16057    4880.0045   -179.18986   -335.28507    743.91721   -3797.9767 
10146000     253.7719   -4697.5209   -4208.1005   -4697.5209            0    5724.6622    20.015778    20.138868    20.600478    8303.9519    7406.7198    5240.2446    4527.0222   -859.45417    684.13058   -935.31949   -3514.8174 
10147000    248.03543   -4688.6339   -4210.2767   -4688.6339            0    5922.2496    20.145811    19.756239    20.703412    8240.0705    4788.2557    7118.6381    5859.8552    -193.0582   -332.12176   -1690.4117   -3498.5823 
10148000    258.95291   -4706.5121   -4207.0996   -4706.5121            0    4239.7155    20.101806    19.802497    20.971928    8348.2105    4422.8586    5216.4505    3079.8373   -763.05385    595.89301    561.91572   -3690.9139 
10149000     261.0615   -4674.0133   -4170.5343   -4674.0133            0     6181.062    20.015215    20.011261    20.726894    8301.7368    6748.5499    6429.7911    5364.8451    143.70003   -332.87962   -1510.4009   -3422.1788 
10150000    261.49434   -4698.2801   -4193.9663   -4698.2801            0    5444.2414    20.264586    19.950289    20.590856    8324.5607    6282.8382    4815.9334    5233.9525   -506.40888    225.36275    683.35884   -3533.0072 
10151000    276.96604   -4678.7329   -4144.5806   -4678.7329            0      4086.59    20.046548    19.974888    20.789066    8324.5148    6214.8965    1773.8303    4271.0434   -565.36769   -555.41573   -1365.0125   -3648.4501 
10152000    257.12865   -4662.9246   -4167.0304   -4662.9246            0    3942.2488    20.021998     20.12328    20.830854    8392.9232     3802.893    5027.3021    2996.5513   -547.92874   -539.68987   -201.76387   -3684.4905 
10153000    251.32842   -4680.7367   -4196.0287   -4680.7367            0    3541.6356    20.237768    20.054836     20.70676    8404.1518    2608.5558    3459.2782    4557.0728    208.61807   -1452.2618    248.06076   -3761.9448 
10154000    253.55142   -4672.6954   -4183.7001   -4672.6954            0    3456.4813    20.038507    20.129077    20.519921    8276.8465    4136.4676    2264.8386    3968.1377    272.21242    691.43316   -505.32779   -3766.4706 
10155000     264.9027   -4704.5626   -4193.6755   -4704.5626            0     4819.581    19.923915    20.002869    20.995472    8367.4401    6203.2686    4761.7436    3493.7309   -121.62278    1163.4167   -364.36614   -3605.5394 
10156000    253.92608   -4700.9678   -4211.2499   -4700.9678            0    4686.5018     19.90111    19.988041    21.013829    8358.9692    5485.2704    4542.0922    4032.1428    156.38542    -1486.851   -555.04067   -3639.9326 
10157000    263.63889   -4697.8942   -4189.4444   -4697.8942            0    4029.6615    20.114516    20.069597    20.715888    8362.8018    4115.2348    4248.4537    3725.2961    -444.1696    1505.7626   -513.05001   -3697.9753 
10158000    245.80597   -4685.1074   -4211.0499   -4685.1074            0    6327.8223    20.133055    20.021336    20.515603    8269.6481    4761.2172    6566.6133    7655.6364     874.5226    1801.3069   -1191.9801   -3447.8871 
10159000    253.49545   -4704.5386   -4215.6513   -4704.5386            0    4286.6401    19.990315    20.042575    20.932857    8386.9038    5573.0009    4139.5494    3147.3699   -250.65923    1417.4422    153.72786   -3691.3336 
10160000    264.44755   -4690.7816   -4180.7722   -4690.7816            0    3442.6012     20.08598    19.916497    20.869647    8348.7431    3531.7214    3806.4263    2989.6559    -271.9253    694.91149    -550.4773   -3761.6085 
10161000    259.09332   -4706.1407   -4206.4575   -4706.1407            0    4138.2432    20.043965    20.105562    20.734979    8356.0965    4690.0757     3875.507    3849.1469   -700.19063   -1262.0485   -984.27044   -3702.1501 
10162000    267.01769   -4693.5241   -4178.5581   -4693.5241            0    5282.5061    20.197129    20.070277    20.552801    8331.3238    5631.8967    4086.9827    6128.6388   -190.49233   -1279.2959    297.59691   -3536.7134 
10163000     271.3077   -4706.0192   -4182.7795   -4706.0192            0    2810.8159    20.115913    20.110767    20.877837    8446.0541    3537.1102    1960.6028    2934.7347    234.78415    456.16455    619.62368   -3836.5515 
10164000    254.43555   -4694.0744    -4203.374   -4694.0744            0    5969.5127    20.036463    19.999572    20.666647    8281.5528    5802.4205    6536.9033    5569.2143      133.353   -1480.8873    1107.0755   -3482.3885 
10165000    261.04794   -4685.9182   -4182.4653   -4685.9182            0    4710.2627    19.841978    20.045969    21.015591    8358.9867    5398.6896    5062.2592    3669.8391    553.90444   -1101.9172   -1260.6262   -3608.2501 
10166000    266.21548   -4680.3486   -4166.9296   -4680.3486            0    3299.9613    20.027928    20.164714    20.770328    8388.2513    4258.5971    1252.9986    4388.2882    146.93975    632.54625    1527.9051    -3763.232 
10167000    275.32242   -4718.5966   -4187.6141   -4718.5966            0    4469.2602    20.291176    19.930185    20.571424    8319.2256     2803.827    5307.9624    5295.9911   -19.840621   -510.15929   -3.2113553   -3645.3705 
10168000    264.96597   -4672.0201   -4161.0109   -4672.0201            0     1967.386    19.947862    20.143433    20.862887    8383.0922    2969.7514    1534.2735     1398.133    9.9054689    323.43128    893.33972   -3920.4807 
10169000    279.94955   -4687.7071   -4147.8009   -4687.7071            0     4881.686    19.946329    19.994012     20.82298    8304.3532    3473.9711    6849.6173    4321.4694   -557.02781   -949.85168   -133.11903   -3556.5776 
10170000    254.28244   -4662.2909   -4171.8858   -4662.2909            0    3834.4375    19.923893    20.254716    20.883595    8427.6331    5345.7531    2230.0918    3927.4677   -41.789292   -231.17628   -120.30365   -3700.6013 
10171000    262.92486   -4683.5177    -4176.445   -4683.5177            0     2994.675    20.292907    19.953381    20.736002    8396.2584    1890.4827    3928.6199    3164.9224   -268.16047    312.42158   -1013.9352   -3809.7446 
10172000    262.10039   -4705.9297    -4200.447   -4705.9297            0     5383.732    19.903171    20.175534    20.870098     8380.536     6430.209     4467.234    5253.7529    350.09902    503.19262   -1299.9424   -3542.4391 
10173000    256.50235   -4708.7791   -4214.0928   -4708.7791            0     5544.575    20.263275    19.803943    20.772314    8335.7788    4720.3572    7736.2595    4177.1082    145.20891   -436.15336   -1330.0369   -3540.0455 
10174000    256.25458   -4681.3025    -4187.094   -4681.3025            0    2995.3893    20.168827    20.224857    20.666441    8430.0819    2583.5492    4366.7769    2035.8417    602.48635   -371.90313    283.22583   -3818.8286 
10175000    263.86867   -4703.2474   -4194.3544   -4703.2474            0    5146.3732    20.131948    19.738548    20.924512    8314.8872    3926.3533    7059.8053     4452.961   -296.80396    1312.2408   -1491.5887   -3570.2841 
10176000    270.10495    -4734.816   -4213.8958    -4734.816            0    2917.6963    20.183388    19.923078    20.842169    8380.9532    3757.0832       2403.2    2592.8057   -62.519761    765.84198    1016.1842   -3857.2728 
10177000    264.28349   -4693.3961   -4183.7032   -4693.3961            0    3031.4762    20.247832    20.033234      20.6975    8395.5179    2706.3806    3336.0119    3052.0361    27.814727    21.785368    -1419.915   -3812.5292 
10178000    257.16936   -4673.0168   -4177.0441   -4673.0168            0    7037.5453    20.121038    19.913177    20.592541    8250.8917    7019.0821    6383.4937    7710.0602   -509.67815    1217.9998   -1125.8234   -3330.2107 
10179000     270.3699   -4671.9114   -4150.4803   -4671.9114            0    5852.1871    20.055597    20.201374    20.689257    8382.2655    6074.5595    5874.2422    5607.7596   -210.52545     498.7857    -245.1578   -3435.0695 
10180000    272.15181   -4695.8587    -4170.991   -4695.8587            0    4775.0215    20.175919    19.858992    20.753324    8315.3055    3865.9623    5829.1046    4629.9976    -397.5519    173.98853    184.51041   -3591.9232 
10181000    263.79442   -4707.6199   -4198.8702   -4707.6199            0    5507.6449    19.822293    20.191139     20.85807    8348.1231    8531.7987    3403.5022    4587.6339    358.64137   -586.53597   -719.93517   -3528.3209 
10182000    267.31145   -4711.1722   -4195.6396   -4711.1722            0    2922.8217    20.016416    20.253002     20.71142    8396.2545    4459.0337    991.02636    3318.4052   -797.71904    869.73962    220.42651   -3837.7378 
10183000    256.89934   -4712.8453   -4217.3933   -4712.8453            0    4465.0371    20.190624    19.912077    20.805959     8364.771    4398.5575    4589.8643    4406.6895    -221.9879    1231.1879   -242.18179   -3672.6963 
10184000    255.67304   -4710.4768   -4217.3898   -4710.4768            0    3359.7108    19.927408    20.233782    20.863501    8412.3062    3023.2748    3321.1648    3734.6927   -353.80966    475.79497    581.85012   -3805.2042 
10185000    276.98693   -4703.5888   -4169.3962   -4703.5888            0    4966.2148    20.042198    20.207385    20.625581     8353.369    5543.0068    4862.3983    4493.2392   -345.19168    633.51165   -603.24496   -3564.3855 
10186000    278.20206   -4693.7683   -4157.2323   -4693.7683            0    5676.9138     20.03478     20.02983    20.718229    8314.0847    4637.7978    7241.2179    5151.7259   -292.92658    233.96633     504.0557   -3468.8928 
10187000    267.84674   -4726.2691   -4209.7041   -4726.2691            0    2768.6824    20.041488     20.09013    20.939575    8431.0292    1198.6882    4339.1799    2768.1791    41.472582   -1039.4645     1076.924   -3869.2727 
10188000    275.36964   -4699.5273   -4168.4537   -4699.5273            0    4482.7535    20.244973     19.97934    20.545391    8310.2241    2176.8621    5421.6354    5849.7631   -220.78782    152.24075    296.23381   -3625.1615 
10189000    255.35014   -4708.9648   -4216.5006   -4708.9648            0    4702.3479     20.27362    19.956907    20.486408     8288.775    4435.6025    5285.5261    4385.9153   -455.84969    1521.5931    490.09399   -3648.0654 
10190000    272.32947   -4673.0714   -4147.8611   -4673.0714            0    3595.5851     20.00029    20.077887    20.926663    8403.3852    4804.0833      3512.34    2470.3319    419.59648    133.68459    672.43279    -3707.205 
10191000    258.16382   -4676.3793   -4178.4886   -4676.3793            0    5736.8572    19.888544    20.034657    20.886006    8322.2411    8180.4619    4341.7556     4688.354   -924.79694    604.14144   -5.2346578   -3482.1985 
10192000    271.98992   -4703.7043   -4179.1489   -4703.7043            0    4883.2362    20.138857    19.984388    20.660365    8315.0268    4614.3206     4393.536    5641.8519    42.707612     703.8873   -547.35633   -3586.9777 
10193000    263.55099   -4686.8734   -4178.5931   -4686.8734            0    5568.4053    20.039699    20.179336    20.647576    8349.6283    6870.0416    4091.1574    5744.0169   -574.05211   -62.146988    1072.2933   -3500.5241 
10194000    253.78702   -4652.4688   -4163.0192   -4652.4688            0    4984.2261    20.057067    20.076985    20.830535    8388.1529    4035.9204    4894.6975    6022.0604   -62.735037   -242.61326    646.22205   -3553.2858 
10195000    261.23786   -4683.5359   -4179.7167   -4683.5359            0    6198.8651    19.894257    20.202338    20.496958    8237.9424    5148.9778    5889.0479    7558.5697    746.22572    -1028.323    -966.9077    -3434.973 
10196000    258.88242   -4694.0116    -4194.735   -4694.0116            0    3899.8703    19.991566    20.137087    20.673323    8322.4989    3713.3076    4379.6207    3606.6826   -435.45664     1310.494     347.5322   -3721.3878 
10197000    266.29951   -4705.9345   -4192.3535   -4705.9345            0    5153.1925    19.960809    19.963742    20.912144    8333.3318    6636.5091      3840.87    4982.1983   -319.41556   -781.85612   -420.49947     -3566.07 
10198000    268.03257   -4687.0774   -4170.1541   -4687.0774            0    4931.7835    20.010134    19.930515    20.873941    8324.7841    5453.4371    5391.1391    3950.7743   -660.74295   -110.81605    1259.2998   -3571.3939 
10199000    267.30426   -4675.8217   -4160.3029   -4675.8217            0    4134.3198     20.14985    20.093707    20.757566    8404.4307    4571.1685    4328.3493    3503.4415    250.74995   -287.46384    509.87439   -3653.5594 
10200000    264.47259   -4707.2734   -4197.2158   -4707.2734            0    4381.3552    20.203638    19.980709    20.596238    8314.3515    3501.7732     4475.181    5167.1112   -612.26342    2033.1879   -373.55115   -3665.9489 
10201000    265.34242   -4712.5168   -4200.7816   -4712.5168            0    2993.7138    20.177635    20.188579    20.560457    8375.4619    3558.7502    1637.0329    3785.3583     -499.303    150.93759    1302.2404   -3835.1069 
10202000    263.10802   -4684.0365   -4176.6106   -4684.0365            0    4439.3751    20.038819     20.05625     20.81994    8367.6078    3779.3046    5027.3762    4511.4444    423.69917   -1132.2386    -460.5638   -3634.8604 
10203000    260.47219   -4714.4867   -4212.1442   -4714.4867            0    4779.6241     19.85395    20.027006    20.915902    8316.4801    6994.4352    4204.8096    3139.6275    51.840805   -588.35643    1231.3657   -3632.4363 
10204000    258.29689    -4713.554   -4215.4068    -4713.554            0    3167.0845    20.081161     20.02621    20.650408    8304.5524    2052.2623     4562.209    2886.7822   -693.29703    571.08549    752.06568   -3831.8305 
10205000    255.88742   -4720.0793   -4226.5788   -4720.0793            0    4114.7018    20.216647    19.970902    20.731984    8370.4279    3628.7257    4154.3609    4561.0186    359.59895    324.65813    2065.8583   -3724.2803 
10206000    255.89775   -4708.6863   -4215.1659   -4708.6863            0    5707.7882    19.894285    20.106127    20.736437    8294.5131    6379.8141    5262.7372    5480.8133    250.29096    590.86214   -106.69673   -3524.7121 
10207000    259.74769   -4690.6744   -4189.7291   -4690.6744            0    3023.7685    20.306426     19.82665     20.82312    8383.5632    1801.6965    4985.3458    2284.2633   -243.52519    -393.8663    576.91172    -3820.026 
10208000    259.67973   -4679.7374   -4178.9232   -4679.7374            0    3720.4661    19.970161    20.253752    20.659318    8356.0883    5803.8449    138.34122    5219.2122   -179.55766    226.70277    379.05146   -3725.5287 
10209000    261.54392   -4702.1504   -4197.7409   -4702.1504            0    4293.4834     20.10705    19.937944    20.780828    8330.8937    4735.7364    3869.0266    4275.6871    117.80695    245.95341   -669.00795   -3676.0932 
10210000    285.45031   -4706.5974   -4156.0825   -4706.5974            0    4888.7907    19.773339    20.081349    20.979262     8330.347    5977.8984    4709.5233    3978.9503    514.23311    871.94948    923.00514   -3562.1454 
10211000    266.84066   -4694.4097   -4179.7851   -4694.4097            0    5389.7552    20.252983    19.978781    20.487006    8289.6555    5171.8886    5766.3101    5231.0668    642.28004   -1255.8678   -1312.6483   -3528.1846 
10212000    260.42089   -4691.7759   -4189.5323   -4691.7759            0    5041.4118    20.129694    20.141235    20.526832    8322.3355    5369.0627    4826.3919    4928.7809    297.69891    496.21111   -255.51589   -3577.6424 
10213000    269.57186   -4686.4229   -4166.5309   -4686.4229            0    3546.2613    20.206381    20.020986    20.742799    8391.5342    3051.9277    3447.3303    4139.5259    1020.6088   -1061.1277    116.93251   -3732.5326 
10214000    271.17471   -4693.2815   -4170.2982   -4693.2815            0    5755.2241    19.730311     20.09847    20.916831    8294.5499    7094.2559    6063.6698    4107.7467   -1450.8743    438.11315   -79.462712   -3474.1031 
10215000    242.14247   -4711.1786   -4244.1865   -4711.1786            0    4200.0943    20.152674    20.137112    20.616096    8366.3554    4830.3173    3556.4208    4213.5449    663.82948     148.2558   -1437.5091   -3731.7132 
10216000    263.53708    -4710.535   -4202.2816    -4710.535            0    4067.8526    20.118839    20.097951    20.609168    8333.2642    3891.5106    3305.1177    5006.9296     63.47519    822.62104    1139.2368   -3707.9069 
10217000    250.96532   -4712.9557   -4228.9479   -4712.9557            0    3824.4941    20.041129    20.024038    20.870715    8375.5082      2447.35    6094.9649    2931.1674    917.75041    606.76785   -786.88117   -3761.7929 
10218000    271.54729   -4700.5709   -4176.8691   -4700.5709            0    4541.3164    19.950551    20.167476    20.833923    8382.5757    6074.2923    3163.2214    4386.4356    312.19987    1712.0643   -551.82427   -3621.6874 
10219000    263.56957   -4673.9245   -4165.6084   -4673.9245            0    6199.9216    20.006116     19.83037    20.778197    8243.3066      6671.63    6167.5568     5760.578    426.43831     78.33691    8.4526372   -3420.2528 
10220000    255.43598     -4710.76   -4218.1302     -4710.76            0    5313.2714    19.906626    20.409194     20.41043    8292.3125    7660.7631    1015.7246    7263.3264    358.89318   -632.92738    906.73729   -3575.5704 
10221000    261.64168   -4694.5426   -4189.9446   -4694.5426            0    5081.8478    20.166183    19.947995    20.623134    8296.1696    5970.7459    4566.5075    4708.2902   -276.26316    1423.9075    530.96603   -3575.0861 
10222000    272.42064   -4727.7258   -4202.3397   -4727.7258            0    5237.3443    20.302648    19.735933    20.780158    8326.4368    4399.2416    5822.3353    5490.4561    322.18105   -208.53406   -58.457987   -3566.3557 
10223000    249.53371   -4687.0444   -4205.7977   -4687.0444            0    4582.8335    19.861466    20.078091    20.974783    8364.3309    5283.2906    4104.1361    4361.0736   -31.278115    230.68172    470.27432   -3646.7599 
10224000     261.2963   -4687.2473   -4183.3154   -4687.2473            0    5437.5831    19.849325    20.155378    20.749039    8301.0814    8711.2785    2525.5897    5075.8811    466.62085   -1139.4037   -364.53809   -3525.0266 
10225000    265.20927   -4713.1351   -4201.6567   -4713.1351            0    6237.3279    20.073307    20.012495    20.520759    8243.5367    8069.3849    3570.1382    7072.4607    -137.9073    457.14541   -923.66922   -3451.7832 
10226000    269.25755   -4699.8131   -4180.5273   -4699.8131            0    5440.1616    20.093733    20.299898    20.507357    8364.9659    3677.1841    5218.5274    7424.7735    988.92613    -490.2817   -416.85955   -3516.8578 
10227000     283.8597    -4665.766   -4118.3187    -4665.766            0    7231.5575    20.014773    20.032154    20.679353    8291.1596    8430.1771    5908.3426     7356.153     628.8361    1251.5322    1444.7268   -3243.8928 
10228000    270.18876   -4675.4168   -4154.3351   -4675.4168            0    5316.9875    20.024028    20.069869     20.74847     8338.387    4785.9255    6812.4899    4352.5469    143.81049    1105.6962    303.62607   -3507.7531 
10229000     274.6852   -4695.8369   -4166.0833   -4695.8369            0    4168.1023    20.103417    19.953606    20.730101    8315.5826    4450.6698    4170.0312    3883.6057    11.028552    1690.3048   -83.768618   -3660.5999 
10230000    272.18657   -4665.2489   -4140.3142   -4665.2489            0    4803.2465    20.160815    20.044201    20.641872    8341.5333    4477.9187     4020.919    5910.9018    329.15493    1076.5929   -441.06499   -3555.9863 
10231000    272.89352   -4700.2757   -4173.9776   -4700.2757            0    3648.5579    20.101026    20.045634    20.903756    8422.9137    4115.7828    3967.0182    2862.8728     521.3279   -123.57044    502.11779   -3725.7904 
10232000    265.16669   -4692.5244   -4181.1281   -4692.5244            0    4562.4634    20.001701    19.855332    20.929475      8311.94    5041.1159    4316.0571    4330.2174   -230.98639    1136.3384   -94.498579   -3628.0612 
10233000    266.93726   -4708.0685   -4193.2575   -4708.0685            0     2580.064    20.137654     19.90307    20.976246     8407.303    1832.8643    3383.5854    2523.7422    537.29395   -14.428087     309.4071    -3876.911 
10234000    272.38238   -4698.7266   -4173.4143   -4698.7266            0    3306.5631    20.057154    20.288505    20.668146    8410.4819    3318.8127    81.224805    6519.6516   -298.58898   -2259.8156    578.02635    -3767.837 
10235000     263.8581    -4721.436   -4212.5634    -4721.436            0    5049.3848    20.180156    19.947323    20.622587    8301.4182     5305.086    3820.0525    6023.0158   -20.217568   -73.201412   -111.41056   -3601.2462 
10236000    259.21234    -4708.185   -4208.2722    -4708.185            0    2431.4043    20.189193     20.01687    20.729787     8377.414    2277.4979    1441.4048    3575.3101    198.29113    849.01402    236.66146    -3911.213 
10237000    253.89315   -4680.2761   -4190.6218   -4680.2761            0    3996.7561    20.025188    19.980526     20.99771    8401.4735    3775.0468    5558.0569    2657.1645    419.99305    -96.52489    12.794865   -3700.9118 
10238000    264.52712   -4683.8104   -4173.6476   -4683.8104            0    4714.9837    20.161006    19.912912    20.789005     8346.044    3128.5889    6188.5299    4827.8323   -6.6406633   -204.12236   -1449.9466   -3599.7469 
10239000    260.96962   -4695.0675   -4191.7657   -4695.0675            0    5296.3183    20.012222    20.086354    20.692541     8317.834    4621.6947    6013.9442     5253.316    299.34669   -384.13616    1131.8319   -3549.2848 
10240000    269.20486   -4689.1519   -4169.9676   -4689.1519            0    5070.3737    20.260533    19.984014    20.531177    8312.8023    4813.1946    5013.5869    5384.3394   -672.40832   -200.07754   -525.12694   -3555.2675 
10241000    255.19113   -4704.2364   -4212.0788   -4704.2364            0    5548.0337    19.996854     20.11623      20.5823     8279.463    5061.3746    5520.7849    6061.9417    517.34658    1516.5921   -707.80873   -3542.1678 
10242000    252.99348   -4674.5357   -4186.6165   -4674.5357            0    4678.1011    20.026689    20.183598    20.763469     8392.815    5026.0054    4285.1886    4723.1092    275.90649    145.10459   -1085.1343   -3614.0141 
10243000     262.0543   -4676.2151   -4170.8214   -4676.2151            0    4301.3876    20.146323    19.953903    20.923074    8411.0286    4240.2987    4064.3392    4599.5249    -209.3154    360.28463   -56.899947   -3643.1864 
10244000    276.54663   -4696.8636   -4163.5202   -4696.8636            0    4440.2115    19.946721    19.829827    20.984289    8300.1261    3417.5984    5760.4645    4142.5716   -62.693174    1293.1278   -800.03993   -3626.0378 
10245000    278.04783   -4682.5263   -4146.2876   -4682.5263            0     3754.391    20.128118    20.157546    20.778705    8430.6164    2742.2799    3622.7064    4898.1867   -540.89495    758.69632     311.8336   -3684.6782 
10246000    273.21147   -4693.4442   -4166.5329   -4693.4442            0    4061.9457    20.084222    20.056893    20.746029    8357.0623    3414.2102    5809.9916    2961.6354   -319.80888   -14.117893    338.92956   -3671.4663 
10247000    263.31034   -4701.3656   -4193.5495   -4701.3656            0    3841.8125    20.019959    20.087679    20.968466    8432.5632     5954.522     1511.857    4059.0587    920.50442    719.38537    1686.2941   -3721.0823 
10248000    264.58111   -4675.1173   -4164.8503   -4675.1173            0    4268.4387     20.15353    20.157327    20.698377    8408.5354    3316.8836    5687.7225      3800.71    506.09286    1549.1452    283.12407   -3641.4123 
10249000    261.98847   -4715.1672   -4209.9004   -4715.1672            0     3537.428    19.930542    20.345267    20.688989    8389.2236    4989.3148    2447.0661     3175.903     748.1423    658.47438   -25.093731   -3777.1024 
10250000    275.61374   -4690.9055   -4159.3612   -4690.9055            0    2618.8986    20.179521    20.033293     20.88259    8442.0431    1899.9079    3852.8817    2103.9062   -106.46352    -838.3283    1219.0912   -3836.9262 
Loop time of 447.899 on 64 procs for 250000 steps with 972 atoms

Performance: 96.450 ns/day, 0.249 hours/ns, 558.162 timesteps/s
189.8% CPU use with 32 MPI tasks x 2 OpenMP threads

MPI task timing breakdown:
Section |  min time  |  avg time  |  max time  |%varavg| %total
---------------------------------------------------------------
Pair    | 24.598     | 35.352     | 44.397     |  76.0 |  7.89
Bond    | 0.79936    | 1.1744     | 1.764      |  18.6 |  0.26
Kspace  | 190.23     | 201.85     | 214.92     |  45.1 | 45.07
Neigh   | 2.3619     | 3.0876     | 3.6994     |  26.7 |  0.69
Comm    | 83.28      | 92.681     | 107.82     |  69.1 | 20.69
Output  | 0.55227    | 0.55264    | 0.55439    |   0.0 |  0.12
Modify  | 84.489     | 90.453     | 95.619     |  35.1 | 20.19
Other   |            | 22.74      |            |       |  5.08

Nlocal:        30.3750 ave          36 max          23 min
Histogram: 1 3 2 3 1 4 8 6 2 2
Nghost:        2585.38 ave        2626 max        2562 min
Histogram: 5 4 6 4 5 3 1 1 1 2
Neighs:        9326.38 ave       12406 max        6937 min
Histogram: 6 1 1 5 6 5 5 1 1 1

Total # of neighbors = 298444
Ave neighs/atom = 307.04115
Ave special neighs/atom = 2.0000000
Neighbor list builds = 8230
Dangerous builds = 0

unfix		3
unfix		2
unfix		1

write_data	data.final.${pid}
write_data	data.final.0
System init for write_data ...
PPPM initialization ...
  extracting TIP4P info from pair style
  using 12-bit tables for long-range coulomb (../kspace.cpp:340)
  G vector (1/distance) = 0.37198635
  grid = 24 24 25
  stencil order = 5
  estimated absolute RMS force accuracy = 0.0034597705
  estimated relative force accuracy = 1.0418996e-05
  using double precision FFTW3
  3d grid and FFT values/proc = 3458 576
Last active /omp style is kspace_style pppm/tip4p/omp
WARNING: Not all mixed pair coeffs generated from mixing. Use write_data with 'pair ij' option to store all pair coeffs. (../write_data.cpp:312)

write_restart   restart.lmp.${pid}
write_restart   restart.lmp.0
System init for write_restart ...
PPPM initialization ...
  extracting TIP4P info from pair style
  using 12-bit tables for long-range coulomb (../kspace.cpp:340)
  G vector (1/distance) = 0.37198635
  grid = 24 24 25
  stencil order = 5
  estimated absolute RMS force accuracy = 0.0034597705
  estimated relative force accuracy = 1.0418996e-05
  using double precision FFTW3
  3d grid and FFT values/proc = 3458 576
Last active /omp style is kspace_style pppm/tip4p/omp
Total wall time: 0:07:28
