LAMMPS (30 Jul 2021)
  using 1 OpenMP thread(s) per MPI task
package omp 0
using multi-threaded neighbor list subroutines
echo both

include		in.partitions
variable        pid world 0
include		in.temp
variable        temperature equal 257.32
variable	tempDamp equal 100.0
include		in.pressure
variable        pressure equal 6750.0
variable        pressureDamp equal 1000.0 # This is 1 ps
include		in.seed
variable        seed world 745823

units		real
atom_style	full
read_restart	restart.lmp.${pid}
read_restart	restart.lmp.0
Reading restart file ...
  restart file = 30 Jul 2021, LAMMPS = 30 Jul 2021
  restoring atom style full from restart
  orthogonal box = (0.53306009 1.7194056 0.65033207) to (17.674512 21.909772 21.562864)
  4 by 4 by 4 MPI processor grid
  restoring pair style lj/cut/tip4p/long/omp from restart
  restoring bond style harmonic/omp from restart
  restoring angle style harmonic/omp from restart
  864 atoms
  576 bonds
  288 angles
Finding 1-2 1-3 1-4 neighbors ...
  special bond factors lj:    0        0        0       
  special bond factors coul:  0        0        0       
     2 = max # of 1-2 neighbors
     1 = max # of 1-3 neighbors
     1 = max # of 1-4 neighbors
     2 = max # of special neighbors
  special bonds CPU = 0.787 seconds
  read_restart CPU = 1.148 seconds
include 	in.setup
variable	out_freq equal 1000
variable	out_freq2 equal 10000
variable	out_freq3 equal 1000

timestep	2.0

neigh_modify    delay 7 every 1

include		in.tip4p
# This is TIP4P/Ice

# create groups ###
group ox type 2
288 atoms in group ox
group hy type 1
576 atoms in group hy

# set charges - beside manually ###
set group ox charge -1.1794
Setting atom values ...
  288 settings made for charge
set group hy charge 0.5897
Setting atom values ...
  576 settings made for charge

# ### TIP3P Potential Parameters ###
pair_style lj/cut/tip4p/long/omp 2 1 1 1 0.1577 8.5
pair_coeff 1 1*2 0.000 0.000
pair_coeff 2 2 0.21084 3.1668
bond_style  harmonic
bond_coeff  1 450 0.9572
angle_style harmonic
angle_coeff 1 55 104.52
kspace_style pppm/tip4p/omp 1.0e-5
pair_modify tail yes

thermo          ${out_freq}
thermo          1000
thermo_style    custom step temp pe etotal epair emol press lx ly lz vol pxx pyy pzz pxy pxz pyz enthalpy

restart 	${out_freq3} restart.lmp.${pid} restart2.lmp.${pid}
restart 	1000 restart.lmp.${pid} restart2.lmp.${pid}
restart 	1000 restart.lmp.0 restart2.lmp.${pid}
restart 	1000 restart.lmp.0 restart2.lmp.0


include         in.dump
dump            myDump all atom ${out_freq2} dump.water.${pid}
dump            myDump all atom 10000 dump.water.${pid}
dump            myDump all atom 10000 dump.water.0
dump            myDump2 all dcd ${out_freq2} dump.dcd
dump            myDump2 all dcd 10000 dump.dcd
dump_modify     myDump append yes
dump_modify     myDump2 append yes


variable natoms 	equal  "count(all)"                        # NUMBER ATOMS
variable H      	equal  "enthalpy/v_natoms"                 # ENTHALPY-per-atom
variable Vol      	equal  "vol/v_natoms"                 # volume-per-atom
fix AVG all 		ave/time ${out_freq} 1 ${out_freq} v_Vol v_H file vol_enthalpy.dat
fix AVG all 		ave/time 1000 1 ${out_freq} v_Vol v_H file vol_enthalpy.dat
fix AVG all 		ave/time 1000 1 1000 v_Vol v_H file vol_enthalpy.dat


timer           timeout 23:50:00 every 1000
New timer settings: style=normal  mode=nosync  timeout=23:50:00

fix 		1 all shake 1e-6 200 0 b 1 a 1
       0 = # of size 2 clusters
       0 = # of size 3 clusters
       0 = # of size 4 clusters
     288 = # of frozen angles
  find clusters CPU = 0.003 seconds
fix             2 all nph iso ${pressure} ${pressure} ${pressureDamp}
fix             2 all nph iso 6750 ${pressure} ${pressureDamp}
fix             2 all nph iso 6750 6750 ${pressureDamp}
fix             2 all nph iso 6750 6750 1000
fix             3 all temp/csvr ${temperature} ${temperature} ${tempDamp} ${seed}
fix             3 all temp/csvr 257.32 ${temperature} ${tempDamp} ${seed}
fix             3 all temp/csvr 257.32 257.32 ${tempDamp} ${seed}
fix             3 all temp/csvr 257.32 257.32 100 ${seed}
fix             3 all temp/csvr 257.32 257.32 100 745823

run             250000
PPPM initialization ...
  extracting TIP4P info from pair style
  using 12-bit tables for long-range coulomb (../kspace.cpp:340)
  G vector (1/distance) = 0.37345518
  grid = 24 24 24
  stencil order = 5
  estimated absolute RMS force accuracy = 0.0032542444
  estimated relative force accuracy = 9.8000603e-06
  using double precision FFTW3
  3d grid and FFT values/proc = 2535 216
Last active /omp style is kspace_style pppm/tip4p/omp
Neighbor list info ...
  update every 1 steps, delay 7 steps, check yes
  max neighbors/atom: 2000, page size: 100000
  master list distance cutoff = 10.8154
  ghost atom cutoff = 10.8154
  binsize = 5.4077, bins = 4 4 4
  1 neighbor lists, perpetual/occasional/extra = 1 0 0
  (1) pair lj/cut/tip4p/long/omp, perpetual
      attributes: half, newton on, omp
      pair build: half/bin/newton/omp
      stencil: half/bin/3d
      bin: standard
Per MPI rank memory allocation (min/avg/max) = 9.235 | 9.238 | 9.240 Mbytes
Step Temp PotEng TotEng E_pair E_mol Press Lx Ly Lz Volume Pxx Pyy Pzz Pxy Pxz Pyz Enthalpy 
 1250000    259.74078   -3850.5309   -3405.3441   -3850.5309            0     5836.956    17.141452    20.190367    20.912532    7237.6641    5614.1759    5877.6075    6019.0845    636.26466    150.07059    11.667697   -2789.2306 
 1251000    261.90658   -3903.0217   -3454.1228   -3903.0217            0    6734.2541    17.038575     20.06919    20.787021    7108.1302    7389.9707    6054.6757    6758.1159   -300.72027   -2531.7186     704.6393   -2756.0178 
 1252000     252.8254   -3894.5794   -3461.2453   -3894.5794            0     6180.268    17.111935    20.155599     20.87652    7200.3387    6386.9865    5032.4717    7121.3458    1411.2706   -1285.0846    864.61583   -2812.2581 
 1253000    259.37581   -3872.7214   -3428.1601   -3872.7214            0     7294.922     17.04396    20.075534    20.793592    7114.8728    8516.3357    7040.5048    6327.9255   -1414.3116    -586.2614    828.20884   -2671.2162 
 1254000    247.15766   -3894.7579   -3471.1382   -3894.7579            0    5913.6413    17.022551    20.050316    20.767472    7088.0942    4068.5349    7327.8485    6344.5406   -413.68282   -67.420257    701.88577   -2859.8298 
 1255000    251.57106   -3844.7286   -3413.5444   -3844.7286            0    6723.9495     17.07609    20.113379     20.83279    7155.1856    7674.0115    5881.8689    6615.9682    653.73387     116.3966    1187.2058   -2711.8932 
 1256000    259.02108   -3862.3495   -3418.3963   -3862.3495            0    7056.5997    17.052458    20.085543    20.803958    7125.5194    6691.3562    6356.9775    8121.4656    2094.5417   -978.87802   -927.52648   -2685.0858 
 1257000    259.44251   -3866.7652   -3422.0896   -3866.7652            0    7316.5634    17.028242    20.057019    20.774415    7095.2058    7916.7889    8743.0353    5289.8659    -1221.526    829.65985     975.9623   -2664.9987 
 1258000    252.87064   -3852.5613   -3419.1497   -3852.5613            0     8733.956    17.016433    20.043111    20.760009    7080.4553    9332.2904     8095.148    8774.4295    191.34892    1330.7851   -601.69463   -2517.2711 
 1259000    265.37272   -3880.2016   -3425.3618   -3880.2016            0    6170.8472     17.12811    20.174651    20.896254    7220.7769    7457.8719    5249.9142    5804.7554    315.48961     1015.022    395.66803   -2775.5246 
 1260000    255.15889   -3860.5011   -3423.1675   -3860.5011            0    7292.6197    17.101022    20.142745    20.863207    7186.5724    8845.5935    7736.2499    5296.0158    1180.6045   -58.859201   -951.66511   -2658.8369 
 1261000    253.05088   -3863.5656   -3429.8451   -3863.5656            0    9510.0961     17.05398    20.087336    20.805816    7127.4279    8327.4508    10507.752    9695.0852    127.84855    449.91015   -2113.1044   -2441.3065 
 1262000    274.89796   -3868.0536   -3396.8879   -3868.0536            0    7076.5636    17.056095    20.089827    20.808396    7130.0804    7450.5355    7750.7983    6028.3571    -210.0038   -768.62165    768.63068   -2661.0321 
 1263000    254.66314   -3874.8081   -3438.3242   -3874.8081            0    5646.9677    17.156948    20.208619    20.931437    7257.3105    5973.3565    5793.9203    5173.6263    166.82848    -539.2921    1167.4247   -2840.6467 
 1264000    252.57219   -3888.4903   -3455.5902   -3888.4903            0    6649.1623    17.077976      20.1156    20.835091    7157.5571    6022.4169    5990.4572    7934.6128   -2643.1644   -240.26126   -2751.4294   -2761.5132 
 1265000    254.81766   -3874.9799   -3438.2312   -3874.9799            0    6904.4653    17.063395    20.098425    20.817301    7139.2384    9012.7488    5571.7253    6128.9219    506.20135   -855.14785    642.01322   -2719.3488 
 1266000    256.41323   -3888.6287   -3449.1452   -3888.6287            0    5579.4889    17.095878    20.136687    20.856932    7180.0894    5120.9915    6876.9784    4740.4969   -2544.7173    661.54828    979.17828   -2864.8933 
 1267000    272.38063   -3921.1576   -3454.3065   -3921.1576            0    6028.4316    17.137119    20.185263    20.907246    7232.1771     7495.163    6038.1859    4551.9458    214.71925    743.25407    262.56415   -2818.4644 
 1268000    249.19293   -3922.0953   -3494.9871   -3922.0953            0    4917.0429    17.132308    20.179596    20.901376    7226.0875    4309.9137    4530.4744    5910.7406    -505.3403    470.59403   -35.852912   -2976.8042 
 1269000    258.03602   -3876.8555   -3434.5906   -3876.8555            0    7270.9146    17.058581    20.092755    20.811429    7133.1979    7560.0722    6465.3041    7787.3675    -1719.264    23.438992   -373.51288   -2678.1947 
 1270000    254.94015   -3901.7858   -3464.8272   -3901.7858            0    6012.2314    17.034333    20.064195    20.781847    7102.8234    5803.8562    6948.8492    5283.9887    115.03899   -217.94988   -88.853084   -2842.0358 
 1271000    245.96879    -3906.845   -3485.2629    -3906.845            0    6165.6398    17.108014    20.150981    20.871737    7195.3907    5920.4666     7518.521    5057.9319   -26.238413   -2025.2577    154.54846   -2838.2568 
 1272000    257.56472   -3889.5065   -3448.0494   -3889.5065            0    6791.1917    17.108093    20.151074    20.871834    7195.4908    5990.7058    7298.4802    7084.3892   -1363.1176    977.91474   -410.38432   -2735.3895 
 1273000    243.52081   -3894.0853    -3476.699   -3894.0853            0    8284.2575    17.029274    20.058236    20.775675    7096.4967    7672.5414    9241.4233    7938.8077    1179.2928    554.61787   -515.44774   -2619.3187 
 1274000    272.89789    -3848.386   -3380.6484    -3848.386            0    5921.2596    17.121057    20.166344     20.88765    7211.8608    8194.8972    2750.1026     6818.779    1600.3389    1763.6657    -303.3999   -2757.8645 
 1275000    256.07589   -3876.3186   -3437.4133   -3876.3186            0    5427.8587    17.148158    20.198265    20.920712    7246.1614    5917.9043    5598.0464    4767.6253    806.16994    549.51039   -883.58874    -2863.809 
 1276000    273.62948   -3885.8984   -3416.9068   -3885.8984            0    5685.9133    17.168801    20.222579    20.945897    7272.3614    6694.1497    5285.3888    5078.2013   -1775.8151    466.57581    892.93515   -2813.8592 
 1277000    263.31695   -3866.4523   -3415.1361   -3866.4523            0    6466.2945    17.083904    20.122583    20.842323    7165.0128    7350.3687    6107.5157     5940.999   -795.05945    1258.5821    280.01231   -2739.4448 
 1278000    237.42279   -3864.6284   -3457.6939   -3864.6284            0      7465.77    17.103059    20.145144    20.865692    7189.1402    8745.3214    5695.2516    7956.7369    1943.4161    1085.4682    2194.4021    -2674.936 
 1279000    243.68133   -3896.0212   -3478.3598   -3896.0212            0    7873.6993    17.120084    20.165197    20.886462    7210.6306    6956.1211    7801.6535    8863.3232    1614.7231    340.30584    360.62662   -2650.3643 
 1280000    266.66546    -3880.517   -3423.4615    -3880.517            0    7839.5296    17.149087    20.199359    20.921846    7247.3396    8964.4489    8315.8545    6238.2854    1110.8377    501.39295    -88.62483   -2594.8623 
 1281000    277.21689   -3881.5239   -3406.3837   -3881.5239            0    5952.9722    17.127708    20.174178    20.895764    7220.2688    6473.1657    4619.9147    6765.8363    142.10133   -577.90759   -101.09239   -2779.5344 
 1282000    254.58741   -3852.6303   -3416.2762   -3852.6303            0    7754.8577    17.114624    20.158767    20.879802    7203.7347    5933.3411    8585.8068    8745.4252   -525.03212   -411.98485    1564.9582    -2601.558 
 1283000    259.91257   -3881.4461   -3435.9649   -3881.4461            0    4639.1913    17.248741    20.316739    21.043424    7374.4191    4330.5233    4415.4197    5171.6308    1014.3499   -804.49254    411.93606   -2937.0276 
 1284000    246.57981   -3887.5392   -3464.9099   -3887.5392            0    6367.4672    17.231599    20.296548    21.022511    7352.4545    6150.8693    6107.6839    6843.8484    529.33397    1495.1245   -588.66348    -2782.139 
 1285000    244.31856   -3873.1332   -3454.3795   -3873.1332            0     6940.084    17.088637    20.128157    20.848097    7170.9693    7053.3374     7539.224    6227.6907    175.36376   -1149.0937    612.63272    -2728.577 
 1286000    252.19851   -3877.1208   -3444.8612   -3877.1208            0    6353.0743    17.141092    20.189942    20.912092    7237.2082     6053.058    6003.3998    7002.7653   -888.45876    594.83023     725.2473   -2774.3116 
 1287000     258.0656    -3868.125   -3425.8094    -3868.125            0    4700.6938    17.159235    20.211312    20.934226    7260.2123    4868.9661    4936.7956    4296.3197    1117.1613   -68.376063   -446.61645    -2928.087 
 1288000    254.22953   -3877.7766   -3442.0359   -3877.7766            0    6384.4053    17.124346    20.170218    20.891662    7216.0178    6518.5823    7621.9471    5012.6865     755.1463   -239.48134     645.0042   -2770.1524 
 1289000    261.03707   -3887.7599   -3440.3512   -3887.7599            0    6267.6225    17.071445    20.107907    20.827122    7149.3474    5738.5152    6429.4593    6634.8931    264.11378   -586.93913    1058.6092   -2786.8519 
 1290000    251.73297   -3884.7368   -3453.2751   -3884.7368            0    9553.5894    17.039696    20.070511    20.788389    7109.5334    11181.914    9264.8006    8214.0538   -1172.9434    742.54411    1455.3934   -2462.7088 
 1291000    260.28585   -3893.4031   -3447.2821   -3893.4031            0    4884.0795    17.122802    20.168399    20.889779    7214.0662    4714.5663    4407.8835    5529.7887    485.14725    728.83452    1517.2881   -2933.4293 
 1292000    247.87484   -3874.5084   -3449.6594   -3874.5084            0     7577.242      17.0751    20.112212    20.831582     7153.941    7656.2241     6805.683    8269.8189    1074.1745    712.56079    28.760043   -2659.1038 
 1293000    242.48597   -3848.9468   -3433.3342   -3848.9468            0    7300.7452    17.087426    20.126731     20.84662    7169.4453    6576.7282    7416.7585    7908.7489   -1562.7209    651.88587    1049.0162   -2669.9755 
 1294000    256.19416   -3888.8378   -3449.7297   -3888.8378            0    4837.6745    17.203826    20.263834    20.988627      7316.96     3569.094    3974.5529    6969.3768    960.64418   -831.62262   -263.11091   -2933.4998 
 1295000     248.2406   -3889.7484   -3464.2725   -3889.7484            0    7976.9901    17.041606    20.072761     20.79072    7111.9249    7838.7998    7060.9437    9031.2268   -74.332944   -1246.2201    1542.3749   -2636.8981 
 1296000    268.95206   -3902.0542   -3441.0796   -3902.0542            0    7409.2993    17.071728     20.10824    20.827468    7149.7034    7513.9438     6005.037    8708.9172    92.615572    -1155.242   -364.89491   -2668.5039 
 1297000    255.12459   -3889.6927   -3452.4179   -3889.6927            0    7068.1426    17.060107    20.094553    20.813291    7135.1129     7475.722    7396.5948    6332.1111    643.64121    207.81863    56.859952   -2716.9189 
 1298000     265.9236   -3875.7132   -3419.9293   -3875.7132            0     6120.393    17.107842    20.150778    20.871527    7195.1736    6846.1641    7814.7385    3700.2763   -1833.4135    13.942753    -63.32315   -2777.6906 
 1299000    276.17411   -3857.6822   -3384.3293   -3857.6822            0    7030.1887    17.099358    20.140785    20.861177    7184.4744    8721.5407    6003.8928    6365.1326   -678.82903   -526.52703   -1557.3367   -2647.7188 
 1300000    264.51689   -3878.7008   -3425.3279   -3878.7008            0    7610.3216    17.069455    20.105563    20.824695    7146.8479    8664.9594    7071.8018    7094.2037    644.33118    432.47384   -124.79812   -2632.1083 
 1301000    270.86227   -3839.8658   -3375.6172   -3839.8658            0    5503.2084    17.143145     20.19236    20.914597    7239.8083    6758.5274    5323.7761    4427.3217   -1256.7894    1123.5998    652.16108   -2794.5599 
 1302000    257.36591   -3858.6795   -3417.5631   -3858.6795            0    5194.9994    17.195781    20.254359    20.978813    7306.7008    5256.0585    5570.3033    4758.6365      90.6312    209.06034   -1552.7479   -2863.9802 
 1303000    263.85948   -3909.7742   -3457.5281   -3909.7742            0    6936.9527    17.099966    20.141501    20.861918    7185.2403    7084.1219     6383.694    7343.0421   -364.30558   -863.24966   -429.44052   -2730.6092 
 1304000    273.01972   -3881.5795   -3413.6331   -3881.5795            0    5498.9751    17.144342     20.19377    20.916057    7241.3248     5329.458    5930.8698    5236.5977    123.10952   -331.03507    -73.21773   -2832.9012 
 1305000    254.44465   -3881.1139   -3445.0045   -3881.1139            0    6590.9097    17.068134    20.104007    20.823084     7145.189    7399.7553     5155.598    7217.3757    -922.6547   -842.56064   -229.43407   -2758.1971 
 1306000    267.80544   -3881.5594   -3422.5501   -3881.5594            0    7417.6532    17.087892    20.127279    20.847188    7170.0311    5585.0084    7742.2941    8925.6573   -542.58247    396.79571   -1161.6598   -2646.9042 
 1307000    261.33186   -3890.4707   -3442.5568   -3890.4707            0    7933.5504    17.084447    20.123222    20.842986    7165.6961    9378.4222    8182.3064    6239.9226    1730.4496    891.61761    974.57996   -2613.4665 
 1308000    249.97926   -3858.8184   -3430.3625   -3858.8184            0     8647.031    17.072085    20.108661    20.827903    7150.1516    9327.8937    8723.0688    7890.1304   -602.69492    266.15637    488.82158   -2528.6706 
 1309000    261.58023   -3879.6571   -3431.3175   -3879.6571            0    6020.8594    17.100839     20.14253    20.862984    7186.3419    7244.3608    6146.6136    4671.6039    813.67201     813.7102    233.08263   -2800.2988 
 1310000    250.19668   -3920.1879   -3491.3593   -3920.1879            0     5724.619    17.090006     20.12977    20.849768    7172.6932    5774.0478    5714.8333    5684.9759   -1264.1707    1361.6216   -16.571383   -2892.5277 
 1311000    254.20302   -3864.7754   -3429.0801   -3864.7754            0    7958.0429    17.047601    20.079822    20.798033    7119.4326    8934.5035    6776.4393     8163.186    942.18987   -162.58054    973.38592   -2602.7995 
 1312000    257.37179   -3860.7725   -3419.6461   -3860.7725            0    6249.8579    17.143184    20.192407    20.914645    7239.8582    6848.6553    6227.2276    5673.6909   -106.64152    1566.8041   -502.11973   -2759.7492 
 1313000    266.74719   -3842.0449   -3384.8493   -3842.0449            0    8685.8469    17.066221    20.101755     20.82075    7142.7874    9877.2365    8314.6763    7865.6278    38.161183    880.48085    528.13134   -2480.0427 
 1314000    260.11611   -3886.4034   -3440.5733   -3886.4034            0    9648.8649    17.054351    20.087773    20.806269    7127.8936    11716.409    7511.2352    9718.9504   -116.42499    381.78657    802.90834   -2437.5447 
 1315000    256.47413   -3934.3125   -3494.7247   -3934.3125            0    5326.0776    17.126004    20.172171    20.893685    7218.1142    6848.5827    3399.8171     5729.833   -931.07093    589.33794   -1306.5372   -2934.0549 
 1316000     269.1469   -3874.8992   -3413.5906   -3874.8992            0    6967.7334    17.129273    20.176021    20.897673    7222.2477    6945.9308    8480.3273    5476.9421   -282.10272    373.50533   -224.68886   -2679.6857 
 1317000    245.20165   -3898.8592    -3478.592   -3898.8592            0    6945.4029    17.054299    20.087711    20.806204    7127.8274    7689.2519    5483.0317    7663.9251   -736.87727    43.033159   -372.99489   -2756.6031 
 1318000    259.30172   -3900.8405   -3456.4063   -3900.8405            0    7444.6659    17.086231    20.125323    20.845162     7167.941    7497.2123    6855.2884    7981.4969   -1560.5246    343.88302    829.20119   -2678.1627 
 1319000    260.80545   -3934.3963   -3487.3847   -3934.3963            0    6871.2394    17.036879    20.067194    20.784953    7106.0088    7338.6986     7401.612    5873.4076    2546.9554    545.21071   -676.73785   -2775.2917 
 1320000     255.0567   -3869.0787   -3431.9203   -3869.0787            0    7114.3356    17.062841    20.097773    20.816626    7138.5436    7250.8441    6378.5796    7713.5831   -998.46887     934.9444    1097.4663   -2691.2586 
 1321000    254.72789   -3882.2427   -3445.6478   -3882.2427            0    6126.1128    17.088688    20.128217    20.848159    7171.0335    7046.2117    5131.4127    6200.7141    131.07315    1296.7359    108.83938   -2804.9657 
 1322000    265.92714   -3855.8949   -3400.1049   -3855.8949            0     4876.232    17.140595    20.189357    20.911486    7236.5788    5221.3896    4977.9938    4429.3127   -1368.0416    242.74107    805.02364   -2885.4767 
 1323000    253.23479   -3912.7585   -3478.7227   -3912.7585            0      8292.96     17.04214     20.07339    20.791371    7112.5935     8430.092    10258.724    6190.0638   -394.11085    1583.2163   -427.94188    -2618.495 
 1324000     261.2115   -3900.6113   -3452.9038   -3900.6113            0     6048.707    17.134485     20.18216    20.904032    7228.8428    5815.1376    7799.5814     4531.402    787.08294   -662.16712   -2574.5317   -2815.2173 
 1325000    251.67325   -3860.2766   -3428.9172   -3860.2766            0       8331.4    17.082027    20.120372    20.840033    7162.6515    8727.2577    7476.2855    8790.6568    119.97202   -862.74177    1714.4609   -2558.6198 
 1326000    259.20966   -3904.1936   -3459.9171   -3904.1936            0    6541.1297    17.154699    20.205969    20.928692    7254.4564    7552.8836    5844.1288    6226.3767    855.55423   -1653.8379   -296.28744   -2767.8734 
 1327000    254.02153   -3894.5305   -3459.1463   -3894.5305            0    8313.0709    17.045962    20.077892    20.796034    7117.3801    7412.0536    8690.2374    8836.9217    2674.8314    556.26816    148.73676   -2596.2521 
 1328000    258.08599   -3847.1995    -3404.849   -3847.1995            0    6139.4131    17.165488    20.218678    20.941855    7268.1529     6321.213    6408.6557    5688.3706    1116.3657    -1128.611    775.43318   -2754.0801 
 1329000    244.88235   -3903.7237   -3484.0037   -3903.7237            0    6890.4451    17.099822    20.141332    20.861743    7185.0597    6503.2143    6815.3972    7352.7238    1177.5985    669.80631    150.88355   -2761.9765 
 1330000    265.31338   -3898.0002   -3443.2621   -3898.0002            0     5959.042    17.234879    20.300411    21.026512    7356.6533    4594.9193    7790.9794    5491.2273    605.21905    251.36058    922.83151    -2803.921 
 1331000    264.83501   -3925.6818   -3471.7636   -3925.6818            0    6067.5631    17.206143    20.266564    20.991454    7319.9173     5766.817    6960.5705    5475.3019    2092.6124   -784.36534    1478.0806   -2824.0301 
 1332000    258.12377   -3931.7082   -3489.2929   -3931.7082            0    7760.9193    17.133468    20.180963    20.902791    7227.5557    7341.6401    7306.3842    8634.7336    1648.8714   -550.90029    -965.4886   -2671.2416 
 1333000    248.07391   -3898.7028   -3473.5126   -3898.7028            0    5579.3305    17.162886    20.215613    20.938681    7264.8487     5128.617    4518.9097    7090.4648    1867.0483    1243.0196   -158.48233   -2882.3805 
 1334000    264.67479   -3867.8041   -3414.1605   -3867.8041            0    7063.4433    17.109686     20.15295    20.873777    7197.5004     6827.796    5904.3731    8458.1607    442.35131   -294.81621    736.67704   -2672.7239 
 1335000    255.81572   -3889.0045   -3450.5452   -3889.0045            0    6441.2009    17.135283    20.183101    20.905006     7229.853    6389.5253    7480.9801    5453.0974   -22.631849    637.52714    -1148.577    -2771.385 
 1336000    257.54641   -3873.6972   -3432.2715   -3873.6972            0    5872.5426    17.068632    20.104594    20.823691     7145.814    5212.5737    6303.6166    6101.4375    11.674582   -184.21889   -1604.0379   -2820.2682 
 1337000    244.94558   -3891.8573    -3472.029   -3891.8573            0    5775.9239    17.137622    20.185855    20.907859    7232.8132    7042.3524    3692.1172    6593.3022   -1021.6783    101.30743   -349.64517   -2862.7663 
 1338000    258.91176   -3852.7616   -3408.9958   -3852.7616            0    7469.7149    17.124068     20.16989    20.891322    7215.6654    6103.1409    7080.9043    9225.0996   -1152.1484    66.986594   -476.18101   -2622.9347 
 1339000    252.82841    -3884.299   -3450.9597    -3884.299            0    6513.1068    16.999139     20.02274     20.73891    7058.8892    5355.9708    6813.2103    7370.1394    906.25718   -908.82254    1667.8151   -2780.4571 
 1340000    252.45634   -3856.3376   -3423.6361   -3856.3376            0    7725.1037    17.051954    20.084949    20.803344    7124.8881    7047.6533    7148.1498    8979.5079   -268.16071    2035.0923   -1232.7386   -2620.9269 
 1341000    246.45147   -3865.9809   -3443.5715   -3865.9809            0    6179.2392    17.071758    20.108276    20.827505    7149.7415    7417.3681    4768.4087    6351.9408   -947.82684     -91.8996   -933.97854   -2799.2521 
 1342000    266.01533   -3868.1602    -3412.219   -3868.1602            0    6644.5473    17.066706    20.102326    20.821342     7143.396      5383.78    6286.7618    8263.1002    1707.7234    1688.3401   -592.81963    -2719.996 
 1343000    244.03476   -3861.8847   -3443.6175   -3861.8847            0    8691.3109    17.017016    20.043797    20.760719    7081.1825    6726.5785    9651.7939    9695.5602    1057.1384   -2355.7339    722.92374   -2546.0503 
 1344000    245.20299   -3851.7013   -3431.4317   -3851.7013            0    7693.0048    17.097367     20.13844    20.858748    7181.9649    8197.5518     6875.933    8005.5296    166.95155   -1375.5708   -149.01871   -2625.6542 
 1345000      254.742   -3898.8632   -3462.2441   -3898.8632            0    6770.6038    17.135898    20.183825    20.905756    7230.6315    5603.7645    7230.8859     7477.161    -1496.292    1558.3646   -43.138386   -2748.2748 
 1346000     255.9574   -3850.6362   -3411.9339   -3850.6362            0    7645.5439    17.101573    20.143394    20.863879    7187.2666    6853.0545    7745.5522     8338.025    2327.0082    397.01511   -2087.3822   -2610.5363 
 1347000    260.37789   -3886.1468    -3439.868   -3886.1468            0    6269.0577    17.125241    20.171271    20.892754    7217.1484    6497.6516    5471.1002    6838.4212    760.37956   -12.334151   -536.22609   -2780.0201 
 1348000    241.28953   -3894.2711   -3480.7091   -3894.2711            0    4840.6834    17.177572     20.23291    20.956597    7283.5129    4588.8143    3920.7418    6012.4941   -1213.7269     233.0547   -1036.4706   -2966.5193 
 1349000    258.64679    -3881.245   -3437.9332    -3881.245            0    7697.0107    17.064669    20.099926    20.818857    7140.8386     10368.63    5066.9998    7655.4022   -192.08795    1449.5805   -352.54479   -2636.3526 
 1350000     252.6972   -3877.1203    -3444.006   -3877.1203            0    7956.7776    17.020556    20.047967    20.765039    7085.6031    9042.5481    7221.2152    7606.5694    2098.8853      483.322    -72.90622   -2621.7824 
 1351000    272.56502   -3939.3219   -3472.1548   -3939.3219            0    6512.2678    17.041672    20.072839      20.7908    7112.0073    7161.1572    5634.6043     6741.042   -466.03436      76.8312    236.71237   -2796.6937 
 1352000    263.96287   -3909.6096   -3457.1863   -3909.6096            0    5323.7036    17.087822    20.127197    20.847102    7169.9428    4369.4494    5474.6701    6126.9912    1418.7765    1465.9744    227.30699   -2900.5065 
 1353000    268.28282   -3891.3986    -3431.571   -3891.3986            0    6115.3726    17.143485    20.192761    20.915012    7240.2394     4337.871    5018.7106    8989.5361   -385.40601    239.49872   -1870.7137   -2785.8399 
 1354000     247.5336   -3885.5842   -3461.3201   -3885.5842            0    6178.8417    17.133285    20.180746    20.902567    7227.3234    5550.3077    5748.0107    7238.2067    744.94933    761.35566    1214.5227    -2810.051 
 1355000    263.14651   -3883.8227   -3432.7986   -3883.8227            0      7072.68    17.152232    20.203063    20.925682    7251.3269    7299.1049    6637.9922     7280.943   -687.87826    112.81818   -352.82924   -2684.8403 
 1356000    246.28926   -3902.2414     -3480.11   -3902.2414            0    6283.5678    17.171056    20.225236    20.948649    7275.2285     6863.882    5798.9772    6187.8442    570.02901   -880.37666   -317.40425   -2813.4125 
 1357000    244.08333   -3905.3449   -3486.9945   -3905.3449            0    7324.6083    17.120248    20.165391    20.886663    7210.8381    9719.1486    6738.2729    5516.4033    722.59332   -633.62524    1256.2164   -2716.7191 
 1358000    263.02571   -3908.1415   -3457.3245   -3908.1415            0    5149.6092    17.166047    20.219336    20.942537    7268.8631     4901.396    4726.5004    5820.9311    209.27919    734.39538     614.1972     -2911.42 
 1359000    266.97604   -3923.3265   -3465.7387   -3923.3265            0    7724.1765    17.078802    20.116573    20.836099    7158.5952    9392.4653    5115.2007    8664.8635    223.35705   -470.83138    2151.7504   -2659.3288 
 1360000    247.16942   -3880.7674   -3457.1275   -3880.7674            0    7146.3533    17.079416    20.117296    20.836847     7159.367    8014.9441    7234.9984    6189.1175    1127.8374    793.52739    53.204793   -2710.9623 
 1361000    267.68127   -3878.7611   -3419.9646   -3878.7611            0    8709.3287    16.987978    20.009594    20.725294    7044.9947    5857.0022    10888.139     9382.845   -166.11072    53.283256    -935.7942   -2525.1331 
 1362000    252.31924   -3888.8834   -3456.4169   -3888.8834            0    5237.6695    17.131503    20.178648    20.900394    7225.0693    5459.3115    4140.0947    6113.6022    1903.3142    65.921308   -242.85333   -2904.5225 
 1363000    250.58711   -3890.3463   -3460.8486   -3890.3463            0    6151.7541    17.054047    20.087415    20.805898    7127.5121     6560.919    7628.6959    4265.6474   -1378.9931     872.5022    -1685.861   -2821.3894 
 1364000    266.37728   -3880.7007   -3424.1391   -3880.7007            0    6999.0927    17.108591     20.15166    20.872441    7196.1182     7242.633    5986.2228    7768.4223   -1090.8446   -1364.6054   -718.55231   -2689.5983 
 1365000    267.74177   -3892.5608   -3433.6606   -3892.5608            0    6170.5004    17.088914    20.128483    20.848435    7171.3178    6258.1278    6782.6493    5470.7241    487.61941   -510.90093    1039.9023   -2788.3107 
 1366000    247.01315    -3905.569    -3482.197    -3905.569            0    7804.8695    17.105084     20.14753    20.868163    7191.6945    8722.0593    7948.8506    6743.6985   -157.90149    134.55072   -765.26635    -2663.595 
 1367000    245.07282   -3915.8772   -3495.8308   -3915.8772            0    5864.1637     17.11619    20.160611    20.881712    7205.7121    5169.9795    5226.3976    7196.1141    490.30535   -525.50265   -314.03751    -2879.578 
 1368000    242.83873   -3902.2047   -3485.9874   -3902.2047            0    6151.2585    17.101106    20.142844    20.863309    7186.6778    6979.8437    7380.5593    4093.3726     34.82732   -79.021215   -1214.1509    -2841.272 
 1369000    261.98368    -3895.187   -3446.1559    -3895.187            0    6888.0972    17.130356    20.177297    20.898994    7223.6176     5302.345    7944.4477    7417.4989   -382.20912   -1287.9488   -646.02706   -2720.5014 
 1370000    249.18974   -3889.9989   -3462.8962   -3889.9989            0    7121.3959    17.070253    20.106503    20.825669    7147.8507    6761.2579    7252.5354    7350.3945     1417.005    899.30937   -125.23579   -2720.5329 
 1371000    256.47245   -3934.5981   -3495.0131   -3934.5981            0    5397.0317     17.07051    20.106806    20.825982    7148.1732    4360.7032    6287.4434    5542.9485   -185.08851   -268.37118    -137.7636   -2932.3791 
 1372000    266.07639   -3869.3799    -3413.334   -3869.3799            0    7386.7925    17.059974    20.094397    20.813129    7134.9465    6362.5741    7356.8859    8440.9174   -416.58451    1130.3225    165.91926   -2644.6949 
 1373000    253.75833   -3912.6162   -3477.6831   -3912.6162            0      7054.39    16.942231    19.955711    20.669483    6988.2337    5918.1531    7224.8473    8020.1695   -40.528497    29.746467   -517.32091   -2758.7263 
 1374000    251.63371   -3866.1533   -3434.8617   -3866.1533            0    7751.3628    17.015294    20.041769    20.758619    7079.0332    7435.2656    8030.9222    7787.9006    836.14504   -1470.0706    1103.2427   -2634.6076 
 1375000    269.30886   -3865.8008   -3404.2146   -3865.8008            0     9750.402    16.983694    20.004549    20.720067    7039.6665    9938.0328    9202.3778    10110.795    816.64459    996.13166    544.88916   -2403.1768 
 1376000    256.25435   -3895.8401   -3456.6289   -3895.8401            0     6630.122    17.031993    20.061438    20.778992    7099.8961    7852.4156    5896.2019    6141.7485    259.66921    1420.5529   -53.541671   -2770.1149 
 1377000    260.14338   -3885.8266   -3439.9497   -3885.8266            0    6691.2784    17.009102    20.034476    20.751065    7071.3084    6773.8028    7246.0777    6053.9548     154.7295   -517.85741    1275.4342    -2749.893 
 1378000    258.44987   -3875.1955   -3432.2213   -3875.1955            0     8758.232    16.961978     19.97897    20.693574    7012.6975    8814.8866    7210.7623    10249.047   -478.56574   -740.90462   -145.74346   -2536.4906 
 1379000    259.08913   -3845.9417   -3401.8718   -3845.9417            0    7320.9012    17.056084    20.089814    20.808383    7130.0663    7391.3093    8421.9019    6149.4924     722.4677    763.91161   -589.03676   -2640.6101 
 1380000    254.68181    -3908.185   -3471.6691    -3908.185            0    5560.3064    17.094778    20.135391    20.855589    7178.7031    6323.9605    6100.7696    4256.1892    34.969261   -385.84775    160.38754   -2889.5383 
 1381000    255.08474   -3899.8011   -3462.5946   -3899.8011            0    7837.0964    17.089306    20.128945    20.848913    7171.8114     8694.971    8011.3071    6805.0112   -518.64606   -916.17284    749.13632   -2642.8851 
 1382000    258.41943   -3852.2501    -3409.328   -3852.2501            0     8212.258    17.101693    20.143535    20.864025    7187.4178    9882.9573    8105.1822    6648.6345    1306.6445   -836.72118    124.40959     -2548.51 
 1383000    243.94433   -3866.1139   -3448.0017   -3866.1139            0    7198.8152    17.024949    20.053141    20.770398    7091.0905     5999.442    5816.5846    9780.4189    666.20133    1239.4638   -1892.6575    -2703.527 
 1384000    260.06208   -3935.4334   -3489.6959   -3935.4334            0    5104.7604    17.111662    20.155278    20.876188     7199.995    5817.5598    3826.3878    5670.3337   -267.74275    656.73666    582.07197   -2953.6729 
 1385000    249.00339   -3925.0676   -3498.2843   -3925.0676            0    5343.3373    17.087635    20.126977    20.846874    7169.7076    6063.6855    4224.2275    5742.0988    288.64942   -353.14305    383.03078   -2939.5699 
 1386000    256.06909   -3887.3961   -3448.5024   -3887.3961            0    7424.4214     17.01204    20.037936    20.754649    7074.9732    6316.4941    8572.0123    7384.7579   -477.93869    157.95041    1903.4135   -2682.4415 
 1387000    247.71418   -3889.2651   -3464.6915   -3889.2651            0    6689.3899    17.073909     20.11081    20.830129    7152.4444    6168.8248    6722.0177    7177.3272    1990.4706    -1597.722    609.80732   -2766.9141 
 1388000    251.20039   -3869.1464   -3438.5975   -3869.1464            0    7466.1334    17.074729    20.111775    20.831129    7153.4746    7263.7398    8459.0935     6675.567   -743.97584    829.17872    499.34035    -2659.685 
 1389000    240.70198     -3895.31   -3482.7551     -3895.31            0    5328.5908    17.069707     20.10586    20.825003    7147.1647    5038.6261    5347.4852    5599.6611   -103.32478   -37.761063    1237.9081   -2927.3344 
 1390000    259.72936   -3875.9611   -3430.7939   -3875.9611            0    6457.1905    17.051541    20.084463     20.80284    7124.3703    5199.9523    7016.4669    7155.1523    1003.7622   -565.55725   -66.338694   -2759.8813 
 1391000    247.99635   -3880.5285   -3455.4712   -3880.5285            0    5987.7289     17.06966    20.105805    20.824945    7147.1054    6660.4836      6554.03    4748.6732     1855.276   -986.85876   -360.58709   -2831.3511 
 1392000    243.68781   -3870.2276    -3452.555   -3870.2276            0    5219.9729    17.132125     20.17938    20.901152    7225.8558    6614.4401    4469.1141    4576.3645   -1207.3345    1129.9994    316.51527   -2902.4654 
 1393000    247.37601    -3875.515    -3451.521    -3875.515            0    6951.3167    17.077772     20.11536    20.834842    7157.3002    6742.8982    6139.7616    7971.2904    767.65761    121.86907   -343.48022   -2725.9295 
 1394000    248.64872   -3872.3907   -3446.2153   -3872.3907            0     7136.895     17.02216    20.049856    20.766995     7087.606    6091.9952    6394.5849    8924.1049    1606.1985    1327.4272    192.05815   -2708.5069 
 1395000    264.77778   -3870.7697   -3416.9496   -3870.7697            0    5815.9326    17.060064    20.094502    20.813239    7135.0593    6452.1189    5271.5549    5724.1242   -826.06039    189.46438    1688.4344   -2811.7581 
 1396000    251.85702   -3894.1019   -3462.4276   -3894.1019            0    4618.7554    17.092069    20.132199    20.852284    7175.2903    3859.3005    3431.9617    6565.0039    39.303063   -374.43136    666.49624   -2979.1014 
 1397000    241.71602   -3899.9686   -3485.6757   -3899.9686            0    6233.7604    17.073902    20.110801     20.83012    7152.4349    5429.8206    7477.1577    5794.3028     995.7973   -984.18766    143.76535   -2835.4263 
 1398000    240.67364   -3895.7249   -3483.2185   -3895.7249            0    6907.0253    17.052972    20.086148    20.804586    7126.1642    7742.9178    8019.4153    4958.7427   -60.935896   -22.587479   -232.52882   -2765.3866 
 1399000    266.95535   -3853.6729   -3396.1206   -3853.6729            0     6276.575    17.086444    20.125574    20.845422    7168.2092    7064.2413    5040.2388    6725.2449    1235.4351    536.84493    40.203635   -2739.9613 
 1400000    251.18989   -3894.9398   -3464.4089   -3894.9398            0    6657.9598    17.067527    20.103293    20.822344    7144.4272    6732.1932    6102.4215    7139.2648    847.98905    1606.9772    -826.4107   -2770.6885 
 1401000    257.30508    -3844.464   -3403.4519    -3844.464            0     6044.083    17.088519    20.128019    20.847954    7170.8211    5912.3223    7246.8749    4973.0518    3020.9467   -1414.4867    636.41167   -2771.3673 
 1402000    250.09449   -3904.3902   -3475.7368   -3904.3902            0    7950.7316    17.126473    20.172723    20.894257    7218.7071    6651.9689    8649.2781    8550.9479   -322.69326    49.880171   -447.78563   -2638.7041 
 1403000    256.22546   -3892.8594   -3453.6977   -3892.8594            0    5353.7903    17.157413    20.209166    20.932003    7257.8999    4216.7122     5628.316    6216.3426   -945.42621   -211.25225   -1023.3629   -2887.0043 
 1404000    248.04184   -3893.0447   -3467.9095   -3893.0447            0     8001.139    17.061326    20.095989    20.814778     7136.643    7756.5192    8583.6461    7663.2519   -338.45686    604.40529   -1046.4437    -2635.146 
 1405000    255.51478   -3894.3746    -3456.431   -3894.3746            0     6941.338    17.091803    20.131886    20.851959    7174.9551    6711.8018    7536.6453    6575.5667    1151.1799   -988.58568   -6.4286831   -2730.0939 
 1406000    249.54085   -3943.3532   -3515.6488   -3943.3532            0    5714.0456    17.093742    20.134171    20.854326    7177.3984    3585.7562    7824.3159    5732.0646    199.73215   -618.35842   -1079.8431   -2917.5311 
 1407000    243.27402   -3885.0407   -3468.0774   -3885.0407            0    7993.0151     17.07093    20.107301    20.826495    7148.7012    8185.5358    7587.9107    8205.5989    904.96833     400.4773    -553.9989   -2634.7538 
 1408000    248.00238   -3892.6772   -3467.6096   -3892.6772            0    6461.5441    17.054913    20.088435    20.806954     7128.598    5714.4828    5209.9072    8460.2423   -623.03261   -152.48639     485.8826   -2795.8462 
 1409000    250.30691   -3883.9179   -3454.9004   -3883.9179            0    7361.7995    17.006607    20.031537    20.748021    7068.1971    8925.2353    5213.8258    7946.3374   -1838.2265    1122.6334    1093.9538   -2696.0284 
 1410000    256.01622   -3851.6484   -3412.8454   -3851.6484            0    9128.6369    17.048556    20.080946    20.799198    7120.6289    9268.2502    8985.2302    9132.4303   -1133.3199   -224.19605    846.71174   -2464.8632 
 1411000    237.60981   -3890.3254   -3483.0703   -3890.3254            0    5676.7662    17.209713    20.270769     20.99581    7324.4746    6384.6833    5590.3561    5055.2591   -445.58135    529.93946   -1234.4163   -2876.6784 
 1412000    245.29073   -3857.0823   -3436.6624   -3857.0823            0    6873.2973    17.091399    20.131411    20.851467    7174.4473    7307.8718    6458.9803    6853.0399    50.934449   -450.07638    973.95409   -2717.4958 
 1413000    257.26143   -3886.0011   -3445.0638   -3886.0011            0    6964.5148    17.061048    20.095661    20.814439    7136.2935    9343.1616    5906.6354    5643.7474   -668.73919     7.350749    1252.5895   -2720.2283 
 1414000     261.5105    -3866.652    -3418.432    -3866.652            0    8772.7834    17.009559    20.035014    20.751622    7071.8778    8627.2221    8654.4823    9036.6458   -416.06798   -282.21925    -679.0005   -2513.6414 
 1415000    262.29427   -3878.2708   -3428.7074   -3878.2708            0    7613.6244    17.134374    20.182029    20.903896    7228.7017    5764.5405     7749.607    9326.7257    840.27703   -464.46636    -28.06444   -2626.0548 
 1416000    252.25674   -3855.2944   -3422.9349   -3855.2944            0    7724.4765    17.182773    20.239037    20.962943     7290.131     9135.076    9108.2615    4930.0919   -689.00115   -279.25112    485.05697   -2601.6757 
 1417000    246.57312   -3907.1029   -3484.4851   -3907.1029            0    5317.7872    17.164466    20.217474    20.940609    7266.8552    5715.0705     5706.405     4531.886    354.98344   -1164.8358    417.56593   -2920.9079 
 1418000    271.89749   -3869.9636   -3403.9406   -3869.9636            0    8036.2473    17.142259    20.191317    20.913516    7238.6865    7860.2429    6417.7948    9830.7041   -850.94266   -1317.3601   -56.987667   -2555.5635 
 1419000    271.73634   -3869.6176   -3403.8708   -3869.6176            0    5478.3848    17.164674    20.217719    20.940863    7267.1194    6056.9006    4481.3112    5896.9427    144.71966    10.129239   -575.69489   -2823.2525 
 1420000    270.11103   -3885.0557   -3422.0947   -3885.0557            0    6038.0803    17.167862    20.221474    20.944752    7271.1693    7910.1098    4496.3147    5707.8165   -249.52193   -421.98036   -131.24996   -2781.8013 
 1421000    253.08617    -3895.033    -3461.252    -3895.033            0    5314.5737     17.20631    20.266761    20.991658    7320.1309     4477.342    5890.9623     5575.417   -681.65994    -628.1334   -125.38128   -2893.8861 
 1422000    251.88832   -3879.3139    -3447.586   -3879.3139            0    8923.4987    17.091648    20.131703     20.85177    7174.7599    9413.5459    9389.8829    7967.0675    674.36198    764.26276    326.44625   -2513.8621 
 1423000    241.61536   -3875.8414    -3461.721   -3875.8414            0    5981.6731    17.144877    20.194401     20.91671    7242.0037    6506.0811    4906.1932    6532.7449    1340.3546     220.1313    2463.9715   -2829.9534 
 1424000    252.76661   -3890.0493   -3456.8159   -3890.0493            0    8841.0395    17.029315    20.058283    20.775724    7096.5473    8917.6906    11301.109    6304.3191    -858.1445    481.25284    887.00047   -2541.8049 
 1425000    268.13555   -3922.6288   -3463.0536   -3922.6288            0    6487.5618    17.125164    20.171181     20.89266    7217.0515      6605.46    7700.8401    5156.3853   -877.94929    486.70817    550.87885   -2780.2164 
 1426000    251.38596   -3908.4507   -3477.5837   -3908.4507            0    9833.3952     17.10894    20.152072    20.872867    7196.5597     8623.828    8797.3307    12079.027   -1045.8338   -220.42244    1868.9565   -2445.5252 
 1427000    259.59138   -3896.0774   -3451.1467   -3896.0774            0    6917.0654    17.204769    20.264945    20.989778    7318.1636     5703.954    8857.3033    6189.9389    -1453.312    352.99931    1263.5388   -2712.9027 
 1428000    267.89221   -3904.5923   -3445.4342   -3904.5923            0    6674.2012     17.19697    20.255759    20.980263    7308.2163    7609.3703    5696.7026    6716.5308    132.89839    505.88109    660.26267   -2734.0789 
 1429000    251.61272   -3888.5548   -3457.2992   -3888.5548            0    6682.2265     17.11736    20.161989    20.883139    7207.1892    7909.3733    6364.4341     5772.872    419.34293    312.18066    1270.7956   -2754.9339 
 1430000    255.62676     -3886.28   -3448.1444     -3886.28            0      8080.46    17.081156    20.119346     20.83897    7161.5556    9138.9691     8823.481    6278.9299   -600.40129    766.47752   -837.57754   -2604.1893 
 1431000    265.60132   -3901.2787   -3446.0471   -3901.2787            0    6081.2098    17.160778    20.213129    20.936109    7262.1713    4641.1194    6649.4724    6953.0376    688.86357    899.28579    449.20551   -2801.9782 
 1432000    254.96772   -3862.2204   -3425.2145   -3862.2204            0     6856.167    17.133672    20.181202     20.90304    7227.8132    7957.5113    6528.1317    6082.8582    923.10078   -246.45965    749.46551   -2702.5042 
 1433000    251.09005   -3888.8303   -3458.4705   -3888.8303            0    8680.0606    17.106663    20.149389    20.870089    7193.6862    7749.0991    9179.1838    9111.8988    560.23541    947.81682   -79.282549   -2547.8234 
 1434000    250.22484    -3890.008   -3461.1312    -3890.008            0    7023.0026     17.10727    20.150104    20.870829     7194.452    7142.7254    7299.0366    6627.2459   -266.45776    640.41602   -69.727943   -2724.2518 
 1435000    259.42568   -3867.7701   -3423.1234   -3867.7701            0    6684.9294    17.100161    20.141731    20.862156    7185.4863    4788.3443    8008.9573    7257.4867    1376.2194    317.41438   -912.93936   -2722.5899 
 1436000     263.8512   -3847.9901   -3395.7582   -3847.9901            0    8048.1259    17.060405    20.094903    20.813654    7135.4866    7957.3429    7695.2023    8491.8325   -955.11739    625.06768    980.34527     -2558.24 
 1437000    252.78084    -3870.963   -3437.7053    -3870.963            0     4860.886    17.078292    20.115972    20.835476    7157.9535    4617.8876    4995.1758    4969.5945   -1075.9816    271.84134   -1830.8263   -2930.2706 
 1438000    282.67134   -3893.6066   -3409.1176   -3893.6066            0    8833.5812    17.023448    20.051373    20.768566    7089.2151    10364.871    7472.5388    8663.3341     981.6797    198.15394    68.318617   -2495.8231 
 1439000    256.76293   -3896.0463   -3455.9634   -3896.0463            0    8587.8619    16.987944    20.009554    20.725252    7044.9523    6112.2731    9488.5311    10162.781    482.31034    131.06479    113.74152   -2573.6172 
 1440000     268.5695   -3861.4095   -3401.0905   -3861.4095            0    5295.7164    17.089545    20.129227    20.849205     7172.113     6241.686    4538.6198    5106.8436    -649.4129    433.62582   -333.36694   -2847.1696 
 1441000    251.13039   -3863.8182   -3433.3893   -3863.8182            0    5983.6117    17.132018    20.179254    20.901021    7225.7199    4605.5967    7480.5107    5864.7278    635.08367   -164.65779    1455.7745   -2802.8381 
 1442000     269.9244   -3907.3203   -3444.6791   -3907.3203            0    9912.7677    17.080739    20.118854    20.838461    7161.0307    9575.6584    9456.2752     10706.37   -1018.1873   -358.01276    295.14835   -2409.4265 
 1443000    246.75769   -3874.4557   -3451.5214   -3874.4557            0    5756.4714     17.19599    20.254605    20.979068    7306.9669    5343.8899    8212.9073    3712.6168     193.4994   -272.17035    437.12375   -2838.0853 
 1444000    268.15685   -3881.7686   -3422.1569   -3881.7686            0    7067.8982    17.105037    20.147475    20.868106    7191.6357    6980.5299    8068.4545    6154.7101   -341.07327   -704.52451   -545.98798   -2680.8572 
 1445000    268.76675   -3900.0223   -3439.3653   -3900.0223            0    7118.1678     17.14264    20.191766    20.913981    7239.1688    4928.3535    8233.0968    8193.0529   -832.48954    873.14263   -996.66553   -2687.8587 
 1446000    253.28309   -3831.3894   -3397.2708   -3831.3894            0     5987.692    17.138649    20.187064    20.909111    7234.1135    6079.4738    5789.7313    6093.8709   -220.02593   -124.10144   -206.03386   -2765.5566 
 1447000    253.67191   -3847.0946   -3412.3096   -3847.0946            0    4668.8089    17.190533    20.248177     20.97241    7300.0122    4576.3392    4252.2808    5177.8067     -1483.77     2346.993    2230.1463   -2915.2533 
 1448000    257.85742   -3857.8099   -3415.8511   -3857.8099            0    4433.9952    17.233033    20.298237     21.02426    7354.2905    4102.4231    4948.4167     4251.146     -159.739   -55.848282   -1261.8625   -2940.2839 
 1449000    264.97848   -3857.9114   -3403.7474   -3857.9114            0    6848.1257    17.136236    20.184222    20.906168    7231.0586    5821.4908    6866.5881    7856.2982   -1237.6367   -242.47208   -55.990637   -2681.5606 
 1450000    265.83348   -3901.8389   -3446.2094   -3901.8389            0    6224.2537    17.135768    20.183672    20.905597    7230.4669    7073.0685     5655.208    5944.4846   -555.19932   -1279.7557   -131.06688   -2789.8684 
 1451000     249.7574   -3861.4873   -3433.4116   -3861.4873            0    6655.7788     17.12092    20.166182    20.887482    7211.6873    5737.3179    8123.0283    6106.9902   -655.31074     736.1316    432.02503   -2733.3897 
 1452000    255.29303   -3840.9608   -3403.3973   -3840.9608            0     8533.958    17.056997    20.090889    20.809496    7131.2113    7828.2736    9188.7022    8584.8982    566.14526    -572.5789   -3191.4519   -2515.8537 
 1453000    239.29841   -3873.5729   -3463.4236   -3873.5729            0    5721.5224    17.108598    20.151669     20.87245    7196.1277    2535.1021    6539.5979    8089.8671   -1001.8802    -653.1202   -798.07748   -2862.9604 
 1454000    255.57999   -3896.3819   -3458.3265   -3896.3819            0    8305.9886    17.015574    20.042099    20.758961    7079.3835    8471.6991     7074.032    9372.2346   -828.26844   -1237.7194   -180.83533   -2600.7702 
 1455000    246.84453   -3886.2303   -3463.1472   -3886.2303            0    5978.2306     17.09354    20.133932    20.854078    7177.1429    5253.2168    6672.8275    6008.6476   -679.92945   -72.408534   -1556.7633   -2837.3982 
 1456000    249.05976   -3883.2077   -3456.3277   -3883.2077            0    5009.0019    17.053104    20.086303    20.804746    7126.3291    5443.6708    6085.8738    3497.4611   -754.95881   -232.95645   -1134.4151   -2935.7412 
 1457000    251.96074   -3876.4271   -3444.5751   -3876.4271            0    7069.2415    17.054025    20.087389    20.805871    7127.4845    7011.0552    5059.2089    9137.4605      1807.12   -285.30548    2170.9434   -2709.7482 
 1458000    257.47162   -3854.3762   -3413.0786   -3854.3762            0    7826.5183    17.030618    20.059818    20.777314    7098.1767    8829.8267    7960.1949    6689.5334   -338.13959   -247.98216   -1260.6406   -2602.8804 
 1459000    250.02844    -3888.023   -3459.4828    -3888.023            0    6993.8663    17.115916    20.160289    20.881378    7205.3661    8507.5327    6003.1622    6470.9038   -38.496543   -299.06962     -2.47504   -2724.5472 
 1460000    257.13004   -3871.7365   -3431.0244   -3871.7365            0    6917.5798    17.055045     20.08859    20.807115    7128.7636    8634.4702    4998.5978    7119.6715    641.88485   -285.34656    572.90918   -2711.8333 
 1461000    245.97713   -3888.5397   -3466.9433   -3888.5397            0    7651.2099    17.083241    20.121802    20.841515     7164.179    7428.5331    8447.1403    7077.9563    1607.6776    28.237126     8.549645   -2667.5281 
 1462000    250.62807   -3907.8062   -3478.2383   -3907.8062            0    5645.1814    17.132431    20.179741    20.901526    7226.2436    6023.9762    6172.8351    4738.7329    761.16079    1174.6373    36.095126   -2883.3076 
 1463000    270.65001   -3901.6064   -3437.7216   -3901.6064            0    5882.7338    17.101134    20.142877    20.863343    7186.7131     6029.763    5947.1892    5671.2493   -1736.4134   -822.22229   -232.10128   -2821.1473 
 1464000    255.65366   -3898.6566    -3460.475   -3898.6566            0    8265.0194    17.017554    20.044431    20.761376    7081.8543    7020.1438    8914.0628    8860.8516    755.57495    1072.0181   -1647.1119   -2606.8507 
 1465000    241.38414   -3948.1824   -3534.4582   -3948.1824            0     6768.708    17.037832    20.068316    20.786115     7107.201    6774.8642    6882.3913    6648.8686    58.679897    828.92571   -258.13786   -2832.8732 
 1466000    249.02892    -3908.042    -3481.215    -3908.042            0    7808.4247    17.062168    20.096981    20.815806    7137.6995    7288.1731    9189.1544    6947.9467    -587.8342   -90.555293    255.02492    -2668.389 
 1467000    252.13749   -3917.6308   -3485.4758   -3917.6308            0    5021.6823    17.146046    20.195778    20.918137    7243.4851    4813.4878    5729.2581     4522.301   -280.67009   -229.59582    500.61482   -2954.9913 
 1468000    253.88043   -3884.7336   -3449.5912   -3884.7336            0    7919.7075      17.0694    20.105498    20.824628    7146.7789    7208.7928    8405.7417    8144.5882    1531.2283    861.73462   -714.09828   -2624.1325 
 1469000    264.32784   -3889.3507   -3436.3018   -3889.3507            0    8315.7595    17.002068    20.026191    20.742484    7062.5391    7929.7805    7535.6971    9481.8009    761.77647    -85.71872    1004.1138   -2579.7795 
 1470000    241.67082    -3888.712   -3474.4964    -3888.712            0     7752.786    17.045597    20.077462    20.795589    7116.9225    7481.4276    9036.8737    6740.0567    749.64227   -563.39069    153.14563   -2669.8114 
 1471000    257.84319   -3862.0482   -3420.1138   -3862.0482            0    6709.6545    17.073766    20.110641    20.829955    7152.2649     5539.941    7830.6263    6758.3962   -741.83799    -191.6737    1128.2879   -2720.2402 
 1472000    252.66267   -3874.0211   -3440.9659   -3874.0211            0    7628.7935    17.059037    20.093293    20.811986    7133.7709    7777.9699    8371.5708    6736.8397    1620.0166    923.21443     106.0109   -2647.2759 
 1473000      257.581   -3894.1802   -3452.6952   -3894.1802            0    6588.7439    17.101162     20.14291    20.863378    7186.7489    5475.9383     7702.153    6588.1405    113.87128    338.57982   -55.123643     -2762.12 
 1474000    254.15177   -3868.0841   -3432.4767   -3868.0841            0    7323.6229    17.105325    20.147814    20.868457     7191.999    6452.0922    7080.5567    8438.2199    1344.5354    11.712594   -244.40858    -2664.317 
 1475000    251.94477    -3871.795   -3439.9703    -3871.795            0     8227.451    17.032791    20.062377    20.779965    7100.8937    8128.5977    7938.8247    8614.9305   -125.81741   -1626.7566    742.88646   -2587.9416 
 1476000    254.01273   -3871.9357   -3436.5666   -3871.9357            0    6743.5559    17.075999    20.113272    20.832679    7155.0715    6978.4046    5678.2365    7574.0266   -501.10523   -947.41322   -1117.7614   -2732.8807 
 1477000    269.35986   -3859.4233   -3397.7498   -3859.4233            0    5742.4081    17.118935    20.163844    20.885061    7209.1794    6736.7946    4915.7373    5574.6923   -477.34674    -1165.297    424.88651   -2794.0017 
 1478000    263.28926   -3875.7982   -3424.5294   -3875.7982            0     6208.427    17.103168    20.145273    20.865826    7189.2785    7610.7123    3689.7867    7324.7821   -179.57819    787.38711   -441.02835   -2773.5867 
 1479000    255.18332   -3875.7618   -3438.3863   -3875.7618            0    5477.8444    17.075892    20.113145    20.832548    7154.9366    5318.6639    5991.3538    5123.5154    592.95939   -523.54716    628.17338   -2866.7874 
 1480000    260.80582   -3857.6126   -3410.6004   -3857.6126            0    6454.8494     17.09737    20.138444    20.858752    7181.9694    5180.9679    6542.5011    7641.0793   -1324.3999    499.55069   -365.60165   -2734.5087 
 1481000    257.59827   -3864.5974   -3423.0828   -3864.5974            0    6388.7527    17.134828    20.182564    20.904451     7229.277    5974.6836     5824.917    7366.6573    124.17516   -335.28251   -315.16908   -2749.5064 
 1482000    266.04657   -3890.7476   -3434.7529   -3890.7476            0    7728.4539    17.024179    20.052235    20.769459    7090.1292    7980.9872    8164.7907    7039.5839    154.94123    1252.2079    -791.4849   -2635.6132 
 1483000     245.7961   -3846.3639   -3425.0778   -3846.3639            0    6942.5097    17.070424    20.106705    20.825877    7148.0652    5653.9302    7931.4289      7242.17   -4.4470809    1146.6789    12.713547   -2701.3406 
 1484000    252.77567   -3855.1693   -3421.9204   -3855.1693            0    7265.7389      17.1446    20.194074    20.916372    7241.6519    5758.2798    8805.8644    7233.0726   -1902.8908   -1117.5354   -345.42267   -2654.5707 
 1485000    254.85685   -3892.5337   -3455.7178   -3892.5337            0     5677.097     17.02293    20.050763    20.767935    7088.5687    6592.9432    3555.0296    6883.3181   -22.328799     35.85686    171.42382   -2868.8223 
 1486000    251.16277   -3859.6845   -3429.2001   -3859.6845            0    6546.0202    17.021951     20.04961     20.76674     7087.345    8492.3305    7181.2354    3964.4947    1020.4261    367.68027    438.36111   -2752.5926 
 1487000    249.11855   -3883.2679   -3456.2872   -3883.2679            0    8923.0602     17.06886    20.104862    20.823969    7146.1002    8119.3829    8568.5446    10081.253   -46.214408   -1.9359294   -624.99816   -2526.3389 
 1488000     255.4496    -3863.232   -3425.4001    -3863.232            0    7840.4633     17.10439    20.146712    20.867316    7190.8194    7557.1902    7328.0227    8636.1771    315.69405    -474.2364   -670.15612    -2603.165 
 1489000    264.57044   -3898.9492   -3445.4845   -3898.9492            0    6437.1518    17.071276    20.107708    20.826917    7149.1356    6080.4938    6062.9487    7168.0128    147.56082    85.356474   -431.69771    -2774.329 
 1490000    246.39237   -3841.8719   -3419.5638   -3841.8719            0    8290.2135    17.106531    20.149234    20.869928    7193.5197    7871.1564    7318.5339    9680.9503   -1051.8709   -190.82702    440.55993   -2549.8366 
 1491000    257.76282    -3920.987   -3479.1904    -3920.987            0    4917.8947    17.155322    20.206703    20.929452    7255.2465     5040.323    3963.4649    5749.8962    690.96185   -356.70563    700.00866   -2958.8263 
 1492000    264.84012   -3905.2316   -3451.3047   -3905.2316            0    7625.2127    17.078491    20.116206    20.835719    7158.2038    8854.0682      7428.76    6592.8099     805.4108    1559.8691   -301.95768   -2655.2702 
 1493000    266.56357   -3871.0693   -3414.1884   -3871.0693            0    8365.7884    17.033355    20.063042    20.780653    7101.5993    7377.4025    8129.1853    9590.7775    79.671463   -517.59641    -381.1182   -2547.7475 
 1494000       265.18   -3897.9716   -3443.4622   -3897.9716            0    8892.3974    17.032622    20.062179    20.779759    7100.6824    10428.478    6873.2634    9375.4509   -211.46987    1665.1498    966.64932   -2522.5995 
 1495000    258.13352    -3871.184    -3428.752    -3871.184            0    6909.6392    17.117102    20.161685    20.882824     7206.863    5493.2082     6536.656    8699.0534    908.23974   -1479.3664    184.86463   -2702.5164 
 1496000    252.19449    -3884.165   -3451.9123    -3884.165            0     6596.412    17.114922    20.159117    20.880165    7204.1104    5913.9883    6962.7977    6912.4499     580.6653   -1064.6325    2511.7904   -2758.8632 
 1497000    249.59429   -3886.6175   -3458.8214   -3886.6175            0    6583.9922    17.090292    20.130107    20.850116     7173.053     7851.317    5860.4936    6040.1661    945.95584    -565.6627   -2052.7151   -2770.0593 
 1498000    264.86119   -3856.3413   -3402.3783   -3856.3413            0    7349.7639     17.07091    20.107278    20.826471    7148.6765    7451.1093     5729.252    8868.9305     377.1908   -287.55643    345.29095   -2636.1204 
 1499000    255.53728   -3908.8618   -3470.8796   -3908.8618            0    6089.6824    17.085472     20.12443    20.844236    7166.9862    5336.7857     5650.396    7281.8655    441.80222    -507.1941    1149.6239   -2834.3669 
 1500000    262.62477   -3857.1802   -3407.0504   -3857.1802            0    7249.4868    17.067151    20.102849    20.821884     7143.954    5678.7046    7272.5831    8797.1728    2062.6167    461.15309    -604.5078   -2651.7463 
Loop time of 559.869 on 64 procs for 250000 steps with 864 atoms

Performance: 77.161 ns/day, 0.311 hours/ns, 446.533 timesteps/s
99.0% CPU use with 64 MPI tasks x 1 OpenMP threads

MPI task timing breakdown:
Section |  min time  |  avg time  |  max time  |%varavg| %total
---------------------------------------------------------------
Pair    | 21.797     | 26.363     | 31.544     |  46.1 |  4.71
Bond    | 0.27441    | 0.29878    | 0.31666    |   1.3 |  0.05
Kspace  | 246.88     | 258.18     | 265.84     |  26.6 | 46.11
Neigh   | 5.8856     | 6.7333     | 7.7879     |  19.0 |  1.20
Comm    | 117.82     | 127.74     | 138.73     |  39.2 | 22.82
Output  | 1.471      | 1.4723     | 1.485      |   0.2 |  0.26
Modify  | 130.18     | 133.15     | 135.29     |  10.1 | 23.78
Other   |            | 5.927      |            |       |  1.06

Nlocal:        13.5000 ave          19 max           8 min
Histogram: 1 2 4 10 19 10 9 5 3 1
Nghost:        2227.48 ave        2261 max        2193 min
Histogram: 5 4 4 8 9 6 12 10 5 1
Neighs:        4315.16 ave        7268 max        2848 min
Histogram: 4 10 13 17 12 7 0 0 0 1

Total # of neighbors = 276170
Ave neighs/atom = 319.64120
Ave special neighs/atom = 2.0000000
Neighbor list builds = 13639
Dangerous builds = 0

unfix		3
unfix		2
unfix		1

write_data	data.final.${pid}
write_data	data.final.0
System init for write_data ...
PPPM initialization ...
  extracting TIP4P info from pair style
  using 12-bit tables for long-range coulomb (../kspace.cpp:340)
  G vector (1/distance) = 0.37381453
  grid = 24 24 24
  stencil order = 5
  estimated absolute RMS force accuracy = 0.0032123895
  estimated relative force accuracy = 9.6740155e-06
  using double precision FFTW3
  3d grid and FFT values/proc = 2535 216
Last active /omp style is kspace_style pppm/tip4p/omp
WARNING: Not all mixed pair coeffs generated from mixing. Use write_data with 'pair ij' option to store all pair coeffs. (../write_data.cpp:312)

write_restart   restart.lmp.${pid}
write_restart   restart.lmp.0
System init for write_restart ...
PPPM initialization ...
  extracting TIP4P info from pair style
  using 12-bit tables for long-range coulomb (../kspace.cpp:340)
  G vector (1/distance) = 0.37381453
  grid = 24 24 24
  stencil order = 5
  estimated absolute RMS force accuracy = 0.0032123895
  estimated relative force accuracy = 9.6740155e-06
  using double precision FFTW3
  3d grid and FFT values/proc = 2535 216
Last active /omp style is kspace_style pppm/tip4p/omp
Total wall time: 0:09:23
