#include		in.partitions
include		in.temp
variable        temperature equal 233.27
variable	tempDamp equal 100.0
include		in.pressure
variable        pressure equal 8381.9
variable        pressureDamp equal 1000.0 # This is 1 ps
include		in.seed
variable        seed equal 745823

units		real
atom_style	full
read_restart    restart.lmp.${pid}
read_restart    restart.lmp.1
Reading restart file ...
  restart file = 30 Jul 2021, LAMMPS = 30 Jul 2021
  restoring atom style full from restart
  triclinic box = (-3.1576795 -0.13674217 -0.030316724) to (14.767678 22.716741 19.260315) with tilt (-0.15775413 -6.6862055 0.33307699)
  2 by 4 by 4 MPI processor grid
  restoring pair style lj/cut/tip4p/long/omp from restart
  restoring bond style harmonic/omp from restart
  restoring angle style harmonic/omp from restart
  1008 atoms
  672 bonds
  336 angles
Finding 1-2 1-3 1-4 neighbors ...
  special bond factors lj:    0        0        0       
  special bond factors coul:  0        0        0       
     2 = max # of 1-2 neighbors
     1 = max # of 1-3 neighbors
     1 = max # of 1-4 neighbors
     2 = max # of special neighbors
  special bonds CPU = 0.002 seconds
  read_restart CPU = 0.006 seconds

include 	in.setup
variable	out_freq equal 1000
variable	out_freq2 equal 10000
variable	out_freq3 equal 1000

timestep	2.0

neigh_modify    delay 7 every 1

include		in.tip4p
# This is TIP4P/Ice

# create groups ###
group ox type 2
336 atoms in group ox
group hy type 1
672 atoms in group hy

# set charges - beside manually ###
set group ox charge -1.1794
Setting atom values ...
  336 settings made for charge
set group hy charge 0.5897
Setting atom values ...
  672 settings made for charge

# ### TIP3P Potential Parameters ###
pair_style lj/cut/tip4p/long/omp 2 1 1 1 0.1577 8.5
pair_coeff 1 1*2 0.000 0.000
pair_coeff 2 2 0.21084 3.1668
bond_style  harmonic
bond_coeff  1 450 0.9572
angle_style harmonic
angle_coeff 1 55 104.52
kspace_style pppm/tip4p/omp 1.0e-5
pair_modify tail yes

thermo          ${out_freq}
thermo          1000
thermo_style    custom step temp pe etotal epair emol press lx ly lz vol pxx pyy pzz pxy pxz pyz enthalpy

restart 	${out_freq3} restart.lmp.${pid} restart2.lmp.${pid}
restart 	1000 restart.lmp.${pid} restart2.lmp.${pid}
restart 	1000 restart.lmp.1 restart2.lmp.${pid}
restart 	1000 restart.lmp.1 restart2.lmp.1


include         in.dump
dump            myDump all atom ${out_freq2} dump.water.${pid}
dump            myDump all atom 10000 dump.water.${pid}
dump            myDump all atom 10000 dump.water.1
dump            myDump2 all dcd ${out_freq2} dump.dcd
dump            myDump2 all dcd 10000 dump.dcd
dump_modify     myDump append yes
dump_modify     myDump2 append yes


variable natoms 	equal  "count(all)"                        # NUMBER ATOMS
variable H      	equal  "enthalpy/v_natoms"                 # ENTHALPY-per-atom
variable Vol      	equal  "vol/v_natoms"                 # volume-per-atom
fix AVG all 		ave/time ${out_freq} 1 ${out_freq} v_Vol v_H file vol_enthalpy.dat
fix AVG all 		ave/time 1000 1 ${out_freq} v_Vol v_H file vol_enthalpy.dat
fix AVG all 		ave/time 1000 1 1000 v_Vol v_H file vol_enthalpy.dat



fix 		1 all shake 1e-6 200 0 b 1 a 1
       0 = # of size 2 clusters
       0 = # of size 3 clusters
       0 = # of size 4 clusters
     336 = # of frozen angles
  find clusters CPU = 0.001 seconds
fix             2 all nph tri ${pressure} ${pressure} ${pressureDamp}
fix             2 all nph tri 8381.9 ${pressure} ${pressureDamp}
fix             2 all nph tri 8381.9 8381.9 ${pressureDamp}
fix             2 all nph tri 8381.9 8381.9 1000
fix             3 all temp/csvr ${temperature} ${temperature} ${tempDamp} ${seed}
fix             3 all temp/csvr 233.27 ${temperature} ${tempDamp} ${seed}
fix             3 all temp/csvr 233.27 233.27 ${tempDamp} ${seed}
fix             3 all temp/csvr 233.27 233.27 100 ${seed}
fix             3 all temp/csvr 233.27 233.27 100 745823


run             250000
PPPM initialization ...
  extracting TIP4P info from pair style
  using 12-bit tables for long-range coulomb (../kspace.cpp:340)
  G vector (1/distance) = 0.37933951
  grid = 24 27 32
  stencil order = 5
  estimated absolute RMS force accuracy = 0.0024438158
  estimated relative force accuracy = 7.3594788e-06
  using double precision FFTW3
  3d grid and FFT values/proc = 5355 672
Last active /omp style is kspace_style pppm/tip4p/omp
Neighbor list info ...
  update every 1 steps, delay 7 steps, check yes
  max neighbors/atom: 2000, page size: 100000
  master list distance cutoff = 10.8154
  ghost atom cutoff = 10.8154
  binsize = 5.4077, bins = 5 5 4
  1 neighbor lists, perpetual/occasional/extra = 1 0 0
  (1) pair lj/cut/tip4p/long/omp, perpetual
      attributes: half, newton on, omp
      pair build: half/bin/newton/tri/omp
      stencil: half/bin/3d/tri
      bin: standard
Per MPI rank memory allocation (min/avg/max) = 10.31 | 10.32 | 10.33 Mbytes
Step Temp PotEng TotEng E_pair E_mol Press Lx Ly Lz Volume Pxx Pyy Pzz Pxy Pxz Pyz Enthalpy 
 6250000     234.7997   -4865.0201   -4395.3917   -4865.0201            0    9117.2334    17.925358    22.853483    19.290631    7902.5397    7378.8095    10256.746    9716.1443    402.80445    795.84015   -519.98301   -3344.6266 
 6251000    232.53881   -4891.5673    -4426.461   -4891.5673            0    7551.4652    18.054101    23.004897    19.073607    7921.8932    4883.8742    7182.2657    10588.256    167.12961     372.2755   -51.751582   -3554.0199 
 6252000    230.37762    -4879.784   -4419.0003    -4879.784            0    8352.4673    17.771594    23.072015    19.234058    7886.4729    8095.7757    8255.5645    8706.0617   -798.31158   -760.03796   -631.62898   -3458.3319 
 6253000    228.80359    -4882.137   -4424.5016    -4882.137            0    8796.9869     17.77039    23.011287    19.333583    7905.8802    9244.5331    8124.5043    9021.9233   -659.63922   -250.05013    564.43993   -3410.2165 
 6254000    217.99321   -4900.1538   -4464.1405   -4900.1538            0     6642.891    18.041838     23.08786    19.088635     7951.322    6959.6103    5984.6232    6984.4394   -767.30682    16.514754   -625.14705   -3693.8184 
 6255000    234.31333   -4896.0777   -4427.4221   -4896.0777            0    7350.8749      17.9132    22.881335    19.358177    7934.4892    10157.159    5858.4516    6037.0144    745.19028   -291.43459    527.86175   -3576.8054 
 6256000    239.32786   -4895.5097   -4416.8244   -4895.5097            0    6782.2791    18.025922    22.963793    19.225724    7958.3641     7984.672    5572.8862    6789.2792   -1457.8817    1250.0443   -341.10536    -3629.642 
 6257000    224.69515   -4881.1743   -4431.7563   -4881.1743            0    6432.8442    17.828649    23.072084    19.351054    7959.9415    6491.2638    5640.3633    7166.9057    83.426609    1096.5122    1572.5059   -3684.9829 
 6258000    234.15831   -4890.6409   -4422.2953   -4890.6409            0    6486.4044     17.88618    23.111265     19.22024    7945.1137    5524.8508    6872.7072    7061.6553   -1264.3827   -674.65179     568.0183    -3670.707 
 6259000    234.36374   -4862.6521   -4393.8957   -4862.6521            0     9218.717    17.940546    23.058946    19.146988    7920.9193    8491.8797    8626.9444    10537.327    517.21967   -158.60951    1139.2484   -3328.9635 
 6260000    243.00809   -4897.0833   -4411.0371   -4897.0833            0    7337.3637    17.907138    22.883622    19.292051       7905.5    7747.3749    7008.0919    7256.6245    750.55476   -519.39028    831.46784    -3565.086 
 6261000    235.79242   -4900.5004   -4428.8864   -4900.5004            0    8013.9792    18.027497    22.659519    19.409423    7928.6409    8522.7525    9518.3522    6000.8329   -692.41272    1340.0952   -181.95676   -3502.2212 
 6262000    237.07308   -4864.2773   -4390.1018   -4864.2773            0     6250.817    17.949756    22.902648    19.467802    8003.1543    6475.3849    6346.9682    5930.0978    932.05255    490.28669    -1504.264   -3660.5203 
 6263000    247.79471   -4886.0215   -4390.4014   -4886.0215            0    7103.7496    18.019851    22.867821    19.330983    7965.8097    6928.3775    7325.9748    7056.8965   -1117.7999    373.00841     15.97548   -3565.1364 
 6264000    236.66817   -4900.0146    -4426.649   -4900.0146            0    7929.6041    17.929364    22.817247    19.354594    7917.9399    10064.717     7488.534    6235.5615    371.12561    824.59117   -1374.6799   -3510.9778 
 6265000    228.79501   -4883.2801   -4425.6618   -4883.2801            0    5401.8008    17.977199    22.974605    19.364816    7998.0378    6587.5386    5287.9002    4329.9634   -959.97426    310.62835   -254.30964   -3795.5786 
 6266000    249.94692   -4916.6746   -4416.7498   -4916.6746            0      7650.98    17.894258    22.913404    19.336358    7928.2618    7602.6957    7482.3101    7867.9341   -417.48417    389.77523   -484.44466   -3532.1009 
 6267000    233.60393   -4892.9594   -4425.7226   -4892.9594            0    8180.9776    18.072153    22.855257    19.228563    7942.2365    8221.1252    7936.9691    8384.8386   -1050.0826   -434.49186   -870.06963   -3478.1251 
 6268000    223.84103   -4896.5683   -4448.8586   -4896.5683            0    6804.3709    17.915694    22.930015    19.392844    7966.7183    5520.1496    7040.4152    7852.5479    6.5006753    1284.8916   -69.779213   -3658.2831 
 6269000    227.73979   -4876.7621   -4421.2544   -4876.7621            0    8306.5279    18.071024    22.862656    19.175546    7922.4075    9143.1643    7724.2623    8052.1572   -875.14818   -285.22863   -259.71543   -3461.5166 
 6270000    225.43655   -4877.1809   -4426.2799   -4877.1809            0    8382.4797    17.877265    22.883846    19.335677    7910.2368    10042.636    8186.0992     6918.704    1889.8154    43.417856    1478.4709   -3459.2545 
 6271000    224.58606    -4895.545   -4446.3452    -4895.545            0    7216.2999    17.874527    22.770383    19.446589    7914.9525    6928.9295    7718.5792    7001.3911    299.49649   -1414.2636   -2444.8852   -3613.3571 
 6272000     228.1128   -4877.8359   -4421.5821   -4877.8359            0    8739.6353    18.036492     22.83514    19.247931    7927.5652    7764.3992    9658.6118    8795.8949    1110.6028    36.331318    609.49048   -3411.1457 
 6273000    232.60398   -4904.8267     -4439.59   -4904.8267            0    9482.0018    17.838881    22.776848    19.307456    7844.8798    8362.6304     10615.92    9467.4554   -1404.3389    907.49576   -914.28731   -3354.7587 
 6274000    240.97648   -4857.0768   -4375.0941   -4857.0768            0    9849.6028    17.819888    23.047976    19.129849     7856.865    10986.797    9276.0028    9286.0084   -1299.0696    479.34906   -692.84112   -3246.4841 
 6275000    247.79337   -4891.1241   -4395.5068   -4891.1241            0    8022.2567    17.868813    23.043758    19.211611    7910.6618    8387.5104     7637.642    8041.6177   -1723.4288    58.304958    473.05915   -3469.9879 
 6276000    244.95739   -4895.6672   -4405.7222   -4895.6672            0    7983.1533    17.935471    23.031463    19.246437    7950.3208    8411.3657    6910.4988    8627.5952   -36.560153    12.320879    342.97581   -3480.0973 
 6277000    243.43747   -4877.2775   -4390.3725   -4877.2775            0    8400.2521    17.902033     22.79542    19.374023    7906.2357    8286.2438    8102.9733    8811.5392    1691.8121    768.70624    2566.9633    -3421.787 
 6278000    235.42011   -4894.9541   -4424.0848   -4894.9541            0    9793.3714    17.983715    22.828968    19.129516    7853.6162    8611.8059    9561.2733    11207.035   -253.58048    193.20599   -484.35174   -3302.3821 
 6279000    235.86723   -4886.2337   -4414.4701   -4886.2337            0    8248.5531    17.803041    22.913366    19.368876    7901.0991    7221.8701    9262.9761    8260.8133    716.70877    197.11373   -1312.9279    -3463.994 
 6280000    236.14411   -4857.2744    -4384.957   -4857.2744            0    9661.7995    17.784763    23.012268    19.226793    7868.9058    10660.882    7707.2319    10617.285   -1177.0258   -1533.1377   -1551.7664   -3276.1696 
 6281000    237.07756   -4874.5774    -4400.393   -4874.5774            0    5822.2842    17.968018    22.953707    19.386461    7995.6091    8101.8569    5414.8046     3950.191    1819.6281   -251.41939    208.54336   -3721.4695 
 6282000    242.65964   -4908.7201   -4423.3708   -4908.7201            0    5618.8559    18.035962    22.812321    19.403649    7983.4793    7121.7809    5227.4178    4507.3689   -544.44614   -667.77559   -1599.2082   -3769.1626 
 6283000    232.15113   -4893.2092   -4428.8783   -4893.2092            0    6851.3542    17.971071     22.80165    19.395737    7947.7928    6378.8439     7566.528    6608.6907    761.61939    173.75105   -447.44976    -3634.735 
 6284000    213.95129   -4881.5436   -4453.6146   -4881.5436            0    8024.6269    18.037894    22.911228    19.166924    7921.1208    8785.7865    7150.1133    8137.9807    1051.5716    226.90731    270.80583   -3526.5983 
 6285000    227.53533   -4910.7146   -4455.6158   -4910.7146            0    8000.7645    17.892679    22.833204    19.396251    7924.2836    10006.993    7250.9021    6744.3979   -76.362291   -398.54316    -1269.062   -3530.9871 
 6286000    229.23943   -4901.3334   -4442.8262   -4901.3334            0     7941.206    17.997471    22.839644    19.262938    7918.1429    8354.4292    7995.2137     7473.975     961.0549    415.92119   -474.35166   -3525.7917 
 6287000    231.30171   -4885.7053   -4423.0733   -4885.7053            0    7175.5013    18.034068    22.799173     19.32691    7946.4877    7681.4195    6194.6774     7650.407   -266.87583   -1309.8006     630.5815   -3591.4946 
 6288000    222.73558   -4866.8013   -4421.3027   -4866.8013            0    7992.2058    17.947805     22.75503    19.359883    7906.6311    8829.1419    7332.5289    7814.9467     -643.899   -1414.7338   -602.86792   -3499.7206 
 6289000    237.22291     -4900.07   -4425.5949     -4900.07            0    9639.8459    18.029345    22.841676    19.100609    7866.0214    9426.0468     10278.93    9214.5609   -381.67364    585.65603    -1019.231   -3319.7325 
 6290000    239.25799   -4884.9658   -4406.4203   -4884.9658            0    10866.246     17.80424    22.893604    19.229388    7837.9609    11817.967     11207.02    9573.7492   -1766.1436   -272.27477   -2440.3642   -3164.3147 
 6291000    230.13549   -4867.9269   -4407.6275   -4867.9269            0    9356.3415     17.81404    23.130194    19.126428    7880.8955    8726.3549     9404.032    9938.6377   -965.77935    1731.0528    951.78449   -3332.2585 
 6292000    238.64383   -4899.8208   -4422.5036   -4899.8208            0    7622.4231    18.036382    22.955855    19.114431    7914.1499      7052.84    7119.9659    8694.4635   -512.39052    180.47783    1349.4616   -3542.7254 
 6293000    245.64726   -4889.6279   -4398.3031   -4889.6279            0    10001.883    17.909939    23.013614    19.114347    7878.4066    8999.6879    9248.0362    11757.924   -1128.6459   -264.41041    1851.1354    -3249.102 
 6294000    225.31987   -4902.4772   -4451.8096   -4902.4772            0    8237.3513    17.789016    22.955318    19.356138    7904.1277     9630.773    7203.9308    7877.3501    232.52941     311.0214    1074.0526   -3502.2605 
 6295000    235.20702   -4926.3383   -4455.8952   -4926.3383            0    8807.5501    17.990809    22.701445    19.261869    7866.8816    8923.1809    9129.8159    8369.6534    -664.9364    103.09387    -1010.818   -3445.4015 
 6296000    232.25468    -4898.922   -4434.3839    -4898.922            0    7476.5022    18.112977    22.495527    19.333369    7877.5931     8531.149    8425.0579    5473.2998    134.86957   -794.83446    1558.6726   -3575.4339 
 6297000    228.09978   -4874.2318    -4418.004   -4874.2318            0    10060.527    17.949468    22.624781    19.343979    7855.6439    9467.2132    11653.383    9060.9842    986.79725    1143.4251    2311.3584   -3265.4046 
 6298000    234.74117   -4911.7009   -4442.1896   -4911.7009            0    8654.6014    18.065487    22.700359    19.260131    7898.4459    7346.5292    8834.5827    9782.6923    740.82163   -189.95167    900.08827   -3445.2597 
 6299000    241.52478    -4883.279   -4400.1996    -4883.279            0    9677.1609     17.97667    22.892106    19.162451    7885.8055    8969.9743     8982.626    11078.882      -362.49     -1058.96    185.28489   -3287.2644 
 6300000    231.88206   -4903.1227   -4439.3299   -4903.1227            0    9621.0563    17.866468    22.735396    19.321472    7848.4059    10125.033    9795.0966    8943.0395    -476.6826    245.52879   -724.77816   -3338.0947 
 6301000    244.84572   -4862.7148   -4372.9931   -4862.7148            0    6351.4229    18.158342    22.828513    19.216381    7965.7271     5338.183    6916.1622    6799.9236   -549.27945    320.55481   -1487.8334   -3635.1358 
 6302000    233.29297   -4912.0226   -4445.4078   -4912.0226            0    6860.9863    17.842342     22.93093    19.416946    7944.2781    6925.7019    7164.5615    6492.6955    547.85428    906.87179   -1402.0178   -3650.4998 
 6303000     228.3151   -4916.3899   -4459.7315   -4916.3899            0     7026.129    18.054926     22.84825    19.189485    7916.1127    6886.7566    6624.0411    7567.5893    596.61485    -116.3959   -613.65124   -3648.5763 
 6304000    235.01803   -4857.3491    -4387.284   -4857.3491            0    8877.9777    17.928557     22.84718    19.306085    7908.0998     7725.575    8810.1881     10098.17   -11.776098     75.38183    401.13415   -3363.3733 
 6305000    230.35956   -4864.4747   -4403.7272   -4864.4747            0    9557.4607    17.959747    22.776595    19.297405    7893.8328    9099.7455    10729.808    8842.8284    -112.5609    895.56102   -1510.8227   -3303.4393 
 6306000     240.1858   -4855.4112   -4375.0099   -4855.4112            0    8862.5482    18.126349    22.517166    19.356612    7900.4786    7459.9061    9985.6298    9142.1087   -775.78655    1507.6454    1268.1847   -3353.8638 
 6307000    223.00835   -4901.7504   -4455.7061   -4901.7504            0    7203.7456    18.044074    22.681916    19.374961     7929.671     6414.757    8403.5788    6792.9011    744.99711   -241.40695    1761.2063   -3622.6209 
 6308000    238.03823   -4903.0399    -4426.934   -4903.0399            0    6856.6156    18.012974    22.760229    19.347024    7931.8816    6067.1865    8448.4147    6054.2456   -2886.5456    1511.1433    1542.5596    -3633.772 
 6309000     235.5905   -4904.4896   -4433.2795   -4904.4896            0    5578.6384     17.93228    22.915856    19.358237    7954.9494    4633.2239    5728.5189    6374.1723   -1588.3341   -539.02385    1438.0373    -3786.075 
 6310000    229.34617   -4884.9874   -4426.2667   -4884.9874            0    7844.7995    17.968631    22.797278    19.303457    7907.3886    7487.0874    8097.7591    7949.5521    69.609032   -578.84308    1376.8859   -3521.5954 
 6311000    238.63502   -4875.5747   -4398.2752   -4875.5747            0    7922.5837    17.962151    22.720635    19.320251    7884.8161     8209.656    7873.5739    7684.5214   -1244.5438   -1410.3833    1106.0933   -3487.2418 
 6312000    247.89214   -4871.7847   -4375.9698   -4871.7847            0    8673.1875    17.727887    23.208554    19.218417     7907.199    10153.779    7828.9987    8036.7847   -190.92414    31.514122   -1216.3621   -3375.7918 
 6313000    243.81823   -4882.9878   -4395.3212   -4882.9878            0    8492.9136    17.908713    22.991491    19.225074    7915.8858     9093.324    7401.0305    8984.3865   -243.17975   -433.39815     104.7551   -3414.8561 
 6314000    228.52844    -4891.693   -4434.6079    -4891.693            0    8978.2348     17.88572    23.108262    19.130055    7906.6032    9195.0402    8511.5432     9228.121   -162.74796    329.24168    1126.4335   -3399.3303 
 6315000     225.3329   -4892.3157    -4441.622   -4892.3157            0    7358.5317    17.773292     23.01599    19.410133    7940.1014    8091.0008    7084.9135    6899.6809   -1504.8897    1342.6043    1275.9477   -3589.5171 
 6316000    237.50752   -4867.4712   -4392.4268   -4867.4712            0    7927.0265    18.085386    22.811021    19.259263    7945.3337    8114.8868     7052.147    8614.0455   -602.56644    588.52847      917.149   -3473.8863 
 6317000    232.21384   -4896.2693   -4431.8129   -4896.2693            0    7437.7113    18.090531     22.63149    19.314189    7907.5316    5566.0513    7933.8484    8813.2343    877.60445    135.95169   -692.82472   -3574.0719 
 6318000    232.44086   -4885.6989   -4420.7885   -4885.6989            0    8408.9046    18.062086     22.62393    19.318902    7894.3869    6630.4217    9475.9028    9120.3894   -817.92772    18.666283   -542.93992   -3452.6584 
 6319000    222.63343   -4899.7835   -4454.4892   -4899.7835            0    8411.9493    17.947699    22.759554    19.326762    7894.6272    7470.7572     8824.471    8940.6197    921.10835   -309.82663     155.0709   -3485.9791 
 6320000    244.35345   -4906.8851    -4418.148   -4906.8851            0    7470.2775    17.990411    22.925906    19.240375    7935.6245     6135.613    8031.8333    8243.3861    2463.5387    874.44751   -14.726166   -3553.5908 
 6321000    236.42181   -4895.3458   -4422.4729   -4895.3458            0    6453.7698    17.886314    22.890771    19.401373     7943.534    5990.7091    5951.3042    7419.2961    423.75927    131.71511    4.8848592   -3674.8147 
 6322000    246.04843   -4864.9794   -4372.8522   -4864.9794            0    7857.4522    17.891487    23.018111    19.292789    7945.3149    8497.1549    7824.8138    7250.3878    1498.5555    1157.9412   -444.45984   -3462.3756 
 6323000    226.81093   -4912.5922   -4458.9424   -4912.5922            0    7403.4876    17.936622     23.04622      19.0849    7889.1507    6652.4848    7439.6619    8118.3161   -393.72565    130.02941   -765.06431   -3607.1328 
 6324000    226.45259   -4905.9799   -4453.0468   -4905.9799            0     9573.344    17.937394    22.805774    19.201628    7854.9281    9681.8787    8747.0995    10291.054    1122.8437    30.979186   -57.304034   -3356.3621 
 6325000    225.61054   -4889.0591   -4437.8101   -4889.0591            0    9177.2405    18.104427    22.495438    19.400597    7901.2232    8846.3583    9444.1603    9241.2028   -13.496532   -252.02924   -67.459811   -3380.3054 
 6326000    233.64221   -4873.1519   -4405.8386   -4873.1519            0    9568.3205    18.054155    22.516276    19.352273    7866.9381    9200.0478    10436.305    9068.6085    1065.6179   -545.97185     926.6238   -3308.0535 
 6327000    219.25699   -4899.2146   -4460.6735   -4899.2146            0    8558.1176    18.083845    22.592861    19.335844    7899.9643    8124.4431    8280.1247    9269.7849   -442.92061    211.36286   -1554.8611   -3474.6681 
 6328000    246.55051   -4878.7198   -4385.5883   -4878.7198            0    8350.6422    17.958134    22.833234    19.327939    7925.2719    7681.9476     8987.622     8382.357   -746.87128   -127.85883   -2205.2055   -3420.4047 
 6329000    235.18961   -4909.4155   -4439.0072   -4909.4155            0    8662.3812    18.064353    22.831917    19.103448    7879.0986    8158.1248    7942.9587      9886.06    828.53831   -375.82503    -429.1929   -3443.6254 
 6330000    238.92588   -4874.5919   -4396.7107   -4874.5919            0    8483.0421     17.90531    22.939546    19.318004    7934.6705    9583.0354    8121.7256    7744.3654    653.17719   -368.23113    622.46704   -3415.0613 
 6331000    229.29383   -4873.0224   -4414.4065   -4873.0224            0     7998.515    17.958342    23.117837    19.041082    7905.0578    8860.6673    6853.9036    8280.9742   -1031.9275    1063.9237   -3250.7042   -3492.2804 
 6332000    229.74778   -4901.8685   -4442.3445   -4901.8685            0    7294.7108    17.635969    23.359005     19.14089    7885.2559    7652.9784    5829.3336    8401.8205   -566.94587   -314.38453    758.82256   -3603.4647 
 6333000    238.03087   -4883.2831   -4407.1919   -4883.2831            0    8132.1736    17.797197    23.192788    19.134219     7897.967    8352.8293    7679.5163    8364.1751   -1009.4493   -144.21774    488.77615   -3470.4977 
 6334000    242.56275   -4867.8119   -4382.6564   -4867.8119            0    9724.9566    17.901331    23.073662    19.090542    7885.3344    10660.578    8922.9038    9591.3878     324.0839    1521.7681    169.83601   -3264.2911 
 6335000    226.75079   -4885.9008   -4432.3712   -4885.9008            0     8261.118    17.758047    22.921203     19.36862    7883.7214     8816.727    8273.7865    7692.8406    689.59438    526.94168    89.120102    -3482.541 
 6336000    226.45611   -4895.5973   -4442.6571   -4895.5973            0    7075.1194    18.054929    22.908274    19.216166    7947.9458     6438.712    6641.1187    8145.5275    387.03253   -523.94767    699.95183   -3622.5613 
 6337000    231.09522    -4896.913    -4434.694    -4896.913            0    7052.8886    18.018918    22.900417    19.244615    7941.1124    7071.2166    6831.3771    7256.0721   -682.40525    308.61074   -93.156328    -3617.878 
 6338000    230.58825   -4884.7446   -4423.5396   -4884.7446            0     6956.794    17.866713    22.715026    19.626766    7965.3824    8007.5376    7458.8383    5404.0061   -250.79063    1291.0765   -612.11846   -3615.3902 
 6339000    231.75164   -4930.8391   -4467.3072   -4930.8391            0    9142.2663    18.184051      22.5887    19.151956    7866.7442    8868.1677    8624.3537    9934.2774   -304.17413   -696.04488   -522.54254   -3418.4296 
 6340000    234.01304   -4894.6479   -4426.5929   -4894.6479            0    10095.765    18.088917     22.62606     19.13559    7831.8316    11304.998    9270.9664    9711.3302   -568.97021    376.76047   -1085.4208   -3273.4624 
 6341000    232.60501   -4900.0211   -4434.7823   -4900.0211            0     9268.654    17.860277    22.702767     19.42927    7878.1356    9473.2398    10523.684    7809.0381   -206.99132    321.70359     321.9537   -3369.8647 
 6342000    223.99396   -4874.4517   -4426.4361   -4874.4517            0    9307.6849    18.087661    22.718176    19.238082    7905.2867    10130.476    9379.6171    8412.9619    917.51207    1157.2127   -541.31429   -3353.3485 
 6343000    248.80305   -4899.9903   -4402.3534   -4899.9903            0     7661.729    18.025549    22.787488    19.308199    7930.9773    6310.1594    8285.0949    8389.9328    560.45116    850.55738    197.95031   -3516.1582 
 6344000    236.45645   -4895.3974   -4422.4553   -4895.3974            0    9089.3065    17.791936    22.857766    19.322804    7858.2734    9977.7735     9230.386    8059.7601       255.27    18.829049   -287.06631   -3380.7766 
 6345000      229.845    -4924.103   -4464.3846    -4924.103            0    7093.5895    17.835847    23.279299    19.047747    7908.7392    8053.0793    6425.6366    6802.0527    1379.4849    412.55423    1714.6367   -3646.2039 
 6346000    233.08703   -4873.2452   -4407.0423   -4873.2452            0    8422.5986    17.804179    23.052354     19.23673    7895.2972    9931.2172    7412.5811    7923.9974     502.4154   -157.48311    6.2656595   -3437.2238 
 6347000    234.67486    -4890.906   -4421.5273    -4890.906            0    9030.9735    17.836564    22.984589    19.179718    7863.0341    10328.601    8586.4635    8177.8555    1962.4957   -669.16971    -563.3337   -3385.9068 
 6348000    241.59248   -4894.0141   -4410.7993   -4894.0141            0    11517.856    17.935762     22.76695    19.096783    7798.0302    12529.723    9688.3573    12335.488    646.95401   -2205.9101   -1633.9289   -3100.9165 
 6349000     233.5077   -4896.5875   -4429.5432   -4896.5875            0    8436.0904    17.850223    22.672864    19.461013    7876.1767    8501.7019    9006.1242    7800.4452    109.35582   -320.53265   -1347.8993   -3460.5236 
 6350000    232.36406   -4886.1674   -4421.4106   -4886.1674            0    9756.8803    18.012699    22.610529    19.359139    7884.5253    9784.8917    10095.141    9390.6083   -264.61561    176.14191   -36.874721   -3299.4892 
 6351000    220.88347   -4905.5091   -4463.7149   -4905.5091            0    8247.8484    18.136107     22.73087    19.143275    7891.8052     7760.237    7630.9932    9352.3149    -556.2727    57.465538   -875.02093    -3514.438 
 6352000      231.548   -4884.4949   -4421.3703   -4884.4949            0    7420.8259    17.819708    22.597943    19.589582    7888.5041    8985.9024      7833.04    5443.5354    945.31631   -705.87397    1167.3209   -3567.6359 
 6353000     235.8999    -4877.768    -4405.939    -4877.768            0    9423.2449    18.030113    22.881266    19.197406    7919.9245     9383.985    9056.8398      9828.91    1436.8844   -751.63429    3010.4597   -3317.5168 
 6354000    226.10562     -4858.56   -4406.3208     -4858.56            0    9398.3923    17.982704    22.712823    19.340834    7899.5309    9544.5276    10727.958    7922.6916   -8.0281264    1087.9836    1000.8487   -3323.5644 
 6355000    243.66326    -4873.005   -4385.6484    -4873.005            0    7205.7658    17.816854    22.871178    19.492019    7942.8506    8203.8661    7354.4121    6059.0192    157.81619    611.21697   -466.27795   -3550.9446 
 6356000    220.51902   -4888.3913    -4447.326   -4888.3913            0    9881.1739    18.022043    22.957199    19.058745    7885.2819    9441.0787    8668.1762    11534.267    1079.9629   -45.252716    357.06305   -3311.0034 
 6357000    238.66648   -4894.2913   -4416.9289   -4894.2913            0    7862.8196    17.801452    23.092228    19.263944    7918.9293    7242.2412    8720.6328    7625.5848    753.22423    1586.1425   -288.97908   -3508.8561 
 6358000     238.5287   -4890.4633   -4413.3764   -4890.4633            0    7374.5756     17.91863    23.152874    19.138593    7939.9861    7678.6963    5757.8986    8687.1318   -607.37469    -385.5945   -1131.7208    -3559.426 
 6359000    233.58438   -4898.7773   -4431.5797   -4898.7773            0    7616.2779    17.956795    22.997877    19.178734    7920.2062    7548.8699    7612.4712    7687.4926    1657.1797   -427.12646   -1007.0086    -3551.838 
 6360000    236.64733    -4872.905   -4399.5811    -4872.905            0    8866.5511    17.876505    22.848376     19.27379    7872.3625    8684.4693    9005.3214    8909.8626    591.14651     440.5757    -1817.619   -3381.6094 
 6361000     241.6461   -4862.1079   -4378.7858   -4862.1079            0    8762.9136    17.917597    22.926749    19.176675    7877.6294    9236.9296    8019.1314    9032.6796     482.6732   -792.26988    170.74135   -3372.0397 
 6362000    239.02429   -4893.2533   -4415.1752   -4893.2533            0    7517.1792    17.953028    22.781996    19.335208    7908.2126    7731.2481    7437.2378    7383.0517   -1375.2088    39.791426   -562.57789   -3548.1951 
 6363000    232.09531   -4908.1581   -4443.9388   -4908.1581            0    8707.3979    17.964628    22.824556    19.284994    7907.5159    8471.9585     8302.027    9348.2081   -1191.7685   -423.42043   -139.15291   -3439.7755 
 6364000    228.72989   -4865.5671    -4408.079   -4865.5671            0    8931.8813    18.181377     22.55811      19.3338    7929.5163    8486.7572    9590.1678    8718.7191   -491.79298    1510.9671    1896.8946   -3375.1618 
 6365000    234.54702   -4893.1755   -4424.0525   -4893.1755            0     8485.334    18.000391    22.698471     19.33193     7898.666    9533.8987    9122.3255    6799.7777    1551.0783    1149.9914   -103.65682   -3446.5934 
 6366000     229.9097   -4907.8736   -4448.0258   -4907.8736            0    8333.8033    17.944109    22.757933    19.316226    7888.1833    8155.6706    7545.9798    9299.7596   -1277.9108    227.30093   -143.08254   -3489.2962 
 6367000    219.97242   -4902.9969   -4463.0249   -4902.9969            0    6664.2284    18.088504     22.88648    19.254072    7970.8428     6143.701    6330.3593    7518.6249    355.42397    155.25669   -842.73392   -3688.3312 
 6368000    213.09678   -4873.7334   -4447.5135   -4873.7334            0    6699.8118    17.846688    22.944965    19.436117    7958.9269    7311.1652    6909.3308    5878.9394   -999.32239    482.37561    1192.3472   -3669.8477 
 6369000    228.09751    -4898.135   -4441.9118    -4898.135            0    8716.8922    17.988836    22.907822    19.140246     7887.409    9434.4773    8585.5175    8130.6816     1053.288   -1494.8711    2569.1289   -3439.2097 
 6370000     236.4692   -4908.0219   -4435.0543   -4908.0219            0    8725.6176    17.905639    22.988836    19.196671    7901.9219    9125.9625    8104.8431    8946.0472   -1305.8305    -265.2332   -1223.1404   -3429.5017 
 6371000    228.94912   -4907.5116   -4449.5851   -4907.5116            0    6835.5178    17.900445    23.090885    19.223728    7945.8801    7147.8781    6880.1775    6478.4979   -416.32623    694.60707    1192.2532   -3657.4681 
 6372000    239.41582   -4877.2332    -4398.372   -4877.2332            0    7825.7755    17.965666    22.963522    19.155466    7902.6825    7971.0841    7795.3573    7710.8851   -109.81566    235.11423    81.516611   -3496.4316 
 6373000    237.00327   -4898.0629   -4424.0271   -4898.0629            0    8177.3891    17.976708    22.528133    19.510064    7901.2181    10219.638    7666.4713    6646.0585    1434.3453    323.26679    44.930239    -3481.737 
 6374000    242.07682   -4898.4132   -4414.2297   -4898.4132            0    8166.5804    18.017581    22.641511     19.33877    7889.1597    8224.6654    7167.4946    9107.5812    573.80843   -1196.1731   -566.61185   -3474.6213 
 6375000    233.27482   -4865.4544   -4398.8759   -4865.4544            0    8140.6495    17.925533    22.750987    19.470116    7940.3718    7709.2511    8687.4305    8025.2669   -191.99623   -670.08147   -395.91709    -3456.171 
 6376000    225.82648   -4889.0433   -4437.3625   -4889.0433            0    7825.0911    18.083634    22.639025    19.265023    7887.0203    7359.2257    8257.8156     7858.232   -650.37622    35.472607   -957.01778   -3537.2884 
 6377000    229.09471   -4897.7667    -4439.549   -4897.7667            0    9384.1655     18.00932    22.481121    19.457447    7877.7307    9666.7125    9966.2846    8519.4993    962.27894   -811.75232    840.76367   -3361.4151 
 6378000    218.52601   -4871.4522   -4434.3732   -4871.4522            0    9561.5686    18.054027    22.359784    19.505362    7874.0057    8768.6174    9860.8987     10055.19    816.80568   -549.31447   -453.36856   -3336.3772 
 6379000    242.07364   -4861.3792    -4377.202   -4861.3792            0    8559.9009    17.928654    22.797256    19.336499    7903.2932    8927.3223    8096.3187    8656.0617   -418.91783    1055.0129   -1475.4843   -3390.5756 
 6380000    236.92015   -4928.3252   -4454.4556   -4928.3252            0    8942.7922    17.871676    22.811903    19.292464    7865.2858    9870.4127    9227.6445    7730.3194    458.16886   -1608.3093    1727.0666   -3428.6536 
 6381000    234.66914   -4919.1227   -4449.7555   -4919.1227            0    9592.9144    17.708389     22.87364    19.369248    7845.6169    11681.021    9152.2572     7945.465    47.841988     588.2348   -95.710903   -3352.1315 
 6382000    239.97642   -4877.8787   -4397.8962   -4877.8787            0    9096.6276     17.91067    22.893587    19.183353    7865.9322     8546.542    8795.2829    9948.0578   -665.24215   -1134.0519   -777.56165   -3354.3624 
 6383000     232.7276   -4869.8449   -4404.3609   -4869.8449            0    7598.3951    18.080095    23.071793    19.030596    7938.4268    6274.2232    7643.6067    8877.3554    497.67472    1477.8256   -398.05726   -3524.6657 
 6384000    219.22541   -4891.3901   -4452.9122   -4891.3901            0    7102.0589    17.920019    22.883849    19.363128    7940.4125    7322.8306    7595.5272    6387.8188    514.67109    1482.2846   -483.76132   -3630.4741 
 6385000    231.16566   -4895.3449    -4432.985   -4895.3449            0    10490.122    17.847338    22.855505    19.222168     7840.913    9655.3786    10296.231    11518.756   -460.46543    837.34119   -978.39751    -3233.422 
 6386000    241.92093   -4889.6632   -4405.7915   -4889.6632            0    7398.2102    18.008199    23.007347    19.135417    7928.2032    7043.5753    6885.6539    8265.4014   -1204.4201   -195.83785   -753.95604   -3550.3756 
 6387000    233.22632    -4896.975   -4430.4935    -4896.975            0    8015.9767    17.638884    23.253076    19.316572    7922.8524    7888.4459    8098.2205    8061.2638    38.652364    1222.1686    776.87359   -3504.2741 
 6388000     230.4053   -4886.8591     -4426.02   -4886.8591            0    8843.0422    17.770489    23.128646    19.195918    7889.6635     9187.989    8619.6332    8721.5045   -875.16015   -732.26525    -8.453058   -3408.5162 
 6389000     229.0114   -4905.2785   -4447.2274   -4905.2785            0     9894.688    17.991664    22.765234    19.160701    7847.9253     8888.512    10601.154    10194.398   -1037.3111    3.2162217   -1643.8423   -3314.7413 
 6390000    227.65525   -4867.8621   -4412.5234   -4867.8621            0    8604.3637    18.066851    22.554144    19.449469    7925.3157    8523.8865    8306.7442    8982.4603   -1007.2295   -762.57601   -201.72682   -3418.0087 
 6391000     233.6685   -4901.8789    -4434.513   -4901.8789            0    8251.4023    18.068599    22.638266    19.353573    7916.4192    7103.4842    8130.9105    9519.8121    533.98595    552.78844    579.40348   -3481.8651 
 6392000    233.80905   -4889.3025   -4421.6555   -4889.3025            0    7855.0711     18.04725    22.651823    19.393048    7927.9382    6179.9893    8560.3239    8824.9001   -325.48271    762.38639    352.11643   -3513.4455 
 6393000    239.20617   -4915.5541   -4437.1122   -4915.5541            0    8570.4833    18.008255    22.625204     19.37949    7895.9878    7014.1368    9756.5412     8940.772   -1240.6065    1233.4362   -770.51993   -3450.1792 
 6394000    239.82186   -4895.6518   -4415.9784   -4895.6518            0    9395.3056    17.967159    22.592927    19.355361    7856.9353    8340.4888    9525.6016    10319.826   -2241.7637    -518.7703   -710.71327   -3339.4141 
 6395000    232.67665   -4897.9065   -4432.5245   -4897.9065            0    8246.2868    18.050441    22.556605    19.430214    7911.1412    7779.7586    9409.4507    7549.6513    526.82207    188.96996    832.91811   -3481.1019 
 6396000    230.57107   -4893.5823   -4432.4117   -4893.5823            0    9153.0419    18.004491    22.659272    19.303796    7875.3435    9345.3709    9680.5256    8433.2292    618.90726   -882.67683   -2308.5971     -3381.15 
 6397000    231.82471   -4916.2235   -4452.5455   -4916.2235            0    7430.9229    17.965893    22.684563    19.428582    7918.0883    7844.9558    7406.3664    7041.4465    576.01248   -1922.3417    491.58462   -3594.4433 
 6398000    226.55379   -4892.3267   -4439.1912   -4892.3267            0    6936.1248    17.971016    22.921984    19.247413    7928.6128    4982.0664    7820.6869    8005.6211    2167.3547    452.44431    66.507515   -3637.1623 
 6399000    241.99398   -4882.4713   -4398.4534   -4882.4713            0    8532.3986    17.907578    22.972141    19.182503    7891.2097    8441.2847    8793.1104    8362.8007    135.37473   -194.70654   -717.47699   -3416.5006 
 6400000    236.45336   -4906.5715   -4433.6355   -4906.5715            0    7475.4783     17.68892    23.123681    19.304217    7896.0609    8952.6918    6768.0431    6705.6999    947.27599    287.54088     -540.193   -3572.7897 
 6401000    242.91001   -4866.1792   -4380.3292   -4866.1792            0    8630.2476    18.006673     23.11281    19.020135    7915.8916    6384.0302    8047.7456    11458.967    2083.3268    -813.8695    726.95636   -3384.0089 
 6402000    237.17915   -4893.8796    -4419.492   -4893.8796            0     6878.479    17.904739    23.054102    19.230005    7937.7166    4213.3008    8025.6989    8396.4372   -233.13691    472.91868   -1324.3947   -3623.2155 
 6403000    243.11492   -4898.2754   -4412.0155   -4898.2754            0    7500.4322    17.785752    22.953393    19.349915    7899.4743    8563.9027    7023.4588    6913.9351    150.16524    4.4619294     296.3327   -3547.9228 
 6404000    230.83102   -4885.8829   -4424.1923   -4885.8829            0    7846.8194    17.970462    22.696388    19.351723    7892.8822    6922.6326    8154.6304    8463.1953   -1442.8699   -1241.3069    395.18038   -3520.9481 
 6405000    223.47258   -4889.5205   -4442.5477   -4889.5205            0    8100.2664       17.941     22.84951    19.325059    7922.1736    9736.6759    7244.5335      7319.59    113.37692     64.35251     177.2106    -3506.669 
 6406000    233.18049   -4923.0362   -4456.6464   -4923.0362            0         7088    17.937808    22.844776    19.280802    7900.9877    6426.0163    7011.3088    7826.6749   -1025.9767   -872.93344    -1365.133   -3639.9118 
 6407000    227.32268   -4899.4892   -4444.8157   -4899.4892            0     7141.228    18.196971    22.648955    19.309344    7958.1988    6473.6895    7801.6585    7148.3359    1738.0456     979.9564    340.75284   -3615.9893 
 6408000    230.20638   -4916.9239   -4456.4827   -4916.9239            0    8510.0925     17.92888    22.754838    19.248884    7852.9433    9128.1979    7969.4694    8432.6101   -237.54128    220.59902   -964.11768   -3481.8463 
 6409000    231.72715   -4901.1879    -4437.705   -4901.1879            0    8554.2046    17.998242    22.625314    19.324131    7869.0929    10468.085    7828.3281    7366.2002    -229.3514   -615.21794   -1654.6327   -3456.0018 
 6410000    245.42089   -4899.9774   -4409.1052   -4899.9774            0    9175.9706    17.955432    22.671254    19.340115    7872.8225    7641.3536    9847.0305    10039.528    1289.7753    188.96477    1302.0372   -3355.5475 
 6411000    219.06149   -4882.9027   -4444.7526   -4882.9027            0    8336.0515    18.075007    22.700473    19.241422    7894.9715    8827.3687    8569.8067    7610.9791   -1406.9906   -265.30995   -1189.1875   -3484.9391 
 6412000     236.7061   -4893.6738   -4420.2323   -4893.6738            0    7367.7789    17.998951    22.770599     19.39693    7949.7715    6884.9447    8431.6268     6786.765    102.56886    632.83812   -1851.9553   -3566.0175 
 6413000    228.80339   -4890.7374   -4433.1023   -4890.7374            0    7549.2463    17.945748    22.948702    19.198654    7906.6129    8175.7244     7079.799    7392.2155    166.41935   -306.44652    -2340.375   -3562.5999 
 6414000     229.7746   -4900.6531   -4441.0755   -4900.6531            0    7959.7539    17.895956    22.865126    19.354381    7919.6832    8649.8225    9386.1132     5843.326    354.91531    713.34232   -1673.7984   -3521.7203 
 6415000    222.40147   -4882.4383   -4437.6079   -4882.4383            0    7852.2536    18.016352    22.845161     19.20678    7905.2507    8294.6408    6308.5426    8953.5773    1437.1387    318.64053   -388.20652   -3532.3218 
 6416000    242.04294   -4868.8305   -4384.7147   -4868.8305            0    8918.7052    17.991892    22.863927    19.306827    7942.1591    10200.096    7913.4174     8642.602    677.63026    393.06012   -1214.0325   -3351.6767 
 6417000    223.56271   -4881.7054   -4434.5524   -4881.7054            0    6250.5316    17.837727    23.027003    19.360326    7952.2423    7187.0774    6263.0299    5301.4876   -442.03481    1085.8261   -530.84524   -3709.6451 
 6418000    227.82606      -4849.7   -4394.0197      -4849.7            0    10496.513    17.875826    22.943395    19.144287    7851.6872    8959.0787    10947.345    11583.114    -581.5932    48.979232    566.32158   -3192.0766 
 6419000    249.42744   -4886.3706   -4387.4849   -4886.3706            0    7440.4125    17.779742    23.039981    19.295312    7904.2266    9601.7572    6880.9406    5838.5397    383.52716   -1234.1023    1059.9705   -3529.7911 
 6420000    226.16005   -4863.1124   -4410.7643   -4863.1124            0    9659.1374    17.901205    22.799533    19.284261     7870.661    10182.679    10139.702    8655.0311    979.02202   -451.45503   -873.65196   -3302.0352 
 6421000    237.50555   -4889.9049   -4414.8645   -4889.9049            0    8739.4026    18.027177    22.670637    19.291799    7884.3191    5433.7858    9762.0189    11022.403   -1076.1412    58.627678   -912.15513   -3409.9668 
 6422000     239.2537   -4916.5767   -4438.0398   -4916.5767            0     8399.104    18.151778    22.497798    19.306763    7884.3999    7682.8772    8406.2759     9108.159     -639.771   -447.67761    1151.0926   -3472.2614 
 6423000     230.8289   -4906.1631   -4444.4768   -4906.1631            0    9235.9235    17.932614    22.643441    19.344544    7854.9702    8349.0753    10495.153    8863.5424    93.198048   -77.615841   -898.48199     -3386.44 
 6424000    220.32924   -4872.8209   -4432.1352   -4872.8209            0    8501.1295    18.053327    22.696988    19.283035    7901.3422    7985.6083    8531.8209    8985.9592   -212.71591   -726.14373   -419.98286   -3452.5247 
 6425000    233.30179   -4897.6581   -4431.0258   -4897.6581            0    8703.8338    17.987698    22.559122    19.330914    7844.2274    8548.1625    9984.5325    7578.8064   -48.706977    490.15394    2325.4645   -3435.3071 
 6426000    234.78633   -4901.2863   -4431.6846   -4901.2863            0    7774.8403    17.989687    22.816866    19.208384    7884.4322    8503.3544    7711.2296     7109.937    464.13954   -1115.4249   -618.31942   -3537.6841 
 6427000    240.93741   -4882.3676    -4400.463   -4882.3676            0    9487.9756    17.861017    22.779359    19.346906    7871.5307    9982.0267    10011.725    8470.1756   -61.282063   -124.01097   -431.12666   -3311.2605 
 6428000    238.58575   -4892.6132   -4415.4123   -4892.6132            0    7856.2858    17.971012    23.065597    19.160334    7942.1909    8384.7863    6840.4583    8343.6126   -691.74561   -750.22506    143.76557   -3505.4288 
 6429000    245.73274    -4888.222   -4396.7261    -4888.222            0    8126.1284    17.834347    23.085942    19.140928    7880.7548    7715.3461    8048.4491    8614.5901    11.051029    -126.8508    1045.9021   -3462.7681 
 6430000    229.14187   -4866.6817   -4408.3696   -4866.6817            0    9629.6233    17.822723    22.996887    19.141417    7845.4382    10781.737     8223.138    9883.9946   -481.48174    644.17013    1906.2237   -3306.5706 
 6431000    237.59685   -4910.7065   -4435.4834   -4910.7065            0    8530.1981     17.80389    23.201017    19.041883    7865.5994    10358.706    6276.0072    8955.8814    860.32968   -872.28684     767.2627   -3456.9699 
 6432000    240.51554   -4893.9679   -4412.9072   -4893.9679            0    8051.6927    17.679817    23.213866     19.26312    7905.9101    8912.4029    6457.5954    8785.0797    1945.1043   -1660.0441    2651.7881   -3484.5503 
 6433000    225.15344   -4890.2211   -4439.8864   -4890.2211            0    9710.6889    17.759792     22.86285    19.325058    7846.7361    10379.655     9642.598    9109.8136   -1104.4953   -849.54212    -801.9262   -3328.6282 
 6434000    227.63374    -4908.815   -4453.5194    -4908.815            0    8074.2932    17.941282    22.822648    19.315858    7909.2172    10086.791    7305.5314    6830.5568    832.54473   -668.80155    1280.5181   -3522.1673 
 6435000    238.86824   -4881.9591   -4404.1931   -4881.9591            0    6718.8134     18.08895    22.794058     19.30329    7959.1435    4123.9511    7582.2424    8450.2469   -495.37994     192.9593    129.24359   -3624.3005 
 6436000    225.38507   -4862.2517   -4411.4537   -4862.2517            0    7251.5945    17.968689    22.667376    19.482144    7935.1363    6259.6123    7533.7563    7961.4148    1252.2169    668.43151    1334.7686    -3572.257 
 6437000    231.37615     -4905.75   -4442.9691     -4905.75            0    9048.5387    18.018222    22.660061    19.331707    7893.0201    8748.4422    9709.8283    8687.3454    1631.9085    1523.1853    1284.5451   -3401.3773 
 6438000    236.07612    -4882.851   -4410.6695    -4882.851            0    8169.0626    18.037747    22.691277    19.355776    7922.3097     8121.357    8766.3817    7619.4492    909.39231    1013.9647   -2141.9443   -3466.8262 
 6439000    224.47836   -4904.0877   -4455.1033   -4904.0877            0    7856.4873    17.968895    22.902757    19.219166    7909.4027    7262.5506    8203.6177    8103.2936    290.75419    964.67485   -206.59223   -3548.8533 
 6440000    249.18433   -4880.1049   -4381.7055   -4880.1049            0    7408.5223     17.87707     23.02059    19.272504    7931.4197     6631.281    7612.5067    7981.7792    313.85409   -137.83569   -701.22515   -3524.7497 
 6441000    240.29749   -4889.1873   -4408.5626   -4889.1873            0     8433.694    17.784458    23.184719    19.115312    7881.7724    9450.2604    6928.8478    8921.9738   -424.75202   -1283.2027    488.20655     -3439.13 
 6442000    231.63925   -4874.6988   -4411.3917   -4874.6988            0    8585.6243    17.702045     23.12421    19.284789    7894.1475    10852.342     7726.892    7177.6389    317.02533    -692.8939    410.62175   -3422.9456 
 6443000    226.42075   -4876.1885   -4423.3191   -4876.1885            0    9636.9811    17.743868      22.8414    19.374492    7852.3804    10510.861    10634.153    7765.9299    -1064.248    988.73787   -378.03422   -3319.7025 
 6444000    233.80875   -4895.6026   -4427.9562   -4895.6026            0     8151.119    18.084968    22.828631    19.175803    7916.8273    10342.228    6327.4175    7783.7119    626.86145   -613.33551   -625.30024   -3486.8378 
 6445000     235.6454    -4898.399   -4427.0791    -4898.399            0    7166.5284     17.87779    22.794871     19.45261    7927.3648    7280.5672      7139.08    7079.9379   -1225.8715   -1257.6237    -1651.254   -3598.5389 
 6446000    228.49513   -4887.6861   -4430.6677   -4887.6861            0    8756.3661    17.997128     22.71042    19.263026    7873.2286    9547.8413    8172.5695    8548.6874    1980.6138    -295.4046    1301.2602   -3425.2358 
 6447000     229.4455   -4885.1675   -4426.2481   -4885.1675            0    7620.0982    18.061732    22.983646    19.167369    7956.8432    7744.0819    6587.1974    8529.0152    391.93732    380.46227    934.33848   -3541.9937 
 6448000    231.14956   -4888.7537    -4426.426   -4888.7537            0    7643.7087    17.931356    22.903161    19.268899    7913.4425    6834.0523    7298.2352    8798.8386    1115.6983   -75.956037    1734.3209   -3544.2699 
 6449000    237.02696   -4887.1187   -4413.0355   -4887.1187            0    7245.4636    17.964865    22.787548    19.389011    7937.3808    6988.7903    7377.4403    7370.1602   -13.736338    353.24779    380.46239   -3574.3111 
 6450000     232.0012   -4892.6868   -4428.6557   -4892.6868            0    7807.1371    18.126367    22.781001    19.091742    7883.6826    5522.9674    8067.8829    9830.5611     711.9509   -62.899519    552.78166   -3531.0268 
 6451000    228.61124   -4874.6721   -4417.4214   -4874.6721            0    8484.3069    17.874052     22.80451    19.388685    7903.0022    9510.8867    6208.5686    9733.4655   -405.52191    -691.6931    -1125.688   -3439.5441 
 6452000    235.71688    -4891.363   -4419.9001    -4891.363            0    7640.5244    18.062745     22.77778     19.23987     7915.845    6735.6999    8159.0563     8026.817    114.80089   -612.97061   -231.75541   -3537.8437 
 6453000    226.14463   -4914.7678   -4462.4506   -4914.7678            0    7627.5071     18.09758    22.802601     19.25379     7945.498    5462.9094    8792.6082    8627.0037   -619.84217    839.61093   -2459.9568   -3578.5984 
 6454000    230.83729   -4915.2664   -4453.5633   -4915.2664            0    8719.0867    17.901547    22.820757    19.276928    7875.1428    8396.7734    8860.9351    8899.5515    1454.5448    548.08943    1670.7277   -3452.1685 
 6455000    231.77548   -4910.1037   -4446.5241   -4910.1037            0    9367.2612    17.946572    22.907996    19.145188    7870.9698    7728.0923    9664.8624    10708.829    772.32232    3026.3073    946.89385    -3371.256 
 6456000    231.66139   -4905.3257   -4441.9743   -4905.3257            0    9860.1384    17.820073    22.833828     19.31156    7857.8831    11869.659    8786.0341    8924.7217    527.42517   -556.49806   -259.34103   -3312.0107 
 6457000    233.78805   -4890.9853   -4423.3804   -4890.9853            0    8078.6652    17.906871    22.962242    19.244305    7912.9103    8656.4108    7630.0729     7949.512   -208.78165   -500.30539   -128.32186   -3491.0888 
 6458000    245.47279   -4892.0713   -4401.0954   -4892.0713            0    7506.2687    17.862131    23.057691    19.235476    7922.3133    8686.7546    6589.9823    7242.0693     1300.661   -988.11207     1092.919     -3533.83 
 6459000    227.22788   -4877.6097   -4423.1258   -4877.6097            0    7744.7034    17.776775    22.931652    19.356981     7890.889    8606.5513    6803.7631    7823.7958    927.19267   -428.14159   -343.77438   -3531.8613 
 6460000    233.87767   -4883.1929   -4415.4087   -4883.1929            0     7136.004    18.003383    22.986378    19.172637    7934.2618    6294.4222    7497.7453    7615.8446   -286.69277    772.61931    47.517863   -3589.6798 
 6461000    229.05972   -4885.0801   -4426.9324   -4885.0801            0    7539.4223    18.037949    22.905338    19.204469    7934.6206    6439.1416    6766.3169    9412.8085   -1003.9598    997.85273    1642.9327   -3554.4832 
 6462000     228.9752   -4880.3745   -4422.3958   -4880.3745            0    8064.1536    17.911758     22.83384    19.317533    7900.7593    8383.3286     7791.028    8018.1044   -1029.8444    1025.7037    172.09668    -3493.208 
 6463000    234.81164   -4891.3664   -4421.7141   -4891.3664            0    9712.3523    17.915562    22.773454    19.274584    7864.0153    9875.4995     10530.79    8730.7677    225.79695    478.85256   -739.85789   -3307.8181 
 6464000    233.77585   -4888.3173   -4420.7367   -4888.3173            0    10763.624     17.94162    22.548621    19.410372     7852.637    9984.9699    12424.952    9880.9502   -717.30201    705.88643    1287.3091   -3188.0579 
 6465000    221.31653   -4904.2372   -4461.5768   -4904.2372            0    8846.6504    18.059277    22.708916    19.190615     7870.198    7747.2372    8581.5605    10211.153    201.80538   -1098.0706    1104.7376   -3446.1692 
 6466000    236.24356   -4900.7376   -4428.2213   -4900.7376            0    9864.6036    17.840821    22.748626    19.310883    7837.4021    9370.2056    9412.1034    10811.502   -1588.3966   -678.03416    513.10255   -3300.6925 
 6467000    235.22605   -4920.0429   -4449.5618   -4920.0429            0    9722.5735    17.935237    22.687913    19.232533    7825.9693    9754.4885    9574.5121    9838.7198    853.65383   -719.01259   -173.69532   -3339.8882 
 6468000    240.75635   -4887.5134   -4405.9709   -4887.5134            0    8690.7809     18.04271     22.99952    19.049698    7905.1231    7306.8549    8617.3683    10148.119   -17.430956    264.32067    11.833258   -3404.0272 
 6469000    237.94076   -4909.3953   -4433.4843   -4909.3953            0    7655.2537    17.872409    22.961171    19.229028    7891.0442    5908.1142     8470.148     8587.499   -356.91777    399.72832    3.5428766   -3552.4964 
 6470000     234.6171   -4928.1689   -4458.9057   -4928.1689            0    8384.1516    17.878738    22.984449    19.184981    7883.7406    9548.4721    7836.1991    7767.7836    -760.1742    6.0957117   -160.91838   -3494.9272 
 6471000    221.81474   -4877.4306   -4433.7737   -4877.4306            0    8939.2412     17.69957    23.216162    19.188102       7884.7    10034.613    7961.4116    8821.6989    193.97369   -778.30371     891.7479    -3405.848 
 6472000    227.67213   -4916.5037   -4461.1313   -4916.5037            0    7712.8419    17.823787    23.151853     19.13444    7895.8974    9207.7912    5926.8732    8003.8613   -663.31849   -1269.5429   -1241.0859     -3572.97 
 6473000    215.27236   -4894.6523    -4464.081   -4894.6523            0    5932.7104    17.884235    22.998371    19.359629    7962.7754    6181.1212    6797.5644    4819.4455    249.58699   -88.065389    2844.9617   -3775.1218 
 6474000    237.54166   -4901.7242   -4426.6115   -4901.7242            0    7670.9884    17.958137    22.730941    19.372076     7907.785    6577.7164    8811.7618    7623.4869   -66.019601   -43.717267    125.52445     -3541.94 
 6475000    217.45969   -4877.9234   -4442.9771   -4877.9234            0     8652.764    18.127136    22.682439     19.20762    7897.5521    6372.6157    9086.2187    10499.457   -1583.1531   -828.42946    -2875.607   -3446.3717 
 6476000    226.13738    -4879.025   -4426.7223    -4879.025            0    8984.8069    18.064657    22.360586    19.555889    7899.3337    7274.5053    11634.517    8045.3979    2560.4977    230.28729    1234.0856   -3391.6395 
 6477000    239.42086   -4854.0239   -4375.1526   -4854.0239            0    7905.6348    18.001397    22.761526    19.355103    7930.5456    8636.4137    8336.1868    6744.3039   -205.11344   -197.79455   -607.32502   -3460.7957 
 6478000    233.97559   -4870.2759   -4402.2959   -4870.2759            0    8244.3429    18.055122    22.830027    19.192596    7911.1676    8321.1716     8815.042    7596.8152    440.82677   -101.07182    471.62319   -3451.0944 
 6479000    239.58369   -4886.8961   -4407.6991   -4886.8961            0    8602.4514    17.792484    22.936459    19.428855    7928.8492    9748.0937    8297.3501    7761.9104   -681.38891    -725.4006   -1210.9736   -3412.9621 
 6480000    248.96664   -4879.4836   -4381.5196   -4879.4836            0    8516.5164    17.998014    22.921143    19.092859    7876.4739    9330.5135    8254.7124    7964.3234   -1167.5162    267.18171    19.384085   -3403.2249 
 6481000    233.83139   -4859.0608   -4391.3691   -4859.0608            0    9769.5582    17.903353    22.986922    19.062734    7845.1342    8187.8715    9998.7634     11122.04   -93.637503     684.5158    1537.9305   -3273.6023 
 6482000    236.37108   -4889.8257   -4417.0543   -4889.8257            0    8086.4888    17.729386    23.050248    19.286503    7881.7522    11194.007    7481.1212     5584.338   -760.17467   -14.160008    922.52114   -3487.5345 
 6483000     232.3134   -4902.9742   -4438.3188   -4902.9742            0    10724.992    17.937682    22.783664    19.185434    7840.8204    12133.353    10309.585     9732.039    913.97315    109.64752    1076.9272   -3211.9124 
 6484000    245.28634   -4896.8647   -4406.2617   -4896.8647            0    9800.4155    18.052469    22.573464    19.359465    7889.1127     10089.24     9324.768    9987.2383   -1528.8139   -302.05548   -2119.4396   -3278.6786 
 6485000    230.15146   -4918.4017   -4458.0704   -4918.4017            0    8522.1546     18.07264    22.529593    19.364499    7884.6278    9102.5123    9367.0661    7096.8853    511.70302   -141.78177    1074.2798   -3478.1145 
 6486000    241.63903   -4913.3651   -4430.0572   -4913.3651            0    8635.2411    18.006523    22.513249    19.444448    7882.4941    8209.8599    8744.7796    8951.0839   -152.28623    -1535.496    101.67659   -3437.3663 
 6487000    236.69628   -4901.1066   -4427.6848   -4901.1066            0    9778.5197    17.999152    22.495225    19.333581      7828.07    8930.9583    10590.929    9813.6723   -86.701974   -900.98667   -118.39744   -3311.3263 
 6488000    225.84466   -4861.1486   -4409.4314   -4861.1486            0    7755.4182    17.967985    22.690362    19.410719    7913.7519    6821.2885    8505.2463    7939.7199   -735.78021    518.90446   -1290.7942   -3514.3479 
 6489000     224.8424   -4879.1039   -4429.3913   -4879.1039            0    8605.1514    18.067941    22.792968    19.225658    7917.5487     9227.548    7795.7561      8792.15    1627.6714   -912.78443    145.58337   -3435.7603 
 6490000    239.93852   -4892.7486    -4412.842   -4892.7486            0    7927.7007    17.926818    22.759843    19.340261    7891.0499    9099.9614    7390.3889    7292.7518    191.99023   -1685.4182   -1144.2987   -3500.4994 
 6491000    235.78658   -4912.8216   -4441.2193   -4912.8216            0    9036.4556    17.863037     22.89782    19.234707    7867.4684    9611.9284    8237.4514    9259.9871    331.52769    420.13587    553.89908   -3404.3858 
 6492000    227.47682   -4899.1476   -4444.1659   -4899.1476            0    6576.9468    18.004122    22.926448    19.317802    7973.8199    6705.8862    5722.5602    7302.3941    630.46722   -409.50995    -522.4555   -3679.3328 
 6493000    244.98216   -4884.1075   -4394.1129   -4884.1075            0    5250.6943    17.932015    23.089921    19.270808    7979.0556    5127.4411    5862.3522    4762.2894    930.45543   -343.40071    972.06093   -3783.1089 
 6494000    230.14305    -4868.772   -4408.4575    -4868.772            0    8612.4768    17.967328     23.05134     19.04067     7886.093    10724.289    6800.4005    8312.7406   -129.59277   -192.76792    1129.5152   -3417.9315 
 6495000    236.52346   -4866.5372   -4393.4611   -4866.5372            0     8797.204    17.873905    22.932439    19.281598    7903.3776    8735.8449    8060.1309    9595.6363   -52.606268    209.77914   -726.72214    -3379.472 
 6496000    231.67793    -4892.587   -4429.2025    -4892.587            0    7921.1314    18.099075    22.613645    19.380003     7931.965    7040.2341     8163.679     8559.481   -1211.8752   -651.71495   -1166.9859   -3512.8894 
 6497000    235.76399   -4897.4134   -4425.8563   -4897.4134            0    7441.6466    18.077889    22.659751    19.318738    7913.7369    8462.7899    7433.8139    6428.3362     1262.276   -805.06599    448.91346   -3566.9881 
 6498000    251.77635   -4908.0616   -4404.4778   -4908.0616            0    7632.2385    18.077157    22.499818    19.487937    7926.3826    6974.2723    9713.9532    6208.4899    430.20956    587.16032   -80.520254    -3522.205 
 6499000    238.39567   -4902.1201   -4425.2993   -4902.1201            0     10562.32    17.909162    22.568718     19.30683    7803.5667    10125.796    10924.635     10636.53    489.45008   -296.43176    309.80294   -3223.2331 
 6500000    239.25168   -4878.8946   -4400.3617   -4878.8946            0    7931.7052    18.074009    22.786641     19.20887    7911.0957    6315.3365     8313.671     9166.108    1007.3748   -30.139003    2095.4473   -3485.2395 
Loop time of 483.74 on 64 procs for 250000 steps with 1008 atoms

Performance: 89.304 ns/day, 0.269 hours/ns, 516.807 timesteps/s
194.7% CPU use with 32 MPI tasks x 2 OpenMP threads

MPI task timing breakdown:
Section |  min time  |  avg time  |  max time  |%varavg| %total
---------------------------------------------------------------
Pair    | 36.672     | 40.378     | 43.243     |  21.9 |  8.35
Bond    | 0.91051    | 1.0364     | 1.2451     |   7.8 |  0.21
Kspace  | 237.01     | 243.73     | 252.62     |  24.6 | 50.38
Neigh   | 3.259      | 3.5269     | 3.9771     |  11.2 |  0.73
Comm    | 75.916     | 83.338     | 87.82      |  34.6 | 17.23
Output  | 0.59452    | 0.59486    | 0.59657    |   0.0 |  0.12
Modify  | 93.024     | 95.03      | 96.487     |   7.1 | 19.64
Other   |            | 16.1       |            |       |  3.33

Nlocal:        31.5000 ave          35 max          27 min
Histogram: 1 2 3 5 0 4 6 3 7 1
Nghost:        2895.59 ave        2928 max        2860 min
Histogram: 2 1 4 1 5 6 4 7 0 2
Neighs:        10568.0 ave       11771 max        9013 min
Histogram: 1 2 3 3 3 5 4 3 7 1

Total # of neighbors = 338176
Ave neighs/atom = 335.49206
Ave special neighs/atom = 2.0000000
Neighbor list builds = 7394
Dangerous builds = 0

unfix		3
unfix		2
unfix		1

write_data	data.final.${pid}
write_data	data.final.1
System init for write_data ...
PPPM initialization ...
  extracting TIP4P info from pair style
  using 12-bit tables for long-range coulomb (../kspace.cpp:340)
  G vector (1/distance) = 0.37943383
  grid = 24 27 32
  stencil order = 5
  estimated absolute RMS force accuracy = 0.0024299008
  estimated relative force accuracy = 7.3175742e-06
  using double precision FFTW3
  3d grid and FFT values/proc = 5355 672
Last active /omp style is kspace_style pppm/tip4p/omp
WARNING: Not all mixed pair coeffs generated from mixing. Use write_data with 'pair ij' option to store all pair coeffs. (../write_data.cpp:312)

write_restart   restart.lmp.${pid}
write_restart   restart.lmp.1
System init for write_restart ...
PPPM initialization ...
  extracting TIP4P info from pair style
  using 12-bit tables for long-range coulomb (../kspace.cpp:340)
  G vector (1/distance) = 0.37943383
  grid = 24 27 32
  stencil order = 5
  estimated absolute RMS force accuracy = 0.0024299008
  estimated relative force accuracy = 7.3175742e-06
  using double precision FFTW3
  3d grid and FFT values/proc = 5355 672
Last active /omp style is kspace_style pppm/tip4p/omp
Total wall time: 0:08:03
