LAMMPS (30 Jul 2021)
Processor partition = 0
  using 2 OpenMP thread(s) per MPI task
using multi-threaded neighbor list subroutines
variable        pid world 0 1
variable        phase world IceII IceIh

shell cd ${phase}
shell cd IceII
include Restart.lmp
echo both
log log.lammps
#include		in.partitions
include		in.temp
variable        temperature equal 182.60
variable	tempDamp equal 100.0
include		in.pressure
variable        pressure equal 2085.2
variable        pressureDamp equal 1000.0 # This is 1 ps
include		in.seed
variable        seed equal 745823

units		real
atom_style	full
box tilt large
read_restart	restart.lmp.${pid}
read_restart	restart.lmp.0
Reading restart file ...
  restart file = 30 Jul 2021, LAMMPS = 30 Jul 2021
  restoring atom style full from restart
  triclinic box = (-10.754130 -9.1986496 -0.0088738076) to (12.734130 12.188648 21.868873) with tilt (-9.2265252 1.8895934 2.8307360)
  4 by 2 by 4 MPI processor grid
  restoring pair style lj/cut/tip4p/long/omp from restart
  restoring bond style harmonic/omp from restart
  restoring angle style harmonic/omp from restart
  1296 atoms
  864 bonds
  432 angles
Finding 1-2 1-3 1-4 neighbors ...
  special bond factors lj:    0        0        0       
  special bond factors coul:  0        0        0       
     2 = max # of 1-2 neighbors
     1 = max # of 1-3 neighbors
     1 = max # of 1-4 neighbors
     2 = max # of special neighbors
  special bonds CPU = 0.008 seconds
  read_restart CPU = 0.014 seconds
include 	in.setup
variable	out_freq equal 1000
variable	out_freq2 equal 10000
variable	out_freq3 equal 1000

timestep	2.0

neigh_modify    delay 7 every 1

include		in.tip4p
# This is TIP4P/Ice

# create groups ###
group ox type 2
432 atoms in group ox
group hy type 1
864 atoms in group hy

# set charges - beside manually ###
set group ox charge -1.1794
Setting atom values ...
  432 settings made for charge
set group hy charge 0.5897
Setting atom values ...
  864 settings made for charge

# ### TIP3P Potential Parameters ###
pair_style lj/cut/tip4p/long/omp 2 1 1 1 0.1577 8.5
pair_coeff 1 1*2 0.000 0.000
pair_coeff 2 2 0.21084 3.1668
bond_style  harmonic
bond_coeff  1 450 0.9572
angle_style harmonic
angle_coeff 1 55 104.52
kspace_style pppm/tip4p/omp 1.0e-5
pair_modify tail yes

thermo          ${out_freq}
thermo          1000
thermo_style    custom step temp pe etotal epair emol press lx ly lz vol pxx pyy pzz pxy pxz pyz enthalpy

restart 	${out_freq3} restart.lmp.${pid} restart2.lmp.${pid}
restart 	1000 restart.lmp.${pid} restart2.lmp.${pid}
restart 	1000 restart.lmp.0 restart2.lmp.${pid}
restart 	1000 restart.lmp.0 restart2.lmp.0


include         in.dump
dump            myDump all atom ${out_freq2} dump.water.${pid}
dump            myDump all atom 10000 dump.water.${pid}
dump            myDump all atom 10000 dump.water.0
dump            myDump2 all dcd ${out_freq2} dump.dcd
dump            myDump2 all dcd 10000 dump.dcd
dump_modify     myDump append yes
dump_modify     myDump2 append yes


variable natoms 	equal  "count(all)"                        # NUMBER ATOMS
variable H      	equal  "enthalpy/v_natoms"                 # ENTHALPY-per-atom
variable Vol      	equal  "vol/v_natoms"                 # volume-per-atom
fix AVG all 		ave/time ${out_freq} 1 ${out_freq} v_Vol v_H file vol_enthalpy.dat
fix AVG all 		ave/time 1000 1 ${out_freq} v_Vol v_H file vol_enthalpy.dat
fix AVG all 		ave/time 1000 1 1000 v_Vol v_H file vol_enthalpy.dat


timer           timeout 10:00:00 every 1000
New timer settings: style=normal  mode=nosync  timeout=10:00:00

fix 		1 all shake 1e-6 200 0 b 1 a 1
Finding SHAKE clusters ...
       0 = # of size 2 clusters
       0 = # of size 3 clusters
       0 = # of size 4 clusters
     432 = # of frozen angles
  find clusters CPU = 0.000 seconds
fix             2 all nph tri ${pressure} ${pressure} ${pressureDamp}
fix             2 all nph tri 2085.2 ${pressure} ${pressureDamp}
fix             2 all nph tri 2085.2 2085.2 ${pressureDamp}
fix             2 all nph tri 2085.2 2085.2 1000
fix             3 all temp/csvr ${temperature} ${temperature} ${tempDamp} ${seed}
fix             3 all temp/csvr 182.6 ${temperature} ${tempDamp} ${seed}
fix             3 all temp/csvr 182.6 182.6 ${tempDamp} ${seed}
fix             3 all temp/csvr 182.6 182.6 100 ${seed}
fix             3 all temp/csvr 182.6 182.6 100 745823


run             250000
PPPM initialization ...
  extracting TIP4P info from pair style
  using 12-bit tables for long-range coulomb (../kspace.cpp:340)
  G vector (1/distance) = 0.367133
  grid = 30 40 32
  stencil order = 5
  estimated absolute RMS force accuracy = 0.0045368587
  estimated relative force accuracy = 1.3662615e-05
  using double precision FFTW3
  3d grid and FFT values/proc = 7888 1280
Last active /omp style is kspace_style pppm/tip4p/omp
Neighbor list info ...
  update every 1 steps, delay 7 steps, check yes
  max neighbors/atom: 2000, page size: 100000
  master list distance cutoff = 10.8154
  ghost atom cutoff = 10.8154
  binsize = 5.4077, bins = 7 5 5
  1 neighbor lists, perpetual/occasional/extra = 1 0 0
  (1) pair lj/cut/tip4p/long/omp, perpetual
      attributes: half, newton on, omp
      pair build: half/bin/newton/tri/omp
      stencil: half/bin/3d/tri
      bin: standard
Setting up Verlet run ...
  Unit style    : real
  Current step  : 11500000
  Time step     : 2
  Walltime left : 9:59:59.92
Per MPI rank memory allocation (min/avg/max) = 10.65 | 10.66 | 10.67 Mbytes
Step Temp PotEng TotEng E_pair E_mol Press Lx Ly Lz Volume Pxx Pyy Pzz Pxy Pxz Pyz Enthalpy 
11500000    187.26609   -6487.4178   -6005.6872   -6487.4178            0    2133.1729    23.488261    21.387297    21.877747    10990.295    1955.9001    3390.9241    1052.6944   -293.47741   -115.97353   -818.93132   -5663.7776 
11501000    181.16811   -6514.1782   -6048.1342   -6514.1782            0     2123.924    23.306214    21.507304    21.796391    10925.524    2713.8767    1319.0029    2338.8923   -1079.9226    844.82635   -479.28557   -5709.7134 
11502000    185.51848   -6523.6015   -6046.3665   -6523.6015            0     2363.837    23.199486    21.688382    21.694782    10915.932    3277.5905    1681.7731    2132.1474   -11.054267   -282.01218   -517.72374   -5670.0491 
11503000    182.49548    -6522.324   -6052.8655    -6522.324            0    1771.4281    23.593139    21.370094    21.748166    10965.156    696.65389    1632.9044     2984.726    289.49858   -326.21756    914.68552   -5769.5866 
11504000    180.58333   -6540.7809   -6076.2413   -6540.7809            0    2422.3809     23.52307    21.339113    21.741483    10913.386    2451.8658    3027.9761     1787.301    -917.9055   -1172.7096   -332.50307   -5690.6939 
11505000    183.56699    -6525.217   -6053.0021    -6525.217            0      1434.38     23.27878    21.638507    21.805581    10983.865    2470.9261   -149.73255    1981.9466    351.62077   -309.66352   -121.76197   -5823.2311 
11506000    179.76686   -6498.2788   -6035.8395   -6498.2788            0    2702.6819    23.305361    21.630607    21.715851    10947.158    2024.5172    2998.5143    3085.0141    69.698491    612.59779   -405.49414   -5604.3481 
11507000    182.42758   -6527.4339     -6058.15   -6527.4339            0    1789.0148    23.545704    21.319169    21.789674    10937.868     1402.335    1837.2386    2127.4708   -437.17889    242.48989    519.90663   -5772.7707 
11508000    181.49652   -6512.0378   -6045.1491   -6512.0378            0    1993.9804    23.424283    21.488829    21.807451    10977.007     2026.803    827.06623    3128.0719     64.84981    60.282176    734.62995    -5725.936 
11509000    186.42609   -6495.6941   -6016.1244   -6495.6941            0     3331.481    23.123497    21.688326     21.74818    10906.929    4823.5903    2599.2937     2571.559   -598.60351    171.86084   -768.12293   -5486.1978 
11510000    182.35752   -6512.0032   -6042.8996   -6512.0032            0    1600.2878    23.421622    21.503977    21.812023      10985.8    863.71539    1877.4417    2059.7064   -744.60809    777.71721    748.91808   -5786.5068 
11511000    180.59677   -6518.1703   -6053.5961   -6518.1703            0    2301.4431    23.443145     21.33252    21.858468     10931.45    2773.5959    3143.9936    986.73988    727.29936    576.43373   -900.79587   -5686.6909 
11512000    184.37379   -6492.0977   -6017.8074   -6492.0977            0    1627.2406    23.289528    21.648783    21.779357    10980.932    1690.2176    1895.6139    1295.8901     85.32412    744.50089    679.35799    -5757.212 
11513000    180.62196   -6492.6402   -6028.0012   -6492.6402            0    1766.8901    23.284342    21.706439    21.719945    10977.698     2406.834    238.38745    2655.4487    364.75129   -1.5540616     408.3177   -5745.1249 
11514000    176.04017   -6523.6342   -6070.7815   -6523.6342            0    2070.7443    23.481249    21.337869     21.84408    10944.754    1048.2983    2605.8958    2558.0387    174.89843    805.51201    647.91699   -5740.2535 
11515000    193.40944   -6547.4406   -6049.9066   -6547.4406            0    1826.9101    23.377412    21.447471    21.845032    10952.801    841.89809     2748.525    1890.3074    757.14353   -191.70495   -470.26783   -5758.0844 
11516000    178.61222   -6512.6329   -6053.1638   -6512.6329            0    1951.8942    23.099466    21.679451    21.817591    10925.895    2285.3358    1244.5197    2325.8272   -264.63623   -116.81858    758.15892   -5742.1432 
11517000    189.51927   -6536.0407    -6048.514   -6536.0407            0    2091.7402    23.390096     21.42468     21.78628    10917.657    1407.5089    2189.4564    2678.2553    71.941589    841.04375   -839.09708   -5715.4612 
11518000    175.93533   -6526.5661   -6073.9832   -6526.5661            0    1970.9801    23.456714    21.495414    21.699191    10940.987    1247.9285    2257.6696    2407.3422   -303.44041     194.6494    146.37045   -5759.4875 
11519000    178.02038   -6513.1393   -6055.1927   -6513.1393            0    1765.5068    23.260592     21.63306     21.74713    10943.108    1589.7519    802.27795    2904.4905   -1154.0479    204.80841    1200.8539   -5773.4284 
11520000    182.51358   -6530.4435   -6060.9384   -6530.4435            0    1929.3963    23.416296    21.517651    21.768217    10968.214    1374.2639    1873.8561    2540.0688    204.05356   -196.50516   -480.07129   -5752.3119 
11521000    178.83878   -6533.5567   -6073.5049   -6533.5567            0    2033.2754    23.506015    21.386899    21.740775    10929.539    853.03994    3026.1426    2220.6438   -381.34743    803.22512   -361.41457   -5749.4086 
11522000    180.06652     -6503.01   -6039.7999     -6503.01            0    2513.8981    23.357771    21.614056    21.634197    10922.158    2453.8634    1922.3225    3165.5083   -638.14374    364.93779    902.65735   -5639.3649 
11523000    188.62849   -6548.1293    -6062.894   -6548.1293            0    2957.9915    23.286209    21.577148     21.66998    10888.081    2780.9989    2709.7744    3383.2013   -259.69835    740.16889   -761.72029   -5593.1901 
11524000    193.42686   -6494.6481   -5997.0693   -6494.6481            0    2430.8772    23.455627    21.425531    21.819485    10965.366     1716.661    2579.4274    2996.5433    256.63218    525.13712    1403.1405   -5608.3268 
11525000    189.94162   -6507.4852    -6018.872   -6507.4852            0    3422.5164    23.495467    21.446124    21.636941    10902.567    2751.2744     3840.019    3676.2557    513.71464   -1153.4576    159.55871   -5474.6824 
11526000    184.06049   -6497.7928   -6024.3085   -6497.7928            0     2754.617    23.226748    21.607018    21.803862    10942.503    3559.5777    2189.4731    2514.8001    1688.4358   -431.22857    647.63279   -5584.7124 
11527000    188.68182   -6522.7936   -6037.4211   -6522.7936            0    2025.1788    23.270939    21.566172    21.823288    10952.346    2681.6292    1804.2678    1589.6394    208.85721   -951.74588    581.31385   -5713.9418 
11528000    179.34423   -6533.1311    -6071.779   -6533.1311            0    995.40393    23.568199    21.308193    21.914028    11005.132    675.87777    1544.5147    765.81934     50.75631    723.93671    216.58133   -5912.0181 
11529000     184.7851   -6539.8065   -6064.4581   -6539.8065            0    2351.0909    23.331444    21.462102    21.776275    10904.292    2745.6962    2387.3911    1920.1854     1325.696   -703.16702    708.03695    -5690.569 
11530000    192.34373   -6514.1233   -6019.3307   -6514.1233            0     1947.597     23.33545    21.584658    21.725637    10942.937    2373.3038    1460.2604     2009.227    130.48704   -487.89829   -603.43442   -5708.5108 
11531000    181.79626   -6493.5848    -6025.925   -6493.5848            0    2631.2735    23.427614    21.421855    21.760393    10920.735     2182.164    2746.0613    2965.5951   -157.39372    305.60547    1316.0474   -5606.8481 
11532000    190.12587   -6527.7104   -6038.6232   -6527.7104            0     1657.552    23.511027    21.530161    21.635622     10951.87    1015.2035    1682.5681    2274.8844   -1696.7114    468.98506   -960.87001    -5773.876 
11533000    181.96853   -6518.9226   -6050.8197   -6518.9226            0     1294.709    23.402118    21.560538    21.719875    10959.029    809.50341     1343.602    1731.0217    636.76697    320.04327     193.4968   -5843.8912 
11534000    180.57124     -6525.65   -6061.1415     -6525.65            0      2327.69     23.45511    21.467544    21.653648    10903.123    2378.1294    1411.7062    3193.2343   -528.53246    487.96465    1370.3457   -5691.0135 
11535000    179.61059   -6529.9013    -6067.864   -6529.9013            0    1342.2376    23.666016    21.506315    21.542018    10964.215   -554.89832    1058.0162    3523.5949     527.7015    79.859195    722.67493   -5853.2377 
11536000    181.99048   -6532.1384    -6063.979   -6532.1384            0     2392.685    23.419715    21.527857     21.62784    10904.244    1938.4346    1534.4483    3705.1722    172.50146   -356.58008    1371.2413    -5683.477 
11537000    184.58251   -6523.1063   -6048.2791   -6523.1063            0     1786.508    23.388581    21.606182    21.649133    10940.128    1438.6165    1441.4648    2479.4428   -406.90961   -339.88011    289.64528   -5763.2408 
11538000      184.236   -6524.6585   -6050.7226   -6524.6585            0    1842.7795    23.450634    21.432157    21.743908    10928.438    852.66833    2649.5683     2026.102    315.70044   -259.98557    158.70411   -5757.0203 
11539000    180.44333   -6512.7944   -6048.6149   -6512.7944            0    948.01972     23.47579    21.513555    21.776367    10998.104    705.66024    1467.7396    670.65935    76.557252    426.98772    176.66332   -5896.5563 
11540000    177.09559    -6519.274   -6063.7064    -6519.274            0    3288.3168    23.205817    21.576338    21.760183    10895.248    4877.3789    2048.7353    2938.8363    188.34708   -479.91071    435.04939   -5541.2059 
11541000    180.79958   -6528.8067   -6063.7108   -6528.8067            0    1517.9123    23.423596    21.488714    21.750689    10948.056    948.18637     2344.143    1261.4076    184.01607    636.59063    347.46659   -5821.3516 
11542000    177.42196    -6509.304   -6052.8968    -6509.304            0    2623.9376     23.53687    21.373915    21.733898    10933.782    2418.5137    3454.9022     1998.397   -63.020664   -568.21683    -769.5149   -5634.4889 
11543000    183.80671   -6514.1753   -6041.3437   -6514.1753            0    1722.9275    23.251237     21.62934    21.803206    10965.027    1171.5676    1648.0082    2349.2068    -56.75463     849.7374    1053.0492   -5765.8241 
11544000    186.77724   -6527.0436   -6046.5705   -6527.0436            0    2999.2236    23.191586    21.548708     21.80234    10895.692    3887.4112     1519.534    3590.7255   -62.488701    155.36826    1593.5997   -5569.9864 
11545000    177.54529   -6558.3541   -6101.6297   -6558.3541            0    2082.2136    23.425502    21.366965    21.851417    10937.331    3358.6419    2377.0889    510.90997   -1296.8754   -585.76403   -589.47501   -5769.4963 
11546000    181.35011   -6507.8553   -6041.3432   -6507.8553            0    2970.9983     23.37141    21.323562    21.896601    10912.428    3477.9705    3217.0134     2218.011    22.537343    290.64642   -210.38985   -5568.5191 
11547000    180.36487   -6533.2646   -6069.2869   -6533.2646            0     1927.386    23.163909    21.699192    21.787917    10951.438     3159.446    1497.1559    1125.5561   -1466.4789    2.5971559    -608.3638   -5761.4535 
11548000    179.29749   -6495.9946   -6034.7628   -6495.9946            0    1501.8509    23.413496    21.399296    21.953662    10999.495    702.95402    3042.1057    760.49306    680.56942    184.74607    464.65471   -5793.8413 
11549000    185.10706   -6510.5033   -6034.3267   -6510.5033            0    2304.0132    23.479804    21.342424    21.820395    10934.548    1211.3579    3371.6797    2329.0021    756.09348    -251.4521    286.57196   -5666.9076 
11550000    183.02709   -6519.1717   -6048.3457   -6519.1717            0    2600.5183     23.27629    21.595774     21.70665    10911.271    3208.3455    1848.3996    2744.8097    265.30766   -113.87672   -929.78355    -5634.526 
11551000    183.16578   -6500.2741   -6029.0913   -6500.2741            0    1401.7873    23.292252    21.611359    21.786391    10966.773    1928.5719    1320.7393    956.05059     648.3601    770.43549    9.9972605   -5804.8906 
11552000    184.12192   -6541.5094    -6067.867   -6541.5094            0    3387.8379    23.471846     21.31272    21.701246    10856.024    2925.8551    2686.7283    4550.9303    139.34577    414.07457    -569.0429    -5531.491 
11553000    185.41032   -6547.9935   -6071.0368   -6547.9935            0    1754.9326    23.432265    21.505996    21.741881    10956.477    1232.9055    1428.5684    2603.3238   -269.15504      -70.947    487.48032   -5790.6179 
11554000    188.62916   -6511.9039   -6026.6668   -6511.9039            0    2001.2228     23.49797     21.70821    21.460163    10946.805    1340.1185    750.72423    3912.8257    708.37901    135.82277    272.08699   -5707.1758 
11555000    188.33351   -6525.1946   -6040.7182   -6525.1946            0    2273.2548    23.515101    21.483378    21.602445    10913.205    897.32155    2121.8395    3800.6035    159.28115    630.78197    631.96947   -5678.9117 
11556000     185.4804   -6501.2801   -6024.1431   -6501.2801            0    1910.7754    23.540702    21.446373    21.707891    10959.504    406.80122    3054.3852    2271.1398    838.94504    805.27063   -418.62698   -5718.7379 
11557000    182.27319   -6513.7837    -6044.897   -6513.7837            0    2531.4747    23.362796    21.681955    21.587582    10935.213    2034.4582    2213.6825    3346.2833    532.33484    637.21906    250.79234   -5641.1803 
11558000    186.64842   -6535.1548   -6055.0131   -6535.1548            0    2209.1884    23.332966    21.541465     21.77561    10944.994    2497.7998    377.48952     3752.276    749.20138   -102.22008    1397.1282   -5702.3791 
11559000    186.23897   -6525.4686   -6046.3802   -6525.4686            0      3153.12    23.449928    21.414441    21.701253    10897.655    1657.2757    3656.4322    4145.6522    1315.3874    -661.1211   -429.20147   -5545.2512 
11560000    178.98806   -6542.4404   -6082.0045   -6542.4404            0    2004.1356    23.369514    21.435192    21.813434    10927.004    1329.1269    1777.0143    2906.2656    1214.2568     852.3935    932.49103   -5762.6272 
11561000    181.59067   -6516.1664   -6049.0355   -6516.1664            0    1840.4351    23.133019    21.638145    21.854556    10939.421     2166.377    2325.1134    1029.8148    603.38105    832.54796   -827.92544    -5755.412 
11562000    186.15927   -6519.3539   -6040.4705   -6519.3539            0    2382.7048    23.353984    21.396586    21.866625    10926.655    1898.0981    3665.3579    1584.6585    1147.0099   -449.17736   -174.94551   -5660.7769 
11563000    196.23095    -6521.497   -6016.7049    -6521.497            0    1983.9774    23.502865    21.311469    21.893959    10966.259    1366.6218    2751.6556    1833.6547     960.7183   -216.59654   -957.05719   -5699.4041 
11564000    184.06957   -6531.1188    -6057.611   -6531.1188            0    2144.3435    23.233131    21.554181    21.856215    10944.961    2561.9482     2753.597    1117.4852   -167.08556    353.88565   -5.5683614   -5715.3287 
11565000    176.96825   -6541.7208   -6086.4807   -6541.7208            0    1140.6003    23.271562    21.501005    21.943156    10979.521    1823.2596    1067.8845    530.65662   -875.17237   -514.23061    253.64003    -5903.842 
11566000     188.6353   -6510.2715   -6025.0187   -6510.2715            0    2494.1865    23.514245    21.385154    21.803927     10964.23    1487.7141    2658.0228    3336.8225   -1436.0332    1036.2693   -408.49951   -5626.1932 
11567000    176.03682   -6535.8711   -6083.0271   -6535.8711            0    2146.3895    23.332592    21.516208    21.741018     10914.62     1680.532    2621.5381    2137.0986   -111.67882   -684.32004   -2.0998439   -5741.3679 
11568000    179.74648    -6528.145   -6065.7582    -6528.145            0    1666.2508    23.311226    21.586366    21.772982    10956.266    848.13328     1759.363    2391.2563   -901.54184    338.08247   -20.820817   -5799.5148 
11569000    169.30005   -6525.9991   -6090.4851   -6525.9991            0     3546.047    23.430276    21.337745    21.710431    10854.114    2784.5779    4273.1518    3580.4114   -1166.4666     220.0889    173.64797   -5529.1596 
11570000    184.61325   -6534.5037   -6059.5974   -6534.5037            0    310.86286    23.498415     21.48382    21.807717    11009.314    -133.5309    568.63461    497.48488   -446.93718     225.7703    565.02108   -6009.6854 
11571000    181.24488    -6510.792   -6044.5506    -6510.792            0    1342.3597    23.328564     21.64642    21.700873    10958.505    1307.0021    1015.4681     1704.609   -1278.3905    188.20391    317.88541   -5830.0166 
11572000    191.47827   -6499.9775   -6007.4114   -6499.9775            0    2788.9704    23.447919    21.435674    21.686212    10899.966    2079.6116    2650.7478    3636.5518    629.11198     -333.114    503.53943   -5564.0632 
11573000    179.35969   -6534.9847   -6073.5928   -6534.9847            0    2066.9471    23.467126    21.285135    21.885115    10931.636    1808.0034    1963.0826    2429.7553   -176.97209    -157.6296     594.7652   -5744.0662 
11574000    184.08942   -6527.9991   -6054.4403   -6527.9991            0    1691.9412    23.315927    21.607602    21.767385    10966.436    782.95002    2256.9451    2035.9284   -280.73038   -331.49924   -394.35124    -5783.841 
11575000    183.42727   -6520.8931   -6049.0376   -6520.8931            0    3023.9679    23.209108    21.494835    21.834861    10892.887     2842.511    2607.5642    3621.8284    278.23538   -545.19533    461.76193   -5568.6453 
11576000    176.92989   -6512.8876   -6057.7462   -6512.8876            0    1234.2227    23.481448    21.358306    21.928608    10997.722    801.89485    2714.8282    185.94508   -214.43441   -226.12189   -396.43695   -5859.7886 
11577000    181.54199   -6529.4183   -6062.4126   -6529.4183            0    2130.3312    23.288113    21.519584    21.807798    10928.989    2577.0319    2021.7054    1792.2562    496.23181   -423.07201   -496.11289   -5722.8632 
11578000    187.36988   -6508.0878   -6026.0902   -6508.0878            0    2904.8661    23.302487    21.484993    21.776897    10902.686    3985.2557    1633.1957    3096.1468    283.02174   -809.47952   -254.63016   -5564.2035 
11579000    173.72212   -6520.4982   -6073.6086   -6520.4982            0    1102.8318    23.565359    21.398265    21.801442    10993.547    182.98242    784.19723    2341.3158   -185.32585    72.383435    1007.0427    -5896.792 
11580000    183.94965   -6497.5404   -6024.3411   -6497.5404            0    2831.4589    23.362698    21.498645     21.75193    10925.262    2814.1556    3011.5367    2668.6844    95.682037   -26.192493   -90.008235   -5573.1941 
11581000    178.03594   -6525.5255   -6067.5389   -6525.5255            0    2957.6424    23.352105    21.560785     21.64657    10898.826     2518.242    2069.3789    4285.3062    129.22307    273.64136   -112.85103    -5597.427 
11582000    177.98311   -6517.2551   -6059.4044   -6517.2551            0    1831.5087      23.4234    21.520648    21.794917    10986.529    1168.1167    2405.2295      1921.18   -1092.4073    1595.9869   -24.022423   -5765.9468 
11583000    185.23496   -6531.4114   -6054.9057   -6531.4114            0    3029.8685    23.409837    21.474823    21.670153    10894.065    890.84884    4260.1244    3938.6323    728.50821     1458.398   -582.56197    -5573.524 
11584000     185.2766   -6487.2251   -6010.6124   -6487.2251            0    2211.1277    23.525248    21.529899    21.653109    10967.218      1870.68    1212.4008    3550.3023   -156.38164     156.3446    360.34576   -5656.9522 
11585000    176.48116   -6512.6786   -6058.6915   -6512.6786            0    2905.0257    23.373331    21.568137    21.605425     10891.71    2965.9438      2207.28    3541.8533   -572.82899    591.68049    959.11927   -5597.2444 
11586000    180.13172   -6528.2835   -6064.9056   -6528.2835            0    1907.8445    23.501624    21.499618    21.672761    10950.724     986.9474    2132.3363    2604.2498    347.50604   -355.74418   -43.715107   -5760.2131 
11587000    182.45903   -6551.6908   -6082.3261   -6551.6908            0    2016.5253    23.468771    21.436553    21.669548    10901.723    1695.2086    2244.2901    2110.0772   -350.15638    708.53048   -131.33272   -5761.7178 
11588000    183.09671   -6512.8981    -6041.893   -6512.8981            0    1967.4274    23.347788    21.621473     21.70126    10955.091    1029.4675    1992.5165    2880.2981    1834.5421   -750.21488    667.75817   -5727.5595 
11589000    181.40609   -6558.1359   -6091.4798   -6558.1359            0     2583.887    23.269287    21.571826    21.713094    10899.126    3083.4898    1674.1475    2994.0238   -745.84609     363.2238   -14.397126   -5680.7643 
11590000    190.29996   -6552.2579   -6062.7229   -6552.2579            0    265.36313    23.554412    21.290536    21.972018     11018.66   -117.50011    1340.0632   -426.47367   -441.00974    522.96242    914.05282   -6020.0801 
11591000     185.7305   -6551.7704     -6073.99   -6551.7704            0    3729.1234    23.192485    21.420649    21.848724    10854.404    3807.6586    4708.2991    2671.4126    393.38456    309.45149   -512.70592   -5483.6684 
11592000     184.6719   -6526.4715   -6051.4142   -6526.4715            0    1283.0318    23.298294    21.564401    21.818935    10962.133    1759.6028    360.16308    1729.3297    118.74005   -554.72326    -290.9934   -5846.2941 
11593000    185.38339   -6528.8356   -6051.9481   -6528.8356            0    1855.6802    23.383093    21.324111    21.930932    10935.281    1808.6931    2851.1702    907.17741   -557.71674    1599.8963   -270.01898   -5756.0045 
11594000      186.288   -6522.9344   -6043.7199   -6522.9344            0     884.7146    23.480386    21.565845    21.732429    11004.745    555.86436   -30.328699    2128.6081    988.01257   -12.073963   -345.33678   -5901.7295 
11595000    174.63167   -6532.6955   -6083.4662   -6532.6955            0    3120.2265    23.295276    21.525675    21.651703    10857.172    3812.3403    1804.4803    3743.8589    -406.4204   -353.13452    1876.1131   -5589.4073 
11596000     190.9887   -6526.6044   -6035.2976   -6526.6044            0    344.48231    23.488069     21.51862     21.79268    11014.692    608.34794   -234.98142    660.08042    -335.0323   -152.49363   -505.04793   -5979.9607 
11597000    180.42405   -6518.9235   -6054.7936   -6518.9235            0    3514.5668    23.348074    21.449214    21.716231    10875.441    3096.5454    3140.6149    4306.5403    412.28832    475.74875    706.37186   -5497.3581 
11598000     177.5084   -6543.0714   -6086.4418   -6543.0714            0    1450.7493     23.29798    21.561185    21.837689    10969.772    1908.7779    1293.0093    1150.4607   -45.239799   -96.276894    716.84243   -5854.3468 
11599000    179.74984   -6514.6011   -6052.2056   -6514.6011            0     1985.449     23.40749    21.484474    21.790143    10958.211    2039.5186     1936.887    1979.9413   -383.17494   -156.23544   -784.99165   -5734.9025 
11600000    174.17682   -6516.6517   -6068.5925   -6516.6517            0    1860.9635    23.384195    21.446487    21.872556     10969.28    2659.7831    1364.7453    1558.3621    393.91539    208.34484    723.95391   -5770.8835 
11601000    181.79743   -6543.9292   -6076.2663   -6543.9292            0    2174.4639    23.180738    21.622539    21.740128    10896.727    2593.7667     2126.583    1803.0419   -1400.5241    712.78027   -262.42928   -5730.7058 
11602000    184.34622   -6530.0518   -6055.8323   -6530.0518            0    1833.3648    23.357341    21.480072    21.815462    10945.196    1781.7982     2368.632    1349.6642    75.905078    89.324489    250.04753   -5763.1825 
11603000    188.13747   -6515.1736   -6031.2014   -6515.1736            0    2525.3576    23.495371    21.251922    21.820681    10895.542    2226.5316    3434.1608    1915.3804   -261.61729   -31.465019    196.07638   -5629.9213 
11604000    175.26933   -6496.9124   -6046.0427   -6496.9124            0    1097.1739     23.29589    21.632501    21.826764    10999.562    910.40083    1287.0069     1094.114   -578.82771   -1130.1826    225.71151    -5870.037 
11605000    178.67982   -6500.1758   -6040.5328   -6500.1758            0    1838.6742    23.238091    21.555498    21.907838    10973.825     2655.699    815.36661     2044.957    1033.0239    299.60864    1148.1669   -5746.2678 
11606000    175.78184   -6517.5059   -6065.3178   -6517.5059            0    3104.4373    23.369131    21.346218     21.90612    10927.705     3213.854    4602.7778    1496.6802     294.7045   -773.81488    -1213.431   -5570.5656 
11607000     179.0428   -6519.4879   -6058.9113   -6519.4879            0    1833.6818    23.425226    21.349797    21.887348    10946.384    1568.4106    2368.8695    1563.7653    -608.2573    1416.0836    1392.4335    -5766.179 
11608000    182.23598   -6531.3405   -6062.5496   -6531.3405            0    1617.7119    23.274148    21.629324    21.735632    10941.806    1734.3438    1885.1169     1233.675   -118.56749   -356.82842   -428.43004   -5804.4032 
11609000    178.25744   -6524.1301   -6065.5737   -6524.1301            0    1620.9243    23.353373    21.510601    21.848018    10975.245    2022.9155     1524.485    1315.3723   -662.05977     562.6579    20.044042   -5806.1242 
11610000    176.65375   -6516.5008   -6062.0698   -6516.5008            0    2449.7862    23.360034    21.290446    21.926687     10905.14    3233.6921    2879.9241    1235.7423   -507.11195   -570.21808    493.32014   -5672.4551 
11611000    185.75749   -6528.9415   -6051.0917   -6528.9415            0    1952.5313    23.243679    21.587256    21.804411     10940.74    2664.8288    1625.1262     1567.639     -638.858   -879.47919   -969.56856   -5739.5468 
11612000    179.00251   -6507.7931     -6047.32   -6507.7931            0    2062.3632    23.178313    21.583476    21.920674    10966.225     2319.247    2077.2743    1790.5685    217.30926    407.97215    329.14214   -5717.4839 
11613000    185.89374   -6527.0212   -6048.8209   -6527.0212            0    2211.1536    23.406987    21.387163    21.892736    10959.702    1142.2412    3016.2445    2474.9752    472.77584    631.15431    168.69774   -5695.3989 
11614000    182.11369    -6508.404   -6039.9277    -6508.404            0    1518.1069    23.469354    21.258019    21.984814    10968.487    1580.6974    2302.5727     671.0506   -81.035271    914.57515   -166.71165    -5797.085 
11615000    184.20648   -6520.2792   -6046.4192   -6520.2792            0    2002.9202     23.24069    21.621922    21.808939    10959.175    2126.1781    2845.0806     1037.502   -487.63117   -23.009878   -451.74819   -5726.2959 
11616000    177.27901   -6541.2651   -6085.2256   -6541.2651            0     2600.891    23.275862    21.477321    21.829961    10912.866    2798.8509     2865.696    2138.1262   -233.55957   -317.84461   -107.16028   -5671.2861 
11617000    168.80567   -6535.3902   -6101.1479   -6535.3902            0    1438.1207    23.538338     21.21838    21.961957    10968.798    347.69293    3129.4317    837.23749    830.53616   -442.80333    439.10451   -5871.0936 
11618000    177.44669   -6531.2259   -6074.7551   -6531.2259            0    1758.1881    23.299696    21.481949    21.852628     10937.74    2255.8226    1673.6868    1345.0549    508.82971   -1305.1114   -823.96656   -5794.2965 
11619000    177.99834   -6517.3146   -6059.4247   -6517.3146            0    1778.1665    23.162901    21.619403    21.883951    10958.784    3038.2779    1165.8812    1130.3403   -43.302377    295.16771    139.18645   -5775.2334 
11620000    181.24472   -6521.9438   -6055.7028   -6521.9438            0    2253.0104    23.362652    21.366407    21.914176    10939.029    1170.5113    3533.0166    2055.5031   -123.89688   -379.66206   -643.64858   -5696.2699 
11621000    175.14073   -6516.1454   -6065.6065   -6516.1454            0    1657.4277    23.391054    21.362664    21.984185    10985.393    1162.9002    2551.6529      1257.73     476.1287   -97.028013    242.00242   -5800.0689 
11622000    189.25877   -6510.9437   -6024.0871   -6510.9437            0    1983.4492    23.065299    21.684119    21.935831    10971.221    3063.3918    1042.8287     1844.127   -109.75091    92.722814   -248.83336   -5706.7273 
11623000    177.80643   -6516.8086   -6059.4124   -6516.8086            0    834.72156    23.310561    21.563118    21.899407    11007.702    2194.6971   -474.66647     784.1341    -43.00862   -29.783305   -115.72691   -5925.4095 
11624000    178.67838   -6505.3206   -6045.6813   -6505.3206            0    2992.6573    23.395597    21.318196    21.876885    10911.139     3230.636    4108.4777    1638.8582   -729.50946   -542.79088    389.30408   -5569.4665 
11625000    182.56553   -6506.5176   -6036.8789   -6506.5176            0    982.16027    23.319477    21.618502    21.855322     11017.97    2355.0609    -626.3566    1217.7765   -425.77026    -1397.667    635.58845   -5879.0596 
11626000    189.61711   -6542.7307   -6054.9523   -6542.7307            0    3094.9432    23.154774    21.583675    21.804554    10897.155    3703.2696    2494.6866    3086.8735    898.58416    26.584135     532.4837    -5563.092 
11627000     185.4136   -6536.3158   -6059.3507   -6536.3158            0    2390.4511    23.460944    21.321903    21.866176     10938.16    1811.9511    3282.4164    2076.9856    30.683396   -563.95181   -518.02366   -5678.0215 
11628000    181.73665   -6523.6613   -6056.1548   -6523.6613            0    1316.8796    23.367001    21.398498    21.999721    11000.272    990.49624    1340.8382    1619.3043   -298.38768   -340.55319    961.94662   -5844.8908 
11629000    192.21939   -6515.0863   -6020.6137   -6515.0863            0    3043.8051    23.230966    21.538682    21.847248    10931.585    3518.1129    2288.6035    3324.6988    -152.6467    40.576628    386.47867   -5535.3521 
11630000    174.35339    -6538.748   -6090.2346    -6538.748            0    718.19038    23.329559    21.513865    21.904389     10994.01     1075.081   -260.70845    1340.1986    850.55943    -148.1423    846.93906   -5975.0825 
11631000    183.19058   -6554.5267   -6083.2801   -6554.5267            0    3042.2142     23.37498    21.283716    21.869755    10880.344    2552.3039    4294.5726     2279.766    191.82205   -379.27952    206.89047   -5600.5456 
11632000    189.50373   -6511.6029   -6024.1161   -6511.6029            0    1511.0997    23.306192    21.556263    21.836283    10970.426    1879.0423    1190.6675    1463.5893   -412.11449   -60.529785    457.26064   -5782.3516 
11633000    185.52325   -6519.0918   -6041.8445   -6519.0918            0    2660.5885    23.204735      21.4873    21.920804    10929.869    4426.7774    2351.6497    1203.3384    446.89753   -715.47135   -394.98778   -5617.7442 
11634000    178.68947   -6534.1479   -6074.4801   -6534.1479            0    389.27433    23.354156    21.497943    21.937949    11014.305    428.18876    470.06842    269.56582   -78.143682    104.85371    201.18309   -6011.9501 
11635000    173.77665   -6528.1343   -6081.1045   -6528.1343            0    2810.1442     23.31364    21.371039    21.866811    10894.848    2072.8213    4015.5251    2342.0863   -19.138899   -166.26981    586.68367   -5634.6002 
11636000    191.20625    -6526.472   -6034.6056    -6526.472            0    896.34817    23.414307    21.546818    21.776142    10986.147    582.85929    844.06752    1262.1177   -387.06446    773.92169    6.1878633   -5890.9912 
11637000    180.63364   -6524.8685   -6060.1995   -6524.8685            0    3218.4332     23.28567    21.539283    21.664518    10865.983    3680.1611    2304.7814    3670.3569    691.05323    255.21561    588.51909   -5550.1769 
11638000    180.80182   -6537.8575   -6072.7559   -6537.8575            0    935.40321    23.461821     21.49433    21.781317    10984.234    191.92919    906.41125    1707.8692    -1118.358    456.86936    444.12514   -5922.9101 
11639000    177.77592   -6526.8379   -6069.5202   -6526.8379            0    2282.3544    23.401909    21.406756    21.821949    10931.901     2895.496    2504.1521    1447.4151    117.35832    363.95638   -487.55017   -5705.6431 
11640000    182.43847   -6523.2624   -6053.9506   -6523.2624            0    2016.6149    23.298859    21.543065    21.822831    10953.508    1452.5724    2053.3877    2543.8846    460.73545   -193.60475     732.3795   -5731.8051 
11641000    182.24539    -6536.914   -6068.0989    -6536.914            0    3310.5907    23.394778    21.436853    21.702724    10884.143    3698.3368    2578.3626    3655.0727    -1058.971   -1133.6386    -845.5249   -5542.5954 
11642000    184.92704   -6528.6555   -6052.9419   -6528.6555            0    1685.1772    23.440734    21.407876    21.845451    10962.404     956.3235    1585.8479    2513.3601   -484.83343    572.06641    858.49705   -5783.5235 
11643000    176.79451   -6503.0591    -6048.266   -6503.0591            0    3503.2656    23.331801    21.597969    21.634142    10901.867    3465.1427    2665.3038    4379.3502   -1012.3706    256.09468    59.728072   -5491.2729 
11644000    183.21824   -6530.7236   -6059.4058   -6530.7236            0    2835.9233    23.345934    21.604296    21.557672    10873.096    2772.4183     2112.604    3622.7474    1265.4086   -999.02387    445.81346   -5609.7051 
11645000    191.77293   -6526.8593   -6033.5351   -6526.8593            0    2142.6406    23.556871    21.398192      21.7146    10945.775    384.13774    2698.5107    3345.2734    1007.9129   -21.012256    268.49986   -5691.4992 
11646000    183.40515   -6532.6695   -6060.8709   -6532.6695            0    1988.6572    23.327658    21.481639    21.804547    10926.614    2471.8619    2198.4287     1295.681   -324.79271   -140.68764   -598.03419   -5743.9715 
11647000    183.05334   -6538.9659   -6068.0723   -6538.9659            0    1709.1333    23.323116    21.545095    21.770365    10939.582    3007.6591     334.8049     1784.936    857.59199   -575.45902   -386.43025   -5795.3928 
11648000    173.38941   -6524.4843   -6078.4506   -6524.4843            0    3354.3552    23.386945    21.408449    21.747394    10888.446     3265.422    3839.3875    2958.2562    851.72583    202.14881   -727.74241   -5545.7896 
11649000     183.5029   -6501.8969   -6029.8469   -6501.8969            0    1472.1796    23.530408    21.357443    21.828045     10969.67    976.08836    1689.4859    1750.9644   -668.06225   -165.51085    736.85162   -5794.3255 
11650000    177.59794   -6519.4638   -6062.6039   -6519.4638            0    2321.3649    23.287336    21.640015    21.680443    10925.606    1422.7659    2607.5497    2933.7791    264.26214    93.985533   -773.51865   -5692.7205 
11651000    188.45922   -6517.5449    -6032.745   -6517.5449            0    2685.2239    23.273752    21.596081    21.697927    10905.852    3078.2835    1702.2164    3275.1719   -741.62061   -43.211772    820.09706   -5605.6584 
11652000    178.92383   -6535.4965   -6075.2259   -6535.4965            0    1328.9512    23.563693    21.367258    21.774938    10963.497    1476.0194    902.12385    1608.7103   -548.73466   -750.53772    582.73248   -5862.7381 
11653000    191.27982   -6523.0941   -6031.0384   -6523.0941            0     1559.074    23.397385    21.423897    21.818169    10936.644    1095.0565    1600.9263    1981.2391    554.31891    705.32218    249.77348   -5782.3665 
11654000    180.34836    -6516.149   -6052.2138    -6516.149            0    541.69123    23.151691    21.782974    21.806753    10997.422    2045.3667   -1617.4354    1197.1424   -424.46966    801.90624    801.09988   -5965.3341 
11655000     178.6651   -6530.4899   -6070.8848   -6530.4899            0    2557.1702    23.368396    21.404659    21.777756    10893.071    2538.6868     2245.253    2887.5707    690.61873   -1490.3877    19.005833   -5664.6419 
11656000    173.63076   -6541.4141   -6094.7595   -6541.4141            0    1496.8495    23.479807    21.364258    21.855773    10963.482    554.90868    2414.9979    1520.6418    449.74703   -464.43538   -460.43404   -5855.4265 
11657000    178.78792   -6526.3327   -6066.4116   -6526.3327            0    2917.0727    23.209412    21.529156    21.770296    10878.161     3467.235    2105.0722    3178.9109   -1134.6352    353.62435    575.95333   -5603.6274 
11658000    185.77083   -6546.7557   -6068.8715   -6546.7557            0    1332.4606    23.118743    21.696699    21.889837    10979.951    1990.6019    116.77731    1890.0026   -333.74606    956.79669    711.11936   -5855.5029 
11659000    187.28629   -6536.4436    -6054.661   -6536.4436            0     2650.052    23.396291    21.327237    21.826578    10890.988    2940.9669    3470.4596    1538.7293    811.26723   -1392.5676    99.109773    -5633.743 
11660000    178.12475   -6519.8618   -6061.6468   -6519.8618            0    1609.0598    23.452142    21.435465     21.82055    10969.356    1268.8329     2295.707    1262.6394    1589.2636   -691.08433    165.41662   -5804.2345 
11661000    181.86203   -6546.2883   -6078.4593   -6546.2883            0    2561.7751    23.199508    21.556456    21.765759    10885.038    2267.7873    1793.9135    3623.6243    726.93177   -250.19657    107.64444   -5671.7849 
11662000    178.12076   -6515.2062   -6057.0014   -6515.2062            0    1709.4725    23.352783    21.514665    21.823926    10964.936    1270.7902    2005.7146    1851.9126    565.44434    838.54814    508.32451   -5783.6356 
11663000    188.08926   -6540.2966   -6056.4485   -6540.2966            0    1851.2154    23.549179    21.301203    21.859832    10965.457    1832.6791    2844.7316    876.23544    472.75442   -230.16809   -836.39754   -5760.4022 
11664000    182.80253   -6535.7838   -6065.5354   -6535.7838            0    3376.9807    23.253753    21.518302    21.727321    10871.944    3050.6632    3775.1476    3305.1313    918.50065    448.42162    273.40127   -5530.0943 
11665000    180.11999   -6520.7086   -6057.3609   -6520.7086            0    2140.6346    23.263081    21.534646    21.837499    10939.762    2804.6794    1754.8682    1862.3563   -37.453932   -582.45772   -920.70839   -5715.8329 
11666000    185.34358   -6505.8368   -6029.0517   -6505.8368            0    2343.6851    23.458944    21.393025    21.850703    10965.946    1181.6079    2814.2717    3035.1756    870.92407     996.8623    848.02024   -5654.2331 
11667000    176.73407   -6512.1559   -6057.5183   -6512.1559            0      2451.06    23.454753    21.343942    21.856856    10941.911    1747.3288    3527.2287    2078.6226   -358.48202    1124.1472   -762.88834   -5666.3866 
11668000     187.0649   -6512.9825   -6031.7694   -6512.9825            0    2555.9394    23.182389    21.615516    21.798677    10923.302    3301.3145    2029.9171    2336.5866   -399.31024   -210.48325     -522.983   -5624.5951 
11669000    191.80999    -6505.095   -6011.6754    -6505.095            0    1469.9907    23.318966    21.586331    21.778423    10962.624    1737.8166    1013.2314    1658.9241    -616.8956    438.27278   -52.747911   -5776.6553 
11670000    180.30561   -6523.3353   -6059.5101   -6523.3353            0    2748.1639    23.590198    21.247465    21.713116    10883.306    2485.6948    2680.1465    3078.6506    -562.4999   -1047.2903    476.61101   -5623.3164 
11671000    178.02687   -6516.7744   -6058.8111   -6516.7744            0    1813.7622    23.423633    21.447282    21.792994    10948.218    2530.3102    2034.0623    876.91417   -481.80702    261.34866   -106.00699   -5769.2103 
11672000    184.32961   -6526.1896   -6052.0129   -6526.1896            0    3017.5611    23.141575    21.642825    21.802645    10919.834    3097.9627     2677.107    3277.6134    58.136006  -0.62064869    607.90721   -5571.4524 
11673000    182.85995   -6537.8869   -6067.4908   -6537.8869            0     1956.921    23.292947    21.488605    21.844607    10933.945    2338.9146    2049.1064    1482.7421   -280.77711    453.95597   -131.67714   -5755.4394 
11674000    180.04379   -6535.9911   -6072.8395   -6535.9911            0    2241.3599    23.492828    21.353676    21.781314    10926.775    730.58898    3987.1005    2006.3903     371.4982   -524.24091   -1136.5405   -5715.6657 
11675000    184.62878   -6529.6729   -6054.7266   -6529.6729            0    1830.2942    23.265982    21.551568    21.846997    10954.486    1530.6699    1760.8326    2199.3802   -343.94739    409.02294     511.6799   -5762.3189 
11676000    173.23873   -6519.1728   -6073.5267   -6519.1728            0    2064.1918    23.229098    21.560547     21.84992     10943.14    2204.2762    1726.5726    2261.7267    137.98938    659.36324   -699.49474   -5744.0931 
11677000    190.62864   -6514.5102   -6024.1297   -6514.5102            0    2688.3195    23.457244    21.296357    21.843058    10911.783    2116.6481    3159.5662    2788.7442    487.69075    -918.8347    249.52317   -5596.3181 
11678000    182.85283   -6518.0018   -6047.6241   -6518.0018            0    1534.0616    23.414293    21.443471    21.850309    10970.684    1355.3404    1990.1727    1256.6716    1106.1649   -829.62569   -192.57797   -5802.1801 
11679000    180.94466   -6514.9034   -6049.4343   -6514.9034            0    1863.5862    23.320471    21.587079    21.770359    10959.652    1441.9127    1886.5648    2262.2812   -412.94911   -377.57517   -770.85021   -5751.5675 
11680000    179.60173   -6508.5135    -6046.499   -6508.5135            0    1428.2609    23.320649    21.455329    21.900282    10957.854    1345.4816    1545.6377    1393.6633   -158.39601    934.43924    307.51273     -5818.25 
11681000    188.61775   -6542.3367   -6057.1291   -6542.3367            0    1580.1073    23.398736    21.526957     21.72831    10944.628    1129.7047    1969.5437    1641.0734   -560.82632   -799.71183   -506.87628   -5804.9184 
11682000    182.61546   -6509.6078   -6039.8406   -6509.6078            0    2194.0099    23.327648    21.539131    21.796458    10951.789    1601.7413    2166.8517    2813.4365    967.61211    485.75974    298.61197    -5689.412 
11683000    179.64252   -6529.6648   -6067.5454   -6529.6648            0    1604.6104    23.420522    21.430411    21.860653    10972.111    1041.4331    1760.1655    2012.2326    220.71927    655.58709   -613.39526   -5810.7804 
11684000    179.63127   -6532.1481   -6070.0576   -6532.1481            0    2333.5354    23.305822    21.441163    21.820675    10903.877    3094.4357    2528.6502    1377.5203    451.24617   -1594.0559   -227.51043   -5698.9744 
11685000    181.35854   -6507.4367   -6040.9029   -6507.4367            0    1124.3354    23.330436    21.639963    21.782048    10997.097    944.72557    1252.9901    1175.2905    364.98562    613.88657    631.61735   -5860.5804 
11686000    191.41884   -6524.5829   -6032.1696   -6524.5829            0    3108.8682    23.369853    21.469446    21.730266    10902.896    3505.1104    2208.1521     3613.342    456.46826    75.982465     469.3377   -5537.8361 
11687000    177.02128   -6545.3246   -6089.9481   -6545.3246            0    1607.1065    23.438435     21.38798    21.845764    10951.298    2170.3168    1225.0734    1425.9293    410.52307   -754.81953    47.138154   -5833.2716 
11688000    185.53383   -6508.3651   -6031.0906   -6508.3651            0    2746.3368    23.323426    21.473597     21.76948     10902.98    3040.9196    2920.5958    2277.4951   -64.850095    146.65643   -437.00717   -5594.3989 
11689000    174.78129   -6540.3338   -6090.7196   -6540.3338            0    1900.7359    23.194051    21.607212    21.788719    10919.608    1306.9872    1566.5421    2828.6784    105.21978    465.99081    -79.61187    -5788.025 
11690000    196.32068   -6516.2635   -6011.2405   -6516.2635            0    1954.1807    23.446202    21.499778    21.727612    10952.632    931.80709    2148.5779    2782.1571    584.23433   -231.09099    512.03533   -5699.0935 
11691000    184.65349   -6510.1512   -6035.1414   -6510.1512            0    1419.1611    23.590338    21.421528    21.732692    10982.423    307.78757    1686.9208    2262.7749    543.24853    510.08053   -499.05382   -5807.8381 
11692000    180.87176   -6505.1725    -6039.891   -6505.1725            0    2587.2031    23.265039     21.71956    21.594162    10911.669    3230.6476     1512.708    3018.2536   -770.03605    61.968206   -245.89379   -5628.1751 
11693000    181.68002   -6535.7405   -6068.3797   -6535.7405            0    1898.6665    23.420347    21.446925    21.800858     10950.45    369.48242    2868.0696    2458.4476    363.55174    926.39124   -313.80298   -5765.1606 
11694000    179.52454   -6516.2884   -6054.4725   -6516.2884            0     1506.695    23.481648    21.414412    21.815943    10970.052    295.41311    2588.2164    1636.4554    196.96626    539.88446   -622.77688   -5813.4209 
11695000    184.28135   -6510.4915   -6036.4389   -6510.4915            0    3104.9974    23.244895    21.571064     21.75217     10906.91    4017.2543    2124.7455    3172.9924    33.478189   -374.30025    371.50667   -5542.5391 
11696000    185.98055   -6546.4693   -6068.0457   -6546.4693            0    1457.7431    23.314117    21.599246    21.806424    10981.003    2181.8889    1042.3933     1148.947    1782.0885    7.4106989   -544.59947    -5834.593 
11697000    182.23584   -6517.6271   -6048.8365   -6517.6271            0    2295.3462    23.458628    21.352444    21.807305    10923.258    2091.0427    3446.7139    1348.2821   -49.940221   -112.48121   -440.29517   -5683.1775 
11698000    180.43446   -6506.8904   -6042.7337   -6506.8904            0    2779.8752    23.408632    21.442989    21.754165    10919.525     1985.871    2669.5186    3684.2361   -1106.6739    866.89654   -34.023457   -5600.0383 
11699000    182.14315   -6506.0036   -6037.4515   -6506.0036            0     2166.331    23.298958    21.591498    21.782326    10957.804    1697.1169    1392.0276    3409.8484    1394.7527   -430.86073    363.90035   -5691.2537 
11700000    174.56275     -6516.31   -6067.2579     -6516.31            0    1502.8704    23.381135    21.464369    21.858125    10969.747    1827.9611    1785.5014     895.1487    121.47421   -243.14217    -656.6347    -5826.825 
11701000    186.39617   -6524.3113   -6044.8185   -6524.3113            0    3343.1606    23.363531    21.374731    21.787292    10880.338    3168.3882    3288.8569    3572.2367    493.98923    341.46177    507.23202   -5514.3305 
11702000    184.07185   -6531.2577    -6057.744   -6531.2577            0    1399.8792    23.305311    21.539533    21.829287    10957.986    1765.6801    1451.0318    982.92572    207.79214   -157.97565    15.919835    -5834.028 
11703000    166.69903   -6522.3468   -6093.5237   -6522.3468            0    1470.8649    23.396091    21.526997    21.779157     10969.02    1460.2979    1873.7545    1078.5423   -577.75632    -280.0619   -586.56212   -5858.2267 
11704000    182.40373   -6529.7223   -6060.4998   -6529.7223            0    2122.1566    23.422597    21.397006    21.819363    10935.285    673.41205    3461.8362    2231.2214    448.98028    833.55931    377.76212   -5722.0584 
11705000     176.3672   -6526.4402   -6072.7464   -6526.4402            0    1789.2916    23.305351    21.559147    21.842472    10974.608    1759.3036    1315.1443    2293.4269    6.2933411    45.463827    147.24311   -5786.3641 
11706000    180.34673   -6545.9992   -6082.0682   -6545.9992            0    2017.8565    23.289863    21.466877    21.876387    10937.332    2586.9892    1593.5578    1873.0224   -761.12627   -321.17416    623.80508   -5760.2004 
11707000    172.84358   -6524.0041   -6079.3745   -6524.0041            0    2896.6097    23.374402    21.420992    21.741072    10885.817    2851.5837    4021.7151    1816.5303    446.06622    -451.2656   -967.27149   -5619.5132 
11708000    182.69307   -6521.9645   -6051.9977   -6521.9645            0    630.93433    23.495682    21.574625    21.742161     11021.33    664.97247   -70.325784    1298.1563    708.08023   -1382.7108   -15.943379   -5950.5846 
11709000     185.3311   -6513.4324   -6036.6794   -6513.4324            0    1961.5971    23.306342    21.459132    21.850169    10928.009     2412.436    1583.9348    1888.4204   -574.92861    539.94126   -853.10646   -5724.0522 
11710000    182.52674   -6528.4195   -6058.8805   -6528.4195            0    1810.6968    23.380323    21.528136    21.750309    10947.687    2328.0423    1573.3192     1530.729    -1552.865    186.03451    424.71466   -5769.7833 
11711000    187.95995   -6523.1444   -6039.6289   -6523.1444            0    1118.6135    23.474448       21.515    21.708544     10963.96    115.97132    893.13076    2346.7385     1554.421   -557.63055    433.28822   -5860.7647 
11712000    182.61333   -6541.7806    -6072.019   -6541.7806            0    1577.4754     23.44456    21.456948    21.761901    10947.296    1817.6592    1661.3708    1253.3961   -161.23182    43.986056    717.80533    -5820.167 
11713000    183.71918    -6532.502   -6059.8956    -6532.502            0    1585.7036    23.356761     21.51517    21.787393    10948.702    1792.6574    1385.3417    1579.1119    -449.5908   -634.48258    62.440717   -5806.6974 
11714000    185.76766   -6533.5855   -6055.7095   -6533.5855            0     1844.602    23.446823    21.479914    21.697963     10927.87    938.76758      2181.55    2413.4883    1380.6627    28.096997    441.06912    -5761.732 
11715000    179.44732   -6547.4164   -6085.7991   -6547.4164            0    1416.3819    23.454399    21.531274    21.679614    10948.272    1435.3152    1101.0539    1712.7767    498.23235   -1148.5063    612.86738   -5859.6464 
11716000    176.66693   -6515.1352   -6060.6702   -6515.1352            0    1438.2559    23.541238    21.418548    21.767119    10975.398   -124.29133    2346.1788    2092.8803   -587.87687    1150.0761    562.79588   -5830.4559 
11717000    189.28152   -6543.4623   -6056.5471   -6543.4623            0    2215.7648    23.356089    21.470763    21.754337    10909.214    1895.4232    2827.0702    1924.8009   -44.704578   -763.92892   -899.53904   -5704.0196 
11718000    188.16112    -6524.732    -6040.699    -6524.732            0    995.85489    23.469656    21.542216    21.739112    10991.043    588.70206    466.65725    1932.2054    1259.4878   -889.04825    92.023129   -5881.0704 
11719000    175.70352   -6510.9456    -6058.959   -6510.9456            0    2443.8707    23.438068    21.409399    21.737102    10907.567    2127.2536    2345.1463    2859.2123    259.03714    135.21767   -186.96832   -5670.1986 
11720000    177.66713   -6546.9916   -6089.9537   -6546.9916            0    1462.2563    23.302376     21.52374    21.823196    10945.518    2207.6624    770.48176    1408.6248   -55.853378    461.97722   -195.38266    -5856.535 
11721000    180.23103   -6526.9465   -6063.3132   -6526.9465            0    2013.8715    23.346176    21.470358    21.837493     10946.06    2414.0191    2513.5903    1114.0051   -1351.4615    879.20401   -865.79794   -5741.8247 
11722000    176.22166   -6522.4164   -6069.0969   -6522.4164            0     3339.387    23.353397    21.366138    21.760834    10858.045    4195.2013    2564.4799    3258.4799     430.9217   -506.84897   -255.47791   -5540.2935 
11723000    180.84503   -6541.4046   -6076.1918   -6541.4046            0    1118.1281    23.370351    21.505427    21.839471    10976.286    1554.3014    1079.6712    720.41174   -347.85276   -256.26438   -559.16956   -5897.2042 
11724000    188.38184   -6514.4752   -6029.8744   -6514.4752            0    2749.1646    23.310864    21.455627    21.813146    10909.828    2321.8841    3407.6654    2517.9445   -360.92944    1016.0427   -423.10703   -5592.4585 
11725000    177.56702   -6526.1468   -6069.3665   -6526.1468            0    1468.8151    23.415913     21.36638    21.934179    10973.961    700.32618    2141.5624    1564.5568   -45.599749    793.30465    -776.9406   -5834.2915 
11726000    183.15179   -6523.5548    -6052.408   -6523.5548            0     3569.751    23.252973    21.493728    21.767972    10879.481    4085.7386    3995.8671    2627.6473    1113.2976   -938.21703   -1139.2096   -5486.0096 
11727000    185.72686   -6496.7904   -6019.0193   -6496.7904            0    1501.3787    23.374112    21.506731    21.879877     10999.03    1105.6233    1200.0399    2198.4729   -472.70137    322.09068    403.66505   -5778.1838 
11728000    197.87122   -6531.8287   -6022.8171   -6531.8287            0    2562.6939    23.330772    21.396302    21.934701    10949.633    2583.4133    3193.3657    1911.3027   -216.87132    862.14311   -126.67677   -5613.5826 
11729000    186.74273   -6523.2661   -6042.8819   -6523.2661            0     2104.938    23.310407    21.455371    21.902997    10954.421    2322.0731    1868.0228    2124.7182   -145.03525    257.42982    421.54631   -5706.5991 
11730000    185.78623   -6508.2281   -6030.3043   -6508.2281            0    2045.2033    23.383283    21.517293    21.793763    10965.422    2030.0816    2081.9885    2023.5397    592.58471    223.44578   -23.187913   -5703.2366 
11731000    183.30711   -6502.8798   -6031.3335   -6502.8798            0    2010.1427    23.487499    21.485693     21.76201    10982.094     1806.717    1169.2695    3054.4418    107.06186    540.31022   -1111.6597   -5709.3838 
11732000    183.56313   -6521.4423   -6049.2373   -6521.4423            0    2399.4957    23.372211     21.49925     21.76025    10934.199    719.02696    2750.4728    3728.9874    -160.1037    656.10156    1087.8376    -5666.604 
11733000    182.13675   -6538.7952   -6070.2595   -6538.7952            0    1894.7578    23.434271    21.476874    21.717076    10930.093    1512.9768    2094.1867    2077.1099   -453.49961    1169.0165    63.564545   -5768.2271 
11734000    182.57102    -6521.171   -6051.5182    -6521.171            0    1980.1989    23.423481    21.519484    21.684347    10930.239    2334.0832    2155.6636    1450.8497    21.187995   -80.570076   -1025.0929    -5735.862 
11735000    177.16261    -6515.866    -6060.126    -6515.866            0     1298.892    23.430215    21.504214    21.783646    10975.654    1205.1164    1816.3225    875.23703     133.3331   -1138.3004    1076.7237   -5852.2141 
11736000    178.20884   -6518.8374   -6060.4061   -6518.8374            0    1717.0731    23.430313    21.432751    21.815773    10955.359    1154.1673      3325.85    671.20201     118.5998    474.22193   -464.72965   -5786.0647 
11737000    175.26903   -6520.9064   -6070.0375   -6520.9064            0    1696.9898    23.339146    21.482462    21.841202    10950.792    1488.5032    2036.7634    1565.7028    982.37177    1047.8348    224.08293   -5799.0179 
11738000    182.18408   -6503.0804    -6034.423   -6503.0804            0    1764.3841    23.407659    21.553541    21.750008    10973.269    1298.2799    1332.5099    2662.3625   -130.12458   -829.38547    54.290708   -5752.0618 
11739000    177.35212   -6519.8985    -6063.671   -6519.8985            0    1696.6923    23.494471    21.452495    21.719876    10947.144    884.01397    1819.5423    2386.5205    419.32266   -60.400392    -450.9253   -5792.7892 
11740000     188.6764   -6529.9785     -6044.62   -6529.9785            0     2227.949    23.365763    21.420155      21.7774    10899.551    2191.6953    2439.0639    2053.0877     822.7697   -234.27418   -200.62019   -5690.4679 
11741000    174.78785   -6516.7177   -6067.0866   -6516.7177            0    1773.3856    23.258086    21.579547    21.851751    10967.371    2438.2489     1168.984    1712.9238   -1001.3199   -91.144833   -251.33602   -5783.4374 
11742000    179.07202   -6528.9953   -6068.3435   -6528.9953            0    829.84794    23.454576    21.495689    21.806063    10994.012    197.67387    1248.5356    1043.3344    1482.0054    25.010459    -178.8543   -5935.2886 
11743000    187.89081   -6527.3358   -6043.9981   -6527.3358            0    2763.1698    23.375557    21.477878    21.668498    10878.829    1728.4945    3267.1231    3293.8916    544.00888   -219.09997    122.98054   -5605.6031 
11744000    180.23878   -6516.6538   -6053.0005   -6516.6538            0    706.75616    23.480235    21.522395    21.770773    11001.879   -333.92578     870.2355    1583.9588   -543.33997    847.83611    201.10663   -5939.6007 
11745000    192.06729   -6511.3204    -6017.239   -6511.3204            0    2085.6409    23.357511    21.501408    21.772363    10934.502    2252.3956    2548.1778    1456.3494   -398.65947    85.407743   -894.94126    -5684.645 
11746000    176.17314   -6523.4052   -6070.2105   -6523.4052            0    1612.2522    23.459594    21.539479    21.704213      10967.3    2088.9312    790.64315    1957.1822    306.22554   -20.859973   -535.82505   -5812.3359 
11747000    181.09163   -6518.4347   -6052.5876   -6518.4347            0    2149.7594    23.411653    21.473155    21.716407    10917.316     2590.355    2094.1514    1764.7718   -133.90088   -992.20322    317.09655   -5710.3075 
11748000    177.23001   -6506.4159   -6050.5025   -6506.4159            0    1213.4113    23.446828      21.5082    21.798795    10993.112    1306.1996    301.41206    2032.6224   -391.00046   -115.63324    426.53223   -5855.9644 
11749000    183.15129   -6537.0586   -6065.9131   -6537.0586            0    2015.6101    23.238916    21.603193    21.772766    10930.686    2345.6274    1361.3319    2339.8711     204.3159    1054.2492    573.41124   -5744.5989 
11750000    191.75481    -6502.873   -6009.5954    -6502.873            0    2874.8933    23.376511     21.54802      21.6647    10912.889    2057.4135    2809.8814    3757.3851      936.075    995.65898  -0.46081937   -5552.0466 
Loop time of 603.2 on 64 procs for 250000 steps with 1296 atoms

Performance: 71.618 ns/day, 0.335 hours/ns, 414.456 timesteps/s
195.8% CPU use with 32 MPI tasks x 2 OpenMP threads

MPI task timing breakdown:
Section |  min time  |  avg time  |  max time  |%varavg| %total
---------------------------------------------------------------
Pair    | 38.326     | 48.072     | 63.141     |  99.1 |  7.97
Bond    | 0.60217    | 0.9957     | 1.7587     |  19.3 |  0.17
Kspace  | 318.72     | 336.67     | 352.48     |  42.3 | 55.81
Neigh   | 2.4078     | 2.6117     | 2.9515     |   9.4 |  0.43
Comm    | 79.206     | 86.162     | 93.811     |  39.6 | 14.28
Output  | 0.53256    | 0.53285    | 0.5343     |   0.0 |  0.09
Modify  | 110.48     | 112.86     | 116.69     |  15.2 | 18.71
Other   |            | 15.3       |            |       |  2.54

Nlocal:        40.5000 ave          54 max          30 min
Histogram: 4 4 5 3 1 3 4 6 1 1
Nghost:        3063.88 ave        3093 max        3027 min
Histogram: 2 1 1 3 6 5 6 1 2 5
Neighs:        12786.5 ave       16996 max        9578 min
Histogram: 4 5 4 3 2 2 4 6 1 1

Total # of neighbors = 409169
Ave neighs/atom = 315.71682
Ave special neighs/atom = 2.0000000
Neighbor list builds = 5373
Dangerous builds = 0

unfix		3
unfix		2
unfix		1

write_data	data.final.${pid}
write_data	data.final.0
System init for write_data ...
PPPM initialization ...
  extracting TIP4P info from pair style
  using 12-bit tables for long-range coulomb (../kspace.cpp:340)
  G vector (1/distance) = 0.36754248
  grid = 30 40 32
  stencil order = 5
  estimated absolute RMS force accuracy = 0.0044534732
  estimated relative force accuracy = 1.3411502e-05
  using double precision FFTW3
  3d grid and FFT values/proc = 7888 1280
Last active /omp style is kspace_style pppm/tip4p/omp
WARNING: Not all mixed pair coeffs generated from mixing. Use write_data with 'pair ij' option to store all pair coeffs. (../write_data.cpp:312)

write_restart   restart.lmp.${pid}
write_restart   restart.lmp.0
System init for write_restart ...
PPPM initialization ...
  extracting TIP4P info from pair style
  using 12-bit tables for long-range coulomb (../kspace.cpp:340)
  G vector (1/distance) = 0.36754248
  grid = 30 40 32
  stencil order = 5
  estimated absolute RMS force accuracy = 0.0044534732
  estimated relative force accuracy = 1.3411502e-05
  using double precision FFTW3
  3d grid and FFT values/proc = 7888 1280
Last active /omp style is kspace_style pppm/tip4p/omp
Total wall time: 0:10:03
