LAMMPS (30 Jul 2021)
Processor partition = 1
  using 2 OpenMP thread(s) per MPI task
using multi-threaded neighbor list subroutines
variable        pid world 0 1
variable        phase world IceII IceIh

shell cd ${phase}
shell cd IceIh
include Restart.lmp
echo both
log log.lammps
#include		in.partitions
include		in.temp
variable        temperature equal 182.60
variable	tempDamp equal 100.0
include		in.pressure
variable        pressure equal 2085.2
variable        pressureDamp equal 1000.0 # This is 1 ps
include		in.seed
variable        seed equal 745823

units		real
atom_style	full
#include		in.box
read_restart	restart.lmp.${pid}
read_restart	restart.lmp.1
Reading restart file ...
  restart file = 30 Jul 2021, LAMMPS = 30 Jul 2021
  restoring atom style full from restart
  orthogonal box = (0.033522086 0.11986374 0.12855196) to (18.174050 23.509314 22.084644)
  2 by 4 by 4 MPI processor grid
  restoring pair style lj/cut/tip4p/long/omp from restart
  restoring bond style harmonic/omp from restart
  restoring angle style harmonic/omp from restart
  864 atoms
  576 bonds
  288 angles
Finding 1-2 1-3 1-4 neighbors ...
  special bond factors lj:    0        0        0       
  special bond factors coul:  0        0        0       
     2 = max # of 1-2 neighbors
     1 = max # of 1-3 neighbors
     1 = max # of 1-4 neighbors
     2 = max # of special neighbors
  special bonds CPU = 0.002 seconds
  read_restart CPU = 0.009 seconds
include 	in.setup
variable	out_freq equal 1000
variable	out_freq2 equal 10000
variable	out_freq3 equal 1000

timestep	2.0

neigh_modify    delay 7 every 1

include		in.tip4p
# This is TIP4P/Ice

# create groups ###
group ox type 2
288 atoms in group ox
group hy type 1
576 atoms in group hy

# set charges - beside manually ###
set group ox charge -1.1794
Setting atom values ...
  288 settings made for charge
set group hy charge 0.5897
Setting atom values ...
  576 settings made for charge

# ### TIP3P Potential Parameters ###
pair_style lj/cut/tip4p/long/omp 2 1 1 1 0.1577 8.5
pair_coeff 1 1*2 0.000 0.000
pair_coeff 2 2 0.21084 3.1668
bond_style  harmonic
bond_coeff  1 450 0.9572
angle_style harmonic
angle_coeff 1 55 104.52
kspace_style pppm/tip4p/omp 1.0e-5
pair_modify tail yes

thermo          ${out_freq}
thermo          1000
thermo_style    custom step temp pe etotal epair emol press lx ly lz vol pxx pyy pzz pxy pxz pyz enthalpy

restart 	${out_freq3} restart.lmp.${pid} restart2.lmp.${pid}
restart 	1000 restart.lmp.${pid} restart2.lmp.${pid}
restart 	1000 restart.lmp.1 restart2.lmp.${pid}
restart 	1000 restart.lmp.1 restart2.lmp.1


include         in.dump
dump            myDump all atom ${out_freq2} dump.water.${pid}
dump            myDump all atom 10000 dump.water.${pid}
dump            myDump all atom 10000 dump.water.1
dump            myDump2 all dcd ${out_freq2} dump.dcd
dump            myDump2 all dcd 10000 dump.dcd
dump_modify     myDump append yes
dump_modify     myDump2 append yes


variable natoms 	equal  "count(all)"                        # NUMBER ATOMS
variable H      	equal  "enthalpy/v_natoms"                 # ENTHALPY-per-atom
variable Vol      	equal  "vol/v_natoms"                 # volume-per-atom
fix AVG all 		ave/time ${out_freq} 1 ${out_freq} v_Vol v_H file vol_enthalpy.dat
fix AVG all 		ave/time 1000 1 ${out_freq} v_Vol v_H file vol_enthalpy.dat
fix AVG all 		ave/time 1000 1 1000 v_Vol v_H file vol_enthalpy.dat


timer           timeout 23:50:00 every 1000
New timer settings: style=normal  mode=nosync  timeout=23:50:00

fix 		1 all shake 1e-6 200 0 b 1 a 1
Finding SHAKE clusters ...
       0 = # of size 2 clusters
       0 = # of size 3 clusters
       0 = # of size 4 clusters
     288 = # of frozen angles
  find clusters CPU = 0.001 seconds
fix             2 all nph aniso ${pressure} ${pressure} ${pressureDamp}
fix             2 all nph aniso 2085.2 ${pressure} ${pressureDamp}
fix             2 all nph aniso 2085.2 2085.2 ${pressureDamp}
fix             2 all nph aniso 2085.2 2085.2 1000
fix             3 all temp/csvr ${temperature} ${temperature} ${tempDamp} ${seed}
fix             3 all temp/csvr 182.6 ${temperature} ${tempDamp} ${seed}
fix             3 all temp/csvr 182.6 182.6 ${tempDamp} ${seed}
fix             3 all temp/csvr 182.6 182.6 100 ${seed}
fix             3 all temp/csvr 182.6 182.6 100 745823


run             250000
PPPM initialization ...
  extracting TIP4P info from pair style
  using 12-bit tables for long-range coulomb (../kspace.cpp:340)
  G vector (1/distance) = 0.37169766
  grid = 24 27 25
  stencil order = 5
  estimated absolute RMS force accuracy = 0.0031524762
  estimated relative force accuracy = 9.4935883e-06
  using double precision FFTW3
  3d grid and FFT values/proc = 4410 672
Last active /omp style is kspace_style pppm/tip4p/omp
Neighbor list info ...
  update every 1 steps, delay 7 steps, check yes
  max neighbors/atom: 2000, page size: 100000
  master list distance cutoff = 10.8154
  ghost atom cutoff = 10.8154
  binsize = 5.4077, bins = 4 5 5
  1 neighbor lists, perpetual/occasional/extra = 1 0 0
  (1) pair lj/cut/tip4p/long/omp, perpetual
      attributes: half, newton on, omp
      pair build: half/bin/newton/omp
      stencil: half/bin/3d
      bin: standard
Setting up Verlet run ...
  Unit style    : real
  Current step  : 11500000
  Time step     : 2
  Walltime left : 23:49:59.93
Per MPI rank memory allocation (min/avg/max) = 10.19 | 10.21 | 10.23 Mbytes
Step Temp PotEng TotEng E_pair E_mol Press Lx Ly Lz Volume Pxx Pyy Pzz Pxy Pxz Pyz Enthalpy 
11500000    195.16018   -4391.7926   -4057.2947   -4391.7926            0    1485.8379    18.140528     23.38945    21.956092    9315.9036    283.60471    2426.8223    1747.0867    -344.1531   -598.32137    188.04833   -3855.4245 
11501000    179.78997   -4395.2702   -4087.1164   -4395.2702            0    1104.4551    18.066444    23.421928    21.979265    9300.5469   -184.98395    933.90941    2564.4398    91.796099    945.26373   -534.54346   -3937.3093 
11502000    186.18289   -4404.5884   -4085.4773   -4404.5884            0    3067.1356    17.910174    23.458195    21.941938    9218.6934    2603.2391    3507.1403    3091.0273    217.13827   -667.51085   -177.10623   -3673.1157 
11503000    181.43919   -4397.0555   -4086.0749   -4397.0555            0    1013.6405    18.034754    23.370645    22.056299    9296.3733    581.15667    1663.5897     796.1752    362.25553    16.630137   -846.52795   -3948.6475 
11504000    168.90666   -4409.4204   -4119.9202   -4409.4204            0    930.39443    18.257207    23.180336    22.015557    9317.1641   -325.26773    2115.0606    1001.3905   -1483.3635   -81.474293    111.38897    -3993.497 
11505000    185.68142   -4395.5221   -4077.2705   -4395.5221            0    2230.4602    17.885438     23.48264    22.000767    9240.2628    2430.3646    2809.5251    1451.4908   -596.22053    930.10627    200.48027   -3776.6943 
11506000    182.03586   -4388.0085   -4076.0052   -4388.0085            0    1496.5794    18.265569    23.120151    22.000707    9290.9586    1284.6405    1930.8321    1274.2655   -4.3753923    77.389645   -814.76001   -3873.2201 
11507000    176.73672   -4388.2689   -4085.3482   -4388.2689            0    1256.2993    17.936503    23.427486    22.095462    9284.6715    1794.6766   -436.23055    2410.4519   -344.87899   -763.81127    188.01054    -3915.236 
11508000    194.02249   -4406.3832   -4073.8353   -4406.3832            0    2610.2599     17.91312    23.410676    21.913258    9189.5059    3275.5949    2490.1011    2065.0838   -352.50698   -172.96766    88.041643   -3724.0095 
11509000    192.66517   -4392.2692   -4062.0477   -4392.2692            0     2086.758    18.128602    23.190828     22.02554    9259.9176    1016.3179    1220.6899    4023.2662    360.58947    266.52176    1473.6424   -3780.2385 
11510000    179.54982   -4386.9451   -4079.2029   -4386.9451            0    3600.8838     17.65748    23.699973    21.917562    9172.1008    4864.8379    2322.2758    3615.5376   -229.31495    380.77634    517.61107   -3597.5282 
11511000    179.56594   -4399.6397   -4091.8698   -4399.6397            0    1351.2899    18.075834    23.271503    22.009533    9258.3505    1521.2612    1950.7412    581.86721   -43.790756   -70.676065    685.82164   -3909.4138 
11512000    193.51734   -4388.6303   -4056.9482   -4388.6303            0    1787.2039    17.850018    23.503874     22.04944    9250.7228     2570.935    1345.7521    1444.9247    427.15975   -226.63995    447.78913   -3815.8324 
11513000    198.94456   -4408.5127   -4067.5285   -4408.5127            0    1275.5896    17.964335    23.516347    21.960604    9277.3783    164.12072    1128.7813    2533.8669    476.93397   -835.77116    161.77455   -3894.9399 
11514000    182.62509   -4415.2466   -4102.2335   -4415.2466            0    2083.2118    18.038605    23.256559    21.983651    9222.4907    3566.7167    1392.1458    1290.7728    462.68042   -91.415531   -687.85861   -3822.0403 
11515000    187.40248   -4406.9004    -4085.699   -4406.9004            0    1009.2315    17.913951    23.530541      22.0471    9293.4029     1166.789    1437.5067    423.39887    242.13966   -92.758255    296.90645    -3948.913 
11516000    185.97701   -4401.6214   -4082.8631   -4401.6214            0    1724.2148    18.156477    23.147736    21.995809    9244.4283    950.20448    2165.2572    2057.1826   -135.78729   -172.52416    93.662479   -3850.4036 
11517000    193.88535   -4408.4897   -4076.1768   -4408.4897            0    4197.2802    17.702439    23.538726     21.89854    9124.9656    4129.3851    4447.4311    4015.0244   -80.516172   -615.50578   -521.70317   -3517.6101 
11518000    172.08264   -4400.8479   -4105.9042   -4400.8479            0    2394.3633    18.001291    23.360077    21.911605    9214.0832    1065.1362    2164.1337    3953.8199   -661.62396   -202.20554    505.34966   -3784.1545 
11519000    182.33384   -4398.4044   -4085.8904   -4398.4044            0    2089.8607    18.113403     23.27527    21.894363    9230.5395    1052.7594    1162.8586     4053.964    56.396776    812.43128   -1128.4128   -3804.5576 
11520000    179.53625   -4408.0191   -4100.3001   -4408.0191            0    2979.0798     17.84091    23.549321    21.927854    9212.7974    3196.6024    2190.2726    3550.3645   -385.33474   -371.03815   -309.88019   -3700.0333 
11521000    183.44745   -4413.0231   -4098.6004   -4413.0231            0    2878.8832    18.075883    23.162157    22.017997    9218.4167    1326.3006    3585.8777    3724.4712    236.72223   -723.89131    -97.65448   -3711.5601 
11522000    191.90229   -4403.1428   -4074.2288   -4403.1428            0     2438.868    17.893579    23.697544    21.766574    9229.7647    2398.0944    1860.0909    3058.4187   -756.77476   -92.896019   -48.045625    -3745.941 
11523000    177.42675   -4407.0966   -4102.9932   -4407.0966            0    2547.2024    17.882001    23.341817    22.079501    9215.9485    3031.4294    4051.7396    558.43809   -602.54356    148.16522   -27.963695   -3760.6361 
11524000    191.41214   -4376.5862   -4048.5123   -4376.5862            0    1494.2886    18.130734    23.384829     21.87987    9276.7173    1341.2922    1625.2066     1516.367    -179.2184    327.98191   -349.19914   -3846.3479 
11525000    191.63157   -4406.6666   -4078.2167   -4406.6666            0    2480.9588    17.794122    23.451293    22.075802    9212.1258    3056.0453    2206.7047    2180.1265   -273.04618   -165.20181   -298.81977   -3744.9013 
11526000     184.3436   -4376.4399   -4060.4813   -4376.4399            0    2112.3042    18.080507    23.354633     21.89429    9245.1618    2404.8861    2281.0868    1650.9399    385.45217    648.29479    -250.6771   -3775.6768 
11527000    178.27273   -4371.2654    -4065.712   -4371.2654            0    3542.0936     18.00935    23.201338    21.992842    9189.5115     3223.603    4324.9218    3077.7559   -598.09512   -697.65893    638.29372    -3591.002 
11528000    179.36825   -4405.0815   -4097.6504   -4405.0815            0    663.16761    18.074342    23.474912    21.976194    9324.3584    1568.4805    612.54454   -191.52219   -626.03669    159.07159   -214.63336   -4007.4688 
11529000    175.80636   -4410.9909   -4109.6648   -4410.9909            0    2320.7243    17.889885    23.461598    21.968504    9220.7364    2534.2969    3611.7941    816.08197   -164.91368   -84.881669   -131.51433   -3797.5854 
11530000     180.6291   -4380.3905   -4070.7984   -4380.3905            0    3044.7983    17.954226     23.22684    22.069283     9203.331    3004.3885    2335.0984    3794.9078   -871.70479   -549.83346    384.39933   -3662.1221 
11531000    182.46811   -4375.4822   -4062.7381   -4375.4822            0    2260.3129    17.999233    23.349689    22.006262    9248.7147    1921.6994    2046.7187    2812.5206   -525.59428   -36.448993    214.23832   -3757.8603 
11532000    181.31107   -4386.3784   -4075.6174   -4386.3784            0    1893.3135    17.891442    23.658203    21.984533    9305.5995    1723.6638    2205.7608     1750.516    53.932765    647.12406    535.47577   -3818.6709 
11533000    186.43178   -4403.9202   -4084.3825   -4403.9202            0    1525.7304     18.15711    23.214094    22.015473    9279.5406    12.380568    1175.8387     3388.972    570.11093    398.00279   -158.68054   -3877.9015 
11534000    174.19188   -4404.6524   -4106.0935   -4404.6524            0    1984.3295    17.976375    23.444969    21.939029    9246.3254    2627.0198    1547.1677     1778.801    529.32875    411.68986    590.43928   -3838.5103 
11535000      173.816   -4409.6081   -4111.6934   -4409.6081            0    1902.8266    18.036188    23.435524     21.85199    9236.5633    178.88505    2827.3698    2702.2249   -988.73632   -152.35699    253.33015   -3855.3716 
11536000    173.28278   -4395.9566   -4098.9559   -4395.9566            0    1636.4661     18.00229    23.092294    22.162147    9213.1191    1498.3292     2259.218     1151.851   -618.95562    345.43914    267.69774   -3879.0739 
11537000    184.57076   -4396.2759   -4079.9279   -4396.2759            0    1404.7095    17.968366    23.531029    21.863018    9243.9929    1624.5244    1287.5871    1302.0169    100.83746    175.46027   -275.37298   -3890.5532 
11538000    185.06754   -4400.2057   -4083.0063   -4400.2057            0    1672.6381    18.228758    23.172453    21.957277    9274.8645   -70.581736    1986.5292    3101.9668   -352.67306   -459.91569    122.14305    -3856.758 
11539000    184.11533   -4398.8203   -4083.2529   -4398.8203            0    2096.3628    17.838542    23.470876    22.105625    9255.3201    2486.3592    2343.4466    1459.2827   -235.70581    514.90265   -114.07867   -3800.2872 
11540000    181.48591   -4404.0693   -4093.0087   -4404.0693            0    1323.2794    17.991416    23.530707    21.935661    9286.4788    2676.0624    865.74857    428.02718    45.673502   -96.750529    277.33461    -3913.792 
11541000     187.4204   -4413.6073   -4092.3752   -4413.6073            0    2121.8198    17.988041    23.319979    22.005715    9230.9733    2716.3365    866.56573    2782.5573   -62.848053     420.1181    246.92245   -3806.7267 
11542000    180.18905   -4403.1585   -4094.3206   -4403.1585            0     1397.852    18.078764    23.617331    21.705357    9267.5828    558.43995    1016.7618    2618.3544    469.00536    201.40958    763.04913   -3905.3894 
11543000    179.30885   -4384.9847   -4077.6555   -4384.9847            0    928.76342     18.08308    23.336699    22.069069    9313.1338    417.39568    1124.8192    1244.0754   -42.797767    3.7511818    344.86376   -3951.5085 
11544000    193.68658   -4416.3842   -4084.4121   -4416.3842            0    2289.0764    17.842735    23.515746    22.030944    9243.8589    2626.2829    2161.1361    2079.8102   -1125.7416   -784.79498     435.0254   -3775.8166 
11545000    176.42343   -4420.1403   -4117.7566   -4420.1403            0    2335.3212    17.998894     23.29357    21.903123    9183.0706    2662.4658    2914.8482    1428.6495    572.75962   -667.88053    301.70207   -3804.9971 
11546000    188.19208   -4394.4235   -4071.8688   -4394.4235            0    2121.4827    17.915509    23.232618    22.175577    9230.0111    1810.2718    2370.1987    2183.9777   -143.99655   -184.14328    156.56962   -3786.2954 
11547000    179.43704   -4409.0778   -4101.5289   -4409.0778            0    1612.6416    18.073901    23.569274    21.753711    9266.8356    337.58926   -122.86244     4623.198    12.025503   -566.19622   -168.95787   -3883.5847 
11548000    184.99505   -4397.2358   -4080.1606   -4397.2358            0    2040.1815    18.108233    23.129575    22.127489    9267.7833    1301.8512    2418.0971    2400.5962    30.281219   -229.17914    234.18027   -3804.4074 
11549000     179.0097   -4384.2028   -4077.3863   -4384.2028            0    2073.6658    17.971457    23.459122    22.033358    9289.1452    2039.4128    2036.9288    2144.6556   -933.36826   -367.15427    48.556873   -3796.4613 
11550000    181.24586   -4405.2034   -4094.5542   -4405.2034            0    2571.9524    17.840255    23.421143    22.034544    9206.8958    2707.5084    2072.5195    2935.8294   -18.279847   -37.180668    264.81019   -3749.2101 
11551000    180.55598    -4380.078   -4070.6112    -4380.078            0    758.24481    18.167255    23.341375    21.956746    9310.7301    1382.4192    826.65666    65.658539     277.8728    530.12552   -247.83693   -3967.6511 
11552000    188.51136   -4416.4427   -4093.3407   -4416.4427            0     1172.504    17.982692    23.505046    22.063146    9325.7393    1822.3822    619.07823    1076.0516   -868.08329    25.341839    432.52523   -3933.8727 
11553000    178.24833   -4403.6828   -4098.1712   -4403.6828            0    2132.6061    17.836232    23.609872    22.025283    9275.0926    3479.6469    862.92124    2055.2502   -483.20681   -330.67575    173.07592   -3809.6985 
11554000    194.01238   -4405.4718   -4072.9412   -4405.4718            0     1463.366    18.139629    23.205514    21.996651    9259.2572    797.99375    1447.1093     2144.995    604.74757   -500.35464     45.50744    -3875.333 
11555000    179.74365   -4395.1215   -4087.0471   -4395.1215            0    1738.9867    17.762454    23.740752    21.971045     9265.058    2619.3951    1019.4676    1578.0975    -900.1117    49.461818   -490.79376   -3852.0728 
11556000    187.68788   -4385.8109   -4064.1203   -4385.8109            0    2050.3595    18.036321    23.352888     21.93508    9239.0601    2212.9647    982.09336    2956.0205   -141.23658   -202.12075    86.691693   -3787.8503 
11557000    193.39972    -4414.283   -4082.8025    -4414.283            0     2815.342    18.011487    23.434006    21.884401     9236.996    3987.4302     1500.774    2957.8218   -343.84672    -336.7597    578.25644   -3703.5419 
11558000     188.0544   -4412.5588     -4090.24   -4412.5588            0    1507.8471     17.84673    23.598484    22.042712    9283.4154    1989.2796      1796.82    737.44159    426.58868    320.12366   -71.151979    -3886.094 
11559000    190.11476   -4407.8431   -4081.9929   -4407.8431            0    2424.9649    18.114408    23.238815    21.940824    9236.1513    2429.8166     3379.048    1466.0302   -765.91251   -256.36531   -518.57078   -3755.3506 
11560000    176.94676   -4414.7058   -4111.4251   -4414.7058            0    1470.2083    17.754263    23.608363     22.06062    9246.6885    1671.6776    1528.0336    1210.9136   -180.76679   -330.70493    175.70831   -3913.1624 
11561000    177.00933   -4390.4083   -4087.0204   -4390.4083            0    2579.5171    18.174052    23.212102    21.864831     9223.853    1413.9545    2151.7947    4172.8021    -54.50035     238.6737    277.72025   -3740.0226 
11562000    184.71081   -4391.1075   -4074.5195   -4391.1075            0    1393.6893    17.893707    23.577348    21.978683    9272.5021    88.040982    1281.5944    2811.4327   -1522.7256   -22.255121    -155.3595    -3886.051 
11563000    187.21542   -4383.2095   -4062.3287   -4383.2095            0    2535.3543    17.941571    23.311444     22.07637    9233.3079    4051.9965    2049.0787    1504.9877    620.41292   -127.87602   -301.66625   -3720.9221 
11564000     191.5686   -4412.0906   -4083.7486   -4412.0906            0    1785.3117    18.028557    23.373706    21.990082    9266.4931     1204.852     2433.317    1717.7662   -457.84416   -462.12225    301.81276   -3842.4775 
11565000    175.98396   -4411.9479   -4110.3174   -4411.9479            0     2167.837    17.873802    23.488442    21.940665    9211.3002    1732.9823    2185.0502    2585.4785   -88.537002    570.54481    206.80189   -3819.0959 
11566000     193.0097   -4395.4449   -4064.6328   -4395.4449            0    2553.7253    18.038119    23.373788    21.929332    9245.8265    2442.3277    1356.1919    3862.6565   -255.06985    141.34044    25.490443   -3720.2862 
11567000    176.09177   -4414.5292   -4112.7139   -4414.5292            0    2260.2569    17.883239    23.324141    22.066104    9204.0188    1609.7344    2807.1874    2363.8489    257.59343    571.28599    563.63048   -3809.3169 
11568000    185.26326   -4404.6764   -4087.1415   -4404.6764            0    2270.3751    18.000122    23.328231    21.887611    9190.8487    2088.3695    1825.7576    2896.9983     819.4776   -142.47863   -133.64404   -3782.8224 
11569000    171.52206   -4414.5772   -4120.5942   -4414.5772            0    1531.8321    17.947106    23.377806    22.047784    9250.4553    1026.3883    470.73862    3098.3692   -150.01959    144.37262    260.19438   -3913.9372 
11570000    175.23988   -4385.1157   -4084.7606   -4385.1157            0    1665.1105    17.936544    23.375182    22.013892    9229.7644     1106.341    1998.4157    1890.5749    7.2794545   -812.86995    459.43066   -3860.6256 
11571000    187.90575   -4411.3044   -4089.2404   -4411.3044            0     1658.672    18.130459     23.11741    22.080928    9254.7628    2033.5931    2083.1157     859.3071     83.58344    -591.5325    263.01664   -3865.3674 
11572000    202.69326   -4387.3405   -4039.9312   -4387.3405            0    2967.2044    17.954932    23.452083    21.850769    9200.9338    2931.5705    1327.5568    4642.4859   -165.55014    106.50189   -364.49642   -3641.7734 
11573000    174.96515   -4408.9419   -4109.0576   -4408.9419            0    1559.7607    17.787404    23.397861    22.301652    9281.6621    2106.2954    1626.1245    946.86235    522.60296   -493.29212    407.50499   -3897.9229 
11574000    180.91885    -4403.652   -4093.5633    -4403.652            0    3069.3186    18.025338    23.355951    21.824466    9188.0763    2246.4853    2893.2249    4068.2456    308.49014   -119.25009    1038.7458   -3682.2787 
11575000    173.09373   -4389.8613   -4093.1846   -4389.8613            0    1321.6143    18.020629    23.411075     22.09394     9321.042    156.14234    2125.5453    1683.1551     -899.399   -238.60729    884.77208   -3913.5272 
11576000     178.8802   -4398.8877   -4092.2932   -4398.8877            0    2231.2455    17.972443    23.342451    22.066934    9257.5394    1671.8747    2723.3841    2298.4778   -626.11347    -388.1426   -193.22001   -3791.0489 
11577000    163.58003    -4380.001   -4099.6304    -4380.001            0    2230.4565    17.916483    23.311798    22.055878    9211.9774    2605.4827    2448.2401    1637.6468   -970.65715   -261.65242    297.96252   -3799.9747 
11578000    192.96533   -4387.4905   -4056.7545   -4387.4905            0    1887.0646    18.130862    23.209969    21.934151    9230.2582    487.98221    3308.4356    1864.7761    126.48016   -412.01995   -266.70665   -3802.7295 
11579000    184.41355   -4405.6271   -4089.5486   -4405.6271            0    2908.5898    17.893788    23.375619    21.908603    9163.8945    2264.7939    3748.9604    2712.0152   -486.99828    -589.2594    712.27711   -3700.8272 
11580000    192.03306   -4383.3892   -4054.2511   -4383.3892            0    3014.4936    18.138037    23.099813    21.966259     9203.539    3046.7254    2495.7744     3500.981   -223.96697    230.44896   -393.44847   -3649.6332 
11581000    183.04204   -4399.2812   -4085.5534   -4399.2812            0    2241.9606    17.941624    23.591541    21.882658    9262.2847    1666.3901    2716.9944    2342.4973   -202.64454    393.71189   -802.81613   -3782.7073 
11582000    177.14652   -4406.9324   -4103.3093   -4406.9324            0    3223.5359    17.879672    23.266844    22.065273    9179.2317    3122.1394    3920.4366    2628.0317    724.52586   -253.18027    365.15856   -3671.7756 
11583000    169.22471   -4394.4877   -4104.4423   -4394.4877            0       2234.4    18.128706    23.244202    21.939721    9245.1201    1222.1263    2027.9026    3453.1711    716.79583    159.78797     632.5887   -3803.1768 
11584000    182.18905   -4369.8377   -4057.5719   -4369.8377            0    2654.4333    17.795002    23.529463    21.921613    9178.7296    3603.2108    1924.0477    2436.0414   -280.10542   -321.18043     24.22167   -3702.2432 
11585000    191.52535   -4420.5584   -4092.2905   -4420.5584            0    2428.3847    18.072041    23.287021    21.951499    9238.1566    3041.1631    2063.7658    2180.2251   -208.19188    -322.7028    444.21115   -3765.1165 
11586000    184.36772   -4402.9502   -4086.9503   -4402.9502            0    1009.7375    17.909772    23.337271    22.225885    9289.6465    1496.8585    1361.4281    170.92601    100.98083    135.43786    280.53853   -3950.1511 
11587000    181.05673     -4411.93    -4101.605     -4411.93            0    2139.1802    17.895992    23.389842    22.010524    9213.2625    2895.3421    1473.6846    2048.5139   -186.71307    73.618232    289.48833   -3814.1719 
11588000     183.7966   -4385.4036   -4070.3825   -4385.4036            0    2550.5637    18.021942    23.409639    21.905901    9241.8184    2285.1673    2014.4541    3352.0696    471.05197   -68.984573   -835.21757   -3726.6113 
11589000    176.92624   -4414.2289   -4110.9834   -4414.2289            0    2359.1162    17.951919    23.274725    22.112806    9239.3049    3794.2304     1703.434    1579.6844    207.76512   -145.19622    99.935564   -3793.1024 
11590000    176.51864   -4389.5788   -4087.0319   -4389.5788            0    2002.5099    18.122621    23.524945    21.814675      9300.33    2785.3798    2404.0411    818.10896    282.66915    202.97443   -224.77772   -3815.4199 
11591000    176.85161   -4409.4249   -4106.3073   -4409.4249            0    1337.5708    18.098592    23.214953    22.082474    9278.1273    1589.4612    532.87397    1890.3773   -142.80902    222.33754   -833.38329   -3925.3179 
11592000    185.01091   -4390.1939   -4073.0915   -4390.1939            0    1723.1241    17.848437     23.78747    21.831246     9268.874     1661.094    806.15707    2702.1212   -774.35962    286.95674    309.70084   -3840.1648 
11593000    180.80096   -4418.4844   -4108.5978   -4418.4844            0    2572.3519    17.998461    23.240715    22.044831    9221.2887    3682.5226    2052.3716    1982.1615    198.62759   -116.22548   -51.924454   -3762.6601 
11594000    181.84452   -4403.9075   -4092.2322   -4403.9075            0    1655.9518    18.068793    23.439343    21.879185    9266.2863    503.31517    2151.6918    2312.8485   -669.10938    461.42706   -209.59612   -3868.4481 
11595000     181.2386   -4414.8825   -4104.2457   -4414.8825            0    1617.6537     18.01504    23.375529    22.028675    9276.5194    2050.3444    1718.9159    1083.7009    -290.5022    154.68421      146.793   -3885.3958 
11596000    189.82371   -4400.8992   -4075.5479   -4400.8992            0    1188.8622    18.017366    23.307037    22.163083    9306.9751    699.76495    1051.7545    1815.0672   -565.74384    91.040039    85.070458   -3914.1804 
11597000     183.5877   -4402.6551   -4087.9921   -4402.6551            0    2334.1187    17.989954    23.579405    21.813613    9253.1691     4105.346    1352.7833    1544.2268   -729.46087   -910.32366    53.468989   -3773.0075 
11598000    175.11371   -4414.4011   -4114.2622   -4414.4011            0    1699.1049    18.037331    23.258625    22.110787    9275.9954    1320.6265     1781.357    1995.3314    -441.7983    212.17755    80.218798   -3884.4058 
11599000    184.67814   -4397.1887   -4080.6567   -4397.1887            0    884.22144    17.952556    23.599957    21.900731     9278.892    1572.5589   -197.10622    1277.2116     1263.397   -107.81579   -178.78001   -3961.0011 
11600000    183.47922   -4419.0458   -4104.5687   -4419.0458            0    2281.1776    17.940657    23.340716    21.993977    9209.9291     2560.493    1480.5568    2802.4829   -605.76058    299.92388    220.29184   -3798.1669 
11601000    177.46358   -4417.4174   -4113.2509   -4417.4174            0    2391.3904    18.189371    23.195123    21.880961    9231.6799    2107.9619    3880.3896    1185.8198   -283.67718    -648.2235     127.4512   -3791.2871 
11602000    192.26595   -4402.1761   -4072.6388   -4402.1761            0    2182.9428    17.818694    23.423065    21.980776    9174.0819    2839.5651    2168.7708    1540.4923     402.0592     742.3452    133.05513   -3780.5729 
11603000    179.39272   -4388.9226   -4081.4496   -4388.9226            0    1385.0367    18.126307    23.174064    22.086501    9277.6599     186.1667    2048.9738    1919.9695    236.75931    -1123.965   -164.53082    -3894.047 
11604000    177.92892   -4393.9908   -4089.0267   -4393.9908            0    1877.0896    18.084096    23.379959    21.896749    9258.0643    1164.0072    1526.4709    2940.7907   -351.54005    473.63514    949.00056   -3835.5832 
11605000    190.78676   -4395.9744   -4068.9724   -4395.9744            0    2817.6356    17.804442    23.513174    21.976505     9200.221    3648.5761    3087.1589    1717.1718    489.38947   -46.039034    -140.8525   -3690.9139 
11606000    176.95231   -4409.4682    -4106.178   -4409.4682            0      2772.71    18.188408    23.135737    21.856201    9197.1376    1233.6698    3575.3192    3509.1409   -533.08981    103.06579   -116.72251   -3734.2721 
11607000    179.67549   -4414.3411   -4106.3834   -4414.3411            0    2054.7344    17.945748    23.396247    22.040056    9253.8073    1638.1245    2774.0829    1751.9958   -107.10876    479.11324    883.92544    -3829.082 
11608000    177.09934   -4391.8398   -4088.2976   -4391.8398            0    589.31073    18.071742    23.604851    21.827838     9311.336    966.12211    1209.5462   -407.73615    335.71522     267.2311   -498.51207   -4008.2714 
11609000    183.34868   -4406.1068   -4091.8534   -4406.1068            0    3208.3516    17.964492    23.284329    21.824708    9129.0819    2056.8966    4734.6558    2833.5026   -366.69779   -228.26345    676.72296   -3664.6989 
11610000    183.02996   -4415.5512   -4101.8442   -4415.5512            0    1018.4528    17.947472    23.414067    22.116956    9294.0607    836.99464    1325.3261    893.03755   -557.90153   -436.49912    544.73374   -3963.7986 
11611000    179.81272   -4387.9799   -4079.7871   -4387.9799            0    2555.4606    17.995288    23.380415    21.881706    9206.4502    3087.2193    1637.1141    2942.0486    680.74995    -368.1892   -548.24025    -3736.674 
11612000    180.41153    -4396.748   -4087.5288    -4396.748            0    1572.6139    18.111174    23.186165    22.097747    9279.4774    1362.4428    2274.1892    1081.2097   -1333.9354    3.2186784    761.81165   -3874.7044 
11613000    178.90364   -4399.1428   -4092.5081   -4399.1428            0    2576.7099    17.916993    23.621353    21.804368    9228.1233    2247.3565    2627.7265    2855.0468    -194.1061   -189.54092    393.53448   -3745.7274 
11614000    199.72125   -4401.1548   -4058.8394   -4401.1548            0    2932.6187     17.89198    23.121319    22.138298    9158.3076    5020.2735    2822.6036     954.9791   -280.00278   -921.79169    1024.9902   -3667.1456 
11615000    194.67316   -4406.1005   -4072.4373   -4406.1005            0    1161.3601    18.064884    23.430556    21.979685    9303.3477    711.98526    656.46129    2115.6337    420.17968    151.83437    138.83227   -3914.8643 
11616000    181.51448   -4414.3413   -4103.2317   -4414.3413            0    756.80207    17.944348    23.599923    22.011701    9321.6305    1442.8543    300.15333    527.39863   -478.55654   -843.07572    519.54689   -4000.3471 
11617000    177.35483   -4413.9316   -4109.9515   -4413.9316            0    1728.2028    18.035671    23.211933     22.01745    9217.4467    1561.6455    1237.4795    2385.4833   -361.38841    547.05485   -226.69507   -3877.6343 
11618000    178.95511   -4407.7972   -4101.0742   -4407.7972            0    1046.2997    18.061444     23.68639    21.682058      9275.81   -71.794014     1093.981    2116.7123   -505.62817    161.47329   -137.93879   -3959.5327 
11619000    180.09441   -4384.0056   -4075.3299   -4384.0056            0    3034.7962    17.914958    23.136864    22.158937    9184.7898    3560.1227    1852.9279     3691.338    164.02523   -153.01671    494.62446   -3668.8167 
11620000    175.19019   -4396.9205   -4096.6505   -4396.9205            0    2567.0175    17.951059    23.360235      21.9594    9208.4758    2293.7008    2443.3188    2964.0329   -182.95287   -104.83724     -367.223   -3751.9098 
11621000    182.43947   -4414.2419   -4101.5469   -4414.2419            0     2247.725    18.026915    23.325822    21.978797    9241.9217    2148.0937    1102.0641    3493.0171    824.02632     100.3524   -143.51334   -3798.5897 
11622000    186.25801   -4386.1727   -4066.9329   -4386.1727            0    1347.7954    17.976387    23.520197    21.978857      9292.84     896.9437     1481.813    1664.6294     371.7201    371.72054   -462.43483   -3884.2708 
11623000     174.1172   -4414.6368   -4116.2059   -4414.6368            0     610.3007    17.952057    23.552919    22.014497    9308.2433    1003.5224   -538.63361    1366.0133   -34.423868    124.49369    1067.0328   -4033.3569 
11624000    181.41252   -4382.7013   -4071.7665   -4382.7013            0     2430.243    18.088587    23.174889    22.000683    9222.7085     2017.946    2489.1817    2783.6014    310.07398   -438.09772   -511.27735   -3744.8897 
11625000    190.21298   -4387.0046   -4060.9861   -4387.0046            0    2415.0986    17.846969    23.575307    21.917119     9221.579    2897.3503     1861.806    2486.1395    762.18652   -234.59261    18.666376   -3736.1861 
11626000    189.17478   -4407.9762   -4083.7371   -4407.9762            0    3687.6473    17.906581    23.280508    21.979368    9162.6334    3822.6159    4928.6037    2311.7222   -648.09846    430.13429    466.42408   -3590.9656 
11627000    180.62692   -4390.8225   -4081.2341   -4390.8225            0    1582.6251     18.25502    23.423835    21.713813    9284.8825    847.44766    1282.1624    2618.2652   -1003.8815    98.634974    242.75176   -3866.9301 
11628000    185.53391   -4406.7667    -4088.768   -4406.7667            0    1544.7413    17.903555    23.400746    22.178779    9291.9444    382.46659    3526.4511    725.30631   -464.86072    -231.6362   -473.87995   -3879.4347 
11629000    187.83057   -4391.2368   -4069.3017   -4391.2368            0      1097.76    18.115887    23.296754     21.95083    9264.1583    791.25215    2189.6475    312.38025      681.104    124.90634    208.04592   -3920.9852 
11630000    185.69346    -4428.218   -4109.9458    -4428.218            0    2228.5708    17.852604    23.505951    22.038281    9248.1979    1954.7523      2132.91    2598.0501    647.81891   -792.81664    593.40094   -3809.3662 
11631000    183.59155   -4424.9097   -4110.2401   -4424.9097            0    2115.6051    18.013049    23.394561    21.915696    9235.4357    2350.9007    2293.0057    1702.9089    445.46162    828.62051     47.03383   -3825.2906 
11632000    191.38536    -4393.551   -4065.5231    -4393.551            0    1011.9904    18.235427    23.254627    21.975776    9319.0049     1798.155    1255.1947   -17.378456    -878.5508    185.11502   -443.39591   -3927.9853 
11633000    178.18239   -4407.5496    -4102.151   -4407.5496            0    1353.7706    17.890532     23.55911    22.106989    9317.7648    973.35852    821.84751    2266.1057   -356.78947   -12.195525     283.6432   -3918.1871 
11634000    175.47738   -4414.3949   -4113.6327   -4414.3949            0     1403.153    18.102601    23.358718    21.951176    9282.1323    619.65433    2171.8321    1417.9727   -329.64275    507.63016   -330.18309   -3923.6874 
11635000    174.71858    -4414.342   -4114.8804    -4414.342            0    2967.7856    17.864313    23.492473    21.969204    9219.9673      3322.64    2517.0799     3063.637    442.27352    -633.4148   -47.405422   -3715.8207 
11636000    191.48155   -4415.1156   -4086.9228   -4415.1156            0    2353.1579    18.049143    23.188551    22.153283    9271.8902    2478.9085    3498.7346    1081.8304   -426.55417    54.216302     28.70441   -3768.7264 
11637000     177.8371   -4409.3676   -4104.5609   -4409.3676            0     936.9636    17.975717    23.462429    22.043363     9296.876    1105.7563    876.00381     829.1307   -201.38373    435.57053   -58.371196   -3977.5223 
11638000    181.19108   -4401.1894   -4090.6341   -4401.1894            0    1026.4174    17.885167    23.522894    22.088414    9292.8366    1900.9618    707.23083    471.05944   -418.29936    -459.8196    363.37591   -3951.5273 
11639000    175.70403   -4427.3463   -4126.1956   -4427.3463            0    1944.5674    18.181266    23.256148    21.966385    9287.9635    1795.6769    3005.8495    1032.1759   -549.70743    527.38317   -582.44322   -3862.7934 
11640000    180.84662   -4403.3678   -4093.4029   -4403.3678            0    1784.2797    17.928538     23.43355    22.075499    9274.5639    2297.1721    1390.2797    1665.3874    279.39531    209.69083     127.2619   -3852.0612 
11641000    182.89296    -4426.495   -4113.0228    -4426.495            0    1721.7583    18.090384    23.399862    21.870447    9258.0335    1415.9072    1604.9337    2144.4341    183.06036    268.07986   -422.72007   -3880.5528 
11642000    179.78769    -4410.635   -4102.4851    -4410.635            0     2352.812    17.984285    23.370623    22.009719    9250.7719    1439.9356    2292.6381    3325.8621    498.66792   -135.19805  0.039613564   -3785.0601 
11643000    172.46187   -4398.9229   -4103.3291   -4398.9229            0    1892.6226    18.126214    23.416669    21.879167     9286.734    1182.5362    1281.8775    3213.4542   -41.378504    276.58918    559.77238   -3846.9971 
11644000    173.86201   -4394.5861   -4096.5925   -4394.5861            0    1226.9568    18.031672    23.387245    21.992171    9274.3432    1508.0766    995.16723    1177.6265   -335.67617   -237.65195   -276.47977   -3930.6383 
11645000    193.08124    -4402.022   -4071.0874    -4402.022            0    2087.1969    17.892806    23.509407    22.020922    9263.0847    3218.8441    2412.2906    630.45588    -655.8364    119.57069    625.10307   -3789.1225 
11646000    186.79469   -4419.5213   -4099.3615   -4419.5213            0    2114.2593    18.230568    23.051055    21.979879    9236.6888    1448.1053    2528.8279    2365.8447   -117.62029   -283.93911   -149.68383   -3814.5547 
11647000    173.32526   -4413.5059   -4116.4323   -4413.5059            0    1451.7258    17.910366    23.611846    21.969725    9290.9262    1258.5837    1630.9646    1465.6293    36.156752   -104.99573    128.10282   -3919.7254 
11648000    179.12547    -4421.404    -4114.389    -4421.404            0     2362.864    18.018352    23.327721     21.89423    9202.7378    2140.5675    3804.0332    1143.9913   -468.13298   -254.50881    225.45234   -3797.2632 
11649000    187.73756   -4383.8747    -4062.099   -4383.8747            0    2113.8202    18.043701    23.313274     21.95349    9234.9059    1271.0303    2827.8834     2242.547   -228.68348    206.05239     859.5607   -3777.4062 
11650000    178.59298   -4402.3438   -4096.2415   -4402.3438            0    3365.4344    17.961601    23.388038    21.936814    9215.3615    2315.2418    5116.5075     2664.554    1626.2877      100.573    473.32696   -3643.9386 
11651000    182.75322   -4388.3468   -4075.1141   -4388.3468            0    1563.7088    18.048693    23.395547    22.032325    9303.3487    603.65094    1719.4592    2368.0163     239.3008   -428.68182   -180.52979   -3862.9504 
11652000    169.64592   -4402.8523    -4112.085   -4402.8523            0     1929.985    17.866219    23.465083    22.093853    9262.4572    1384.9594    1525.3535    2879.6421    189.42889    667.85924    388.76688    -3851.376 
11653000     179.4329   -4394.3282   -4086.7863   -4394.3282            0    2248.9889    18.016736    23.501633    21.872795    9261.4386    2926.6382     1306.185    2514.1434   -570.14284    288.38148   -327.59633   -3783.0186 
11654000     179.4552    -4412.397   -4104.8169    -4412.397            0    2271.9354    18.038417    23.214368    22.024462    9222.7532    2413.3781    2483.7757    1918.6524     -82.2705   -198.22554    913.10151   -3799.2316 
11655000    177.15573    -4401.202   -4097.5632    -4401.202            0    509.63122    17.947799    23.581349    21.998667    9310.5684    698.53694   -1238.5239    2068.8806    -281.9951    186.92912    87.891881   -4028.3628 
11656000    173.17752   -4419.5644   -4122.7441   -4419.5644            0    2176.9421    18.006382    23.353111    21.942222    9226.8147    3079.9332    861.16553    2589.7275   -310.62437    781.76418    355.62262   -3829.8069 
11657000    184.27551   -4417.3419      -4101.5   -4417.3419            0    2316.3516    17.863201    23.380818     22.09505    9228.1359    1487.5626    1494.8329    3966.6593    383.06046    59.279429   -129.86744   -3789.7587 
11658000    183.70849   -4417.5815   -4102.7114   -4417.5815            0    2070.7771    18.005506    23.493268    21.846788    9241.3704    2179.7408    1389.6313    2642.9591    697.60226   -549.75571    373.89192   -3823.6206 
11659000    188.67691   -4419.9112   -4096.5255   -4419.9112            0    1647.3799    18.009126    23.156481    22.209429    9261.9536    2067.8518    2085.0868    789.20106    80.492754   -732.29637   0.19286961   -3874.0038 
11660000     188.5678    -4389.981   -4066.7822    -4389.981            0    2555.9167    17.978924    23.585386     21.75234    9223.8595    1617.7399    2425.0874    3624.9228    627.35919   -820.62105   -818.57276   -3722.9589 
11661000    183.70233   -4427.3634   -4112.5039   -4427.3634            0    1822.8313    18.013933    23.102117    22.176878    9229.1291    1467.8375    2608.3459    1392.3106   -308.57152    189.35638    83.709199   -3867.1556 
11662000    179.54919     -4406.44   -4098.6988     -4406.44            0    1264.5816    18.048682    23.456509    21.903339    9272.9771    1323.2871    600.53967    1869.9182     594.2765   -182.06691   -18.033731   -3927.6808 
11663000    186.97013    -4411.791   -4091.3306    -4411.791            0    2688.8487    17.895986    23.415379    21.950572    9198.1961    2759.2761    2437.6163    2869.6538    134.04991    131.53247    551.10659   -3730.6316 
11664000    177.94616   -4403.3456    -4098.352   -4403.3456            0    1673.0257    18.032725    23.251605    22.128075    9278.0761     2615.819    1125.7543    1277.5038    125.74058    218.61935   -203.23329   -3871.9728 
11665000    182.23143    -4406.756   -4094.4176    -4406.756            0    1182.0549    18.045356    23.596062    21.765349    9267.6714   -488.27695    1195.3223    2839.1194   -713.93244    -252.4212    431.18805   -3934.6517 
11666000    184.74029   -4393.9573   -4077.3188   -4393.9573            0    3048.9299    17.848448    23.391069    22.072197    9215.0162    3622.6269    3095.8979    2428.2648    711.17935    494.38457    428.68724   -3667.5683 
11667000    177.60063   -4415.7071   -4111.3057   -4415.7071            0    1420.9826    18.118225     23.37335    21.859456    9257.1218    647.18776    1754.4529    1861.3073   -1124.8598   -279.17182    322.40389   -3919.4651 
11668000    189.80401   -4386.5387   -4061.2212   -4386.5387            0    2093.8855    17.833272    23.364817    22.144546    9226.9929    1439.7919    2969.6519    1872.2127   -72.515589   -334.89234   -528.18086   -3779.4549 
11669000    198.72239   -4409.6194    -4069.016   -4409.6194            0    2229.4109    18.000004    23.442624    21.790327    9194.8055    825.27815    3164.0919    2698.8626   -967.47955    70.336754    31.476216   -3770.0591 
11670000    176.72858   -4394.0483   -4091.1416   -4394.0483            0    2852.9689    17.937299    23.379899    21.925774    9195.0608    3851.3972    2210.1779    2497.3318    239.08354    280.24983    68.383307   -3708.5569 
11671000    181.99133   -4405.1192   -4093.1923   -4405.1192            0    1963.4923    18.081852    23.361643    22.007954    9296.6385    1111.3414    3064.3963     1714.739   -133.49033   -84.122857    438.56842   -3826.9782 
11672000    180.69144    -4407.831    -4098.132    -4407.831            0    2024.9269    17.927228    23.589889    21.911047    9266.2105    2590.4742    330.92591    3153.3805   -357.46874    17.922737    115.43176   -3824.4871 
11673000    184.67608   -4413.0706   -4096.5422   -4413.0706            0    2695.6642    18.038913    23.149729    22.130019    9241.4064    3470.4627    2738.9467    1877.5834   -213.96381   -668.01919    525.02179   -3733.2301 
11674000    176.59815   -4407.3903   -4104.7071   -4407.3903            0     1438.536    18.147591    23.463978    21.794903    9280.5893    1319.8834    483.10973    2512.6148   -729.73295   -169.68014   -180.81237   -3910.0043 
11675000    178.19098   -4384.9872   -4079.5739   -4384.9872            0    2135.8277    17.906007     23.41138    22.029905    9235.0312    3087.7436    2384.8909    934.84865    55.026758    154.75488    250.96525   -3791.9133 
11676000    178.76629   -4404.9999   -4098.6006   -4404.9999            0    3052.8515    18.111944     23.29443    21.904188    9241.5395    3213.1839    2488.1003    3457.2704   -289.81784    -41.34406   -534.88737   -3687.1422 
11677000    184.58523   -4387.8596   -4071.4868   -4387.8596            0    1451.1794    17.966855    23.408309    22.111397    9299.4722    1612.4754    1698.5834    1042.4796    168.95883    517.60964    681.76044   -3874.6731 
11678000    183.88183   -4394.2176   -4079.0505   -4394.2176            0    2559.5367    17.904853    23.335614    22.102671    9234.9545    1607.1339    3859.7978    2211.6784    975.35301    223.05848   -249.07074   -3734.3261 
11679000    180.72973   -4406.4831   -4096.7185   -4406.4831            0    1881.1799    18.124476    23.416486    21.858051    9276.8093    1475.4732    283.77738    3884.2892    317.27319    309.61127    1116.7063   -3842.2085 
11680000       186.04   -4413.6927   -4094.8265   -4413.6927            0    3573.1656    17.748343    23.271513    22.186461    9163.6915    4820.2548    2665.5934    3233.6485    45.057787   -990.64978    278.69464   -3617.2977 
11681000    183.52307   -4398.4303   -4083.8781   -4398.4303            0    3065.1164     18.05061    23.423369    21.779278    9208.4112    2954.8245    3442.1504    2798.3743    52.282663   -117.05003    82.771871   -3672.2476 
11682000    188.73366   -4390.4338   -4066.9507   -4390.4338            0    1575.2491    17.931657    23.229236    22.316346    9295.6217    1770.7435     1972.982    982.02174   -404.90872    -214.4416    953.40313   -3853.3988 
11683000    176.11114    -4404.447   -4102.5986    -4404.447            0    1722.3645    18.056161     23.48566    21.876254     9276.863    2141.5676    1723.6467    1301.8792     659.1459   -889.83002   -620.26819   -3869.5738 
11684000    182.34838   -4419.8765   -4107.3376   -4419.8765            0    1507.1734    17.892614     23.20581    22.296039    9257.5963    2910.4709     1696.202   -85.152682   -356.98764   -413.56047    575.87159   -3903.8503 
11685000       184.76   -4387.5891   -4070.9168   -4387.5891            0    2906.7479    18.046627    23.383058    21.855136    9222.5465    2351.4865     1790.428    4578.3292    413.91402    211.73491   -243.01205   -3679.9552 
11686000    181.23233   -4388.2406   -4077.6146   -4388.2406            0    2619.5934    17.884044    23.478178    21.979784     9228.977    1949.8987    3596.9893    2311.8922    330.39067   -724.48162   -184.67339     -3725.03 
11687000    179.86718   -4409.2973   -4101.0111   -4409.2973            0    1832.4837    18.235701    23.241674    21.920661    9290.5946    1003.7481    2275.8705    2217.8326   -179.18229   -452.62493    299.93668    -3852.721 
11688000     179.5771   -4377.5124   -4069.7234   -4377.5124            0    1075.1902    18.045676    23.526985     21.99992    9340.2938    527.98277    1342.1293    1355.4587   -704.17175    473.69472   -123.13295   -3923.2625 
11689000     175.1031   -4410.9002   -4110.7795   -4410.9002            0    2903.0854    17.872903    23.376584    22.059813    9216.7532    2223.6065    3050.4127     3435.237     127.6051    559.27069   -69.139067   -3720.5558 
11690000    188.38133    -4382.064   -4059.1849    -4382.064            0    1889.9656    18.117338    23.174419    22.062433    9263.1059    2184.7112    1239.2127     2245.973   -112.30893   -292.94582   -57.061046   -3803.8639 
11691000     186.7126   -4403.3899   -4083.3709   -4403.3899            0    1861.7337    17.917968    23.546459    21.974345    9271.0792    1350.6347    1561.5189    2673.0474   -672.84053    64.146389     317.6284   -3831.6474 
11692000    183.57555   -4396.0329   -4081.3907   -4396.0329            0     2637.911     18.11278    23.265997    21.869575    9216.0989    3291.1014    1465.3887     3157.243   -189.94523    400.55501    285.63658   -3726.8361 
11693000    182.14173   -4396.9182   -4084.7335   -4396.9182            0    1815.6057    17.759268    23.508213    22.134393    9240.8582    3934.7206    701.97046    810.12606   -308.60715   -779.51761   -95.623666   -3840.0471 
11694000     185.9659   -4387.3839   -4068.6447   -4387.3839            0    2288.3065     17.99827    23.361289    21.917627    9215.5467    1763.6837    2278.8733    2822.3626    74.812169    474.87437   -389.72517   -3761.0979 
11695000    176.74208   -4394.5908   -4091.6609   -4394.5908            0    2868.6511    17.968587    23.235418    22.096496    9225.4556    3297.9252    3658.4059    1649.6222     566.7866    364.60182    483.48416   -3705.7017 
11696000    178.98892   -4397.0086   -4090.2277   -4397.0086            0    2124.0135    17.944501    23.491023    21.924165    9241.7964    959.85774    1957.0432    3455.1395   -1218.5862    426.07002    385.68836   -3803.9487 
11697000    179.43453   -4396.2923   -4088.7477   -4396.2923            0    1607.7785    18.121288    23.252824     21.96424    9255.0967    2085.4798    1287.0663    1450.7894    811.12664   -135.58337    400.53311    -3871.736 
11698000    190.38834   -4407.4991     -4081.18   -4407.4991            0    3040.7313    17.884571    23.299146    22.043933    9185.6017    3042.5986    2738.1199    3341.4753     832.3616    880.36357   -677.00788   -3673.8358 
11699000    184.19869   -4389.0034   -4073.2931   -4389.0034            0    2068.6944    17.917242    23.470851    21.936978    9225.2214    3076.0395    1340.7647    1789.2789    1645.5187   -19.297938   -52.663987   -3794.9702 
11700000    173.78768   -4389.6321   -4091.7659   -4389.6321            0    2906.8427    17.979218    23.066696    22.125036    9175.7202    2493.8123    3844.9308     2381.785    169.76696    38.821598   -72.789404   -3702.7767 
11701000    182.22479   -4397.6276   -4085.3006   -4397.6276            0    2782.5737    18.032353    23.439447     21.80001    9214.1747    1926.2099    2534.3355    3887.1755    359.19517   -810.34535   -41.724452   -3711.3803 
11702000     186.5249   -4403.5276   -4083.8303   -4403.5276            0    1776.4618    17.869879    23.356656    22.168277    9252.6091    1710.3666    1077.2775    2541.7413    338.97019    290.11486   -440.47336   -3844.1149 
11703000    178.15986    -4403.216   -4097.8561    -4403.216            0    2765.9443    18.130171    23.314851    21.748697    9193.2225    1565.4603    3417.7112    3314.6616    651.55295   -250.25064    560.97019   -3727.0156 
11704000    181.38378   -4413.7516    -4102.866   -4413.7516            0    2803.7159    17.885533    23.340982    22.024085    9194.3043      3122.82     2065.821    3222.5066   -174.15362    718.17807   -828.19059   -3726.9172 
11705000    176.18089   -4414.3829   -4112.4149   -4414.3829            0    2139.4321    18.112254    23.249828    21.937593     9238.069    1914.6466    1772.8131    2730.8366   -17.896475    -295.1081    -389.7456    -3824.174 
11706000    184.98222   -4423.3387   -4106.2855   -4423.3387            0    2068.9503    17.765972    23.559225    22.001525    9208.7938    2412.7111    1085.2113    2708.9287    718.56457   -39.078156   -314.73168   -3828.4238 
11707000    184.24654   -4408.5665   -4092.7743   -4408.5665            0    2812.8896    18.017041    23.149444    22.020437    9184.3825    3342.9389    3607.0408     1488.689    485.15919   -581.84314   -68.051779   -3716.0024 
11708000    183.22574   -4391.1789   -4077.1363   -4391.1789            0    464.27714    18.148983      23.3515    22.052806    9346.1108   -281.93432     754.4335    920.33223   -140.69038   -163.84792    730.00117   -4013.8537 
11709000    181.02678   -4401.1171   -4090.8434   -4401.1171            0    1720.0125    17.866026    23.465846    22.088046    9260.2236    1977.7204    2360.7318     821.5852   -58.846604    75.963064    604.29912   -3858.5542 
11710000    191.40578   -4399.6919   -4071.6289   -4399.6919            0    2953.1158     18.09167    23.316999    21.831576    9209.5073     2571.541    1676.3247    4611.4818    267.81695   -16.934787   -87.520013   -3674.9924 
11711000    178.35293   -4398.4188    -4092.728   -4398.4188            0    3873.7635    17.816621    23.301153    22.052599    9155.0887    4464.9519      3977.04    3179.2984   -690.42678    110.36452   -342.16977   -3575.5125 
11712000     182.7367    -4400.415   -4087.2105    -4400.415            0    2568.4213    18.021834    23.391352    21.852822     9212.168    3155.4722    1223.6854    3326.1063   -318.41786    434.61768   -277.81577   -3742.1431 
11713000    185.78271    -4398.288   -4079.8628    -4398.288            0    930.06036    18.048892    23.460378    21.978516    9306.4474   -337.16464    226.03657    2901.3092   -356.18949     328.6363   -358.25948   -3953.6304 
11714000    176.92651   -4398.7116   -4095.4656   -4398.7116            0    1717.2438    17.966271    23.236563     22.21476    9274.0934    2095.2297    1521.1302    1535.3716    785.77458    490.09824   -1037.1269    -3863.203 
11715000    170.59107   -4422.6617   -4130.2745   -4422.6617            0    1690.9518    18.112988    23.492747    21.786811    9270.8073    1000.2454    1500.4099    2572.2001   -388.09577   -215.41425   -403.02513    -3901.649 
11716000    179.55966   -4405.9965   -4098.2374   -4405.9965            0    1731.8158    17.968565    23.394019    22.143536    9308.1892    1793.9006    791.12391    2610.4229   -5.5458045    299.00227    417.75334   -3863.1428 
11717000    182.04286   -4425.6467   -4113.6315   -4425.6467            0     891.8275     18.15263    23.526293    21.701395    9267.8867    77.280291    1144.5373    1453.6649   -124.11297   -416.62122    1113.4018   -3993.0897 
11718000    185.09708   -4401.1265   -4083.8764   -4401.1265            0    1584.9988    17.937439    23.284436    22.240663    9289.1054    2667.8964    2372.5405    -285.4405    179.96223    -341.5757    154.04874   -3869.1534 
11719000    173.54776   -4376.5414   -4079.0865   -4376.5414            0    3021.2867    17.994272    23.352618    21.907795     9205.948    2776.7062    2626.0077    3661.1461   -104.34221   -2027.7699   -567.74242   -3673.4506 
11720000    174.57494    -4404.564   -4105.3485    -4404.564            0    2013.5765    17.906374    23.204937    22.219395    9232.5201    2650.5359    2193.8968    1196.2967    182.04938    376.64786   -239.98527   -3834.2268 
11721000    178.95602   -4399.9627   -4093.2382   -4399.9627            0    4139.5866    18.017138    23.399205    21.782275    9183.1174    5214.4634    3920.2759    3284.0206    818.17428   -283.84982    500.55285   -3538.8385 
11722000    180.90031   -4412.5794   -4102.5225   -4412.5794            0    2335.0261    17.924552    23.346947    21.984322    9200.0777     3791.045    1609.6227    1604.4105   -410.04055   -200.69181   -417.34245   -3789.2234 
11723000    176.23831    -4398.935   -4096.8685    -4398.935            0     1632.779     17.84117    23.447031    22.093885    9242.3686    1661.3251    2131.3247     1105.687    752.34216    133.46616    210.48509   -3876.7855 
11724000    184.58598   -4406.8433   -4090.4693   -4406.8433            0    2030.6939    18.133046     23.29626      21.8764    9241.2946    1687.2495    2890.1761    1514.6561   -401.87317    301.46403    -120.9406   -3816.7829 
11725000    182.30387   -4415.2945   -4102.8319   -4415.2945            0    3378.9734    17.837268    23.224137    22.161314    9180.4387    4972.3482    3144.2217    2020.3504    951.63764   -120.94578    334.61105   -3650.4303 
11726000    184.55207   -4408.7113   -4092.3954   -4408.7113            0    232.31662     18.05177    23.500933    21.969228     9320.081    452.77507   -193.96834    438.14312   -1395.7025    531.81464    391.90808    -4060.818 
11727000    190.42423   -4373.9224   -4047.5418   -4373.9224            0   -199.53428    18.090708    23.243616    22.342839     9395.018   -675.75443    2306.7139   -2229.5623   -640.21199   -795.98864    775.33849   -4074.8814 
11728000     186.5282   -4390.6004   -4070.8975   -4390.6004            0    1435.3762     17.96107    23.741218    21.792066    9292.5223    1104.1137   -276.33808    3478.3531   -72.146449   -352.88428   -154.72443   -3876.3725 
11729000    186.33683   -4391.8712   -4072.4962   -4391.8712            0       2508.8    18.021021    23.112497       22.136    9219.8829    2857.5394    1733.8055    2935.0552    568.14224    189.95361    218.46377   -3735.1566 
11730000    183.33308   -4380.3788   -4066.1522   -4380.3788            0    1628.7924    18.082131    23.443969    21.868475    9270.4166    1831.2081      1378.37     1676.799   -1087.2656    650.72137    44.735566   -3845.9403 
11731000    188.87309   -4403.6762   -4079.9542   -4403.6762            0    1794.8122    17.960733    23.414945    21.964295    9237.0749     861.1501    2793.1605    1730.1261    474.96644    335.62854    -419.9739   -3838.1692 
11732000    182.94538   -4400.0937   -4086.5316   -4400.0937            0    1671.8344     17.97582    23.353131    22.010382    9239.7753    2088.1434    2121.3068    806.05305     86.72605   -458.84737    -2.582858   -3861.2475 
11733000    173.07179   -4396.8256   -4100.1865   -4396.8256            0    2219.7327    18.017203    23.555091    21.768074    9238.3023     2148.069    2464.5036    2046.6255    198.10491   -65.002049   -1084.8573   -3801.1193 
11734000     188.8982   -4397.2043   -4073.4392   -4397.2043            0    2332.0109    17.868232    23.202323    22.273034    9234.0544    2499.0938    3404.3173    1092.6217    340.43529     509.7825     54.77942   -3759.3892 
11735000    180.92351   -4414.6873   -4104.5906   -4414.6873            0    2320.7524     18.05566      23.4815    21.754209    9223.2187    1372.2393    1319.3641    4270.6539   -518.60103    191.24809     91.07775   -3792.4234 
11736000    184.78712    -4411.839   -4095.1202    -4411.839            0    2524.9792     17.96582     23.21075    22.136011    9230.7199    2608.0253    3277.1486    1689.7636   -69.710234   -375.71665     81.70291   -3755.2061 
11737000    183.11663   -4409.8551   -4095.9995   -4409.8551            0    1369.0837    18.031523    23.489372     21.98222    9310.5506    2007.9146    1436.5713     662.7653    139.03082   -480.41744    579.44013   -3910.0987 
11738000    185.53874   -4400.0642   -4082.0572   -4400.0642            0    2505.1372    17.916342    23.481644    21.955579    9236.8252    2805.3074    2168.2348    2541.8695   -450.38228    383.63606    5.7362132   -3744.5911 
11739000    178.51276   -4390.8694   -4084.9046   -4390.8694            0     1938.489    18.095372    23.185883    22.064025    9257.1203    2412.3568    1731.3861    1671.7242    -22.78105    217.35729   -67.244475   -3823.1977 
11740000     184.2488   -4403.5722   -4087.7761   -4403.5722            0    2162.7975    17.888332    23.474315    21.934797    9210.7794     3120.015    2097.0418    1271.3356   -104.13267    620.14867    246.15497    -3797.248 
11741000      174.935   -4410.3182   -4110.4856   -4410.3182            0    2333.7345    17.985489    23.313152    22.046319    9243.9874    978.08089    2882.3243    3140.7985   -326.89818   -197.52024    613.11324   -3795.8653 
11742000    188.54543   -4414.6769   -4091.5165   -4414.6769            0    2222.4103     18.09001    23.377125    21.869975    9248.6468    2453.9178    1826.4718    2386.8412   -597.46978   -245.21499   -725.65003   -3791.7533 
11743000    190.45086   -4395.7317   -4069.3055   -4395.7317            0    2108.9408    17.788544     23.58428    22.015684    9236.2401     3381.651    1444.2407    1500.9306   -1288.9366   -1114.0086    579.60366   -3785.2288 
11744000    182.85834   -4393.1777   -4079.7648   -4393.1777            0     1316.384    18.078797    23.276037    22.085087    9293.4654    1262.4553    2200.0481    486.64848    -511.6392    467.71887    236.66387   -3901.3478 
11745000    190.04097   -4397.5807    -4071.857   -4397.5807            0    1585.4362    17.879255    23.660547     21.99952    9306.5219    1597.1412    985.26441    2173.9029   -248.09863    -403.2533   -139.23942    -3856.672 
11746000    174.89818   -4387.0984   -4087.3289   -4387.0984            0     2896.146     17.99845    23.212567    21.954702      9172.46    2897.0279    2909.0243     2882.386   -37.178314    30.625105   -629.01801   -3699.9088 
11747000    180.66215   -4407.5061   -4097.8574   -4407.5061            0    3084.2676    18.000054    23.275396    21.920201    9183.6519    1822.0641    3995.2955    3435.4431    832.18082    150.05842    401.45783   -3684.7686 
11748000    185.02748   -4384.8798    -4067.749   -4384.8798            0    2510.3687     17.75858    23.560547    22.031863    9218.1726    2687.0021    3490.3865    1353.7176   -1.9532147   -250.56006   -585.93603   -3730.2611 
11749000    171.11129   -4399.1772   -4105.8983   -4399.1772            0     2305.819    18.129565    23.162143    21.984491    9231.7184    773.79908    2822.3164    3321.3414   -560.67245   -467.70936   -548.69633   -3795.4541 
11750000    202.43815    -4407.659    -4060.687    -4407.659            0    1602.8618    17.960118    23.396884    22.038234    9260.7039    1763.0756    523.35234    2522.1574    555.75505   -92.386413    141.81271   -3844.2079 
Loop time of 413.997 on 64 procs for 250000 steps with 864 atoms

Performance: 104.349 ns/day, 0.230 hours/ns, 603.869 timesteps/s
194.9% CPU use with 32 MPI tasks x 2 OpenMP threads

MPI task timing breakdown:
Section |  min time  |  avg time  |  max time  |%varavg| %total
---------------------------------------------------------------
Pair    | 17.526     | 25.559     | 35.433     |  97.9 |  6.17
Bond    | 0.79339    | 1.0856     | 2.2007     |  25.0 |  0.26
Kspace  | 210.48     | 224.33     | 235.24     |  39.8 | 54.19
Neigh   | 1.0585     | 1.1917     | 1.3367     |   8.7 |  0.29
Comm    | 62.55      | 68.687     | 74.99      |  38.7 | 16.59
Output  | 0.83606    | 0.83647    | 0.83831    |   0.0 |  0.20
Modify  | 72.385     | 74.923     | 79.024     |  23.2 | 18.10
Other   |            | 17.38      |            |       |  4.20

Nlocal:        27.0000 ave          40 max          18 min
Histogram: 6 4 5 2 2 4 1 5 2 1
Nghost:        2126.16 ave        2240 max        2026 min
Histogram: 10 2 4 0 0 0 1 5 7 3
Neighs:        6565.28 ave        9806 max        4264 min
Histogram: 6 2 5 4 2 4 2 4 2 1

Total # of neighbors = 210089
Ave neighs/atom = 243.15856
Ave special neighs/atom = 2.0000000
Neighbor list builds = 3866
Dangerous builds = 0

unfix		3
unfix		2
unfix		1

write_data	data.final.${pid} nocoeff
write_data	data.final.1 nocoeff
System init for write_data ...
PPPM initialization ...
  extracting TIP4P info from pair style
  using 12-bit tables for long-range coulomb (../kspace.cpp:340)
  G vector (1/distance) = 0.37170135
  grid = 24 27 25
  stencil order = 5
  estimated absolute RMS force accuracy = 0.0031612833
  estimated relative force accuracy = 9.5201107e-06
  using double precision FFTW3
  3d grid and FFT values/proc = 4410 672
Last active /omp style is kspace_style pppm/tip4p/omp

write_restart   restart.lmp.${pid}
write_restart   restart.lmp.1
System init for write_restart ...
PPPM initialization ...
  extracting TIP4P info from pair style
  using 12-bit tables for long-range coulomb (../kspace.cpp:340)
  G vector (1/distance) = 0.37170135
  grid = 24 27 25
  stencil order = 5
  estimated absolute RMS force accuracy = 0.0031612833
  estimated relative force accuracy = 9.5201107e-06
  using double precision FFTW3
  3d grid and FFT values/proc = 4410 672
Last active /omp style is kspace_style pppm/tip4p/omp
Total wall time: 0:06:54
