LAMMPS (30 Jul 2021)
Processor partition = 1
  using 4 OpenMP thread(s) per MPI task
using multi-threaded neighbor list subroutines
variable        pid world 0 1
variable        phase world IceII IceIh

shell cd ${phase}
shell cd IceIh
include Restart.lmp
echo both
log log.lammps
#include		in.partitions
include		in.temp
variable        temperature equal 80.10
variable	tempDamp equal 100.0
include		in.pressure
variable        pressure equal 2029.7
variable        pressureDamp equal 1000.0 # This is 1 ps
include		in.seed
variable        seed equal 745823

units		real
atom_style	full
#include		in.box
read_restart	restart.lmp.${pid}
read_restart	restart.lmp.1
Reading restart file ...
  restart file = 30 Jul 2021, LAMMPS = 30 Jul 2021
  restoring atom style full from restart
  orthogonal box = (0.12525149 0.18536180 0.14298831) to (18.082321 23.443816 22.070207)
  2 by 4 by 2 MPI processor grid
  restoring pair style lj/cut/tip4p/long/omp from restart
  restoring bond style harmonic/omp from restart
  restoring angle style harmonic/omp from restart
  864 atoms
  576 bonds
  288 angles
Finding 1-2 1-3 1-4 neighbors ...
  special bond factors lj:    0        0        0       
  special bond factors coul:  0        0        0       
     2 = max # of 1-2 neighbors
     1 = max # of 1-3 neighbors
     1 = max # of 1-4 neighbors
     2 = max # of special neighbors
  special bonds CPU = 0.001 seconds
  read_restart CPU = 0.005 seconds
include 	in.setup
variable	out_freq equal 1000
variable	out_freq2 equal 10000
variable	out_freq3 equal 1000

timestep	2.0

neigh_modify    delay 7 every 1

include		in.tip4p
# This is TIP4P/Ice

# create groups ###
group ox type 2
288 atoms in group ox
group hy type 1
576 atoms in group hy

# set charges - beside manually ###
set group ox charge -1.1794
Setting atom values ...
  288 settings made for charge
set group hy charge 0.5897
Setting atom values ...
  576 settings made for charge

# ### TIP3P Potential Parameters ###
pair_style lj/cut/tip4p/long/omp 2 1 1 1 0.1577 8.5
pair_coeff 1 1*2 0.000 0.000
pair_coeff 2 2 0.21084 3.1668
bond_style  harmonic
bond_coeff  1 450 0.9572
angle_style harmonic
angle_coeff 1 55 104.52
kspace_style pppm/tip4p/omp 1.0e-5
pair_modify tail yes

thermo          ${out_freq}
thermo          1000
thermo_style    custom step temp pe etotal epair emol press lx ly lz vol pxx pyy pzz pxy pxz pyz enthalpy

restart 	${out_freq3} restart.lmp.${pid} restart2.lmp.${pid}
restart 	1000 restart.lmp.${pid} restart2.lmp.${pid}
restart 	1000 restart.lmp.1 restart2.lmp.${pid}
restart 	1000 restart.lmp.1 restart2.lmp.1


include         in.dump
dump            myDump all atom ${out_freq2} dump.water.${pid}
dump            myDump all atom 10000 dump.water.${pid}
dump            myDump all atom 10000 dump.water.1
dump            myDump2 all dcd ${out_freq2} dump.dcd
dump            myDump2 all dcd 10000 dump.dcd
dump_modify     myDump append yes
dump_modify     myDump2 append yes


variable natoms 	equal  "count(all)"                        # NUMBER ATOMS
variable H      	equal  "enthalpy/v_natoms"                 # ENTHALPY-per-atom
variable Vol      	equal  "vol/v_natoms"                 # volume-per-atom
fix AVG all 		ave/time ${out_freq} 1 ${out_freq} v_Vol v_H file vol_enthalpy.dat
fix AVG all 		ave/time 1000 1 ${out_freq} v_Vol v_H file vol_enthalpy.dat
fix AVG all 		ave/time 1000 1 1000 v_Vol v_H file vol_enthalpy.dat


timer           timeout 23:50:00 every 1000
New timer settings: style=normal  mode=nosync  timeout=23:50:00

fix 		1 all shake 1e-6 200 0 b 1 a 1
Finding SHAKE clusters ...
       0 = # of size 2 clusters
       0 = # of size 3 clusters
       0 = # of size 4 clusters
     288 = # of frozen angles
  find clusters CPU = 0.000 seconds
fix             2 all nph aniso ${pressure} ${pressure} ${pressureDamp}
fix             2 all nph aniso 2029.7 ${pressure} ${pressureDamp}
fix             2 all nph aniso 2029.7 2029.7 ${pressureDamp}
fix             2 all nph aniso 2029.7 2029.7 1000
fix             3 all temp/csvr ${temperature} ${temperature} ${tempDamp} ${seed}
fix             3 all temp/csvr 80.1 ${temperature} ${tempDamp} ${seed}
fix             3 all temp/csvr 80.1 80.1 ${tempDamp} ${seed}
fix             3 all temp/csvr 80.1 80.1 100 ${seed}
fix             3 all temp/csvr 80.1 80.1 100 745823


run             250000
PPPM initialization ...
  extracting TIP4P info from pair style
  using 12-bit tables for long-range coulomb (../kspace.cpp:340)
  G vector (1/distance) = 0.37207017
  grid = 24 27 25
  stencil order = 5
  estimated absolute RMS force accuracy = 0.0031163128
  estimated relative force accuracy = 9.3846835e-06
  using double precision FFTW3
  3d grid and FFT values/proc = 6300 1296
Last active /omp style is kspace_style pppm/tip4p/omp
Neighbor list info ...
  update every 1 steps, delay 7 steps, check yes
  max neighbors/atom: 2000, page size: 100000
  master list distance cutoff = 10.8154
  ghost atom cutoff = 10.8154
  binsize = 5.4077, bins = 4 5 5
  1 neighbor lists, perpetual/occasional/extra = 1 0 0
  (1) pair lj/cut/tip4p/long/omp, perpetual
      attributes: half, newton on, omp
      pair build: half/bin/newton/omp
      stencil: half/bin/3d
      bin: standard
Setting up Verlet run ...
  Unit style    : real
  Current step  : 32000000
  Time step     : 2
  Walltime left : 23:49:59.97
Per MPI rank memory allocation (min/avg/max) = 12.26 | 12.29 | 12.31 Mbytes
Step Temp PotEng TotEng E_pair E_mol Press Lx Ly Lz Volume Pxx Pyy Pzz Pxy Pxz Pyz Enthalpy 
32000000    84.264738   -4582.8913   -4438.4645   -4582.8913            0    1881.4723    17.957069    23.258454    21.927219    9157.9837    2160.2568     2175.769     1308.391   -216.66174   -87.212399    167.70448   -4187.1754 
32001000    80.910113   -4597.3642   -4458.6871   -4597.3642            0    2916.6939    17.942943    23.231917    21.897558    9127.9743    3095.1119    2256.3309    3398.6389    421.14243     185.2893    48.508398   -4070.4105 
32002000    81.052602   -4601.2165   -4462.2951   -4601.2165            0    1117.2387     17.98333    23.246482    22.014394    9203.0986    1006.3339    1227.2276    1118.1545   -272.66677   -335.42001    18.241489   -4312.3418 
32003000    86.011579    -4612.159   -4464.7381    -4612.159            0     1478.417    17.899137    23.338654     21.99676    9188.9654    757.18045    1137.9014    2540.1691   -472.68093    104.01273    49.477068    -4266.613 
32004000    74.177722   -4599.6501   -4472.5121   -4599.6501            0    1070.7368    17.930593    23.343094     21.94726    9186.1466    1240.7417    894.08345    1077.3853   -58.146539     168.6379    493.50676   -4329.0649 
32005000    82.383721   -4596.2009    -4454.998   -4596.2009            0    3078.4005    17.788749    23.354118    21.872267    9086.6269     3232.161    2303.1655    3699.8751    207.32483    448.87941    435.10257    -4047.051 
32006000     85.17507   -4602.9087   -4456.9216   -4602.9087            0    1461.7548    17.939096     23.35899    21.928328     9188.828    1540.5124    1157.7762    1686.9757    350.89691    61.328354   -93.318176   -4261.0323 
32007000    83.698016   -4604.6869   -4461.2313   -4604.6869            0    1749.7007    18.015029    23.174781    21.958846     9167.694    1024.0076    2720.0236    1505.0709    250.71243   -263.55298    16.909705   -4227.2939 
32008000    78.507216   -4590.5062   -4455.9475   -4590.5062            0    1652.1203    18.002688    23.126567    22.061606    9185.1373    1304.9257    2291.8955    1359.5397    133.48534    -303.0751   -166.67424   -4234.6364 
32009000    84.432811   -4594.3877   -4449.6728   -4594.3877            0    2090.7158    17.950363    23.245247    21.922211    9147.2756    2513.8059    1641.9888    2116.3526    189.37055    75.471268    319.07407   -4170.7637 
32010000    82.547426    -4600.487   -4459.0035    -4600.487            0     1646.584    18.012163    23.232454    21.940509    9181.3735    1510.7339    2291.6154    1137.4029   -89.132275   -183.97836   -411.49573   -4238.5244 
32011000     81.92622   -4600.4097    -4459.991   -4600.4097            0    2130.6653    17.873623    23.167549    22.043606    9127.9932     2150.392    2687.5872    1554.0168    364.60365   -233.24568    377.18797   -4176.3517 
32012000    81.212163   -4587.6824   -4448.4876   -4587.6824            0    1228.7085    17.965492    23.411146    21.827757    9180.5963    1431.5568    867.57508    1386.9937   -136.90481    -221.1716   -25.169985   -4283.9763 
32013000    80.527111    -4589.344   -4451.3233    -4589.344            0     2047.764     17.97141    23.259191    21.883317    9147.2366    899.43273    2348.1724    2895.6869    -186.3369   -156.21777   -44.078888   -4178.1453 
32014000    78.573339   -4599.2434   -4464.5714   -4599.2434            0    1833.6376    17.922585    23.262159    21.938701    9146.6399    1995.5316    1052.4648    2452.9165    252.48742   -78.485491    40.604602   -4219.9745 
32015000    78.750048   -4596.8497   -4461.8748   -4596.8497            0    2033.4579     17.88948    23.280385    22.021207    9171.2594    2497.2405    2414.8601    1188.2729   -108.33948   -144.95738   -268.44991   -4189.8929 
32016000    81.296191   -4596.7639    -4457.425   -4596.7639            0    2089.4401    17.860696    23.261203    22.000205    9140.2332    2432.7695    1890.2471    1945.3038    -143.7646   -37.160221    81.776846   -4178.9007 
32017000     83.82351   -4602.8067    -4459.136   -4602.8067            0    1826.9753    17.928926    23.140809    22.058125    9151.6922     1804.588    2260.3126    1416.0255   -132.97861    188.35957    24.066735   -4215.2932 
32018000    75.439609   -4597.9794   -4468.6785   -4597.9794            0    2039.7628    18.011784    23.345252    21.770776    9154.3855    2068.9194    1698.1256    2352.2435    248.73904    295.33949    45.069603   -4196.3552 
32019000    79.578079   -4597.5797   -4461.1856   -4597.5797            0    1551.2679    17.965106    23.313883    21.879174    9163.7939    988.48102    2422.7335    1242.5893   -6.5826102   -236.08256    431.22779   -4253.8672 
32020000    75.288475   -4595.2766   -4466.2348   -4595.2766            0    2547.2708    17.981538     23.24188    21.872492    9141.0557    2669.8462    2124.0746    2847.8917    200.41447     -376.682    147.47435   -4126.6506 
32021000    81.512825   -4605.8407   -4466.1305   -4605.8407            0    2381.2531    17.882765    23.237267    21.994086    9139.5676    2731.3768    2546.6289    1865.7538   -275.56941    86.989687    306.69673   -4148.7304 
32022000    80.403183   -4589.5097   -4451.7014   -4589.5097            0    2724.3877    17.745339    23.287444    22.088968    9128.1246    3070.5117    2978.9893    2123.6622   -319.34186   -268.63334    64.380245   -4089.0191 
32023000    75.983741   -4595.5764   -4465.3429   -4595.5764            0    1955.0895    17.972424    23.162908    21.974778    9147.9597    1567.2383     2695.041    1602.9893   -28.102346     133.2915   -148.36436   -4204.5073 
32024000    85.690946   -4590.3863   -4443.5149   -4590.3863            0    2117.4155    17.924634    23.279065    21.917632    9145.5423    1593.4563    1887.2848    2871.5054   -20.126205    151.72053   -143.19464   -4161.0975 
32025000    80.801382   -4596.3763   -4457.8855   -4596.3763            0    2212.5267    18.015915    23.222551    21.851025    9141.9333    1980.7369    1760.6884    2896.1546    333.25122   -70.618071   -502.96473   -4162.8988 
32026000     84.37018   -4593.7706   -4449.1629   -4593.7706            0    1950.5869    17.980415    23.317323    21.795727    9137.9708    1087.1583    2463.0943    2301.5081   -386.73487    30.526139    327.16921   -4189.2123 
32027000    79.312409    -4590.708   -4454.7692    -4590.708            0    2653.3684    17.944021    23.225286     21.94403    9145.2847    2389.9895    3054.3449    2515.7708    -1084.167    313.38019    240.86436   -4100.8773 
32028000    76.350808   -4594.2169   -4463.3542   -4594.2169            0    2511.8579    17.942553    23.269768    21.886347    9137.9671    2398.2947    2890.1707    2247.1082   -439.53539   -26.475803    177.08658   -4128.6042 
32029000     78.87855   -4605.6082    -4470.413   -4605.6082            0    2210.1113    17.820363    23.219652      22.0874    9139.3821      2507.07    2361.7681    1761.4957    283.15475    36.116855    -418.2533   -4175.8306 
32030000    81.227672   -4591.4362   -4452.2147   -4591.4362            0    2057.5956    17.897522    23.389506    21.852742    9147.8677    2027.1994    2212.1741    1933.4132    496.67379   -244.23659   -162.41334   -4177.7063 
32031000    82.519878   -4592.9781   -4451.5419   -4592.9781            0    1845.4653    17.917034    23.287012    21.961099    9162.9211      1859.46    2488.3451    1188.5908   -450.65642   -89.058689    840.76987    -4204.929 
32032000    83.213323   -4596.7479   -4454.1231   -4596.7479            0    2509.3344     17.89635    23.397693    21.834321    9142.7576    2496.9503    2598.7817    2432.2713   -345.62634     346.2071    353.02678   -4119.5341 
32033000    79.670917   -4594.3898   -4457.8366   -4594.3898            0    2152.2721    17.998546    23.292626    21.773404    9128.1381    1451.3615    2267.9987    2737.4562    -397.7361   -131.12117   -185.96546   -4171.3164 
32034000     79.64409   -4603.8409   -4467.3337   -4603.8409            0    2774.1791    17.900569    23.403655    21.742262    9108.6758    2578.0982    2427.8979    3316.5413   -210.27399    57.725489    36.716827   -4098.8098 
32035000    76.643656   -4602.7417    -4471.377   -4602.7417            0    2130.5713    17.977574    23.253035    21.897955    9154.0713    2110.8114    2260.1366    2020.7658    -379.0073   -134.42704    448.11365   -4186.9399 
32036000    80.795687   -4603.6285   -4465.1475   -4603.6285            0     2025.978    17.782663    23.304346    22.044526    9135.5455    2199.8911    1688.1201    2189.9227    578.67672   -110.91149    7.3928523   -4195.2212 
32037000    83.888035   -4601.3567   -4457.5755   -4601.3567            0    2147.1597    17.941889    23.262533    21.932447    9154.0283    2323.5687    1782.3248    2335.5856    129.67763   -183.03861    365.00989   -4170.9251 
32038000    79.541723    -4597.626   -4461.2942    -4597.626            0    1857.1607    17.820535    23.496183    21.888397    9164.9906    3187.6608    1035.5163    1348.3051    349.59121   -94.660106   -64.044825   -4213.0624 
32039000    80.704144   -4595.5841     -4457.26   -4595.5841            0    3339.6606    17.822468    23.340735    21.866575    9096.2656    3082.5292    3176.7549    3759.6977    723.51121   -33.525275    169.20165   -4014.2216 
32040000    81.650586   -4601.5379   -4461.5916   -4601.5379            0    2295.7114    17.848893    23.403838    21.907471    9151.4651    2090.6091    2077.5361    2718.9889   -42.536601   -87.068888    233.86051   -4155.1951 
32041000    79.172075   -4596.9877   -4461.2895   -4596.9877            0    2373.3331    17.831366    23.266347    22.011763    9132.0364    2715.1703     3353.492    1051.3372    519.67925    19.563436    63.052256   -4145.2057 
32042000    78.521738    -4597.357   -4462.7735    -4597.357            0    1706.9477    17.988798    23.269327    21.907834    9170.3394    1443.1694    2102.0445    1575.6294   -306.88811    122.34487    448.84847   -4234.4863 
32043000    77.776513   -4590.9744   -4457.6681   -4590.9744            0    2220.7447    17.931716    23.254799    21.945034     9151.045    2766.5708    2083.6792    1811.9841    428.99649    285.44183    284.06013   -4161.2907 
32044000    83.251843   -4600.9403   -4458.2495   -4600.9403            0    1900.0065    17.943681    23.324101    21.903328    9166.9859    2716.3076     923.8001    2059.9119    272.36216   -38.440338    185.77804   -4204.2355 
32045000    75.673878   -4605.1985   -4475.4961   -4605.1985            0    1832.0119    17.955788    23.326899    21.901824    9173.6417    1117.8545    2178.4565    2199.7246   -51.602065   -3.2883682     255.3809   -4230.3946 
32046000    82.437794   -4599.3339   -4458.0384   -4599.3339            0    1834.4821    17.869524    23.353275    21.987948    9175.8321    1889.5908    2301.0348    1312.8208   -522.61039    374.01276   -57.819367   -4212.5478 
32047000    75.191863   -4594.3254   -4465.4491   -4594.3254            0    2081.2803    17.933166     23.28758     21.93242     9159.418     2288.019    2130.8702    1824.9518  -0.93183534    387.82816   -196.79228   -4187.4302 
32048000    82.450861   -4599.3004   -4457.9824   -4599.3004            0    2215.9995    17.801364    23.402223    21.997735     9164.069    2486.6413    1550.7106    2610.6466    609.69175    665.35464    326.25195   -4161.8173 
32049000    80.255992   -4594.8445   -4457.2885   -4594.8445            0    1475.8944    18.058461      23.2506    21.874373    9184.3942    1417.2513    1652.4872    1357.9446   -748.84259   -270.75615   -455.54423   -4259.5999 
32050000    79.236552   -4602.0578    -4466.249   -4602.0578            0    1943.4939    17.989036    23.240284    21.915154    9162.0751    2219.6876     1263.363    2347.4311    44.760654   -252.12991   -261.03649   -4206.5604 
32051000    79.342741   -4588.9231   -4452.9324   -4588.9231            0    1480.8539    18.081489    23.164631     21.95961    9197.8054    1397.4861    491.08622    2553.9893   -561.44332    381.73989    321.48229   -4254.2898 
32052000     77.49373   -4593.0021   -4460.1805   -4593.0021            0    2591.9232    18.094445    23.055095    21.879616    9127.5007    2828.5581    2930.9625     2016.249   -115.44379   -691.30748    198.46644    -4115.156 
32053000     76.29431    -4596.865   -4466.0991    -4596.865            0    2288.6137    17.930358    23.247473    21.938816    9144.8775    2215.0481    2754.4289    1896.3642    365.91224   -30.365302     77.07974   -4160.8698 
32054000    82.253939   -4596.8795   -4455.8991   -4596.8795            0    2034.0907    17.949131    23.249579    21.955398    9162.2011    2715.8773    1518.7713    1867.6234    -850.4303   -170.06055    17.633122   -4184.1012 
32055000    81.845876   -4601.1848   -4460.9037   -4601.1848            0    1982.0175    17.937139    23.179752    21.984016    9140.4792    1864.1065    2674.0577    1407.8883   -66.980798    76.328502    444.08747   -4196.6919 
32056000    82.883493   -4590.8577   -4448.7982   -4590.8577            0    2035.5285    17.912536    23.160966    22.051083    9148.3689    1874.3632     2505.691    1726.5312     129.1096    429.04549    274.92255   -4177.2188 
32057000    81.044501   -4596.8516   -4457.9441   -4596.8516            0    2367.7518    17.870182    23.195111    22.037775    9134.6765    2729.7998    3020.7568    1352.6987   -305.68456    585.21427    466.19713   -4142.5125 
32058000    77.656968   -4592.2385   -4459.1371   -4592.2385            0     2530.992     17.91906    23.154209    21.945354    9105.1634    2424.5217    2613.8069    2554.6473    -344.1462   -193.36411     221.3899    -4123.048 
32059000    82.601361   -4599.1752   -4457.5993   -4599.1752            0    2036.9208    18.049494    23.029981    21.991692    9141.4953     2494.791     2892.499     723.4724    315.44215    332.98616   -36.995654   -4186.0384 
32060000    80.471946   -4607.4164   -4469.4902   -4607.4164            0    1899.4661    18.001968    23.120504     21.97246    9145.2583    1913.2486    2298.1665    1486.9833    67.329503   -143.13368    418.93281   -4216.1504 
32061000    78.728693     -4596.35   -4461.4117     -4596.35            0    1969.1034     18.02609    23.123055    21.949032    9148.7578    2264.0287    2355.4064    1287.8751   -436.40828    137.45195   -413.86526   -4198.6836 
32062000    79.566368   -4593.0921   -4456.7181   -4593.0921            0    1572.7746    17.991574    23.210829    21.901497    9146.0511    1043.7757    2007.9976    1666.5504   -176.40444   -193.73922   -171.58236   -4246.9323 
32063000    84.365049   -4593.9244   -4449.3256   -4593.9244            0    1855.8762    17.980313     23.22638    21.930793    9158.6848    1231.1421    1702.4891    2633.9975    131.35148   -36.431471    -434.9634   -4201.4361 
32064000    80.179966   -4599.0213   -4461.5956   -4599.0213            0    2276.7775    17.966718    23.307258    21.837185     9144.429     1762.338    2287.2809    2780.7135     608.7287   -473.87583    -339.9844   -4157.9597 
32065000    78.819425   -4602.5089   -4467.4151   -4602.5089            0    2416.1656     17.90099    23.198222    22.015444    9142.3786    3551.5785    2515.0305    1181.8877    101.81018    203.32261   -265.35611   -4145.2624 
32066000    81.258447    -4589.986   -4450.7118    -4589.986            0    1683.4826    17.888578    23.214283    22.070896    9165.3924    2354.8913    2253.4671     442.0892   -324.96869    341.12494   -191.08291   -4225.6843 
32067000    76.782915   -4603.0433     -4471.44   -4603.0433            0    1997.2496    17.920823    23.338856    21.891679    9156.2277    1732.8406    1486.0378    2772.8705   -505.08589    575.86745    309.75223   -4204.7389 
32068000    81.860995   -4604.1062   -4463.7992   -4604.1062            0    1627.6598    17.887675    23.327513     22.00033    9180.1868    1836.2045    1194.4164    1852.3585   -288.04468     111.7219    208.33158   -4245.8823 
32069000    75.994874   -4603.0449   -4472.7923   -4603.0449            0    1960.1692    17.842931    23.368811    21.954372    9154.2728    1619.5946    2520.4587    1740.4542   -106.52201    145.63689   -349.58505   -4211.0986 
32070000    78.868509   -4595.8271   -4460.6491   -4595.8271            0    1878.2228      17.9201    23.308452    21.929702    9159.8125    2128.4216     1645.109    1861.1378   -1008.3257    70.961886    -256.9826    -4209.744 
32071000    79.903164   -4599.4021   -4462.4508   -4599.4021            0    2186.3265    17.953572      23.2665    21.911386    9152.7534    2836.3653    2263.6864    1458.9278   -160.01287   -487.57029    590.07371   -4170.6122 
32072000    88.409019   -4593.7723   -4442.2423   -4593.7723            0    2293.6765    17.986886    23.277098    21.856854    9151.0829    2561.3741    1232.1609    3087.4944     37.00777   -280.67179    318.36841   -4136.1302 
32073000    77.741079   -4604.8371   -4471.5915   -4604.8371            0    1714.1087    17.991554    23.307845    21.843457    9159.9301    2427.9113    1768.4103    946.00465   -189.25832   -93.668225    496.59253   -4242.6069 
32074000    84.852254   -4607.7986   -4462.3647   -4607.7986            0    2133.6158    17.963705    23.145764    22.012231    9152.3264    1639.2614    2283.6061    2477.9801    551.69774   -567.53755    143.14304   -4177.5754 
32075000    81.399034   -4600.1985   -4460.6833   -4600.1985            0    1973.7359    17.968258    23.299282     21.84189    9144.0528    1409.8129    2063.0544    2448.3404     133.8741   -252.36459     564.8043   -4197.4725 
32076000     79.79549   -4599.2613   -4462.4946   -4599.2613            0    2137.9667     17.80502    23.510195    21.868031    9153.9464    2176.2237    1208.4663    3029.2102      109.687   -587.83672   -5.2232835   -4177.0741 
32077000    80.845221   -4604.6476   -4466.0817   -4604.6476            0    2532.6648    17.946331    23.279926    21.858065    9132.0645    2002.2012    2648.3444    2947.4489   -164.73981   -314.85134   -170.46046   -4128.7769 
32078000    87.249415   -4597.5488   -4448.0063   -4597.5488            0    2199.0841    17.932417    23.400277    21.819003    9155.7668    1978.0277    1814.3792    2804.8453    57.475191   -374.10393   -69.485607   -4154.3682 
32079000    79.990588   -4598.1028   -4461.0016   -4598.1028            0    2305.3772    17.937595    23.252011    21.918085    9141.7078    1869.3543    2742.5792    2304.1982   -277.27898   -137.08545    158.77836   -4153.6432 
32080000    86.498828    -4596.794   -4448.5379    -4596.794            0    2148.7428     17.88645    23.192014     22.05518    9148.9917    1549.4111    2233.1347    2663.6825    416.48662   -390.76554    14.650493   -4161.8341 
32081000    80.568093   -4600.8555   -4462.7646   -4600.8555            0    1708.4212    17.936174    23.419021    21.821753    9166.1755     2476.597    1160.6749    1487.9917   -636.05507   -94.783448    786.17334   -4234.3841 
32082000    78.079155   -4600.8577   -4467.0327   -4600.8577            0    1952.2854     17.92993    23.380677    21.880727    9172.7047    2640.2509    881.26466    2335.3406    74.208643   -94.814004    194.39551   -4205.8667 
32083000    76.760715   -4599.5711   -4468.0059   -4599.5711            0    1845.2773    17.754031    23.546988    21.931373    9168.4973    2659.1526    1824.6425    1052.0368    -270.2879    -340.3578    265.19963   -4221.2681 
32084000    81.213769   -4585.2087    -4446.011   -4585.2087            0    2966.3155    17.820309    23.341397    21.934364    9123.6186    3558.7906    3542.1181    1798.0378    120.44179   -50.151719     134.0867   -4051.3172 
32085000    80.449515   -4598.4353   -4460.5475   -4598.4353            0    2187.1738    17.832118    23.373594    21.966621    9155.7032    1539.6558     1347.943    3673.9226    891.76005    338.98186    197.51164   -4168.5018 
32086000     78.82681    -4596.842   -4461.7356    -4596.842            0    2155.7631    17.897563    23.399626    21.869152    9158.7195    3272.3241    1892.8294    1302.1359    259.30091    263.55239    129.41976   -4173.7892 
32087000    82.623758   -4606.8729   -4465.2587   -4606.8729            0    1685.6987    17.954333    23.255625    21.976722    9176.1439    2337.1119    1571.9447    1148.0396    403.83947   -38.888503    87.897807   -4239.6706 
32088000    86.157917   -4600.0224   -4452.3507   -4600.0224            0    2152.8569    17.878217    23.370985    21.893102    9147.6286    1689.7299    2191.0747    2577.7662   -235.26285    467.55634    455.67887   -4165.1407 
32089000    77.000012   -4601.1674    -4469.192   -4601.1674            0    2413.3917    17.955116    23.301501    21.831175    9133.7521    1927.8314    2379.0472    2933.2963    360.89305   -17.847447   -111.71038   -4147.7128 
32090000    80.583268   -4595.7842   -4457.6672   -4595.7842            0    2050.4496    17.868116    23.284743    22.015341    9159.5816    1892.8082    2620.3647    1638.1758    112.31089    720.03945     377.0713   -4183.7618 
32091000     78.32517   -4607.5102   -4473.2636   -4607.5102            0    1980.5939    17.963641    23.335377    21.882359    9172.8299     2405.788    1997.0709    1538.9227   -144.12308   -9.9927171   -106.82513    -4208.307 
32092000    81.479859    -4592.692   -4453.0383    -4592.692            0    2871.9336    18.003594    23.264917    21.812145    9136.0633    2301.3298    3217.3132    3097.1578   -200.84431   -494.00115    365.19853   -4070.3815 
32093000    77.989725   -4603.7905   -4470.1188   -4603.7905            0    1863.6826    17.974121    23.296278    21.908997    9173.9569    2043.1512    1629.9831    1917.9135    86.621914    -228.5999    69.911337   -4220.7716 
32094000    81.864332   -4603.7884   -4463.4758   -4603.7884            0    2315.6397    17.948463     23.36382    21.831896    9155.0886    2582.2744    2117.2019    2247.4429   -234.83602   -493.31301    585.14644   -4154.2972 
32095000    80.637353   -4606.0896     -4467.88   -4606.0896            0    1589.0163    17.943759    23.209987    22.024618    9172.6899    978.09864    2237.5666    1551.3837    315.91621   -399.05433    78.101306   -4255.3105 
32096000    81.350186   -4593.1553   -4453.7239   -4593.1553            0    1834.0977    18.068969    23.219397    21.839156      9162.63    1466.5813    2512.5162    1523.1954    230.56043    53.505811    44.068414   -4208.6379 
32097000    84.987868   -4601.4775   -4455.8112   -4601.4775            0    3152.8082    17.788693    23.244901    21.993859    9094.3816    2835.8999    3616.7838     3005.741    27.415805    14.996679   -197.53499   -4037.6472 
32098000     79.23976   -4607.3782   -4471.5639   -4607.3782            0    1631.9128    17.983458    23.181981    22.025036     9182.065    1555.9257    2617.4893    722.32342    389.66016    35.957995   -67.966195   -4253.0329 
32099000    80.765015   -4597.6688   -4459.2403   -4597.6688            0     2228.727     17.86635    23.260338    21.998323    9142.0043    3579.0807    1930.3384     1176.762    284.22369    31.410462   -361.95925   -4162.0914 
32100000    77.495685   -4599.8632   -4467.0383   -4599.8632            0    2161.3494    17.854425    23.466715     21.85352    9156.2904    1630.0339    1961.7359    2892.2784    -37.51738    116.25626   -210.13273   -4178.4223 
32101000    79.143999   -4609.3593   -4473.7092   -4609.3593            0    1574.5633    17.843561    23.408993    22.000983    9189.8057    2218.7609    1352.6212    1152.3077   -395.32451    313.69872   -50.478811   -4262.6801 
32102000    80.368535    -4591.449   -4453.7001    -4591.449            0     2991.694    17.890121    23.227357    21.906048    9102.8443    2279.1074    3643.0335    3052.9412    132.42452   -676.10354   -161.59563   -4056.5358 
32103000    84.375935   -4600.4595   -4455.8421   -4600.4595            0    2157.8902    17.856112    23.260596    22.023231    9147.2125    2624.9938    2229.9451    1618.7318     75.73169    -198.3235   -150.94401   -4167.9737 
32104000    79.874621   -4596.2202   -4459.3178   -4596.2202            0    2148.3345    17.942606    23.300013    21.853912    9136.3106    1397.8885     1838.374     3208.741   -29.991604    122.05604   -322.44599   -4173.0657 
32105000    84.573966   -4601.7174   -4456.7605   -4601.7174            0       1240.7    17.951081    23.289977    22.005338    9199.9974    1618.2104    728.86106    1375.0286   -9.6368833    129.68651   -87.239433   -4290.2927 
32106000    79.296113   -4605.1489   -4469.2381   -4605.1489            0    1605.9922    18.110072      23.2014    21.845723    9179.1141    934.19105    1691.6282    2192.1573   -77.527415   -114.98926   -34.165565   -4254.2472 
32107000    77.726187   -4600.5095   -4467.2895   -4600.5095            0    1630.4753    17.987105    23.298576    21.884417    9171.1891     1490.351    2132.1611    1268.9137   -172.87975    -4.640717   -548.01701   -4249.2095 
32108000    82.141598   -4603.8504   -4463.0625   -4603.8504            0    1688.5336    17.919284    23.316311    21.991863    9188.4554    1999.3479    1331.8919     1734.361   -268.39194     228.1109   -151.79205   -4236.7919 
32109000    79.671401   -4600.3252   -4463.7712   -4600.3252            0    2962.7086    17.954461    23.179675    21.911945     9119.282    2665.9935    2971.2979    3250.8345   -874.23449   -126.42032    69.988368   -4069.7446 
32110000    80.975632   -4602.1018   -4463.3123   -4602.1018            0    1941.1538    17.966743    23.223036      21.9946    9177.0781    1638.7268     2448.434    1736.3005    -635.8615    71.973366    33.469303   -4203.5117 
32111000    80.450673   -4596.7035   -4458.8138   -4596.7035            0    1886.8369    18.071198    23.205162    21.832974    9155.5507    1330.1275    2247.0127    2083.3705    33.396656    317.31316   -87.054059   -4206.8752 
32112000    80.465119   -4597.1403   -4459.2259   -4597.1403            0    1917.4476    18.023546    23.209043    21.920524    9169.5583    1555.5386    1996.2185    2200.5856     -63.8606     329.2038    263.70895   -4202.8083 
32113000    78.924937   -4596.8065   -4461.5318   -4596.8065            0    1983.7301    17.884556    23.234192    22.007039    9144.6557    2428.9081    2033.4817    1488.8004   -472.65868   -6.4468832   0.65990527   -4196.9708 
32114000    86.125097   -4597.8452   -4450.2298   -4597.8452            0     1640.088    17.987093    23.308878    21.887083    9176.3557    1140.7117    1572.0428    2207.5094    555.39936    771.68172    -32.03422   -4230.7405 
32115000    80.554757    -4591.611   -4453.5429    -4591.611            0    2108.3136    17.939401    23.309098    21.930098     9170.098    2323.9515    1068.6059    2932.3832   -651.69643   -265.92943    38.721922   -4171.5845 
32116000    78.486045   -4601.6694    -4467.147   -4601.6694            0     1552.183     17.92741    23.315788    21.947195    9173.7455    1230.0203    1908.9499    1517.5788    246.28558   -150.53721   -60.429009    -4259.481 
32117000    76.852092   -4604.4755   -4472.7536   -4604.4755            0    2763.1564    17.895819    23.292061    21.902253     9129.527    3053.6453    2272.3525    2963.4715    484.44259    17.276367    187.17055   -4104.8537 
32118000    80.170701   -4601.1187   -4463.7088   -4601.1187            0    3203.1672    17.791466    23.279336    21.997181    9110.6497    3579.1909    2911.9648    3118.3458   -711.22819   -119.08534   -63.568747   -4038.1057 
32119000    80.738928   -4596.5484   -4458.1647   -4596.5484            0    1535.8412    17.953377    23.350899    21.943128    9199.1626    1680.7712    1843.5737    1083.1787    279.98988   -155.19201   -199.88165   -4252.1157 
32120000     75.84123   -4595.8208   -4465.8315   -4595.8208            0    2474.5077    17.982514    23.227813    21.921562    9156.5153    1911.0768    2378.7438    3133.7025   -740.63911    232.32726    279.53028   -4135.3897 
32121000    79.307344   -4601.4606   -4465.5305   -4601.4606            0    1835.1915    17.867132    23.400726    21.931107    9169.4806    2206.5569    1099.3423    2199.6753   -436.84587   -29.826841   0.70031904    -4220.115 
32122000    83.018481   -4594.0949    -4451.804   -4594.0949            0    2200.1007    17.920251    23.457784    21.787878     9158.957    2559.1215    1958.9386    2082.2421   -209.84002    58.906545   -35.260098   -4157.9278 
32123000    77.283593   -4600.7903   -4468.3289   -4600.7903            0    2511.6606      17.6703    23.577353    21.914375    9129.9428    3754.6283    1804.7318    1975.6217    377.85455     104.0992    464.77467   -4133.8991 
32124000    82.673833   -4596.2372   -4454.5371   -4596.2372            0     1423.942    17.826677    23.590559    21.836561    9183.1751    1840.1014    1068.2113    1363.5134    494.76371    421.33017    46.357852   -4263.8325 
32125000    83.518138        -4594   -4450.8528        -4594            0    1560.7552    17.924701    23.421022    21.862164    9178.0602    677.94681    1450.5809    2553.7378    232.17103   -88.800783   -242.67187   -4241.9417 
32126000    81.705864   -4600.9021    -4460.861   -4600.9021            0    2601.4516     17.79185      23.3866    21.949077    9132.8108    3486.1337    2061.9364    2256.2847    165.12498   -397.07431   -75.169022   -4114.3667 
32127000    82.897608   -4599.4989   -4457.4152   -4599.4989            0    1936.0617    17.885793    23.442125     21.85502    9163.3949     1852.211     2617.121    1338.8532   -536.22793    68.550696   -157.65099   -4198.6824 
32128000    82.615707   -4601.9948   -4460.3943   -4601.9948            0    2422.6884     17.82426    23.483319    21.839996    9141.6279    3126.6819    2208.0282     1933.355    46.414859    348.03115    287.92651   -4137.3984 
32129000    83.849108   -4594.9397   -4451.2252   -4594.9397            0    2520.1927    17.741712    23.429611    21.953365    9125.6057    2983.6693    3257.4798     1319.429    241.22722    364.48442    446.31835   -4115.8188 
32130000    79.085731   -4604.8594   -4469.3092   -4604.8594            0    2216.6819    17.909983    23.438335    21.783624    9144.3332    2357.9929    2358.6277    1933.4251   -132.87523   -185.15958     215.8704   -4173.6909 
32131000     79.09919   -4605.2841   -4469.7108   -4605.2841            0    2333.9131    17.977839    23.299739     21.83514    9146.2806     2134.206    1952.6789    2914.8544   -58.651621   -714.12442    510.05496   -4158.3922 
32132000    83.350015    -4596.422   -4453.5629    -4596.422            0    829.04855    17.977481    23.428746    21.887439    9218.7668    396.92302     581.8206     1508.402   -174.05017    74.520685    94.003967   -4342.1005 
32133000    78.229679   -4601.6525   -4467.5695   -4601.6525            0    1748.1502    17.872052    23.494193    21.837114    9169.1737    1948.8028    1312.6522    1982.9957   -359.33939   -185.19664    -260.5705   -4233.8017 
32134000    78.637959   -4605.4691   -4470.6863   -4605.4691            0     1876.948     17.94562    23.121844    22.090653    9166.2029    1788.9472    2624.0667    1217.8302    757.55168   -194.26161   -69.169782   -4219.7765 
32135000    76.845129    -4604.325   -4472.6151    -4604.325            0    2128.3815    17.935667    23.392812    21.818877     9154.452    2254.2009    1466.6131    2664.3307    281.15895   -195.79452    458.20936   -4188.4585 
32136000    80.632162   -4600.1266   -4461.9259   -4600.1266            0    1710.1898    18.082798    23.345511    21.753604    9183.3313    652.39238    2247.4163    2230.7607    181.94635   -134.21687    333.30624    -4232.881 
32137000    77.835964   -4601.1767   -4467.7685   -4601.1767            0     2194.043    17.876572    23.299449    21.954268    9144.2664    2185.6679    2100.8293    2295.6316    551.88969   -22.806395    428.29037   -4175.1715 
32138000    82.243363   -4599.9757   -4459.0134   -4599.9757            0    1593.8194    17.818056     23.39621    21.950061    9150.4311    2316.1728    2159.1497    306.13569    571.49463    88.931813    535.31754   -4246.3187 
32139000    74.501787   -4605.3479   -4477.6543   -4605.3479            0    1805.9843    17.974438    23.347273    21.846102    9167.8064    1607.9027     1511.795    2298.2551    125.22774   -59.583319   -285.69517   -4236.1887 
32140000    79.354201   -4596.3129   -4460.3025   -4596.3129            0    2723.7377    17.888782    23.417856    21.792881     9129.407    2134.8389    1778.2207    4258.1534   -344.95781    314.26376    172.65555   -4097.6558 
32141000    78.120927   -4605.6259   -4471.7293   -4605.6259            0    1323.0429    17.850766    23.312863    22.040268    9172.1123    2137.8202    1189.0915      642.217    37.680336    503.41888    49.813741   -4294.7513 
32142000    80.420573   -4603.6944   -4465.8563   -4603.6944            0     2158.327    17.955035    23.332915    21.812078    9138.0238    2921.5384    2287.4453    1265.9974   -560.22245     291.4669   -86.085729   -4178.2188 
32143000    77.157574   -4599.7852   -4467.5398   -4599.7852            0    1960.4183    17.920345    23.350892      21.8739    9153.2656    2806.4159    1395.4394    1679.3995   -284.66163   -242.95152   -108.10556   -4205.8416 
32144000    78.580832   -4596.5457   -4461.8609   -4596.5457            0    2255.9167     17.76613    23.316216    22.064947      9140.16    2726.2636    1778.2662    2263.2202   -230.10892    148.80231   -622.62079   -4161.1475 
32145000    79.604638   -4591.1035   -4454.6638   -4591.1035            0    1739.9413    17.877321    23.463214    21.851559    9165.8421    1070.2808    1298.1392    2851.4039   -624.94383    387.99683    66.277286   -4222.0782 
32146000    78.982134   -4600.8093   -4465.4367   -4600.8093            0     2144.988    17.880212    23.213568     22.04899    9151.7314    2471.3154    3116.6167    847.03187   -114.87094   -472.22256    11.970017   -4179.1481 
32147000    75.786209   -4599.5596   -4469.6646   -4599.5596            0    2661.1778    17.783371    23.363146    21.954831    9121.6944    3873.0315    2059.9847    2050.5173   -89.404503    3.8496025     549.4032   -4115.6466 
32148000     77.83561   -4604.8543   -4471.4467   -4604.8543            0    1558.8595    17.996413    23.292067    21.889245    9175.3944    1917.8236    1786.2008    972.55402   -66.144363   -349.00059    222.29478   -4262.8499 
32149000    83.032469   -4591.7217   -4449.4069   -4591.7217            0    2153.2097    17.901627    23.298006    21.948588    9154.1459    1862.1442    2481.4716    2116.0134   -684.50463   -184.77914    191.07458   -4161.9451 
32150000    76.356761   -4594.5274   -4463.6545   -4594.5274            0    1803.4765    17.971317    23.352904    21.820987    9157.8846    1671.4297    1141.4051    2597.5946    627.47146   -338.17483    158.77018   -4222.7852 
32151000    84.785988   -4603.3894   -4458.0691   -4603.3894            0    548.14654    18.052356    23.420311    21.835253    9231.7661     184.7047    997.73761     461.9973   -297.95027    282.96416   -147.58944   -4384.2689 
32152000    77.641554   -4603.1694   -4470.0944   -4603.1694            0    2542.7671    17.900242    23.215506    21.939706     9117.334    2553.8198    2620.6115    2453.8699    -380.0899    49.393394    189.07716   -4131.9904 
32153000    78.062529   -4592.9067   -4459.1102   -4592.9067            0    1665.2364    17.977861    23.289074    21.883234    9162.2416    1625.9123    2201.2196    1168.5774   -39.233073   -17.347067    218.71647   -4236.5982 
32154000    79.296929   -4605.0926   -4469.1804   -4605.0926            0    2307.9916    17.856972     23.36165     21.92294    9145.5559    2550.9486    2074.8929    2298.1332    169.89695   -269.40218    509.91625   -4161.3438 
32155000    77.736217   -4597.2014   -4463.9642   -4597.2014            0     1039.095    18.017887    23.319929    21.904886    9203.9042     935.6288    1247.6865    933.96981    61.889532    384.12302    -17.53423    -4324.487 
32156000    75.501946   -4607.8166   -4478.4088   -4607.8166            0     2549.912    18.062367    23.127228    21.873245    9137.1649    2002.0735    2881.6117    2766.0508    31.371993   -292.85949    76.144859   -4138.6173 
32157000    78.201032   -4597.1163   -4463.0824   -4597.1163            0    2960.7858    17.852819    23.331918    21.882413    9114.9115    2982.1174     2644.353    3255.8871   -91.895659   -11.633543   -197.48455   -4069.5003 
32158000    83.448224   -4612.7394    -4469.712   -4612.7394            0    1345.7083    17.933785    23.546341    21.733628    9177.5679    1001.4328    316.70744    2718.9847   -270.68705    579.80527    63.582553   -4289.5951 
32159000    77.618594   -4597.0981   -4464.0625   -4597.0981            0     2456.875    17.944289    23.215159    21.944347    9141.5654    2272.7377    4014.9957    1082.8915    31.072398    66.847116    154.98126   -4136.5111 
32160000       81.346    -4592.036   -4452.6117    -4592.036            0    2424.7316     18.01954    23.123593    21.961049    9150.6529     1792.384    2713.9598    2767.8511   -394.30024    764.54488    14.181542   -4129.0243 
32161000    77.853425   -4605.1523   -4471.7142   -4605.1523            0    2393.6301    17.942339    23.287363    21.888736    9145.7652    2603.9904    1941.9355    2634.9645   -662.99615    57.947419    126.41997   -4152.4479 
32162000    80.118367   -4603.4429   -4466.1227   -4603.4429            0    1766.3074    17.884055    23.281605    22.004455    9161.9839     1474.572    1876.6685    1947.6815    573.22249     -98.7634     52.53245    -4230.112 
32163000    81.623673   -4603.6827   -4463.7826   -4603.6827            0     1099.409    17.826825    23.418686    22.004793    9186.5792    1319.6383    947.60494    1030.9836   -160.86829    565.20764    607.64851   -4316.4872 
32164000    78.091961   -4600.3753   -4466.5283   -4600.3753            0    2057.9818     17.90909    23.265655     21.95179    9146.5802    2166.7181    1590.5707    2416.6564   -578.49557   -320.60864     136.6591    -4192.007 
32165000    79.316475   -4600.4644   -4464.5187   -4600.4644            0    1302.1788    17.869027    23.488441     21.89048    9187.7753    1590.3551    471.54295    1844.6382    -536.2966   -106.08672   -292.08494   -4290.0342 
32166000    81.699575    -4600.622   -4460.5917    -4600.622            0    2197.9294    17.988988    23.281022    21.865865    9157.4684    1738.9303    2698.4779      2156.38   -280.80601   -291.53474   -538.90927   -4167.0532 
32167000    78.072185   -4602.2649   -4468.4519   -4602.2649            0    2516.4988    17.914799    23.454623    21.719541    9126.2223    2307.4507    2353.5818    2888.4639    181.87755    -281.8612    203.88139   -4133.5145 
32168000     79.71838   -4586.6557   -4450.0211   -4586.6557            0    1217.7849    17.843102     23.48811    21.937408    9193.9838    1398.9882    565.02884    1689.3376    157.08934   -241.05258      134.445   -4286.7346 
32169000    85.710329   -4599.3098   -4452.4052   -4599.3098            0    2256.6028    17.846048     23.42521    21.858712    9137.9785    1556.8445    3328.6294    1884.3343    60.145358   -21.614115    -89.54758   -4151.6722 
32170000    81.606486    -4600.264   -4460.3933    -4600.264            0    2524.8995    17.810885    23.371128    21.916777    9123.0883    3410.4881    2234.1472    1930.0633    368.37246   -525.18371   -119.64155   -4124.4532 
32171000    79.592074   -4598.8687   -4462.4506   -4598.8687            0     2291.564     17.82966    23.365652    21.945417    9142.4962    1695.6467    3182.9661    1996.0791    495.24204       224.71    102.76652   -4156.9074 
32172000    79.938982   -4601.6913   -4464.6787   -4601.6913            0    3002.1649    17.879987     23.34148    21.823017    9107.7351    2562.3322    2450.7781    3993.3842   -83.954706    -356.7944   -14.207462   -4065.9102 
32173000    78.124318   -4599.5656   -4465.6632   -4599.5656            0    1788.8018    17.906759     23.34082     21.94872    9173.6526    1790.1418    2326.3561    1249.9075   -254.51324    -150.7012    -340.6395   -4226.3424 
32174000    76.615407   -4597.7026   -4466.3864   -4597.7026            0    2374.3779    17.942949    23.327405    21.795226    9122.6628     2028.954    2359.0866    2735.0932   -130.90622    -209.5987   -78.058277   -4150.4881 
32175000    82.981641   -4599.2745   -4457.0468   -4599.2745            0    1019.1017    17.813631    23.408029    22.039775    9190.1898    1458.1557    1175.2943    423.85515   -225.13319    165.17931    131.25867   -4320.4571 
32176000    81.540092   -4603.6243   -4463.8674   -4603.6243            0    2212.4772    17.896426    23.365407    21.827323    9127.2536    2658.8696    1635.6933    2342.8688   -149.56793    216.15289   -272.95258   -4169.3609 
32177000    80.454146   -4589.0361   -4451.1404   -4589.0361            0    1761.3963    17.911435    23.286874    21.986825    9170.7336    1057.6115     1926.866    2299.7115   -802.52099   -75.678917   -87.827446   -4215.5612 
32178000    81.833098   -4597.0925   -4456.8333   -4597.0925            0    2392.3837    17.991405     23.24096    21.869846    9144.6031    1686.7059    1750.8344    3739.6107    218.14591    155.63856    475.31058   -4137.7739 
32179000    80.613265   -4601.0571   -4462.8887   -4601.0571            0    2152.0988    17.844141    23.260897    22.047831    9151.4094    2877.5734    2075.6886    1503.0344    374.55083    7.3094282    -395.5396   -4175.6612 
32180000    81.022636   -4603.0004   -4464.1303   -4603.0004            0    2412.6634    17.917633    23.221131     21.93804    9127.7097    2277.8602    2819.3074    2140.8227    103.77432   -44.010786   -115.21175   -4142.9607 
32181000    80.141186   -4596.6845   -4459.3252   -4596.6845            0    1941.3237    18.030944    23.302532    21.817694    9167.0676    2321.0568    1984.0215    1518.8927    386.88952   -582.55453    356.40563   -4199.7853 
32182000    80.591079   -4589.8701   -4451.7398   -4589.8701            0    2327.5553    17.977577    23.324227    21.829173     9153.258     1964.117    1849.4194    3169.1295   -326.74287    122.25714    375.54992   -4141.0324 
32183000    78.944135   -4601.9648   -4466.6573   -4601.9648            0    2589.5088     17.93356    23.125324    21.999599    9123.6604    2670.0929    3559.8597    1538.5736   -41.805278   -70.760199    483.99105   -4122.0992 
32184000    79.646795   -4605.2273   -4468.7154   -4605.2273            0    1978.6686    17.856913    23.307545    21.983223    9149.4356    2066.2845    1807.9698    2061.7514   -520.41145    105.35862   -381.82875   -4204.6915 
32185000    81.940783   -4594.7027    -4454.259   -4594.7027            0    2348.8033    18.014567    23.360558    21.670986    9119.8084    2617.4911    1819.8842    2609.0348    -89.83861    268.34953    275.14292    -4141.861 
32186000    82.643481   -4597.5192   -4455.8711   -4597.5192            0    2443.6854    17.910514    23.255039    21.927786    9133.1355     2266.401    2412.2625    2652.3927    484.57517   -8.0681623   -101.15697   -4130.3785 
32187000    76.500347   -4596.0518   -4464.9328   -4596.0518            0      2285.34    17.984934    23.202054    21.885136    9132.3915    2326.2698    2233.0817    2296.6686   -520.88425   -255.14394   -96.346399   -4160.5562 
32188000    81.591182   -4592.3751   -4452.5306   -4592.3751            0    1762.5301    17.900379    23.291447    21.990085    9168.2325    1268.7851     2174.349    1844.4561    164.52416    348.55779     144.7596    -4216.864 
32189000    76.355087   -4601.2401   -4470.3701   -4601.2401            0    1337.2732    17.960182     23.22933    21.983391    9171.5363    946.88019    1702.1556    1362.7839    738.44616    -283.0296    -59.33679   -4291.4999 
32190000    86.270437   -4598.5101   -4450.6455   -4598.5101            0    1607.9817    17.855963    23.396069    21.937716    9164.6856     2035.293    1921.8307     866.8215    312.30114   -762.55291    473.27446   -4235.7266 
32191000    77.218488   -4589.9705   -4457.6207   -4589.9705            0     2640.826    17.848636    23.496009    21.761191    9126.0279     2823.943    1844.4966    3254.0384   -69.901625   -109.27033    394.26543   -4106.1432 
32192000    84.132683   -4604.4949   -4460.2944   -4604.4949            0    1871.3403    17.911109    23.334184    21.923353    9162.6703    1684.1879    2579.3027    1350.5302    294.40427   -314.86435    161.16216   -4210.2306 
32193000    81.579168    -4597.045   -4457.2211    -4597.045            0    2412.3311    17.857424    23.247346    22.016179     9139.746    2640.1286    2758.2519    1838.6129   -710.64677   -105.70979   -162.43565   -4135.6722 
32194000    81.957143   -4594.0435   -4453.5718   -4594.0435            0    1229.0516     17.92742    23.441163    21.913671    9208.9918     952.9019    1039.2804    1694.9725    -135.7532   -306.01822   -56.621483   -4288.5056 
32195000    75.596986   -4594.0565   -4464.4859   -4594.0565            0    2479.1816    17.817713    23.323678    21.981402    9134.9123    3042.2202    2659.6968    1735.6277    408.79578   -84.797016    184.46034   -4134.2011 
32196000    79.858593   -4596.4883   -4459.6134   -4596.4883            0    2206.5912    17.915657    23.233518     21.93587    9130.6685    2752.1192    2135.7121    1731.9424    547.00455    170.70426    28.642317   -4165.7805 
32197000    85.260467   -4604.7476   -4458.6141   -4604.7476            0    2246.8993    17.983285    23.264447    21.833259    9134.4059    2432.1563    2450.7028    1857.8388   -154.38857   -283.35983    123.81984   -4159.2913 
32198000    82.353928   -4600.5396   -4459.3878   -4600.5396            0    1248.9852    17.893004    23.498413    21.855085    9189.1276    1625.8614    703.76317     1417.331   -568.63757   -153.92097    157.41667   -4292.0063 
32199000    86.609448   -4601.8544   -4453.4087   -4601.8544            0    2355.1367    17.883951    23.281979    21.965683    9145.9343    2362.9087    2865.5864    1836.9151   -254.51942   -21.854068   -35.661112    -4139.271 
32200000    78.998179   -4597.4871   -4462.0869   -4597.4871            0    2102.2172    17.917168    23.446244     21.79702    9156.7167    1980.6289    1906.5793    2419.4434   -999.15668   -230.75948    38.594036   -4181.3541 
32201000     77.64871   -4592.2189   -4459.1317   -4592.2189            0    2043.1199    17.782596    23.388325    22.012945    9155.2969    3380.4661    1652.3566    1096.5369   -355.12194    235.16521   -25.725673   -4186.3331 
32202000    79.688712   -4595.6712   -4459.0875   -4595.6712            0    2141.9595    17.886406    23.309535    21.892605    9127.5483    1920.3303     2161.286    2344.2624    30.241029   -464.27875    22.665277   -4173.9585 
32203000    77.444535     -4599.66   -4466.9227     -4599.66            0    1254.1341    17.908906    23.172175    22.117451    9178.4832    1364.6613    1678.7534    718.98748    196.26511   -194.52632    86.387358   -4299.0459 
32204000    78.520188   -4604.4606   -4469.8797   -4604.4606            0    1816.0718    18.033131    23.281417    21.850499    9173.6446    1547.0715    2440.1934    1460.9505   -73.445834     363.5837    220.55727   -4226.9107 
32205000    80.721642   -4609.0557   -4470.7015   -4609.0557            0    1741.6242    17.958026     23.30531    21.887082    9160.1242    1218.4821    1499.0144    2507.3762    61.167091   -71.353578    27.212244   -4238.0362 
32206000      79.5544   -4604.2414   -4467.8878   -4604.2414            0    1948.3622    17.913957    23.272837    21.959555    9155.1272    2219.4697    2258.5818    1367.0351   -703.56973   -93.845002   -106.97912   -4207.7461 
32207000    77.852071   -4597.9266   -4464.4909   -4597.9266            0    1941.7428    18.000907    23.211227    21.922451    9159.7071    2321.7764    1951.8565    1551.5955   -261.79435   -81.665118    38.317143   -4205.1033 
32208000    81.283947   -4596.2306   -4456.9127   -4596.2306            0    2171.5488    17.908028    23.227365    21.998578    9150.4468    1674.8469    3003.6006    1836.1989    25.518108    61.784463    268.86334   -4167.1197 
32209000    79.806975   -4599.9573   -4463.1709   -4599.9573            0    1966.4612    18.014943     23.21432    21.887891    9153.6176    2229.8498    2095.2169     1574.317   -80.793022    370.17786    -24.49469   -4200.6559 
32210000    82.980978   -4593.8473   -4451.6208   -4593.8473            0    2136.1173    17.920598    23.149234    22.058884    9151.0866     2074.754    2984.1231    1349.4747   -158.61776    245.26843   -466.33805   -4166.5363 
32211000    81.629856   -4603.8445   -4463.9337   -4603.8445            0    2265.5108    17.897692     23.26482    21.940942    9135.9139    2311.5974    2256.8265    2228.1086    43.950731   -52.580105    262.12604   -4162.0818 
32212000    80.723622   -4599.6429   -4461.2854   -4599.6429            0    2365.4169    17.935839    23.337316    21.809267    9128.7999    2155.4851    1970.8065    2969.9592   -448.82889    144.93641    454.91013   -4146.3675 
32213000     83.15094   -4597.3428   -4454.8249   -4597.3428            0    1956.8329    17.924987    23.218082    21.992725    9153.0159    2031.0884    1927.7524     1911.658    141.38009    45.467052    207.07461   -4193.6125 
32214000    78.470733   -4598.6106   -4464.1144   -4598.6106            0    1803.0541    18.017864    23.210104    21.881533    9150.7806    1458.1788    2417.0474    1533.9359   -474.87401   -420.76642   -264.69547   -4223.4883 
32215000    75.530094   -4606.4241   -4476.9681   -4606.4241            0    2753.1415     17.99011    23.123894    21.917742    9117.8112    2714.8607    2572.6587     2971.905   -377.87869   -294.71071   -450.09919   -4110.8721 
32216000    80.836939   -4605.8664   -4467.3146   -4605.8664            0    1596.8065    17.999774    23.195291    21.960951    9168.9166    1375.4774    1834.2806    1580.6615   -376.49564   -298.51588    377.90273   -4253.7909 
32217000    77.461639   -4602.8883   -4470.1217   -4602.8883            0     2336.046    17.880301    23.304898    21.881079     9117.815    1788.0286    3187.1754    2032.9341   -32.279758   -47.023023   -306.93424   -4159.4884 
32218000    81.307847   -4598.6411   -4459.2823   -4598.6411            0    2349.7382     17.93948    23.357978    21.818315    9142.5278    2991.2538    1337.3188    2720.6419   -785.84422   -34.878843    670.96986   -4145.9813 
32219000    82.218965   -4600.1766   -4459.2561   -4600.1766            0    1870.4216     17.85325     23.35456    21.993341    9170.2288    1967.4118    2330.3524    1313.5005   -861.95869   -183.69354    584.69954   -4209.1089 
32220000    80.336476   -4606.1909   -4468.4969   -4606.1909            0    1830.4546    17.970603    23.292153    21.905059    9168.8888    2403.2349    1271.0275    1817.1013    188.38279    -109.9335   -256.50005   -4223.7307 
32221000     82.78229   -4602.3416   -4460.4556   -4602.3416            0     2922.741    17.945361    23.262015    21.861778    9126.0953    2368.1959    3850.8114    2549.2157    144.84367   -652.05206    45.146429   -4071.4541 
32222000     78.83698   -4603.1455   -4468.0216   -4603.1455            0    776.33202    17.966659    23.338414    21.972901    9213.5301     728.9923    871.01983    728.98392     325.8903     -116.192    446.67866    -4363.706 
32223000    77.076203   -4597.3211   -4465.2151   -4597.3211            0    2978.8979    17.911302    23.314206    21.821242    9112.2844    2866.3261    2432.1392    3638.2284      150.179    780.29389    288.53341   -4069.3394 
32224000    84.077349   -4605.7279   -4461.6222   -4605.7279            0    2195.5916    17.826641    23.339637     21.95156    9133.3268    1582.9501    2325.1433    2678.6814    152.78695    202.22493   -448.12962    -4169.169 
32225000    77.647454   -4600.7449   -4467.6598   -4600.7449            0    1887.7206    17.973229    23.218151    21.966743    9166.8344    1873.6726    1234.2253     2555.264      239.757    132.42208    170.42446   -4215.2925 
32226000    79.263518   -4596.9591   -4461.1042   -4596.9591            0    2170.0306    17.860645    23.222707    22.042727    9142.7174    1983.4262    2960.1221    1566.5435   -81.404866    90.227588   -45.994086   -4171.7585 
32227000    82.316892   -4584.3779   -4443.2896   -4584.3779            0    1989.8618    18.000955    23.316486    21.809296    9153.7764    1834.1069    2192.8852    1942.5933   -121.39641   -255.60888     241.3914   -4177.6461 
32228000    79.623924   -4592.4372   -4455.9645   -4592.4372            0    1523.5102    17.897129    23.474717    21.862503    9185.0945    1958.3312    822.09292    1790.1066     -549.259    439.31564     117.4665   -4251.8825 
32229000    79.678286   -4590.7796   -4454.2137   -4590.7796            0     2005.676    18.033983    23.047065    22.013849    9149.6241     1742.151    1796.3009    2478.5762    277.38962    141.97246   -27.788049   -4186.5806 
32230000    81.298923   -4590.5099   -4451.1663   -4590.5099            0    1670.2693    18.032564    23.291912    21.827322    9167.7568    228.02016    972.98266     3809.805   -24.739399   -350.85771    278.95672   -4227.8474 
32231000     82.47624   -4596.8114   -4455.4499   -4596.8114            0    2427.4945    17.927302    23.277343    21.915722    9145.4303    2371.2931    2194.7888    2716.4016   -496.35698    138.06877    447.75138   -4131.6786 
32232000     79.10096   -4596.1855   -4460.6092   -4596.1855            0    2010.6421    17.943138    23.284396    21.946618      9169.19    2588.0068    2105.2349    1338.6844    475.83139   -143.56675    67.515577   -4191.7396 
32233000    80.351485   -4606.1528   -4468.4331   -4606.1528            0    1663.5715    17.934413    23.328053    21.901856     9163.188    1717.0008    1236.0189    2037.6948    625.33656   -374.87712   -442.20964   -4246.1206 
32234000    81.012252   -4590.5749   -4451.7227   -4590.5749            0    3169.6229    17.775521    23.455717    21.829801    9101.6645    3451.3639    2086.2949    3971.2099    182.83185    -272.0939   -266.74332   -4030.9919 
32235000    79.539544   -4603.6104   -4467.2823   -4603.6104            0    2123.8581    18.000511    23.251505    21.815493    9130.6338    1629.2966    2936.5712    1805.7064   -573.08883    476.75911    155.60811   -4184.4674 
32236000    78.850198   -4598.1529   -4463.0064   -4598.1529            0    2444.7486    17.950044    23.181224    21.950622    9133.7415    2557.7824    2225.2746    2551.1889     620.1322   -322.81102    173.76079   -4137.3506 
32237000    78.156222   -4598.1093   -4464.1522   -4598.1093            0    1967.1739    17.945139    23.214688    21.983791    9158.2453    2457.0504    1810.2411    1634.2303      435.041    -107.3786    253.87384   -4201.4094 
32238000    82.470462   -4598.1843   -4456.8328   -4598.1843            0    3066.4194     17.87108    23.243785    21.888054    9092.1125    2763.8146    3144.8947    3290.5488    -98.88444   -159.31159    234.38793   -4050.2282 
32239000    79.044649   -4596.3904   -4460.9106   -4596.3904            0    1644.0255    17.837513    23.209406    22.147146     9168.876    2769.5715    1615.9452    546.55991   -64.842839   -45.025077   -237.08397   -4241.0737 
32240000    80.670106   -4596.9491   -4458.6833   -4596.9491            0    1639.7493    17.942893     23.30676    21.882762    9151.1676     1428.753    1389.3865    2101.1084   -28.907695    -83.00542    311.67137   -4239.8417 
32241000    78.826614   -4602.7641    -4467.658   -4602.7641            0    1227.5412    17.917003    23.124457     22.12571    9167.1456    826.88398    2259.0034    596.73619    366.04341   -282.15767    45.369706   -4303.5438 
32242000    78.982865   -4597.3009    -4461.927   -4597.3009            0    2279.6383    18.023333    23.253493    21.802717    9137.6371    883.99521     2319.088    3635.8318    120.03573    206.81807   -339.41833   -4158.1354 
32243000    83.732896   -4595.5465   -4452.0312   -4595.5465            0    1969.9834    17.943925    23.179481    21.966017    9136.3446    1869.0915    2025.0553    2015.8034   -1.5362051    103.00673   -520.35885   -4189.5423 
32244000    82.113246   -4596.4676   -4455.7283   -4596.4676            0    2173.2068    18.039861    23.170721    21.840983    9129.4564    1166.2145    2623.8535    2729.5523   -100.89391     -229.427    320.17605   -4166.3794 
32245000    79.079824   -4588.8212   -4453.2811   -4588.8212            0    1696.0003    17.980273    23.240646    21.892174    9148.1519    1713.7077    1866.5022    1507.7911    490.88215   -260.72594    281.28113   -4227.0069 
32246000    81.222372   -4601.2577   -4462.0453   -4601.2577            0    1997.8144    18.068864     23.20933    21.785955     9136.294    1709.5715    3278.0498     1005.822    486.85139    39.782751   -271.10936   -4195.8496 
32247000    76.270742   -4594.3806   -4463.6551   -4594.3806            0    1256.8016    17.927376    23.351862    21.977587    9200.6447    2224.2148    734.07473    812.11519   -602.63114    84.916045   -192.83963    -4295.015 
32248000    83.205198   -4594.7793   -4452.1685   -4594.7793            0    2288.8873    17.858948     23.34667    21.908906    9134.8519    2686.4561    2392.4804    1787.7252    617.40986      32.4623   -328.13153   -4147.2373 
32249000    76.498637   -4598.6798   -4467.5637   -4598.6798            0    2784.3972    17.843484    23.247198    21.969393    9113.1459    3223.7872    2172.7342    2956.6703    421.51686    104.54101   -193.02928   -4097.5009 
32250000     85.04648   -4594.9006   -4449.1338   -4594.9006            0    2150.4785    17.957835    23.246614    21.919307    9150.4088    2032.3528    2268.2183    2150.8645   -93.419463    300.04335   -97.794761   -4162.1539 
Loop time of 310.874 on 64 procs for 250000 steps with 864 atoms

Performance: 138.963 ns/day, 0.173 hours/ns, 804.185 timesteps/s
388.4% CPU use with 16 MPI tasks x 4 OpenMP threads

MPI task timing breakdown:
Section |  min time  |  avg time  |  max time  |%varavg| %total
---------------------------------------------------------------
Pair    | 24.47      | 26.955     | 29.311     |  26.0 |  8.67
Bond    | 1.54       | 1.7659     | 2.0035     |   9.5 |  0.57
Kspace  | 164.31     | 167.16     | 170.29     |  13.2 | 53.77
Neigh   | 0.18337    | 0.19598    | 0.20961    |   1.8 |  0.06
Comm    | 40.467     | 42.714     | 44.837     |  21.6 | 13.74
Output  | 0.48763    | 0.48793    | 0.48929    |   0.1 |  0.16
Modify  | 51.678     | 56.73      | 61.281     |  48.1 | 18.25
Other   |            | 14.87      |            |       |  4.78

Nlocal:        54.0000 ave          61 max          46 min
Histogram: 2 0 6 0 0 0 0 0 4 4
Nghost:        2579.81 ave        2620 max        2547 min
Histogram: 3 3 0 2 0 1 3 1 2 1
Neighs:        13271.4 ave       15462 max       11192 min
Histogram: 2 1 4 1 0 0 2 3 1 2

Total # of neighbors = 212342
Ave neighs/atom = 245.76620
Ave special neighs/atom = 2.0000000
Neighbor list builds = 874
Dangerous builds = 0

unfix		3
unfix		2
unfix		1

write_data	data.final.${pid} nocoeff
write_data	data.final.1 nocoeff
System init for write_data ...
PPPM initialization ...
  extracting TIP4P info from pair style
  using 12-bit tables for long-range coulomb (../kspace.cpp:340)
  G vector (1/distance) = 0.37209799
  grid = 24 27 25
  stencil order = 5
  estimated absolute RMS force accuracy = 0.0031129225
  estimated relative force accuracy = 9.3744738e-06
  using double precision FFTW3
  3d grid and FFT values/proc = 6300 1296
Last active /omp style is kspace_style pppm/tip4p/omp

write_restart   restart.lmp.${pid}
write_restart   restart.lmp.1
System init for write_restart ...
PPPM initialization ...
  extracting TIP4P info from pair style
  using 12-bit tables for long-range coulomb (../kspace.cpp:340)
  G vector (1/distance) = 0.37209799
  grid = 24 27 25
  stencil order = 5
  estimated absolute RMS force accuracy = 0.0031129225
  estimated relative force accuracy = 9.3744738e-06
  using double precision FFTW3
  3d grid and FFT values/proc = 6300 1296
Last active /omp style is kspace_style pppm/tip4p/omp
Total wall time: 0:05:10
