LAMMPS (30 Jul 2021)
Processor partition = 0
  using 4 OpenMP thread(s) per MPI task
using multi-threaded neighbor list subroutines
variable        pid world 0 1
variable        phase world IceII IceIh

shell cd ${phase}
shell cd IceII
include Restart.lmp
echo both
log log.lammps
#include		in.partitions
include		in.temp
variable        temperature equal 80.10
variable	tempDamp equal 100.0
include		in.pressure
variable        pressure equal 2029.7
variable        pressureDamp equal 1000.0 # This is 1 ps
include		in.seed
variable        seed equal 745823

units		real
atom_style	full
box tilt large
read_restart	restart.lmp.${pid}
read_restart	restart.lmp.0
Reading restart file ...
  restart file = 30 Jul 2021, LAMMPS = 30 Jul 2021
  restoring atom style full from restart
  triclinic box = (-10.583065 -9.2276357 0.14808273) to (12.563065 12.217634 21.711916) with tilt (-9.1538452 1.8328400 2.8289950)
  2 by 2 by 4 MPI processor grid
  restoring pair style lj/cut/tip4p/long/omp from restart
  restoring bond style harmonic/omp from restart
  restoring angle style harmonic/omp from restart
  1296 atoms
  864 bonds
  432 angles
Finding 1-2 1-3 1-4 neighbors ...
  special bond factors lj:    0        0        0       
  special bond factors coul:  0        0        0       
     2 = max # of 1-2 neighbors
     1 = max # of 1-3 neighbors
     1 = max # of 1-4 neighbors
     2 = max # of special neighbors
  special bonds CPU = 0.001 seconds
  read_restart CPU = 0.004 seconds
include 	in.setup
variable	out_freq equal 1000
variable	out_freq2 equal 10000
variable	out_freq3 equal 1000

timestep	2.0

neigh_modify    delay 7 every 1

include		in.tip4p
# This is TIP4P/Ice

# create groups ###
group ox type 2
432 atoms in group ox
group hy type 1
864 atoms in group hy

# set charges - beside manually ###
set group ox charge -1.1794
Setting atom values ...
  432 settings made for charge
set group hy charge 0.5897
Setting atom values ...
  864 settings made for charge

# ### TIP3P Potential Parameters ###
pair_style lj/cut/tip4p/long/omp 2 1 1 1 0.1577 8.5
pair_coeff 1 1*2 0.000 0.000
pair_coeff 2 2 0.21084 3.1668
bond_style  harmonic
bond_coeff  1 450 0.9572
angle_style harmonic
angle_coeff 1 55 104.52
kspace_style pppm/tip4p/omp 1.0e-5
pair_modify tail yes

thermo          ${out_freq}
thermo          1000
thermo_style    custom step temp pe etotal epair emol press lx ly lz vol pxx pyy pzz pxy pxz pyz enthalpy

restart 	${out_freq3} restart.lmp.${pid} restart2.lmp.${pid}
restart 	1000 restart.lmp.${pid} restart2.lmp.${pid}
restart 	1000 restart.lmp.0 restart2.lmp.${pid}
restart 	1000 restart.lmp.0 restart2.lmp.0


include         in.dump
dump            myDump all atom ${out_freq2} dump.water.${pid}
dump            myDump all atom 10000 dump.water.${pid}
dump            myDump all atom 10000 dump.water.0
dump            myDump2 all dcd ${out_freq2} dump.dcd
dump            myDump2 all dcd 10000 dump.dcd
dump_modify     myDump append yes
dump_modify     myDump2 append yes


variable natoms 	equal  "count(all)"                        # NUMBER ATOMS
variable H      	equal  "enthalpy/v_natoms"                 # ENTHALPY-per-atom
variable Vol      	equal  "vol/v_natoms"                 # volume-per-atom
fix AVG all 		ave/time ${out_freq} 1 ${out_freq} v_Vol v_H file vol_enthalpy.dat
fix AVG all 		ave/time 1000 1 ${out_freq} v_Vol v_H file vol_enthalpy.dat
fix AVG all 		ave/time 1000 1 1000 v_Vol v_H file vol_enthalpy.dat


timer           timeout 10:00:00 every 1000
New timer settings: style=normal  mode=nosync  timeout=10:00:00

fix 		1 all shake 1e-6 200 0 b 1 a 1
Finding SHAKE clusters ...
       0 = # of size 2 clusters
       0 = # of size 3 clusters
       0 = # of size 4 clusters
     432 = # of frozen angles
  find clusters CPU = 0.000 seconds
fix             2 all nph tri ${pressure} ${pressure} ${pressureDamp}
fix             2 all nph tri 2029.7 ${pressure} ${pressureDamp}
fix             2 all nph tri 2029.7 2029.7 ${pressureDamp}
fix             2 all nph tri 2029.7 2029.7 1000
fix             3 all temp/csvr ${temperature} ${temperature} ${tempDamp} ${seed}
fix             3 all temp/csvr 80.1 ${temperature} ${tempDamp} ${seed}
fix             3 all temp/csvr 80.1 80.1 ${tempDamp} ${seed}
fix             3 all temp/csvr 80.1 80.1 100 ${seed}
fix             3 all temp/csvr 80.1 80.1 100 745823


run             250000
PPPM initialization ...
  extracting TIP4P info from pair style
  using 12-bit tables for long-range coulomb (../kspace.cpp:340)
  G vector (1/distance) = 0.36843206
  grid = 30 40 32
  stencil order = 5
  estimated absolute RMS force accuracy = 0.004291637
  estimated relative force accuracy = 1.2924137e-05
  using double precision FFTW3
  3d grid and FFT values/proc = 11832 2400
Last active /omp style is kspace_style pppm/tip4p/omp
Neighbor list info ...
  update every 1 steps, delay 7 steps, check yes
  max neighbors/atom: 2000, page size: 100000
  master list distance cutoff = 10.8154
  ghost atom cutoff = 10.8154
  binsize = 5.4077, bins = 7 5 4
  1 neighbor lists, perpetual/occasional/extra = 1 0 0
  (1) pair lj/cut/tip4p/long/omp, perpetual
      attributes: half, newton on, omp
      pair build: half/bin/newton/tri/omp
      stencil: half/bin/3d/tri
      bin: standard
Setting up Verlet run ...
  Unit style    : real
  Current step  : 32000000
  Time step     : 2
  Walltime left : 9:59:59.96
Per MPI rank memory allocation (min/avg/max) = 12.76 | 12.76 | 12.77 Mbytes
Step Temp PotEng TotEng E_pair E_mol Press Lx Ly Lz Volume Pxx Pyy Pzz Pxy Pxz Pyz Enthalpy 
32000000    86.243987   -6800.5414    -6578.684   -6800.5414            0     2738.395    23.146131    21.445269    21.563834    10703.748    2623.7623    2152.5737    3438.8489    425.70326   -178.35503    160.58999   -6151.2119 
32001000    83.566115   -6822.7482   -6607.7795   -6822.7482            0    1831.8845     23.38351     21.22527    21.595106    10718.112    1460.0367    2329.5568    1706.0601   -977.39946   -211.09582    534.41866   -6321.4327 
32002000    82.449075    -6819.905   -6607.8098    -6819.905            0    1799.4728    23.132952    21.502612    21.573034    10730.835    2340.9088    1041.6484    2015.8611   -213.39591    186.47289   -124.58376   -6326.1955 
32003000     80.69528   -6816.9651   -6609.3814   -6816.9651            0     1712.781    23.337274    21.280815    21.634153    10744.304    1222.5985    1958.7084    1957.0362   -442.83282   -63.267024    52.476087   -6340.9978 
32004000    79.051153   -6823.1368   -6619.7826   -6823.1368            0    2040.5636      23.1541    21.416929    21.617207     10719.75    1656.4167    2955.5772    1509.6968    979.20549    691.50309    52.773736   -6300.7679 
32005000    78.955384   -6813.5861   -6610.4782   -6813.5861            0    2100.5012    23.343792    21.261194     21.61772    10729.239    1508.4589      2454.47    2338.5746   -370.58268    42.030646   -205.76831   -6281.8024 
32006000    81.838088   -6810.7661   -6600.2426   -6810.7661            0    2276.1205    23.201309    21.419792    21.606671    10737.807    2191.1808    1348.0445    3289.1361   -106.96475   -188.45631    448.75704   -6243.8024 
32007000    79.957986   -6818.1601    -6612.473   -6818.1601            0    2684.4408    23.271884    21.304779    21.592614    10705.668     2382.033    2218.3985     3452.891    728.00774   -162.33972    2.9102644   -6193.3481 
32008000    80.282378   -6812.7947   -6606.2732   -6812.7947            0    1899.5163    23.211121    21.399963    21.611836    10734.969    1195.7048    1933.9863    2568.8579     966.5199    69.013739   -791.43325   -6308.8877 
32009000    84.319029   -6810.9165   -6594.0109   -6810.9165            0    2099.3506    23.232904    21.276633    21.694337    10723.901    1857.1028    2190.3793    2250.5698   -394.55485    169.24129    140.72273   -6265.6786 
32010000    81.687605   -6813.8761   -6603.7397   -6813.8761            0    1940.4282    23.119655    21.393678    21.707735    10736.959    2679.7381    1534.6247    1606.9218    285.73063   -337.17814    405.48957   -6299.8929 
32011000    81.246162   -6816.8325   -6607.8317   -6816.8325            0    3009.0369    23.168204    21.207562    21.749662    10686.504    4047.8619     3163.181    1816.0678    -316.4784   -115.14755   -64.864378   -6138.8682 
32012000    81.697686   -6805.8959   -6595.7336   -6805.8959            0    1913.0109    23.105936    21.357927    21.762323    10739.595    2178.2022    2567.3683    993.46201    191.91026    425.85239   -755.81126   -6296.1064 
32013000     81.86587   -6810.0104   -6599.4154   -6810.0104            0    2185.1328    23.229009    21.258792     21.72346    10727.494      2795.99    1929.1568    1830.2515   -595.24289   -188.33085   -196.87137   -6257.5525 
32014000    76.058713   -6814.7686   -6619.1122   -6814.7686            0    1706.4718    23.134929    21.461371    21.653211    10750.977    2267.1703    1098.0138    1754.2312   -400.07452   -387.78245    256.42433   -6351.5512 
32015000    81.500552   -6815.3859   -6605.7307   -6815.3859            0    2451.0732    23.237135     21.29079    21.651826    10711.959    1902.2332      3173.46    2277.5264   -356.41528   -1.5649223    -141.2749   -6222.8169 
32016000    79.117932   -6812.3708   -6608.8448   -6812.3708            0    1255.8068    23.171415    21.401815    21.713214    10767.807    1303.6292    1619.0906    844.70051    168.83865     141.3448   -124.87332   -6411.6361 
32017000    80.100964   -6813.8104   -6607.7555   -6813.8104            0    2943.7812    23.195729    21.267213    21.686048    10697.912    2749.5516      3318.93    2762.8618   -257.66197    -321.5948   -453.23952   -6148.4725 
32018000    76.681088   -6815.0466   -6617.7892   -6815.0466            0    2499.5697    23.111709    21.377599    21.672378    10707.733    2609.4076    1986.1838    2903.1177   -203.14948   -134.43194     9.862056   -6227.4532 
32019000    79.583772   -6816.8031   -6612.0787   -6816.8031            0    1806.5841    23.223822    21.291623    21.708247    10734.139     2386.519    1686.8441    1346.3892   -725.88207   -139.03199    68.049596   -6329.2644 
32020000    77.799103   -6812.1943   -6612.0609   -6812.1943            0    1778.1631    23.187188    21.412175    21.633195    10740.625    1892.9278    1383.4461    2058.1154    644.33456   -880.03976    -103.9854   -6333.5276 
32021000    75.973521   -6814.5516   -6619.1143   -6814.5516            0    2478.1356    23.234856    21.286301     21.66167    10713.518    2910.4299    2511.3905    2012.5862   -298.79007   -480.73329    131.13224   -6231.9164 
32022000    81.629343   -6816.5952   -6606.6087   -6816.5952            0    1891.5633    23.243795    21.390868    21.589353    10734.333    1416.0324    1805.7279    2452.9296    421.60136    242.74751    203.51491   -6310.4859 
32023000    78.953527   -6814.8321    -6611.729   -6814.8321            0    2626.2628    23.242849    21.334291    21.569597    10695.709    2989.7966    2376.9948     2511.997    83.555023    -555.2989   -228.95935   -6202.0689 
32024000    84.576408   -6804.1472   -6586.5796   -6804.1472            0    1636.8434    23.286093    21.328894    21.648559    10752.116    1059.6135    2508.9527     1341.964   -215.00877    338.17611   -254.25166   -6329.9085 
32025000    86.035123   -6816.2347   -6594.9146   -6816.2347            0    2033.6415    23.236825    21.361042     21.62074    10731.731    1548.3361    2715.7404    1836.8481    496.76879    216.78737   -444.36824   -6276.6267 
32026000    80.618982   -6803.8275   -6596.4401   -6803.8275            0    2357.2295    23.283361    21.271415    21.646643    10720.934    2359.2098    1521.2334    3191.2454    404.08065     611.4779    682.10456   -6227.8782 
32027000    82.988552   -6814.7328   -6601.2498   -6814.7328            0    1990.6035    23.168592    21.367278    21.657005    10721.295    1780.4908    1477.2284    2714.0913   -152.77597    540.96632    394.68968   -6290.0008 
32028000    79.498907   -6821.6428   -6617.1367   -6821.6428            0     1908.157    23.235144    21.309691    21.653128    10721.194    2236.2495    1475.0932    2013.1285    -173.6094    355.31062    95.053783   -6318.7818 
32029000    80.044435   -6823.0601   -6617.1507   -6823.0601            0     1563.516    23.193575    21.333777    21.712142     10743.31    2214.8562     1033.294     1442.398   -306.35097   -106.76232   -334.43227   -6372.1788 
32030000    84.558308   -6811.0479   -6593.5268   -6811.0479            0     2252.917    23.185571    21.321339    21.675078    10715.019    2279.9735    2475.3854     2003.392   -12.020034   -307.96397   -369.01929    -6241.469 
32031000    84.187309    -6816.074   -6599.5073    -6816.074            0     1805.453    23.219839    21.335706    21.702166    10751.506    1647.8864     2221.894    1546.5787    665.59981   -332.65547   -91.364191   -6316.4128 
32032000     82.18621   -6813.7404   -6602.3214   -6813.7404            0     1790.924    23.185571    21.337302     21.72033    10745.428    2612.9019    1952.2237    807.64634   -440.18211    77.406286   -878.79684   -6321.6638 
32033000     81.45557   -6816.3641   -6606.8246   -6816.3641            0    2121.2328    23.169298    21.305495    21.718825    10721.136    2078.0171    2086.5038    2199.1775   -233.43127    349.23522    115.40852   -6275.1555 
32034000    80.596403   -6819.0074   -6611.6781   -6819.0074            0    2351.8335    23.199021     21.32905    21.659887    10717.595    2277.2733    2681.1583    2097.0689    495.12838   -423.15087   -510.16065   -6244.0744 
32035000    79.664936   -6820.1402    -6615.207   -6820.1402            0     1871.719    23.226676    21.392555    21.593643    10729.405    1508.8215    1880.6484     2225.687    157.46624    20.336304   -405.84029   -6322.3253 
32036000    79.243262   -6819.1035    -6615.255   -6819.1035            0    1909.4995    23.287187    21.306814    21.642637    10738.552    1690.6694     1967.759    2070.0699     122.9923   -318.37387    152.95991   -6316.2069 
32037000    78.078135   -6805.1779   -6604.3266   -6805.1779            0     2427.247     23.20256    21.334347    21.651109    10717.547    3142.4059    2218.1688    1921.1663   -52.086038    93.633813   -144.60803   -6224.9372 
32038000    77.047789   -6806.4182   -6608.2174   -6806.4182            0    2116.3506    23.277254     21.28265    21.650846    10725.865    2081.7792    2042.1429    2225.1296   -64.165228    94.886927    830.13365   -6277.1657 
32039000    78.729065   -6810.0477   -6607.5219   -6810.0477            0    2229.4679    23.156093    21.392851    21.635614    10717.739    1862.8656    2246.7192    2578.8188   -536.69828    597.17208     686.1203     -6259.04 
32040000    80.303335   -6821.6183   -6615.0428   -6821.6183            0     1954.859    23.261693    21.321702    21.623628    10724.863    2058.4198    1178.4573       2627.7   -247.78646   -576.89401    572.95144   -6309.2811 
32041000    78.530995   -6813.9591   -6611.9429   -6813.9591            0    2190.2681    23.181251    21.387189    21.612549    10715.109    2136.9051    2000.2464    2433.6527   -339.05083    288.66136     392.4006   -6269.6721 
32042000     79.17491   -6814.9633   -6611.2907   -6814.9633            0    1726.6752    23.304068    21.304116    21.637043    10742.198    1108.9746    1842.4903    2228.5607    30.722447    110.64305    769.10457   -6340.7829 
32043000    81.506268   -6812.8954   -6603.2254   -6812.8954            0    2602.4316    23.164823     21.46049    21.537325    10706.817    2520.8306    2281.3837    3005.0806    202.76595    -93.43409   -113.90298   -6196.8611 
32044000    82.335864   -6817.5632   -6605.7593   -6817.5632            0    1610.4052    23.339665    21.269862    21.627473    10736.558    2083.0652    1199.7601    1548.3904   -555.87619     72.52166    418.96774   -6353.5993 
32045000    75.966226   -6824.1904   -6628.7719   -6824.1904            0    2105.7028    23.161999    21.448659    21.535663    10698.784    1577.2825     1565.029    3174.7968     517.6875   -228.72251    643.02539   -6300.2174 
32046000    80.324125   -6812.6718   -6606.0429   -6812.6718            0    1969.3776    23.334327    21.280978    21.605568    10728.835    1965.8082    2653.5347      1288.79    355.62433   -423.65573   -239.53689   -6297.8963 
32047000    82.079565   -6825.7997    -6614.655   -6825.7997            0    1917.1721     23.23049    21.465773    21.478594    10710.525    1617.6833    1223.4455    2910.3875    931.53646     149.8671   -38.338054   -6315.1889 
32048000    84.291103   -6818.1119   -6601.2782   -6818.1119            0    1906.4624    23.353478    21.269149    21.589373    10723.627    1077.0988    2242.1194     2400.169    361.64179    381.22894    176.55613   -6303.1206 
32049000    80.055529   -6806.1806   -6600.2427   -6806.1806            0    2168.6237    23.182747    21.438943    21.547941     10709.62    2470.8054    1396.7957    2638.2698   -639.75428   -55.246213     290.8369   -6261.5279 
32050000    80.102192   -6811.8174   -6605.7594   -6811.8174            0    2015.3556    23.375681    21.225622    21.592695    10713.504    825.53095    2922.7746    2297.7611    427.01122    11.706447   -162.45141   -6290.8692 
32051000    82.520148   -6811.3961   -6599.1181   -6811.3961            0    1778.0655    23.179079    21.427161    21.620771    10738.212    1723.3093    1703.1787    1907.7086    283.21583    604.21066    383.32236   -6320.6627 
32052000    76.726709    -6814.538   -6617.1632    -6814.538            0     1292.382    23.345562    21.281261    21.666399    10764.365    1611.6626    1216.7595    1048.7239    195.99908    -86.44772   -102.31771   -6414.2758 
32053000    77.985226   -6813.3746   -6612.7624   -6813.3746            0    1978.4859    23.156575     21.46457    21.559649    10716.135    1898.5065    1606.0691    2430.8822    145.58636   -127.85038    685.17858    -6303.557 
32054000    85.336809   -6822.2404   -6602.7166   -6822.2404            0    2103.0411    23.238016    21.323209     21.62285    10714.319    2108.9456    1836.0224    2364.1554    94.561664   -378.35647    39.964492    -6274.101 
32055000    81.302388   -6813.3398   -6604.1943   -6813.3398            0    1996.8893    23.246518    21.384587    21.587311    10731.424    1648.9808    1573.2003    2768.4868   -14.120796    727.67473    483.66267   -6291.6675 
32056000     81.99017   -6809.2713   -6598.3566   -6809.2713            0    1137.5218    23.309737    21.386564    21.627075    10781.425    1506.2998    985.26422    921.00134   -130.94334   -526.40385   -32.052832   -6419.4971 
32057000    79.364106   -6810.4574    -6606.298   -6810.4574            0    2834.4623    23.207118    21.323624    21.600282    10689.113    2444.2591    3064.3765    2994.7512    597.61796   -347.10076   -493.78073   -6164.4344 
32058000    82.071442   -6818.9675   -6607.8437   -6818.9675            0    1821.8673    23.214417    21.316222    21.690315    10733.315     1760.972    1744.5778    1960.0522     860.7386   -247.98359   -865.72476   -6322.6588 
32059000    79.945843   -6813.1407   -6607.4848   -6813.1407            0    1981.6348    23.118674     21.41056    21.697184    10739.754    2748.6103    1640.3189    1555.9753    3.9070073     111.2863   -428.86184   -6297.1048 
32060000    76.279201    -6817.208   -6620.9844    -6817.208            0    1994.7661    23.256723       21.274     21.69992    10736.329    1681.3216    2221.7133    2081.2634   -135.90339   -136.24629   -239.81491   -6308.6473 
32061000    78.190336   -6809.5464   -6608.4066   -6809.5464            0    2136.8581    23.095576    21.440167    21.663928    10727.393    2650.7225    1950.3294    1809.5223    251.83112   -39.950833   -263.99301   -6274.0994 
32062000    79.676734   -6808.7302   -6603.7666   -6808.7302            0    2010.5189    23.251138    21.267386    21.695029    10727.995    1928.4541    2441.5912    1661.5114   -350.14629   -305.47294    460.84651   -6289.2073 
32063000    80.209339   -6799.6852   -6593.3515   -6799.6852            0    1709.1494    23.136268    21.400083    21.709651     10748.84    1391.5769     2672.766    1063.1053    983.56071    -481.1123   -16.314085   -6325.4239 
32064000    78.541612   -6815.4792   -6613.4356   -6815.4792            0    2050.5101    23.258488    21.273274    21.685274    10729.531    2226.6886     2519.999    1404.8428   -1492.8947   -172.63588    47.116134   -6292.5735 
32065000    78.434577   -6826.7348   -6624.9667   -6826.7348            0    1643.9501    23.096902    21.453609    21.669068    10737.281    2484.1413    783.34222    1664.3669   -275.18288   -519.51249    141.87139   -6367.5368 
32066000    84.176086   -6814.1251   -6597.5872   -6814.1251            0    2124.2946    23.214993    21.269296    21.716262    10722.764    2262.3206    2462.5171     1648.046   -440.27014    420.22374   -405.01347   -6265.3889 
32067000    75.600706   -6816.4077   -6621.9295   -6816.4077            0    1882.2144    23.067564    21.402886     21.72887    10727.814    2052.7504    2254.5995    1339.2933    23.766931     48.47399   -98.242266   -6327.4493 
32068000    77.064235   -6813.0529   -6614.8098   -6813.0529            0    2454.4886    23.179024    21.228289    21.788954    10721.277     2681.339    3025.7006    1656.4261    356.85688   -911.62789    227.63085   -6231.0289 
32069000    77.543101    -6824.778   -6625.3031    -6824.778            0    1746.1259    23.109593     21.36617    21.757153    10742.888    2502.0561    2091.0209     645.3008   -409.70867   -404.58948   -391.82615   -6351.7306 
32070000    83.940718   -6827.8526   -6611.9202   -6827.8526            0    1587.8014    23.215686    21.315369    21.728082    10752.162    1929.9799    1620.9571    1212.4671     80.75431   -353.67217   -143.80189   -6362.9383 
32071000    75.988088   -6802.4646   -6606.9899   -6802.4646            0    2186.7521    23.154153    21.362537    21.707066    10736.997    2177.9826     2321.526    2060.7476   -101.10344    742.27332    34.883962   -6264.5705 
32072000    83.199978     -6802.83   -6588.8031     -6802.83            0    1551.9992    23.265799    21.269767    21.710987    10743.858    1030.2354    2684.0691     941.6932    782.52581   -80.820694    103.91968   -6345.6232 
32073000    77.789368   -6817.8513   -6617.7429   -6817.8513            0    2635.9405    23.158709    21.330589    21.640151    10689.994    2105.1915    2881.9956    2920.6344   -226.42919    2.4204327   -54.199458   -6206.7929 
32074000    80.278009   -6818.1218   -6611.6115   -6818.1218            0    1575.9398    23.295862    21.314742    21.622843    10736.721     1851.934    1177.6442     1698.241   -926.74748    462.45843    82.452693   -6364.8445 
32075000    79.158982   -6813.3038   -6609.6721   -6813.3038            0    1779.8103    23.216887    21.393592    21.622969    10739.969    2141.1269    1900.7634    1297.5406   -264.88434    652.09802   -16.623843   -6330.8979 
32076000    74.578922   -6800.6547    -6608.805   -6800.6547            0     2112.828    23.311727    21.320117    21.585982    10728.422    1947.4519     1980.223    2410.8091   -734.31403   -61.604534   -331.96502   -6278.2255 
32077000    79.457217   -6820.4705   -6616.0717   -6820.4705            0    1900.1878    23.219341    21.423045    21.563871    10726.495    1166.2388     1792.746    2741.5786   -522.78587    368.01879    233.90009    -6318.816 
32078000    82.796935   -6807.7772   -6594.7871   -6807.7772            0    2534.0434    23.302921    21.323194    21.550121    10708.098    2353.5826    2752.6738    2495.8739    370.95309   -518.36009    391.97928   -6199.0541 
32079000    79.970725   -6822.2271   -6616.5073   -6822.2271            0    1596.1502    23.233418    21.441488    21.540083    10730.387    1420.3679    942.20375    2425.8788   -236.11586    329.24807   -290.65252   -6366.7231 
32080000    79.957667   -6802.0521   -6596.3659   -6802.0521            0    2277.4854    23.349321     21.31904    21.533816    10719.213    1693.9444    2336.4117       2802.1    -287.2273   -149.22323  -0.34928078   -6240.3295 
32081000    76.904024   -6811.2816   -6613.4507   -6811.2816            0    2289.9342    23.220504     21.43432    21.509472    10705.602    2087.1094    1506.8893    3275.8038   -4.7873026    241.47303    15.462878   -6255.9227 
32082000    78.982059   -6817.5941   -6614.4175   -6817.5941            0    1636.2695    23.354238    21.305235    21.579594    10737.305    789.37788    1479.9834    2639.4473   -96.364215     306.2251    130.17715   -6358.1899 
32083000    79.301041   -6814.7328   -6610.7357   -6814.7328            0    2259.2864     23.18103    21.444245    21.560241    10717.589    1961.5493    2394.4996    2421.8105    484.60479     32.71676   -159.45275   -6257.5978 
32084000    87.387887   -6815.9369   -6591.1369   -6815.9369            0    3067.2967    23.294221    21.247935    21.594075    10688.076    2842.0323    3281.2301    3078.6277   -653.80757    595.78963   -407.58857   -6113.0232 
32085000    81.742737   -6823.1219   -6612.8437   -6823.1219            0    1706.5529    23.193867    21.418486      21.6304    10745.497    1953.5865     1862.688    1303.3842    117.41703    316.34367   -633.73009   -6345.4063 
32086000    78.943819   -6817.9977   -6614.9195   -6817.9977            0    2253.8257    23.312571    21.267801    21.645881    10732.182    2168.3349     2579.617    2013.5251   -501.07665    -392.9591   -289.34824   -6262.1555 
32087000    78.501334   -6823.5413   -6621.6014   -6823.5413            0    1344.7295    23.226234    21.454571    21.607149    10767.035    919.83523    513.11638    2601.2369    538.63138    211.78981    749.15143   -6410.4437 
32088000    79.875614   -6812.5003   -6607.0251   -6812.5003            0     2005.523    23.225655    21.307759     21.67047    10724.427    2638.3607    2174.0445    1204.1638   -474.44632    -13.69166    108.79925   -6293.3517 
32089000    78.767043   -6828.6349   -6626.0114   -6828.6349            0    1162.4123    23.134734    21.388858    21.735972    10755.514    1518.3174    1346.4707    622.44889   -311.17964    142.55352   -208.51143   -6443.6776 
32090000     76.03895   -6809.1999   -6613.5944   -6809.1999            0    2977.2876    23.187884    21.259631    21.692245    10693.536    3193.7827    2593.9425    3144.1375   -76.770769   -428.07315    321.32983   -6149.2737 
32091000    80.786199   -6827.4836    -6619.666   -6827.4836            0    1728.2874    23.144947    21.357089    21.702738    10727.852    2372.5117    1544.4301    1267.9202   -136.77248   -129.19381    178.75378   -6349.2673 
32092000     77.71064   -6810.9143   -6611.0084   -6810.9143            0     2053.283    23.192984    21.307003    21.729064    10737.917    1701.6682    2545.8081    1912.3727    30.634414    628.43828    183.59196   -6289.4612 
32093000    78.894374   -6813.1107   -6610.1597   -6813.1107            0    2475.4284    23.169081    21.366676    21.656575    10721.006    3105.6544    1993.8956    2326.7353    735.73618   -898.72504    539.97094   -6223.1144 
32094000    77.829832   -6806.3971   -6606.1846   -6806.3971            0    2171.2746    23.243963    21.367107     21.62396    10739.675    1830.7975    2419.5158    2263.5105   -186.17692    90.871737   -135.61374   -6266.1041 
32095000    77.319391   -6821.2889   -6622.3895   -6821.2889            0    1911.9962    23.234597    21.403967    21.581061    10732.533    1681.2634     1836.016    2218.7092    520.73392   -243.60054   -445.17579   -6323.1181 
32096000    81.816076   -6810.4536   -6599.9868   -6810.4536            0    2073.0387    23.241786    21.353129    21.613541    10726.473    2596.1969    1674.5623     1948.357   -1035.5117    74.461386   -580.46014   -6275.6918 
32097000    80.246086   -6818.8265   -6612.3984   -6818.8265            0    1674.3263    23.253321    21.367722    21.614354    10739.535    967.85549    1925.0123    2130.1111    135.21624    444.81925   -319.00443   -6350.1568 
32098000    78.685948   -6828.9345   -6626.5197   -6828.9345            0    1616.6884    23.256102    21.326507    21.651304    10738.428    1102.6573    1627.0802    2120.3276    405.44906    325.09444   -54.202772   -6373.3318 
32099000    81.573643   -6814.5922   -6604.7489   -6814.5922            0    1983.3062    23.271695    21.248036    21.672214    10716.429    1930.4537    2544.9256    1474.5394    467.46847   -467.91916    326.22222   -6294.7817 
32100000    79.935427   -6823.4973   -6617.8683   -6823.4973            0    1888.4282    23.211101    21.378684    21.612109    10724.421    1331.2412    1738.8683    2595.1752     -393.775    16.179846     203.8837   -6322.5093 
32101000    77.890213    -6820.876   -6620.5082    -6820.876            0    2030.6114    23.314507     21.30983    21.571771    10717.464    1545.7049    1337.1436    3208.9857    582.44166   -13.135586    545.41571   -6303.1171 
32102000     76.46529   -6806.6723     -6609.97   -6806.6723            0    2134.9827    23.229698    21.452138    21.495019    10711.542    1346.3316    1770.3883    3288.2281    65.643847    502.37695     182.8063   -6276.4497 
32103000    80.089658    -6806.332   -6600.3062    -6806.332            0     2439.517    23.313534    21.360357    21.526577    10719.921    1970.3846    2033.3774    3314.7891    479.36381    -385.4888    745.21727   -6218.9144 
32104000    82.175746   -6818.2462   -6606.8541   -6818.2462            0    2661.5575    23.269236    21.350617    21.533762    10698.243    1723.8079    2670.9258    3589.9389   -70.513309    97.190696   -22.553094   -6191.5902 
32105000    80.267277    -6809.263   -6602.7803    -6809.263            0    1952.7096     23.24716     21.42197    21.542303    10728.066    1955.1468    1421.3841    2481.5979    -307.3798    227.17669    592.49891   -6297.2636 
32106000    78.628254   -6819.7104    -6617.444   -6819.7104            0    1058.9552    23.288612    21.388038     21.61171    10764.744    691.68955     1079.953    1405.2229    205.42181    95.985112   -119.32991   -6451.1958 
32107000    78.975792    -6817.072   -6613.9116    -6817.072            0    2190.2522    23.253773    21.341338    21.614565    10726.587    1680.2901    2305.7797    2584.6869   -547.13302    190.96235   -84.875592   -6271.2767 
32108000    81.088026   -6821.0859   -6612.4919   -6821.0859            0    2502.9661    23.200477     21.35766     21.59748    10701.722    2369.2715    1915.3352    3224.2916   -132.73756    355.76425    6.8072961   -6221.8449 
32109000    80.771702   -6822.4552   -6614.6749   -6822.4552            0    1620.9094    23.196806    21.373459    21.661934      10739.9    1949.3086    1688.4829    1224.9367      352.838   -44.083595    194.38716   -6360.7911 
32110000    79.703296   -6819.9271   -6614.8952   -6819.9271            0    2043.9384    23.188114     21.34995     21.67831    10732.174    1792.0087    2338.6958    2001.1106    203.40046   -243.57907   -97.897735   -6294.9826 
32111000    81.013857   -6818.6816   -6610.2784   -6818.6816            0    1127.5267    23.235345    21.310202     21.74668    10767.866    2039.3017    201.95035    1141.3279    187.61308   -203.36422   -48.747051   -6433.2135 
32112000    82.711244   -6819.6298   -6606.8601   -6819.6298            0    2794.9324     23.08163    21.326616    21.744334    10703.715    3541.7861    2506.8467    2336.1646    408.56674   -42.753286   -76.343466   -6170.5636 
32113000    83.910255   -6822.5813   -6606.7272   -6822.5813            0     1792.488    23.219864    21.267761    21.747305     10739.57    2958.1838    1577.0616    842.21859   -136.75793   -154.63907    168.41224   -6325.9777 
32114000    81.167972   -6811.1314   -6602.3317   -6811.1314            0    1786.0256    23.174399    21.385067      21.6907    10749.609    1542.3256    1438.5499    2377.2014    449.72275     426.2666    -250.7928   -6322.3329 
32115000    77.368299   -6806.5134   -6607.4882   -6806.5134            0    991.89347    23.316864     21.30493    21.736972    10798.149     816.3442    1749.0404    410.29582   -427.41334   -112.05844   -885.68072   -6451.2849 
32116000    76.880649   -6822.0377    -6624.267   -6822.0377            0    2040.2382    23.172248    21.406095    21.619021    10723.626    2856.0981    1205.9157    2058.7009   -149.79217    529.13179    20.092782   -6305.1878 
32117000    72.346318    -6814.618   -6628.5115    -6814.618            0    2580.5353    23.221744    21.267531     21.65314    10693.818     2809.745    3197.7597    1734.1014   -168.40135   -54.128395   -814.36315   -6226.0554 
32118000    79.647358   -6821.9077   -6617.0198   -6821.9077            0     1453.255    23.144065     21.40807      21.6872    10745.352    2291.0843    845.92574    1222.7548   -147.90326    -292.8511    234.82533   -6389.2803 
32119000    79.024481   -6814.5493   -6611.2636   -6814.5493            0     2250.637    23.233623    21.276713    21.705067    10729.577    1569.0791    2896.6142    2286.2177    458.07432   -571.56607    579.88965   -6259.0842 
32120000    80.765967   -6819.0922   -6611.3267   -6819.0922            0    2233.1175    23.158004    21.338967     21.67251    10709.858    2317.7375     2238.042    2143.5731   -578.76388    61.418893    1017.7094   -6262.5309 
32121000    79.899512   -6818.3667   -6612.8301   -6818.3667            0    2248.9732    23.211193     21.26214    21.701719    10710.224    2666.3338    2387.5373    1693.0484    -5.305351    362.60517     485.9502   -6261.5458 
32122000    82.517911   -6807.3253    -6595.053   -6807.3253            0    2312.8035    23.118953    21.352515    21.699792    10712.054    3186.8341     2267.782    1483.7943   -441.78919    432.42768    142.98503   -6233.7368 
32123000    82.119651   -6825.3928    -6614.145   -6825.3928            0    1389.1175    23.273928    21.306622    21.675877    10748.825    991.34242    1969.3904    1206.6198   -239.66397    735.72834   -156.91984   -6396.3861 
32124000    77.802285   -6807.5439   -6607.4023   -6807.5439            0    1920.6927    23.186177    21.390073     21.66255    10743.629    1566.3988    1754.3731    2441.3062    287.31917    -61.78865   -101.55355   -6306.4589 
32125000    79.026305   -6803.9848   -6600.6944   -6803.9848            0    2127.0092    23.279289    21.361722    21.610894    10746.788    1666.8973    2712.6002    2001.5302    473.84037   -643.00899   -1041.2505   -6267.3264 
32126000    78.916577   -6812.9071   -6609.8991   -6812.9071            0    2267.8413    23.223929    21.404017    21.572517    10723.383    2307.7274    1961.7408    2534.0557   -177.38211   -34.639909   -732.23935   -6255.2324 
32127000    79.993047   -6818.4413    -6612.664   -6818.4413            0    1652.5874    23.216983    21.373337    21.645899    10741.224    900.06655    2070.4305    1987.2652   -558.82376    6.3178899   -375.62885   -6353.7867 
32128000    82.489352   -6823.8306   -6611.6317   -6823.8306            0    1719.0339    23.211393    21.390395    21.623694    10736.183    1780.5006    1370.2436    2006.3576    100.84994   -280.54453    481.55707   -6342.4719 
32129000    81.333291   -6804.0779    -6594.853   -6804.0779            0    1794.4235    23.270429    21.326702    21.616423    10727.831    1815.8091    2616.8118    950.64957   -414.09726    524.06041    -145.0178   -6314.1075 
32130000    78.591792   -6827.2842   -6625.1116   -6827.2842            0    2479.3521    23.209579    21.325632    21.601096    10691.656    2372.5936    2235.6299    2829.8327   -74.543154   -216.62069    286.36092   -6238.5141 
32131000    75.134474   -6814.6911   -6621.4123   -6814.6911            0    2016.9779    23.226607    21.364126    21.602341     10719.43    2338.2426    1372.8677    2339.8234    46.690367   -425.95324    442.79991   -6306.0943 
32132000    83.780548   -6815.7022   -6600.1819   -6815.7022            0    2159.9096    23.252681    21.285368    21.669897     10725.34    1894.1674    2927.7498    1657.8115    -270.8764    1196.7727   -136.07241    -6262.333 
32133000    84.596995   -6822.6435   -6605.0229   -6822.6435            0    1680.2668    23.232661    21.337205    21.673565    10744.021    1746.0626    2301.3544     993.3834   -104.66532    582.76839   -790.83219    -6341.741 
32134000     78.82555   -6825.2055   -6622.4316   -6825.2055            0    1749.3691    23.281262    21.359532    21.607428    10744.874     1986.342    773.45796    2488.3075    95.280737     62.81034    268.29016   -6348.3002 
32135000    79.249371   -6823.6575   -6619.7933   -6823.6575            0    1670.5969    23.259872    21.381425    21.588975    10736.827    1242.8423    1644.2414     2124.707    882.17381    80.679688   -85.415248   -6358.2019 
32136000    83.779604   -6817.2964   -6601.7784   -6817.2964            0    2052.0979    23.259609    21.329279    21.599903    10715.943    1518.5246    2282.9967    2354.7724    148.44145    305.84507    185.77182   -6281.0744 
32137000    84.727638    -6829.727   -6611.7703    -6829.727            0    2118.1884    23.237638    21.332367    21.616256    10715.477    2138.6508    1626.6929    2589.2216     408.2989    597.18587    534.61797   -6280.7521 
32138000    75.991104   -6812.2233   -6616.7409   -6812.2233            0    2932.4606    23.233976    21.230355    21.637228      10672.9    2878.3924    3578.5076    2340.4818    -93.79106    361.88505   -531.31729   -6160.2937 
32139000    77.305721    -6814.968   -6616.1038    -6814.968            0    1045.5918    23.255384    21.364591    21.663983    10763.572     1212.505    610.32628     1313.944    -465.4041    419.59675   -236.00616   -6451.9713 
32140000     79.60249   -6817.7757   -6613.0031   -6817.7757            0    1785.1839    23.251765    21.324155    21.660054     10739.58    1988.7636    1324.5093    2042.2787   -9.8539281    208.43319    132.56583   -6333.3974 
32141000    78.369662   -6819.0705   -6617.4694   -6819.0705            0    1621.4586    23.292614    21.348996    21.608061    10745.126    1544.7918    1364.8126    1954.7714    724.12586   -97.152294    120.07212    -6363.376 
32142000    80.452682   -6816.2926    -6609.333   -6816.2926            0    1882.0435    23.188707    21.385915    21.642773    10732.904    1722.5046    1926.7752    1996.8506   -601.99445   -212.72009    100.69579   -6314.7397 
32143000    77.154689   -6807.1266   -6608.6508   -6807.1266            0    2518.5928    23.161025    21.380125    21.624542    10708.162    3119.1318    1681.7445    2754.9021   -1286.8229   -98.849685    -59.56677   -6215.3283 
32144000    79.571387   -6816.2781   -6611.5856   -6816.2781            0    1980.8902    23.202256    21.340665    21.679899    10734.836    2301.5747    2038.1244    1602.9717   -420.14822   -538.82361    39.783509   -6301.4642 
32145000    81.830291   -6807.4601   -6596.9566   -6807.4601            0    2495.4682     23.14207    21.409742    21.640915    10722.332    2658.9971    2075.1618    2752.2458   -573.43313   -703.88254    100.54055   -6206.7297 
32146000    81.141132   -6822.3672   -6613.6366   -6822.3672            0     2172.473    23.224953    21.310483    21.674106    10727.273    2438.4747    2184.7752    1894.1692   -792.88735    40.754251    573.55155   -6273.7613 
32147000    78.056828   -6818.5151   -6617.7187   -6818.5151            0    1938.1312    23.117779    21.375123    21.704227    10725.043    2369.5767    1490.5078    1954.3091   -25.581437    339.59519    822.67941   -6314.5683 
32148000    77.197815    -6817.445   -6618.8583    -6817.445            0    1693.4147    23.235111    21.287527     21.70678    10736.565     1806.178    1880.1398    1393.9261   0.10581011   -171.67371    905.00716   -6353.7004 
32149000    83.592299   -6813.9037   -6598.8676   -6813.9037            0    2397.5826    23.147384    21.372093    21.641285    10706.118    3081.7771    2490.3369    1620.6337   -835.38977    -59.03884    254.90656   -6224.5144 
32150000    80.429545   -6823.2626   -6616.3625   -6823.2626            0    1670.6152    23.291248    21.308306    21.643674    10741.691    1659.5217    1682.1433    1670.1805    115.27464    -899.2076   -174.18174   -6354.6497 
32151000    82.289321   -6813.3387   -6601.6545   -6813.3387            0    2229.1573    23.182436    21.384401    21.644517    10730.107    2205.6505    2214.8217    2266.9997    349.84154   -367.30044    776.66118    -6252.819 
32152000    81.169162   -6828.7681   -6619.9654   -6828.7681            0    1475.1291     23.24321    21.320469    21.694555    10750.869    1544.0803    1743.3759    1137.9311   -175.86511    31.134782   -412.55248   -6388.6793 
32153000    84.322508   -6817.4265    -6600.512   -6817.4265            0    1958.6912    23.232508    21.329478    21.669784    10738.185    2604.2307    1999.0925    1272.7502    61.544918   -299.30554   -549.35021   -6293.7703 
32154000    79.116949   -6814.5691   -6611.0456   -6814.5691            0    2382.8981    23.179576     21.38305    21.627279    10719.562    2186.3656    2437.6685    2524.6604   -245.91465    799.57134    73.843046    -6238.518 
32155000     77.46397   -6818.8883   -6619.6169   -6818.8883            0    2197.5134    23.233662    21.308818     21.62869    10707.972    2617.3354    2283.3523    1691.8527    387.33917   -347.96236    20.976315   -6276.4427 
32156000    78.222903   -6828.8091   -6627.5855   -6828.8091            0    2019.1723    23.201454    21.331892    21.658078    10719.252    2329.8076    1818.4136    1909.2957     164.9518   -540.72552    349.86677   -6311.9297 
32157000    79.189951   -6820.6932   -6616.9819   -6820.6932            0    1549.4215    23.263335    21.312717    21.678242    10748.178    1422.4595    1387.3442    1838.4609    610.04461   -130.35084    323.20188   -6374.1083 
32158000     81.36106    -6827.271   -6617.9746    -6827.271            0    1628.4831    23.195838     21.36854    21.655016    10733.551    2072.4671    1720.2573    1092.7249    100.17466     357.8743   -67.330197   -6363.0554 
32159000    83.864417    -6826.653   -6610.9169    -6826.653            0    2813.8568    23.251107    21.192098    21.684969    10685.046    2630.7259    3190.7157    2620.1288   -354.44675    197.03207    76.048367   -6172.4324 
32160000    77.998923   -6811.7334   -6611.0859   -6811.7334            0    2792.7906     23.09206     21.36859    21.651773    10683.954    3554.1267    2116.4304    2707.8146    338.85796   -600.72982    209.94686   -6175.9286 
32161000    77.071346   -6818.9776   -6620.7163   -6818.9776            0    1799.9858    23.224047    21.296986    21.678731    10722.348    1952.0346    1747.1828    1700.7399   -547.39783   -64.451906    71.318943   -6339.2445 
32162000    80.110564    -6817.305   -6611.2255    -6817.305            0    1403.2537    23.204682    21.426881    21.630699    10754.869    1015.5253    1263.8979    1930.3379   -177.40924   -288.43553    313.63883   -6391.1269 
32163000    77.788322   -6808.5714   -6608.4657   -6808.5714            0    2612.7546    23.252623    21.268469    21.656044    10709.947    2811.0719    2864.5787    2162.6133    0.7667071   -485.72925   -38.057434   -6200.3702 
32164000    77.722559   -6820.5723   -6620.6357   -6820.5723            0    1208.2261    23.186338      21.4267     21.64528     10753.52    1703.8357    550.75011    1370.0924    286.39377   -3.2639873   -174.64134   -6431.1508 
32165000    81.438877   -6817.5309   -6608.0344   -6817.5309            0    2446.4427    23.336698    21.211514    21.639158    10711.528    2018.1113    3084.6456    2236.5713   -262.75613    502.51724   -930.45152   -6225.8593 
32166000    78.693735   -6802.3046   -6599.8698   -6802.3046            0    2581.0654    23.191371    21.424338    21.587045    10725.734    2996.1306    1841.1744    2905.8911    170.97766    430.22856    382.85442   -6196.1296 
32167000    79.421812   -6818.0815   -6613.7737   -6818.0815            0    1904.8271    23.312816    21.302462    21.597543     10725.78    1304.0542    2298.5625    2111.8645    738.53297   -23.907174   -767.10897   -6315.8121 
32168000    83.525286   -6815.0622   -6600.1985   -6815.0622            0     2620.595    23.188426    21.373947    21.587953    10699.598    2523.3199    1902.6249    3435.8402    791.12527   -86.253002    515.12582   -6191.2739 
32169000    84.775671   -6810.6552   -6592.5749   -6810.6552            0    1915.3449    23.225839    21.289199    21.688843    10724.255    2117.3038    2229.0298    1399.7012     252.1531    414.56416    510.80043   -6293.0107 
32170000    79.465202   -6814.2442   -6609.8249   -6814.2442            0    3092.1408    23.080348    21.358735    21.650589    10673.027    3690.1796    2820.1001    2766.1428   -350.87899    265.00191   -476.64578   -6128.5172 
32171000    78.056181   -6810.3424   -6609.5476   -6810.3424            0    2079.4334    23.245811     21.31242    21.660015    10730.902    1937.6762    2106.8408    2193.7833   -1028.4453    291.23378    101.01888   -6284.1179 
32172000    81.013622   -6819.4004   -6610.9978   -6819.4004            0    1609.7619    23.175546    21.417001    21.649253    10745.622    1329.0576    1265.3266    2234.9015    91.967615   -261.59039    190.02672   -6358.7258 
32173000    80.489342    -6820.929    -6613.875    -6820.929            0    2542.5408    23.266606    21.247896    21.641725    10698.942    2425.0095    3099.2532    2103.3596    511.01613   -645.77953    87.398245   -6217.1545 
32174000    78.573988   -6819.8629   -6617.7361   -6819.8629            0    2987.5291    23.062628    21.380108    21.634815    10667.726    3523.4535    2476.3895    2962.7445   -146.85819   -199.42463     322.8773   -6152.9427 
32175000    77.954914   -6809.5669   -6609.0327   -6809.5669            0    1551.3785     23.26421    21.251157    21.740571    10748.351    1590.1468    2240.4508    823.53804   -205.75974   -77.765651     117.2307   -6365.8484 
32176000    76.732306    -6815.162   -6617.7729    -6815.162            0    2018.8325    23.102965    21.434441     21.67734      10734.6    2358.5628    1779.7913    1918.1433   0.34715834    57.013134    59.825412   -6301.7183 
32177000    83.397619   -6811.8798   -6597.3445   -6811.8798            0    1846.2161    23.311199    21.243247    21.697981     10744.96    1459.0458    2580.0003    1499.6023   -375.77024    59.241374    291.05007   -6308.0346 
32178000    80.540847   -6812.3559   -6605.1694   -6812.3559            0    1870.7984    23.143407    21.477688      21.6041    10738.683    2229.0878    1583.0328    1800.2746    8.2479119    137.05403     -129.331   -6312.1787 
32179000     80.84936   -6819.2038   -6611.2237   -6819.2038            0    1866.4893    23.292868    21.290679     21.64953    10736.456    2011.6239    2240.6252    1347.2188    161.60483    -530.1223   -416.87204   -6318.9684 
32180000    82.162717   -6817.7134   -6606.3548   -6817.7134            0    2009.2712    23.125559    21.457237    21.621255    10728.696    2509.0004    1382.8884    2135.9249   -149.13974    639.07447    -461.8615   -6291.9701 
32181000    81.222832   -6820.3154   -6611.3746   -6820.3154            0    1956.2578    23.292179    21.214793    21.708114    10726.821    1989.8932    2530.6495    1348.2307   -720.95895    412.07158   -488.01079   -6305.3383 
32182000     78.73634   -6804.1261   -6601.5817   -6804.1261            0    2528.7849    23.115633    21.404275    21.647398    10710.556    3552.3911    2038.7375    1995.2262    859.16441   -122.61407   -177.19839   -6206.5792 
32183000    77.067707   -6816.1672   -6617.9152   -6816.1672            0    1777.2513    23.310673    21.258536    21.655593    10731.446     1803.912    1971.2868     1556.555    301.48402   -422.48704    220.96031   -6339.7627 
32184000    77.437177   -6813.5608   -6614.3584   -6813.5608            0    3036.0353    23.132696     21.38352    21.583731    10676.575    3012.5981    2943.8521    3151.6557    475.34598    58.500896   -211.79681   -6141.6268 
32185000    82.656783   -6814.9951   -6602.3656   -6814.9951            0    2446.4737    23.328105    21.222496     21.63172    10709.445     1691.989    3449.1477    2198.2845    232.28954    1009.1336   -1112.4431     -6220.26 
32186000    80.979651   -6809.7601   -6601.4449   -6809.7601            0    1452.9692    23.216064    21.407471    21.636813    10753.436    1289.1207    1406.1899     1663.597    471.53878   -553.97719    543.82366   -6373.5789 
32187000    77.878889   -6821.7883   -6621.4496   -6821.7883            0     1892.522    23.359441    21.244417    21.639642    10738.839    1612.5602    2125.5345    1939.4711    350.59664   -150.73115    278.16825   -6325.0524 
32188000    81.612852   -6811.2212   -6601.2771   -6811.2212            0    1689.4842    23.200721    21.432249    21.568553    10724.825    1484.7962    1363.7813     2219.875   -200.11352    343.11614    96.752667   -6337.0239 
32189000    76.695507   -6821.2093   -6623.9148   -6821.2093            0    2277.9237    23.245711    21.296582    21.621502    10703.816    2454.5894    1912.9233    2466.2585   -345.49061   -525.50851    667.16143   -6268.3214 
32190000    85.273146   -6811.0833   -6591.7233   -6811.0833            0     2084.521     23.19245    21.300146    21.704211    10721.936    1400.8625    2954.5724     1898.128    540.28002    349.79923    677.11034   -6265.7701 
32191000    80.603261   -6808.1351   -6600.7881   -6808.1351            0    2239.2484    23.168279    21.329062    21.693183    10719.852    2636.2529    1559.0759    2522.4164    368.67672   -225.67377    1124.6144   -6250.7084 
32192000    77.513353   -6806.1443   -6606.7459   -6806.1443            0    1531.0355    23.197682    21.340041    21.707645    10746.142    1882.1951    1626.6758    1084.2356    -268.5878   -339.69947    160.08236   -6366.7998 
32193000     79.67768   -6820.7821   -6615.8161   -6820.7821            0    1908.8553    23.160963    21.416427    21.634428    10731.219    2046.1713    1750.8702    1929.5244   -246.24632   -741.57868    390.04488    -6317.073 
32194000    76.466329   -6806.5725   -6609.8675   -6806.5725            0    1736.2329    23.269972    21.363235     21.62058    10748.064    1923.6302    1632.0565    1653.0118   -382.87126   -1053.0332   -143.76669   -6337.7139 
32195000    81.758056   -6814.8298   -6604.5121   -6814.8298            0    2179.6207    23.214857    21.400451    21.586541    10724.375    2068.5381    1987.9497    2482.3744   -750.08663    616.51565    -753.0082   -6263.6107 
32196000    81.180852   -6821.0476   -6612.2148   -6821.0476            0    2449.8852    23.240469    21.316321    21.608534    10704.896    2454.4929    2590.4498     2304.713    104.56775    -217.8544   -409.43943   -6229.7389 
32197000    82.702257   -6820.2983   -6607.5517   -6820.2983            0    1066.9604    23.227277    21.442026    21.623021    10769.127    1383.9626    305.38603    1511.5326    949.93324   -59.758634    310.89781   -6439.9785 
32198000    82.266344   -6817.3662   -6605.7411   -6817.3662            0      1912.03    23.283968    21.334562    21.619523    10739.568    1575.6816    2440.0146    1720.3938    337.63829   -169.41731    -78.10293   -6306.2682 
32199000    85.525806   -6824.8005   -6604.7906   -6824.8005            0    1981.7657    23.242083    21.333114     21.61839     10718.96    1344.8755    2850.6822    1749.7393    477.45044    124.48301   -917.05391    -6294.991 
32200000    80.288514   -6820.4457   -6613.9084   -6820.4457            0    2754.7641    23.194915    21.348194    21.596121    10693.742    2927.0263    2461.9245    2875.3416   -370.83006    555.94997   -898.05604   -6184.2829 
32201000    82.167573   -6819.9217   -6608.5506   -6819.9217            0    1049.0612    23.256283    21.357782    21.682907    10769.957    1455.0027    1100.8309       591.35   -517.52898     106.1821   -384.22464   -6443.7758 
32202000    81.192962   -6820.3891   -6611.5252   -6820.3891            0    2403.6793    23.210851    21.314697    21.635712    10703.885    2250.8696    2489.0475    2471.1208    694.47932    200.25587    308.03729   -6236.2984 
32203000    74.674014   -6819.0531   -6626.9588   -6819.0531            0    1875.9655    23.222514    21.362271    21.610221     10720.52     1506.761    1261.8575     2859.278    160.53767   -348.20954    684.66817   -6333.6557 
32204000    82.405085    -6824.601   -6612.6189    -6824.601            0    2247.2759     23.30906     21.30173    21.539045    10694.638     1079.628    3222.9224    2439.2774    316.45496    92.143607    433.11905   -6262.1106 
32205000    79.085529   -6817.2147    -6613.772   -6817.2147            0    1939.2622    23.219302    21.427474    21.559154    10726.347    2138.2088     1537.388    2142.1897   -347.19709   -181.17969     1011.917   -6310.4078 
32206000    80.115123   -6830.6729   -6624.5817   -6830.6729            0    1525.1684    23.262064    21.350505    21.630828    10743.099    865.60822    995.41506    2714.4818   -472.90429      526.217       1046.8   -6385.6227 
32207000    77.465891   -6817.4052   -6618.1289   -6817.4052            0    2621.4301    23.123367    21.365789    21.608226    10675.522    2623.0777      2718.91    2522.3027    111.06559     38.29198   -17.985232   -6209.9944 
32208000    79.519895   -6812.8148   -6608.2547   -6812.8148            0    1952.8213    23.221956    21.337859    21.650426    10727.934    2054.2454    2169.6498    1634.5688   -572.89629    11.521704    145.34532   -6302.7242 
32209000     81.41057    -6814.996   -6605.5722    -6814.996            0    2324.1974    23.202008    21.335245    21.665492    10724.863    2348.5292    2319.3734    2304.6896    296.70646   -502.33981      196.403   -6242.0419 
32210000    78.415109   -6815.5093   -6613.7912   -6815.5093            0    1268.2549    23.276026    21.354138    21.667563    10769.634    1437.3642    1524.5596    842.84097    317.42422    -589.6464   -15.374707   -6414.5939 
32211000    79.447046   -6811.4981   -6607.1254   -6811.4981            0    1808.4768    23.245755    21.382859    21.615412    10744.172    1140.8669    2179.0015    2105.5621   -377.81714    1047.5783   -284.51591   -6323.7502 
32212000    78.656651   -6818.2217   -6615.8823   -6818.2217            0    2084.9541    23.346444    21.283388    21.600914    10733.309    1275.1399    2233.7648    2745.9575    124.55902    189.14154   -412.24568   -6289.5154 
32213000    77.400392   -6811.0807   -6611.9729   -6811.0807            0    2958.2918    23.164811    21.396476    21.567771    10689.965    2626.1441    3109.7027    3139.0286    118.67024    328.76394     -96.5076   -6150.7688 
32214000    80.635507     -6818.34   -6610.9101     -6818.34            0    1758.3668    23.316807    21.271653    21.619657     10723.07    1787.3302    2282.8674    1204.9027   -615.71305   -7.3938706   -556.34495   -6335.9279 
32215000    77.703883   -6819.9722   -6620.0837   -6819.9722            0    1705.6727    23.142485    21.487546    21.595958    10739.135    1927.3961    1363.3813    1826.2408    301.47326    299.15088   -119.79659   -6352.9425 
32216000     76.49564   -6810.0067   -6613.2263   -6810.0067            0    1688.6189    23.322395    21.236307     21.71606    10755.564    1678.3268    2130.4799      1257.05    211.01716   -541.18585   -42.693076   -6348.3514 
32217000    81.389113   -6820.5771   -6611.2085   -6820.5771            0    1876.6608    23.140233    21.413247    21.652684    10729.068    2301.2993    1643.0123    1685.6709    670.35937   -89.925126    322.91838   -6317.5628 
32218000    82.914536   -6816.9367   -6603.6441   -6816.9367            0    2060.8404    23.294297    21.236379    21.657933    10713.888    1594.0792     2612.131     1976.311    -223.1195   -313.31074    277.14839   -6281.6356 
32219000    79.487422   -6815.6553   -6611.1787   -6815.6553            0    1755.7826    23.140825    21.470024    21.604053    10733.629    2172.7359    1108.6882    1985.9237    133.57549   -346.20482     362.5348   -6336.3303 
32220000    75.990503   -6821.0513   -6625.5704   -6821.0513            0    1504.6884    23.261873    21.368385    21.638997    10756.067    1104.0015    1469.4199    1940.6438    -544.4816   -40.590815    210.22898   -6389.5356 
32221000    73.631597   -6804.0089   -6614.5961   -6804.0089            0    2802.2432    23.152347     21.38338    21.644663    10715.741    3165.7283    2675.1337    2565.8677   -208.88235   -831.79054    121.51806   -6176.6669 
32222000    79.552844   -6820.1677   -6615.5229   -6820.1677            0    2033.3595    23.202419    21.309116    21.701613    10729.777    2240.1049    2366.1978    1493.7757   -1133.5132    232.37915    328.35114   -6297.3371 
32223000    81.411095   -6825.7138   -6616.2887   -6825.7138            0    2338.0645    23.176544    21.325417      21.6456    10698.326    3239.5502    1876.3239    1898.3194   -1754.4909     204.9974   -242.83916   -6251.4942 
32224000    83.437108   -6813.7052   -6599.0683   -6813.7052            0    2654.9132    23.182617    21.332635    21.656203    10709.995    2384.4374    2728.2987    2852.0034    830.03808   -728.24771    234.11129    -6184.386 
32225000     78.12149   -6817.0267   -6616.0639   -6817.0267            0    1647.0697    23.220273    21.351539    21.679892    10748.642    2240.1773    1672.9795    1028.0523   -72.343258    -894.9628   -1024.5369   -6357.8727 
32226000    79.478332   -6818.7121   -6614.2589   -6818.7121            0    1845.3086    23.191408    21.401661    21.641834    10741.592    1817.7023    2208.1491    1510.0743   -207.59338    139.26737   -279.92228   -6325.1819 
32227000    84.614507   -6811.3752   -6593.7095   -6811.3752            0    1896.8203    23.282011    21.303952    21.644558    10735.676    1971.3318    1917.7617    1801.3673    325.04304   -333.71386   -337.92074   -6296.7266 
32228000    82.877886   -6810.2992   -6597.1009   -6810.2992            0    2649.0802    23.106789    21.386911    21.665184    10706.562    3488.6706    2691.3356    1767.2345    320.66752   -215.12689   -395.28935   -6183.4624 
32229000    80.179135   -6811.6321   -6605.3762   -6811.6321            0    2551.4979    23.248769    21.276433    21.652322     10710.34    2437.1443    2693.2984     2524.051   -255.56726   -229.62853     53.92439   -6206.8339 
32230000    79.440071   -6801.4126   -6597.0579   -6801.4126            0    1797.9491    23.144886    21.422734    21.669037    10744.088    2228.1751    1898.2435    1267.4287    822.75562    141.02156    -422.2304   -6315.3345 
32231000    80.238304   -6808.7695   -6602.3614   -6808.7695            0    1752.6562    23.358574     21.23541     21.67913    10753.475     564.0979    2678.6152    2015.2557    813.24675    274.01627   -151.94994   -6327.4951 
32232000    81.645245   -6816.7845   -6606.7571   -6816.7845            0    2163.8556    23.153994    21.388455    21.627009    10710.304    3014.7801    1656.1905    1820.5963   -419.49104   -43.931092   -189.37637   -6268.7654 
32233000    80.287051   -6822.8607   -6616.3272   -6822.8607            0    2265.7748    23.269515    21.236379    21.677254    10712.037     2138.335    2420.6803    2238.3092    -484.8009    308.65395    23.765323   -6262.3586 
32234000    78.013481   -6810.6149     -6609.93   -6810.6149            0    2002.9175    23.120849    21.443336     21.64489    10731.279    2664.7914     1541.234    1802.7271   -454.55666      174.592   -733.65006    -6296.464 
32235000    80.254652   -6819.9722    -6613.522   -6819.9722            0    2236.4566    23.263328    21.299973    21.653105    10729.292    2275.4046    2521.0726    1912.8925   -73.428686    110.23561   -368.06474   -6263.5708 
32236000    81.037016   -6822.4428     -6613.98   -6822.4428            0    1920.7162    23.183121    21.401268    21.630084    10731.727    1721.9821    1588.0855    2452.0809    323.91265    -597.1282    398.34546   -6313.3663 
32237000    75.963998   -6815.1119   -6619.6992   -6815.1119            0    1543.9895    23.273025    21.344257    21.631862    10745.529    1219.5996    1903.3031    1509.0659   -426.71127   -115.01264   -649.55487   -6377.7367 
32238000    84.953901   -6814.8312   -6596.2924   -6814.8312            0    2682.5631    23.225338    21.310948    21.611641    10696.767    3175.9892    2324.4529    2547.2473   -826.84289    111.84083     212.2322   -6177.8089 
32239000    81.123561    -6823.645   -6614.9596    -6823.645            0    1587.5977    23.195262    21.368515    21.665696    10738.565    2068.1942    1271.8656    1422.7333   -347.41524     566.4291    367.87125   -6366.3244 
32240000    79.768906   -6811.5299   -6606.3292   -6811.5299            0    1801.5581      23.2419    21.292396    21.691251    10734.474    1825.4641    2682.1828    897.02751    139.74026   -197.71276   -216.26396    -6324.293 
32241000     77.03484    -6811.779   -6613.6116    -6811.779            0    2415.7788    23.169339    21.376902    21.620178     10708.23    2377.2019    2351.4109    2518.7237    1016.0897   -44.175591    381.96143   -6236.3429 
32242000    77.375346    -6814.208   -6615.1647    -6814.208            0    1692.0554     23.28509        21.29    21.676219     10745.76    1472.3571    1859.5904    1744.2187    199.40072    3.2538114   -13.551686   -6349.9927 
32243000    79.361603   -6812.0071   -6607.8542   -6812.0071            0    2395.4468    23.170496    21.343833    21.661662    10712.714    1773.9052     2727.336    2685.0993   -9.6217104    1222.6199   -321.29139   -6233.6041 
32244000    76.003571   -6806.0762   -6610.5616   -6806.0762            0    1466.0287    23.230425    21.306105    21.720153    10750.387    1831.8356    2088.1723    478.07832    146.43557    23.075837    -82.82332   -6380.7127 
32245000     79.91377   -6799.4178   -6593.8445   -6799.4178            0    2351.9732    23.198724    21.369121    21.636261    10725.881    2762.2579    2399.9912    1893.6707   -474.92382    -623.7282   -513.96441   -6225.9348 
32246000    78.199214   -6815.9895   -6614.8267   -6815.9895            0    2029.8787    23.257242    21.342726     21.63736      10740.2    2009.1178     1687.559    2392.9592    304.02256   -463.18567   -35.739339   -6296.8771 
32247000    78.355905   -6813.6724   -6612.1066   -6813.6724            0    1337.5849    23.220697    21.448678     21.62613    10770.965    1783.4137    1116.0124    1113.3286   -717.03833    353.10925   -773.79742   -6401.9941 
32248000    80.495646   -6814.3645   -6607.2944   -6814.3645            0    2203.3523    23.244319    21.344247    21.643283    10737.936    1477.7828    2449.1056    2683.1684   -628.18303    189.81759   -734.04528   -6262.2455 
32249000    79.137328   -6820.5867   -6617.0108   -6820.5867            0    1675.3932    23.194355    21.408238    21.612011     10731.45    2216.7078    704.00479    2105.4669   -220.08322   -114.06555    158.36203   -6354.7997 
32250000    83.155399   -6805.6767   -6591.7645   -6805.6767            0    2844.6116    23.179518    21.303079    21.641048    10686.243    2657.9511    3393.9503    2481.9332   -319.82604   -63.038007   -239.43577   -6148.4378 
Loop time of 487.156 on 64 procs for 250000 steps with 1296 atoms

Performance: 88.678 ns/day, 0.271 hours/ns, 513.183 timesteps/s
391.8% CPU use with 16 MPI tasks x 4 OpenMP threads

MPI task timing breakdown:
Section |  min time  |  avg time  |  max time  |%varavg| %total
---------------------------------------------------------------
Pair    | 38.73      | 48.623     | 56.207     |  69.7 |  9.98
Bond    | 1.4765     | 1.6773     | 2.2528     |  14.1 |  0.34
Kspace  | 243.56     | 250.85     | 261.42     |  31.9 | 51.49
Neigh   | 0.63344    | 0.65211    | 0.67192    |   1.4 |  0.13
Comm    | 44.134     | 50.586     | 54.257     |  33.4 | 10.38
Output  | 0.46782    | 0.46802    | 0.46931    |   0.1 |  0.10
Modify  | 121.44     | 125.2      | 129.29     |  14.5 | 25.70
Other   |            | 9.096      |            |       |  1.87

Nlocal:        81.0000 ave          96 max          63 min
Histogram: 2 0 1 1 2 2 3 2 1 2
Nghost:        3692.38 ave        3717 max        3653 min
Histogram: 1 0 0 2 1 4 1 3 3 1
Neighs:        26136.4 ave       30894 max       20278 min
Histogram: 2 0 1 1 2 2 3 2 1 2

Total # of neighbors = 418182
Ave neighs/atom = 322.67130
Ave special neighs/atom = 2.0000000
Neighbor list builds = 1656
Dangerous builds = 0

unfix		3
unfix		2
unfix		1

write_data	data.final.${pid}
write_data	data.final.0
System init for write_data ...
PPPM initialization ...
  extracting TIP4P info from pair style
  using 12-bit tables for long-range coulomb (../kspace.cpp:340)
  G vector (1/distance) = 0.36833629
  grid = 27 40 32
  stencil order = 5
  estimated absolute RMS force accuracy = 0.0043101849
  estimated relative force accuracy = 1.2979994e-05
  using double precision FFTW3
  3d grid and FFT values/proc = 10353 2240
Last active /omp style is kspace_style pppm/tip4p/omp
WARNING: Not all mixed pair coeffs generated from mixing. Use write_data with 'pair ij' option to store all pair coeffs. (../write_data.cpp:312)

write_restart   restart.lmp.${pid}
write_restart   restart.lmp.0
System init for write_restart ...
PPPM initialization ...
  extracting TIP4P info from pair style
  using 12-bit tables for long-range coulomb (../kspace.cpp:340)
  G vector (1/distance) = 0.36833629
  grid = 27 40 32
  stencil order = 5
  estimated absolute RMS force accuracy = 0.0043101849
  estimated relative force accuracy = 1.2979994e-05
  using double precision FFTW3
  3d grid and FFT values/proc = 10353 2240
Last active /omp style is kspace_style pppm/tip4p/omp
Total wall time: 0:08:07
