LAMMPS (30 Jul 2021)
Processor partition = 0
  using 2 OpenMP thread(s) per MPI task
using multi-threaded neighbor list subroutines
variable        pid world 0 1
variable        phase world IceIh IceIII

shell cd ${phase}
shell cd IceIh
include Restart.lmp
echo both
log log.lammps
#include		in.partitions
include		in.temp
variable        temperature equal 245.22
variable	tempDamp equal 100.0
include		in.pressure
variable        pressure equal 1456.3
variable        pressureDamp equal 1000.0 # This is 1 ps
include		in.seed
variable        seed equal 745823

units		real
atom_style	full
#include		in.box
read_restart	restart.lmp.${pid}
read_restart	restart.lmp.0
Reading restart file ...
  restart file = 30 Jul 2021, LAMMPS = 30 Jul 2021
  restoring atom style full from restart
  orthogonal box = (-0.017608567 0.053620540 0.12753624) to (18.225181 23.575557 22.085660)
  2 by 4 by 4 MPI processor grid
  restoring pair style lj/cut/tip4p/long/omp from restart
  restoring bond style harmonic/omp from restart
  restoring angle style harmonic/omp from restart
  864 atoms
  576 bonds
  288 angles
Finding 1-2 1-3 1-4 neighbors ...
  special bond factors lj:    0        0        0       
  special bond factors coul:  0        0        0       
     2 = max # of 1-2 neighbors
     1 = max # of 1-3 neighbors
     1 = max # of 1-4 neighbors
     2 = max # of special neighbors
  special bonds CPU = 0.002 seconds
  read_restart CPU = 0.007 seconds
include 	in.setup
variable	out_freq equal 1000
variable	out_freq2 equal 10000
variable	out_freq3 equal 1000

timestep	2.0

neigh_modify    delay 7 every 1

include		in.tip4p
# This is TIP4P/Ice

# create groups ###
group ox type 2
288 atoms in group ox
group hy type 1
576 atoms in group hy

# set charges - beside manually ###
set group ox charge -1.1794
Setting atom values ...
  288 settings made for charge
set group hy charge 0.5897
Setting atom values ...
  576 settings made for charge

# ### TIP3P Potential Parameters ###
pair_style lj/cut/tip4p/long/omp 2 1 1 1 0.1577 8.5
pair_coeff 1 1*2 0.000 0.000
pair_coeff 2 2 0.21084 3.1668
bond_style  harmonic
bond_coeff  1 450 0.9572
angle_style harmonic
angle_coeff 1 55 104.52
kspace_style pppm/tip4p/omp 1.0e-5
pair_modify tail yes

thermo          ${out_freq}
thermo          1000
thermo_style    custom step temp pe etotal epair emol press lx ly lz vol pxx pyy pzz pxy pxz pyz enthalpy

restart 	${out_freq3} restart.lmp.${pid} restart2.lmp.${pid}
restart 	1000 restart.lmp.${pid} restart2.lmp.${pid}
restart 	1000 restart.lmp.0 restart2.lmp.${pid}
restart 	1000 restart.lmp.0 restart2.lmp.0


include         in.dump
dump            myDump all atom ${out_freq2} dump.water.${pid}
dump            myDump all atom 10000 dump.water.${pid}
dump            myDump all atom 10000 dump.water.0
dump            myDump2 all dcd ${out_freq2} dump.dcd
dump            myDump2 all dcd 10000 dump.dcd
dump_modify     myDump append yes
dump_modify     myDump2 append yes


variable natoms 	equal  "count(all)"                        # NUMBER ATOMS
variable H      	equal  "enthalpy/v_natoms"                 # ENTHALPY-per-atom
variable Vol      	equal  "vol/v_natoms"                 # volume-per-atom
fix AVG all 		ave/time ${out_freq} 1 ${out_freq} v_Vol v_H file vol_enthalpy.dat
fix AVG all 		ave/time 1000 1 ${out_freq} v_Vol v_H file vol_enthalpy.dat
fix AVG all 		ave/time 1000 1 1000 v_Vol v_H file vol_enthalpy.dat


timer           timeout 23:50:00 every 1000
New timer settings: style=normal  mode=nosync  timeout=23:50:00

fix 		1 all shake 1e-6 200 0 b 1 a 1
Finding SHAKE clusters ...
       0 = # of size 2 clusters
       0 = # of size 3 clusters
       0 = # of size 4 clusters
     288 = # of frozen angles
  find clusters CPU = 0.001 seconds
fix             2 all nph aniso ${pressure} ${pressure} ${pressureDamp}
fix             2 all nph aniso 1456.3 ${pressure} ${pressureDamp}
fix             2 all nph aniso 1456.3 1456.3 ${pressureDamp}
fix             2 all nph aniso 1456.3 1456.3 1000
fix             3 all temp/csvr ${temperature} ${temperature} ${tempDamp} ${seed}
fix             3 all temp/csvr 245.22 ${temperature} ${tempDamp} ${seed}
fix             3 all temp/csvr 245.22 245.22 ${tempDamp} ${seed}
fix             3 all temp/csvr 245.22 245.22 100 ${seed}
fix             3 all temp/csvr 245.22 245.22 100 745823


run             250000
PPPM initialization ...
  extracting TIP4P info from pair style
  using 12-bit tables for long-range coulomb (../kspace.cpp:340)
  G vector (1/distance) = 0.37143875
  grid = 24 27 25
  stencil order = 5
  estimated absolute RMS force accuracy = 0.0031786409
  estimated relative force accuracy = 9.5723827e-06
  using double precision FFTW3
  3d grid and FFT values/proc = 4410 672
Last active /omp style is kspace_style pppm/tip4p/omp
Neighbor list info ...
  update every 1 steps, delay 7 steps, check yes
  max neighbors/atom: 2000, page size: 100000
  master list distance cutoff = 10.8154
  ghost atom cutoff = 10.8154
  binsize = 5.4077, bins = 4 5 5
  1 neighbor lists, perpetual/occasional/extra = 1 0 0
  (1) pair lj/cut/tip4p/long/omp, perpetual
      attributes: half, newton on, omp
      pair build: half/bin/newton/omp
      stencil: half/bin/3d
      bin: standard
Setting up Verlet run ...
  Unit style    : real
  Current step  : 1750000
  Time step     : 2
  Walltime left : 23:49:59.94
Per MPI rank memory allocation (min/avg/max) = 10.19 | 10.20 | 10.22 Mbytes
Step Temp PotEng TotEng E_pair E_mol Press Lx Ly Lz Volume Pxx Pyy Pzz Pxy Pxz Pyz Enthalpy 
 1750000    257.90669   -4257.4731   -3815.4298   -4257.4731            0    635.29889     18.24279    23.521937    21.958123    9422.3568    1203.1376    1412.5349   -709.77582    591.99438   -149.10419    331.90368     -3728.13 
 1751000    249.56308   -4273.7377   -3845.9951   -4273.7377            0    846.57692    18.045202    23.343084    22.310701    9397.9517    973.90246    1053.5718    512.25646   -461.06037   -550.65263   -893.99913   -3729.9637 
 1752000    245.06542   -4266.9689   -3846.9351   -4266.9689            0    1018.7985    18.012525    23.644796    22.091595     9408.865     1225.844    2003.8299   -173.27839    1064.9801   -441.16931    194.76379    -3707.137 
 1753000    247.23627    -4275.253   -3851.4985    -4275.253            0    1299.0351    18.137613    23.654726      21.9316    9409.5396    1071.1145    1729.4343    1096.5564   -869.06712    506.56093    166.74976   -3673.2339 
 1754000    233.31641   -4288.1014   -3888.2051   -4288.1014            0    1876.1365    18.162531    23.129431    22.219749    9334.2725    1754.0977    2030.1855    1844.1262    606.86455   -431.70164    28.280745   -3632.8052 
 1755000     245.7039   -4258.9613   -3837.8332   -4258.9613            0    259.28762    18.237963      23.4781    21.990132    9416.0144   -135.45347   -679.09385    1592.4102   -337.92544    145.94921   -276.88449   -3802.2271 
 1756000     236.5435   -4230.0917   -3824.6643   -4230.0917            0     2125.721    17.890447    23.477167    22.213985    9330.2518    2342.1329    2984.5669    1050.4632   -1835.5959    489.66597   -702.61633   -3535.4128 
 1757000    258.98261   -4283.7363    -3839.849   -4283.7363            0     1995.585    18.044504    23.525743    21.969801    9326.4083    1189.4911    1157.0968    3640.1671   -1443.9048    299.78256    104.15131   -3568.4173 
 1758000    245.67151   -4248.2846   -3827.2121   -4248.2846            0    912.80657    18.078659    23.611037    22.076831    9423.6253    1184.8866     698.3521    855.18101    421.23046   -316.11321   -17.232391   -3701.7615 
 1759000    269.64466   -4276.3505   -3814.1888   -4276.3505            0    1894.7461    18.033563    23.388029    22.157305    9345.2752    959.62076    2688.3651    2036.2524    53.575165   -276.22077   -675.57259   -3555.9515 
 1760000    249.19066   -4259.9865   -3832.8823   -4259.9865            0   -50.557774    18.284548    23.427599    22.070198    9454.0574   -2479.3365    596.80043    1730.8627   -906.84127   -466.16531    260.93591   -3839.8531 
 1761000    227.79101   -4239.6282   -3849.2022   -4239.6282            0    742.67151     18.07399    23.309593     22.29497    9392.8116    1467.0827    1213.1712   -452.23946    592.76969    30.044147    -123.6118   -3747.4677 
 1762000    253.72542    -4231.927   -3797.0504    -4231.927            0    828.28478    17.882342    23.672801    21.987358    9307.8013    714.31578    1415.3906    355.14794    408.08947   -327.96901   -174.62977   -3684.6151 
 1763000    241.85822    -4233.274   -3818.7372    -4233.274            0     1831.716    18.040576    23.431551    22.060264    9325.2857    3551.2463    688.71956    1255.1821   -143.59778   -1094.5572    248.87436   -3569.6244 
 1764000     241.0823   -4278.8573   -3865.6505   -4278.8573            0     107.7097    18.196014    23.285136    22.256521    9430.0139    188.59648    831.82979   -697.29715   -486.18079    826.41962    1297.0002   -3850.8375 
 1765000    235.00936    -4241.934    -3839.136    -4241.934            0    2538.7338    18.121956    23.320168    22.029285    9309.7314    3763.1748    2795.7694     1057.257    242.59303    353.84262    1234.5358   -3494.4448 
 1766000    244.44014   -4257.7322   -3838.7701   -4257.7322            0   -9.5839556    17.821216    23.732086    22.220409    9397.7802    482.62674   -477.03091   -34.347695    969.06343    57.942389    886.36119   -3840.0837 
 1767000    252.51238   -4266.6859   -3833.8883   -4266.6859            0    2252.8617    17.792372    23.640941    22.174024    9327.0246    1627.8222     1591.296     3539.467   -1241.2657    194.53488    170.68883   -3527.4426 
 1768000    230.20761   -4269.5931   -3875.0251   -4269.5931            0    1516.5556    18.111474    23.466156     21.98328    9343.0405    2946.9822    1518.8386    83.845975    78.758385    544.07335     190.4202   -3668.3812 
 1769000    249.30972   -4271.8595   -3844.5512   -4271.8595            0    2062.6981     18.21205    23.371367    21.991785    9360.5941    3201.9066     1619.651    1366.5367   -815.14065   -333.59072   -865.31224   -3562.9627 
 1770000    232.70304   -4263.5548   -3864.7097   -4263.5548            0      3159.96    18.107177    23.261432    22.059048     9291.246    3402.8865    3407.2618    2669.7315    93.826884    209.09082    373.01852   -3436.5247 
 1771000    243.37082   -4281.1046   -3863.9753   -4281.1046            0     704.8207    18.092001    23.638608    22.005273    9410.9891    1360.4281    47.864746    706.16925   -945.70958    165.35641   -82.594876   -3767.2389 
 1772000    254.43716   -4263.7437   -3827.6471   -4263.7437            0    1857.5228    17.852392    23.551644    22.243773    9352.4648    1997.4516     1648.208    1926.9089   -1373.5113    738.32889   -422.76447   -3574.2882 
 1773000    243.92464   -4292.9625    -3874.884   -4292.9625            0    1245.3466    18.133254    23.491402    22.050707    9393.0617   -245.84284    2124.8236     1857.059    601.44822    176.27337    426.02648   -3704.2862 
 1774000    258.02052   -4231.8757   -3789.6374   -4231.8757            0    1843.5976    18.190187    23.367232    22.076899    9383.8814    3380.7989    1578.0848    571.90902   -435.26814    644.99684    634.52796   -3537.3331 
 1775000    236.89009   -4240.6298   -3834.6083   -4240.6298            0    1334.7865    18.095771    23.200975    22.381128     9396.482    2064.7861    2467.7605   -528.18711    -62.39946   -264.17655   -629.62103   -3651.6918 
 1776000    251.28742   -4245.9838   -3815.2858   -4245.9838            0    1544.4998    18.141106    23.539104    21.978257    9385.2738    1593.0471     1780.334    1260.1183     872.9161   -1146.1974   -435.73265    -3603.883 
 1777000    258.53471   -4263.7933   -3820.6737   -4263.7933            0    2199.4782    17.845122    23.446414    22.296547    9328.9671    2309.9465    2976.0305    1312.4578    105.66627    657.94528    655.03888   -3521.4271 
 1778000    246.97391   -4284.0262   -3860.7214   -4284.0262            0    1369.3158    18.089813    23.510985     22.10766     9402.594    1178.6393    1511.2242     1418.084    667.40329    334.13501    1229.3356    -3672.951 
 1779000    241.53865   -4289.7511   -3875.7621   -4289.7511            0     2077.234    18.411052    23.236652    21.816331    9333.2711    13.339452    2299.1726    3919.1899   -618.19448   -480.24224    658.21511   -3593.0169 
 1780000    254.85155   -4258.1429    -3821.336   -4258.1429            0     1766.358     18.08723    23.332762    22.268293    9397.7768    2159.2723     2405.937    733.86479    730.99811   -904.03448   -728.04851   -3579.2444 
 1781000    258.32167   -4252.1344   -3809.3799   -4252.1344            0    760.81776    17.810092     23.97015    21.920698    9358.1782   -190.07213    720.18661    1752.3388    741.74401    -592.5166    995.35369   -3705.5439 
 1782000    230.75954   -4220.1959    -3824.682   -4220.1959            0     1200.558    18.030444     23.53557     22.07564    9367.9475    2319.3794     2108.499   -826.20439    597.02049   -285.68421    443.97789   -3660.6595 
 1783000    249.05279   -4274.1046   -3847.2367   -4274.1046            0    2027.2141      18.2368    23.245225    22.101697    9369.3191    2299.4323    3325.1628      457.047   -505.90776   -346.86418     307.0906   -3570.2343 
 1784000    235.36654   -4277.2335   -3873.8233   -4277.2335            0   -288.45262    18.274795      23.3383    22.183029    9461.1208   -634.17667   -284.75386    53.572662     329.0148    582.20638   -371.56479   -3913.6242 
 1785000    236.72563   -4281.9854   -3876.2458   -4281.9854            0    2975.5173    17.958856    23.282804    22.164018    9267.4966    2147.4871    4758.0723    2020.9925   -105.68218   -756.55266   -140.78581    -3474.084 
 1786000    241.50179   -4278.4612   -3864.5354   -4278.4612            0    374.50748    18.077534    23.596007    21.995133    9382.1915    331.12988    652.83751    139.55504   -253.41427     428.0947    72.263247   -3813.2917 
 1787000     243.7506   -4256.8111   -3839.0309   -4256.8111            0    1319.0454    17.849388    23.860831    21.954767    9350.5627    1417.5856   -115.03432    2654.5849   -1326.9488   -101.99153   -616.98043   -3659.1548 
 1788000    244.98102   -4268.9791   -3849.0901   -4268.9791            0    2081.8365    17.833783    23.497566    22.243001    9320.9403    4795.5481   -461.78817    1911.7497   -564.78476    139.32321    106.97265   -3566.0928 
 1789000    236.38927   -4244.6838   -3839.5207   -4244.6838            0    2043.3966    18.188611    23.441659    21.878962    9328.5595    544.52228    2267.9505     3317.717    45.402332   -53.116122   -292.29702   -3561.5217 
 1790000    244.03195   -4268.1418   -3849.8794   -4268.1418            0    2189.6564    18.137032    23.143982    22.153691    9299.3025    839.62993    3685.0488    2044.2903    376.77469    418.32405   -228.75748   -3552.9164 
 1791000    243.21382   -4267.2186   -3850.3584   -4267.2186            0    1024.9819    18.152708    23.405195    22.109983     9393.817   -102.34054    964.05935    2213.2269     880.0188   -325.73989    439.16171   -3709.9367 
 1792000    240.17075   -4267.0145     -3855.37   -4267.0145            0    1328.7563    17.993217    23.692814     21.99481     9376.606     274.9667    1092.2921    2619.0103    425.28395    468.49152   -524.34833    -3673.665 
 1793000    244.52705   -4238.5389   -3819.4279   -4238.5389            0    1730.7845    17.799217    23.640925    22.168729    9328.3785    3879.9088    2617.8084   -1305.3637   -643.89591    551.94467     -575.944   -3583.9636 
 1794000    256.97997   -4282.3267   -3841.8718   -4282.3267            0    501.17843    18.068297    23.363362     22.23985    9388.2454   -398.41631    118.58093    1783.3707    -20.00907   -734.68266    -315.9667   -3773.2515 
 1795000    235.06751   -4290.5241   -3887.6264   -4290.5241            0    1659.1018    18.128867    23.330763    22.024136    9315.3355    501.13308    1425.3392    3050.8331    51.069417    -1080.987    640.95026   -3662.2298 
 1796000    254.01612   -4270.4201   -3835.0452   -4270.4201            0    1275.7695    18.122629    23.463663    22.071745    9385.4193    1339.0518   -529.49744     3017.754    -51.84033   -886.20248    178.67748   -3660.4221 
 1797000    237.71365   -4274.7864   -3867.3533   -4274.7864            0    1844.5392    17.998842    23.569438    21.934165    9304.9687    1222.4866    672.77646    3638.3546    405.48715    397.28468    -282.7181   -3617.0431 
 1798000    250.15878   -4267.2099   -3838.4463   -4267.2099            0    176.41433    17.853246    23.764287    22.155194    9399.7766    923.70316     -1639.38    1244.9198   -840.59103   -1.4897374   -158.49073   -3814.2624 
 1799000     242.4665   -4245.9579   -3830.3786   -4245.9579            0    1338.5695    18.090227    23.467086    21.986933    9334.0013    1932.4982    2000.1604    83.049941   -833.82504    242.48821    -562.5418   -3648.1634 
 1800000    251.56466   -4292.6505   -3861.4773   -4292.6505            0    1708.9934    18.266863    23.050777    22.124009    9315.6545    611.20747    3742.5694     773.2033   -605.33265     313.4774    449.43455   -3629.2947 
 1801000    257.21941   -4258.6134   -3817.7481   -4258.6134            0     1095.146    18.239286    23.230056    22.086672    9358.1148     1024.913    2452.6113   -192.08642    304.36895    53.934813   -1320.5389   -3668.2843 
 1802000    237.25654   -4255.7002   -3849.0506   -4255.7002            0    2368.4241     17.86511    23.666081    22.073286    9332.5219    3797.9053    1771.2547    1536.1125    1242.4811   -183.39917   -407.29975   -3526.6956 
 1803000    244.88322    -4280.796   -3861.0746    -4280.796            0    2134.6582    17.905068    23.728782     22.02617     9358.159    2623.1704    3020.9794    759.82479    516.54018    570.51042   -447.38025   -3569.7382 
 1804000    245.11229   -4248.5564   -3828.4423   -4248.5564            0   -389.66557    18.114677    23.499451    22.313383    9498.4721     -918.513    -210.6749   -39.808804   -192.38082    146.92974   -25.660848   -3882.4209 
 1805000    241.48211    -4256.854   -3842.9619    -4256.854            0    2840.7481    18.216709    23.266965    22.015496    9331.2131    2167.7472     4905.159    1449.3381   -674.56842    -377.8685   -781.41011   -3456.3754 
 1806000    254.27083   -4246.7115      -3810.9   -4246.7115            0    1659.5341    18.237848    23.559506    21.803522    9368.4217    791.28962    1636.8647    2550.4479   -626.98626    984.02263    536.99274   -3584.1598 
 1807000    257.70731   -4283.1484   -3841.4469   -4283.1484            0    1917.3796    17.900109     23.47581    22.257912    9353.2098    1933.6648     1961.591     1856.883    827.82736    1000.5912   -237.16106   -3579.9029 
 1808000    251.75396   -4270.2654   -3838.7678   -4270.2654            0    2609.3714    18.008578    23.695914    21.830595    9315.7632    2192.1797    2518.3399    3117.5947    381.87718   -642.15374    881.28465   -3484.2563 
 1809000      252.667   -4269.6962   -3836.6336   -4269.6962            0     1114.037    18.093816    23.505949    22.124529    9409.8345    1284.1271    1018.9838    1039.0001   -435.44703   -322.17409    -80.98209   -3683.7512 
 1810000    235.96909   -4284.3812   -3879.9383   -4284.3812            0      1920.23     18.03268     23.32449    22.135414    9310.2231    1184.7116    2138.3859    2437.5925    1146.8758   -406.46563   -721.30528   -3619.2094 
 1811000     253.1347   -4280.8564   -3846.9922   -4280.8564            0   -1.6018386    18.362409    23.428321    21.809843    9382.6038   -611.90916   -157.61179    764.71544   -683.36873    747.83968    232.13883   -3847.2114 
 1812000    257.27841   -4264.2483   -3823.2819   -4264.2483            0    2046.2196    17.991735    23.419321    22.124863    9322.4042    1419.8824     3431.116    1287.6604    362.12413    437.12975     302.0642   -3545.0826 
 1813000    259.79218   -4251.9438   -3806.6689   -4251.9438            0    249.85383    17.832845    24.027071    22.120501    9477.9935    1742.2934   -1177.1766    184.44466   -257.19345   -114.62635   -36.130164   -3772.1324 
 1814000    241.74229   -4265.4324   -3851.0944   -4265.4324            0    1340.2063    18.101574    23.516247    22.039156     9381.652    822.81607    1647.7615    1550.0413   -37.467086   -514.93943    116.80799    -3667.725 
 1815000    232.98206   -4272.0209   -3872.6976   -4272.0209            0    1525.7191    18.149565    23.196244    22.213147    9351.7733    640.77232    2318.9303    1617.4548    435.62233    594.46045    554.83027   -3664.6108 
 1816000     262.9924   -4268.5689    -3817.809   -4268.5689            0    66.163897    18.301032      23.4993    21.957262     9442.972   -855.31239   -1073.1549     2126.959    -396.2817    463.38972    478.70572   -3808.6971 
 1817000    227.94196   -4269.4618    -3878.777   -4269.4618            0    2672.5263    17.885844    23.646463    21.992213    9301.3191    2171.7954    2611.2994     3234.484    339.69848   -490.66766   -591.77397   -3516.2483 
 1818000    252.14112   -4284.7641   -3852.6029   -4284.7641            0    536.17533     17.98746    23.651445    22.087132    9396.5159    195.66179    1200.0937    212.77046    308.61741   -47.162555   -662.00297   -3779.1262 
 1819000    228.12696   -4278.0086   -3887.0068   -4278.0086            0    1446.0528    18.166486    23.426141     21.97636    9352.4942   -189.96272    2086.3401     2441.781   -543.88137    18.212481   -56.344109   -3689.7702 
 1820000    229.59482    -4236.841   -3843.3233    -4236.841            0    773.29279    18.278575    23.269518    21.995509      9355.43    301.09488     3014.657   -995.87349   -558.88004    -1148.792   -413.53346   -3737.8158 
 1821000    246.95576   -4273.8888   -3850.6151   -4273.8888            0    93.016796    18.035754    23.415024    22.265489    9402.8855    1204.2086   -725.49112   -199.66705   -1347.5386   -391.55548     272.0876   -3837.8596 
 1822000    265.62831   -4244.1846   -3788.9068   -4244.1846            0    2149.0738    18.070397    23.670926    21.731302    9295.4127    2845.1695    434.77012    3167.2819   -247.43677   -652.04734    381.49705   -3497.5696 
 1823000    229.03098   -4267.5382   -3874.9869   -4267.5382            0    1238.2846    17.842073    23.528544    22.326807    9372.7489    1765.9346    1210.8689    738.05041   -133.20623   -325.68031    71.928919   -3705.7234 
 1824000    243.45275   -4273.9698   -3856.7001   -4273.9698            0    2066.1837    18.029376    23.500481    21.958578    9303.8274    1766.2764    2255.4288    2176.8458   -761.71398     66.96394   -14.707831   -3576.3463 
 1825000    235.12578   -4252.0426    -3849.045   -4252.0426            0    1745.4948     18.20555    23.212778    22.026291    9308.3413    2388.8629     732.3078    2115.3137   -86.067893   -200.87607   -147.34105   -3612.0896 
 1826000    240.52462   -4268.1255   -3855.8746   -4268.1255            0    136.24261    18.188883    23.365808    22.210444    9439.3931    708.70317    535.45988   -835.43522    165.53065   -195.12705    183.68617   -3837.1189 
 1827000    248.45023    -4293.489   -3867.6538    -4293.489            0    1487.6065    18.114097    23.630802    21.843197    9349.9944    644.16413    1839.0465    1979.6088   -622.01609    241.81718   -73.607137   -3664.8037 
 1828000    258.48101   -4248.7353   -3805.7077   -4248.7353            0    651.34333    17.907874    23.636389    22.314967    9445.4227    922.74912    899.57543    131.70543   -319.27721    927.67239    267.50951    -3715.984 
 1829000    240.98797   -4265.2232   -3852.1781   -4265.2232            0    3030.4108      18.0219    23.432538    21.966096    9276.2573    820.21606    2216.1445    6054.8718    -58.68668    462.17179   -226.27434   -3442.2099 
 1830000    262.19456   -4259.0116   -3809.6191   -4259.0116            0    1222.3053    18.314627    23.366423    22.040804    9432.3028   -1836.5066    3093.2138    2410.2086   -81.732713   -133.12108   -44.358212   -3641.4782 
 1831000     248.7178   -4278.2754   -3851.9817   -4278.2754            0      1105.74    18.000548    23.459445    22.218204    9382.3669    2283.2843    691.00375    342.93191      577.622    31.424206   -58.194585   -3700.6808 
 1832000    238.80146   -4282.3526   -3873.0551   -4282.3526            0    2059.6138    18.055632     23.54947    21.986569    9348.7015    3262.2925    2578.3951    338.15394    -256.0468    327.81197    377.97436   -3592.2448 
 1833000    241.55716   -4280.0442   -3866.0235   -4280.0442            0    1176.5994    18.322833    23.010772    22.187852    9354.8984    670.32695    3040.1797   -180.70835   -675.36481   -645.75277   -646.93975   -3705.4981 
 1834000    254.82573   -4242.6926     -3805.93   -4242.6926            0    1123.5826    18.134126    23.394231    22.008559    9336.7776    1496.9325    564.51224    1309.3029     80.96729   -446.87069   -369.76424   -3652.9348 
 1835000    240.96695   -4258.4664   -3845.4573   -4258.4664            0    1077.5787    17.934979    23.666599    22.069753    9367.7264    2081.8868    259.07467    891.77471     43.44246    737.13761   -251.47194   -3698.2399 
 1836000    254.00598   -4281.2537   -3845.8962   -4281.2537            0    1872.8432    17.829965    23.725597    22.128671    9361.0155    2839.1421    281.32661    2498.0609   -737.28625    125.24279    91.894179   -3590.2141 
 1837000    243.12381   -4281.5284   -3864.8225   -4281.5284            0    1861.6114    18.192181    23.341772    21.965081    9327.2023    163.02077    2734.9499    2686.8635     416.6508    -716.9713    -83.50639   -3611.5919 
 1838000    245.49302   -4234.1053   -3813.3387   -4234.1053            0     2230.772    18.198601    23.168203    22.264476    9387.3463    774.76267    3464.5638    2452.9897   -16.339949    292.00726    361.05631   -3507.9353 
 1839000    227.10759   -4263.4173   -3874.1627   -4263.4173            0    955.20672    18.038874    23.471437    22.130265    9369.9163   -133.68201    730.73844    2268.5637   -328.34238   -39.323681    815.32255   -3743.6331 
 1840000    243.17498   -4261.2095   -3844.4159   -4261.2095            0    1616.5524    17.887404    23.697525    21.984655    9319.0142    1341.4967    2725.1297    783.03075   -216.83951    273.14707    527.87895   -3624.7131 
 1841000    244.04414   -4293.7076   -3875.4243   -4293.7076            0   -72.119078    18.122971    23.783441    21.984247    9475.7953    10.846461   -1622.1627     1394.959     500.6414   -647.26345   -147.01559   -3885.3908 
 1842000    262.26595   -4278.5124   -3828.9975   -4278.5124            0    1774.3764    18.019612     23.30143    22.244453    9340.0611    1855.9676    2030.6344    1436.5273    136.10891    660.05643    630.05521   -3587.3005 
 1843000    235.23658   -4271.4546   -3868.2671   -4271.4546            0    1243.2338    18.328384    23.240181    21.975075    9360.3927   -209.80208    2989.3056    950.19799   -286.98511   -166.50115    151.24065   -3698.5511 
 1844000     243.9849    -4271.871   -3853.6893    -4271.871            0    2189.7409    18.154862    23.323973    22.036481    9331.2048    1761.3402    2927.2077    1880.6749   -921.29955    430.42547   -134.71308   -3555.6961 
 1845000    237.68701   -4278.8802   -3871.4928   -4278.8802            0    1719.6649    17.918576    23.567878    22.151913    9354.8153      3113.82    1597.0492    448.12541   -116.88658    332.47006    356.34325   -3636.8782 
 1846000    249.92741   -4255.6705   -3827.3034   -4255.6705            0     2289.974    17.942013    23.623197    21.820391    9248.5225    1926.5056    1772.4438    3170.9725   -1518.3154   -761.75418    466.66059   -3518.4312 
 1847000    256.17397   -4282.2052   -3843.1317   -4282.2052            0     1212.997    18.032617     23.37707    22.215278    9364.8448    2270.2435    1022.5008    346.24672    1082.5526   -281.19411    180.09735   -3677.4647 
 1848000    239.23321   -4286.6492   -3876.6117   -4286.6492            0    1020.5483    17.967418    23.609872    22.020909    9341.4551    2433.2339   -932.78785    1561.1987   -1005.8698   -597.80611    412.51984   -3737.5767 
 1849000    246.98017   -4271.6837   -3848.3681   -4271.6837            0    2557.2085    17.902018     23.58364    22.066373    9316.3068    1145.6675    2114.7712    4411.1866    95.879113   -21.215574       174.24   -3500.9233 
 1850000    242.55174   -4281.7042   -3865.9788   -4281.7042            0    1683.5063    18.066436    23.552085    21.993624    9358.3362    1316.7088    1665.2457    2068.5645   -155.85268   -289.69511    91.995134   -3636.2109 
 1851000    240.37592   -4291.8546   -3879.8585   -4291.8546            0    2698.6511    18.177726    23.242653    22.008072    9298.3792    1883.8843    3920.1599    2291.9092    56.761741   -97.168038   -192.32187   -3513.9017 
 1852000    240.92072   -4243.3807   -3830.4509   -4243.3807            0    899.12608    18.063626    23.352135     22.18636    9358.7443    924.04574    2106.8861   -333.55357    281.31176   -113.21698   -371.08516   -3707.7312 
 1853000    246.26473   -4255.1377   -3833.0484   -4255.1377            0    1602.3037     18.03472     23.68747    21.966721     9384.115    443.10059    2098.4998    2265.3108    18.311067    495.34474   -238.06101   -3613.7608 
 1854000    242.29744   -4268.7011   -3853.4116   -4268.7011            0    1018.6786    18.082099    23.477346    22.156145    9405.7202   -265.47773    1974.1226    1347.3911    -256.0588    392.82856   -440.28704   -3713.6766 
 1855000    259.81006   -4262.5898   -3817.2842   -4262.5898            0    1282.4753     18.11069    23.397456    22.130963    9377.8642    3438.8765   -166.73377    575.28301    -21.41037    396.01346    221.56406   -3641.8846 
 1856000    239.31246   -4282.9824    -3872.809   -4282.9824            0    2322.1537    18.167874      23.3643    21.848367    9274.1874    3349.7166    1755.6474    1861.0972   -18.537303   -970.51353   -319.50873   -3558.7273 
 1857000    233.17609   -4267.9317   -3868.2759   -4267.9317            0     1219.846    18.010538    23.268555    22.396715    9385.9971    917.81795    876.67798     1865.042   -328.37582     1059.547    459.25393   -3701.2971 
 1858000    244.37793   -4264.2482   -3845.3928   -4264.2482            0    766.19678    18.198446    23.584112    21.860581    9382.4344    144.68092    265.21822    1888.6912    668.19485   -182.27729     293.7017   -3740.5517 
 1859000    245.28523   -4273.1212   -3852.7107   -4273.1212            0     2443.512    17.921184    23.475485    22.100679    9297.9433    3315.2538    2642.0723    1373.2099    581.54124    314.00537    260.17832   -3521.3682 
 1860000    237.57825   -4261.1146   -3853.9136   -4261.1146            0   -228.35604     17.96304    23.619867     22.25762    9443.5658   -329.57842    -336.8088   -18.680908   -94.434923    428.21823    821.82028   -3885.3639 
 1861000    240.01046   -4249.0758   -3837.7061   -4249.0758            0    442.54086    18.276692    23.491078    21.890313    9398.3695    516.40684    177.97172    633.24403   -347.68571   -62.148303   -345.83158    -3777.049 
 1862000    243.61552   -4262.3051   -3844.7564   -4262.3051            0    2446.6314    18.065943    23.132375    22.216232    9284.3451    3700.4822    2938.8061    700.60593     1084.923   -45.807911    113.68101    -3513.476 
 1863000     240.8366    -4274.436   -3861.6503    -4274.436            0   -151.96514    18.227011    23.370648    22.147959     9434.523    160.24137    907.21009   -1523.3469   -1007.2501    824.84627   -73.206707   -3882.5596 
 1864000    251.72689   -4245.9615   -3814.5103   -4245.9615            0    1726.2887    18.098151    23.383779    22.044109    9329.1362    871.34141    2016.7535    2290.7711   -492.19935    294.40633   -656.08036   -3579.6385 
 1865000    254.99397   -4264.0635   -3827.0126   -4264.0635            0    903.64709    18.110054    23.496433    22.246567    9466.3963    -1038.908    1903.6316    1846.2177    1138.4607    128.17174    442.20071   -3702.2572 
 1866000    242.33371   -4276.7273   -3861.3757   -4276.7273            0    2763.7428    17.837634    23.644299    22.019802    9287.0353    3304.5021    2188.1462    2798.5803   -788.68488   -710.33596    167.02696   -3487.0491 
 1867000    245.25551   -4303.2086    -3882.849   -4303.2086            0    1917.2917    18.010228    23.540708    21.969029    9314.2864    1459.6612    2457.1339      1835.08   -998.75125   -346.91744    252.46045   -3622.4055 
 1868000    232.83697   -4267.9992   -3868.9246   -4267.9992            0    1217.4663    18.273749    22.991526    22.170403    9314.7034   -454.63607    1689.5023    2417.5326   -235.47611     139.0543    834.45392   -3703.5374 
 1869000    253.39977   -4273.9301   -3839.6116   -4273.9301            0    1016.5267    18.253038    23.270894     22.05636    9368.7588    128.03055    2746.3632     175.1865    1545.4569    -501.2633   -962.16176   -3700.7198 
 1870000    242.51445   -4274.7123   -3859.0509   -4274.7123            0    759.76364    17.986898    23.495122     22.07606    9329.4395    1470.6641    873.60785   -64.981055    33.406006    997.45208    142.26859   -3755.6772 
 1871000    236.86057   -4266.8846   -3860.9137   -4266.8846            0    1254.7935    17.983387    23.713647    21.965174    9367.0854    1149.6582    1230.5909    1384.1313   -874.58142   -671.22501   -306.96958   -3689.4972 
 1872000    260.69862   -4260.6248   -3813.7963   -4260.6248            0    1435.1989    18.057925    23.447082    22.101128    9357.7427    1868.4508    827.97644    1609.1695    -877.1871   -822.27697    725.02228   -3617.9303 
 1873000    236.02271   -4278.7583   -3874.2234   -4278.7583            0   -174.81917     18.33383    23.197967    22.381292    9518.9335   -95.207178    1305.4613   -1734.7116   -359.84078   -287.23187    466.95655   -3898.4925 
 1874000    253.64266   -4264.6441   -3829.9092   -4264.6441            0    1159.4507    18.177599    23.381079    22.038821    9366.7607    152.05954    1726.7054    1599.5871    207.50625   -1187.6887   -248.58041   -3671.5229 
 1875000    256.82658   -4243.5833   -3803.3914   -4243.5833            0     2454.107    17.788014     23.64278    22.203307    9337.7808    3418.1906    2075.9574     1868.173   -489.07408    356.01331    482.44965   -3469.1863 
 1876000    244.36784   -4266.1894   -3847.3513   -4266.1894            0     514.8354    18.028066    23.748281    22.052967    9441.6601    1422.5138    272.28438     -150.292    -1011.427    71.806752    249.70472     -3776.46 
 1877000    247.28825   -4262.8181   -3838.9745   -4262.8181            0    2379.6364    18.058908    23.312118      22.2102    9350.3026    2377.2088    1951.0815    2810.6189     48.55377   -251.82761   -141.63903   -3514.4764 
 1878000    245.85298    -4267.621   -3846.2375    -4267.621            0    2385.7582      18.2128    23.168664    22.090542    9321.4626    2887.3698    2305.3932    1964.5115    367.99626   -775.54827    534.81521    -3521.908 
 1879000    242.07102   -4235.9169   -3821.0154   -4235.9169            0   -855.68837    18.457115    23.365764    22.013315    9493.5637   -889.08276    -1199.154   -478.82835    682.85984    89.941379   -56.098565   -3939.4888 
 1880000    232.19984   -4273.9197   -3875.9371   -4273.9197            0    2019.5213    18.035958    23.479294    22.054838    9339.5967    876.61572    2190.6789    2991.2691    1070.5352   -354.33869   -504.20603   -3600.8613 
 1881000    230.87181   -4271.2398   -3875.5334   -4271.2398            0    946.48602    17.640855    23.939569    22.239243    9391.9542    2185.8929   -675.21966    1328.7848      319.143    685.15336   -278.08782   -3745.8913 
 1882000    254.46594   -4255.5738   -3819.4279   -4255.5738            0     1491.449    18.117519    23.645406    21.947221    9402.1032    1565.5575    1555.7856    1353.0039    62.940983   -235.44697    1329.2125   -3614.9204 
 1883000    240.27945   -4268.1438   -3856.3131   -4268.1438            0    2447.5422    18.226012    23.109352    22.110918    9312.9269    1894.3464    3098.1426    2350.1375    1127.8462    423.29028    164.76824   -3523.8892 
 1884000    235.43449    -4286.506   -3882.9793    -4286.506            0    304.46718    18.216205    23.364625    22.167414    9434.7794    196.41636   -282.12984    999.11501    290.90507   -418.63595   -441.96889   -3841.0857 
 1885000     239.4751   -4297.2092   -3886.7571   -4297.2092            0    98.174513    18.064915     23.54063    22.076241    9388.1309    93.722221   -14.979207    215.78053   -489.02853   -590.20135    43.705012   -3873.3154 
 1886000    246.10997   -4265.7655   -3843.9414   -4265.7655            0    1464.7246    17.868707    23.615609    22.067612    9312.0997    2980.0005    979.53491    434.63846   -280.90109    637.11087    277.29086    -3645.021 
 1887000    245.07818   -4285.4972   -3865.4416   -4285.4972            0    928.19587    17.896629    23.899819    21.899086    9366.8125    510.75289    630.89584    1642.9389   -588.68141   -285.95523    685.29622   -3738.6451 
 1888000    245.36841   -4270.1612   -3849.6082   -4270.1612            0    2256.4015    18.181851    23.211302    22.144448    9345.4985    1705.2422     2603.405    2460.5572   -730.93929    541.36375   -373.65764    -3542.073 
 1889000    227.31502   -4286.5209   -3896.9107   -4286.5209            0    1319.3998    18.345541    23.162511    22.029029    9360.7687    1470.1424    557.41555    1930.6415    138.73958   -291.07886   -631.03967   -3716.7899 
 1890000    249.50884   -4276.0067   -3848.3571   -4276.0067            0    1896.4546     18.09243    23.484638    21.985228    9341.3949    157.82587    3870.3179    1661.2202   -484.73487   -431.38749   -332.51053   -3589.9942 
 1891000    247.26391   -4300.7549    -3876.953   -4300.7549            0    1807.9633     17.80577    23.603703    22.205944    9332.7612    1321.6853    1473.2888    2628.9157   -217.63281    532.03002    150.02193   -3630.8734 
 1892000    231.35704   -4264.7215   -3868.1834   -4264.7215            0    1786.9949    17.930584    23.702169    21.956251    9331.2692    1865.5327    1148.2728    2347.1793    1169.0515    292.86804    512.81631   -3624.9967 
 1893000    234.51988   -4271.3265   -3869.3675   -4271.3265            0    1436.5146    18.202955    23.380161    21.967917    9349.2823     1416.678    1993.8992    898.96681   -473.19663    147.21381    246.61123   -3673.4992 
 1894000    229.63962   -4248.2687   -3854.6743   -4248.2687            0    884.91261    18.427486    22.970779    22.289242    9434.8964   -1346.8882    3223.9465    777.67955   -146.16095    899.89191   -383.19037   -3732.9118 
 1895000    245.15919   -4237.9003   -3817.7058   -4237.9003            0    2056.4999    18.023833    23.472405    22.047996    9327.6848    2974.4755    1922.1255    1272.8989   -409.64402   -1402.5264    316.17323   -3537.9504 
 1896000    235.22411   -4268.2951   -3865.1291   -4268.2951            0    966.58175    17.835151     23.92091    21.896929    9341.9532    1718.3098   -157.99344    1339.4289   -173.84442   -429.36443    770.60021   -3733.4393 
 1897000    230.72046   -4276.7094   -3881.2624   -4276.7094            0    2069.7676    17.946256    23.558947    22.011086    9306.1748    2977.7317    1786.5473    1445.0238    511.63476   -246.86215    -160.4803   -3600.3515 
 1898000    237.33499    -4295.661   -3888.8769    -4295.661            0    1493.6633     18.12776    23.293348    22.094542    9329.5581    1265.1936    1615.8402    1599.9559   -157.68427   -647.73519    122.17623   -3685.6461 
 1899000    257.94599   -4249.9082   -3807.7976   -4249.9082            0    1027.4105    18.357578    23.195209    22.154822    9433.6972    761.73725    1424.7964    895.69771    -117.7444   -289.46625   -240.69515   -3666.4457 
 1900000    234.74554     -4263.87   -3861.5242     -4263.87            0   -314.28648    18.207859    23.506942    22.262129    9528.4381    40.483766    344.25523   -1327.5984   -381.76659   -231.22591    425.52275   -3905.1982 
 1901000    250.39377   -4250.1929   -3821.0265   -4250.1929            0    1331.5229    17.817429    23.844946    22.114953    9395.6628     1973.387     702.4225    1318.7592    475.50779    1137.9451    883.11187   -3638.5732 
 1902000     243.1654   -4300.2186   -3883.4414   -4300.2186            0    1588.4976    17.904944    23.648979    22.015016    9321.8981    1640.6358    1386.1028    1738.7544    248.50993    197.58843    503.65384   -3667.4846 
 1903000    249.14963    -4265.501    -3838.467    -4265.501            0    459.79681    18.366818    23.277813    22.097461    9447.5342   -583.46658     1038.117    924.74005   -39.582293    315.89644    54.266064    -3775.115 
 1904000    230.51878   -4265.3039   -3870.2026   -4265.3039            0    178.26497    18.169795    23.481867    22.108919    9433.0067    701.22325    1121.7355   -1288.1638    666.82398    62.469776    51.119646   -3845.6786 
 1905000    249.42091   -4280.8289     -3853.33   -4280.8289            0    1226.2635     17.88327    23.549077    22.147132    9326.9214    1338.0008    265.40983      2075.38   -63.076687    707.39112    84.311023   -3686.5292 
 1906000    225.77504   -4282.4005   -3895.4298   -4282.4005            0    1749.1502    17.981821    23.608315     21.96137    9323.0517     2082.276    2580.5449    584.62966   -898.35922    482.66027     351.4366   -3657.6028 
 1907000    238.62313   -4271.4127   -3862.4208   -4271.4127            0     600.8059    18.114229    23.544453    22.058329    9407.6487    1157.4741   -1224.0227    1868.9663   -29.120202     452.8618    388.26635   -3779.9897 
 1908000    240.62767    -4278.393   -3865.9654    -4278.393            0    512.54325    18.125818    23.337131    22.232086    9404.2743   -51.432966    1290.1734    298.88932   -185.41771   -185.78206   -741.56733   -3795.6692 
 1909000    246.14462   -4280.3604    -3858.477   -4280.3604            0    3052.3745    18.003043    23.616185    21.833729    9282.8981    2385.1462    3695.7589    3076.2184    316.59549   -12.073709    160.42465   -3445.2418 
 1910000    253.85046   -4259.7744   -3824.6834   -4259.7744            0      2075.32    17.877038    23.550626    22.044354    9281.0132    3028.2208    2421.6101    776.12918    -643.8598   -284.70944    566.54538   -3543.7804 
 1911000    237.07461    -4287.663   -3881.3252    -4287.663            0    2476.4768    17.913569    23.408232    22.083728    9260.2587    3117.1941    842.88884    3469.3474   -82.990874   -253.84633   -441.51981   -3546.8736 
 1912000    230.46318   -4254.8998   -3859.8938   -4254.8998            0      780.296    18.065111    23.476758     22.19264    9412.1258    848.02954    2125.2253   -632.36689     345.7772   -246.04943    -42.32416   -3752.7855 
 1913000    237.28862   -4257.9728   -3851.2683   -4257.9728            0    1560.0333    18.227182    23.436244    21.871714    9343.0865    156.46067    2119.1985    2404.4408    -1809.728   -434.92785   -629.42103   -3638.6992 
 1914000    241.20501   -4274.0063   -3860.5892   -4274.0063            0    1293.5973    18.248283    23.067238    22.324189    9397.0881    160.85676    2874.7297    845.20559   -253.06232    272.59554    1249.1545   -3683.3057 
 1915000    241.61312   -4267.9809   -3853.8643   -4267.9809            0    1200.0789    18.030361    23.484407    22.063919    9342.5767    446.17464    494.35382    2659.7082    154.50653    731.55744    406.57229   -3690.3513 
 1916000     249.5314   -4264.7363    -3837.048   -4264.7363            0    1249.9516    17.964252    23.688879    21.998368    9361.4714    2039.9582    110.23232    1599.6643   -631.92385   -219.68732    37.212553   -3666.3953 
 1917000    233.34159   -4274.5801   -3874.6406   -4274.5801            0      1320.04    17.853134    23.495474    22.349102      9374.73     2179.806    1615.2696    165.04435    1407.7787   -412.15465   -480.31364   -3694.1637 
 1918000    267.66658    -4272.176   -3813.4047    -4272.176            0    1551.1992    18.134086     23.44708     21.98523    9347.9298    1250.2813    1831.7017    1571.6146    1261.7568    828.59983   -281.68817   -3601.9297 
 1919000    258.00538   -4260.8858   -3818.6734   -4260.8858            0    1614.2818    18.262462    23.030396    22.164606      9322.25    1219.6278    1718.9835    1904.2342    136.32933   -1027.0065    380.03574    -3599.203 
 1920000    247.43972    -4273.802   -3849.6988    -4273.802            0    581.82043    18.181168    23.399718    22.084871    9395.6596    943.12112    379.20709    423.13306   -434.13482   -1047.3674   -362.31725   -3769.9743 
 1921000    235.23966   -4246.4422   -3843.2495   -4246.4422            0    1947.9659    17.923857    23.582671    21.985172    9292.9659    3202.9216    1221.5139    1419.4623    211.47386   -309.26599    865.94382   -3579.2449 
 1922000    249.42638   -4286.0552   -3858.5469   -4286.0552            0    2125.6914    18.010717    23.499141    22.061771     9337.344    1577.7421    2655.8631    2143.4691   -218.71385   -139.47498    303.40597   -3569.0797 
 1923000    238.26172   -4273.3982   -3865.0257   -4273.3982            0     2399.044    18.181187    23.180366    22.113759     9319.768    2938.3016    1643.2057    2615.6248    812.46011   -651.81131   -840.83883   -3538.9494 
 1924000    234.29206    -4273.092   -3871.5234    -4273.092            0    2044.7737    18.126529    23.450482    21.961285    9335.2116    2432.2477    2594.2134      1107.86   -283.15167   -531.14059     849.9568   -3593.1387 
 1925000    248.78338   -4264.9866   -3838.5804   -4264.9866            0    1608.6501    17.907573    23.596267    22.100029    9338.4087    934.30321    1071.0766    2820.5704   -158.40498   -124.94215    26.926129   -3619.4965 
 1926000    251.22329   -4293.9211    -3863.333   -4293.9211            0     2266.473    17.971894    23.404222    22.061103     9279.301    3825.8281    2579.5227    394.06818    728.82223    784.70382    100.05461   -3556.6132 
 1927000    261.44537   -4270.8039   -3822.6955   -4270.8039            0    2375.8075    18.214333     23.34798    21.886268    9307.5269    1976.9936    1074.1574    4076.2716    1129.3255   -276.18642    1051.4387   -3500.2016 
 1928000    242.04852   -4246.2731   -3831.4103   -4246.2731            0    948.15571    18.121086     23.22927    22.285933     9381.032    461.08963    1061.8509    1321.5266    457.61111   -46.206314   -715.59406   -3701.6905 
 1929000    239.48739   -4260.7508   -3850.2777   -4260.7508            0    1395.5199    18.316403    23.202056    21.987511     9344.213    2917.5243     328.5648    940.47051     651.1934    240.68858   -540.21476   -3660.1021 
 1930000    234.63581   -4260.3067   -3858.1489   -4260.3067            0    1854.0411    17.974772    23.485315    22.046432    9306.7509    688.62589    1960.1296    2913.3676   -587.76422    349.67892   -339.44672    -3606.501 
 1931000    249.95446   -4267.9154    -3839.502   -4267.9154            0    1635.9408    17.781516    23.857669      22.0915    9371.7784    2367.8205    88.353488    2451.6483   -403.03345   -234.26723   -371.44644   -3615.9053 
 1932000    253.23476   -4248.6987    -3814.663   -4248.6987            0     2171.362     18.07156     23.50284    21.997526    9343.0745    2498.3422    2072.0036    1943.7401   -1341.7061   -76.479533   -132.91736   -3518.7951 
 1933000    247.42691   -4294.3898   -3870.3085   -4294.3898            0    1747.9334    18.171232    23.050005    22.243984    9316.8255    682.77172     2630.844    1930.1843   -202.68432   -209.82928    315.28967   -3632.8057 
 1934000    244.06033   -4290.3475   -3872.0364   -4290.3475            0    2091.6503    18.065736    23.423046    21.973717    9298.2785    2123.5148     2027.646    2123.7901     183.2916   -900.29552    881.21474   -3588.3964 
 1935000    246.19201   -4244.9692   -3823.0045   -4244.9692            0    1303.4075    18.020596    23.574007    22.032371    9359.7404    1350.3637    1760.6511    799.20766    323.18683   -288.12183    -188.5747   -3645.0865 
 1936000    252.92209   -4265.0048    -3831.505   -4265.0048            0    1192.1029    17.865385    23.473538     22.36545    9379.2595    2455.5845    1685.2508   -564.52648    449.19673    458.20654    624.40404   -3668.4409 
 1937000    236.52866   -4267.3161   -3861.9141   -4267.3161            0     1219.579    18.158257     23.64465    21.879231    9393.7523    1246.6705    1197.4494    1214.6171   -243.32657    -774.6013   -153.09679   -3694.8339 
 1938000     251.7149   -4252.0663   -3820.6355   -4252.0663            0    1016.9962    18.200223    23.312365    22.125125    9387.4747   -45.274217    2250.7566    845.50609   -370.87713   -618.41113    791.43863    -3681.402 
 1939000    240.80343   -4282.8373   -3870.1085   -4282.8373            0    819.01917    18.207527    22.924699    22.400108    9349.8515    1071.3452    1613.9842   -228.27193    -79.76774   -660.54192   -1225.6733   -3758.4287 
 1940000    247.07025   -4228.2479   -3804.7779   -4228.2479            0    1609.2086     18.16112    23.520489    21.893229    9351.8772    1609.6095    2648.1457    569.87063   -819.91945   -284.52073   -920.12545   -3585.3019 
 1941000    243.34074   -4248.4042   -3831.3265   -4248.4042            0    2321.4641    17.764426     23.46097    22.259131    9276.9526    3168.8927    2110.3906    1685.1091   -647.42549    137.63521    487.89696   -3517.2444 
 1942000     246.2844   -4261.2124   -3839.0893   -4261.2124            0    1357.1159    18.061496    23.512984    22.120028    9393.9256    2274.7834    1630.9012    165.66309    188.56699    456.01734   -141.69434   -3653.1634 
 1943000    240.75344   -4249.5114   -3836.8682   -4249.5114            0    166.44468    18.304524    23.603517    21.835458    9434.0343    270.99529   -935.74303    1164.0818    1065.3381   -585.39429    232.34578   -3813.9678 
 1944000    255.17843   -4261.0361    -3823.669   -4261.0361            0    1580.0984    18.076811    23.296849    22.293041    9388.3297    3214.3463    982.65715    543.29163   -974.73054   -482.84451    1023.8398   -3607.3233 
 1945000     247.1473   -4281.5486   -3857.9466   -4281.5486            0    219.63592    18.303622    23.489731    21.856989    9397.3502   -1132.1198   -452.50604    2243.5336    31.605669   -692.89949    278.14082   -3827.8453 
 1946000    235.53586   -4251.1997   -3847.4993   -4251.1997            0    1641.0886    18.035513    23.341544    22.118844    9311.5186    1118.6087    2643.8261    1160.8309    74.132558    212.09941   -44.722379   -3624.6412 
 1947000    243.15571     -4261.03   -3844.2694     -4261.03            0   -42.564956    18.040149    23.521864    22.271784    9450.7627    405.15556    -61.34834   -471.50209    -312.4055    734.47331    -271.5255   -3850.1362 
 1948000    241.16599   -4249.2779   -3835.9276   -4249.2779            0    1166.2814    18.085782    23.671439    21.876138    9365.5353    1607.0228     1244.854    646.96726    719.61236    189.84282   -1221.1057   -3676.6291 
 1949000     252.3925   -4259.0749   -3826.4828   -4259.0749            0    736.01854     18.00499    23.415483    22.279569     9392.967    1897.9826   -457.03224     767.1052   -761.14301   -240.36296    394.50121    -3725.658 
 1950000    240.72079   -4265.4439   -3852.8567   -4265.4439            0    427.64061     18.14892    23.509236     22.10205    9430.2208    1259.7998    119.77201    -96.64994   -1075.3245    494.36624   -211.29748   -3794.0433 
 1951000    245.01091   -4265.4914   -3845.5511   -4265.4914            0    1880.8537     18.04121    23.519622     22.00647    9337.8388     1944.866    1279.5843     2418.111    223.68967    444.52808    135.10557   -3589.4112 
 1952000    256.25649   -4276.0126   -3836.7978   -4276.0126            0    701.42294    18.144186    23.318966    22.275545    9424.8646   -27.586203     1185.545    946.31004    167.49266    277.52976    12.787426   -3740.3858 
 1953000    240.65782   -4281.8688   -3869.3895   -4281.8688            0    757.28246    18.450591    23.261787    21.846666    9376.4518   -465.69086    1293.5628    1443.9755    384.51635    461.86191    16.576445   -3765.8343 
 1954000    242.24975   -4279.8549   -3864.6471   -4279.8549            0    1749.0071    17.965179     23.48508    22.103408    9325.7301    1003.6228    1591.0528    2652.3456    455.24507    649.11135   -1099.1453   -3626.7713 
 1955000    232.95331   -4274.3602   -3875.0862   -4274.3602            0    2129.3036    17.935143    23.606896    22.093917    9354.4108    2877.1041    1151.5298    2359.2768    558.04874    -488.0831    98.454494    -3584.597 
 1956000    247.37703   -4300.5968    -3876.601   -4300.5968            0    2218.0985    18.017653    23.421183    22.007498    9287.0489    3229.5011    1864.2676    1560.5267      288.334    1207.4062   -108.10417   -3576.1771 
 1957000    237.82565    -4263.258    -3855.633    -4263.258            0    147.19919    18.197814    23.286238    22.251034    9429.0676   -120.08486   -665.01752       1226.7    1028.4935    -1457.701    450.11598   -3835.3911 
 1958000    251.64553   -4262.7671   -3831.4553   -4262.7671            0    1365.9065    18.171382    23.561266     21.98825    9414.0661    1570.5131    611.07073    1916.1357    898.52937    414.54232    71.406896   -3643.9238 
 1959000    243.42728   -4265.3529   -3848.1268   -4265.3529            0    1083.8516    17.848696    23.484919    22.269215     9334.702    988.04428    554.65261     1708.858    506.57188    193.86631    473.91431   -3700.5745 
 1960000    255.40167    -4261.207   -3823.4572    -4261.207            0    1459.6417    17.944971    23.493432    22.203595    9360.7906    1400.6572    285.59659    2692.6712   -696.54349   -707.05257    409.60537   -3624.1906 
 1961000    247.68832   -4285.5713    -3861.042   -4285.5713            0    1642.1303    18.208537    23.479347     21.72246    9286.8848    167.50318    1396.2903    3362.5974   -305.34129    50.076425    272.31357   -3638.6324 
 1962000     249.5347   -4272.1884   -3844.4945   -4272.1884            0    1378.9075    18.045965    23.333452     22.24895     9368.469    1644.7295    1447.3721     1044.621   -973.30791    51.722092    1117.9588    -3656.095 
 1963000    253.78937   -4268.4679   -3833.4816   -4268.4679            0    1416.2245    18.159408    23.496803    21.970686     9374.629    305.94904    3106.9278    835.79661    182.94272    -43.85298    -254.3475   -3639.8563 
 1964000    237.53391    -4265.094    -3857.969    -4265.094            0     466.5405    18.107576    23.532266    22.085259    9410.8001    1570.4814   -26.608931   -144.25097   -183.88479   -357.96194     207.1098   -3793.9378 
 1965000    234.98621   -4299.6928   -3896.9345   -4299.6928            0    1634.6915    17.941755       23.341    22.230294    9309.5695    1562.2935     1386.946     1954.835   -465.04192   -934.95458    598.74723   -3674.9916 
 1966000    243.29559   -4288.0606   -3871.0603   -4288.0606            0    1863.0939    18.117529    23.591432    21.919761    9368.9101    1819.0508    627.89609    3142.3349    6.1721405   -448.81948    116.07493   -3616.4947 
 1967000    248.19855   -4298.5037   -3873.0999   -4298.5037            0   -671.87198    18.102202    23.598414    22.224559    9493.9596   -480.22365    87.182685    -1622.575   -79.611176   -72.727742   -105.02228   -3966.1271 
 1968000    242.09445   -4252.3809   -3837.4393   -4252.3809            0    1291.7404    17.979467    23.325567    22.351998    9374.0089     183.6887     2872.352    819.18062   -673.81409   -290.72418    373.37487   -3660.8451 
 1969000     249.1398   -4257.5339   -3830.5168   -4257.5339            0    1953.3849    18.138899    23.499329    21.836471    9307.8387      2184.81     458.4862    3216.8584    268.42175    79.717774    218.21741    -3565.354 
 1970000    244.68246   -4300.5405   -3881.1632   -4300.5405            0    1389.5118    17.965786    23.526234    22.165916    9368.8076     2610.554    152.40938     1405.572   -1077.0353   -29.315775    33.109874    -3691.308 
 1971000    243.66097   -4270.4769   -3852.8504   -4270.4769            0    1775.4954    17.996026    23.400612    22.123044    9316.4123    3108.9104    1469.4182    748.15769    1085.6272   -118.27564    341.74337   -3611.6132 
 1972000    250.82453   -4293.2765   -3863.3719   -4293.2765            0    2550.2464    18.099302     23.67987    21.663725     9284.837    1701.8079    1246.0787    4702.8527   -50.062237     1116.505   -658.19048   -3518.0435 
 1973000    238.34147   -4272.2136   -3863.7044   -4272.2136            0    466.62933     17.97654    23.463522    22.285437    9399.8401    1346.8173   -337.95531    391.02599   -440.19652   -796.60322    377.19234   -3799.7356 
 1974000    248.80799   -4275.9741   -3849.5257   -4275.9741            0    2555.6279    18.184929    23.522913    21.757538    9307.0592    2308.4397    1824.8318    3533.6123    708.58793   -60.379935    311.39892   -3502.6404 
 1975000    240.56353   -4278.3582   -3866.0406   -4278.3582            0     1418.956    18.138033    23.357794    22.054949    9343.8977    512.75336     1656.945    2087.1697   -799.12316    417.51631    356.04953   -3672.6778 
 1976000    234.86719   -4246.5614    -3844.007   -4246.5614            0    1700.4456    18.097746    23.246618    22.235432    9354.6992    2176.1558    1309.4665    1615.7145    1189.7257   -280.86995   -282.58289   -3612.0175 
 1977000    258.68249    -4233.621   -3790.2481    -4233.621            0     543.1862    18.092207    23.721879    21.906414    9401.8197    316.76673   -862.43212     2175.224    631.57951    250.78586    95.649172   -3715.7686 
 1978000    257.18656   -4264.2694   -3823.4605   -4264.2694            0    2715.3919     17.89987    23.569744    22.104379    9325.7346     2094.986    2864.3483    3186.8413   -573.10078    320.03345    176.78075   -3454.1501 
 1979000    252.27685   -4266.7433   -3834.3494   -4266.7433            0    2105.2443    18.042382     23.43091    22.067904     9329.194     1773.033    2484.6431    2058.0569    632.40683   -617.63547   -421.27965   -3547.9168 
 1980000    249.68138   -4242.7623   -3814.8169   -4242.7623            0    1207.5746    18.305929      23.6606    21.738389    9415.5321   -400.71119    364.31839    3659.1167    673.69512    541.92107     162.2693   -3648.9978 
 1981000    253.50874   -4271.2772   -3836.7719   -4271.2772            0     2114.323    18.112424    23.254679    22.221922    9359.8428    2041.2889    2410.3102    1891.3697   -1016.7402   -309.13764    289.61056    -3548.159 
 1982000    242.84298   -4262.7667   -3846.5421   -4262.7667            0    2077.6248    18.168167    23.333862    21.985741    9320.4924    1703.1382    2767.4506    1762.2855   -1421.2183     686.0633    123.62777    -3564.131 
 1983000    236.98756   -4273.6972   -3867.5086   -4273.6972            0    1690.7157    18.036044    23.641636    21.910955     9342.866    897.16449    1991.5483    2183.4344    182.46374    381.18143    174.72023   -3637.1383 
 1984000    250.10287   -4252.2759   -3823.6081   -4252.2759            0    2602.8507    17.799914    23.456731    22.255429    9292.2602    2492.4471     2332.016     2984.089     445.1084   -539.35438    515.30696   -3470.8748 
 1985000    248.01536   -4284.6429    -3859.553   -4284.6429            0    1222.3951    18.146339    23.474705    21.947408    9349.1561   -60.779796    940.81387    2787.1513   -169.52298   -232.49933    35.616999   -3692.8821 
 1986000    258.49881   -4303.3967   -3860.3386   -4303.3967            0    2873.6653    18.173167    23.366321     21.94002    9316.6112    2947.4928    2397.8532    3275.6497   -1444.6031   -204.60991    680.19986   -3469.8844 
 1987000    251.47457   -4283.3846   -3852.3658   -4283.3846            0    1093.2483    18.013942     23.37025    22.312104      9393.18    2883.5585    543.85626   -147.66978   -68.609047   -51.654605   -54.589521   -3702.6018 
 1988000    237.58309   -4239.8584   -3832.6491   -4239.8584            0    1524.3158    18.177929    23.734319     21.76446    9390.0747    1503.5381   -712.65374    3782.0632    1044.7615   -752.22576   -147.32535   -3623.9023 
 1989000    247.68097   -4272.6753   -3848.1586   -4272.6753            0    1658.2451    17.981947    23.382531    22.201248    9334.8128    1318.0495    1773.1244    1883.5615    727.03175    2.2424327    556.77752   -3622.4073 
 1990000    250.82054   -4279.1049   -3849.2071   -4279.1049            0   -429.04977    18.179871    23.463347    22.114629    9433.2297   -321.39322   -17.717482    -948.0386   -1463.4085   -56.448223    321.78422   -3908.2332 
 1991000    241.02411   -4285.6361    -3872.529   -4285.6361            0    913.30047     18.21242    23.447831    21.999764    9394.8174     2159.554    638.62395   -58.276497    405.05272    248.25459    254.50497   -3747.3943 
 1992000    256.74468   -4289.7352   -3849.6836   -4289.7352            0    1106.6371    17.896416    23.492894    22.195615    9331.8935    2023.6686    1718.3955   -422.15278   -216.36396   -416.40439    78.930005   -3699.0746 
 1993000     248.4683   -4245.4183   -3819.5521   -4245.4183            0    1695.5896    18.045293    23.747232    21.778933    9332.8336    246.29878    2777.2646    2063.2055   -1123.0162    85.495884   -662.52537   -3588.7657 
 1994000    252.03306   -4277.7566   -3845.7806   -4277.7566            0    633.48075    18.063361    23.472678    22.149744    9391.3907    1035.5909     783.1529    81.698414   -729.19644    557.18012   -120.28985   -3759.0166 
 1995000    251.35814   -4248.8683    -3818.049   -4248.8683            0    3134.7477    18.010406     23.43052    22.055465     9307.256    3304.5772    2857.2961    3242.3698   -664.68749   -1010.3168    110.29678   -3392.5485 
 1996000    247.11973   -4277.4178    -3853.863   -4277.4178            0    552.72752    18.172283    23.552574    21.895658      9371.43    1239.0684    848.69748   -429.58327    241.03877    678.23921    292.31501   -3778.3203 
 1997000    237.18088    -4269.875   -3863.3551    -4269.875            0    678.01434    17.989345    23.439145    22.267341    9389.1328    2775.6726    550.17295   -1291.8026    391.42191     -158.546    386.45755    -3770.514 
 1998000    256.77972   -4248.0861   -3807.9744   -4248.0861            0     1854.925    18.060992    23.523914    21.819124     9270.187    1234.3398    1228.9502    3101.4849     47.60259    200.97402   -307.83851   -3557.1957 
 1999000    235.82591   -4278.0746   -3873.8771   -4278.0746            0    336.21381     18.16596     23.47685    22.000659    9382.8302    340.90025    -152.5817    820.32288    943.23823    224.42251    963.24068     -3827.87 
 2000000    251.67436   -4243.7168   -3812.3555   -4243.7168            0    1852.4653    18.007042    23.395828    22.219923    9361.0237    1872.1211    2339.8521    1345.4225   -724.52555   -728.49773   -107.63004   -3559.4553 
Loop time of 322.417 on 64 procs for 250000 steps with 864 atoms

Performance: 133.988 ns/day, 0.179 hours/ns, 775.393 timesteps/s
194.3% CPU use with 32 MPI tasks x 2 OpenMP threads

MPI task timing breakdown:
Section |  min time  |  avg time  |  max time  |%varavg| %total
---------------------------------------------------------------
Pair    | 17.361     | 24.585     | 34.128     | 101.0 |  7.63
Bond    | 1.028      | 1.1897     | 1.3811     |   7.7 |  0.37
Kspace  | 157.51     | 168.55     | 177.06     |  41.3 | 52.28
Neigh   | 1.3258     | 1.4185     | 1.513      |   4.7 |  0.44
Comm    | 48.789     | 51.546     | 54.48      |  21.7 | 15.99
Output  | 0.52565    | 0.52597    | 0.52733    |   0.0 |  0.16
Modify  | 58.512     | 61.368     | 64.531     |  16.4 | 19.03
Other   |            | 13.24      |            |       |  4.11

Nlocal:        27.0000 ave          37 max          18 min
Histogram: 3 4 4 4 4 2 3 1 2 5
Nghost:        2109.16 ave        2217 max        2018 min
Histogram: 10 3 3 0 0 0 2 5 6 3
Neighs:        6494.75 ave        8901 max        4207 min
Histogram: 4 2 6 2 4 1 5 1 2 5

Total # of neighbors = 207832
Ave neighs/atom = 240.54630
Ave special neighs/atom = 2.0000000
Neighbor list builds = 5739
Dangerous builds = 0

unfix		3
unfix		2
unfix		1

write_data	data.final.${pid} nocoeff
write_data	data.final.0 nocoeff
System init for write_data ...
PPPM initialization ...
  extracting TIP4P info from pair style
  using 12-bit tables for long-range coulomb (../kspace.cpp:340)
  G vector (1/distance) = 0.37133757
  grid = 24 27 25
  stencil order = 5
  estimated absolute RMS force accuracy = 0.003206549
  estimated relative force accuracy = 9.656427e-06
  using double precision FFTW3
  3d grid and FFT values/proc = 4410 672
Last active /omp style is kspace_style pppm/tip4p/omp

write_restart   restart.lmp.${pid}
write_restart   restart.lmp.0
System init for write_restart ...
PPPM initialization ...
  extracting TIP4P info from pair style
  using 12-bit tables for long-range coulomb (../kspace.cpp:340)
  G vector (1/distance) = 0.37133757
  grid = 24 27 25
  stencil order = 5
  estimated absolute RMS force accuracy = 0.003206549
  estimated relative force accuracy = 9.656427e-06
  using double precision FFTW3
  3d grid and FFT values/proc = 4410 672
Last active /omp style is kspace_style pppm/tip4p/omp
Total wall time: 0:05:22
