LAMMPS (30 Jul 2021)
Processor partition = 1
  using 2 OpenMP thread(s) per MPI task
using multi-threaded neighbor list subroutines
variable        pid world 0 1
variable        phase world IceII IceV

shell cd ${phase}
shell cd IceV
include Restart.lmp
echo both
log log.lammps
#include		in.partitions
include		in.temp
variable        temperature equal 6.51
variable	tempDamp equal 100.0
include		in.pressure
variable        pressure equal 9608.3
variable        pressureDamp equal 1000.0 # This is 1 ps
include		in.seed
variable        seed equal 745823

units		real
atom_style	full
read_restart    restart.lmp.${pid}
read_restart    restart.lmp.1
Reading restart file ...
  restart file = 30 Jul 2021, LAMMPS = 30 Jul 2021
  restoring atom style full from restart
  triclinic box = (-3.0414126 -0.028945374 0.13735083) to (14.651412 22.608944 19.092647) with tilt (-0.23147149 -6.6164618 0.18307436)
  2 by 4 by 4 MPI processor grid
  restoring pair style lj/cut/tip4p/long/omp from restart
  restoring bond style harmonic/omp from restart
  restoring angle style harmonic/omp from restart
  1008 atoms
  672 bonds
  336 angles
Finding 1-2 1-3 1-4 neighbors ...
  special bond factors lj:    0        0        0       
  special bond factors coul:  0        0        0       
     2 = max # of 1-2 neighbors
     1 = max # of 1-3 neighbors
     1 = max # of 1-4 neighbors
     2 = max # of special neighbors
  special bonds CPU = 0.002 seconds
  read_restart CPU = 0.006 seconds

include 	in.setup
variable	out_freq equal 1000
variable	out_freq2 equal 10000
variable	out_freq3 equal 1000

timestep	2.0

neigh_modify    delay 7 every 1

include		in.tip4p
# This is TIP4P/Ice

# create groups ###
group ox type 2
336 atoms in group ox
group hy type 1
672 atoms in group hy

# set charges - beside manually ###
set group ox charge -1.1794
Setting atom values ...
  336 settings made for charge
set group hy charge 0.5897
Setting atom values ...
  672 settings made for charge

# ### TIP3P Potential Parameters ###
pair_style lj/cut/tip4p/long/omp 2 1 1 1 0.1577 8.5
pair_coeff 1 1*2 0.000 0.000
pair_coeff 2 2 0.21084 3.1668
bond_style  harmonic
bond_coeff  1 450 0.9572
angle_style harmonic
angle_coeff 1 55 104.52
kspace_style pppm/tip4p/omp 1.0e-5
pair_modify tail yes

thermo          ${out_freq}
thermo          1000
thermo_style    custom step temp pe etotal epair emol press lx ly lz vol pxx pyy pzz pxy pxz pyz enthalpy

restart 	${out_freq3} restart.lmp.${pid} restart2.lmp.${pid}
restart 	1000 restart.lmp.${pid} restart2.lmp.${pid}
restart 	1000 restart.lmp.1 restart2.lmp.${pid}
restart 	1000 restart.lmp.1 restart2.lmp.1


include         in.dump
dump            myDump all atom ${out_freq2} dump.water.${pid}
dump            myDump all atom 10000 dump.water.${pid}
dump            myDump all atom 10000 dump.water.1
dump            myDump2 all dcd ${out_freq2} dump.dcd
dump            myDump2 all dcd 10000 dump.dcd
dump_modify     myDump append yes
dump_modify     myDump2 append yes


variable natoms 	equal  "count(all)"                        # NUMBER ATOMS
variable H      	equal  "enthalpy/v_natoms"                 # ENTHALPY-per-atom
variable Vol      	equal  "vol/v_natoms"                 # volume-per-atom
fix AVG all 		ave/time ${out_freq} 1 ${out_freq} v_Vol v_H file vol_enthalpy.dat
fix AVG all 		ave/time 1000 1 ${out_freq} v_Vol v_H file vol_enthalpy.dat
fix AVG all 		ave/time 1000 1 1000 v_Vol v_H file vol_enthalpy.dat



fix 		1 all shake 1e-6 200 0 b 1 a 1
Finding SHAKE clusters ...
       0 = # of size 2 clusters
       0 = # of size 3 clusters
       0 = # of size 4 clusters
     336 = # of frozen angles
  find clusters CPU = 0.000 seconds
fix             2 all nph tri ${pressure} ${pressure} ${pressureDamp}
fix             2 all nph tri 9608.3 ${pressure} ${pressureDamp}
fix             2 all nph tri 9608.3 9608.3 ${pressureDamp}
fix             2 all nph tri 9608.3 9608.3 1000
fix             3 all temp/csvr ${temperature} ${temperature} ${tempDamp} ${seed}
fix             3 all temp/csvr 6.51 ${temperature} ${tempDamp} ${seed}
fix             3 all temp/csvr 6.51 6.51 ${tempDamp} ${seed}
fix             3 all temp/csvr 6.51 6.51 100 ${seed}
fix             3 all temp/csvr 6.51 6.51 100 745823


run             250000
PPPM initialization ...
  extracting TIP4P info from pair style
  using 12-bit tables for long-range coulomb (../kspace.cpp:340)
  G vector (1/distance) = 0.38047527
  grid = 24 27 32
  stencil order = 5
  estimated absolute RMS force accuracy = 0.0023426168
  estimated relative force accuracy = 7.0547208e-06
  using double precision FFTW3
  3d grid and FFT values/proc = 5355 672
Last active /omp style is kspace_style pppm/tip4p/omp
Neighbor list info ...
  update every 1 steps, delay 7 steps, check yes
  max neighbors/atom: 2000, page size: 100000
  master list distance cutoff = 10.8154
  ghost atom cutoff = 10.8154
  binsize = 5.4077, bins = 5 5 4
  1 neighbor lists, perpetual/occasional/extra = 1 0 0
  (1) pair lj/cut/tip4p/long/omp, perpetual
      attributes: half, newton on, omp
      pair build: half/bin/newton/tri/omp
      stencil: half/bin/3d/tri
      bin: standard
Setting up Verlet run ...
  Unit style    : real
  Current step  : 10000000
  Time step     : 2
Per MPI rank memory allocation (min/avg/max) = 10.31 | 10.33 | 10.33 Mbytes
Step Temp PotEng TotEng E_pair E_mol Press Lx Ly Lz Volume Pxx Pyy Pzz Pxy Pxz Pyz Enthalpy 
10000000    15.129446   -5347.8472   -5317.5865   -5347.8472            0    9137.2153    17.692824     22.63789    18.955296    7592.1308    9053.0676    8923.6896    9434.8886    185.28073   -271.65375   -45.595894   -4305.8825 
10001000    6.5129989   -5360.6278    -5347.601   -5360.6278            0    9780.1576    17.671599    22.608948    18.939613    7567.0624    9735.0566    9786.1339    9819.2824   -256.98031     64.39582    152.46892   -4268.2839 
10002000    6.3126016   -5362.8643   -5350.2384   -5362.8643            0    9317.1459    17.706605    22.529353    19.021259    7587.9293    9287.5694    9528.2807    9135.5876    219.53411    175.23577    251.28401   -4319.1828 
10003000    6.3576545   -5361.1983   -5348.4822   -5361.1983            0    9805.3105    17.705589    22.550641    18.964716    7572.0874    9374.0422    9966.2919    10075.598    -151.8206    65.625075   -104.63489   -4265.6707 
10004000    6.3956065    -5362.877    -5350.085    -5362.877            0    9547.1795    17.676617    22.603652    18.962198    7576.4616    9344.7062    9519.9036    9776.9287   -101.64053    44.122272    164.28156   -4295.1701 
10005000    6.3450543   -5359.0494   -5346.3585   -5359.0494            0    10072.929     17.67202    22.583762    18.953746    7564.4534    10000.993    10188.749    10029.047     -277.828   -48.152075   -242.71452   -4235.1149 
10006000    6.8176669    -5361.813   -5348.1768    -5361.813            0    9662.5885    17.693003     22.56381    18.978902    7576.7868    9477.2841    9822.3604     9688.121   -11.649639   -195.83226   -55.474429   -4280.4641 
10007000    6.3847033   -5362.2421   -5349.4719   -5362.2421            0    9543.5855    17.702814     22.61844    18.930846    7580.1009    9403.5047       9387.9    9839.3519    217.98652    154.85523    244.75114   -4294.4476 
10008000    6.7508466   -5362.1675    -5348.665   -5362.1675            0    9580.7018    17.685888    22.583915    18.956048    7571.3601    9555.4768      9562.55    9624.0787   -219.95311   -34.885361   -336.53726   -4290.7589 
10009000     6.961498    -5361.681   -5347.7572    -5361.681            0    9548.0167    17.701093    22.588445    18.948942    7576.5481    8900.8633    9675.5973    10067.589   -233.99815   -210.00392   -216.55207   -4292.7378 
10010000    6.7258413   -5361.2978   -5347.8453   -5361.2978            0    9717.5499    17.683668    22.626136    18.921878    7570.8912    9519.4684    9600.1635    10033.018    16.676946   -183.95116   -170.49693   -4274.8948 
10011000    6.2717181   -5361.2528   -5348.7086   -5361.2528            0    9659.2358    17.712729    22.527118    18.989457    7577.1113    9685.7996    9902.9158     9388.992   -20.349809    93.525852    146.56812   -4281.3205 
10012000     6.606445   -5360.7322   -5347.5185   -5360.7322            0    9405.1891    17.688214     22.56475    18.977267    7574.3987    9070.9889    9697.3093    9447.2692    354.74148    196.12857    11.045911   -4308.5758 
10013000     6.609588   -5360.8979   -5347.6779   -5360.8979            0    9481.9691    17.666863    22.582025    18.986825    7574.8613    9710.5882    9462.1309    9273.1882   -370.75093    23.965624   -316.13119   -4300.1898 
10014000    6.6793624   -5361.8935    -5348.534   -5361.8935            0    9527.4556    17.675511     22.66301    18.910016    7574.9796    9524.9452    9358.4065     9699.015    52.028063   -105.62016    32.799135   -4296.0044 
10015000     6.340781   -5361.1794    -5348.497   -5361.1794            0    9784.7374    17.681762    22.567326     18.97293      7570.77    9876.9942    9748.2249    9728.9931    144.15317   -120.40218    135.78034   -4268.1454 
10016000    6.6824627    -5361.646   -5348.2802    -5361.646            0    9616.6669    17.682772    22.583781    18.963508    7572.9606    9534.8588    9634.6282    9680.5138   -67.300977   -165.81718   -96.225141   -4286.1784 
10017000    6.6305379   -5362.1036   -5348.8417   -5362.1036            0    9559.5045    17.674882    22.560518    18.993643    7573.8006    9751.4373    9634.8649    9292.2113    301.37914    230.70284   -20.281262    -4292.936 
10018000    6.6465352   -5362.5054   -5349.2115   -5362.5054            0    9401.4719    17.685987    22.550388    19.002533    7578.7019    9549.4088    9507.2485    9147.7585   -320.36171   -74.344146    16.300736   -4310.0895 
10019000    6.4972728   -5361.0814    -5348.086   -5361.0814            0    9573.2736    17.673248    22.559555    18.993474    7572.7097    9724.4114    9669.0855    9326.3238    119.95549   -181.15587     85.87687   -4290.8117 
10020000    6.7288905   -5361.4771   -5348.0185   -5361.4771            0    9808.9399     17.65879    22.572635    18.984916    7567.4904    9736.1193    9842.0607    9848.6396   -246.21938   -94.871535   -131.92171   -4265.4638 
10021000    6.7444324    -5361.243   -5347.7533    -5361.243            0    9779.5588    17.676629    22.597898    18.945885    7568.0219    9867.9187     9574.704    9896.0539   -4.3459951   -228.12093   -212.29833   -4268.3654 
10022000    6.4787489   -5361.5458   -5348.5875   -5361.5458            0    9520.0779    17.665939    22.614866    18.958493    7574.1616    9623.4853    9300.7319    9636.0166    143.35066   -37.182922    103.12038   -4296.9866 
10023000    6.4996512    -5362.159   -5349.1589    -5362.159            0    9607.4445    17.693166    22.564223    18.972317    7574.3665    9462.7144     9725.635    9633.9841   -12.328698   -215.10443    124.53332   -4287.8786 
10024000    6.8688135   -5361.4809   -5347.7424   -5361.4809            0    9456.8165    17.694042    22.574166    18.970208    7577.2365    9450.6712    9396.7435    9523.0348    356.27718   -12.023613    18.124789   -4302.7053 
10025000    6.8820579   -5361.4971   -5347.7322   -5361.4971            0    9540.0953    17.674015     22.53879    19.020751    7576.9336    9540.7008    9777.9411    9301.6442    -50.32318    115.96133   -213.66725   -4293.5344 
10026000    6.9723684   -5362.1154   -5348.1698   -5362.1154            0    9628.7484    17.727821    22.534156    18.963612    7575.6118    9582.7746    9575.2899    9728.1807     190.5471   -102.82411    192.42809   -4284.3613 
10027000    6.8541284   -5360.3741    -5346.665   -5360.3741            0    9729.1819    17.690525    22.564344    18.963678    7569.8282    9549.7637    9786.2961    9851.4857    351.94572   -131.57464    155.17748   -4272.5811 
10028000    6.3288213   -5361.4535   -5348.7951   -5361.4535            0    9708.1301    17.678236    22.605785    18.955643     7575.251    9599.6261    9849.4489    9675.3154    218.94392    264.83185    197.56161   -4276.2674 
10029000    6.6752077   -5361.4819   -5348.1306   -5361.4819            0    9628.0102    17.683655    22.553602    18.990841    7574.1195    9470.3177    9779.0558    9634.6569    147.34733   -303.69141   -53.769823   -4284.6133 
10030000    6.8141287   -5361.1822   -5347.5531   -5361.1822            0    9870.4701    17.660911     22.58609    18.980283    7571.0626    10327.106     9520.786    9763.5184   -96.744928   -375.97782   -241.26318   -4257.6935 
10031000    6.7752802   -5361.0212   -5347.4698   -5361.0212            0    9652.5767    17.599307    22.708803    18.946375    7572.0929    10044.428     9340.812    9572.4899   -168.34116    159.49574   -80.517011   -4281.5241 
10032000    6.6822547   -5360.3552   -5346.9899   -5360.3552            0     9909.472    17.680765    22.542811    18.989078    7568.5554    10147.463    9930.6947    9650.2582   -266.99274    77.799728   -263.38401   -4253.1861 
10033000    6.6751631    -5362.946   -5349.5949    -5362.946            0    9272.0749    17.692488      22.5365    19.008065     7579.024    9482.3138    9363.0103    8970.9005    67.831578   -69.184466    113.60407   -4324.7312 
10034000    6.3284621   -5361.9184   -5349.2607   -5361.9184            0    9723.8956      17.6615    22.609028    18.967467    7573.8868     10076.32    9557.0772    9538.2894   -149.17204   -158.97745   -89.582325   -4275.1847 
10035000    6.4492721   -5363.0623   -5350.1629   -5363.0623            0    9557.8026    17.716695    22.557684    18.965496    7579.5154    9581.4827    9415.2962    9676.6288    13.221466   -233.10307   -226.96874   -4293.6486 
10036000    6.3546532     -5362.09     -5349.38     -5362.09            0    9542.9307    17.689435    22.558806    18.982622    7575.0634    9554.5465    9751.9734    9322.2723    125.81721    115.37685    8.8871339   -4295.1292 
10037000    6.6810733   -5362.4507   -5349.0877   -5362.4507            0    9563.1271    17.696493    22.533344    18.997161    7575.3299    9745.5123    9553.5202     9390.349   -301.57264   -58.861816   -413.10618   -4292.5686 
10038000    6.5597212    -5361.917   -5348.7967    -5361.917            0    9715.5191    17.670691     22.61377     18.95225     7573.337    10014.363    9468.2125     9663.982    75.701227   -124.67893    47.765106   -4275.7239 
10039000    6.3151185    -5361.287    -5348.656    -5361.287            0    9485.8326    17.655163    22.599906     18.98599    7575.5049    9774.2587    9409.0242    9274.2148   -381.76554   -139.03924   -643.33376    -4300.652 
10040000    6.8388312    -5361.562   -5347.8834    -5361.562            0     9753.738    17.689082    22.556884    18.986286     7575.729    9747.4279    9831.6321    9682.1539    398.83901    132.67924   -194.87423   -4270.2491 
10041000    6.4683484    -5361.441   -5348.5035    -5361.441            0    9611.9812    17.690582    22.545899    18.980175     7570.244    9360.1881    9885.1603    9590.5952   -59.532412    70.560514    38.715464      -4287.3 
10042000    6.7478742   -5361.7583   -5348.2617   -5361.7583            0    9637.9221    17.700545    22.581443    18.946119    7572.8367    9562.3451     9713.657    9637.7641    264.70849    96.521219    -77.88079   -4283.8297 
10043000    6.9120796   -5361.4122   -5347.5872   -5361.4122            0    9636.8671    17.644233    22.655547     18.93821    7570.3556    9915.9275    9398.6884    9595.9853    496.03233   -236.12874     155.3446   -4283.6205 
10044000    6.4964188   -5363.6902   -5350.6965   -5363.6902            0    9335.8136    17.712652    22.556499    18.986514     7585.785    9162.4555    9471.4693     9373.516    130.59631    6.9122801   -192.85859   -4317.8671 
10045000    6.0906831   -5361.9862   -5349.8041   -5361.9862            0     9595.911    17.691278    22.597444    18.942259    7572.6918    9500.4055    9611.6416    9675.6859    119.64081    67.852285    65.852796   -4290.0323 
10046000    6.3443567   -5361.0517   -5348.3622   -5361.0517            0    9798.3697    17.714483    22.573915    18.925935    7568.2015    9487.3702    9831.3964    10076.342   -102.29492    196.87435   -62.507189   -4266.8725 
10047000    6.5463213   -5361.1856   -5348.0922   -5361.1856            0    9572.4909    17.691292    22.618087    18.933918     7576.278    9690.4125    9272.5849    9754.4753    427.59331   -6.2023617    295.56403   -4290.4062 
10048000    6.4996009   -5362.0519   -5349.0519   -5362.0519            0    9511.0491    17.689998    22.613916    18.940622    7577.0087    9542.4951    9266.1503    9724.5019   -42.949448   -124.29745    320.57986   -4298.0534 
10049000    6.6353298   -5360.6184    -5347.347   -5360.6184            0    9671.1903    17.674694    22.572093    18.982721    7573.2484    9563.4192    9955.1213    9495.0304    44.799329    61.589076   -53.997189   -4279.1828 
10050000    6.1738564   -5360.9361   -5348.5876   -5360.9361            0    9608.9845    17.684893    22.579348     18.96228     7571.892    9355.1164    9749.9576    9721.8796    125.89082   -31.245798   -41.194612    -4287.484 
10051000    6.8810913   -5362.8034   -5349.0403   -5362.8034            0    9216.2222    17.685551    22.550134    19.018178    7584.6693    9438.2958     9208.411    9001.9596    -167.2225   -20.830725   -3.0052567   -4329.5914 
10052000    6.6061462   -5362.6411    -5349.428   -5362.6411            0    9691.7238    17.696797    22.589548     18.96016    7579.5635    9761.5712    9510.1421     9803.458   -138.18099    71.038292    157.00039   -4278.1033 
10053000    6.2068864   -5361.3657   -5348.9511   -5361.3657            0    9654.8054    17.645967    22.623783    18.964443    7570.9572      9710.42    9602.5756    9651.4207    214.23464   -10.238218    437.63907   -4282.9192 
10054000    6.7516241   -5361.0363   -5347.5322   -5361.0363            0    9636.2778    17.701833    22.547435    18.976685    7574.1819     9716.588    9712.0296    9480.2157    -86.68297    172.61126    215.12193   -4283.0928 
10055000    6.8349725   -5360.0012   -5346.3304   -5360.0012            0    9761.4599    17.705747    22.575364    18.938424    7569.9475    9490.0345    9737.5715    10056.774    -33.76618    143.39292    133.83023    -4268.666 
10056000     6.912688   -5360.4867   -5346.6605   -5360.4867            0    9734.6337    17.695092      22.6405    18.901812    7572.5523    9449.7167    9771.0158    9983.1687    238.98258    244.00032   -171.35012   -4271.5879 
10057000    6.3933217   -5363.2855   -5350.4981   -5363.2855            0    9035.8934    17.679188    22.645221    18.947277    7585.5261    8988.6275    8973.6301    9145.4226   -167.62315     281.2951   -151.69791   -4350.8833 
10058000    6.6302153   -5361.1982   -5347.9369   -5361.1982            0      9651.38    17.697282    22.585105    18.938192    7569.4999    9301.1518     9820.672    9832.3162    -401.4365    90.106346    101.60154   -4282.4883 
10059000    6.3280526   -5360.6657   -5348.0089   -5360.6657            0    9708.6671    17.681515    22.519144    19.022738    7574.3329    9960.0211    9718.6354    9447.3448   -200.36353    74.065467   -105.42643   -4275.5519 
10060000    6.8570145   -5360.9595   -5347.2446   -5360.9595            0    9651.1369    17.657902    22.600246    18.964801    7568.3387    9689.8915    9646.5516    9616.9677    219.24243    90.007448    463.91543   -4281.9863 
10061000    6.5028058   -5360.0356   -5347.0292   -5360.0356            0    9710.4825    17.671604    22.563782    18.976581    7566.6883    9762.8301    9806.8691    9561.7484    221.31707    4.1567341    139.38708   -4275.4542 
10062000    6.7842744   -5362.5676   -5348.9982   -5362.5676            0    9426.5107     17.67241    22.639728    18.948637    7581.3224    9159.9809     9512.631    9606.9204    455.14428    220.33516   -48.051507   -4306.7484 
10063000    6.7452352   -5360.8707   -5347.3794   -5360.8707            0    9646.5796    17.679443    22.622994    18.925392    7569.4365    9074.7718    9751.8963    10113.071    124.38955    165.23078   -168.81268   -4282.4697 
10064000     6.624164   -5363.2888   -5350.0397   -5363.2888            0     9365.101    17.702663    22.528306    18.999604     7577.251    9072.3548    9641.5639    9381.3843   -129.77279    7.9986806    52.179269   -4315.1358 
10065000    6.4146876   -5362.4766   -5349.6464   -5362.4766            0    9661.2414    17.693414    22.563747    18.972114    7574.2318    9829.4919    9651.8609    9502.3714   0.55933186    133.56284   -91.670434   -4282.4425 
10066000    6.4651991   -5359.6559   -5346.7247   -5359.6559            0     9847.318    17.697665    22.545489    18.971857    7569.8186    10089.702    9719.7778    9732.4744    78.847234   -32.254241   -368.25221   -4259.6001 
10067000    6.3321629   -5362.0659   -5349.4008   -5362.0659            0    9464.9951    17.671396    22.619135    18.959293    7578.2511    9704.6607    9326.1168     9364.208    -368.5368     79.50008   -287.50246   -4303.3198 
10068000    6.6438085   -5360.6622   -5347.3738   -5360.6622            0    9767.3567    17.690804      22.6046    18.925672     7568.254    9454.1094    9744.6568    10103.304    165.16239      105.008    67.456369   -4269.2996 
10069000    6.3456018   -5361.4311   -5348.7391   -5361.4311            0    9963.5552    17.639542    22.643109    18.942202    7565.7823    9953.2421    9734.4102    10203.013    58.192709    173.40367    182.52483   -4249.3687 
10070000    6.4537114   -5360.0234   -5347.1152   -5360.0234            0    9706.9288    17.721337    22.509374    18.982499    7572.0466    9640.1614    9695.3966    9785.2284   -114.34631   -174.37753   -179.52053   -4275.1739 
10071000    6.5668519   -5361.2533   -5348.1187   -5361.2533            0    9666.7821    17.658522    22.645223    18.941849    7574.4891    9870.1659     9312.396    9817.7844     56.41364   -27.047343   -323.10484   -4280.2665 
10072000    6.9060453    -5359.698   -5345.8851    -5359.698            0    9755.1752    17.698004    22.542892    18.985712    7574.6194    9600.3328    9954.0343    9711.1586    116.89472     442.8913   -175.35545   -4268.2498 
10073000    6.3134117   -5362.3298   -5349.7022   -5362.3298            0     9491.639    17.683353    22.587978    18.962794    7574.3314    9705.3443    9518.2523    9251.3203    51.595724    254.37733    495.88541   -4301.2192 
10074000    6.0201927   -5361.9864   -5349.9452   -5361.9864            0     9468.807     17.68405    22.592988    18.966085    7577.6249    9478.6472    9335.0356    9592.7383    18.959976   -115.25081    153.01439   -4303.5295 
10075000    6.2032813   -5361.8082   -5349.4008   -5361.8082            0    9730.7461    17.686281    22.569813    18.976019    7574.7724    9907.7741    9673.2694    9611.1949   -94.812398    146.69208   -503.66302   -4274.4425 
10076000    6.5933887   -5361.9192   -5348.7316   -5361.9192            0    9404.8493    17.684476    22.588423    18.974176    7579.5083    9462.1933    9385.7949    9366.5596  -0.08665085     247.6982      157.441   -4309.1257 
10077000    5.8887469   -5362.3601   -5350.5819   -5362.3601            0    9562.3163    17.720762    22.549705    18.951274    7572.8901     9573.241    9605.2812    9508.4267   -113.54888     144.5738   -50.979659   -4294.4925 
10078000     6.995841   -5362.3012   -5348.3086   -5362.3012            0    9461.7047    17.660255    22.606137    18.982737     7578.481    9477.5489    9367.9288    9539.6364    29.888787   -93.854111   -4.7866868   -4302.5596 
10079000    6.3525768   -5362.6859     -5349.98   -5362.6859            0    9496.0164    17.689581    22.604366    18.947718    7576.4678    9657.9869    9143.3397    9686.7228   -204.47666    29.359087   -52.581615   -4300.7175 
10080000    6.9506653   -5362.6378   -5348.7356   -5362.6378            0    9319.1737    17.676669    22.583908    18.982391    7577.9273    9572.0204    9244.4728    9141.0279   -80.305011   -133.52588   -166.16018    -4318.815 
10081000    6.5691587   -5362.2025   -5349.0633   -5362.2025            0    9597.5574    17.681051    22.554663    19.005566    7579.2323    9543.1113    9902.1764    9347.3844   -47.282667    537.20811    338.06137   -4288.1942 
10082000    6.2612598    -5361.905   -5349.3817    -5361.905            0    9429.4216    17.664241    22.599899    18.979137     7576.662    9538.4763    9415.2006    9334.5879    260.43639    23.914984    86.269644   -4307.4509 
10083000     6.518944   -5361.2991   -5348.2604   -5361.2991            0    9618.8658    17.708589    22.588172    18.937446    7575.0666    9462.6425    9420.6338    9973.3212   -104.66461    -31.97847   -100.53713   -4285.6203 
10084000    6.4850243   -5361.3157   -5348.3448   -5361.3157            0    9631.5965    17.688935     22.56253    18.984638    7576.9044    9417.4732    9671.7314     9805.585    162.38918    30.235538   -125.80731   -4284.0401 
10085000    6.3446232   -5361.7147   -5349.0247   -5361.7147            0    9659.4551    17.723048    22.529971    18.966325    7573.2487    9745.9756    9699.8454    9532.5443   -284.85068    229.89555    51.220912   -4282.1565 
10086000    6.2455886    -5361.097    -5348.605    -5361.097            0    9548.4734    17.697217    22.584458    18.953063    7575.1991    9271.6767    9569.4969    9804.2466    106.40196    99.552836    143.30822    -4293.723 
10087000    6.3979187   -5360.7306    -5347.934   -5360.7306            0    9797.0237    17.696383    22.625932    18.906142    7569.9656    9555.4541    9789.8547    10045.762    -51.58999    128.06283    110.73368   -4266.3407 
10088000    6.4859692   -5363.6255   -5350.6528   -5363.6255            0     9344.218     17.68014    22.649251    18.935275    7582.4778    9175.3685    9147.7049    9709.5805   -257.52262   -76.685606   -139.71468   -4317.3443 
10089000    6.2388241    -5362.301   -5349.8226    -5362.301            0    9767.9357    17.676913    22.611356     18.94085    7570.6384    9885.3676    9643.5714    9774.8682   -121.14514    32.164271   -488.14766   -4271.3449 
10090000    6.4681224   -5362.0621   -5349.1251   -5362.0621            0    9522.9799    17.724246    22.498778    19.003106    7577.9422    9170.3501    9741.5437    9657.0459    286.54586    68.741956    190.40144   -4296.6785 
10091000    6.5049819   -5361.6855   -5348.6747   -5361.6855            0    9605.0923    17.703359    22.560979    18.963489    7574.1148    9447.1057    9524.6772    9843.4939    124.74984     108.7722   -41.797558   -4287.6895 
10092000     6.428998   -5361.0094   -5348.1506   -5361.0094            0    9663.9414    17.685383    22.623864    18.921184    7570.5871    9671.2313    9526.6856    9793.9073   -196.68673    11.618265    235.90604   -4281.1621 
10093000    6.5475439   -5361.9982   -5348.9023   -5361.9982            0    9281.9641    17.664808    22.679046    18.923126    7581.0016    9505.2132    9205.6897    9134.9893    145.84125    205.68251    247.40465   -4322.6779 
10094000    6.4998822   -5361.3974   -5348.3969   -5361.3974            0    9697.9162     17.72039     22.54822    18.957129    7574.5724    9233.0937    10029.472    9831.1829    19.857843    104.98898   -298.26565   -4277.0936 
10095000    6.1551422   -5362.1749   -5349.8639   -5362.1749            0    9639.4198    17.672465    22.590872    18.964261    7571.2231    9922.7196    9621.5481    9373.9918   -108.44831    146.95248    152.81721   -4285.4933 
10096000    6.9183836   -5361.2358   -5347.3982   -5361.2358            0    9763.5173    17.672036    22.569239    18.973809    7567.5977    9554.5198    9898.1398    9837.8922    204.34734    26.246963   -117.18809   -4269.8412 
10097000    6.4842723   -5359.8553    -5346.886   -5359.8553            0     10040.56    17.649081    22.643136    18.925461    7563.1924    9874.2369    9978.1445    10269.298   -163.88934    228.14914     97.10739   -4239.3981 
10098000    6.3895026   -5361.1935   -5348.4137   -5361.1935            0    9600.9596    17.677019    22.579543    18.970325    7571.7969     9669.642    9505.8786    9627.3581   -137.62055   -243.35118    175.93715   -4288.2096 
10099000    6.5614147    -5362.711   -5349.5874    -5362.711            0    9759.9011    17.656672    22.588737    18.993584    7575.4376     10005.33    9891.9972    9382.3756    252.82533    174.20467    87.468215   -4271.3136 
10100000     6.282505   -5361.2743   -5348.7085   -5361.2743            0    9647.4636    17.672205     22.53135     19.01969    7573.2343    9917.4178     9693.073       9331.9    14.059543    349.65396   -323.12502   -4283.1668 
10101000    6.0578328   -5361.9708   -5349.8544   -5361.9708            0    9459.1915    17.669804    22.635676    18.936766    7574.0996    9734.1904    9273.8452    9369.5389   -158.03508   -98.216134    150.38058   -4304.9876 
10102000    6.2593523   -5362.2644   -5349.7449   -5362.2644            0    9611.8328    17.685215     22.57678    18.976837    7576.9805     9523.538    9671.3157    9640.6447   -275.22789    218.84615    193.30434   -4287.6135 
10103000    6.8151291   -5360.5786   -5346.9475   -5360.5786            0    9787.2097    17.683361    22.560748    18.970841    7568.4143     10016.33    9692.2296    9653.0695    278.29094   -60.754103    201.30808   -4266.6591 
10104000    6.3372303   -5360.4998   -5347.8246   -5360.4998            0    9750.4876    17.664356    22.609716    18.956559    7570.9855    9785.8371    9619.1071    9846.5185    208.51778   -244.76041   -10.293292   -4271.2239 
10105000    6.9200612   -5360.6143   -5346.7733   -5360.6143            0    9642.8929    17.717956    22.504575    18.987636    7571.0365     9715.795    9750.8303    9462.0533   -462.65629    270.23821   -243.33812   -4282.0456 
10106000    6.2861717   -5360.4087   -5347.8356   -5360.4087            0    9686.3058    17.624235    22.691123    18.923859    7567.9102    9543.1969    9596.9354    9918.7851    -93.86893     155.6007    139.20171    -4278.756 
10107000    6.4799725   -5361.4379   -5348.4771   -5361.4379            0    9630.7273    17.720162    22.576485    18.930105    7573.1583    9404.6982    9555.9495    9931.5342    38.042122    279.25158   -107.16619   -4284.7946 
10108000    6.5737818   -5361.2474    -5348.099   -5361.2474            0    9364.2128    17.663751    22.581933     18.98848    7574.1562     9505.561     9437.119    9149.9586    27.799137    93.184599    14.070601   -4313.7159 
10109000    6.6089719   -5362.4214   -5349.2026   -5362.4214            0    9669.0652    17.714515    22.537325    18.974553    7575.3586    9543.1326    9695.8774    9768.1857    114.47264    284.02588   -161.65437   -4280.9756 
10110000      6.62468   -5361.5716   -5348.3214   -5361.5716            0    9572.4462    17.695234    22.633369    18.926169    7579.9826    9410.8623    9309.3425    9997.1337    149.90019     169.5297    235.95084   -4290.1232 
10111000    6.8852872   -5361.3989   -5347.6275   -5361.3989            0    9604.7745    17.663194     22.64001    18.944275    7575.7188    9618.0822    9276.2437    9919.9975    72.929273    -174.9075    308.88624   -4286.4527 
10112000    6.5144964   -5362.1531   -5349.1233   -5362.1531            0      9643.81    17.671577    22.590989    18.978145    7576.4247    10144.259    9401.0436    9386.1278    19.618868    78.148364   -255.30393   -4283.5365 
10113000    6.4094872   -5361.1601   -5348.3404   -5361.1601            0    9564.2352    17.680508    22.636621     18.92326    7573.5987     9610.087    9463.7257     9618.893    41.450496     60.85274    241.53994   -4291.9403 
10114000    6.6559622   -5362.1904   -5348.8776   -5362.1904            0      9560.14    17.677046    22.595705    18.974112    7578.7409    9675.3116    9438.2747    9566.8336     282.0148    110.33897    239.22523   -4292.2129 
10115000    6.3502836   -5361.1746   -5348.4732   -5361.1746            0    9340.3245    17.647476    22.653456    18.948703    7575.2428    9545.9296    9086.0957    9388.9484   -413.13965   -49.769452   -229.73808   -4316.5808 
10116000    6.2202797   -5361.3798   -5348.9385   -5361.3798            0    9787.2291    17.672916    22.589939    18.966895    7572.1556    9980.1053    9718.8201     9662.762   -116.20705   -9.1628035    -155.0498    -4268.114 
10117000    6.4232197   -5362.5854   -5349.7382   -5362.5854            0    9452.1752    17.694063    22.604398     18.93729    7574.2276    9407.6435    9351.7649    9597.1171   -445.18197    165.52813    143.60491   -4305.6288 
10118000    6.3329381    -5361.223   -5348.5563    -5361.223            0    9667.3252    17.673309    22.632569    18.924084    7569.4892    9555.0508     9712.811    9734.1137   -103.54088    96.292132    472.16453    -4281.349 
10119000     6.444706   -5362.4338   -5349.5436   -5362.4338            0    9535.4784    17.631139    22.705633    18.921185    7574.6454    9743.1482      9118.77    9744.5169    -38.82863    -124.4428    48.973166   -4296.1742 
10120000    6.6586076    -5361.618      -5348.3    -5361.618            0    9723.0382    17.653282    22.622021    18.959101    7571.3722    9731.9541    9580.4725    9856.6881   -563.27713    63.531556   -366.30428   -4274.6753 
10121000    6.3473168   -5361.9845   -5349.2891   -5361.9845            0    9636.6518    17.647974     22.60352    18.981875    7571.9903    9923.8737    9700.2696    9285.8121   -206.84644     152.6255   -219.38163   -4285.1164 
10122000    6.7524729   -5361.4667   -5347.9609   -5361.4667            0    9685.7093    17.697141    22.512551    19.008233    7573.0282    9626.6603    9923.3349    9507.1328    381.74497    130.34378    102.82779   -4278.2242 
10123000    6.4762635   -5359.9637   -5347.0104   -5359.9637            0    10089.524    17.654004    22.612751    18.949324    7564.6759     9873.502    9996.6331    10398.437    60.688836   -106.76439    547.79622   -4233.9035 
10124000    6.8238764   -5361.3337   -5347.6851   -5361.3337            0    9788.8586    17.661137    22.669987    18.906807    7569.8646    9781.0931    9531.2697    10054.213    91.374116    160.91413   -55.185588   -4267.0077 
10125000    6.6772493   -5360.7905   -5347.4352   -5360.7905            0      9808.11    17.671716    22.573443    18.982442     7572.314    9752.4075    9779.9693    9891.9531   -259.27464    124.91963    282.30999   -4264.2821 
10126000    6.3013982   -5363.6001   -5350.9965   -5363.6001            0    9372.5237    17.725146    22.551259    18.966323    7581.3012    9250.9684    9470.9447     9395.658    -382.6681    54.098041    118.00125   -4314.7187 
10127000    6.3473631   -5361.2819   -5348.5864   -5361.2819            0    9679.2526    17.676332    22.560451    18.992552    7573.9643    9637.3526    9981.4031    9419.0021    257.68143    363.94578     48.83995   -4279.4307 
10128000     6.236343   -5361.0216   -5348.5482   -5361.0216            0    9605.4382    17.657209     22.62669    18.955049    7573.0008    10012.829    9348.0018    9455.4835   -34.578112   -21.855631   -39.995906   -4287.6808 
10129000    6.7112413   -5360.4007   -5346.9774   -5360.4007            0    9719.3974    17.636396    22.579622    19.008034    7569.4393    10038.093     9432.645     9687.454   -75.617603   -171.30974   -105.95678   -4274.0287 
10130000    6.1934974    -5361.308   -5348.9202    -5361.308            0     9831.972    17.682614    22.583205    18.960902    7571.6588    9863.8469    9766.7143    9865.3548   -69.609444    65.364761    11.546768   -4263.2259 
10131000    6.2527366   -5361.9625   -5349.4562   -5361.9625            0    9558.2884     17.69471    22.558279    18.980202    7576.1793    9344.9404    9687.1281    9642.7967    492.97372    80.849393    77.608756   -4293.3533 
10132000    6.9529068   -5361.3515   -5347.4448   -5361.3515            0    9563.1437    17.626819    22.656845    18.958366    7571.3668    9341.1678    9806.8905    9541.3727   -35.146274    185.97989    248.82593   -4291.4766 
10133000    6.6813798   -5362.1402   -5348.7766   -5362.1402            0    9520.6067     17.67089    22.653745    18.927442    7576.8786    9609.1207    9360.3205    9592.3788   -172.69347     260.4337   -171.82194     -4296.74 
10134000    6.2398798   -5360.4699   -5347.9893   -5360.4699            0    9779.1776    17.608985    22.714361     18.92429    7569.2779     10139.51    9393.0006    9805.0221    87.935061    36.357675   -317.69136   -4268.4644 
10135000    6.3514559   -5361.0037      -5348.3   -5361.0037            0    9509.2005    17.696302    22.542644    18.977712    7570.6163    9359.7446     9716.618    9451.2388   -161.07151    91.932118   -192.77358   -4298.3922 
10136000    6.8871943   -5361.3791   -5347.6038   -5361.3791            0    9564.6555    17.740842     22.51158    18.971387    7576.6857    9470.5642    9649.0044    9574.3979   -77.394665   -234.02279    85.156868   -4290.7267 
10137000    6.2228768   -5360.8658   -5348.4192   -5360.8658            0    9615.3939    17.698191    22.530515    18.993787    7573.7604    9772.4242    9571.6968    9502.0608    67.356382   -9.6350567    79.705388   -4286.3458 
10138000    6.4402681   -5360.8653    -5347.984   -5360.8653            0    9468.8297    17.681745    22.623234    18.936911    7575.1099    9574.9769    9293.7648    9537.7475    -444.5545    123.29501    126.85979    -4301.913 
10139000    6.3580705   -5362.4767   -5349.7598   -5362.4767            0    9579.4314    17.658117    22.638033    18.945056    7573.1922    9500.0871    9535.8617    9702.3453    124.20821   -1.3041424    283.13416    -4291.738 
10140000    6.5619356   -5361.3868   -5348.2621   -5361.3868            0     9641.375    17.684788    22.555649    18.994595    7576.7893     9472.863     9956.439    9494.8229   -283.73569    75.644086    174.12281   -4282.8931 
10141000    6.4940036   -5362.0617   -5349.0729   -5362.0617            0    9553.0756    17.688919    22.605389    18.936901    7572.2019    9266.4992    9593.9675    9798.7602   -207.70199   -22.483468    34.756477   -4294.1001 
10142000    6.6322571   -5361.4244   -5348.1591   -5361.4244            0    9508.6982    17.653154    22.679265    18.916988     7573.616    9281.3968    9423.8669    9820.8309     72.99724    166.62413   -165.02963   -4297.8908 
10143000    6.6684985   -5361.3953   -5348.0575   -5361.3953            0     9797.254    17.656368    22.612564    18.957995    7569.0885    9927.9049    9688.9482     9774.909   -149.15608    4.0606782   -324.30669   -4266.5642 
10144000     6.449786   -5360.5746   -5347.6742   -5360.5746            0    9696.9092    17.705974    22.535745    18.972438    7570.3311    9801.5018    9834.8526     9454.373   -44.662607    203.59384    114.57168   -4277.0819 
10145000    6.5064519   -5360.5452   -5347.5315   -5360.5452            0    9638.8855    17.691453    22.580658     18.94409    7567.8732    9787.9117    9600.2498    9528.4952   -165.44544   -27.678179     305.2831   -4283.6909 
10146000    6.6443228   -5361.8249   -5348.5354   -5361.8249            0    9824.6936    17.736988     22.56218    18.921131    7571.9549    9528.8152    9737.3898    10207.876   -88.445628    217.58085     64.19139   -4263.6024 
10147000    6.2763064   -5361.9847   -5349.4313   -5361.9847            0    9500.4531    17.685584    22.583741    18.965179    7574.8187    9508.8572    9459.7831    9532.7189    85.284097     89.94171    41.538404   -4299.9072 
10148000    6.5223478   -5361.6526   -5348.6071   -5361.6526            0    9746.0654    17.654145    22.594849    18.983077    7572.2116    9956.6622    9872.0451    9409.4889   -252.41971    247.31856   -198.17374   -4272.3205 
10149000    6.5608062   -5361.7518   -5348.6294   -5361.7518            0    9443.8131    17.662917    22.594097    18.992547    7579.5012    9637.4614    9239.6816    9454.2964    10.478135   -43.317788   -57.725589   -4304.7174 
10150000    6.4920856    -5361.423   -5348.4381    -5361.423            0    9751.7626    17.653959    22.588494     18.98086     7569.118    9990.8592    9650.5912    9613.8373   -156.46405    212.53729   -442.31955   -4271.9622 
10151000     6.761705   -5360.1846   -5346.6603   -5360.1846            0    9822.8207    17.666726    22.622015    18.935363    7567.6488     9875.217    9679.2795    9913.9657   -103.62306    394.50073    96.751755    -4262.551 
10152000    6.4821285   -5361.2144   -5348.2493   -5361.2144            0    9534.1492    17.637055    22.644865    18.966225    7574.8968    9471.3538    9433.5761    9697.5176   -73.395247     305.6808    32.765444   -4294.9918 
10153000    6.4401618   -5361.9721    -5349.091   -5361.9721            0    9518.3726    17.692301    22.557071    18.994358    7580.3917    9338.2042    9619.7667    9597.1469    138.22378    267.01493    260.87316   -4296.8136 
10154000     6.504148   -5360.9594   -5347.9503   -5360.9594            0    9585.1169    17.668376    22.543705    19.012688    7572.9563    9805.4011    9787.9044    9162.0452   -60.059716   -5.1039422    29.607498   -4289.3336 
10155000    6.4247609   -5361.8374   -5348.9871   -5361.8374            0    9433.2835    17.667544    22.589351    18.986342    7577.4176    9507.1517    9392.3825    9400.3164   -202.89563   -197.69597   -6.5910757   -4306.5256 
10156000    6.1242738   -5363.3795   -5351.1302   -5363.3795            0    9358.8227    17.720421    22.604627     18.93956    7586.4965     9330.167    9275.0519    9471.2493   -379.73423    295.00896   -75.184603   -4315.6581 
10157000    6.6500707    -5361.042    -5347.741    -5361.042            0    9617.8866     17.67884    22.562183    18.980195    7570.6916    9638.2141    9691.5263    9523.9195    148.63034   -51.147801    -116.4845   -4285.8227 
10158000     6.125815   -5361.1472   -5348.8948   -5361.1472            0    9711.5192    17.709369    22.565802    18.951397    7573.4733    9553.4283    9793.0011    9788.1281   -130.09065   -51.650662    295.81438   -4276.2445 
10159000    6.5102352   -5361.6911   -5348.6698   -5361.6911            0    9709.3529    17.714336    22.597541    18.915055    7571.7047    9293.2261    9600.5791    10234.253    320.56441     105.4169    122.50297   -4276.5092 
10160000    6.8169282   -5362.2449   -5348.6102   -5362.2449            0     9529.732    17.699115    22.581602    18.955375    7575.9775    9485.9078    9449.4849    9653.8033    122.22515   -5.4772513    232.64554   -4295.6905 
10161000     6.423357   -5363.7668   -5350.9193   -5363.7668            0    9261.3316    17.714035     22.54107    18.995643    7584.8331    8971.4364    9309.3578    9503.2005    31.695886   -169.95606    477.32326   -4326.4585 
10162000    6.4525635   -5361.3466   -5348.4407   -5361.3466            0     9615.562     17.69281    22.499422    19.023883    7572.9892    9450.7388    9881.2748    9514.6725   -91.299925   -151.19785   -154.00243   -4286.4569 
10163000    6.7093177   -5362.5537   -5349.1342   -5362.5537            0    9497.9736    17.672008     22.64314    18.929898    7574.7939    9410.8272    9502.0787     9581.015    -27.35791    46.226185    159.57476   -4299.8874 
10164000     6.431146   -5361.3813   -5348.5183   -5361.3813            0    9633.5635     17.66626    22.618357     18.94936    7571.8188    9774.3225    9380.8669    9745.5012   -255.91256    34.325843   -20.113839   -4284.7107 
10165000    6.4089426   -5361.2412   -5348.4225   -5361.2412            0    9543.7841    17.655479     22.65871    18.935238    7575.0491    9489.0704    9410.4199    9731.8619   -124.42491    26.727479   -317.26929   -4294.0794 
10166000    6.8997562   -5360.8065   -5347.0061   -5360.8065            0    9772.0705    17.712772    22.529505    18.972077    7570.9966    9721.7459    9853.2385    9741.2271   -62.310445    -33.16959   -82.765013   -4268.0208 
10167000    6.5087734   -5360.7966   -5347.7782   -5360.7966            0    9648.7338    17.682985     22.51597    19.003849    7566.3742    9204.1918    10129.793    9612.2171    54.727146   -101.87365    338.61527   -4283.0616 
10168000    6.5207102   -5359.4239   -5346.3817   -5359.4239            0    9943.6332    17.713457    22.510082     18.97428    7565.6408    10141.004    9771.9887    9917.9068    147.85965   -143.30417   -59.006274     -4249.23 
10169000    6.7770309   -5362.3831   -5348.8282   -5362.3831            0    9447.6811     17.71345    22.526042    19.000014    7581.2699    9561.7478    9352.4928    9428.8027   -523.48258    54.588092   -184.93452   -4304.2449 
10170000    6.4295269   -5361.3936   -5348.5337   -5361.3936            0    9868.3804    17.675895    22.601206    18.947867    7569.6071    10072.002    9564.6468    9968.4927   -356.64179   -90.731574   -3.5610247   -4259.1143 
10171000    6.4932829    -5359.671   -5346.6836    -5359.671            0    9947.1705    17.687257    22.538873    18.979329    7566.1255    10042.288    9934.1411    9865.0827    177.77878   -27.654586    165.31962   -4249.0713 
10172000    6.6167385   -5362.9349   -5349.7006   -5362.9349            0     9380.893    17.664338    22.618997    18.963299    7576.7787    9267.7644    9549.5144    9325.4002    108.89816   -162.36447   -37.134339   -4313.1162 
10173000    6.3722216   -5362.2535   -5349.5083   -5362.2535            0    9811.5325    17.640142    22.620656    18.971297     7570.147    10160.203    9565.0575    9709.3374   -119.12085   -182.24001    144.24683   -4266.2873 
10174000    6.5632211    -5361.265   -5348.1377    -5361.265            0    9689.6225    17.636529    22.623326    18.977479    7571.9562    9796.9813    9359.9534    9911.9329    19.903088   -208.20525   -121.27429   -4278.1203 
10175000    6.3596266   -5361.7722   -5349.0522   -5361.7722            0    9567.7583    17.681468    22.558406    18.989693    7574.3377     9517.467    9627.9005    9557.9073   -181.60282    73.990332   -26.044541   -4292.1599 
10176000    6.5057129   -5361.3501   -5348.3379   -5361.3501            0    9536.8091    17.666607    22.607047    18.956445    7571.0111    9504.6254    9576.4605    9529.3415    42.974977   -185.48239    226.81464    -4295.327 
10177000    6.6899919   -5361.5493   -5348.1685   -5361.5493            0    9664.2096    17.698719    22.595206    18.936946     7573.002    9583.3207    9662.1316    9747.1766    23.001998   -109.35534   -78.076554     -4280.81 
10178000     6.657842   -5363.2177   -5349.9012   -5363.2177            0    9414.6684    17.714771    22.599692    18.943505    7584.0011     9425.782    9122.2511     9695.972    12.966181   -122.15578   -140.08355   -4308.5929 
10179000    6.6240189   -5360.8421   -5347.5933   -5360.8421            0    9785.0284    17.717642    22.559087    18.941863    7570.9458    9558.5908    9878.7009    9917.7936     427.3504    178.15013    290.74298   -4267.1844 
10180000    6.2347103   -5362.5921   -5350.1219   -5362.5921            0    9555.2624    17.714401    22.527552    18.996011    7580.5881    9419.4013    9840.5465    9405.8395   -311.66255    320.14328   -470.41651   -4293.7389 
10181000    6.2830829   -5361.3546   -5348.7877   -5361.3546            0    9687.6189    17.672937    22.591394    18.974287    7575.6034    9939.8503      9564.47    9558.5365    199.74942    302.73378    249.33135   -4278.4763 
10182000    6.6652074   -5361.8921   -5348.5608   -5361.8921            0    9551.1077    17.691617     22.57093    18.974215    7576.7121    9534.2227    9451.6693    9667.4311    40.309729    26.084972    35.168019   -4293.1771 
10183000    6.5091096   -5363.2276   -5350.2086   -5363.2276            0    9143.4275     17.66652    22.615161      18.9833    7584.4203    9201.9676    9165.7649    9062.5499   -379.93091    211.04178   -361.77944    -4338.845 
10184000    6.3244127   -5362.3119   -5349.6623   -5362.3119            0     9591.313    17.682444     22.58627     18.96923    7575.9396    9544.6131    9544.8225    9684.5035   -193.21381   -68.941248    19.006138    -4289.944 
10185000    6.6306208   -5362.1794   -5348.9174   -5362.1794            0    9392.4952     17.73032    22.570671    18.943897    7581.0674    9343.2242     9415.525    9418.7364   -19.629209    106.28828   -269.59024   -4310.4634 
10186000    6.6506948   -5361.6704   -5348.3682   -5361.6704            0    9557.3701    17.663364    22.580765    18.991645    7574.8606    9519.3239    9753.5218    9399.2646   -49.483027    183.53677    297.30019   -4292.5505 
10187000    6.3507258    -5361.261   -5348.5588    -5361.261            0    9646.9867    17.669743    22.594492    18.961006    7569.9707     9551.034    9580.8458    9809.0802    33.269803   -26.005719   -30.053802    -4283.529 
10188000    6.7468499   -5362.6928   -5349.1983   -5362.6928            0     9665.838    17.687402    22.586408    18.974959    7580.3989    9580.4392    9640.9518     9776.123   -173.41428    235.84545   -204.84915   -4280.6173 
10189000    6.3298491   -5362.6824   -5350.0219   -5362.6824            0    9657.9723     17.72524    22.471502    19.020652    7576.1682    9025.7009    10251.657     9696.559    17.598696    119.40149    100.42804   -4282.9064 
10190000    6.6966049   -5360.9868   -5347.5928   -5360.9868            0    9594.0338    17.691528    22.590554    18.949183    7573.2576    9361.5492    9603.3746    9817.1776    120.87655   -80.066235    342.44742   -4287.9491 
10191000    6.6374119   -5361.0997   -5347.8241   -5361.0997            0    9564.7935     17.67677    22.638707    18.918747    7570.8892    9582.2554    9398.8489    9713.2761   -62.745486    206.47579   -424.89479   -4291.7403 
10192000    6.5772332   -5362.7626   -5349.6073   -5362.7626            0    9618.0731    17.736842    22.511191    18.978216    7577.5733    9414.7044    9380.1385    10059.376    95.601611   -437.16643   -132.20609   -4286.7032 
10193000    6.2597484   -5362.2631   -5349.7428   -5362.2631            0     9551.424    17.681055    22.540243    19.019724    7580.0309    9803.4806    9690.7194     9160.072   -163.18856    28.124186   -259.46513   -4293.8618 
10194000     6.328999   -5361.4817   -5348.8229   -5361.4817            0    9520.1937    17.701709    22.560321    18.975453    7577.9655    9561.7591    9668.9118    9329.9102    226.54887    192.15017     341.2342    -4296.681 
10195000    6.5395622   -5360.8472   -5347.7673   -5360.8472            0    9869.9408    17.655502    22.628872    18.934344    7564.7269    9802.2591    9937.9361    9869.6271   -16.635149    54.563665   -99.898494   -4258.8781 
10196000    6.3876067   -5361.8934   -5349.1174   -5361.8934            0    9412.0531    17.654675    22.666488    18.932741    7576.3052      9659.37    9032.5103    9544.2789    99.689254   -191.37831    484.90236   -4309.1548 
10197000     6.372208   -5362.2117   -5349.4665   -5362.2117            0    9499.6624    17.692285     22.56032     18.98948    7579.5295     9506.747    9534.9398    9457.3005   -122.68934    28.966616    143.92946    -4299.377 
10198000     6.671926   -5360.8575   -5347.5128   -5360.8575            0    9678.8956     17.63167    22.614464    18.975499    7566.1154    9749.0433    9735.5695     9552.074    297.35337    79.628016   -128.96288   -4279.5045 
10199000    6.6426238   -5360.3032   -5347.0171   -5360.3032            0    9642.5803    17.685217    22.590799    18.957669    7574.0281    9893.9658    9564.0895    9469.6856    135.67745    8.0306894    246.87783   -4281.9032 
10200000    6.4360712   -5362.5255   -5349.6525   -5362.5255            0    9503.6092     17.73046    22.526866      18.9845    7582.6315    9499.3017    9564.8752    9446.6508   -163.54298    71.161667   -34.252672   -4298.6968 
10201000    6.3990377   -5363.8328    -5351.034   -5363.8328            0    9254.4067    17.671055    22.595772     18.99999    7586.5274    9487.0503    9198.0895    9078.0803   -166.32421    53.865991    86.281693   -4327.1105 
10202000    6.5164317   -5361.5951   -5348.5615   -5361.5951            0    9544.7656     17.69373     22.60606    18.932838    7572.8612    9690.2986    9290.0571    9653.9411   -101.42165   -72.611576   -127.02352   -4294.4145 
10203000    6.2846645   -5362.3933   -5349.8232   -5362.3933            0    9616.1004    17.719505    22.488273    19.014768    7577.0248    9709.7782    9822.3725    9316.1504   -81.930157    25.780535     -147.399    -4287.214 
10204000    6.3490624   -5361.9092   -5349.2103   -5361.9092            0    9440.5598    17.696758    22.580193    18.958029    7575.5569    9588.2679    9192.8395     9540.572    111.63622   -256.58292    109.11692    -4306.201 
10205000    6.5506141   -5362.8068   -5349.7048   -5362.8068            0    9537.3169    17.679009    22.630806    18.934671    7575.5764    9642.7456    9274.3785    9694.8267   -88.457849    162.31987   -203.31826   -4296.0028 
10206000    6.3437325   -5362.9392    -5350.251   -5362.9392            0    9628.2472    17.681046    22.604413     18.95931    7577.4613    9671.3925    9506.5182    9706.8309    2.7381857   -56.752506    58.007482   -4286.2382 
10207000    6.6953868   -5361.8845   -5348.4929   -5361.8845            0     9657.142    17.676024    22.599342    18.958132    7573.1392    9835.8018    9403.7737    9731.8505   -79.009497   -165.24317    235.77932   -4281.8956 
10208000    6.7049096    -5361.768   -5348.3573    -5361.768            0    9371.3285     17.65065    22.677805    18.929203    7576.9431    9688.6532    9140.4384    9284.8938    -118.1893   -53.138516    163.11731   -4312.8073 
10209000    6.6540065   -5361.4889     -5348.18   -5361.4889            0    9434.0448    17.663137    22.608777    18.967005    7574.3202    9572.8013    9445.9132      9283.42   -265.69813   -2.5348204   -267.53985   -4306.0606 
10210000    6.4901834    -5362.174   -5349.1929    -5362.174            0    9334.4133     17.70581    22.533505    19.015003     7586.491    9109.6686    9444.8174    9448.7538    186.18157   -52.511185    97.707026   -4316.4223 
10211000      6.52047   -5363.1375   -5350.0958   -5363.1375            0    9516.4336    17.699221    22.531118    19.008216    7580.1578    9665.4309    9609.2551    9274.6147    103.05604   -138.98477   -68.591418   -4298.0652 
10212000    6.3780824   -5361.1183   -5348.3613   -5361.1183            0    9753.7851    17.713385    22.514585    18.987852    7572.5362    9901.3754    9831.5788    9528.4012   -61.287547    90.134735    -62.31763    -4271.176 
10213000    6.5300606   -5362.7138   -5349.6529   -5362.7138            0    9320.4099    17.721664    22.580525    18.942185    7579.9898     9382.294    9236.5523    9342.3834   -196.30965   -46.072119   -36.650373   -4319.3154 
10214000    6.6064032   -5361.5754   -5348.3618   -5361.5754            0    9633.4621    17.713321    22.566162    18.945959    7573.1105    9662.7015    9547.2067    9690.4779    -374.0106   -24.356201   -77.365892    -4284.384 
10215000    6.1902481    -5363.204   -5350.8228    -5363.204            0    9377.8017    17.704232    22.606548    18.944768    7582.2941    9345.0546    9209.2422    9579.1084   -3.0041668   -15.838176    124.43236   -4313.8256 
10216000    6.3989259   -5361.2575   -5348.4588   -5361.2575            0     9607.443    17.681974    22.569846    18.971715    7571.2208    9551.2131    9758.3949     9512.721    69.269951   -34.020085   -110.35039   -4287.6195 
10217000    6.3341134   -5361.1313   -5348.4623   -5361.1313            0    9639.2373    17.656527    22.579226    18.985181    7568.8352    9555.9131    9647.8629     9713.936   -122.38416   -128.92692    297.72546   -4284.4476 
10218000    6.3904963   -5360.6395   -5347.8578   -5360.6395            0    9642.7739    17.639034    22.573538    19.021403    7573.8547     9566.314    9726.5592    9635.4484   -204.74113    92.232975   -142.56359   -4282.7468 
10219000    6.5366357   -5360.7519   -5347.6778   -5360.7519            0    9832.5281    17.662276    22.561221    18.994685    7569.0497     9940.023    9855.2395     9702.322   -169.89368    110.04189   -327.71318   -4262.2962 
10220000     6.334863   -5361.2063   -5348.5358   -5361.2063            0    9537.0635    17.633383    22.578125    19.016961    7571.1984    9901.5263    9598.1102     9111.554    202.45562    14.869316   -210.54022   -4295.4708 
10221000    6.3421834   -5361.8487   -5349.1636   -5361.8487            0    9426.6483      17.6556    22.576315    19.012716    7578.4379    9425.3869    9574.0238    9280.5341   -116.91269   -24.653804    380.29302   -4307.2951 
10222000     6.576066     -5361.12   -5347.9671     -5361.12            0    9772.3811     17.64245    22.674964    18.908817    7564.3192     9964.033       9434.5    9918.6103    220.29151   -104.42673    57.550394   -4269.8991 
10223000    6.3201311   -5363.1816   -5350.5405   -5363.1816            0    9576.0263    17.728948    22.563154    18.940195    7576.4753    9444.9989    9340.2085    9942.8715   -214.55322   -66.006509     327.2902   -4292.4363 
10224000    6.6393123    -5362.918   -5349.6386    -5362.918            0    9553.9069    17.703129    22.569024    18.967435    7578.2935    9490.1731    9373.5632    9797.9843   -114.42724   -228.69108   -4.9735923   -4293.7251 
10225000    6.1456217      -5361.7    -5349.408      -5361.7            0     9478.711    17.687924     22.56586    18.982878    7576.8872    9373.4194    9672.9318    9389.7817    258.35643    147.50252    271.01248   -4301.9997 
10226000    6.6627441   -5362.7708   -5349.4444   -5362.7708            0    9520.7556    17.687723    22.567888    18.981652    7576.9925    9644.5751    9544.6309     9373.061    92.019023   -192.27747    46.886598   -4297.3756 
10227000    6.6889251   -5360.5771   -5347.1984   -5360.5771            0    9768.7782    17.691846    22.548528    18.988658     7575.052    10103.473    9573.7574    9629.1039    90.567852    151.14012   -288.49976   -4267.9988 
10228000    6.5683195    -5363.439   -5350.3015    -5363.439            0    9256.5742    17.721054     22.57146    18.972527    7588.8221    9229.1018    9249.4731    9291.1478    40.581526    242.02195     33.10799   -4325.8284 
10229000    6.6642213   -5361.7964   -5348.4672   -5361.7964            0    9527.9323    17.664244    22.617859    18.966166    7577.5025    9594.6322    9333.0266    9656.1383   -171.09844   -2.2668723   -351.16595   -4295.5344 
10230000    6.7095229   -5359.6359    -5346.216   -5359.6359            0    9637.2887    17.693248    22.536411    18.990114    7572.1615    9470.2798    9688.6382    9752.9481   -110.30243   -89.575712    439.08072   -4281.9489 
10231000    6.6798125   -5360.6887   -5347.3283   -5360.6887            0    9743.1834     17.68567    22.533267    18.998441    7571.1813    9712.4791     9804.304     9712.767    83.117178   -144.24149   -140.67241   -4271.5063 
10232000    6.3828625   -5360.7156   -5347.9491   -5360.7156            0    9618.2691    17.638141    22.671695    18.931331    7570.3846    9760.0413    9272.0701     9822.696   -31.659002   -268.74601    330.66975   -4286.0316 
10233000    6.5578323   -5362.5639   -5349.4474   -5362.5639            0    9404.3064     17.68424     22.59264    18.970399    7579.3134    9575.4627    9286.8588    9350.5977   -508.98684   -171.55684   -386.02892   -4309.9282 
10234000    6.5853897    -5360.894   -5347.7224    -5360.894            0    9695.3629    17.710263    22.572431    18.952362    7576.4661     9784.733    9669.2727    9632.0831   -265.87156   -152.27516   -5.9944175   -4276.4334 
10235000    6.4923235    -5360.461   -5347.4755    -5360.461            0    10163.575    17.667622     22.58077    18.949049    7559.6946    10157.886    10224.873    10107.967   -163.59281    301.55513   -404.49955   -4226.9374 
10236000    6.6362724   -5363.5904    -5350.317   -5363.5904            0    9455.0722    17.667915    22.627312    18.951155    7576.2441    9423.9346    9610.6034    9330.6785   -143.87742    347.80897   -299.46322   -4305.6096 
10237000    6.4685837   -5361.4272   -5348.4892   -5361.4272            0    9633.1914    17.668549    22.588378    18.978783    7574.5054    9828.4613    9375.4626    9695.6503   -170.60757   -116.57173    36.138188   -4284.3453 
10238000    6.3712224   -5360.7321   -5347.9889   -5360.7321            0    9777.1053    17.696038    22.534667    18.988557    7572.1488    9626.6102    9990.4323    9714.2735    18.019951    76.163991   -167.46386   -4268.2834 
10239000    6.5754034   -5360.7905   -5347.6388   -5360.7905            0    9646.9664    17.685502    22.587591    18.959552    7573.8268    9173.1459    9903.4759    9864.2772   -212.73554    14.486343     62.88698   -4282.0687 
10240000    6.8843574   -5362.4426    -5348.673   -5362.4426            0    9632.0164    17.663654    22.640523     18.93469    7572.2547    9903.5605    9318.0619    9674.4269    126.94311   -206.47488   -98.496183   -4284.9751 
10241000    6.3309522   -5362.0373   -5349.3746   -5362.0373            0    9492.2169    17.686471    22.622408    18.938372     7577.443    9157.0653    9503.4348    9816.1507   -44.819402    109.82267     23.09283    -4300.397 
10242000    6.5235189   -5362.1417   -5349.0938   -5362.1417            0    9522.9623     17.70709     22.62074    18.908731    7573.8445      9380.13    9341.5697    9847.1871   -217.60263      82.1696    250.55186   -4297.2183 
10243000     6.714113   -5361.8233   -5348.3942   -5361.8233            0    9458.2322    17.711016    22.579292    18.947697     7577.226    9299.8762    9587.5865     9487.234   -183.67009    30.151394    77.492523   -4303.2021 
10244000    6.9192642    -5362.278   -5348.4387    -5362.278            0    9511.8566    17.688322    22.584113    18.968563    7577.4679    9462.4656    9525.8615    9547.2428    82.113307    101.95869   -118.39438   -4297.2872 
10245000    6.8747737   -5363.4198   -5349.6694   -5363.4198            0    9515.7916    17.709974    22.580938    18.963296    7583.5707    9463.1679    9508.3108    9575.8962    152.85993    169.77195    145.01091   -4297.2362 
10246000    6.6035885   -5360.7078   -5347.4998   -5360.7078            0    9758.5607    17.691795    22.564975    18.957137    7567.9717    9859.4529    9754.0739    9662.1553    141.78556   -184.93569    2.1334188   -4270.4366 
10247000    6.3141157   -5362.4498   -5349.8208   -5362.4498            0     9250.454    17.668393    22.596126    18.987326    7580.4479    9395.2885    9343.1137    9012.9599    8.3274923   -12.663924   -21.404675   -4327.1548 
10248000    7.0066274    -5362.673   -5348.6588    -5362.673            0    9629.5473    17.698782     22.51735     19.00896    7575.6346    9633.1925     9730.894    9524.5554     21.42362      47.4158    94.302397   -4284.7589 
10249000    6.6633125   -5363.6202   -5350.2928   -5363.6202            0    9190.5751    17.676243     22.59272    18.989599    7583.5801    9308.1886    9237.0917     9026.445     97.91581    26.929879    89.099049   -4333.8268 
10250000    6.8724457   -5362.0884   -5348.3427   -5362.0884            0    9607.9746    17.659111    22.628808    18.959128    7576.1551    9406.1234    9594.7609    9823.0396   -228.74328    55.848718    220.80415   -4286.7532 
Loop time of 472.434 on 64 procs for 250000 steps with 1008 atoms

Performance: 91.441 ns/day, 0.262 hours/ns, 529.175 timesteps/s
196.0% CPU use with 32 MPI tasks x 2 OpenMP threads

MPI task timing breakdown:
Section |  min time  |  avg time  |  max time  |%varavg| %total
---------------------------------------------------------------
Pair    | 35.44      | 39.868     | 47.017     |  45.2 |  8.44
Bond    | 0.7647     | 1.0586     | 1.5509     |  13.6 |  0.22
Kspace  | 231.43     | 242.95     | 253.84     |  33.1 | 51.43
Neigh   | 0.1087     | 0.12719    | 0.14793    |   2.6 |  0.03
Comm    | 67.92      | 77.358     | 83.823     |  45.3 | 16.37
Output  | 0.61145    | 0.61174    | 0.61325    |   0.0 |  0.13
Modify  | 92.388     | 94.863     | 97.26      |  11.8 | 20.08
Other   |            | 15.6       |            |       |  3.30

Nlocal:        31.5000 ave          38 max          27 min
Histogram: 3 2 4 4 11 5 2 0 0 1
Nghost:        3008.03 ave        3023 max        2996 min
Histogram: 2 3 6 6 3 2 3 5 0 2
Neighs:        11018.1 ave       13308 max        9445 min
Histogram: 3 2 4 4 11 5 2 0 0 1

Total # of neighbors = 352579
Ave neighs/atom = 349.78075
Ave special neighs/atom = 2.0000000
Neighbor list builds = 251
Dangerous builds = 0

unfix		3
unfix		2
unfix		1

write_data	data.final.${pid}
write_data	data.final.1
System init for write_data ...
PPPM initialization ...
  extracting TIP4P info from pair style
  using 12-bit tables for long-range coulomb (../kspace.cpp:340)
  G vector (1/distance) = 0.38019594
  grid = 24 27 32
  stencil order = 5
  estimated absolute RMS force accuracy = 0.0023813537
  estimated relative force accuracy = 7.171376e-06
  using double precision FFTW3
  3d grid and FFT values/proc = 5355 672
Last active /omp style is kspace_style pppm/tip4p/omp
WARNING: Not all mixed pair coeffs generated from mixing. Use write_data with 'pair ij' option to store all pair coeffs. (../write_data.cpp:312)

write_restart   restart.lmp.${pid}
write_restart   restart.lmp.1
System init for write_restart ...
PPPM initialization ...
  extracting TIP4P info from pair style
  using 12-bit tables for long-range coulomb (../kspace.cpp:340)
  G vector (1/distance) = 0.38019594
  grid = 24 27 32
  stencil order = 5
  estimated absolute RMS force accuracy = 0.0023813537
  estimated relative force accuracy = 7.171376e-06
  using double precision FFTW3
  3d grid and FFT values/proc = 5355 672
Last active /omp style is kspace_style pppm/tip4p/omp
Total wall time: 0:07:52
