#include		in.partitions
include		in.temp
variable        temperature equal 136.34
variable	tempDamp equal 100.0
include		in.pressure
variable        pressure equal 11668.8
variable        pressureDamp equal 1000.0 # This is 1 ps
include		in.seed
variable        seed equal 745823

units		real
atom_style	full
box tilt large
read_restart	restart.lmp.${pid}
read_restart	restart.lmp.0
Reading restart file ...
  restart file = 30 Jul 2021, LAMMPS = 30 Jul 2021
  restoring atom style full from restart
  triclinic box = (-10.486040 -9.1351126 0.25581238) to (12.466040 12.125111 21.604187) with tilt (-8.9683772 1.6568181 2.6590109)
  4 by 4 by 4 MPI processor grid
  restoring pair style lj/cut/tip4p/long/omp from restart
  restoring bond style harmonic/omp from restart
  restoring angle style harmonic/omp from restart
  1296 atoms
  864 bonds
  432 angles
Finding 1-2 1-3 1-4 neighbors ...
  special bond factors lj:    0        0        0       
  special bond factors coul:  0        0        0       
     2 = max # of 1-2 neighbors
     1 = max # of 1-3 neighbors
     1 = max # of 1-4 neighbors
     2 = max # of special neighbors
  special bonds CPU = 0.006 seconds
  read_restart CPU = 0.014 seconds
include 	in.setup
variable	out_freq equal 1000
variable	out_freq2 equal 10000
variable	out_freq3 equal 1000

timestep	2.0

neigh_modify    delay 7 every 1

include		in.tip4p
# This is TIP4P/Ice

# create groups ###
group ox type 2
432 atoms in group ox
group hy type 1
864 atoms in group hy

# set charges - beside manually ###
set group ox charge -1.1794
Setting atom values ...
  432 settings made for charge
set group hy charge 0.5897
Setting atom values ...
  864 settings made for charge

# ### TIP3P Potential Parameters ###
pair_style lj/cut/tip4p/long/omp 2 1 1 1 0.1577 8.5
pair_coeff 1 1*2 0.000 0.000
pair_coeff 2 2 0.21084 3.1668
bond_style  harmonic
bond_coeff  1 450 0.9572
angle_style harmonic
angle_coeff 1 55 104.52
kspace_style pppm/tip4p/omp 1.0e-5
pair_modify tail yes

thermo          ${out_freq}
thermo          1000
thermo_style    custom step temp pe etotal epair emol press lx ly lz vol pxx pyy pzz pxy pxz pyz enthalpy

restart 	${out_freq3} restart.lmp.${pid} restart2.lmp.${pid}
restart 	1000 restart.lmp.${pid} restart2.lmp.${pid}
restart 	1000 restart.lmp.0 restart2.lmp.${pid}
restart 	1000 restart.lmp.0 restart2.lmp.0


include         in.dump
dump            myDump all atom ${out_freq2} dump.water.${pid}
dump            myDump all atom 10000 dump.water.${pid}
dump            myDump all atom 10000 dump.water.0
dump            myDump2 all dcd ${out_freq2} dump.dcd
dump            myDump2 all dcd 10000 dump.dcd
dump_modify     myDump append yes
dump_modify     myDump2 append yes


variable natoms 	equal  "count(all)"                        # NUMBER ATOMS
variable H      	equal  "enthalpy/v_natoms"                 # ENTHALPY-per-atom
variable Vol      	equal  "vol/v_natoms"                 # volume-per-atom
fix AVG all 		ave/time ${out_freq} 1 ${out_freq} v_Vol v_H file vol_enthalpy.dat
fix AVG all 		ave/time 1000 1 ${out_freq} v_Vol v_H file vol_enthalpy.dat
fix AVG all 		ave/time 1000 1 1000 v_Vol v_H file vol_enthalpy.dat


timer           timeout 10:00:00 every 1000
New timer settings: style=normal  mode=nosync  timeout=10:00:00

fix 		1 all shake 1e-6 200 0 b 1 a 1
       0 = # of size 2 clusters
       0 = # of size 3 clusters
       0 = # of size 4 clusters
     432 = # of frozen angles
  find clusters CPU = 0.001 seconds
fix             2 all nph tri ${pressure} ${pressure} ${pressureDamp}
fix             2 all nph tri 11668.8 ${pressure} ${pressureDamp}
fix             2 all nph tri 11668.8 11668.8 ${pressureDamp}
fix             2 all nph tri 11668.8 11668.8 1000
fix             3 all temp/csvr ${temperature} ${temperature} ${tempDamp} ${seed}
fix             3 all temp/csvr 136.34 ${temperature} ${tempDamp} ${seed}
fix             3 all temp/csvr 136.34 136.34 ${tempDamp} ${seed}
fix             3 all temp/csvr 136.34 136.34 100 ${seed}
fix             3 all temp/csvr 136.34 136.34 100 745823


run             250000
PPPM initialization ...
  extracting TIP4P info from pair style
  using 12-bit tables for long-range coulomb (../kspace.cpp:340)
  G vector (1/distance) = 0.37123461
  grid = 30 40 32
  stencil order = 5
  estimated absolute RMS force accuracy = 0.0037450123
  estimated relative force accuracy = 1.1277993e-05
  using double precision FFTW3
  3d grid and FFT values/proc = 5168 640
Last active /omp style is kspace_style pppm/tip4p/omp
Neighbor list info ...
  update every 1 steps, delay 7 steps, check yes
  max neighbors/atom: 2000, page size: 100000
  master list distance cutoff = 10.8154
  ghost atom cutoff = 10.8154
  binsize = 5.4077, bins = 7 5 4
  1 neighbor lists, perpetual/occasional/extra = 1 0 0
  (1) pair lj/cut/tip4p/long/omp, perpetual
      attributes: half, newton on, omp
      pair build: half/bin/newton/tri/omp
      stencil: half/bin/3d/tri
      bin: standard
Per MPI rank memory allocation (min/avg/max) = 9.446 | 9.451 | 9.456 Mbytes
Step Temp PotEng TotEng E_pair E_mol Press Lx Ly Lz Volume Pxx Pyy Pzz Pxy Pxz Pyz Enthalpy 
38500000    146.09902   -6649.9553   -6274.1245   -6649.9553            0    11145.959     22.95208    21.260223    21.348374    10417.288    11712.971    10853.808    10871.097    67.862235    632.83542   -9.2943336   -4580.7695 
38501000     134.8902   -6644.7546   -6297.7578   -6644.7546            0    11418.785    23.028538    21.265954    21.238047    10400.778    11967.142    10551.269    11737.944   -87.691678   -10.992024   -193.53109   -4565.7031 
38502000    132.92804   -6631.6155   -6289.6662   -6631.6155            0    12266.576    23.139637    21.059096    21.272293    10365.985    11936.945    12887.968    11974.816    526.92561   -973.40503   -220.06837   -4435.2388 
38503000    137.07626   -6646.2507   -6293.6304   -6646.2507            0    11579.625    23.286025    20.912218    21.326749    10385.325    11384.959    11395.035    11958.883    -2390.507   -229.69441    685.42251   -4539.7882 
38504000    133.03965   -6654.0167   -6311.7803   -6654.0167            0    12505.687    23.045025    21.089564    21.333259    10368.167    13570.394    12631.022    11315.646   -50.641091   -462.02314   -221.45565   -4420.8068 
38505000    133.80933   -6646.4548   -6302.2384   -6646.4548            0    11540.227    22.948858    21.257166    21.319579    10400.281    11508.867    11105.733    12006.079      496.369    349.49911   -18.663232   -4551.8465 
38506000    139.97412   -6648.3471   -6288.2722   -6648.3471            0    11286.329    22.904954    21.397401     21.22745     10403.71    11360.607    11389.634    11108.745   -366.03471     427.3927   -561.44173   -4575.8264 
38507000     135.7252   -6659.3924   -6310.2476   -6659.3924            0    10815.206    22.994775    21.172526    21.402639    10420.035    11773.051    10691.396    9981.1724   -255.53045   -91.506471   -505.73367   -4666.7091 
38508000    138.87594   -6648.3792   -6291.1293   -6648.3792            0    11304.882    23.246722    21.053005    21.246455    10398.299    10075.751    12346.768    11492.125   -766.16212   -45.659064   -253.67768   -4576.7608 
38509000    142.24896    -6643.583   -6277.6562    -6643.583            0    11223.278    23.164502    21.064917     21.34296    10414.475    11638.416    11389.114    10642.304   -577.22842   -932.59159    349.69424   -4573.0149 
38510000    137.75536   -6648.4006   -6294.0333   -6648.4006            0    11553.424    23.040779    21.224308     21.28652    10409.632    11414.596    11364.259    11881.415   -159.47885    1423.6372   -202.18753   -4540.0641 
38511000    137.11114   -6646.5411    -6293.831   -6646.5411            0    11711.464    22.842181    21.362724     21.28957    10388.697    12211.043     10681.47    12241.878   -100.63986    1402.7021    558.03189   -4519.4449 
38512000    133.74082     -6622.59   -6278.5499     -6622.59            0      10907.8    23.033397    21.241611    21.330237     10436.17    10719.215    11247.108    10757.076    331.20709   -151.75204   -612.50946   -4618.3737 
38513000    136.82936   -6634.8446   -6282.8594   -6634.8446            0     11892.57    23.168372    21.075345    21.285455    10393.292    10787.268    11777.855    13112.587    1021.6613     60.58195   -86.234173   -4480.2371 
38514000    133.60084   -6659.1792   -6315.4992   -6659.1792            0    10677.355    23.124637    21.056458    21.388314    10414.461    10703.957      11257.7    10070.409   -784.37349    589.19559   -6.1826288   -4693.7773 
38515000    135.74156   -6637.6175   -6288.4306   -6637.6175            0    12528.079    23.072685    21.174542    21.214911     10364.62    12312.011    12003.452    13268.772    74.409239    13.817833   -570.05886   -4394.7194 
38516000    145.52605   -6665.3093   -6290.9524   -6665.3093            0    12390.576    22.924653    21.202963    21.287353    10347.156    12896.312    11412.241    12863.174    614.45265   -109.72617   -255.22248   -4421.1817 
38517000    142.16178   -6654.6319   -6288.9294   -6654.6319            0     11821.44    22.840897    21.293271     21.30458    10361.641    11880.015    11524.465    12059.839   -418.53648    777.04063    336.63087   -4502.5456 
38518000    138.12943   -6662.4007   -6307.0712   -6662.4007            0    13165.793    23.023214    21.165596    21.219375    10340.203    13244.037    12717.369    13535.972    420.50203    81.491994    503.58652   -4321.6531 
38519000    133.70431   -6644.4859   -6300.5397   -6644.4859            0    11719.034    23.128093    21.011384    21.393041    10396.017    12102.897    12478.626    10575.579   -909.79856    200.67308   -181.33229   -4523.7554 
38520000    135.23574    -6662.962   -6315.0764    -6662.962            0    10477.777    23.086167    21.155448    21.367112    10435.659    10987.361    10293.562    10152.409   -422.90637     64.06517    701.82136    -4720.428 
38521000    135.61613   -6667.4428   -6318.5786   -6667.4428            0    11297.097    23.052148    21.259599    21.226415    10402.629    10625.896    10756.944    12508.451    346.25384    32.004418    70.871997    -4604.677 
38522000    139.82012   -6647.3148    -6287.636   -6647.3148            0    11742.315    22.814842    21.360411    21.314066    10387.077    12606.295    10870.952    11749.696    784.33295     1104.194   -959.68798   -4508.8531 
38523000    136.46405   -6655.1636   -6304.1181   -6655.1636            0    11351.344    22.879919    21.286146    21.354345    10400.107    11566.004    11226.368    11261.662   -1087.2081    292.53415    212.08485   -4582.4042 
38524000    143.96715   -6627.8483   -6257.5016   -6627.8483            0    12067.374    23.135677    21.088611     21.28729    10386.054    11414.633    12296.015    12491.473    55.390436   -75.235984    164.83323   -4429.6572 
38525000    135.69069   -6617.8691   -6268.8131   -6617.8691            0    12118.162    23.293918    20.915054    21.273344    10364.236    10516.139      12849.8    12988.547    435.35507   -8.8126842    642.44365   -4437.1317 
38526000    142.97626   -6654.5142   -6286.7165   -6654.5142            0    10525.424    23.092445    21.186735    21.332624    10437.061    10191.613    10946.229    10438.432    1071.7537   -308.96119   -504.04223   -4684.6013 
38527000    135.72997    -6632.895   -6283.7379    -6632.895            0    12448.543    22.931966    21.299369    21.227581    10368.323    13068.661    12066.265    12210.703    761.47873    170.91443   -708.95173   -4401.3769 
38528000     138.9481   -6667.4986   -6310.0631   -6667.4986            0    11761.445    22.973756    21.199538    21.288943    10368.418    11264.078    11758.062    12262.195     402.2215    1261.7967    86.121078   -4531.5828 
38529000    133.74079   -6654.0367   -6309.9967   -6654.0367            0    11708.807    22.983944    21.178137    21.347953    10391.268    12606.656    11505.736    11014.029    39.573693     -370.837   -250.66739   -4535.5739 
38530000    141.49462    -6634.098   -6270.1117    -6634.098            0    12827.995    23.227814    20.977273    21.255423    10356.837    12108.956    13587.658    12787.371    358.34859   -280.83392    445.93028   -4332.5221 
38531000     141.9815   -6646.0058   -6280.7671   -6646.0058            0    12100.655     23.12494    21.101151    21.256642    10372.452    12002.279    11914.902    12384.785    687.15144   -509.39473    108.86626    -4450.282 
38532000    139.63785   -6649.2485   -6290.0386   -6649.2485            0    11649.312     22.92996     21.24678    21.366223    10409.363    12011.123     11259.35    11677.462    828.56037   -268.61003     472.4521   -4521.5579 
38533000    138.98109   -6644.2691   -6286.7487   -6644.2691            0    13035.884    23.015534    21.154817    21.251896    10347.323    12577.872    12343.266    14186.514   -481.80122    450.72957    726.53799   -4319.5673 
38534000    134.34706   -6645.7401   -6300.1405   -6645.7401            0    12796.819    22.978136    21.126499    21.332682    10355.898    13717.932     13044.89    11627.635   -1317.6738    548.92571   -1011.0186   -4367.4349 
38535000    136.21082   -6666.1005   -6315.7064   -6666.1005            0    11139.197    23.055556    21.208455    21.315109    10422.507    11135.758    11079.593    11202.239   -380.32493    2.1356239   -651.19887    -4622.531 
38536000    133.58309   -6655.6204   -6311.9861   -6655.6204            0     10246.28    23.265815     21.06964    21.257961    10420.702    8672.1875    10461.114    11605.539    1208.9128    117.00807    800.01556   -4754.8051 
38537000    137.58371   -6641.8811   -6287.9554   -6641.8811            0    12257.815    22.902904    21.129915    21.438702    10374.969    13273.362    12219.373    11280.712   -684.89425    669.93337   -690.46215   -4433.2465 
38538000    144.45154    -6665.918   -6294.3252    -6665.918            0    12144.396    22.980257    21.203623    21.277831    10367.936    12101.965    11608.147    12723.076    42.535224    361.54954    177.67044   -4458.0233 
38539000    136.00903   -6647.9801   -6298.1052   -6647.9801            0    11103.453    23.315656    21.047044    21.205301    10405.985    9650.8527    11708.355    11951.151    206.77403   -37.448589   -439.38113   -4613.0383 
38540000    134.68096   -6656.9864   -6310.5278   -6656.9864            0    11731.789     22.93819    21.208926    21.380182    10401.339    11261.955    12338.794    11594.619    251.44301    1287.0245    283.37955   -4530.8992 
38541000    135.10675   -6666.4824   -6318.9285   -6666.4824            0    10809.458    23.016952    21.290344    21.303743    10439.661    11116.394     10323.78    10988.201    358.32086   -790.32805    226.27312   -4673.1696 
38542000    134.01261   -6647.5463    -6302.807   -6647.5463            0    11054.607      23.0884    21.213591    21.300378    10432.667    11124.484    11252.505    10786.833    878.62524    1521.0039   -313.35459   -4620.8513 
38543000    135.46899   -6640.6255   -6292.1398   -6640.6255            0    10958.395    23.043471    21.191812    21.346532    10424.214    11351.497    10947.762    10575.926   -356.25007   -569.88086   -162.63038   -4626.1737 
38544000    146.33016   -6672.1019   -6295.6765   -6672.1019            0    10942.384    23.058627    21.055088    21.465406    10421.485    10151.793    12511.341    10164.019    435.90473    503.45015   -446.97249   -4632.5799 
38545000    126.32143    -6658.268   -6333.3138    -6658.268            0    10796.183    23.111122    21.166296    21.263576    10401.649    11527.871     9936.201    10924.475   -1271.7567    457.78684    392.73665   -4695.5612 
38546000     136.6467   -6649.2902   -6297.7748   -6649.2902            0    11124.497    23.015684     21.19181    21.373024    10424.564    11523.581    12072.115    9777.7948    117.78153    565.01151   -465.41796      -4606.5 
38547000     135.8602     -6655.85   -6306.3579     -6655.85            0    12065.101    22.902146    21.346469     21.19967    10364.094    12170.264     11531.03     12494.01    569.62052    182.62457    850.67957   -4482.7217 
38548000    132.57714   -6629.4176    -6288.371   -6629.4176            0    11521.858     23.15021    21.074515    21.348037    10415.269    12086.686    11485.352    10993.537    1019.3205   -332.23927   -857.89179   -4538.2466 
38549000    142.17853   -6646.9142   -6281.1686   -6646.9142            0    11832.631    23.046392     21.14606     21.30042    10380.555    12223.392     11689.11     11585.39   -10.135137   -665.67917    140.81814   -4489.8296 
38550000    141.51646   -6658.1782   -6294.1357   -6658.1782            0    11322.303    23.063846    21.178155    21.271054     10389.84    11346.409    11079.134    11541.366   -391.18964   -751.16119    447.60663   -4578.5221 
38551000    143.22407   -6653.6443   -6285.2091   -6653.6443            0    11354.745     23.18874    20.960405    21.420013    10411.098    11391.476    11667.159    11005.599   -566.05693   -268.58115     538.3569   -4561.1594 
38552000    132.90324   -6647.3492   -6305.4637   -6647.3492            0    12244.161    22.965795    21.268476    21.209805    10359.876    11476.729    12358.879    12896.874     335.3183    200.47713    52.742305    -4455.516 
38553000    131.77744   -6651.7906   -6312.8012   -6651.7906            0    10866.394    22.995849    21.285329    21.296765    10424.217    11893.882     10647.67    10057.631    652.34563   -738.12259   -1029.5404   -4660.8211 
38554000    134.34597   -6636.0709   -6290.4741   -6636.0709            0    11921.507    23.044449    21.106715    21.374732    10396.512    11124.497    13678.072    10961.952    934.39638    142.33099   -74.073648   -4482.9058 
38555000    135.66251   -6636.6272   -6287.6436   -6636.6272            0    11582.694    23.184217     21.06823    21.265363    10387.076     11795.58    11472.628    11479.874    -1211.903   -308.66168    327.69298   -4533.0411 
38556000    141.29693   -6634.7541   -6271.2763   -6634.7541            0    12614.179    23.045088    21.024679    21.396558    10366.966      13352.5    12875.353    11614.686   -1057.8899   -688.12002   -1041.5745   -4364.1188 
38557000     135.0991   -6638.9419   -6291.4077   -6638.9419            0    12175.878    23.041855    21.157787    21.275447    10372.092    12382.764    11734.899    12409.972    1151.9537   -654.10867    426.79669   -4449.6073 
38558000    141.27602   -6656.3166   -6292.8927   -6656.3166            0    12588.176    22.933581    21.301499     21.21059     10361.79    11769.063    12411.302    13584.161    345.19225     637.1119    50.086574   -4390.6169 
38559000    134.13061    -6639.881   -6294.8382    -6639.881            0    11732.502    22.931034    21.123209    21.469141    10399.158    12004.095    12071.768    11121.644   -23.731344    521.51903   -162.50632   -4515.4744 
38560000    132.70736   -6659.4869   -6318.1053   -6659.4869            0    11850.433    23.104041    21.176434    21.225383    10384.756    10837.357    11685.033    13028.908   -202.15377    153.47955    413.06035   -4523.3452 
38561000    132.31149   -6639.6771   -6299.3139   -6639.6771            0    11522.115    23.072311    21.186155    21.278423    10401.182    11972.889    10022.771    12570.684   -141.18448   -900.14216    806.02931   -4551.5178 
38562000    140.89044   -6645.6447   -6283.2126   -6645.6447            0    12275.126    22.980083    21.034878    21.455296     10371.13    11913.452    13832.486    11079.439    817.92149   -423.65882   -783.41035   -4426.5716 
38563000    138.67748   -6623.1663    -6266.427   -6623.1663            0    12734.709    23.066157    21.209903    21.151014    10347.731    11974.262    13535.124    12694.743    192.23223   -292.70823   -1150.9834   -4344.6187 
38564000    134.04655   -6648.5024   -6303.6758   -6648.5024            0    11733.138    22.947747    21.193707    21.378757    10397.512    12143.954    10646.873    12408.588    130.34727   -209.78175    181.72345   -4524.4973 
38565000    128.71083   -6650.5188   -6319.4181   -6650.5188            0     12260.24    23.064393    21.080275     21.30892    10360.477    12327.135    12373.414    12080.171   -622.37113    776.13992    -541.0487   -4466.9335 
38566000    132.82663   -6621.6473   -6279.9589   -6621.6473            0      11959.6    23.090782    21.209403    21.219763    10392.203    10896.206    11537.946    13444.648    -748.2647    376.77109    670.38458   -4467.3665 
38567000    133.28587    -6658.717   -6315.8472    -6658.717            0    11720.097    22.877584    21.195444    21.411446    10382.422    11940.375    11917.162    11302.754     1824.983    457.94889   -385.73203   -4541.2256 
38568000    132.95656   -6649.9915   -6307.9688   -6649.9915            0    12420.072    22.971927    21.253296    21.220855     10360.64    11672.048    12783.691    12804.477    1645.4219   -252.53111   -175.49292   -4431.3044 
38569000     133.2592    -6666.475   -6323.6738    -6666.475            0    12312.415    22.998829    21.146216    21.284492    10351.462    12023.593    11815.106    13098.545    170.19916    779.95516    329.50022   -4464.9245 
38570000    130.86189   -6642.4173   -6305.7831   -6642.4173            0    11953.956    23.231574    20.954349    21.386164    10410.838    11134.041    12742.533    11985.295   -637.70908    250.10525    26.466498   -4490.7973 
38571000    137.55519   -6649.8933   -6296.0409   -6649.8933            0    11088.661    23.166301    21.129573    21.291028    10421.831    10810.041    10943.791    11512.152   -1312.7178   -156.28248   -363.47511   -4610.6563 
38572000    143.84268   -6633.2689   -6263.2423   -6633.2689            0    12549.438    23.007919    21.168038    21.301478    10374.512    13466.656    11673.903    12507.757   -43.816296    791.51716    840.19664    -4364.492 
38573000    132.91668   -6657.6701     -6315.75   -6657.6701            0    11845.845    22.958236    21.301298     21.26603    10399.944    11714.665    11130.444    12692.425     829.4086    282.34895   -429.31428   -4519.0609 
38574000    137.48226   -6656.2261   -6302.5614   -6656.2261            0    11216.334     22.92132      21.1915    21.419104    10404.055    12746.922    11356.905    9545.1757    556.69369   -419.00851   -268.71361   -4600.6793 
38575000    138.05503   -6652.7637   -6297.6255   -6652.7637            0    11375.815    23.130844    21.081743     21.30815    10390.675    12005.839    11001.741    11119.864   -1075.6422   -892.94979    385.78746   -4573.7649 
38576000    135.67168   -6655.6252    -6306.618   -6655.6252            0    11398.519     23.14055    21.074587    21.356055    10414.868    11130.619    12105.922    10959.018    -97.74427   -310.28568   -736.86229    -4575.295 
38577000    135.20467   -6655.9881   -6308.1823   -6655.9881            0    12168.739    22.941305    21.187051    21.359832     10382.13    12000.697    12497.563    12007.958    294.65281    659.38225     1100.721   -4465.6804 
38578000    140.35731   -6640.2308   -6279.1702   -6640.2308            0    11152.603    23.041617     21.28112    21.267243    10428.423    10886.219    10853.359    11718.231    851.91706   -129.81984   -652.66991   -4582.9947 
38579000    134.81643   -6663.4511   -6316.6441   -6663.4511            0    10713.588    22.919269    21.112654    21.531107    10418.614    11160.016    11690.294    9290.4557   -210.42776    749.93895   -295.26957     -4688.77 
38580000    137.76798   -6626.7578    -6272.358   -6626.7578            0    13520.782     23.07672    21.115443    21.241544    10350.477    13331.546    13483.578    13747.222    15.594198    521.74813     226.0977   -4231.3813 
38581000    136.96903   -6665.2399   -6312.8954   -6665.2399            0    10339.766    23.099264     21.16677    21.332759    10430.371    10417.781     11059.43    9542.0865    168.16608   -519.13361   -438.07432   -4740.0489 
38582000    132.35926   -6644.0859   -6303.5998   -6644.0859            0    12486.285    22.988299     21.14838    21.344051    10376.737    12425.095    12326.723    12707.038     533.5609    591.31779      442.171   -4413.9995 
38583000    136.35955   -6641.1475   -6290.3708   -6641.1475            0    12633.867    22.930762    21.228615    21.242974    10340.831    11780.367    13263.272    12857.961    190.78512    883.48561   -678.01457    -4385.052 
38584000    142.63999   -6638.4201   -6271.4874   -6638.4201            0    11437.942    22.937694    21.186174    21.410836    10404.852    13551.697    10411.464    10350.664   -655.56749   -104.12064   -500.62694   -4535.8473 
38585000    134.12461    -6640.182   -6295.1546    -6640.182            0    12969.231    23.113935    21.112354    21.196038    10343.446     11461.89    13560.648    13885.156    791.34693    677.88807    535.96621   -4338.7649 
38586000    134.80149   -6655.7101   -6308.9414   -6655.7101            0    11422.638    23.082331    21.017307    21.419976     10391.44    11109.437     11597.09    11561.388    591.10324    879.75652    1091.2267   -4577.8579 
38587000    136.22737    -6669.515   -6319.0784    -6669.515            0    11428.994    23.034386    21.202897    21.262365    10384.448    11036.413    12341.556    10909.012   -181.42453    194.34327   -421.01531    -4588.197 
38588000    139.37432   -6654.7904   -6296.2584   -6654.7904            0    11469.246    23.004817    21.291026    21.216783    10391.899    11999.518    10127.975    12280.245    -135.9106    1209.0438    391.50939   -4558.0347 
38589000    133.94635   -6667.7786   -6323.2098   -6667.7786            0    12457.844     22.91222    21.062009    21.516153    10383.208    11617.517    13012.573    12743.442    43.626291    1793.8429    870.30357   -4436.7379 
38590000    136.24663   -6659.7554   -6309.2692   -6659.7554            0    11361.359    23.172855    21.073839    21.312064    10407.555    10934.156    11567.767    11582.155    208.02379   -961.66418   -402.60929   -4584.8022 
38591000    132.64768   -6657.3104   -6316.0823   -6657.3104            0    11929.326     23.09699     21.15484    21.245686    10380.921    11587.634    11585.597    12614.748    95.278973    519.02125   -225.21092    -4510.041 
38592000    133.51434   -6641.8724   -6298.4149   -6641.8724            0    11410.737    22.997546    21.173605    21.378606    10410.119    12569.859    11302.444    10359.909   -200.11193    -231.5956   -804.19021   -4566.0265 
38593000     136.7768   -6651.9756   -6300.1256   -6651.9756            0    11704.493    22.976514    21.286157    21.245849    10390.956    13046.691    10491.542    11575.246    93.301319   -478.65411    250.35262     -4526.41 
38594000     133.6046   -6631.9505   -6288.2608   -6631.9505            0     11503.87    22.999588    21.239482    21.245269      10378.3     10803.15    12088.904    11619.557   -215.02955    1174.6347   -338.44632   -4547.0712 
38595000    128.12159   -6653.4435   -6323.8585   -6653.4435            0    11185.889    23.121304    21.041441    21.374571    10398.847    11126.718    11821.557    10609.391   -1033.2679   -159.12392   -792.98505   -4627.4456 
38596000    137.22844   -6632.4895   -6279.4777   -6632.4895            0    12710.369    23.220975    20.998822    21.250854    10362.195    12065.143    13337.957    12728.007    595.69449   -893.02818    126.17091   -4358.6615 
38597000    137.03964   -6655.4947   -6302.9686   -6655.4947            0     11326.07    23.049087     21.14324    21.331805     10395.68    11215.761    11433.848    11328.602   -215.66053   -230.47317    319.46191   -4585.8195 
38598000    130.30992   -6656.5512   -6321.3368   -6656.5512            0    11991.818    22.830684    21.312339    21.347507    10387.169    13593.094    12129.602    10252.757    749.59065   -530.64496    -598.1354   -4504.7419 
38599000    139.44727   -6653.9635   -6295.2439   -6653.9635            0    10856.984    22.867485    21.356306    21.310975    10407.535    12119.492     10331.02    10120.441    116.03635   -89.836824   -641.64622   -4647.3359 
38600000    135.88146   -6663.0194   -6313.4726   -6663.0194            0    11672.454    23.025935    21.189332    21.309427    10396.959    11889.447    11396.761    11731.153    -954.7961    459.05328   -548.90395   -4543.5904 
38601000    136.10409   -6659.4628   -6309.3433   -6659.4628            0    12647.448    23.128375    21.015027     21.28231    10344.127    11813.052    13655.677    12473.616   -418.29076    635.70421   -75.065207   -4401.3685 
38602000    140.09503   -6661.2765   -6300.8906   -6661.2765            0     11882.19     23.07943    20.939043    21.491285    10385.903    11982.473    12380.763    11283.334    192.85067   -1135.5656    852.93424    -4501.122 
38603000    136.79589   -6646.2367   -6294.3376   -6646.2367            0    10328.531    23.124745     21.16786    21.353224    10452.432    9551.3136    10751.733    10682.546    1213.7236   -314.64066    256.32888   -4719.8769 
38604000    139.12475   -6650.6036   -6292.7136   -6650.6036            0    12045.622    23.104934     21.17052    21.223921    10381.543     12002.68    11579.701    12554.484    793.08142    525.26364   -701.79214   -4468.9565 
38605000    132.73291   -6631.2832   -6289.8359   -6631.2832            0     12226.45    22.744004    21.325417    21.430642    10394.405    12538.843    12712.757    11427.749   -166.28177    466.24913    296.14223   -4436.4072 
38606000    136.86625   -6662.6427   -6310.5626   -6662.6427            0    11494.973     23.09671    21.139761    21.285792    10392.978     11594.75    11732.529    11157.639   -718.88688    -205.4532    -330.1248   -4568.2589 
38607000    138.28259   -6660.2157   -6304.4922   -6660.2157            0    11767.551    23.196078    20.981382    21.337268    10384.545    10795.795    12452.884    12053.973    1436.2319   -568.18023    479.56901   -4522.3209 
38608000    135.99272   -6654.2789   -6304.4459   -6654.2789            0    11484.629    23.013876    21.190041    21.306083     10390.23    11953.291    10548.705    11951.893    137.76533   -395.85025     547.7016   -4564.1702 
38609000    133.90223   -6651.6837   -6307.2284   -6651.6837            0    11042.003    22.849513     21.35915    21.302513     10396.61    12336.228     9878.119    10911.662    350.74341    545.93937    23.958607   -4632.9969 
38610000    134.47312   -6654.6918   -6308.7679   -6654.6918            0    11305.674    23.005382    21.128962    21.367252     10386.19    10848.553    12770.838    10297.632    80.501704    441.43712   -753.63235   -4596.2756 
38611000    136.92834   -6643.8489   -6291.6091   -6643.8489            0    12393.824    23.057656     21.16409    21.243706    10366.807    12355.121    11675.704    13150.647    447.95496   -1014.3833    687.84418   -4417.7961 
38612000    135.03697   -6648.0926   -6300.7182   -6648.0926            0    11033.454    23.176432    21.025161    21.388809    10422.515    11221.113    10388.629    11490.618   -257.46402   -309.43982    730.81503   -4623.6147 
38613000    137.33612   -6643.3014   -6290.0126   -6643.3014            0    12604.694    23.027308    21.129896    21.316176    10371.697        11592    14092.331    12129.751    568.29041    662.74306   -350.21139   -4383.4194 
38614000    135.53132   -6635.9895   -6287.3434   -6635.9895            0    11787.584    22.917695    21.281722    21.286531    10382.037    13353.846    10283.553    11725.352    919.95852   -1286.9746   -286.29442   -4502.5693 
38615000    133.11646   -6629.1765   -6286.7426   -6629.1765            0    12586.914    22.933447    21.237679    21.277737     10363.39    12884.386    11642.928     13233.43   -238.31163    512.27858    802.52195   -4384.3637 
38616000    126.15699   -6653.1157   -6328.5845   -6653.1157            0    10647.063    23.199771    21.003984     21.36347    10410.154    9729.0787    11796.842    10415.268   -112.88904    955.64568    3.3746652   -4712.1323 
38617000    127.28058   -6659.2053   -6331.7838   -6659.2053            0    12055.639    23.092076    21.165856    21.233337    10378.081    11056.439    13220.296    11890.181   -1305.3399    277.81436   -402.80037   -4507.1186 
38618000    134.70002   -6655.7515   -6309.2439   -6655.7515            0    11711.169    23.134446    21.019929    21.311824    10363.608    11905.465    11145.248    12082.793    -626.2553    508.80198    238.10148   -4539.1875 
38619000    135.26114   -6651.4759   -6303.5248   -6651.4759            0    12124.023    23.079812    21.112456    21.288706     10373.38    11525.428    12929.348    11917.293    356.44563    1157.5122   -160.20339   -4469.3407 
38620000    130.94806   -6643.7181   -6306.8622   -6643.7181            0    11065.697    22.965451    21.338398     21.25849    10417.637    10515.091    11285.529     11396.47    524.57831    252.68109    324.87344   -4625.6448 
38621000    135.88787   -6653.1266   -6303.5633   -6653.1266            0    11229.297    23.050368    21.072545     21.39632    10392.833    10707.897    12233.663    10746.332    748.99134    779.10483   -436.55987   -4601.5522 
38622000    140.27706   -6641.3332    -6280.479   -6641.3332            0     11684.21    23.024942    21.166112    21.324832    10392.625    11996.707    12142.292    10913.632   -4.2271226    182.00465    581.17423   -4509.5526 
38623000    134.15638   -6659.1296   -6314.0205   -6659.1296            0    11096.532    23.101413    21.165406    21.320258    10424.557    11399.704     11187.04    10702.851   -503.80197   -193.65511   -684.18307   -4626.9985 
38624000    135.12207   -6646.1932   -6298.5999   -6646.1932            0    11214.072    23.199806    21.143983    21.256176    10426.926    10072.616    11523.788    12045.814    1413.3477    265.69693    575.25447   -4593.3205 
38625000    139.19561    -6644.732   -6286.6598    -6644.732            0    11058.154    22.884086      21.3281    21.326239    10408.784    11834.863    9954.0731    11385.526   -394.95065     151.4848   -118.08481    -4608.016 
38626000    142.74878   -6671.9909   -6304.7784   -6671.9909            0    11403.129    22.936756    21.291332    21.291053    10397.573    11280.544    10841.571    12087.273   -442.18779    387.18258   -435.15337   -4575.6314 
38627000    135.51102   -6659.4349   -6310.8411   -6659.4349            0    10949.015    23.144085    21.060098    21.384482    10423.153    10838.619    10907.144    11101.281   -1109.3627     1218.589   -172.19187   -4646.4704 
38628000    134.27402   -6642.1707   -6296.7589   -6642.1707            0    12078.284    23.199063    21.014495    21.297913    10383.086    12480.603    12729.853    11024.396   -933.24205   -1228.7666    645.09668   -4467.7847 
38629000    138.33362   -6634.3997   -6278.5448   -6634.3997            0    11813.424    23.154165    21.087238    21.301669    10400.697    12193.925     13142.99    10103.356   -182.84854   -661.21882   -1159.7852   -4486.6434 
38630000    129.87677   -6667.2092   -6333.1092   -6667.2092            0    10601.482    23.043274    21.216731    21.308759    10417.915    10172.116    10651.357    10980.974    581.21058    192.96463    414.97549   -4722.3771 
38631000    130.73177   -6651.1685    -6314.869   -6651.1685            0    12511.566    22.866806    21.335964    21.212558    10349.296    13636.568    10824.791     13073.34   -44.146951    411.12565  0.060933644   -4426.4499 
38632000    138.94176   -6645.2774   -6287.8582   -6645.2774            0    10968.978    22.967521    21.269619    21.340749    10425.178    10062.089    11630.891    11213.954    202.76149    850.03329   -114.73343    -4620.129 
38633000     140.0995   -6641.1642   -6280.7668   -6641.1642            0     13393.79    23.101596    21.009052     21.32496    10349.912     13843.25    13482.566    12855.553     274.7381    511.28254    535.93794     -4259.07 
38634000    130.48764   -6646.0878   -6310.4163   -6646.0878            0    12458.989     23.13424    21.043247    21.266689     10353.04    11695.699     13408.51    12272.758      391.142   -998.25553   -745.91912   -4429.2527 
38635000    133.84849   -6656.7876   -6312.4705   -6656.7876            0        11760     23.09202     21.08161    21.290171    10364.417    11495.269    12258.824    11525.908    767.69485   -182.36279    304.95827   -4534.8949 
38636000    140.00803   -6645.2142   -6285.0521   -6645.2142            0    11806.366    22.755707    21.332672    21.397436    10387.172     13075.68    10889.556    11453.861   -11.515181    469.97498    381.32411     -4496.55 
38637000    137.77853   -6661.1398    -6306.713   -6661.1398            0    11341.197    23.028051    21.242938    21.239221    10389.876    12138.015    11257.342    10628.234   -193.24873    396.79944   -806.76405   -4588.2304 
38638000    131.05075    -6651.009   -6313.8889    -6651.009            0    11973.164    23.094299    21.047262    21.354217    10379.682     11782.97    11910.174    12226.348   -1387.1801    367.05403   -109.57992   -4501.4271 
38639000    135.05546    -6659.371   -6311.9491    -6659.371            0    11643.027     23.10497    21.058878    21.374166    10399.916    12417.568    11310.481    11201.031   -1575.3323   -717.62684    -661.0509   -4546.0267 
38640000    136.48636   -6659.6691   -6308.5663   -6659.6691            0    10773.303    23.066042    21.228768    21.268995    10414.654     10482.12    10356.123    11481.665    507.21792   -515.75451    380.71807   -4672.2411 
38641000    135.05151   -6657.0284   -6309.6166   -6657.0284            0    11902.143    22.986335    21.266974     21.23644    10381.429    11984.977    10929.263     12792.19    504.45505   -405.18243    239.17846   -4507.6024 
38642000    138.62285   -6648.6947   -6292.0958   -6648.6947            0    12675.392    22.969462    21.127334    21.355022     10363.24    12991.729    13153.884    11880.561    -1603.656    762.23412   -214.55604   -4376.3723 
38643000    136.48972   -6658.8481   -6307.7366   -6658.8481            0    10142.227    23.132699    21.120449    21.382019    10446.677     9645.779    10446.096    10334.808   -1124.2596    137.53028   -378.20431   -4762.5271 
38644000    135.62862   -6661.9377   -6313.0413   -6661.9377            0     10686.27    23.135414     21.15631    21.319034    10434.814    10077.859    11765.476    10215.476    182.66499   -306.53444   -16.974109   -4686.7935 
38645000     132.5028   -6619.3083   -6278.4529   -6619.3083            0     11817.85    22.926092    21.262032    21.350298    10407.316    10902.943    13492.925    11057.681    1044.7152    652.49394   -977.91407   -4484.7394 
38646000    134.92477   -6652.8828    -6305.797   -6652.8828            0    11702.204    22.888855    21.319644      21.2803    10384.409    13652.205    10347.896    11106.511    206.18618   -736.53305   -569.26634   -4533.5457 
38647000    135.85635   -6662.3267   -6312.8445   -6662.3267            0    11850.925      23.0459    21.163693    21.276155    10377.154    12803.906     11624.64    11124.229   -847.52627   -312.66032   -795.02374   -4519.3237 
38648000    134.99938   -6665.9406   -6318.6629   -6665.9406            0    11762.579    23.157042    20.980824    21.367851    10381.652    11688.768    12730.631    10868.339   -232.61643    363.41484   -590.33514   -4537.7408 
38649000    141.26607   -6637.2785   -6273.8801   -6637.2785            0    13341.387    23.059307    21.066661     21.31962      10356.7     13083.93    14025.789    12914.442    1161.5014    304.54717   -117.83067   -4258.7723 
38650000    133.23151   -6648.4547   -6305.7247   -6648.4547            0    11643.222    23.028077    21.207854    21.258191    10381.992     11189.23    11966.798    11773.638    416.91979   -241.79077     144.8504   -4542.8162 
38651000    143.65607   -6664.0067   -6294.4602   -6664.0067            0    10840.846    22.941114     21.25068    21.371226    10418.778    11107.892     9833.366    11581.279    481.79697    511.32013    1005.6548   -4647.2242 
38652000    137.43154   -6671.8611   -6318.3269   -6671.8611            0     11833.72    23.002821    21.271197    21.266034    10405.418    12671.219    10452.766    12377.174    423.31678   -676.94246   -156.97718   -4522.5321 
38653000      141.041   -6647.8763    -6285.057   -6647.8763            0    11308.982    23.137603      21.0741    21.334397    10402.741    10853.708    12506.237    10567.003    268.33847   -91.888713    230.26478   -4569.3339 
38654000    135.66195   -6649.0173   -6300.0352   -6649.0173            0    11880.832    23.058536    21.046026    21.402777    10386.565     10506.36    13862.124    11274.011    65.815728    718.21028    374.39851   -4500.3577 
38655000    129.47125   -6648.3801   -6315.3232   -6648.3801            0    11306.655    23.021818    21.223665    21.292395    10403.621    11774.641    10553.688    11591.636   -735.34879    132.70892   -1190.7469    -4599.808 
38656000    137.38024   -6673.9058   -6320.5035   -6673.9058            0    12604.925    23.044588    21.109068    21.240887    10332.625    13005.199    12969.158    11840.417   -267.96976    73.715278   -131.73064   -4421.0581 
38657000     132.6129    -6647.515   -6306.3764    -6647.515            0    12595.991    22.988879    21.129407     21.32226    10357.104    12380.331    13545.794    11861.847   -343.32183    288.41542   -589.72994   -4403.7805 
38658000    138.24363    -6663.904   -6308.2807    -6663.904            0     12389.75     22.99589    21.162912     21.32244    10376.779    12434.502    12839.384    11895.365   -75.350123    -251.4704   -733.60445   -4433.2818 
38659000    134.44264   -6650.9355     -6305.09   -6650.9355            0    10518.115    23.064501    21.149291    21.367489    10423.015    10802.285    9868.4346    10883.626    461.06975    509.83622    572.62838    -4706.242 
38660000    136.79335   -6656.5708   -6304.6782   -6656.5708            0    11986.017    23.033757    21.099925    21.349106    10375.891     11972.25    11641.944    12343.858    157.49495     159.4374    444.84001   -4490.9335 
38661000    132.77435   -6663.8381   -6322.2842   -6663.8381            0    11522.689    23.051809    21.223761    21.247018     10395.02    10869.057    11955.275    11743.735    624.48086   -922.40652   -634.49259   -4575.4364 
38662000    135.66947   -6649.8767   -6300.8753   -6649.8767            0    10965.489    23.037019    21.156903    21.349691    10405.668    10251.688    12276.728    10368.053    724.97337    500.45543    611.73399   -4636.7965 
38663000    138.14983    -6652.736   -6297.3539    -6652.736            0    11840.364    22.972773    21.172966    21.350633    10384.985    11739.307    12263.145    11518.641   -31.122849   -70.180937   -409.71965   -4504.0792 
38664000    133.14929   -6661.6847   -6319.1663   -6661.6847            0    10200.683    23.152963     21.16624    21.292166    10434.464    9942.8406    10494.142    10165.065    556.10549   -680.37125   -1110.0034   -4766.8676 
38665000    138.79191   -6652.7884   -6295.7547   -6652.7884            0    12345.371    23.012072    21.123468    21.316302    10361.742    11880.501    12613.126    12542.487    621.50466    273.09494    1257.8661   -4430.1791 
38666000    139.99574    -6648.156   -6288.0255    -6648.156            0    11319.852    22.989729    21.156119     21.42763     10421.83     10572.16    11832.163    11555.233   -447.67479     737.7869     530.9259   -4567.5019 
38667000    129.46223   -6634.6688   -6301.6351   -6634.6688            0    11988.467    23.151358    21.057935    21.310033    10389.063    11562.643     11694.23    12708.528    60.991446   -50.191984   -1730.3678   -4485.2166 
38668000    137.12894   -6640.9352   -6288.1794   -6640.9352            0    10505.365    23.106898    21.156226    21.295438    10410.376    9540.4293    10873.467    11102.199      901.454   -141.37207    844.27573    -4693.206 
38669000    144.73953   -6637.0982   -6264.7646   -6637.0982            0    13030.704    23.013171    21.141421     21.26463    10345.905     13075.45    14217.879    11798.783    869.28923   -168.09173   -335.10027   -4298.6346 
38670000    136.15948   -6652.3356   -6302.0737   -6652.3356            0    12049.063    22.947733    21.185499    21.348982    10379.004    12021.694    12773.352    11352.143    879.37517   -458.69712   -693.10965   -4478.2417 
38671000    127.55827   -6630.4755   -6302.3397   -6630.4755            0      11118.5    23.077996    21.147642    21.313447    10401.925    11321.583     10389.85    11644.068   -844.05347   -226.70864    817.15554   -4615.6475 
38672000    135.34176   -6642.5563   -6294.3978   -6642.5563            0    12067.569    23.150749    21.008696     21.32311    10370.858    12246.133    12369.833    11586.743   -440.30616   -425.99855    196.85651   -4469.1981 
38673000    137.63384   -6659.9207    -6305.866   -6659.9207            0    12505.031    23.031066    21.183152     21.24191    10363.303    11947.087    12864.864    12703.143    625.69776   -720.49415     208.4958   -4415.8788 
38674000    135.94242    -6663.216   -6313.5124    -6663.216            0    11676.735    22.954978    21.140168     21.40636    10387.909    12330.602    12663.007    10036.595    1087.0358     47.58352   -90.597078   -4544.5221 
38675000    136.52919   -6649.9593   -6298.7463   -6649.9593            0    11676.463    22.953349    21.358209     21.20104    10393.649    10876.878    11676.808    12475.704   -166.55164    14.226179   -555.25146   -4528.8197 
38676000    131.82336   -6649.5167   -6310.4092   -6649.5167            0    11970.123    23.049956    21.160238    21.291713    10384.874    11926.937    12144.893     11838.54   -1332.4958    1401.2988    945.65883   -4497.5012 
38677000    143.13555   -6645.6585    -6277.451   -6645.6585            0    11993.827    23.168756     20.97451    21.376017    10387.746     11243.36    12894.923    11843.198     -853.809    916.67666   -17.302102   -4460.4508 
38678000    135.63505   -6645.7866   -6296.8737   -6645.7866            0    11633.739    23.093945    21.058608    21.404674    10409.657    12178.348    12098.709    10624.161   -6.4360045   -489.91964    187.92492   -4530.7072 
38679000    137.35858   -6654.9833   -6301.6367   -6654.9833            0    11363.382    23.033709    21.244629    21.249447     10398.26    12169.211    11858.741    10062.194    414.35424    186.61043   -446.85435   -4578.4031 
38680000    134.53809   -6643.8497   -6297.7587   -6643.8497            0    10713.231    22.844272    21.406176    21.301418    10416.575     11031.78    10248.435    10859.478    571.64438    599.36228   -1305.4539   -4670.2576 
38681000    131.48458   -6640.9668   -6302.7307   -6640.9668            0    12205.938    22.909281    21.206043     21.36391    10378.912    12533.874    12072.354    12011.586     296.4593    243.19036    120.52855   -4455.1692 
38682000    137.89672    -6636.378   -6281.6471    -6636.378            0    12948.325    23.068765    21.088736    21.262086    10343.815    13172.951    11857.244    13814.781     -579.975    525.09802    715.82808   -4328.3413 
38683000    133.73679   -6655.0752   -6311.0454   -6655.0752            0    12459.388    23.108846    21.023849    21.360061    10377.506      11167.4    14264.662    11946.103    433.18544   -51.310533   -193.83847   -4425.3759 
38684000    132.32679   -6660.8561   -6320.4534   -6660.8561            0    10080.679    23.024487    21.272837    21.300974    10433.135    10480.114    8690.0344    11071.889   -412.59151    186.43709     1122.886   -4786.6119 
38685000    142.44831   -6658.0864   -6291.6468   -6658.0864            0    11580.125     22.96292    21.255456    21.312418    10402.321    12225.405    10755.264    11759.708   -102.50563    981.67471   -43.680055   -4534.8586 
38686000    142.66669   -6657.3674   -6290.3661   -6657.3674            0    12142.991    22.989792     21.26515    21.286972    10406.804    13250.058    11180.949    11997.965   -690.75718   -731.56931   -7.5540229   -4447.3933 
38687000    128.76381   -6658.7464   -6327.5093   -6658.7464            0    10962.174    23.079765    21.117694    21.419582     10439.72    10801.529     11717.15    10367.842    435.50833    -1694.152    373.78869   -4658.4898 
38688000    135.39014   -6633.5405   -6285.2576   -6633.5405            0    11529.742    23.139211    21.125486    21.292968    10408.579    11532.857    11301.578    11754.791    206.68273   -681.82334     291.9178   -4535.0606 
38689000    129.93196   -6650.7464   -6316.5044   -6650.7464            0    11917.087    22.991587    21.192951    21.248237    10353.407      12125.8    11361.057    12264.404    166.08366   -268.34129    123.72737   -4517.0979 
38690000    146.91129   -6644.9804   -6267.0601   -6644.9804            0    12161.689    22.920686    21.360463    21.203493    10381.155    12644.782    10945.745    12894.542     2.081062    224.59787    386.73915   -4425.7985 
38691000    136.18105   -6639.7389   -6289.4215   -6639.7389            0    11276.509    23.035097    21.154631    21.392164     10424.38    11688.093    10167.782    11973.652    -643.2531    12.726742   -418.31734   -4575.0664 
38692000    141.16091    -6651.691   -6288.5632    -6651.691            0    12201.678    23.019387    21.149374    21.288601    10364.262    12688.923    12181.511    11734.601   -172.72149   -479.18977    314.57104   -4444.2535 
38693000    133.14011   -6652.7277   -6310.2329   -6652.7277            0    11041.163    23.184928    21.116944    21.240206    10399.095    10902.613    12203.328    10017.546     1114.764   -1129.3809   -306.69976   -4635.7288 
38694000    137.24427   -6658.4951   -6305.4426   -6658.4951            0    10723.854     23.03492    21.055998    21.513185    10434.394    10820.635    11397.485    9953.4422    136.75159   -251.31187    499.23834   -4673.5409 
38695000    136.17015   -6645.8574    -6295.568   -6645.8574            0    10697.626    23.089639    21.264724    21.276919    10446.857    10170.638     10460.12    11462.121   -119.69408    229.95256   -352.11626   -4665.7131 
38696000    135.53168   -6655.6877   -6307.0407   -6655.6877            0    11412.626    23.058088    21.203952    21.264948    10396.913    11288.303    11459.028    11490.547    6.7854249   -236.96453   -571.08356   -4576.5635 
38697000    132.00367    -6636.028   -6296.4566    -6636.028            0    11334.441     22.98312    21.130415    21.440748    10412.546    11891.108    11144.788    10967.427    323.25433    5.2041063    257.26646   -4575.2503 
38698000    140.56612   -6650.0956   -6288.4979   -6650.0956            0    11136.149     23.10358    21.241326    21.156307    10382.472    10194.469    11437.799    11776.179    -93.91601   -582.74127     337.8129   -4602.2878 
38699000    137.91301   -6645.7906   -6291.0178   -6645.7906            0    11995.202    23.044508    21.104071    21.365825    10390.904    12151.521    11826.648    12007.437    778.94634   -1020.4275   -21.605782   -4473.2568 
38700000     129.3329   -6645.0994   -6312.3984   -6645.0994            0    11611.265    23.066118     21.08553    21.392933    10404.695    10883.444    12530.757    11419.592    244.22272    256.10242    501.11938   -4550.4842 
38701000    143.22234   -6668.6824   -6300.2517   -6668.6824            0    10912.927    23.212716    21.159346    21.208583    10416.933    10162.202    10901.022    11675.557   -610.10744   -397.61623    319.87842   -4642.3568 
38702000    132.17598   -6645.6593   -6305.6446   -6645.6593            0    11504.436     23.04734    21.112182    21.376205    10401.226     11385.43    11873.461    11254.416   -402.63297   -260.64444   -1031.9191   -4560.5228 
38703000    131.19883   -6660.3881   -6322.8871   -6660.3881            0    11843.331    22.894315    21.225665    21.327085    10363.834    12116.722    12697.398    10715.872    786.35158    407.82028    -283.7728   -4532.8163 
38704000    129.20807    -6641.317   -6308.9371    -6641.317            0    11217.329    23.004976    21.346819    21.180582    10401.425    11609.038    10051.769    11991.182    451.04246    1221.7346   -522.18242   -4607.3342 
38705000    130.52053   -6655.8843   -6320.1282   -6655.8843            0    10651.211    23.111746    21.129985    21.365092     10433.66    10045.688    11371.795     10536.15    -79.78596    1106.1458   -717.84579   -4699.3948 
38706000    136.36028   -6669.6217   -6318.8432   -6669.6217            0    11950.496    23.055485    21.028325    21.402357    10376.253    12374.658    12637.672    10839.158   -391.90539   -155.83981    181.98017   -4510.4104 
38707000    136.99638   -6667.1492   -6314.7344   -6667.1492            0    11900.351    23.156337     21.03048    21.309048     10377.27    10261.938    13057.488    12381.626    91.210643    88.126358     50.12741   -4513.7135 
38708000    138.20462   -6654.3642   -6298.8412   -6654.3642            0    11565.122    22.980972    21.237423    21.272887    10382.373    12617.942    10741.066    11336.357   -793.46274    1165.3639    644.66343   -4547.6937 
38709000    138.84065   -6647.1413   -6289.9822   -6647.1413            0     11683.69    22.932443    21.299895    21.269308    10389.177    11265.915     12500.26    11284.894    169.89181     206.3164   -289.56331   -4519.7223 
38710000    133.75583   -6645.2547    -6301.176   -6645.2547            0    11836.066    23.011687    21.153233    21.303637    10370.005    12564.797    11401.158    11542.243    904.97878     229.9957    705.68949   -4511.1381 
38711000    137.02929   -6645.9576   -6293.4581   -6645.9576            0    11880.695     23.19662    21.029985    21.317879    10399.385    12120.336    12460.573    11061.175    603.83026     -938.523    340.32286   -4491.5801 
38712000    136.55141   -6665.2302     -6313.96   -6665.2302            0    11127.536    23.116657    21.111048    21.321028    10405.021    10969.183    11145.176    11268.249   -1345.5929    30.455564   -284.21649   -4625.3947 
38713000    131.59579   -6649.6987   -6311.1766   -6649.6987            0    10479.164     23.03951    21.213936    21.339263     10429.75    10323.041     10514.11    10600.339   -137.42132     1409.082    -229.3412   -4717.2202 
38714000    136.24074   -6657.0087   -6306.5377   -6657.0087            0    10378.521    22.952899    21.342594    21.305539    10437.038    10148.712     10135.61    10851.241    318.48978    504.62113    424.63272   -4726.7867 
38715000    131.42405   -6653.1416   -6315.0612   -6653.1416            0    12268.628    23.047538     21.15183    21.255157    10361.838    12541.278    12495.107    11769.499   -621.46661    850.92078   -1315.2036   -4461.0656 
38716000    135.08945   -6645.8222   -6298.3128   -6645.8222            0    12288.513    23.088196    20.993483    21.370145    10358.145    12382.412    12912.689    11570.439    1329.4666   -1259.9891     737.8352   -4441.9741 
38717000     131.7275   -6649.1775   -6310.3165   -6649.1775            0    10701.123    23.261928    21.039875    21.341428    10445.094    9529.4115    12510.733    10063.226   -606.18666   -611.74706    381.96479   -4680.2039 
38718000    138.07413   -6643.9205   -6288.7332   -6643.9205            0    12040.674    23.038162    21.135192    21.333752    10387.745    12081.983    12389.881    11650.158   -125.88521    699.31104    -423.1698   -4464.6362 
38719000    131.89675   -6644.5692   -6305.2729   -6644.5692            0    11676.378    22.868934    21.300229    21.352749    10401.213    13472.593    9501.9914     12054.55      402.274   -137.51043    581.67928   -4534.0712 
38720000    128.50703   -6656.6119   -6326.0354   -6656.6119            0    11309.127    22.948625    21.312511    21.247434    10391.968    11125.843     11534.65    11266.889   -566.10096     965.8698   -1700.1674   -4612.0672 
38721000    129.93536   -6637.9086   -6303.6578   -6637.9086            0    13186.183    23.113205    21.086334    21.241221    10352.393    12991.481    13525.483    13041.583    210.98634   -665.02637   -521.60691   -4312.8208 
38722000    132.76089   -6652.0837   -6310.5644   -6652.0837            0    11215.454    23.123948    21.070501    21.345853    10400.408    10374.001    12994.182    10278.178   -351.10272    850.78052   -237.83497   -4609.4124 
38723000     135.4876   -6657.8012   -6309.2676   -6657.8012            0    11730.124    23.050198    21.170019    21.262084    10375.326    11007.922    11417.876    12764.573    -7.212916   -29.927962   -269.52605   -4534.3417 
38724000    145.46831   -6660.6415   -6286.4332   -6660.6415            0    11417.323     22.87666    21.226408    21.391194    10387.336    11626.215    10299.395    12326.359    859.35554    609.00848    660.47929   -4556.8385 
38725000    134.47477   -6661.5628   -6315.6346   -6661.5628            0    11201.889    22.977124    21.282175    21.302525    10417.002    10608.291     11370.92    11626.455   -483.35794    436.58839   -599.01863   -4613.8292 
38726000    136.05141   -6657.5071   -6307.5231   -6657.5071            0    11047.586    23.157073    21.083215    21.335388    10416.482    10154.378    12457.497    10530.883    69.227331    973.16768   -530.32831   -4629.2435 
38727000    150.24873   -6643.2007    -6256.695   -6643.2007            0    13595.482    23.062602    21.046598    21.270169    10324.313    13490.538    13690.151    13605.757    579.32668    -995.4028    247.16977   -4209.6299 
38728000    144.10825   -6643.8189   -6273.1093   -6643.8189            0    12716.078    23.035171    21.178811    21.227947    10356.214    12987.209    11682.663    13478.362   -234.33178    360.31039   -624.66422   -4352.5395 
38729000    134.72765   -6636.8187   -6290.2401   -6636.8187            0     11971.36    22.838476    21.162064     21.48588    10384.325    12899.394    12583.544    10431.142    403.66756    916.48084   -46.330564   -4477.2406 
38730000      140.044   -6636.4775   -6276.2228   -6636.4775            0    12566.517    23.052903    21.167381    21.231004    10360.084    12811.101    11391.836    13496.614    464.09414      949.667    629.38586   -4377.5327 
38731000    142.92031   -6653.4713   -6285.8175   -6653.4713            0    11374.156    23.102438    21.118203    21.339943    10411.373    9825.5417    12884.407    11412.519   -757.76902    75.622453   -197.49065   -4558.7748 
38732000    137.14512   -6646.2572   -6293.4598   -6646.2572            0    12158.251    23.156698    20.917242    21.440335    10385.147    13262.253    12489.386    10723.115   -1236.4735   -427.61844   -629.44768    -4452.011 
38733000    133.94915   -6645.5806   -6301.0045   -6645.5806            0    13070.529     23.15327    21.148626     21.11682    10340.059    12700.674    12537.565    13973.347   -227.73877   -54.969949   -337.24103   -4329.9799 
38734000    136.09995   -6651.9224   -6301.8136   -6651.9224            0     11564.89    22.932138    21.174703    21.423363    10402.782    11341.724    12636.893    10716.052    683.91354    15.646144     56.77971    -4547.259 
38735000    139.19615   -6660.1188   -6302.0452   -6660.1188            0    12033.969    23.004827     21.18642    21.292629    10377.813     11692.01    11860.802    12549.095    59.156177    678.82878   -322.28443   -4480.7069 
38736000    132.77975   -6642.0575   -6300.4897   -6642.0575            0    12064.089    23.063077    21.181963    21.220835    10366.829    12212.621     12047.09    11932.557    -503.6792   -46.597257   -281.51486   -4476.5252 
38737000    132.08452   -6651.2492   -6311.4698   -6651.2492            0    12432.476    22.985413    21.044254    21.478334    10389.303    13285.337    12896.282     11115.81    279.05261   -533.41497   -897.99714   -4427.7342 
38738000    137.73267   -6634.0528   -6279.7439   -6634.0528            0    12051.491    23.135762    21.165284    21.216077    10388.982    12021.303     12041.88    12091.289     404.6616   -395.18265    230.33102   -4453.7906 
38739000    128.33372   -6640.7256    -6310.595   -6640.7256            0    11130.476    23.055348    21.211325    21.274644    10404.034    11218.615    11657.023    10515.789   -7.0802828   -1074.5303    516.10953   -4621.7437 
38740000    142.18904    -6662.043   -6296.2704    -6662.043            0    11679.012    23.011561    21.145677    21.391502    10408.999    12152.876    11726.541    11157.618    1036.3984    624.42919   -868.34566    -4523.343 
38741000    136.34468   -6655.3162   -6304.5778   -6655.3162            0    12405.959    23.034215    21.203507    21.216502     10362.27    13052.517    11254.589    12910.772   -21.287158    89.109654   -368.13677    -4429.751 
38742000    140.55554   -6667.6612   -6306.0907   -6667.6612            0    11617.457    23.109186    21.120856    21.262942     10378.14    11407.332    11312.298    12132.741    -945.3655   -406.72527    1084.8709    -4547.736 
38743000    136.61083   -6647.3316   -6295.9086   -6647.3316            0    12078.772    23.060564    21.116729    21.375091    10408.893    12091.855    12896.246    11248.216    203.78296   -596.75785   -976.76322   -4462.3144 
38744000    135.59343   -6656.5656   -6307.7597   -6656.5656            0    10589.101    23.034509    21.215413     21.35368    10435.258    9537.1279     11563.04    10667.136    741.46651    712.05209     781.1389   -4696.2306 
38745000    137.39351   -6630.1737   -6276.7373   -6630.1737            0    12040.203    23.097551    21.154341    21.292349    10403.729    11838.486    11845.384    12436.739    1202.6859   -226.64138   -252.83242   -4449.9048 
38746000     138.5853   -6670.5153   -6314.0131   -6670.5153            0    11237.385    22.877859    21.222984     21.47363     10426.23    11782.394    12119.799    9809.9611   -511.97887   -284.14286   -1658.9595   -4605.3028 
38747000      134.122    -6649.799   -6304.7783    -6649.799            0    10625.797    23.061384    21.189441    21.330076    10423.109    10462.648    10266.394    11148.349    997.93216    -346.3517    940.28749   -4689.5472 
38748000    139.15618   -6655.0049   -6297.0341   -6655.0049            0    11126.556    23.048785    21.212679    21.339064    10433.233    10516.095    10985.634    11877.939     1365.934    61.018687   -82.328763   -4604.0395 
38749000    140.33097   -6672.4806   -6311.4877   -6672.4806            0    11441.527    23.001659    21.165538    21.368313    10403.003    12216.895    11218.778    10888.909   -200.37882   -662.87643   -144.22087   -4575.6121 
38750000    137.76981   -6627.4508   -6273.0463   -6627.4508            0    11494.892    23.167178    21.158125     21.27241    10427.183    11860.529    10648.656     11975.49   -193.91599    710.17388    810.71893   -4525.0208 
Loop time of 517.107 on 64 procs for 250000 steps with 1296 atoms

Performance: 83.542 ns/day, 0.287 hours/ns, 483.459 timesteps/s
99.2% CPU use with 64 MPI tasks x 1 OpenMP threads

MPI task timing breakdown:
Section |  min time  |  avg time  |  max time  |%varavg| %total
---------------------------------------------------------------
Pair    | 30.61      | 41.999     | 53.038     | 109.5 |  8.12
Bond    | 0.28077    | 0.28702    | 0.29407    |   0.6 |  0.06
Kspace  | 258.93     | 269.88     | 281.5      |  43.4 | 52.19
Neigh   | 1.7832     | 1.798      | 1.8119     |   0.6 |  0.35
Comm    | 88.568     | 91.224     | 94.18      |  17.7 | 17.64
Output  | 0.6223     | 0.62396    | 0.62627    |   0.1 |  0.12
Modify  | 100.43     | 103.04     | 105.06     |  13.0 | 19.93
Other   |            | 8.254      |            |       |  1.60

Nlocal:        20.2500 ave          26 max          14 min
Histogram: 6 7 4 3 7 7 12 4 7 7
Nghost:        2694.17 ave        2717 max        2671 min
Histogram: 5 3 6 9 7 10 8 4 11 1
Neighs:        6700.03 ave        8624 max        4593 min
Histogram: 5 8 4 3 8 6 12 4 7 7

Total # of neighbors = 428802
Ave neighs/atom = 330.86574
Ave special neighs/atom = 2.0000000
Neighbor list builds = 3484
Dangerous builds = 0

unfix		3
unfix		2
unfix		1

write_data	data.final.${pid}
write_data	data.final.0
System init for write_data ...
PPPM initialization ...
  extracting TIP4P info from pair style
  using 12-bit tables for long-range coulomb (../kspace.cpp:340)
  G vector (1/distance) = 0.37182914
  grid = 30 40 32
  stencil order = 5
  estimated absolute RMS force accuracy = 0.0036255098
  estimated relative force accuracy = 1.0918115e-05
  using double precision FFTW3
  3d grid and FFT values/proc = 5168 640
Last active /omp style is kspace_style pppm/tip4p/omp
WARNING: Not all mixed pair coeffs generated from mixing. Use write_data with 'pair ij' option to store all pair coeffs. (../write_data.cpp:312)

write_restart   restart.lmp.${pid}
write_restart   restart.lmp.0
System init for write_restart ...
PPPM initialization ...
  extracting TIP4P info from pair style
  using 12-bit tables for long-range coulomb (../kspace.cpp:340)
  G vector (1/distance) = 0.37182914
  grid = 30 40 32
  stencil order = 5
  estimated absolute RMS force accuracy = 0.0036255098
  estimated relative force accuracy = 1.0918115e-05
  using double precision FFTW3
  3d grid and FFT values/proc = 5168 640
Last active /omp style is kspace_style pppm/tip4p/omp
Total wall time: 0:08:37
