LAMMPS (30 Jul 2021)
  using 1 OpenMP thread(s) per MPI task
package omp 0
using multi-threaded neighbor list subroutines
echo both

include		in.partitions
variable        pid world 0
include		in.temp
variable        temperature equal 268.83
variable	tempDamp equal 100.0
include		in.pressure
variable        pressure equal 11375.0
variable        pressureDamp equal 1000.0 # This is 1 ps
include		in.seed
variable        seed world 745823

units		real
atom_style	full
read_restart	restart.lmp.${pid}
read_restart	restart.lmp.0
Reading restart file ...
  restart file = 30 Jul 2021, LAMMPS = 30 Jul 2021
  restoring atom style full from restart
  orthogonal box = (0.68282209 1.8958055 0.83304136) to (17.524750 21.733372 21.380154)
  4 by 4 by 4 MPI processor grid
  restoring pair style lj/cut/tip4p/long/omp from restart
  restoring bond style harmonic/omp from restart
  restoring angle style harmonic/omp from restart
  864 atoms
  576 bonds
  288 angles
Finding 1-2 1-3 1-4 neighbors ...
  special bond factors lj:    0        0        0       
  special bond factors coul:  0        0        0       
     2 = max # of 1-2 neighbors
     1 = max # of 1-3 neighbors
     1 = max # of 1-4 neighbors
     2 = max # of special neighbors
  special bonds CPU = 0.039 seconds
  read_restart CPU = 0.167 seconds
include 	in.setup
variable	out_freq equal 1000
variable	out_freq2 equal 10000
variable	out_freq3 equal 1000

timestep	2.0

neigh_modify    delay 7 every 1

include		in.tip4p
# This is TIP4P/Ice

# create groups ###
group ox type 2
288 atoms in group ox
group hy type 1
576 atoms in group hy

# set charges - beside manually ###
set group ox charge -1.1794
Setting atom values ...
  288 settings made for charge
set group hy charge 0.5897
Setting atom values ...
  576 settings made for charge

# ### TIP3P Potential Parameters ###
pair_style lj/cut/tip4p/long/omp 2 1 1 1 0.1577 8.5
pair_coeff 1 1*2 0.000 0.000
pair_coeff 2 2 0.21084 3.1668
bond_style  harmonic
bond_coeff  1 450 0.9572
angle_style harmonic
angle_coeff 1 55 104.52
kspace_style pppm/tip4p/omp 1.0e-5
pair_modify tail yes

thermo          ${out_freq}
thermo          1000
thermo_style    custom step temp pe etotal epair emol press lx ly lz vol pxx pyy pzz pxy pxz pyz enthalpy

restart 	${out_freq3} restart.lmp.${pid} restart2.lmp.${pid}
restart 	1000 restart.lmp.${pid} restart2.lmp.${pid}
restart 	1000 restart.lmp.0 restart2.lmp.${pid}
restart 	1000 restart.lmp.0 restart2.lmp.0


include         in.dump
dump            myDump all atom ${out_freq2} dump.water.${pid}
dump            myDump all atom 10000 dump.water.${pid}
dump            myDump all atom 10000 dump.water.0
dump            myDump2 all dcd ${out_freq2} dump.dcd
dump            myDump2 all dcd 10000 dump.dcd
dump_modify     myDump append yes
dump_modify     myDump2 append yes


variable natoms 	equal  "count(all)"                        # NUMBER ATOMS
variable H      	equal  "enthalpy/v_natoms"                 # ENTHALPY-per-atom
variable Vol      	equal  "vol/v_natoms"                 # volume-per-atom
fix AVG all 		ave/time ${out_freq} 1 ${out_freq} v_Vol v_H file vol_enthalpy.dat
fix AVG all 		ave/time 1000 1 ${out_freq} v_Vol v_H file vol_enthalpy.dat
fix AVG all 		ave/time 1000 1 1000 v_Vol v_H file vol_enthalpy.dat


timer           timeout 23:50:00 every 1000
New timer settings: style=normal  mode=nosync  timeout=23:50:00

fix 		1 all shake 1e-6 200 0 b 1 a 1
       0 = # of size 2 clusters
       0 = # of size 3 clusters
       0 = # of size 4 clusters
     288 = # of frozen angles
  find clusters CPU = 0.015 seconds
fix             2 all nph iso ${pressure} ${pressure} ${pressureDamp}
fix             2 all nph iso 11375 ${pressure} ${pressureDamp}
fix             2 all nph iso 11375 11375 ${pressureDamp}
fix             2 all nph iso 11375 11375 1000
fix             3 all temp/csvr ${temperature} ${temperature} ${tempDamp} ${seed}
fix             3 all temp/csvr 268.83 ${temperature} ${tempDamp} ${seed}
fix             3 all temp/csvr 268.83 268.83 ${tempDamp} ${seed}
fix             3 all temp/csvr 268.83 268.83 100 ${seed}
fix             3 all temp/csvr 268.83 268.83 100 745823

run             250000
PPPM initialization ...
  extracting TIP4P info from pair style
  using 12-bit tables for long-range coulomb (../kspace.cpp:340)
  G vector (1/distance) = 0.37490958
  grid = 24 24 24
  stencil order = 5
  estimated absolute RMS force accuracy = 0.0030878534
  estimated relative force accuracy = 9.2989789e-06
  using double precision FFTW3
  3d grid and FFT values/proc = 2535 216
Last active /omp style is kspace_style pppm/tip4p/omp
Neighbor list info ...
  update every 1 steps, delay 7 steps, check yes
  max neighbors/atom: 2000, page size: 100000
  master list distance cutoff = 10.8154
  ghost atom cutoff = 10.8154
  binsize = 5.4077, bins = 4 4 4
  1 neighbor lists, perpetual/occasional/extra = 1 0 0
  (1) pair lj/cut/tip4p/long/omp, perpetual
      attributes: half, newton on, omp
      pair build: half/bin/newton/omp
      stencil: half/bin/3d
      bin: standard
Per MPI rank memory allocation (min/avg/max) = 9.236 | 9.241 | 9.244 Mbytes
Step Temp PotEng TotEng E_pair E_mol Press Lx Ly Lz Volume Pxx Pyy Pzz Pxy Pxz Pyz Enthalpy 
29500000    277.08275   -3825.3358   -3350.4254   -3825.3358            0    10796.099    16.841928    19.837567    20.547113    6864.8496    12193.758    9389.9434    10804.595    956.04373   -325.02654   -1701.2903   -2269.5547 
29501000    274.26782   -3841.1115   -3371.0258   -3841.1115            0    11274.279    16.798632     19.78657    20.494292    6812.0429    10886.216    12560.098    10376.524    2019.1055    190.11034    1226.7642   -2250.9638 
29502000     270.7692   -3831.1644   -3367.0752   -3831.1644            0    11392.195    16.824872    19.817477    20.526305    6844.0143    11472.243    11075.332     11629.01   -595.64592     1538.157    712.00171   -2229.9869 
29503000    278.49956   -3854.0968   -3376.7581   -3854.0968            0     10042.07    16.836705    19.831414     20.54074    6858.4642    11293.299    7964.2743    10868.636   -872.05568    314.24105    734.50658   -2372.3135 
29504000    258.29686   -3861.5276   -3418.8156   -3861.5276            0    10798.128    16.842447    19.838178    20.547746    6865.4842    12393.961    12313.019    7687.4051   -302.67987   -232.21025    534.95038   -2337.6417 
29505000    265.03048   -3822.5052    -3368.252   -3822.5052            0    11187.676    16.811298    19.801488    20.509744     6827.462    11443.211    10706.208     11413.61    668.36143    138.08528    1195.2182    -2254.278 
29506000    271.22402   -3829.1923   -3364.3236   -3829.1923            0    11154.026    16.804002    19.792895    20.500843    6818.5775    10135.237    11089.713    12237.129   -2000.9094   -408.48807    303.48222   -2255.1454 
29507000    273.93921   -3857.7678   -3388.2454   -3857.7678            0    12631.189    16.775326    19.759119    20.465859    6783.7295    11732.975     15276.01    10884.581    502.99276   -1921.5398   -2818.7542   -2138.5947 
29508000     267.0519   -3817.5546   -3359.8368   -3817.5546            0    10232.919    16.875387    19.876977    20.587933    6905.8452    8468.3355    12282.654    9947.7693   -264.51149   -297.94809    -2109.825   -2329.2317 
29509000    277.49238   -3812.4681   -3336.8557   -3812.4681            0    12097.236    16.763911    19.745673    20.451933    6769.8908    12440.202    13687.257    10164.251    386.82179   -358.57912     343.3541   -2142.4724 
29510000    263.97533   -3820.4728   -3368.0281   -3820.4728            0    12643.928    16.748817    19.727894    20.433517    6751.6198     11735.51    12364.227    13832.047    1318.6499   -828.58027   -1244.4262   -2123.0381 
29511000    276.32777   -3847.9425   -3374.3261   -3847.9425            0    10885.915    16.774458    19.758096      20.4648    6782.6763    11536.451    10695.763    10425.531   -315.97846     645.4909    689.00189   -2297.5091 
29512000    281.59399   -3817.3879   -3334.7454   -3817.3879            0    11792.992    16.826721    19.819655    20.528561    6846.2711     14704.57    12822.422    7851.9839   -1139.5746     1848.953   -1019.7189   -2157.2642 
29513000    270.99771   -3775.0949   -3310.6141   -3775.0949            0    11915.765    16.809186    19.799001    20.507168    6824.8899     12086.31    12793.541    10867.443   -1110.2594    545.28611   -132.34363   -2124.5901 
29514000    259.83431   -3811.9824   -3366.6352   -3811.9824            0    10684.772    16.840929     19.83639    20.545894    6863.6277    10983.396    8767.8579    12303.062   -1713.5333   -276.93499    864.17474   -2297.1006 
29515000    265.01113   -3830.7706   -3376.5506   -3830.7706            0    11608.744    16.823491     19.81585     20.52462    6842.3288    11805.043    11455.281    11565.908   -2115.0874   -1287.7673   -338.48083   -2218.1332 
29516000    270.12457   -3841.0464   -3378.0621   -3841.0464            0    10857.571    16.849482    19.846464    20.556328    6874.0902    10976.095     11384.93    10211.688   -89.415725    835.57233    1908.2039   -2289.5738 
29517000    266.65856   -3824.1125   -3367.0688   -3824.1125            0    12331.573    16.827028    19.820016    20.528934    6846.6449    13645.195    12226.594    11122.929    145.34325    275.55488    370.08693   -2135.7453 
29518000      261.174   -3856.4807   -3408.8374   -3856.4807            0    10109.294    16.833656    19.827823    20.537021    6854.7387    10926.961    10852.727    8548.1945    472.90212    -633.8229   -497.00314    -2398.218 
29519000    272.30481   -3848.5235   -3381.8024   -3848.5235            0    10017.575    16.887548    19.891301    20.602769    6920.7851    9663.8598    9900.4865     10488.38    676.38397    347.35944    205.82724   -2370.7029 
29520000    263.00415   -3864.5314   -3413.7513   -3864.5314            0    10154.453    16.829955    19.823464    20.532506    6850.2194    9889.3628    9463.4093    11110.588     330.0243   -1359.4887    1022.4098   -2399.2867 
29521000    270.64868   -3859.2526     -3395.37   -3859.2526            0    10262.745    16.873506    19.874761    20.585638    6903.5355    11220.694     9495.954    10071.588    225.41728   -1109.0987    67.747272   -2362.1067 
29522000    276.76564   -3838.9234   -3364.5565   -3838.9234            0    11410.433    16.857935    19.856421    20.566642    6884.4418    9254.6277    12281.271    12695.399    704.70311    205.57526   -645.37164   -2218.9203 
29523000    264.67476   -3859.8142   -3406.1707   -3859.8142            0    11203.663    16.859269    19.857991    20.568268    6886.0754    9138.6253    12590.863    11881.501    1151.6539    1223.2843   -1368.7037   -2281.0278 
29524000    278.37993   -3817.8176    -3340.684   -3817.8176            0     11745.54    16.822117    19.814231    20.522943    6840.6522    11201.162    11976.077     12059.38   -780.04289   -362.69011    855.02916   -2168.9032 
29525000    270.05335   -3838.7853   -3375.9231   -3838.7853            0    12341.177    16.838848    19.833938    20.543355    6861.0831    13538.341    13578.071    9907.1192    282.42033    50.960262    936.30782   -2141.0419 
29526000    276.63698   -3821.7442   -3347.5979   -3821.7442            0    13827.605    16.807449    19.796955    20.505048    6822.7741    11254.912    14923.964    15303.939   -816.16571   -828.77746    1575.8248   -1971.7075 
29527000    272.97527   -3829.5591   -3361.6888   -3829.5591            0    12777.979    16.787583    19.773556    20.480813    6798.6102     12041.25    12764.546    13528.142   -958.52672   -29.311224    834.22106   -2094.7425 
29528000    257.50506   -3879.0893   -3437.7344   -3879.0893            0    9323.9555    16.864385    19.864018    20.574511    6892.3469    10702.223    5817.5731    11452.071    561.59885    690.06736    2324.7054   -2500.5108 
29529000    258.57432   -3876.6423   -3433.4547   -3876.6423            0    11783.028    16.799734    19.787867    20.495636    6813.3829    11236.474     12275.57    11837.039    464.51037   -1048.3286    1283.3351   -2262.6201 
29530000    264.52049   -3806.4209   -3353.0419   -3806.4209            0    11330.117    16.800609    19.788898    20.496703    6814.4473    10347.096    12895.564    10747.692   -288.32118   -525.71722    2186.5134   -2227.0352 
29531000    276.78966   -3833.0698   -3358.6618   -3833.0698            0    9060.0963    16.831178    19.824904    20.533997    6851.7119    8965.9903    10795.487    7418.8113   -986.10844   -987.53806   -87.511572   -2453.3299 
29532000    258.06217   -3810.0749   -3367.7652   -3810.0749            0    11116.575    16.765884    19.747996    20.454339    6772.2805    11121.083    11708.984    10519.659   -1458.9731   -114.06224    371.91749    -2269.817 
29533000    276.96852   -3876.6518   -3401.9373   -3876.6518            0    12816.133    16.770982    19.754002    20.460559     6778.461    10194.739    14044.361    14209.299   -428.23337    575.62894    -13.63236   -2134.9741 
29534000    258.39003   -3862.9307    -3420.059   -3862.9307            0     11987.96    16.797698     19.78547    20.493152    6810.9063    10863.918    11970.307    13129.655    1167.2769   -170.16719    527.82283   -2229.2939 
29535000     261.9609   -3871.3048   -3422.3128   -3871.3048            0    11248.951    16.782928    19.768073    20.475133     6792.956    12918.617    9680.7332    11147.502   -201.07575   -194.64866    2009.5943   -2307.8984 
29536000    263.67229   -3862.5811   -3410.6558   -3862.5811            0    11130.292    16.861804    19.860977    20.571361    6889.1821    10938.611    9522.2964    12929.968    210.93451    501.57055    693.66144    -2292.377 
29537000    276.65612   -3835.4282   -3361.2491   -3835.4282            0    10310.599    16.817086    19.808306    20.516806    6834.5171    9279.2146    11204.401    10448.181    630.84341    1229.7773   -171.69536   -2333.5461 
29538000    265.78696   -3829.2043   -3373.6546   -3829.2043            0    11749.933    16.801049    19.789416     20.49724    6814.9831    9735.2448    12036.123     13478.43    373.18182   -699.23873   -499.03082   -2205.8342 
29539000    267.37064   -3825.1467   -3366.8826   -3825.1467            0    10489.622    16.805039    19.794116    20.502108    6819.8393    11278.948    9933.6751    10256.244   -540.12001   -891.56109    786.75954    -2323.581 
29540000    262.65694   -3852.5414   -3402.3564   -3852.5414            0    9625.6776     16.82326    19.815578    20.524338    6842.0469        10808    10386.829     7682.204    1408.9164    1048.3217   -230.57333   -2441.8655 
29541000    261.16995   -3811.8173    -3364.181   -3811.8173            0    12588.276    16.727761    19.703093     20.40783    6726.1889    12498.636    13332.432     11933.76    765.38218   -418.82522   -1045.6087   -2129.3395 
29542000    274.72039   -3851.7685   -3380.9071   -3851.7685            0    12467.039    16.740204    19.717749    20.423009     6741.209    12725.067    12170.549    12505.501   -516.20904   -194.10351   -503.30865   -2155.2274 
29543000    273.29044    -3820.706   -3352.2956    -3820.706            0    13347.783    16.732413    19.708572    20.413504    6731.8013    14314.224    13211.515    12517.609    142.70432   -26.501155   -882.95993    -2041.858 
29544000    269.63896   -3836.4199    -3374.268   -3836.4199            0    12459.936    16.704721    19.675954     20.37972    6698.4334    12381.889    12255.794    12742.124    -818.4638   -165.50539   -1446.0686   -2157.0596 
29545000    252.38849   -3873.8985   -3441.3132   -3873.8985            0    10241.333    16.806085    19.795348    20.503384    6821.1127    10794.098    9770.1736    10159.728    409.35975    414.81019   -395.45998   -2422.5164 
29546000    285.35786   -3851.8903   -3362.7967   -3851.8903            0      12736.6    16.761591     19.74294    20.449102    6767.0798    11199.073    11145.736    15864.992    958.50252    1247.3222   -1257.1747   -2105.8099 
29547000    256.94368   -3851.6623   -3411.2696   -3851.6623            0    10089.877    16.819668    19.811347    20.519955    6837.6651    8308.1665    11122.005     10839.46   -695.10827    -116.4552   -1405.2199   -2405.1037 
29548000    276.96021   -3866.9429   -3392.2426   -3866.9429            0    11631.871    16.810889    19.801007    20.509246    6826.9649    10197.732    11267.337    13430.544    1940.6369    801.06179   -978.08783   -2234.1237 
29549000    274.82685   -3855.7499    -3384.706   -3855.7499            0    10795.528    16.828321    19.821539    20.530512    6848.2237    10747.231    10602.425    11036.928   -774.72948    168.02371    294.08075     -2306.51 
29550000    258.04507   -3863.5616   -3421.2812   -3863.5616            0    11838.669    16.841706    19.837306    20.546842    6864.5784    12304.347    9388.7218    13822.938    497.39375   -772.40719    1945.6427   -2236.0785 
29551000    276.64895   -3856.0315   -3381.8647   -3856.0315            0    11208.656    16.851347     19.84866    20.558603    6876.3728    10210.036    12984.968    10430.963   -865.75687   -558.84651    339.52387   -2257.8064 
29552000    273.17745   -3867.8466   -3399.6298   -3867.8466            0    14650.463    16.797176    19.784855    20.492516    6810.2717     15565.93    14465.004    13920.456    401.16036    -1406.498   -695.47979   -1944.5337 
29553000    264.11996   -3843.4364   -3390.7439   -3843.4364            0    12396.899    16.840955    19.836421    20.545926    6863.6601    11843.977    14210.663    11136.057    871.01648     675.7119    1589.6203   -2149.8212 
29554000    270.70054   -3835.8732   -3371.9017   -3835.8732            0    10550.688    16.849458    19.846436    20.556299    6874.0609    11946.939    10758.195    8946.9292    251.44935   -292.02613   -161.47524   -2314.1834 
29555000    266.09062   -3856.2961   -3400.2259   -3856.2961            0    11046.196    16.856864     19.85516    20.565335    6883.1299    9952.0911    13397.994    9788.5045    771.18497    -178.5478   -732.78736   -2291.3712 
29556000    268.07086   -3797.4202   -3337.9559   -3797.4202            0    12614.012    16.807023    19.796453    20.504528    6822.2551    12935.896    11873.683    13032.457     -391.494   -869.43158   -1542.7433   -2082.9173 
29557000    271.63064   -3886.6629   -3421.0972   -3886.6629            0    11082.496    16.870855    19.871639    20.582404    6900.2828     11754.08    9498.8236    11994.584    507.44346     127.8829    1144.0391   -2305.8264 
29558000     272.4564   -3861.1674   -3394.1864   -3861.1674            0    12636.778    16.825462    19.818172    20.527024    6844.7343    10155.357    14533.804    13221.172    235.69131   -756.54519    2278.6422   -2132.7399 
29559000    264.41836   -3848.2543   -3395.0503   -3848.2543            0    12260.947     16.82084    19.812727    20.521385    6839.0943    11816.064    12120.839    12845.937    1025.2446    1486.0807     636.8676   -2172.1291 
29560000    260.19287   -3848.7673   -3402.8056   -3848.7673            0    12874.859    16.785469    19.771065    20.478233    6796.0413     14888.62    12863.198    10872.761    364.38314   -62.175336    1314.6818   -2126.7359 
29561000    263.07323   -3812.4265    -3361.528   -3812.4265            0    12703.142    16.802229    19.790806     20.49868    6816.4193    12207.763    12683.546    13218.116    933.39554   -549.74333   -63.207111   -2098.7025 
29562000    277.71014    -3829.232   -3353.2463    -3829.232            0    11816.907     16.78075    19.765506    20.472475    6790.3109    14290.553     9730.751    11429.417   -91.290797   -2416.7596    1461.0553   -2183.0214 
29563000    286.19394   -3840.8929   -3350.3663   -3840.8929            0    10415.181    16.846437    19.842878    20.552614    6870.3647    10364.988    10562.894    10317.661    137.79576   -366.94676   -343.47542   -2306.7941 
29564000    260.82886    -3823.488   -3376.4363    -3823.488            0    11276.888     16.86088     19.85989    20.570234    6888.0502    9947.2393    9914.0888    13969.336    505.46298    400.28653   -691.31273   -2243.6149 
29565000    244.20961    -3822.054   -3403.4871    -3822.054            0    12340.856     16.81655    19.807675    20.516152    6833.8635    12662.303    12033.938    12326.328    -461.7987   -1625.0215   -1144.1483    -2173.537 
29566000    275.69771   -3816.7919   -3344.2554   -3816.7919            0     11572.17    16.878464    19.880601    20.591687    6909.6231    13011.699    11697.521    10007.288    -1009.215    451.83101    1040.7103   -2178.1306 
29567000    255.37751   -3856.4016   -3418.6932   -3856.4016            0    11187.834    16.806416    19.795738    20.503788    6821.5161    12919.453    11683.734    8960.3138   -943.06522   -801.69144   -700.90493   -2305.6737 
29568000    274.01497   -3851.3626   -3381.7104   -3851.3626            0    10789.454    16.844622    19.840739    20.550399    6868.1436    10674.834    11385.695    10307.832   -923.68084   -468.82649    1111.5121   -2300.9865 
29569000    274.63467   -3901.3618   -3430.6473   -3901.3618            0    9909.7694    16.795601       19.783    20.490594    6808.3558    8521.5307    9872.3229    11335.455   -62.025156   -418.18068    650.94843   -2446.6777 
29570000     258.1897   -3823.6608   -3381.1325   -3823.6608            0     12484.05    16.799571    19.787676    20.495438    6813.1852    13625.905     11179.22    12647.024   -89.398215     169.8706   -2937.6987   -2140.6759 
29571000    263.96473   -3839.9959   -3387.5694   -3839.9959            0    9345.9013    16.846853    19.843367    20.553121     6870.873    8019.4367    9233.0451    10785.222   -1148.1209    93.267374   -365.69305   -2451.0668 
29572000    284.74198   -3810.6351   -3322.5971   -3810.6351            0    10713.761     16.88192    19.884671    20.595902    6913.8678    9734.7061    9930.6855    12475.892   -667.25779   -504.65346   -455.94025   -2242.3106 
29573000     268.8912   -3882.3718   -3421.5015   -3882.3718            0    10737.537    16.830878    19.824551    20.533632    6851.3461    10486.846    12063.926    9661.8401   -117.21664    573.44888   -731.36342   -2348.6083 
29574000    270.35562   -3849.9276   -3386.5473   -3849.9276            0    10706.658    16.812524    19.802933     20.51124    6828.9564    12500.344    10464.083    9155.5474    -635.7664    1292.0086   -633.33598   -2320.2356 
29575000    270.77767   -3841.8401   -3377.7364   -3841.8401            0    11913.908    16.723628    19.698224    20.402787    6721.2035    10369.389    14346.324    11026.011   -189.20624   -935.36726    1419.9447    -2209.913 
29576000    254.94886   -3805.0495   -3368.0758   -3805.0495            0    12579.015    16.818172    19.809585     20.51813    6835.8406    13353.751    11065.513    13317.782    59.551935   -164.53754   -1931.7619    -2114.027 
29577000    269.01518   -3847.0091   -3385.9263   -3847.0091            0    12369.229    16.764957    19.746905    20.453208    6771.1573     13059.34    13904.018    10144.328   -296.44695    1486.1536    106.08434   -2164.4602 
29578000    283.39944   -3842.7334   -3356.9964   -3842.7334            0    12909.702    16.817285     19.80854    20.517048    6834.7595    11568.946    15936.537    11223.622   -970.21543   -1815.3793    347.20719   -2070.1837 
29579000    276.49308   -3868.9443   -3395.0446   -3868.9443            0    11052.936    16.792474    19.779316    20.486779    6804.5537    9753.9926    10368.741    13036.073   -66.606639   -67.817753   -639.33021   -2298.1796 
29580000    281.05634   -3833.5273   -3351.8063   -3833.5273            0    11082.866     16.80516    19.794258    20.502256    6819.9867    10077.141    10727.784    12443.673   -2881.5082    833.07122   -220.11065   -2249.4767 
29581000    274.93573    -3854.894   -3383.6636    -3854.894            0    12388.208    16.766736    19.749001    20.455379    6773.3136    13509.195    10964.146    12691.285     741.6752    315.12059    953.19228   -2159.9337 
29582000    253.17574   -3854.8375    -3420.903   -3854.8375            0    10923.653    16.782769    19.767885    20.474939    6792.7627    9988.7628    11990.117    10792.078   -103.98982    359.05827    1157.1169   -2338.7461 
29583000    268.05424    -3876.636   -3417.2002    -3876.636            0     9905.936    16.793929    19.781031    20.488555    6806.3232     11077.37    9200.2995    9440.1381   -876.71059   -1564.2112    436.00776   -2433.9049 
29584000    284.64891    -3851.909   -3364.0305    -3851.909            0    12013.507    16.817126    19.808353    20.516854    6834.5653    12912.653    11973.189    11154.678    204.90051    -1498.123   -645.67742   -2166.5828 
29585000     274.9331   -3863.5096   -3392.2837   -3863.5096            0    14610.235    16.704577    19.675785    20.379545    6698.2603    14697.372    15951.477    13181.855   -1365.2907     720.8985   -24.109366   -1965.0499 
29586000    258.25903   -3848.2348   -3405.5876   -3848.2348            0    9850.3261    16.825903    19.818691    20.527562    6845.2719    9385.9539     9660.465    10504.559   -771.15879    706.54314   -506.20148   -2422.2171 
29587000    266.33765   -3859.0254   -3402.5318   -3859.0254            0     12531.35    16.722019     19.69633    20.400824    6719.2647    12152.369    13743.246    11698.434     373.1142     1764.967    730.70484   -2174.5399 
29588000    267.25128   -3808.6018   -3350.5422   -3808.6018            0    10357.947    16.839935    19.835219    20.544681     6862.412    8645.7923    10110.607    12317.443    1578.8307   -972.81862   -717.84417    -2313.906 
29589000    254.71619   -3864.1369   -3427.5621   -3864.1369            0    11785.846     16.83107    19.824777    20.533866    6851.5808    9590.4094     13862.78     11904.35   -504.09928    736.96141    1365.6203   -2249.8817 
29590000    265.62041   -3849.0221   -3393.7578   -3849.0221            0    11639.475     16.76749    19.749889    20.456299    6774.2274     11371.54    11734.012    11812.873    464.05238   -972.42018   -1354.9069    -2243.834 
29591000    257.57124   -3879.5372   -3438.0689   -3879.5372            0    10973.424    16.825853    19.818632    20.527501    6845.2111    11397.674    12296.701    9225.8985   -54.350749   -787.13643    118.48486   -2342.5877 
29592000    270.52242   -3848.2193   -3384.5531   -3848.2193            0    9431.0295    16.758851    19.739713    20.445759    6763.7616    9032.4739     9663.907    9596.7076   -291.74958    1775.8453   -21.127063   -2454.2525 
29593000    255.51503   -3880.3345   -3442.3905   -3880.3345            0    8794.2424    16.805655    19.794842     20.50286    6820.5895    8071.6247    8986.3672    9324.7355    1119.4627   -183.36893   -969.20726   -2567.6158 
29594000    269.99989   -3847.8796    -3385.109   -3847.8796            0    12244.686    16.725487    19.700415    20.405055    6723.4459    11528.523     12108.61    13096.926   -416.06518    681.09933     612.8385   -2184.4616 
29595000    261.51745   -3861.9888   -3413.7569   -3861.9888            0    12843.685    16.735564    19.712284    20.417349     6735.606    11827.823    13625.546    13077.687   -840.13682   -1023.9115   -208.45198   -2152.0972 
29596000    267.11173   -3827.0167   -3369.1963   -3827.0167            0    11029.425    16.805883    19.795111    20.503138    6820.8675    8220.1684    14390.845    10477.261   -601.60707    972.39668    618.71817   -2272.0404 
29597000    273.56325   -3855.8075   -3386.9295   -3855.8075            0     9608.513    16.809563    19.799445    20.507627    6825.3488    9204.0312    9278.2396    10343.268    1308.2721   -1346.1665    91.699336   -2430.4912 
29598000    267.54568   -3884.8076   -3426.2435   -3884.8076            0    9952.5006    16.767254     19.74961     20.45601    6773.9408    8597.0615    10261.689    10998.752    249.84608   -2212.0799    610.28808   -2443.0262 
29599000    276.05235   -3866.2741   -3393.1298   -3866.2741            0    10866.969    16.812643    19.803072    20.511385    6829.1009    11006.117    10222.945    11371.846   -62.956676   -138.26242    122.78674   -2310.8293 
29600000    267.64284   -3844.7262   -3385.9956   -3844.7262            0    9919.3372    16.796781    19.784389    20.492033    6809.7905    9575.5936    11413.667    8768.7508   -481.42353   -554.59616    271.98094   -2400.8684 
29601000    275.05487   -3904.8713   -3433.4367   -3904.8713            0     10882.21    16.792923    19.779845    20.487327    6805.0996    10534.284    12802.101    9310.2447    1305.2083   -192.39692   -602.73579   -2353.4274 
29602000    256.49247   -3821.8186   -3382.1993   -3821.8186            0    9857.4091    16.797224    19.784911    20.492574    6810.3295    10300.709    10450.718     8820.801   -420.37738   -182.38132   -1645.3056   -2403.1449 
29603000    266.75766   -3846.7548   -3389.5413   -3846.7548            0    9906.5533    16.809177    19.798991    20.507157    6824.8791     11380.39    9806.2088    8533.0614    -1584.742    905.17049   -551.01225   -2403.5038 
29604000    269.69954   -3852.8478    -3390.592   -3852.8478            0    11213.918    16.786934    19.772791    20.480021    6797.8216    11970.086    9133.0253    12538.643    31.686226    113.13106    622.85847   -2278.8525 
29605000     270.4605   -3815.4017   -3351.8416   -3815.4017            0    11033.776    16.785979    19.771666    20.478855    6796.6609    11770.841    10474.857    10855.632   -1298.0108   -1175.4227    276.66146    -2258.148 
29606000    251.11716   -3832.5779   -3402.1716   -3832.5779            0    10260.111    16.839954    19.835241    20.544705    6862.4358    11924.538    8533.8858     10321.91   -345.94555    386.59228   -139.74982   -2375.3234 
29607000    258.18812   -3829.8248   -3387.2992   -3829.8248            0    11012.197    16.839386    19.834573    20.544012    6861.7417     11789.77    13322.246    7924.5736   -324.50294   -371.40336   -216.94633   -2285.2925 
29608000    269.53378   -3830.8845   -3368.9129   -3830.8845            0    10562.492    16.779515    19.764052    20.470969    6788.8125    11687.599    9346.3755    10653.501    679.54703     -586.922    1151.4605   -2323.1431 
29609000    260.72464   -3844.3152   -3397.4421   -3844.3152            0    11794.417    16.738675    19.715948    20.421144    6739.3625    13182.664    12187.376    10013.212    361.67947   -455.34754   -805.59209   -2238.2078 
29610000    265.41225   -3847.5196   -3392.6121   -3847.5196            0     10037.06     16.82028    19.812068    20.520703    6838.4122     11423.95    9216.9281    9470.3004    42.515098    -2333.947   -424.35582   -2391.6038 
29611000    261.62367   -3806.4976   -3358.0836   -3806.4976            0    13065.583    16.755579    19.735859    20.441767    6759.8009    13825.615    13426.004    11945.129    418.18125    60.132521    1098.2757   -2070.0162 
29612000    271.60238   -3859.5116   -3393.9944   -3859.5116            0    10580.458    16.830521    19.824131    20.533196    6850.9103     11551.33    9616.5789    10573.464   -25.685081    137.73842   -302.67874   -2336.8639 
29613000    274.17269   -3878.4539   -3408.5313   -3878.4539            0    10147.237     16.78518    19.770725    20.477881    6795.6907    8409.6887    10531.251     11500.77   -294.34579    897.36421    445.63063   -2402.8572 
29614000    261.84888   -3807.5604   -3358.7604   -3807.5604            0    10770.468    16.817464    19.808751    20.517267    6834.9779      10327.9      10693.5    11290.004   -585.67682   -562.72729    272.15957   -2285.1478 
29615000    279.03496   -3833.4451   -3355.1888   -3833.4451            0    12582.031    16.833426    19.827552     20.53674    6854.4578    12799.427    12839.025    12107.642    127.95741   -468.78564    1315.6014   -2097.4231 
29616000    276.52794   -3876.7739   -3402.8145   -3876.7739            0     13378.56    16.776151     19.76009    20.466865    6784.7302    11204.729    15527.916    13403.035   -608.28449   -560.78658     1311.778   -2079.0283 
29617000    261.80141    -3871.544   -3422.8254    -3871.544            0     9914.832    16.805469    19.794623    20.502633    6820.3632    9900.8615    8351.6924    11491.942    1067.8098     758.7448   -254.84033   -2436.6169 
29618000    270.25825   -3866.3955   -3403.1821   -3866.3955            0    12840.465    16.742024    19.719893     20.42523    6743.4086    15289.271    11873.744    11358.381   -1505.9104    316.89374   -1003.5266   -2140.3776 
29619000    276.48852   -3828.2432   -3354.3513   -3828.2432            0    10913.614    16.813659    19.804269    20.512625    6830.3394    11346.101    10125.136    11269.605    1649.1704     364.2624   -884.13357   -2267.2081 
29620000    266.37256   -3837.8181   -3381.2646   -3837.8181            0    11135.136    16.789032    19.775263     20.48258    6800.3708    12320.476    10560.766    10524.166     1506.926    854.09014     295.1164   -2276.9216 
29621000     275.8644    -3857.209   -3384.3869    -3857.209            0    12628.752    16.705797    19.677223    20.381034    6699.7286     14042.46    11987.699    11856.096    226.49411    744.08816    671.63731   -2150.4484 
29622000    263.92941   -3823.0992   -3370.7332   -3823.0992            0    10286.373    16.845843    19.842178    20.551889     6869.638     9677.463    10392.462    10789.194    328.30274   -1301.6618   -241.32347   -2340.1762 
29623000    254.14927    -3847.781   -3412.1778    -3847.781            0    12742.022    16.760802    19.742011     20.44814    6766.1247    13283.052    14808.334    10134.681     847.7048   -2086.4295   -869.76268   -2154.8335 
29624000    270.95127   -3830.8234   -3366.4222   -3830.8234            0    11308.227    16.824493     19.81703    20.525842    6843.5515    11372.665    10636.681    11915.334     250.5043   -444.37622    1453.8359   -2237.7912 
29625000    283.51774   -3861.1058   -3375.1661   -3861.1058            0    10506.585     16.84889    19.845767    20.555607    6873.3663    10868.536      10402.4    10248.819    1902.1203    -2350.076   -1217.1348   -2321.9755 
29626000    276.70976   -3885.3668   -3411.0957   -3885.3668            0    9548.4708    16.842921    19.838736    20.548324    6866.0631    11633.284    8294.1732    8717.9555    887.91604    423.26785   -1204.6976   -2454.9645 
29627000    263.68384   -3834.6806   -3382.7355   -3834.6806            0    12303.481    16.802386    19.790991    20.498872    6816.6104    13690.288    12436.064    10784.091    611.35681     1278.877   -940.36493   -2159.6062 
29628000    274.83083   -3869.2036   -3398.1529   -3869.2036            0    10964.211     16.81266    19.803093    20.511406    6829.1225    12812.836    10663.488    9416.3091   -1940.1112   -1651.9701    172.16058   -2306.1641 
29629000    285.91651   -3823.7965   -3333.7454   -3823.7965            0    11861.979    16.813847    19.804491    20.512855    6830.5692    11270.438    13219.556    11095.942   -157.21087    261.12632    632.73519   -2152.0925 
29630000    280.55128   -3884.7471   -3403.8918   -3884.7471            0    11087.197    16.779137    19.763607    20.470508    6788.3534    10544.945    11746.807     10969.84    1245.8084   -21.935981   -217.32463   -2306.2463 
29631000    267.64368   -3871.6104   -3412.8783   -3871.6104            0    11361.245    16.827937    19.821087    20.530044    6847.7553    12270.668     11196.14    10616.927   -261.06821    396.62811    1478.9135   -2278.2593 
29632000    266.18994   -3804.2423   -3348.0018   -3804.2423            0    10378.555    16.877536    19.879509    20.590555    6908.4839    9704.1027    9702.1519    11729.411    1627.8303   -469.15534    853.71367   -2302.3297 
29633000    270.55097   -3843.3392   -3379.6241   -3843.3392            0    13051.918    16.749898    19.729167    20.434836     6752.927    14878.792    11536.859    12740.104    608.33749   -422.43804    263.00375   -2094.2123 
29634000    269.55399   -3880.1904   -3418.1841   -3880.1904            0    11463.385    16.819842    19.811552    20.520168    6837.8774    10962.661    11556.628    11870.865   -78.926396    71.126943    1195.7222    -2275.016 
29635000    262.20631   -3899.1513   -3449.7387   -3899.1513            0    8867.3311    16.890454    19.894724    20.606315    6924.3588    7493.0472    10355.941    8753.0051   -1260.2663    1586.2106   -542.24563   -2554.2741 
29636000    272.95422   -3868.4071   -3400.5729   -3868.4071            0    10405.611    16.880663    19.883191    20.594369    6912.3237    8980.0125    10595.103    11641.716    389.28834     1428.065    97.495351   -2351.5922 
29637000    272.31345   -3874.0657   -3407.3297   -3874.0657            0    12010.743    16.757194    19.737761    20.443738    6761.7562    12778.129     11074.84     12179.26   -924.63716    86.468854   -218.40322    -2222.911 
29638000    266.55167   -3833.9811   -3377.1207   -3833.9811            0    10075.405    16.826253    19.819104     20.52799    6845.6997    11084.436    10023.566    9118.2136   -172.65381    -1505.655    558.61254   -2371.2173 
29639000    249.61037   -3865.5227    -3437.699   -3865.5227            0    10081.035     16.83042    19.824012    20.533073    6850.7867    8977.1987     11082.39    10183.517    397.86242    1034.7107    -855.1775   -2430.4857 
29640000    270.12284   -3851.1721   -3388.1908   -3851.1721            0     12388.76    16.818523    19.809998    20.518558    6836.2686    12807.019    11216.409    13142.852    1298.6039     740.8021   -21.639672   -2153.0318 
29641000    263.17647   -3871.8119   -3420.7365   -3871.8119            0    10486.602     16.86797    19.868241    20.578884    6896.7434    11089.316    9979.2563    10391.233   -616.62356    -640.3525    874.24798   -2365.9739 
29642000    261.33441   -3837.5097   -3389.5915   -3837.5097            0    10000.915    16.832807    19.826824    20.535986    6853.7026    8922.6188    10657.891    10422.236    1029.9202    -688.5292    2875.6575   -2389.9578 
29643000    249.68058   -3805.5548   -3377.6108   -3805.5548            0    11638.907    16.796866    19.784489    20.492137    6809.8941    9885.3141    14046.401    10985.007   -190.31166    398.67634    524.22323    -2221.689 
29644000    254.35084   -3795.6981   -3359.7494   -3795.6981            0    11978.954    16.804987    19.794054    20.502044    6819.7758    12850.193    14542.678    8543.9893    198.64147     606.6558    405.43828   -2168.3295 
29645000    279.00196   -3780.7752   -3302.5754   -3780.7752            0    13205.707    16.755593    19.735875    20.441784    6759.8176    11616.574    12474.573    15525.973   -1073.1444    1438.1526    24.345854   -2000.6907 
29646000    266.38157   -3848.4792   -3391.9103   -3848.4792            0    9055.1153    16.819088    19.810664    20.519248    6836.9583    8792.8543    9516.0683    8856.4233    1729.0134   -674.40171   -998.66799   -2489.0245 
29647000    244.86853   -3830.4432    -3410.747   -3830.4432            0     10114.29    16.819586    19.811251    20.519856    6837.5654    11275.541    8253.0019    10814.327    788.15624    788.49091   -2425.6874   -2402.1613 
29648000     255.7553   -3865.5175   -3427.1616   -3865.5175            0    10080.831    16.881931    19.884685    20.595917    6913.8822    10221.862    10898.863    9121.7677    186.38772    -606.7673   -1013.3396   -2410.6925 
29649000     278.5376   -3798.3139     -3320.91   -3798.3139            0    11031.146    16.825848    19.818626    20.527495    6845.2051    11318.928    9310.2711    12464.238    -1041.139   -35.431385   -736.41799   -2219.6675 
29650000    263.70687   -3837.1256   -3385.1411   -3837.1256            0    12893.008    16.785414       19.771    20.478165    6795.9743    11477.542    14417.931    12783.552   -1302.1608    161.59666   -473.78636   -2107.2852 
29651000    266.30605   -3793.8788   -3337.4394   -3793.8788            0     9193.722    16.850932    19.848172    20.558098    6875.8655    8479.6029    9006.7231     10094.84   -263.66858    1169.9061    -19.26766   -2415.5164 
29652000    258.38082   -3842.5404   -3399.6845   -3842.5404            0    12208.633    16.804903    19.793955    20.501942    6819.6736    12273.744    12534.419    11817.735   -186.78209   -27.322323    136.84572    -2185.439 
29653000    274.45556   -3844.9895   -3374.5821   -3844.9895            0    9723.5124    16.818713    19.810223    20.518791    6836.5011    9563.9027    10591.063    9015.5715   -1127.4934    206.69605   -1144.2893   -2405.1153 
29654000    265.44556   -3844.4471   -3389.4824   -3844.4471            0    12075.538    16.751704    19.731294    20.437039    6755.1115    12353.159    11125.102    12748.352    300.87544    1368.1094   -1541.0938   -2199.8443 
29655000    260.08171   -3846.3967   -3400.6256   -3846.3967            0    13117.801    16.805233    19.794345    20.502345    6820.0758    9988.9222    13481.545    15882.934   -1085.5174    291.40982   -1398.2329   -2095.8791 
29656000    247.11031   -3849.6691   -3426.1305   -3849.6691            0    13447.422    16.791653    19.778349    20.485777    6803.5556    12335.425    15043.083    12963.757   -449.05611    1628.6898   -460.86743   -2091.8385 
29657000    262.76898   -3849.2011   -3398.8241   -3849.2011            0    10145.957    16.836631    19.831327     20.54065    6858.3739    9484.5579    11814.894    9138.4189    788.27849   -704.63037   -2361.5169   -2384.0016 
29658000    269.30728     -3843.38   -3381.7966     -3843.38            0    10606.039    16.829098    19.822455     20.53146    6849.1726     9646.423    11678.752    10492.941    1258.9523   -364.22939   -2455.9796   -2322.3789 
29659000    263.36471   -3834.6301    -3383.232   -3834.6301            0    10838.307    16.862834    19.862191    20.572618    6890.4451    9331.2013    10602.772    12580.949   -534.97758    980.83517   -339.00318   -2294.0897 
29660000    278.30391   -3839.3249   -3362.3215   -3839.3249            0    9782.6605    16.927611     19.93849    20.651646    6970.1577    10375.478    9437.4232    9535.0807   -810.35882     230.7583    349.49656   -2367.8887 
29661000    261.43167    -3874.705     -3426.62    -3874.705            0    10659.907    16.840841    19.836286    20.545786    6863.5197    10093.056    9448.3647    12438.302   -508.60819    128.65553   -366.95943   -2359.5911 
29662000    259.19049   -3836.1436   -3391.8999   -3836.1436            0    10995.433    16.783942    19.769266     20.47637    6794.1867    10103.508    9859.5125     13023.28    -411.8042   -118.16667    413.73003   -2302.4037 
29663000    251.84466   -3798.9933   -3367.3402   -3798.9933            0    10467.862      16.8158    19.806791    20.515236    6832.9486    9637.5756    12370.046    9395.9658    -1359.714   -161.16553   -130.50546   -2324.2015 
29664000    266.22822   -3836.3584   -3380.0523   -3836.3584            0    13296.702    16.809118    19.798921    20.507085    6824.8068    13002.281    12523.891    14363.935   -938.76469   -2004.9308    426.31125   -2056.5942 
29665000    266.80183   -3837.2733   -3379.9841   -3837.2733            0    10716.457    16.881092    19.883697    20.594893    6912.8513    11887.121    10217.377    10044.874    854.65993    -363.0726   -1509.1995   -2299.5847 
29666000    279.17082   -3825.0151   -3346.5258   -3825.0151            0    11059.523    16.841432    19.836983    20.546508    6864.2432    11561.737    12018.789    9598.0422   -717.45959   -3116.9527   -330.41431   -2239.3797 
29667000    247.84592   -3841.5023   -3416.7029   -3841.5023            0    11321.097    16.775242    19.759019    20.465756    6783.6267    13349.736    10522.176    10091.379     212.2982   -475.12069   -618.82525   -2296.6814 
29668000     273.9733   -3799.2234   -3329.6426   -3799.2234            0    12798.164    16.780433    19.765134     20.47209     6789.927    15878.368    10717.987    11798.136    1595.1316   -674.64771   -679.75573   -2062.3157 
29669000    274.49537   -3796.0705   -3325.5949   -3796.0705            0    10676.662    16.813427    19.803997    20.512342    6830.0572    12052.554    9300.2904    10677.143    1489.0486    1506.0137   -317.55478   -2262.0992 
29670000    271.17824   -3837.5546   -3372.7644   -3837.5546            0    11343.239    16.809702    19.799608    20.507797    6825.5178     11101.07    11950.965    10977.681    -625.4866   -757.43815    1204.6267   -2243.6224 
29671000    262.16154   -3828.8969    -3379.561   -3828.8969            0    9561.0023    16.848934    19.845818     20.55566    6873.4194    10373.383    9291.2379    9018.3861   -471.22048    1650.0453    1913.7794   -2421.1492 
29672000    274.68195   -3858.1509   -3387.3554   -3858.1509            0    12749.118    16.836031    19.830621    20.539918    6857.6408    13738.185    12136.098    12373.071   -526.49906   -156.04002    131.92467    -2112.295 
29673000    261.07833   -3835.4617   -3387.9824   -3835.4617            0    11541.078    16.792727    19.779615    20.487088    6804.8616    12368.501    11105.818    11148.914    1401.8271     1249.483    -433.8797   -2242.6236 
29674000    265.11683   -3824.5961   -3370.1949   -3824.5961            0    10184.917     16.83709    19.831868    20.541211    6858.9353    11121.034    9365.7211    10067.996    275.35145    1012.1827    510.37423   -2351.3922 
29675000    265.88722   -3808.1422   -3352.4206   -3808.1422            0    11761.964    16.835812    19.830363    20.539652    6857.3739    13786.022    10631.322    10868.548    296.60397   -278.35823   -1078.7306   -2176.1329 
29676000      267.577   -3836.3418    -3377.724   -3836.3418            0     13697.62    16.747898    19.726812    20.432396    6750.5089    16419.632     11225.91    13447.319   -902.25951    1517.2612    1372.9561   -2029.2036 
29677000    274.31534   -3810.0863   -3339.9192   -3810.0863            0    11132.084    16.828128    19.821312    20.530277    6847.9885    10764.945    12896.526     9734.782    1333.5717   -1036.1973   -1006.0225    -2228.148 
29678000    265.27795   -3806.2445   -3351.5672   -3806.2445            0    13706.288    16.777805    19.762038    20.468882    6786.7365    14061.319    12094.173    14963.373    826.77374   -462.08751    999.98524   -1994.9518 
29679000    261.22228   -3853.4478   -3405.7217   -3853.4478            0    9960.0027    16.804772    19.793802    20.501783     6819.515    11532.539    8502.4002    9845.0692   -1311.8723    1572.7244   -305.99196   -2415.1434 
29680000    262.53713   -3855.7486    -3405.769   -3855.7486            0    12360.372    16.779828    19.764421    20.471351    6789.1918    11044.073    12276.421     13760.62    691.77536   -50.849478   -741.26203   -2181.9266 
29681000    270.18914   -3840.3864   -3377.2915   -3840.3864            0    13982.361    16.766723    19.748985    20.455363    6773.2981    13943.977    13014.969    14988.138    185.87144   -1361.5909    1811.7951   -1996.0914 
29682000    270.63139   -3812.3162   -3348.4632   -3812.3162            0    12125.181    16.878362    19.880481    20.591562    6909.4979    8333.7644    12223.551    15818.228   -13.829365    831.70405   -461.50899   -2126.6337 
29683000    262.61537   -3825.1593   -3375.0456   -3825.1593            0    11381.089    16.788202    19.774284    20.481567    6799.3613    10785.268    8849.3653    14508.635   -741.37556    743.40292    414.67377   -2246.4773 
29684000    269.39406   -3863.0626   -3401.3304   -3863.0626            0    12151.881     16.77417    19.757756    20.464448    6782.3264      13761.8    10018.815    12675.027   -1168.7824    390.91327   -477.41991   -2199.3481 
29685000    284.06983   -3854.1363   -3367.2503   -3854.1363            0    10228.088    16.792062    19.778832    20.486277    6804.0534     10658.78    8581.8279    11443.655    339.97149    1622.0253    1656.2994   -2352.3157 
29686000    267.49782   -3820.6717   -3362.1896   -3820.6717            0    10134.487    16.797071     19.78473    20.492387    6810.1429    10903.944    10318.305    9181.2121   -414.21661   -400.33622   -947.86107    -2355.643 
29687000     260.1931   -3857.8037   -3411.8417   -3857.8037            0    11284.001    16.809266    19.799095    20.507266    6824.9876    10339.894    9796.1783    13715.931   -326.19015    435.27903   -61.912195   -2288.6836 
29688000    284.48003   -3835.9004   -3348.3113   -3835.9004            0    14508.364    16.730429    19.706236    20.411085    6729.4077    14380.162    14633.105    14511.824    2009.3833    1394.6901   -507.96967   -1924.4386 
29689000    258.42615   -3889.5871   -3446.6535   -3889.5871            0    12043.238    16.805212    19.794319    20.502319    6820.0498    12319.105    13690.467    10120.143   -376.25311   -1500.7188    1300.4474   -2248.7917 
29690000    270.76339   -3837.9803   -3373.9011   -3837.9803            0    10905.017    16.870348    19.871042    20.581785    6899.6604    12186.042    10767.113    9761.8979   -164.64617   -1367.1297    1485.3427   -2276.5895 
29691000    264.84776   -3833.8269   -3379.8869   -3833.8269            0    11789.849     16.78686    19.772704     20.47993    6797.7315    11426.443    12394.246    11548.859   -195.05546   -451.14121   -2700.8417   -2211.0655 
29692000    281.23679   -3854.5891   -3372.5589   -3854.5891            0    10776.419    16.840512    19.835899    20.545385    6863.1178    10020.489    11074.441    11234.326    663.84674    483.98079    471.83901   -2293.9306 
29693000     272.5744   -3829.5603   -3362.3771   -3829.5603            0     11591.66    16.840731    19.836157    20.545652    6863.3857    11073.816    13358.029    10343.134    1941.9534   -1047.3175   -817.17295   -2202.1048 
29694000    269.06033   -3808.8796   -3347.7194   -3808.8796            0    12768.387     16.80774    19.797298    20.505404    6823.1289    14720.555    11317.164    12267.442     974.6786    343.57446     417.2527   -2077.1585 
29695000    256.88807   -3821.4459   -3381.1485   -3821.4459            0    11728.391    16.833922    19.828137    20.537346    6855.0643    13329.968    10317.546     11537.66     108.8135    2327.8865    175.94095   -2208.6134 
29696000    263.30788   -3824.6453   -3373.3446   -3824.6453            0     7764.979    16.931728    19.943339    20.656669    6975.2448    6642.5729    9138.0732    7514.2908   -1039.4582    312.86117    732.84497   -2583.4382 
29697000    261.15701   -3824.5446   -3376.9305   -3824.5446            0    10530.536    16.871974    19.872957    20.583769    6901.6555    11353.563    10998.579    9239.4664    5.1779278   -913.04252    -1377.563   -2316.9945 
29698000    276.19534   -3826.7353   -3353.3459   -3826.7353            0     13727.15      16.7813    19.766155    20.473147    6790.9793    14758.029    14718.671     11704.75    429.54182   -500.25428    257.81173   -1993.8163 
29699000    273.30636   -3809.1362   -3340.6985   -3809.1362            0    11926.274    16.775947     19.75985    20.466617    6784.4831    12088.376    11809.827    11880.618    1245.5774    1322.2369    22.339635   -2160.6566 
29700000    265.47737   -3823.2684   -3368.2492   -3823.2684            0    10599.184    16.858605     19.85721    20.567458    6885.2621    10478.671    11985.155    9333.7279   -1462.2594    1931.7703    954.68758   -2303.9376 
29701000    262.30679   -3818.5525   -3368.9676   -3818.5525            0    13023.833    16.805611     19.79479    20.502806    6820.5358    14917.313    10285.958    13868.228   -1091.2378    402.53321   -881.30438   -2073.4801 
29702000    271.69352     -3826.62   -3360.9466     -3826.62            0    11558.824    16.860604    19.859564    20.569898     6887.712    10293.265    13496.232    10886.975    307.83506   -1861.7851    737.39836   -2199.8603 
29703000    258.59486   -3850.1858   -3406.9631   -3850.1858            0    11634.407    16.827976    19.821133    20.530091    6847.8023    12471.762    13162.029    9269.4309    643.41625    1690.1811   -1873.4089   -2245.0561 
29704000    273.29017   -3858.2247   -3389.8147   -3858.2247            0    12837.299     16.79302    19.779959    20.487445    6805.2171    13138.349    11637.655    13735.893    798.39906    191.25408   -1643.7454   -2115.7499 
29705000    260.82719    -3891.758   -3444.7091    -3891.758            0    9895.7098    16.931306    19.942843    20.656154    6974.7235     13158.51    7313.6788    9214.9407    991.45137      119.477    1075.6143   -2438.1256 
29706000    251.99765   -3855.6801   -3423.7648   -3855.6801            0    10262.358    16.904078    19.910771    20.622935    6941.1275     9489.168    10390.297     10907.61   -72.868721   -454.81605    1735.1942   -2384.9142 
29707000    267.18948   -3871.3765   -3413.4228   -3871.3765            0    11446.487    16.887605    19.891368    20.602839    6920.8555    10841.046    11730.018    11768.396    354.05041    496.30651   -483.70403    -2258.088 
29708000    271.68258   -3838.3146   -3372.6599   -3838.3146            0    11057.228    16.860675    19.859648    20.569984    6887.7985     11621.67    10699.264    10850.748    1437.9963    64.286887   -2137.5204   -2261.9451 
29709000    271.66332   -3837.6933   -3372.0717   -3837.6933            0    12454.151    16.748348    19.727342    20.432946    6751.0536    11271.367    11563.033    14528.054   -886.99397    809.86322    -375.9387    -2145.871 
29710000    272.69695   -3823.3937   -3356.0004   -3823.3937            0    13577.439    16.794374    19.781554    20.489097    6806.8638    14525.091    13219.943    12987.284   -24.333587    411.77342    1285.6153   -2008.1528 
29711000    272.84356   -3877.9867   -3410.3421   -3877.9867            0    12187.942    16.825599    19.818333    20.527191    6844.9008    12140.108    10747.723    13675.995   -674.79233   -341.57224   -485.96011   -2193.6703 
29712000     273.3215   -3858.4071   -3389.9434   -3858.4071            0    10798.944    16.839703    19.834946    20.544399    6862.1294    11337.995    9973.8805    11084.955   -562.60357   -833.00851    -178.4799   -2309.2163 
29713000    290.02218     -3860.09    -3363.002     -3860.09            0    10081.309     16.80506    19.794141    20.502134    6819.8651    10330.552    9629.8811    10283.494   -944.08369   -175.69122    823.64805   -2360.3075 
29714000    272.05677   -3855.4674   -3389.1714   -3855.4674            0    11790.521     16.78366    19.768934    20.476026    6793.8443    11720.312    11460.997    12190.253   -396.45893    -534.2667   -1282.4266   -2220.9518 
29715000    262.32808   -3911.8495   -3462.2281   -3911.8495            0     11305.55    16.788796    19.774984    20.482292    6800.0833    12049.475    11206.655    10660.519   -205.51023   -135.54937    77.788799   -2341.0315 
29716000     268.8964   -3873.1526   -3412.2733   -3873.1526            0    11617.846    16.755565    19.735842     20.44175     6759.784    12529.864    11938.918    10384.756    999.69994    272.44212   -1428.5072   -2266.9336 
29717000    261.32353    -3846.033   -3398.1334    -3846.033            0     11816.49    16.767235    19.749588    20.455987     6773.918    12750.979    10473.474    12225.018    454.02457   -466.59319     57.36924   -2230.7747 
29718000    268.03925   -3810.6874   -3351.2773   -3810.6874            0    13085.653    16.741204    19.718927     20.42423    6742.4179    10803.634    14980.957     13472.37   -936.36901   -367.79384     346.4206   -2064.5486 
29719000    279.27534   -3837.6959   -3359.0275   -3837.6959            0     13892.93    16.770147    19.753018     20.45954     6777.448     15002.06    10842.757    15833.974    1355.8965   -914.30534     156.7875   -1985.8208 
29720000    264.94279   -3854.5944   -3400.4916   -3854.5944            0    12418.736    16.767293    19.749656    20.456058     6773.988    12031.261    12594.616     12630.33    1808.1048   -1405.5151    -660.5448    -2173.624 
29721000    278.60805   -3842.6742   -3365.1495   -3842.6742            0    14869.131    16.703748    19.674809    20.378534    6697.2636    14578.355    13974.723    16054.316   -1642.8033   -1790.1601   -739.45578   -1912.8411 
29722000    274.02765    -3861.374      -3391.7    -3861.374            0     11462.06    16.711934    19.684451    20.388521    6707.1148    11550.734    11242.487    11592.959    52.374657   -2722.8811    151.49271   -2270.5227 
29723000    264.90483   -3856.6356   -3402.5978   -3856.6356            0    9253.7957    16.807489    19.797002    20.505098    6822.8233    11065.864    6992.9358    9702.5869    8.7342693    -1341.151   -129.58795   -2481.8092 
29724000    271.46567   -3837.2132   -3371.9304   -3837.2132            0    11098.235    16.787028    19.772901    20.480135    6797.9352    9728.9133    12140.151    11425.641    368.27467   -1182.1196   -502.97542   -2271.6412 
29725000    266.44811   -3856.2195   -3399.5365   -3856.2195            0    13378.172    16.778383    19.762719    20.469588    6787.4388    11231.262    14593.709    14309.544   -245.03807   -210.16286   -1518.8482   -2075.2603 
29726000    273.28069   -3867.9894   -3399.5956   -3867.9894            0    11408.368    16.810551    19.800609    20.508833    6826.5529    10339.338     13433.85    10451.917   -2000.7668   -936.72001    1425.0534   -2263.7982 
29727000    286.54764   -3831.0994   -3339.9665   -3831.0994            0    11474.997    16.875699    19.877344    20.588313    6906.2274    11535.191    11550.523    11339.278    367.32034    2605.5167    163.44278    -2184.202 
29728000    277.35962   -3848.9123   -3373.5274   -3848.9123            0    11929.686     16.83515    19.829582    20.538843    6856.5638    10760.816     12964.02    12064.224    202.74928   -805.77117   -10.794341   -2180.6071 
29729000    268.08722    -3842.215   -3382.7227    -3842.215            0    12478.866    16.803051    19.791774    20.499683    6817.4192    14254.875    10769.124      12412.6    840.26783    1260.7107    666.84381   -2142.0105 
29730000    265.46046   -3806.1686   -3351.1785   -3806.1686            0    10838.152    16.878392    19.880517    20.591599    6909.5349    10897.055     10677.38    10940.021   -299.44329   -1980.8072     1275.868   -2259.0344 
29731000    275.67741   -3811.6985   -3339.1968   -3811.6985            0    11772.876    16.739392    19.716793     20.42202     6740.229    12016.374    12574.729    10727.526   -727.11144   -1010.4133    1290.7387    -2181.931 
29732000    265.85052   -3816.2604   -3360.6017   -3816.2604            0    13316.781    16.737145    19.714146    20.419278     6737.515    13506.418    12242.497    14201.427    565.86918   -4.3572515   -158.72039   -2052.0983 
29733000     276.4333   -3877.8572     -3404.06   -3877.8572            0    12212.071    16.774643    19.758313    20.465025    6782.9002    10532.565    12270.146    13833.503   -50.873796   -637.29433    504.33677   -2196.0219 
29734000    278.90034   -3812.8567    -3334.831   -3812.8567            0    13978.655    16.728099    19.703492    20.408242    6726.5968    13104.455    14561.251    14270.261    222.93597    1074.4725   -855.08142   -1963.5177 
29735000    251.88116   -3835.6111   -3403.8954   -3835.6111            0    10006.845    16.854332    19.852177    20.562245    6880.0281    10164.371    10390.032     9466.133    -442.2262   -731.43126    1459.2392   -2399.8271 
29736000    272.73906   -3843.5372   -3376.0718   -3843.5372            0    10759.452    16.810406    19.800438    20.508657    6826.3765    10738.706    10699.752    10839.898    446.53835    1454.7416   -1099.9445   -2304.9071 
29737000    259.42273   -3817.1184   -3372.4767   -3817.1184            0    10555.215    16.794559    19.781772    20.489323    6807.0889    10651.189    10704.861    10309.594    -893.1317   -521.85588     317.0585    -2324.614 
29738000     265.6989   -3822.3454   -3366.9466   -3822.3454            0    11883.008    16.794464     19.78166    20.489207     6806.973    10781.562    12987.067    11880.394   -1143.1429    787.83763    2616.5856   -2187.2881 
29739000    267.18545   -3838.9905   -3381.0438   -3838.9905            0    10311.556    16.805477    19.794632    20.502642    6820.3725    8656.7682    11123.379     11154.52   -223.82714    57.978002   -597.75634   -2355.3725 
29740000    259.10947   -3814.9577   -3370.8529   -3814.9577            0    14475.097    16.682421    19.649688    20.352515    6671.6433    13744.694     14764.44    14916.158   -516.19318   -667.16689   -1550.8916   -1962.4394 
29741000    260.96504   -3864.5937   -3417.3085   -3864.5937            0    10932.857    16.794122    19.781258     20.48879    6806.5575    9593.8148    11760.071    11444.686    336.92873    1090.1172    224.92351   -2332.0403 
29742000    271.70505   -3818.8225   -3353.1294   -3818.8225            0    13717.113    16.756239    19.736636    20.442572    6760.5994    12372.396    15282.084    13496.859    522.77395    33.294511   -803.52184   -2000.6713 
29743000    279.37701   -3841.0413   -3362.1987   -3841.0413            0    10748.501    16.846692    19.843178    20.552925    6870.6761    9893.2236    10679.732    11672.549   -10.214877   -1414.1047   -442.90732   -2285.1799 
29744000    261.89609   -3829.1359   -3380.2549   -3829.1359            0    10406.706    16.843629     19.83957    20.549188    6866.9298    12434.028    10954.619    7831.4721   -1175.6241   -291.82654    573.86612   -2338.0532 
29745000    279.47327   -3825.7095   -3346.7018   -3825.7095            0    11819.066    16.821787    19.813843     20.52254    6840.2495    12162.336    13013.575    10281.287     412.6229   -487.11981   -693.86493   -2167.6552 
29746000    274.01524    -3837.031   -3367.3783    -3837.031            0     10473.47    16.799898    19.788061    20.495837    6813.5829    11318.941     9628.872    10472.596    718.98859    501.28702    1739.2631   -2326.6389 
29747000    267.91565   -3823.1224   -3363.9242   -3823.1224            0    11024.648    16.761605    19.742957    20.449119    6767.0969        11152    11952.873    9969.0727    847.56189    673.84647     1483.457   -2275.8888 
29748000    282.05586   -3814.7629   -3331.3288   -3814.7629            0    11758.101    16.785984    19.771671    20.478861    6796.6667    11145.662    14322.144    9806.4974    797.15953    583.19571    1165.2243   -2165.8375 
29749000    259.02637   -3852.1042   -3408.1419   -3852.1042            0    12613.264    16.767501    19.749901    20.456312    6774.2402    11686.402    11434.751     14718.64    242.06619    872.65961   -227.89337     -2162.01 
29750000    276.71705   -3814.4895    -3340.206   -3814.4895            0     11671.47    16.779547     19.76409    20.471008    6788.8514    11710.632    12322.858     10980.92    1041.5535    2249.4222    2458.2613    -2184.632 
Loop time of 445.869 on 64 procs for 250000 steps with 864 atoms

Performance: 96.889 ns/day, 0.248 hours/ns, 560.703 timesteps/s
99.1% CPU use with 64 MPI tasks x 1 OpenMP threads

MPI task timing breakdown:
Section |  min time  |  avg time  |  max time  |%varavg| %total
---------------------------------------------------------------
Pair    | 22.325     | 27.967     | 33.486     |  49.2 |  6.27
Bond    | 0.27413    | 0.28456    | 0.30376    |   1.1 |  0.06
Kspace  | 185.33     | 194.09     | 203.97     |  34.4 | 43.53
Neigh   | 5.5242     | 6.3648     | 7.2832     |  22.1 |  1.43
Comm    | 97.194     | 105.91     | 115.66     |  45.0 | 23.75
Output  | 1.2957     | 1.2967     | 1.2986     |   0.0 |  0.29
Modify  | 102.53     | 105.7      | 107.89     |  14.5 | 23.71
Other   |            | 4.258      |            |       |  0.95

Nlocal:        13.5000 ave          18 max           9 min
Histogram: 2 3 7 6 14 15 4 7 5 1
Nghost:        2334.45 ave        2381 max        2301 min
Histogram: 4 9 10 9 9 7 6 5 2 3
Neighs:        4538.72 ave        6501 max        2883 min
Histogram: 3 6 8 10 7 13 8 6 1 2

Total # of neighbors = 290478
Ave neighs/atom = 336.20139
Ave special neighs/atom = 2.0000000
Neighbor list builds = 14728
Dangerous builds = 1

unfix		3
unfix		2
unfix		1

write_data	data.final.${pid}
write_data	data.final.0
System init for write_data ...
PPPM initialization ...
  extracting TIP4P info from pair style
  using 12-bit tables for long-range coulomb (../kspace.cpp:340)
  G vector (1/distance) = 0.37521441
  grid = 24 24 24
  stencil order = 5
  estimated absolute RMS force accuracy = 0.0030539776
  estimated relative force accuracy = 9.1969628e-06
  using double precision FFTW3
  3d grid and FFT values/proc = 2535 216
Last active /omp style is kspace_style pppm/tip4p/omp
WARNING: Not all mixed pair coeffs generated from mixing. Use write_data with 'pair ij' option to store all pair coeffs. (../write_data.cpp:312)

write_restart   restart.lmp.${pid}
write_restart   restart.lmp.0
System init for write_restart ...
PPPM initialization ...
  extracting TIP4P info from pair style
  using 12-bit tables for long-range coulomb (../kspace.cpp:340)
  G vector (1/distance) = 0.37521441
  grid = 24 24 24
  stencil order = 5
  estimated absolute RMS force accuracy = 0.0030539776
  estimated relative force accuracy = 9.1969628e-06
  using double precision FFTW3
  3d grid and FFT values/proc = 2535 216
Last active /omp style is kspace_style pppm/tip4p/omp
Total wall time: 0:07:26
