LAMMPS (30 Jul 2021)
Processor partition = 0
  using 2 OpenMP thread(s) per MPI task
using multi-threaded neighbor list subroutines
variable        pid world 0 1
variable        phase world IceIh IceIII

shell cd ${phase}
shell cd IceIh
include Restart.lmp
echo both
log log.lammps
#include		in.partitions
include		in.temp
variable        temperature equal 145.22
variable	tempDamp equal 100.0
include		in.pressure
variable        pressure equal 1897.3
variable        pressureDamp equal 1000.0 # This is 1 ps
include		in.seed
variable        seed equal 745823

units		real
atom_style	full
#include		in.box
read_restart	restart.lmp.${pid}
read_restart	restart.lmp.0
Reading restart file ...
  restart file = 30 Jul 2021, LAMMPS = 30 Jul 2021
  restoring atom style full from restart
  orthogonal box = (0.079878043 0.19124570 0.034048818) to (18.127694 23.437932 22.179147)
  2 by 4 by 4 MPI processor grid
  restoring pair style lj/cut/tip4p/long/omp from restart
  restoring bond style harmonic/omp from restart
  restoring angle style harmonic/omp from restart
  864 atoms
  576 bonds
  288 angles
Finding 1-2 1-3 1-4 neighbors ...
  special bond factors lj:    0        0        0       
  special bond factors coul:  0        0        0       
     2 = max # of 1-2 neighbors
     1 = max # of 1-3 neighbors
     1 = max # of 1-4 neighbors
     2 = max # of special neighbors
  special bonds CPU = 0.003 seconds
  read_restart CPU = 0.008 seconds
include 	in.setup
variable	out_freq equal 1000
variable	out_freq2 equal 10000
variable	out_freq3 equal 1000

timestep	2.0

neigh_modify    delay 7 every 1

include		in.tip4p
# This is TIP4P/Ice

# create groups ###
group ox type 2
288 atoms in group ox
group hy type 1
576 atoms in group hy

# set charges - beside manually ###
set group ox charge -1.1794
Setting atom values ...
  288 settings made for charge
set group hy charge 0.5897
Setting atom values ...
  576 settings made for charge

# ### TIP3P Potential Parameters ###
pair_style lj/cut/tip4p/long/omp 2 1 1 1 0.1577 8.5
pair_coeff 1 1*2 0.000 0.000
pair_coeff 2 2 0.21084 3.1668
bond_style  harmonic
bond_coeff  1 450 0.9572
angle_style harmonic
angle_coeff 1 55 104.52
kspace_style pppm/tip4p/omp 1.0e-5
pair_modify tail yes

thermo          ${out_freq}
thermo          1000
thermo_style    custom step temp pe etotal epair emol press lx ly lz vol pxx pyy pzz pxy pxz pyz enthalpy

restart 	${out_freq3} restart.lmp.${pid} restart2.lmp.${pid}
restart 	1000 restart.lmp.${pid} restart2.lmp.${pid}
restart 	1000 restart.lmp.0 restart2.lmp.${pid}
restart 	1000 restart.lmp.0 restart2.lmp.0


include         in.dump
dump            myDump all atom ${out_freq2} dump.water.${pid}
dump            myDump all atom 10000 dump.water.${pid}
dump            myDump all atom 10000 dump.water.0
dump            myDump2 all dcd ${out_freq2} dump.dcd
dump            myDump2 all dcd 10000 dump.dcd
dump_modify     myDump append yes
dump_modify     myDump2 append yes


variable natoms 	equal  "count(all)"                        # NUMBER ATOMS
variable H      	equal  "enthalpy/v_natoms"                 # ENTHALPY-per-atom
variable Vol      	equal  "vol/v_natoms"                 # volume-per-atom
fix AVG all 		ave/time ${out_freq} 1 ${out_freq} v_Vol v_H file vol_enthalpy.dat
fix AVG all 		ave/time 1000 1 ${out_freq} v_Vol v_H file vol_enthalpy.dat
fix AVG all 		ave/time 1000 1 1000 v_Vol v_H file vol_enthalpy.dat


timer           timeout 23:50:00 every 1000
New timer settings: style=normal  mode=nosync  timeout=23:50:00

fix 		1 all shake 1e-6 200 0 b 1 a 1
Finding SHAKE clusters ...
       0 = # of size 2 clusters
       0 = # of size 3 clusters
       0 = # of size 4 clusters
     288 = # of frozen angles
  find clusters CPU = 0.000 seconds
fix             2 all nph aniso ${pressure} ${pressure} ${pressureDamp}
fix             2 all nph aniso 1897.3 ${pressure} ${pressureDamp}
fix             2 all nph aniso 1897.3 1897.3 ${pressureDamp}
fix             2 all nph aniso 1897.3 1897.3 1000
fix             3 all temp/csvr ${temperature} ${temperature} ${tempDamp} ${seed}
fix             3 all temp/csvr 145.22 ${temperature} ${tempDamp} ${seed}
fix             3 all temp/csvr 145.22 145.22 ${tempDamp} ${seed}
fix             3 all temp/csvr 145.22 145.22 100 ${seed}
fix             3 all temp/csvr 145.22 145.22 100 745823


run             250000
PPPM initialization ...
  extracting TIP4P info from pair style
  using 12-bit tables for long-range coulomb (../kspace.cpp:340)
  G vector (1/distance) = 0.37161478
  grid = 24 27 25
  stencil order = 5
  estimated absolute RMS force accuracy = 0.0031708819
  estimated relative force accuracy = 9.5490166e-06
  using double precision FFTW3
  3d grid and FFT values/proc = 4410 672
Last active /omp style is kspace_style pppm/tip4p/omp
Neighbor list info ...
  update every 1 steps, delay 7 steps, check yes
  max neighbors/atom: 2000, page size: 100000
  master list distance cutoff = 10.8154
  ghost atom cutoff = 10.8154
  binsize = 5.4077, bins = 4 5 5
  1 neighbor lists, perpetual/occasional/extra = 1 0 0
  (1) pair lj/cut/tip4p/long/omp, perpetual
      attributes: half, newton on, omp
      pair build: half/bin/newton/omp
      stencil: half/bin/3d
      bin: standard
Setting up Verlet run ...
  Unit style    : real
  Current step  : 21750000
  Time step     : 2
  Walltime left : 23:49:59.92
Per MPI rank memory allocation (min/avg/max) = 10.20 | 10.22 | 10.23 Mbytes
Step Temp PotEng TotEng E_pair E_mol Press Lx Ly Lz Volume Pxx Pyy Pzz Pxy Pxz Pyz Enthalpy 
21750000    152.95311   -4466.3309   -4204.1745   -4466.3309            0    762.41518    18.047816    23.246686    22.145098    9291.0186    873.43337    1519.4732   -105.66104   -316.97689   -218.03982   -131.49252   -4100.8673 
21751000    149.71344   -4479.9161   -4223.3123   -4479.9161            0    1536.6719    17.894742    23.509988    21.976195    9245.4986    1167.4444    2062.3324     1380.239   -104.94087   -627.54311     217.3058   -4016.1135 
21752000    144.42073   -4474.3443   -4226.8121   -4474.3443            0    2094.6725    18.081645    23.142375    22.086486    9242.1392    1638.6802    3445.6919    1199.6455    264.88323    46.608476    461.62735   -3944.4773 
21753000    145.08866   -4477.0268   -4228.3498   -4477.0268            0    2332.3738    17.958147    23.400766    21.903112    9204.4409    3254.5003    1424.5651    2318.0561    305.59244   -720.70948    538.79915   -3915.2582 
21754000    133.70103   -4476.6027   -4247.4437   -4476.6027            0    1826.2318    18.012492    23.519919    21.741513    9210.8432    1506.2281    804.67698    3167.7904    7.8331335    -497.2324    198.46865   -4002.1247 
21755000    144.74397   -4465.4657   -4217.3795   -4465.4657            0    2213.1823    17.987732    23.339653    21.926874    9205.5032    3182.2509    727.85155    2729.4445    124.08651   -724.53937    166.85905   -3920.2535 
21756000    144.64537   -4465.7615   -4217.8442   -4465.7615            0     791.5065    17.854991    23.464309    22.148919    9279.4005    1369.4136    1086.2399   -81.134014    278.37146    117.21607   -297.21477   -4110.7292 
21757000    141.61621   -4467.0588   -4224.3335   -4467.0588            0    957.71092    18.151105    23.215713     22.03445    9285.1152    311.89939    2535.3368    25.896508   -772.71914   -333.59763   -616.67011   -4094.6461 
21758000    143.38463   -4462.3754   -4216.6191   -4462.3754            0    2544.3468    17.953462    23.492648    21.813395     9200.331    3308.7256    2422.3857    1901.9292    755.52144    644.52995    402.43363   -3875.2253 
21759000    150.71065   -4469.9609   -4211.6481   -4469.9609            0    980.10802    18.119129    23.226743    22.096068    9299.0938    744.35627    1308.0424    887.92538    453.42023   -497.80438   -20.833789    -4078.728 
21760000    146.13968   -4471.7459   -4221.2675   -4471.7459            0    1542.9425    17.828704    23.425247    22.156865    9253.6329    2205.9062    1343.0356    1079.8856   -659.60788   -74.846163    470.72387   -4013.0401 
21761000    142.20755   -4470.8161   -4227.0772   -4470.8161            0    1835.4824    17.950052    23.393673    21.971936    9226.4036    1848.3156    776.10926    2882.0224    84.505535    179.76507    250.06214   -3980.0991 
21762000    159.95798    -4478.149   -4203.9865    -4478.149            0    1457.7747    18.093418    23.301875    21.893568    9230.5594    714.80458    1596.0826    2062.4369     517.3619    150.61773   -163.57675   -4007.7434 
21763000    150.71487   -4467.1125   -4208.7924   -4467.1125            0    1757.1256    17.881338    23.545581    21.899309    9220.1892    1997.7502     887.8849    2385.7416    533.05113    164.16845    243.78776    -3972.517 
21764000    145.72522   -4488.7707   -4239.0027   -4488.7707            0    1546.0998    18.140177    23.169935    22.012667    9252.0717    516.54911    1142.6343    2979.1158    264.21022   -230.97267   -120.39566   -4030.3844 
21765000    145.97886   -4473.9306   -4223.7278   -4473.9306            0    2075.9889     17.78332    23.429352    22.106314    9210.6321    2574.4211    1610.6514     2042.894   -113.28851    107.02524    15.764322   -3944.8651 
21766000    149.67834   -4479.7272   -4223.1837   -4479.7272            0    2192.7976    18.018722     23.22184    21.947296    9183.3607     2010.802    2006.5632    2561.0277    1062.7552    -320.1845    667.88913   -3929.5025 
21767000    149.42988   -4480.3407    -4224.223   -4480.3407            0    1485.5132    17.995182    23.218824    22.089734    9229.6865    2118.9334    1873.0947    464.51146    488.65182   -100.67786    41.502803   -4024.2648 
21768000    139.65668   -4479.2845   -4239.9178   -4479.2845            0    1353.2144    17.851576     23.47092    22.040286    9234.7237    1496.7704    1087.2116     1475.661   -73.309714    21.201543    -428.1019   -4057.6683 
21769000    148.78575   -4477.3736   -4222.3599   -4477.3736            0    1910.8335    18.086839    23.303131    21.901344    9230.9781     2274.361    1741.6871    1716.4524   -267.21519   -512.30081    15.750149   -3965.1152 
21770000    139.38055    -4474.141   -4235.2475    -4474.141            0    1236.6324    17.935476    23.586558    21.809977    9226.4082    1560.6595    975.59647    1173.6414    -528.3426   -316.36543   -260.38112   -4068.8491 
21771000    152.26333   -4494.4095   -4233.4354   -4494.4095            0    2690.2248    18.007751    23.317672    21.878674    9186.8297    2796.6074    2331.0871    2942.9798    479.58909    211.86236    -282.0119   -3872.9977 
21772000    143.07712   -4459.3352   -4214.1059   -4459.3352            0    1482.2562     18.00111    23.388779    21.999386    9262.2692    855.31276    896.58596    2694.8697    1088.4029   -168.64076     702.3026   -4013.8817 
21773000    143.99001   -4485.8391   -4239.0451   -4485.8391            0    1058.3831    18.008022    23.315776    21.987746    9232.0172    688.77564    841.19789    1645.1759   -97.246955    276.08518   -452.43821   -4096.5449 
21774000    154.50327   -4456.2101   -4191.3968   -4456.2101            0    2050.1639    17.879844    23.298904    22.080738    9198.4108    3214.0715      1678.44    1257.9803   -644.40328   -522.33039    192.63828   -3916.3685 
21775000    143.91455    -4466.685   -4220.0204    -4466.685            0     2235.518    18.015472    23.236862    21.991412    9206.1113    1671.1809    4177.6858    857.68738    102.63043   -758.16497    1229.2531    -3919.876 
21776000    154.11383   -4472.3992   -4208.2534   -4472.3992            0     2230.018    17.966489    23.446296    21.796432    9181.6948      2854.95    1038.2627    2796.8412   -1239.6763   -5.2012138   -265.92606   -3909.6415 
21777000    147.76319   -4467.7834   -4214.5224   -4467.7834            0    2374.6223    17.999439    23.385179    21.885983    9212.2498    1812.6191     3854.106    1457.1416    1233.0345    357.05432   -155.79374    -3895.489 
21778000    141.85488   -4475.4448   -4232.3104   -4475.4448            0    1531.2953    17.906576     23.21725    22.162585    9213.9054    1464.6489    2529.5725    599.66436    1015.1386   -86.417268    628.76285   -4026.5421 
21779000    145.97404    -4494.029   -4243.8345    -4494.029            0    1912.5841    17.896913    23.369604     22.00368    9202.9021    2428.0089    1801.6831    1508.0602    273.68855   -296.73623    388.05318   -3987.1372 
21780000    154.11027   -4477.7143   -4213.5746   -4477.7143            0    1385.6295    18.053742    23.442838     21.82389    9236.5455    1606.4124    1014.1398    1536.3364    6.1553089    332.57242   -2.7868849   -4026.9226 
21781000    147.56493   -4462.7867   -4209.8654   -4462.7867            0    1585.1602    18.017101    23.405468    21.879812    9226.6875    1747.7702    681.46103    2326.2494   -333.12993   -382.70074    617.45797   -3996.5634 
21782000    146.29839   -4466.4499   -4215.6994   -4466.4499            0     2474.902    17.969154    23.264368    22.070874      9226.53    3312.7096    2603.3429    1508.6535   -154.42114    241.36397   -621.84336   -3882.6779 
21783000    137.18338   -4454.5751   -4219.4475   -4454.5751            0    2518.8929    17.770495    23.348395    22.094655    9167.3495    2350.5771    2946.1907     2259.911    261.44883    1094.6958   -441.01666   -3882.6806 
21784000    143.67729   -4485.1911   -4238.9332   -4485.1911            0     2647.537     17.98645    23.318343    21.900704    9185.4666    3109.9104     2343.658    2489.0426    179.51422   -550.23418    14.289211   -3884.2675 
21785000    140.12914   -4487.4009   -4247.2244   -4487.4009            0    3029.2192    17.990143    23.325836     21.83604    9163.1693    2316.7162    1749.7207    5021.2208    -373.1091   -389.74281     31.19797   -3842.4134 
21786000    141.12779   -4476.9415   -4235.0532   -4476.9415            0    2396.6977    17.971615    23.312995    21.892843    9172.4916    2015.7857    3036.6607    2137.6465   -292.19715    -143.1659   -434.56317   -3914.4437 
21787000     142.4773    -4466.024   -4221.8227    -4466.024            0    626.75713    18.140653     23.51213    21.796066    9296.5759     204.1882     387.8887    1288.1945    131.16903   -10.508147   -469.69346   -4136.8464 
21788000    149.62363   -4476.8586   -4220.4088   -4476.8586            0    2770.5138    17.887536    23.411533    21.924815    9181.5569    3632.8241    2724.4026    1954.3146    494.34671   -887.23839    155.30345   -3849.4271 
21789000    145.64203   -4467.2814    -4217.656   -4467.2814            0    1910.3433    18.054043    22.952672    22.170782    9187.3175    1833.6564    3212.7137    684.65975    134.48013    410.59692   -327.66988   -3961.6936 
21790000    145.01592   -4477.2691   -4228.7168   -4477.2691            0    2160.7094     17.89265    23.463574    21.895451    9192.2692    2018.2024    2646.4536    1817.4722   -8.2429522    55.484492    209.83536   -3939.0525 
21791000    147.02891   -4477.9227   -4225.9201   -4477.9227            0    2223.9411    18.123089    23.118641    21.976667    9207.8101    2394.1712    3024.6097    1253.0425    -384.6305    771.12857    68.851412   -3927.2749 
21792000    146.61664   -4480.0174   -4228.7215   -4480.0174            0    1340.6389    17.961255    23.331879    22.021172    9228.4088    1536.3425    2475.1335    10.440869    173.29016    -488.7354    689.96632   -4048.2891 
21793000    146.83012     -4470.12   -4218.4582     -4470.12            0    2178.7937    17.910808    23.323574    22.058833    9214.9466      1858.95    2711.2148    1966.2163    27.392908   -40.275986    614.69552   -3925.6489 
21794000    145.24368   -4473.6037    -4224.661   -4473.6037            0    2125.9323    18.178223    23.182842    21.931706    9242.5224    736.63318    1944.0752    3697.0884    -480.2673    354.25009    760.06533   -3938.1009 
21795000    137.43747    -4485.564   -4250.0009    -4485.564            0     2159.946    17.903815    23.496718    21.843996    9189.3519    1513.5867    1537.4485    3428.8027     176.7176    -244.0298    29.542265   -3960.5308 
21796000    148.69319   -4470.3884   -4215.5334   -4470.3884            0    2085.6774    18.087117    23.245217    21.996317    9248.1082    1886.5875     2967.278    1403.1666    -56.40834   -661.54978    193.85884   -3934.2294 
21797000    143.18423   -4481.0136   -4235.6008   -4481.0136            0    2121.7213    17.977262    23.474826    21.841633    9217.4553    2885.4053    1896.2664     1583.492   -375.84029    51.104176    705.42062   -3950.3839 
21798000    149.01917   -4476.3793   -4220.9655   -4476.3793            0    1239.2225    18.010576    23.303321     22.07753     9266.077    594.74767    1312.1974    1810.7226   -835.44475    311.74814    546.82479   -4053.5017 
21799000    146.49696   -4470.5988    -4219.508   -4470.5988            0    293.08968    17.983682    23.415977    22.066914    9292.4982    144.70653     116.5794    617.98311    463.53727   -47.645218    482.54088    -4179.788 
21800000    145.27724   -4481.7801   -4232.7798   -4481.7801            0    1981.1007    17.908465    23.370651    22.042861    9225.6538    1385.2389    1705.5525    2852.5107   -626.00185    -984.2793    723.44389   -3966.2293 
21801000     149.8716   -4471.2804   -4214.4056   -4471.2804            0    393.46958    18.013863    23.339592    22.138125    9307.6693    564.42901    1089.2534   -473.27363   -28.782311     -147.311   -31.793968    -4160.995 
21802000    140.57366   -4469.7773   -4228.8389   -4469.7773            0    645.69184    18.000787    23.517324    21.957478    9295.2664    729.85914    965.47884    241.73754    13.929407   -256.62183    159.41131   -4141.3076 
21803000    140.48084    -4475.804   -4235.0247    -4475.804            0    3093.2347    18.062251    23.120765    21.948508    9165.9834    2443.4228    3950.4309    2885.8504   -37.010815   -118.11928   -148.50451    -3821.532 
21804000    147.21133    -4464.593   -4212.2778    -4464.593            0    1316.2131    17.988137    23.396672    21.979685    9250.4264    919.20492    2147.3152    882.11909    145.31294    54.566502    681.52241   -4034.7102 
21805000    146.44091    -4475.266   -4224.2713    -4475.266            0    1598.8353    17.930028    23.427103    21.948365    9219.3803   -38.451371    2294.7369    2540.2202   -1058.0146   -295.42931    144.43062   -4009.2996 
21806000    155.15141   -4471.4118   -4205.4876   -4471.4118            0    2613.2595     17.92705    23.274533    21.924446    9147.8374    3191.7018    1626.4229    3021.6537    -54.12328   -19.491455   -169.86385   -3856.8479 
21807000    142.02128   -4469.5473   -4226.1277   -4469.5473            0    1535.2852     17.91109    23.444937     21.98965      9233.99     1745.923    1805.5738    1054.3589   -867.22607    170.81922   -286.41125   -4019.3735 
21808000    142.25948    -4470.748   -4226.9202    -4470.748            0    2452.6905    17.993623    23.174062    22.084959     9209.104    1722.7963    2201.8855    3433.3898   -348.18571   -533.20788      747.339   -3897.5107 
21809000    149.24249   -4477.6227   -4221.8262   -4477.6227            0    2149.5817    17.917016    23.340937    21.977897    9191.1549    1908.1771    1855.6284    2684.9397   -574.91537   -829.05123   -166.94155   -3933.6886 
21810000    140.01561   -4483.8182   -4243.8363   -4483.8182            0    1844.0538     18.31129    23.118207    21.733259    9200.2143    608.77361    2503.0682    2420.3195    454.07506    55.328439   -667.00074   -3996.4091 
21811000    147.08402   -4481.8945   -4229.7975   -4481.8945            0    2487.8172    17.937809    23.352795    21.904548    9175.7704    1760.9973    2285.4715    3416.9827    271.18256    268.69462   -538.89601   -3896.8798 
21812000    143.56453   -4458.6377    -4212.573   -4458.6377            0     2185.892    17.999251    23.356122    21.918777    9214.4934    2972.7523    1516.3371    2068.5865    860.70173    154.04004    370.52488   -3918.8243 
21813000    147.18828   -4456.5812   -4204.3055   -4456.5812            0    1845.9564    17.956525    23.310759    22.056551    9232.4363    2421.6532    1985.5928    1130.6231   -602.67748    392.63189    1029.6801   -3955.7556 
21814000    145.01154   -4475.4936   -4226.9488   -4475.4936            0    1639.9743    17.828715    23.470303    22.059583    9230.7298    1992.1741    2199.8324    727.91654   -78.161927   -261.88345    493.42549   -4006.1743 
21815000    144.92897   -4492.9509   -4244.5476   -4492.9509            0    2098.9142    18.029893    23.281149    21.918677    9200.5094     198.7372    3193.4402    2904.5652     104.6395   -213.33784    631.63701   -3962.9153 
21816000    150.29981   -4467.6997    -4210.091   -4467.6997            0    2285.9856    17.862588    23.513421    21.959216    9223.1023    3764.2082    1158.4946    1935.2541   -46.291744    920.01936    66.246054   -3902.6042 
21817000    144.75101   -4497.1783   -4249.0801   -4497.1783            0    675.21482    17.984806    23.155623    22.249125    9265.6345     1674.156    520.58907   -169.10064    480.58619    505.46981    176.07113   -4157.8384 
21818000    149.53321   -4483.8569   -4227.5621   -4483.8569            0    2046.5247     18.00022    23.422358    21.939518    9249.8678    1106.6379    834.69648    4198.2398     325.0745    257.34623    867.84984   -3951.4863 
21819000    138.32149   -4489.7161   -4252.6378   -4489.7161            0    2230.8682    17.987571    23.429848    21.839748    9204.2755    2436.7009     2076.238    2179.6658    479.87805    152.94879    541.76928   -3953.1774 
21820000    141.37599   -4467.8487   -4225.5351   -4467.8487            0    2185.1691    18.094752    23.361697    21.849756    9236.4186    1301.2451    2817.9567    2436.3054   -470.10897   -134.52951    792.29568   -3931.1848 
21821000     137.5142   -4462.7588   -4227.0641   -4462.7588            0    1928.0444    17.790704    23.413743    22.070148    9193.2536    2895.6465    1995.5118    892.97502    748.55054     7.038753     515.9806   -3968.5632 
21822000     154.2939   -4456.6496   -4192.1951   -4456.6496            0    3159.6396    17.925915    23.182871    22.096558    9182.7592     2600.536    3235.3256    3643.0571    35.998276   -75.798529   -222.77696   -3769.0526 
21823000    139.69201   -4486.1826   -4246.7553   -4486.1826            0    921.54164    17.940887    23.392886    22.085069    9268.8629    1180.5571     729.0782    854.98966   -782.72193    196.95616   -175.09342   -4122.1842 
21824000    142.95231   -4479.4771   -4234.4617   -4479.4771            0    2443.8897    17.991469    23.322589    22.012277    9236.5194    1829.2508    3036.8888    2465.5294    605.33592   -393.18226    159.28073   -3905.2572 
21825000    145.82568   -4479.4211   -4229.4809   -4479.4211            0    1810.6736    18.039112    23.327762    21.956954    9239.7522    1428.9695    2754.3407    1248.7107   -44.675202    89.016455    53.031487   -3985.4884 
21826000    141.44429   -4473.7398   -4231.3091   -4473.7398            0    1125.4704    17.856168    23.674126    21.929497    9270.2382    2556.4947    775.94926    43.967147   -313.17822    289.48853    271.48558    -4079.149 
21827000    143.32027   -4484.4406   -4238.7946   -4484.4406            0     1628.245    18.110815    23.138763    22.062419    9245.5181    1076.5262    2073.0775    1735.1313   -1044.8906   -112.53631   -159.00716   -4019.2479 
21828000    153.94667   -4461.0255   -4197.1662   -4461.0255            0    1728.8397    17.840068    23.444371    22.058084    9225.7753    764.13001    2460.8239    1961.5652   -90.142765    397.88072    121.23438   -3964.5534 
21829000     143.4344   -4479.5179   -4233.6763   -4479.5179            0    1330.2262    18.018152     23.31414    22.079505    9275.1079    1719.0808    1583.8863    687.71168    285.47217    141.65935   -3.8153604   -4053.7393 
21830000    156.43698     -4472.27   -4204.1424     -4472.27            0    3070.9473    17.996208    23.285156    21.910749    9181.5791    2556.4784    3480.3294     3176.034   -1199.7488    93.325175    -255.0458   -3792.9305 
21831000    144.90402   -4473.3545    -4224.994   -4473.3545            0    2518.1526    17.816228    23.615655    21.794185    9169.7266    3132.9846    2153.4877    2267.9855   -165.39259    70.706394   -76.874355   -3888.2388 
21832000    146.01577   -4483.6984   -4233.4323   -4483.6984            0    2988.0095    18.095267    23.011749    21.961578    9144.8828    2092.9444    4362.7927    2508.2913    1579.0168    394.93802    901.04271   -3834.9253 
21833000     142.1966    -4484.252   -4240.5318    -4484.252            0    1353.5314    17.898259     23.54748    21.961673    9255.9424    1479.6374    1553.2122    1027.7447    446.70632   -232.98727    210.18433   -4057.8208 
21834000    145.75355   -4450.3129   -4200.4963   -4450.3129            0    2577.6083    17.995699     23.18303    22.050716    9199.4449     2257.671    3484.0658    1991.0882     593.1179   -881.96276   -627.22144   -3854.6729 
21835000     148.8846   -4485.0925   -4229.9094   -4485.0925            0    787.51604    17.942217    23.443661    22.035359    9268.7605    537.98161    1842.9983   -18.431788   -178.47448   -63.702007    663.26028   -4123.4566 
21836000    147.91081   -4479.9116   -4226.3976   -4479.9116            0    2051.9787     17.91348    23.503721    21.892288    9217.3855    1698.9479    1705.4742    2751.5139   -104.64679    497.87989    775.24605   -3950.5581 
21837000    148.17634   -4487.7681   -4233.7989   -4487.7681            0    1632.2175    18.118868    23.165618    22.003594    9235.6735    1797.1164    2321.1594    778.37656    153.83221    103.85189    134.76567   -4013.9509 
21838000    144.29016   -4452.6766   -4205.3682   -4452.6766            0    2137.0101    17.753708     23.59608    21.977855    9206.9173    2534.9939    1553.9663    2322.0701    1117.9215    255.90513    255.21274   -3918.4245 
21839000    139.31222   -4482.2114    -4243.435   -4482.2114            0    998.16227     18.20459    23.104217    22.072804    9283.8833    590.94571    2165.5542     237.9869    171.42399    303.34175    -432.7845   -4108.2879 
21840000    147.58638   -4476.4264   -4223.4684   -4476.4264            0     1689.964     17.89749    23.463127    21.911111    9201.1564    1898.0717    1080.5097    2091.3105    199.96528    1104.1321    14.150824   -3996.6931 
21841000    135.33239   -4472.4917   -4240.5367   -4472.4917            0    2849.6263     17.97427    23.359198    21.829498    9165.4319    3585.4623    2151.7208     2811.696   -868.50704   -304.61914    595.64373   -3859.6316 
21842000    147.37151   -4468.3518    -4215.762   -4468.3518            0    970.32602    18.043318    23.478412    21.853912    9257.9385    1306.5443    400.19593    1204.2378    349.53297    761.06633   -378.48824    -4084.751 
21843000    142.63401   -4486.7204   -4242.2506   -4486.7204            0    1264.4254    17.853341    23.418681    22.090283    9235.9851    522.58442    1048.8706    2221.8211    85.132652    262.61653    -375.1496   -4071.9358 
21844000    141.59446   -4471.8139   -4229.1258   -4471.8139            0    2221.2291    17.966284     23.12449    22.107033    9184.6136    1668.5984    2970.8893    2024.1994   -615.51187     292.6219    502.53941   -3931.5963 
21845000    149.17647   -4489.2134     -4233.53   -4489.2134            0    2301.8279    17.936746    23.462607    21.786613    9168.7399    2021.7597    2593.1514    2290.5725   -190.44821   -73.497941     52.76133   -3925.7373 
21846000    147.24113   -4469.5557   -4217.1895   -4469.5557            0     1242.515    18.183931    23.283991    21.826238     9241.109    1658.0098    1325.8091    743.72613    139.78529   -224.62061    178.19475   -4049.7331 
21847000    147.41289   -4479.4023   -4226.7416   -4479.4023            0    957.89807    17.954859    23.458354    22.001847    9266.9896    1818.7937    1014.0639    40.836578   -658.54384   -167.34361    966.14545   -4097.2822 
21848000    139.03583   -4480.3382   -4242.0356   -4480.3382            0    1395.2726    17.993996    23.265375    22.033727    9224.1347    1648.0944     1554.148    983.57544    775.70061   -1201.0802    11.195205   -4054.3372 
21849000    143.27612   -4469.4324   -4223.8621   -4469.4324            0    1208.7268    17.766642    23.666141    22.023255    9260.0707    653.97687    1568.2452    1403.9582    519.92593  -0.44527285    513.38901   -4060.6252 
21850000    145.43618   -4486.8403   -4237.5676   -4486.8403            0    1548.0914    18.009578    23.236924    22.071823    9236.7752     2378.605    872.40092    1393.2682    -53.87402    214.85118   -32.410427    -4029.026 
21851000    144.27312    -4492.553   -4245.2738    -4492.553            0    2335.7614    17.860934    23.473549    21.914452    9187.8424    1860.6003    2044.0689    3102.6151    18.892282   -316.89555      446.877   -3932.2929 
21852000    149.93203   -4474.5125   -4217.5341   -4474.5125            0    2114.1427    17.888446    23.387023    21.986157    9198.0737    2307.8813    2089.9958    1944.5511    123.72774   -223.93302    446.14731   -3933.9335 
21853000    145.92095   -4468.7154   -4218.6119   -4468.7154            0    1193.9989    18.033965    23.280092    22.017537    9243.6744    979.63804    151.30216    2451.0565    702.68174   -120.01016    999.03257   -4057.6495 
21854000    144.88135   -4473.9238   -4225.6021   -4473.9238            0    3079.0759    17.900243    23.501901    21.794266     9168.624    3223.7249    2971.2022    3042.3007   -98.240514    95.569926   -208.17541   -3813.8836 
21855000    154.10279   -4477.0192   -4212.8923   -4477.0192            0    2687.8082    18.114391    23.181646    21.782902    9147.1068    1707.2409    3420.0815    2936.1024    199.58956     -174.249    245.79083   -3854.3355 
21856000    141.89455   -4485.1807   -4241.9783   -4485.1807            0    2019.8613    17.918998    23.328782     21.97874    9187.7372    1711.8961    3621.1943    726.49334   -516.43129   -618.58993    103.95273   -3971.3295 
21857000    145.08277     -4489.07   -4240.4031     -4489.07            0    1212.2345    17.931715    23.379205    22.002369    9224.0364    2141.7645    1263.9385    231.00043   -330.58386   -408.77965   -163.74924   -4077.3296 
21858000    141.84383   -4467.6876   -4224.5721   -4467.6876            0    2612.4211    18.029846    23.295149    21.917874     9205.681    2175.2345    4098.2826    1563.7462    1114.3257    52.392378    386.78119   -3873.8404 
21859000    141.49368   -4475.6471   -4233.1318   -4475.6471            0    1899.9165    17.776886     23.54753    21.960127    9192.5476    2593.3261    1424.0833      1682.34    590.86402   -310.54861     578.1613   -3978.4217 
21860000    142.39761   -4474.8904   -4230.8258   -4474.8904            0    2172.5461    18.140503    23.057732    21.997615    9201.1372    2616.6428    2509.2465    1391.7488   -150.76823    124.19738   -34.655056   -3939.2937 
21861000    146.32622   -4471.7231    -4220.925   -4471.7231            0    2429.9916    17.916371    23.470433    21.886369    9203.3273      2632.76    2324.6457    2332.5689     635.3642    221.87237    355.51164   -3894.7689 
21862000    136.84266   -4459.1888   -4224.6452   -4459.1888            0    1857.3908    17.996809    23.106013    22.172058    9219.9066    1267.6515     2593.196     1711.325    510.24589   -867.66781     27.32903   -3974.8951 
21863000     144.7541   -4481.6588   -4233.5552   -4481.6588            0    1542.0929    17.917281    23.416583    22.062298    9256.4911    1260.8969    1573.4441    1791.9376    438.02921   -239.75868    199.86229   -4025.3782 
21864000    158.65151   -4475.9127   -4203.9894   -4475.9127            0    1416.5882    18.111611    23.400909    21.900191    9281.9176    855.68945    1886.3431     1507.732    212.70716    -109.4332   -17.446048   -4012.2298 
21865000    150.37422   -4465.7689   -4208.0326   -4465.7689            0    2934.8317    17.905231    23.457292    21.841321    9173.5346    3850.9159    1678.9303    3274.6489   -118.33478   -133.05157    128.49503   -3815.3915 
21866000    139.55759   -4478.7821   -4239.5852   -4478.7821            0    1818.4666    17.880166     23.27595    22.189238    9234.6694     1742.035    2014.7346    1698.6303     480.8232    -8.497443    569.57347   -3994.6774 
21867000    139.55052   -4483.2375   -4244.0527   -4483.2375            0    2445.8757    17.971287    23.367875    21.909107    9200.7464    1928.0463    2960.9307    2448.6501   -243.16727    110.87377    809.05322   -3915.8567 
21868000    141.92128   -4478.1234   -4234.8752   -4478.1234            0    3704.4783    17.931455    23.309711    21.835665    9126.8067    4083.2131    2856.4887    4173.7331    693.47147    136.38069     497.8015   -3741.7902 
21869000      138.485   -4456.6339   -4219.2754   -4456.6339            0    1979.7257    17.914514    23.246662    22.081589    9195.9367    2165.3486    1843.5283    1930.3002   -472.01771   -352.58629    204.04825   -3953.7678 
21870000    142.74611   -4478.4186   -4233.7567   -4478.4186            0    2060.4183    17.988804    23.337808    21.982023    9228.4765    2579.0715    1932.2862    1669.8972    1108.8517   -200.32636   -596.23055   -3956.4494 
21871000    139.41824   -4469.8376   -4230.8795   -4469.8376            0    2091.4529    18.039971    23.435806     21.80687     9219.536    1148.0577    1380.3929    3745.9081   -652.34819   -216.36266    446.46168   -3949.6681 
21872000    149.13056   -4467.6183   -4212.0136   -4467.6183            0    1084.7839     18.04926    23.349476     21.97824    9262.5267   -149.71258    1146.2494    2257.8148    478.26205     513.0459    589.22854   -4065.4762 
21873000    137.56727    -4482.715   -4246.9294    -4482.715            0    2386.6148    17.801239    23.332578    22.124498    9189.3833    2853.8123    2591.1164    1714.9156   -655.22783    325.27532    267.98063   -3927.0807 
21874000    146.39133   -4463.7466   -4212.8369   -4463.7466            0    1175.2857    17.993127    23.366044    21.952788    9229.5711    1286.3705    1824.2969     415.1895   -49.938807    747.83613    61.212817   -4054.6389 
21875000    154.26293   -4470.1928   -4205.7914   -4470.1928            0    2519.7272    18.039188     23.44074    21.689183    9171.3125    2391.8488     1638.557    3528.7759   -352.40505   -127.88403    144.59479   -3868.7674 
21876000    148.99409   -4481.0683   -4225.6975   -4481.0683            0    1266.8756     18.04323    23.316143    22.032513    9269.0457     46.66778     2425.765     1328.194    474.71081    449.52078   -30.141592   -4054.4419 
21877000     147.8344    -4476.649   -4223.2659    -4476.649            0    1183.8308    17.998407    23.351944    21.996279    9244.9876    622.52256    1854.9692    1074.0008   -79.022762   -294.09928    400.28816   -4063.6516 
21878000    146.23386   -4472.3513   -4221.7115   -4472.3513            0    3727.3895    17.947153     23.50175    21.682748    9145.5555     2739.217    3856.2389    4586.7127   -919.06825    446.14664    41.487893   -3724.5577 
21879000    152.96998   -4472.5556   -4210.3703   -4472.5556            0    2539.0511    18.026634    23.353899    21.880438    9211.4935    2483.1874    2230.9955    2902.9704   -472.06893   -417.28203    101.22893   -3869.2737 
21880000    143.96251   -4488.9397   -4242.1929   -4488.9397            0    2538.5435    17.797347    23.353552    22.163113    9211.6829    4073.3677    2302.8431    1239.4196    499.99573    139.01549    708.99352   -3901.1575 
21881000    145.26578   -4490.8604   -4241.8798   -4490.8604            0     767.6539     17.99305    23.324931    22.060368     9258.442    1311.2237    501.29548    490.44249    240.29092   -67.065791    423.16239   -4138.2274 
21882000    148.82545   -4464.3645   -4209.2828   -4464.3645            0    1606.1936    17.983366    23.316786    22.017612    9232.2996    76.171342    2420.0142    2322.3952   -69.321651    290.30142    113.41166   -3993.0191 
21883000    145.66736   -4489.0604   -4239.3916   -4489.0604            0    1325.7607    17.936162    23.459221    21.948676     9235.309    1896.1553    708.22632    1372.9005   -475.17506   -3.2905137   -388.25904   -4060.8281 
21884000    140.32528   -4485.5701   -4245.0573   -4485.5701            0    1062.9032    17.999621    23.477609    21.934269    9269.1599    696.97746    773.74428    1717.9879   -700.01532   -659.19866    270.53868   -4101.3728 
21885000    139.06129   -4486.3821   -4248.0358   -4486.3821            0    2256.6601    18.101054    23.237687     21.88153    9203.9542    1696.8382    2940.1394    2133.0025   -83.236651   -280.00222    306.78128   -3945.1238 
21886000    141.27548   -4467.7351   -4225.5938   -4467.7351            0    1458.5979    17.936489    23.650881    21.777235    9238.2033    1591.3453    838.17583    1946.2725    141.69629    456.42444   -433.27353   -4029.0773 
21887000    145.35426   -4484.1459   -4235.0137   -4484.1459            0    2000.9417    18.101468    23.183164    21.955413    9213.5738    1858.8287    2094.0923    2049.9042     -450.481    88.986527     103.8474   -3966.1461 
21888000    149.96955   -4484.9855   -4227.9428   -4484.9855            0    2054.1575    17.863032    23.452942    22.038304    9232.7414    2700.2988    520.54753    2941.6262   -712.58556    260.02223   -564.93117   -3951.3504 
21889000    127.28946   -4470.6237   -4252.4539   -4470.6237            0    1813.7382    17.996302    23.212151    22.106939    9234.7953    1519.8885    3252.3632    668.96298   -134.73867   -198.25175   -496.07782   -4008.1796 
21890000    139.94006   -4468.9689   -4229.1164   -4468.9689            0     1684.461    17.998931    23.343883    22.004594    9245.5593    2860.5416    1526.9325    665.90877    590.88749   -122.72904    59.542335   -4001.9888 
21891000    137.39456   -4479.9908   -4244.5012   -4479.9908            0    1373.0905    17.940939    23.420071     22.00352    9245.3967    1283.7405     1314.753     1520.778    226.92172    550.43929    92.906077   -4059.3611 
21892000    137.45634    -4472.887   -4237.2915    -4472.887            0     1243.007    18.053437    23.456946    21.848174    9252.2323    1358.5338    351.25115    2019.2362   -9.3752655    156.00992   -137.69963   -4069.5672 
21893000    138.80697   -4477.9751   -4240.0647   -4477.9751            0    1853.3428    17.951945    23.531644    21.851607    9230.9665    2546.5356    2157.3048    856.18796   -1137.5346    135.60764   -277.10307     -3990.56 
21894000    137.51559   -4465.9807   -4230.2837   -4465.9807            0     1281.998    18.113582    23.219016    21.966924    9238.8392    877.26511    2545.4457    423.28323   -933.63865     -68.5191   -497.43665   -4057.5486 
21895000    152.51217   -4477.5641   -4216.1635   -4477.5641            0    1844.6315    17.888659    23.459364    21.986701    9226.8632    1679.6037    2872.2894    982.00145   -527.69784    423.60737    -121.5719   -3967.9419 
21896000    137.09333    -4471.127   -4236.1537    -4471.127            0    1673.3482    18.001007     23.32145    22.008059    9239.1939     1627.445    922.39535    2470.2043   -183.13732    216.03871   -429.96875   -4010.6798 
21897000    138.13621   -4484.7074   -4247.9467   -4484.7074            0    1471.8866    17.917755    23.408514    21.934338    9199.8757    1643.1911    1053.5922    1718.8764   -415.95837   -153.23869    234.91883   -4050.4626 
21898000     137.9006   -4486.4876   -4250.1307   -4486.4876            0    1033.0395      17.9641    23.449689    21.977052    9257.8891    438.84231    275.15647    2385.1198   -53.957373    172.81586   -183.86078    -4110.653 
21899000    147.19395    -4458.747   -4206.4616    -4458.747            0    1063.0844    18.099598    23.213219    22.010013    9247.5056     1228.568    1049.9326    910.75255    183.99908   -470.88164   -147.67588   -4063.0883 
21900000    143.69796   -4483.3892   -4237.0958   -4483.3892            0    1745.1435     17.83938      23.6025    21.922492    9230.5523    2867.0929    278.14964    2090.1881   -203.51573   -108.94281    289.72083   -4002.1678 
21901000    142.90466   -4460.9746   -4216.0409   -4460.9746            0    1091.1779    18.077875    23.270656    22.028006    9266.8299    929.65619    1061.9005     1281.977    370.83455     111.5045   -43.740553   -4068.5713 
21902000    136.32951   -4477.7717   -4244.1075   -4477.7717            0    1346.6282    17.822738    23.543831    22.000721    9231.8439    1299.3794    1370.8023    1369.7031   -136.32339    14.234191   -278.45848   -4062.8016 
21903000    150.58357   -4483.9645   -4225.8695   -4483.9645            0    909.87509    18.133641    23.399979    21.872927    9281.2691    369.27975    1685.3649     674.9806    555.29175   -68.588154    360.37063   -4102.7108 
21904000    138.55442   -4477.4251   -4239.9475   -4477.4251            0    1735.3592     18.06413    23.241221    21.921711    9203.4453    685.18725    667.81213    3853.0783   -204.38175    158.96826   -524.98712   -4007.0227 
21905000    147.99803   -4486.2466    -4232.583   -4486.2466            0    459.36287    17.797923    23.368492    22.276862    9265.1837    1567.4267    235.80833   -425.14642   -42.356316   -250.13128   -190.24456   -4170.5124 
21906000    138.85812   -4493.8867   -4255.8886   -4493.8867            0    2234.9876    17.950959    23.279136    22.010748    9197.9132    1167.2979    3866.1174    1671.5476   -956.93001    21.462694    339.31331   -3956.0826 
21907000    138.79934   -4473.7915   -4235.8941   -4473.7915            0    2101.8717    18.005426     23.44743    21.797923    9202.6679    1172.4253    2277.3044    2855.8856    18.706855    127.49611    157.94387   -3953.7988 
21908000    141.82558   -4478.9714   -4235.8872   -4478.9714            0    2665.0927    18.009764    23.417374     21.78265    9186.6447    1445.2246    2610.5834    3939.4701    361.41734     160.2094    196.11832    -3878.824 
21909000    143.27345   -4477.7449   -4232.1791   -4477.7449            0    1636.5987    17.956898    23.308342    22.073473     9238.753    1205.4077    1132.2344    2572.1541    477.60013    12.503638   -708.64368   -4011.6675 
21910000    153.07806   -4474.0339   -4211.6633   -4474.0339            0    1879.5983    17.895958    23.380469    22.074348    9236.2579    2047.2376    1480.3944    2111.1628   -1277.6356    69.025844    23.462756   -3958.4789 
21911000    137.00229   -4481.4033   -4246.5861   -4481.4033            0    1947.1123    18.005577    23.307569    21.988987    9228.0352    1791.3566    2293.4804       1756.5   -244.08607   -230.69306    344.11193   -3984.5409 
21912000     143.7546   -4482.6903   -4236.2998   -4482.6903            0    1221.5971    18.010919    23.308244    21.965954    9221.3705    1085.9973    2214.0638    364.73025   -634.97631    299.00192   -30.862049   -4072.0143 
21913000    148.19756   -4482.2186   -4228.2131   -4482.2186            0     1686.388    17.976624    23.655638    21.772817    9258.8577    1218.0004    1032.3184     2808.845   -358.07307   -383.13457    513.13354   -4000.4986 
21914000    144.75781   -4479.8215   -4231.7115   -4479.8215            0    2103.1492    18.062393    23.361755    21.791726    9195.4372     2683.488    1897.8683    1728.0913    -1167.965    198.61822     546.8742   -3949.6666 
21915000    143.90917   -4476.0035   -4229.3481   -4476.0035            0    2319.5356    17.983269     23.45604    21.863404    9222.3394    3001.3984    908.22563    3048.9826   -126.17467   -180.48416    138.38709   -3917.3744 
21916000    152.88184   -4479.6681   -4217.6339   -4479.6681            0    2744.2836    17.838966    23.377545    21.984979    9168.4229    3312.7709    2794.9456    2125.1342   -105.00917    201.74217    7.3314282   -3850.6901 
21917000    138.37508   -4476.3522    -4239.182   -4476.3522            0    2648.1492    18.102947    23.115866    21.951718    9186.0321    1625.9377    3344.2439     2974.266   -455.59736   -337.49204      112.992   -3884.4125 
21918000    152.11897     -4466.45   -4205.7233     -4466.45            0    2024.3102     17.79545    23.604426    21.955679    9222.5132     2435.065    1735.2722    1902.5936   -921.48896   -649.48469    191.81119   -3933.4518 
21919000    152.65619   -4473.7945    -4212.147   -4473.7945            0    1703.6735    18.078869    23.190035    22.045334    9242.4978    995.83747    2244.4709    1870.7121   -195.13089    297.55848   -76.969212   -3982.5048 
21920000    160.07077   -4499.6008    -4225.245   -4499.6008            0    2277.9515    17.784407    23.389425    22.087602    9187.7145    2902.3905    1351.4879    2579.9761   -653.14477    -603.5881    159.50963   -3920.0145 
21921000    140.75828   -4469.6304   -4228.3756   -4469.6304            0    2536.7392    17.921228    23.271598    21.966346    9161.1883    2907.8681    2634.1684     2068.181   -566.62713   -327.58415    188.30653   -3889.4506 
21922000      145.002   -4485.3994   -4236.8709   -4485.3994            0    2142.5072    17.961796    23.426982    21.826881    9184.5478      1896.48     1773.076    2757.9658    -58.17198   -303.94233    140.57771   -3949.8881 
21923000    146.65733   -4486.7443   -4235.3786   -4486.7443            0     1170.458    18.033248    23.431932    21.854189    9234.5718    857.55427    951.36611    1702.4535   -421.16293    285.00376    378.19443   -4077.7451 
21924000    140.15181   -4479.2897   -4239.0743   -4479.2897            0    1391.5832    17.975434    23.391169    22.024948    9260.7504    1296.3199    1595.2364    1283.1932   -200.26411      122.361   -503.90376   -4051.1291 
21925000     146.2108   -4471.7381   -4221.1378   -4471.7381            0    663.76654    17.875994    23.426664    22.133283    9268.8635    699.42707    862.82115     429.0514    612.98943    237.59392    -407.7681   -4131.4119 
21926000    146.25637   -4486.4261   -4235.7477   -4486.4261            0    1713.4465    17.968939    23.232331    22.140136    9242.6289    1603.7452    1904.6665    1631.9278   -1130.3864   -783.87318    3.8359713   -4004.7849 
21927000    141.89963   -4452.5365   -4209.3254   -4452.5365            0    2226.0834    17.894973    23.436815    21.963686    9211.5957    3409.7763     1901.563    1366.9108    257.45151   -271.64769    176.00973   -3910.2696 
21928000    146.20452   -4468.6198   -4218.0302   -4468.6198            0    1695.7755    18.072659    23.334115    21.947661     9255.537    1565.7876    1625.8168    1895.7222   -264.41319    847.63085    116.85835   -3989.1302 
21929000    151.61658   -4489.7384   -4229.8728   -4489.7384            0    1741.9345     17.91337    23.396799    21.958599    9203.1896    2490.3833    1091.2528    1644.1674   -232.36048   -203.29036    175.48089    -3996.072 
21930000    142.90404   -4479.3642   -4234.4316   -4479.3642            0    2069.6545    17.965472    23.285843    22.101853    9246.1148     3112.402    2033.4223    1063.1391   -68.103833    135.57501   -215.60615   -3955.3488 
21931000    151.18232   -4480.3276   -4221.2063   -4480.3276            0    1921.7242    18.070975    23.339679    21.893742    9234.1399    2202.7962     2194.192    1368.1844    698.68375   -588.85603    824.52518   -3962.4068 
21932000    147.99305   -4462.6176   -4208.9626   -4462.6176            0    1818.1872    17.941231    23.502317    21.941422    9251.8307    1501.7754     1159.263    2793.5232    149.69776   -314.54861      183.012   -3963.6374 
21933000    140.54171   -4478.3135   -4237.4298   -4478.3135            0    2265.2948    17.978804    23.211252    22.084739    9216.1941    2607.1317    3697.3504    491.40246   -1097.1204    235.75001     114.6057   -3932.9544 
21934000    138.90148   -4477.5979   -4239.5256   -4477.5979            0    1748.1513    17.815881    23.511359    22.021558    9224.2928     1548.953    1230.2086    2465.2924   -546.08211    521.62883    121.18813   -4004.3523 
21935000    148.88331   -4473.4855   -4218.3046   -4473.4855            0    1112.7534    18.033835    23.398046    21.963298    9267.5565    492.80481    532.04661    2313.4086    266.50627   -169.96967    305.72259   -4067.9073 
21936000    144.65119   -4463.6712   -4215.7441   -4463.6712            0     2233.438    17.891251    23.390192    22.000258    9206.6635    2940.7942     2435.618    1323.9017    825.02788   -278.45808    672.84215   -3915.8609 
21937000    139.28363    -4474.641   -4235.9136    -4474.641            0    1119.8037    18.021404    23.188631    22.162369    9261.4698    1380.5069    2829.0526    -850.1483    405.32969    285.23345    59.606896   -4084.6628 
21938000    146.55017   -4461.1082   -4209.9262   -4461.1082            0    1118.6262    17.801114    23.464118    22.149704     9251.653    1816.4934    479.43641    1059.9487   -148.09159    390.50435     22.05617   -4058.9946 
21939000    143.52506   -4488.4526   -4242.4556   -4488.4526            0    1665.0474    18.037747    23.269839    21.957896    9216.5076    1691.5195    806.77329    2496.8495    128.05721    223.06191     601.6014   -4018.6511 
21940000    155.16254   -4475.1801   -4209.2368   -4475.1801            0    2176.3178    18.095105    23.417927    21.832355    9251.4571    2433.8384    989.27863    3105.8363   -484.57626    316.44032    78.033846   -3915.6014 
21941000    149.10147   -4478.4072   -4222.8524   -4478.4072            0    2111.2839     17.91169     23.45982    21.947211    9222.3286    2666.9856    1181.8255    2485.0405     497.5306   -46.993485    773.10833   -3938.8885 
21942000    140.68827   -4463.8899   -4222.7551   -4463.8899            0    659.13945    18.149632    23.307796    22.040152    9323.5991    1527.4954    1013.7107   -563.78773     910.4511    -476.9722    50.273766   -4133.1285 
21943000    141.51513   -4469.0978   -4226.5457   -4469.0978            0    1796.3401    17.768684    23.516754    22.085751    9228.7907    2298.2531    2349.1179    741.64913    184.15856   -55.498841    511.96735   -3984.7719 
21944000     156.6386   -4478.4168   -4209.9436   -4478.4168            0    1652.2867    18.108089    23.156895     21.97267    9213.7364    1181.4588    1448.1678    2327.2334    296.10826    101.04126     331.2631   -3987.9211 
21945000     145.7251   -4477.7856   -4228.0178   -4477.7856            0    1548.0624      18.0245    23.378043    21.920256    9236.7033    612.25448    1500.6693    2531.2636     278.6113   -555.85995     374.7421   -4019.4816 
21946000    151.73775   -4483.6315   -4223.5582   -4483.6315            0    1267.9736    17.804295    23.323504    22.294277    9257.8887    3757.4621    1368.3834   -1321.9249    99.525298   -192.46706   -212.74424   -4052.3604 
21947000    148.36622   -4480.0457   -4225.7511   -4480.0457            0    1415.9543     17.94239    23.412357    22.017166    9248.8311    819.88899    891.74493    2536.2289     -242.162   -105.97184    383.35422   -4034.7605 
21948000    140.29662   -4461.1682   -4220.7046   -4461.1682            0    1795.5539    18.027703     23.47514    21.828109    9237.7178    1758.0754    2011.1379    1617.4484    1101.1721     320.6581      545.288   -3978.8029 
21949000    148.43708   -4468.2928   -4213.8768   -4468.2928            0    2708.7273    17.878886     23.32693    21.998498    9174.6829    3205.8133    2499.2483    2421.1202    129.31287   -496.83529   -192.90872     -3851.44 
21950000    147.64428   -4481.0993    -4228.042   -4481.0993            0    1432.5421    17.952852    23.229222    22.155092    9239.3555     703.8147    2953.5571    640.25436   -46.999276    385.80068   -938.98812    -4035.012 
21951000    142.60339   -4467.4186   -4223.0013   -4467.4186            0    3087.2342    17.944931    23.410077    21.829163    9170.2616    2142.4347    2087.2391    5032.0287    255.72209   -133.54633    -70.12325   -3810.1181 
21952000    144.39392   -4470.0155   -4222.5293   -4470.0155            0    1337.4339    18.095385    23.454559     21.87116    9282.5413    1567.0219    128.36136    2316.9184    1305.1887   -484.19427    355.17255   -4041.4724 
21953000    139.85584   -4476.9067   -4237.1986   -4476.9067            0    2817.4947    17.958175    23.411997    21.886863    9202.0409    3659.2275    2793.9232    1999.3336    512.40867   -100.66026   -263.13985   -3859.0843 
21954000    132.83775   -4466.5968   -4238.9174   -4466.5968            0    1736.2413    18.038864    23.293048    22.011628    9248.8487    1390.4762    1873.7633    1944.4845    250.54449   -217.47478    383.69696   -4004.7246 
21955000    142.63526   -4488.5786   -4244.1067   -4488.5786            0    2687.6821    17.888556    23.282285    22.040054    9179.3837    1175.7752    3557.3832     3329.888   -169.12633    46.576608    159.80755   -3884.3016 
21956000     140.4827   -4483.3784   -4242.5959   -4483.3784            0    886.59409    18.021063    23.388298    21.986096    9266.7436    279.41649    1005.4711    1374.8947   -630.32137    -598.3915   -380.69996   -4122.7763 
21957000    149.67358   -4488.1047   -4231.5693   -4488.1047            0    1640.0894    18.021177    23.383749    21.942676    9246.7027    1335.9635    2166.7751    1417.5296    333.26322   -18.822251    72.721733   -4010.3973 
21958000    148.94073   -4471.3058   -4216.0265   -4471.3058            0    791.76064    17.915562    23.525249    22.061263    9298.1177    594.80349   -26.370306    1806.8487   -669.51048     275.1652   -8.3932266    -4108.661 
21959000    144.30575   -4474.4574   -4227.1223   -4474.4574            0    2310.5508    18.040748    23.260854    21.936056    9205.3169    1576.5813    2564.8236    2790.2474   -681.23982    575.53906    503.12668   -3916.9306 
21960000    151.24054   -4470.1943   -4210.9732   -4470.1943            0    1648.8328    17.967211    23.352275    22.028219    9242.4954    1127.7124    2674.9058    1143.8801   -502.67377     259.1786    402.45103   -3988.7232 
21961000    146.82724   -4484.4194   -4232.7626   -4484.4194            0     2193.197    17.820963    23.339589      22.1402    9208.8608    2978.7575    1953.8363    1646.9973    39.134147    69.428987   -271.98182   -3938.2123 
21962000    141.75864   -4471.2146   -4228.2451   -4471.2146            0    1716.9018    18.039339    23.398597    21.968448     9272.777    2684.9878     1439.468    1026.2497    148.75441    -827.4493    932.15631   -3996.0617 
21963000     147.1392   -4468.9816     -4216.79   -4468.9816            0    2290.4049     17.98723    23.565896    21.729695    9210.8962    2764.7012    2509.6183    1596.8953    -439.2518   -125.01457    61.074476   -3909.1165 
21964000    143.67528   -4475.1916   -4228.9371   -4475.1916            0    2085.9416    18.069382    23.272893    21.972508    9240.0281    1426.4996    2268.0443    2563.2808   -653.75663   -647.79309   -996.93739   -3947.8433 
21965000    141.17193   -4499.3294   -4257.3655   -4499.3294            0     1510.705    17.783905    23.411653    22.202951    9244.2123    2262.8321    1602.4513    666.83164    726.48023    161.30339    -1.294724   -4053.6963 
21966000    140.88458   -4478.8485   -4237.3771   -4478.8485            0    1066.8195    18.076707    23.213421    22.130986    9286.6536      2207.94    993.01802  -0.49951575   -100.30426     54.64477   -273.15422    -4092.891 
21967000    138.80474   -4484.1695   -4246.2629   -4484.1695            0    2548.5215    18.013411    23.402119    21.844342    9208.5258    3143.2407    2158.8966    2343.4272   -37.764252    122.12548   -242.37644   -3904.0044 
21968000    147.27163   -4477.3456   -4224.9271   -4477.3456            0    1818.6773    18.063946    23.442902    21.820978    9240.5579     1565.569    1457.2407    2433.2224    567.40206    277.74073    913.19441   -3979.8348 
21969000    150.87372   -4481.1339   -4222.5415   -4481.1339            0    1317.0425    18.087871    23.400551    21.863907    9254.2518    1322.9165     895.0039    1733.2072    63.271113    33.320811    289.07138   -4044.7885 
21970000    139.31539   -4482.0173   -4243.2355   -4482.0173            0    1633.8544    18.001876    23.404631    21.894267    9224.6516    289.88796    1706.6966    2904.9787    -327.0616    698.80032   -5.4771071   -4023.4297 
21971000    147.90957   -4480.4103   -4226.8984   -4480.4103            0    1529.2457    17.976313     23.18031    22.111559    9213.8093    1240.1367    2470.3544    877.24587    802.47917    180.76567    89.313146   -4021.4076 
21972000    144.72443   -4487.4824   -4239.4297   -4487.4824            0    913.29586    17.999745    23.326119    22.082764    9271.7621    55.099684    1104.2999     1580.488    -818.3041    56.385802    232.58447   -4115.9346 
21973000    144.60651   -4483.5103   -4235.6597   -4483.5103            0    1836.2178    17.889597    23.308648    22.104833    9217.3244    2708.9829    2763.3524    36.318116   -191.75903   -286.20975    818.05147   -3988.8257 
21974000    140.16486   -4468.2653   -4228.0276   -4468.2653            0    1842.1689    17.938491    23.338661    22.059597    9235.4788    2809.3286    2340.6272    376.55096    1187.8463    216.72374    259.60309   -3979.9059 
21975000    140.50649   -4479.7822   -4238.9589   -4479.7822            0    1553.4693    18.092727    23.589192     21.64915    9239.7012     1081.974    1260.6452    2317.7886   -218.58773   -467.43396     47.21208   -4029.6265 
21976000    144.98936    -4473.679   -4225.1723    -4473.679            0    1367.4062    18.033483    23.368241    21.910521    9233.3298    105.04639    1793.1549    2204.0172   -583.20234    115.59975   -214.20024   -4041.0392 
21977000    159.52397   -4467.7721   -4194.3535   -4467.7721            0    1851.9639    17.915117    23.429788    21.929636    9204.9074    3308.6909    782.04445    1465.1564   -588.36621    552.65852    -81.15742   -3945.7382 
21978000    149.25785   -4467.6832   -4211.8603   -4467.6832            0    2538.0546    17.968407     23.18209     22.08219    9198.2311    2535.5426    3584.3227    1494.2984   -314.83106    -614.6863    30.554556   -3871.3885 
21979000    149.71394    -4474.302   -4217.6974    -4474.302            0     3134.334    17.841427    23.314564    21.991398    9147.6539    4021.8773    3456.1236    1925.0009   -625.56971   -170.35411    286.29027   -3799.5486 
21980000    151.48155   -4467.9906   -4208.3564   -4467.9906            0    1583.1299     18.01292      23.4051    21.924896    9243.4091    1922.9226    1445.2894    1381.1776    157.74951    104.26024   -2.1448222   -3994.9416 
21981000    149.23977   -4468.0737   -4212.2819   -4468.0737            0    2818.2436     17.87195    23.138021    22.186955    9174.7841     2777.011    2972.8782    2704.8416   -510.76793    355.21818    806.21582   -3835.1873 
21982000    141.66716   -4472.5135   -4229.7008   -4472.5135            0    1800.2987    17.867299    23.450496    22.040147    9234.7555    2015.9121    1621.3673    1763.6167   -10.199909   -229.57049    160.51035   -3987.2376 
21983000    142.40731   -4482.7108   -4238.6295   -4482.7108            0    1775.9455    18.081831    23.340932    21.855252    9223.9388    1737.8168     1633.001    1957.0185   -464.88475    125.82595   -365.37115   -3999.7263 
21984000    147.82901   -4466.2292   -4212.8553   -4466.2292            0    2339.5028    17.876674    23.397195    21.963855    9186.6903    1802.3302    3738.4537    1477.7246    366.16464    248.33697    221.53686   -3899.4124 
21985000    138.89979   -4477.9714   -4239.9019   -4477.9714            0    1500.7166    18.023402    23.178169    22.123695    9242.1616    950.82576    1710.5395    1840.7845   -77.839969    -351.9055   -611.43168   -4037.6241 
21986000    143.51395   -4473.6308   -4227.6528   -4473.6308            0    2694.9408    17.873776    23.465205    21.832528    9156.8206    3718.1801    1550.5076    2816.1345     -569.267    117.49984    82.496216   -3867.7627 
21987000    144.97372   -4479.1373   -4230.6573   -4479.1373            0    1955.4568    18.016173    23.475752    21.781348     9212.273    1555.8246    2104.0898     2206.456   -514.94093    442.76017   -573.95041   -3967.9386 
21988000    147.93314   -4473.1763   -4219.6239   -4473.1763            0    2447.0046    17.987985    23.246447    22.054224     9222.122    1109.5336    3657.3804    2574.0998   -82.140909    787.52865    180.36786   -3890.5136 
21989000     146.5504   -4473.8531   -4222.6707   -4473.8531            0    1985.4217    17.713749    23.546555    22.022116    9185.3754     2357.806     1806.212    1792.2471     263.1132    352.25838   -193.28641   -3956.7051 
21990000    142.45765   -4464.9304   -4220.7629   -4464.9304            0    2788.8765    17.999628    23.221525    21.900137    9153.7931    2161.2303    3757.3755    2448.0238    648.87502    267.51643   -73.195186   -3848.4515 
21991000    133.56029   -4467.4554   -4238.5377   -4467.4554            0    2522.2122    17.998926    23.427044    21.748529    9170.5205    3029.9641    1519.7939    3016.8786    929.78817   -634.84217    536.14384   -3901.2104 
21992000     144.5894   -4475.7369   -4227.9156   -4475.7369            0    2461.8505    18.020558    23.216539     21.95857    9186.9167    1403.6588    3242.6512    2739.2414    -700.8947    572.26632    39.662335   -3898.0725 
21993000    154.68289   -4481.5698   -4216.4486   -4481.5698            0    1693.7651    17.753497    23.603664    21.975141    9208.6296    1565.2118    1618.8987    1897.1849   -230.12749   -572.92552    283.09186   -3988.9786 
21994000    148.88858   -4475.2242   -4220.0342   -4475.2242            0     1968.263    18.079269     23.16677    22.067283    9242.6229    1731.8435    3248.3993    924.54612     499.6891    127.55199   -64.781094   -3954.7238 
21995000    149.10877   -4466.6854   -4211.1181   -4466.6854            0    2045.5311    17.828606    23.512417    21.995593    9220.4119     2181.208    2660.1017    1295.2835    347.87047   -189.63988    62.255914    -3936.055 
21996000    145.15089   -4480.6412   -4231.8575   -4480.6412            0    1261.0599    17.916547    23.375352    22.000604     9213.976    2331.4187    1041.9236    409.83729    138.72619    369.30542   -58.573875   -4062.4008 
21997000    141.16322    -4473.913   -4231.9641    -4473.913            0    1999.5927    18.004741    23.298644    21.989059    9224.1036    2072.9994    1956.9491    1968.8296   -434.68463    187.08511    194.42676   -3962.9707 
21998000    149.53467   -4468.5553    -4212.258   -4468.5553            0    1512.4578    17.843364    23.448694     22.09558      9244.87    2484.1512    1339.1718    714.05051   -360.34017    -721.6932    481.22404   -4008.3379 
21999000    141.72436   -4482.0363   -4239.1255   -4482.0363            0    1702.4295    18.201219    22.961016    22.056412    9217.7821    676.34199    3496.8076    934.13883   -149.80946    297.32813   -579.32669   -4010.2647 
22000000    157.45717   -4476.5896   -4206.7134   -4476.5896            0    1479.4679    17.929643    23.630618    21.793682    9233.7339    1592.5399    690.30426    2155.5594   -328.20447     357.1748   -767.17831   -4007.4816 
Loop time of 357.019 on 64 procs for 250000 steps with 864 atoms

Performance: 121.002 ns/day, 0.198 hours/ns, 700.243 timesteps/s
193.4% CPU use with 32 MPI tasks x 2 OpenMP threads

MPI task timing breakdown:
Section |  min time  |  avg time  |  max time  |%varavg| %total
---------------------------------------------------------------
Pair    | 17.444     | 24.889     | 33.358     | 106.8 |  6.97
Bond    | 0.97792    | 1.1805     | 1.4083     |   8.4 |  0.33
Kspace  | 177.63     | 188.11     | 196.85     |  41.9 | 52.69
Neigh   | 0.84657    | 0.88274    | 0.93342    |   2.4 |  0.25
Comm    | 53.028     | 56.326     | 59.939     |  19.8 | 15.78
Output  | 0.58764    | 0.59033    | 0.59456    |   0.3 |  0.17
Modify  | 65.306     | 67.15      | 71.903     |  17.8 | 18.81
Other   |            | 17.89      |            |       |  5.01

Nlocal:        27.0000 ave          40 max          19 min
Histogram: 10 2 4 0 5 3 0 3 3 2
Nghost:        2126.03 ave        2232 max        2012 min
Histogram: 4 12 0 0 0 0 0 1 3 12
Neighs:        6585.66 ave        9787 max        4524 min
Histogram: 7 4 5 0 5 3 1 4 1 2

Total # of neighbors = 210741
Ave neighs/atom = 243.91319
Ave special neighs/atom = 2.0000000
Neighbor list builds = 3122
Dangerous builds = 0

unfix		3
unfix		2
unfix		1

write_data	data.final.${pid} nocoeff
write_data	data.final.0 nocoeff
System init for write_data ...
PPPM initialization ...
  extracting TIP4P info from pair style
  using 12-bit tables for long-range coulomb (../kspace.cpp:340)
  G vector (1/distance) = 0.37185045
  grid = 24 27 25
  stencil order = 5
  estimated absolute RMS force accuracy = 0.0031405196
  estimated relative force accuracy = 9.4575814e-06
  using double precision FFTW3
  3d grid and FFT values/proc = 4410 672
Last active /omp style is kspace_style pppm/tip4p/omp

write_restart   restart.lmp.${pid}
write_restart   restart.lmp.0
System init for write_restart ...
PPPM initialization ...
  extracting TIP4P info from pair style
  using 12-bit tables for long-range coulomb (../kspace.cpp:340)
  G vector (1/distance) = 0.37185045
  grid = 24 27 25
  stencil order = 5
  estimated absolute RMS force accuracy = 0.0031405196
  estimated relative force accuracy = 9.4575814e-06
  using double precision FFTW3
  3d grid and FFT values/proc = 4410 672
Last active /omp style is kspace_style pppm/tip4p/omp
Total wall time: 0:05:57
