#include		in.partitions
include		in.temp
variable        temperature equal 55.10
variable	tempDamp equal 100.0
include		in.pressure
variable        pressure equal 2005.6
variable        pressureDamp equal 1000.0 # This is 1 ps
include		in.seed
variable        seed equal 745823

units		real
atom_style	full
#include		in.box
read_restart	restart.lmp.${pid}
read_restart	restart.lmp.1
Reading restart file ...
  restart file = 30 Jul 2021, LAMMPS = 30 Jul 2021
  restoring atom style full from restart
  orthogonal box = (0.18031858 0.16192625 0.14634439) to (18.027254 23.467252 22.066851)
  2 by 4 by 2 MPI processor grid
  restoring pair style lj/cut/tip4p/long/omp from restart
  restoring bond style harmonic/omp from restart
  restoring angle style harmonic/omp from restart
  864 atoms
  576 bonds
  288 angles
Finding 1-2 1-3 1-4 neighbors ...
  special bond factors lj:    0        0        0       
  special bond factors coul:  0        0        0       
     2 = max # of 1-2 neighbors
     1 = max # of 1-3 neighbors
     1 = max # of 1-4 neighbors
     2 = max # of special neighbors
  special bonds CPU = 0.001 seconds
  read_restart CPU = 0.006 seconds
include 	in.setup
variable	out_freq equal 1000
variable	out_freq2 equal 10000
variable	out_freq3 equal 1000

timestep	2.0

neigh_modify    delay 7 every 1

include		in.tip4p
# This is TIP4P/Ice

# create groups ###
group ox type 2
288 atoms in group ox
group hy type 1
576 atoms in group hy

# set charges - beside manually ###
set group ox charge -1.1794
Setting atom values ...
  288 settings made for charge
set group hy charge 0.5897
Setting atom values ...
  576 settings made for charge

# ### TIP3P Potential Parameters ###
pair_style lj/cut/tip4p/long/omp 2 1 1 1 0.1577 8.5
pair_coeff 1 1*2 0.000 0.000
pair_coeff 2 2 0.21084 3.1668
bond_style  harmonic
bond_coeff  1 450 0.9572
angle_style harmonic
angle_coeff 1 55 104.52
kspace_style pppm/tip4p/omp 1.0e-5
pair_modify tail yes

thermo          ${out_freq}
thermo          1000
thermo_style    custom step temp pe etotal epair emol press lx ly lz vol pxx pyy pzz pxy pxz pyz enthalpy

restart 	${out_freq3} restart.lmp.${pid} restart2.lmp.${pid}
restart 	1000 restart.lmp.${pid} restart2.lmp.${pid}
restart 	1000 restart.lmp.1 restart2.lmp.${pid}
restart 	1000 restart.lmp.1 restart2.lmp.1


include         in.dump
dump            myDump all atom ${out_freq2} dump.water.${pid}
dump            myDump all atom 10000 dump.water.${pid}
dump            myDump all atom 10000 dump.water.1
dump            myDump2 all dcd ${out_freq2} dump.dcd
dump            myDump2 all dcd 10000 dump.dcd
dump_modify     myDump append yes
dump_modify     myDump2 append yes


variable natoms 	equal  "count(all)"                        # NUMBER ATOMS
variable H      	equal  "enthalpy/v_natoms"                 # ENTHALPY-per-atom
variable Vol      	equal  "vol/v_natoms"                 # volume-per-atom
fix AVG all 		ave/time ${out_freq} 1 ${out_freq} v_Vol v_H file vol_enthalpy.dat
fix AVG all 		ave/time 1000 1 ${out_freq} v_Vol v_H file vol_enthalpy.dat
fix AVG all 		ave/time 1000 1 1000 v_Vol v_H file vol_enthalpy.dat


timer           timeout 23:50:00 every 1000
New timer settings: style=normal  mode=nosync  timeout=23:50:00

fix 		1 all shake 1e-6 200 0 b 1 a 1
       0 = # of size 2 clusters
       0 = # of size 3 clusters
       0 = # of size 4 clusters
     288 = # of frozen angles
  find clusters CPU = 0.000 seconds
fix             2 all nph aniso ${pressure} ${pressure} ${pressureDamp}
fix             2 all nph aniso 2005.6 ${pressure} ${pressureDamp}
fix             2 all nph aniso 2005.6 2005.6 ${pressureDamp}
fix             2 all nph aniso 2005.6 2005.6 1000
fix             3 all temp/csvr ${temperature} ${temperature} ${tempDamp} ${seed}
fix             3 all temp/csvr 55.1 ${temperature} ${tempDamp} ${seed}
fix             3 all temp/csvr 55.1 55.1 ${tempDamp} ${seed}
fix             3 all temp/csvr 55.1 55.1 100 ${seed}
fix             3 all temp/csvr 55.1 55.1 100 745823


run             250000
PPPM initialization ...
  extracting TIP4P info from pair style
  using 12-bit tables for long-range coulomb (../kspace.cpp:340)
  G vector (1/distance) = 0.37211918
  grid = 24 27 25
  stencil order = 5
  estimated absolute RMS force accuracy = 0.0031150209
  estimated relative force accuracy = 9.3807929e-06
  using double precision FFTW3
  3d grid and FFT values/proc = 6300 1296
Last active /omp style is kspace_style pppm/tip4p/omp
Neighbor list info ...
  update every 1 steps, delay 7 steps, check yes
  max neighbors/atom: 2000, page size: 100000
  master list distance cutoff = 10.8154
  ghost atom cutoff = 10.8154
  binsize = 5.4077, bins = 4 5 5
  1 neighbor lists, perpetual/occasional/extra = 1 0 0
  (1) pair lj/cut/tip4p/long/omp, perpetual
      attributes: half, newton on, omp
      pair build: half/bin/newton/omp
      stencil: half/bin/3d
      bin: standard
Per MPI rank memory allocation (min/avg/max) = 12.26 | 12.29 | 12.31 Mbytes
Step Temp PotEng TotEng E_pair E_mol Press Lx Ly Lz Volume Pxx Pyy Pzz Pxy Pxz Pyz Enthalpy 
37000000    60.807612   -4635.3652    -4531.143   -4635.3652            0    2415.2322    17.846935    23.305325    21.920507    9117.3665    2065.4941    2208.9546    2971.2479    329.48742   -143.98419    160.60923   -4209.9958 
37001000    54.826777    -4641.963   -4547.9918    -4641.963            0    2155.9707    17.945544    23.326639    21.807527     9128.832    1651.1248    1911.8258    2904.9616    477.45849   -112.31394   -72.644648   -4260.9574 
37002000    56.129896   -4646.1579   -4549.9532   -4646.1579            0    1594.7084    17.919305    23.247838    21.961393    9148.7889    774.16323     2401.306    1608.6559    47.514854    120.25313   -329.28555   -4337.1781 
37003000    54.047094   -4641.7493   -4549.1144   -4641.7493            0    2177.7978    17.928077    23.210691    21.944925    9131.7895    2169.1099    2145.2726    2219.0109   -1.3289217   -137.33514   -493.00813   -4259.0802 
37004000    52.327131   -4645.7327   -4556.0458   -4645.7327            0    2147.9539    18.006527    23.152013    21.902661    9130.9423    1775.7751    2812.8612    1855.2254   -80.238914   -213.82826   -87.772704   -4270.0126 
37005000    55.273326   -4641.0789   -4546.3423   -4641.0789            0    2054.8333    17.880733    23.338445    21.888511    9134.2618     1908.347    1765.9145    2490.2384    -768.2279    21.600783    300.83994     -4272.61 
37006000    58.006165   -4645.5186    -4546.098   -4645.5186            0    1120.9243    18.001125    23.287536    21.910216    9184.8027    839.30487     651.1243    1872.3438    17.303592    116.62504    291.98215   -4395.9491 
37007000    55.645858   -4643.6492   -4548.2741   -4643.6492            0    1650.2476    17.848316     23.24759     22.05189    9149.9983    2438.1312    592.32926    1920.2823    330.56471   0.27253906    230.22381   -4328.0595 
37008000    56.702943   -4642.5434   -4545.3565   -4642.5434            0    1926.5432    17.924714    23.386041    21.786449    9132.6202    2209.2082    1440.2469    2130.1745    -43.19179    16.395429   -84.075752   -4288.7604 
37009000    57.881893   -4639.5761   -4540.3685   -4639.5761            0    2448.8836    17.899106    23.339819    21.841733    9124.6437    2332.7774    2399.8088    2614.0644    -250.8282    173.31545     129.2663   -4214.4868 
37010000    54.458855   -4639.5187   -4546.1781   -4639.5187            0    2297.2788    17.923873    23.145637     21.99651    9125.4602     2654.481    2534.0501    1703.3054    8.3122456   -150.61859    49.563041   -4240.4436 
37011000    56.100131   -4644.8911   -4548.7374   -4644.8911            0    1639.6251     17.89422    23.271288    21.982799    9154.1114     1806.743    2313.7414    798.39082   -54.003743    -459.6385    10.610508    -4329.842 
37012000    57.306991   -4638.4772   -4540.2549   -4638.4772            0    754.38947    18.003171    23.313925    21.921749    9201.0971    501.64291     1136.463    625.06246   -79.500645   -170.28038    34.173399   -4439.0245 
37013000    56.658888   -4640.0782   -4542.9668   -4640.0782            0     2067.098    17.839411    23.290493    21.991726     9137.313    2350.2426    2055.4276    1795.6238    107.47732    -408.4887   -13.743877   -4267.5087 
37014000    53.753492   -4646.0775   -4553.9459   -4646.0775            0    1941.6071     17.93534    23.277033    21.898119    9142.0599    1752.3866    1827.7871    2244.6476    -73.31325     83.61905    53.833635   -4295.0761 
37015000    54.426083   -4638.9857   -4545.7012   -4638.9857            0    1931.3278       17.862    23.311734    21.961893    9144.8044    1630.1512    1945.6817    2218.1506    85.918782    115.04046    90.946564   -4288.1247 
37016000    57.251486   -4644.4175   -4546.2904   -4644.4175            0    1952.4421    17.842454    23.334165    21.954794    9140.6321    2010.2685    1535.2155    2311.8424    236.32162    377.86809    150.90671   -4286.0167 
37017000    55.053272    -4640.307   -4545.9476    -4640.307            0    2091.0469    17.887602    23.339894    21.868518     9129.991    1884.9555    1704.9836    2683.2015   -104.90846    524.17789    213.48771   -4267.5215 
37018000    51.623704     -4643.67   -4555.1887     -4643.67            0    2061.6891    17.929836    23.245919    21.911089    9132.4436    1915.6849    1877.0731    2392.3093   -454.82812    26.882286    148.12251   -4280.5979 
37019000    57.574251    -4647.983   -4549.3027    -4647.983            0     1527.631    17.897154    23.462478    21.824837    9164.5016    661.01148    1655.8623    2266.0192   -120.47731   -130.96114    129.27243   -4345.1274 
37020000    51.765105   -4641.2812   -4552.5576   -4641.2812            0    2267.4768    17.780439     23.29498    22.019181     9120.234    2080.4978     2863.554    1858.3786    -65.73603   -92.621564   -114.05534   -4250.9622 
37021000    52.110566   -4642.2527   -4552.9369   -4642.2527            0     2076.392    17.920828     23.27929    21.896141    9134.7228     1959.652    2243.5412    2025.9827   -28.470932    165.61132    35.502657   -4276.3188 
37022000     56.67338   -4641.3871   -4544.2509   -4641.3871            0     2208.858    17.966119    23.348098    21.798619    9143.9695    2364.3122    1724.8688     2537.393     138.0176    163.82271   -223.72961   -4249.6877 
37023000    50.891685    -4638.857   -4551.6304    -4638.857            0    2448.2616    17.883462     23.21584    21.954977    9115.2582    2675.2862    2676.9627     1992.536    327.54204   -130.30608   -370.88761   -4226.1666 
37024000    58.855866   -4639.9414   -4539.0644   -4639.9414            0    1904.8674    17.921497    23.314062    21.884661    9143.9125    1440.8342    2094.5807    2179.1872   -889.07388   -278.08547    149.68552   -4285.0416 
37025000    56.052392   -4643.6958   -4547.6239   -4643.6958            0    947.40815    17.984038    23.232378    21.939594     9166.625    400.20913    1421.8392    1020.1761   -353.17278   -209.90109    -94.17007   -4420.9689 
37026000    55.125466   -4638.6891   -4544.2059   -4638.6891            0    863.18288    17.919149    23.400534    21.911098    9187.7106     1566.219    381.79553    641.53413    -147.0153   -106.56223    111.03856   -4428.5452 
37027000    55.658747   -4640.7511   -4545.3539   -4640.7511            0    1891.3785    17.879516    23.348921    21.933182    9156.3885    2120.7316    2214.9145    1338.4892   -26.537859   -151.38883   -1.1672709   -4292.7858 
37028000    53.019625   -4644.7975   -4553.9236   -4644.7975            0    1847.1471    17.881384     23.33153      21.9291    9148.8211    1986.2388    1454.3078    2100.8947   -300.23456   -249.30205    26.167038   -4307.4659 
37029000    53.257499   -4646.8874   -4555.6059   -4646.8874            0    1834.1836    17.917244    23.257341     21.94586    9145.0037    1907.2782    1543.1506    2052.1221    777.44186   -44.768088    279.78309   -4310.9799 
37030000    58.015619    -4645.014   -4545.5772    -4645.014            0    1591.7307    17.815207    23.308528    22.018758     9143.207    2000.9802     1924.289    849.92278   -171.80797   -17.169472    78.862009    -4333.329 
37031000    56.207246    -4638.808   -4542.4707    -4638.808            0    2105.4094    17.956266    23.291844    21.854974    9140.5055    2419.2086    1794.3507    2102.6689    72.130665   -312.51946    332.96778   -4261.8094 
37032000    57.200357   -4643.7526   -4545.7132   -4643.7526            0    2094.6587    17.818133    23.372145    21.918399    9127.8733    2316.9514    2386.4957    1580.5291   -559.37197    68.633351    389.63345   -4266.8708 
37033000    56.611768   -4645.2332   -4548.2026   -4645.2332            0    1665.4048    17.889074    23.418039     21.82838    9144.4987    1387.2474    1332.1931    2276.7738   -250.94779    522.10176   -137.21588    -4326.099 
37034000     53.34896   -4646.0038   -4554.5655   -4646.0038            0    2126.5473    17.867269    23.328957    21.935469    9143.2461    2431.5482    1786.1655    2161.9283    714.14633    166.37629   -72.110742   -4271.0014 
37035000     51.10726   -4644.2392   -4556.6431   -4644.2392            0    1830.9595    18.113604    23.093817     21.86633     9146.954    1721.7659    2206.9773    1564.1353   -52.218735   -322.33663    137.73765   -4312.3951 
37036000      53.4838   -4644.4923   -4552.8229   -4644.4923            0    2139.3523    17.899802    23.213601    21.983483     9134.552    2216.5371    2806.0259    1395.4938    222.54399    562.30672   -34.654324   -4267.8225 
37037000    57.626594   -4644.0432   -4545.2732   -4644.0432            0    1882.2733     17.81996    23.231786    22.044968    9126.3854    2303.8804    2070.2329    1272.7067    242.82778   -7.4794589     304.6743   -4294.7446 
37038000    55.323458   -4641.6104   -4546.7879   -4641.6104            0    2153.5238    17.953728    23.326221    21.794173    9127.2389    1273.9485    2175.8477    3010.7752   -99.499387    415.65119   -82.377415   -4260.1293 
37039000    54.963613   -4640.6675   -4546.4617   -4640.6675            0    2155.6998    17.896795     23.27061    21.880609    9112.6029    2048.2272    1891.8196    2527.0527    73.157805    102.30667    147.38157   -4259.9736 
37040000    53.363406   -4641.0435   -4549.5804   -4641.0435            0    2048.2579     17.84343    23.363769    21.860184    9113.2878    1817.6966    2190.7375    2136.3395    348.63007    63.973071    69.750364   -4277.3507 
37041000    52.716535   -4640.3605   -4550.0061   -4640.3605            0    2009.0342     17.84536    23.304826     21.96277     9133.943    2312.7478    2359.4335    1354.9215   -231.70884   -284.20534    -177.3302   -4282.3843 
37042000    53.550524   -4640.5863   -4548.8026   -4640.5863            0    1735.4667    18.014612    23.229742    21.839358    9139.2206    750.83182    1990.7264    2464.8419   -108.76302     188.1574    -177.8272   -4317.4889 
37043000     55.77989   -4640.2546   -4544.6497   -4640.2546            0    2139.7298    17.938099    23.251278     21.88223     9126.722    2201.1664    2233.4687    1984.5545   -177.58068   -208.67515   -435.85769   -4259.8434 
37044000    56.955492   -4640.1513   -4542.5315   -4640.1513            0    2710.6118    17.806665    23.167046    22.060472    9100.5587    2908.6745    2852.1292    2371.0318     450.4009    148.87272    95.702578   -4182.7728 
37045000    52.884232   -4649.2034   -4558.5616   -4649.2034            0    1972.3446    17.981567    23.218287    21.890949    9139.4971    1634.3064    1904.8992    2377.8281    2.5097106   -247.95497   -230.60372   -4295.6674 
37046000    57.711127   -4643.0684   -4544.1535   -4643.0684            0    1837.8379    17.996427    23.290823    21.820656    9146.1629    1410.9223    1504.5688    2598.0225    174.47202    -62.15369    134.66209   -4299.0091 
37047000    53.262257   -4644.1964   -4552.9068   -4644.1964            0    1424.8758    17.992752    23.248216     21.88515    9154.5449    149.93715    2284.0542    1840.6359    6.8182338    145.95855    12.935918   -4362.6721 
37048000    56.777162   -4645.6373   -4548.3232   -4645.6373            0    1195.2152    17.913861    23.377209     21.91054    9175.6102    1076.2298    902.84296    1606.5729    43.293558    63.694778   -42.335644   -4388.3832 
37049000    56.323933   -4641.7212   -4545.1839   -4641.7212            0    1869.4864    17.899391    23.419917    21.801082    9139.0627    2244.6985    1102.2769    2261.4839   -157.75018    50.173822    257.91602   -4296.0116 
37050000     53.92829   -4644.0012     -4551.57   -4644.0012            0    2304.5767    17.887212    23.320179    21.857273      9117.39    2734.4112    1857.5249    2321.7942    -99.75846    -251.9565   -52.574084   -4245.1355 
37051000    56.129726   -4640.4061   -4544.2017   -4640.4061            0    2181.9659    17.842827    23.336139    21.940363    9135.5873     2828.186     2024.494    1693.2179    341.16279    -139.2674    111.54054   -4253.4915 
37052000    55.946008   -4643.8854   -4547.9958   -4643.8854            0    2311.0767    17.861225     23.30596    21.935742    9131.2571    2213.0136    2701.8259    2018.3905   -413.39594    402.36749   -89.461627   -4240.2297 
37053000     52.40759    -4640.644   -4550.8192    -4640.644            0    2442.9498    17.940021    23.267462    21.831985    9113.0797    2207.7334    2908.5915    2212.5245   -532.10983   -187.92927    68.330678   -4226.1391 
37054000    56.332958   -4641.2846   -4544.7319   -4641.2846            0    1283.0566    18.055605    23.346423    21.749248     9168.043    1270.3754    1554.6744      1024.12   -221.15769    196.73792    311.04191   -4373.1789 
37055000    52.459715   -4637.7217   -4547.8075   -4637.7217            0    1923.2422    17.798777    23.339629    21.982845    9132.0442    2520.5037    2146.2375    1102.9855    -266.7846    164.86605   -286.74089   -4291.6672 
37056000    54.466489   -4632.6108   -4539.2571   -4632.6108            0    2264.8832    17.869232    23.297008    21.904688    9118.9134    2583.1323     2621.111    1590.4062   -22.886977    567.71723    372.32836   -4238.0503 
37057000    55.303369   -4641.5221   -4546.7341   -4641.5221            0    2371.2395    17.934332    23.196625    21.925823    9121.4926    2790.7065      2627.44     1695.572    -584.2459    192.39458    327.58888   -4231.2937 
37058000    55.559884   -4644.5138   -4549.2861   -4644.5138            0    2068.3375    17.924824    23.297929    21.887539    9140.4832     2239.343    2362.9044    1602.7651    386.31108    127.49862    112.28146   -4273.5672 
37059000    56.661402   -4644.1365   -4547.0208   -4644.1365            0    2162.4911    17.800555    23.356901    21.944971    9123.9685    2765.2017    2632.9875    1089.2839    314.71069    63.280682    416.33659   -4259.2717 
37060000    54.071232   -4649.0115   -4556.3353   -4649.0115            0    1633.2906    17.892561    23.325553    21.935079    9154.6902    2289.3355    1741.9438    868.59266   -202.65482    14.672037    192.33608   -4338.2717 
37061000    53.466059   -4640.4892   -4548.8502   -4640.4892            0    1740.0094    17.978543    23.301028    21.816526    9139.3472     1634.747    1908.3094    1676.9719     147.2926   -265.12428    289.87957   -4316.9278 
37062000    52.926564    -4636.274   -4545.5597    -4636.274            0    2057.3778    17.859045    23.340363    21.930022    9141.2356    2129.0735    1820.7149     2222.345    -436.3822   -51.246476    256.05479   -4271.2793 
37063000     57.47685   -4638.8658   -4540.3524   -4638.8658            0    2327.1421    17.791365    23.313951    22.015572    9131.7734    2729.8238     2605.587    1646.0155   -114.09395   -16.647049    6.0459298   -4230.4293 
37064000    56.902124   -4647.2431   -4549.7148   -4647.2431            0    2043.0265    17.948256    23.284499    21.867269    9138.6848    2222.9031     1708.537    2197.6392    210.61841   -239.18875    521.34224   -4277.4236 
37065000    53.632163    -4647.268   -4555.3443    -4647.268            0    2126.4349    17.931083    23.298711    21.831851    9120.7173    1621.8574    2438.6645    2318.7828   -504.16795   -67.094333     277.4499   -4272.4938 
37066000    55.497871   -4637.5944    -4542.473   -4637.5944            0    2035.2546    17.842209    23.306353     21.94602    9125.9631    2353.8207    1486.7426    2265.2006   -158.07921   -414.42506    141.22295   -4271.5952 
37067000    52.561267   -4644.9146   -4554.8263   -4644.9146            0    2236.4068    17.956046     23.22657    21.899011    9133.1439    2077.2236    2184.9307     2447.066    29.175018   -40.681774    358.31671   -4256.9425 
37068000    56.355473   -4645.2828   -4548.6915   -4645.2828            0    2219.0995    17.985342    23.157554    21.918397    9128.9361     2029.139    2455.2153    2172.9443    347.86354   -618.83899    491.79907    -4253.249 
37069000    52.505387   -4645.8719   -4555.8794   -4645.8719            0    1891.3653     17.83329    23.375227    21.860242    9112.5997     2331.921    2055.0302    1287.1449   -280.12069    46.773369    196.31977   -4304.5209 
37070000    55.193543   -4642.2779   -4547.6781   -4642.2779            0    1910.5758    17.844905    23.309307    21.964117    9136.0263    2455.5543    1261.5998    2014.5731    -149.0555    340.17578    147.00094   -4293.1138 
37071000    55.497425   -4644.0059   -4548.8852   -4644.0059            0    1662.4132    17.999746    23.373825    21.746518    9149.2585    1824.5053    1340.7093    1822.0249   -105.83197    101.84244     30.49794   -4327.0652 
37072000    58.725182   -4635.1977   -4534.5447   -4635.1977            0    1903.3205    17.852573    23.299838    21.973108    9139.9789    1804.8208     1998.622    1906.5187   -281.23268    304.04146    45.705846   -4280.8374 
37073000    52.490338   -4644.3893   -4554.4227   -4644.3893            0    1794.8882     17.90047    23.287043    21.918851    9136.8513    1728.4854    1730.1434    1926.0359    21.068023   -258.86984    477.69801   -4315.2509 
37074000     56.99665   -4647.7502   -4550.0599   -4647.7502            0    1786.4035     18.00309    23.230685    21.856861    9141.0663    1427.7954    1392.1456    2539.2695    157.37836   -121.91666    380.81883   -4311.9089 
37075000    56.082332   -4646.0715   -4549.9483   -4646.0715            0    1522.9148    17.980652    23.159329    21.976085    9151.2777    2010.7719      1000.89    1557.0826   -106.82593   -116.33721    256.60143    -4346.697 
37076000    53.127409   -4642.3373   -4551.2788   -4642.3373            0    1769.3713    17.971762    23.243366    21.912903    9153.5508    2167.8991    1978.0928    1162.1219    416.81686     11.36549   -177.32484   -4315.0763 
37077000    54.444459   -4646.5882   -4553.2723   -4646.5882            0    1642.5348    17.884427     23.23444     22.02016    9150.1396    1960.6445     2082.633    884.32699    61.019855     -223.131   -206.07696   -4334.0836 
37078000    56.876204   -4637.2446   -4539.7608   -4637.2446            0    1819.4443    18.052165    23.396358    21.669887     9152.383    1933.9593    858.63953     2665.734   -543.90315    3.7555588   -215.08649   -4296.9048 
37079000    53.845923   -4642.1243   -4549.8342   -4642.1243            0    1565.2722     17.87672    23.321101     21.94655    9149.6219    2266.9083    1416.1097    1012.7986   -47.442308    188.07386    63.966174   -4340.9677 
37080000    58.218867   -4639.0251   -4539.2399   -4639.0251            0    1801.5179    17.895911    23.311311    21.914631    9142.2836    2248.0919    1795.3829    1361.0788   -377.88577    268.64311    313.86374    -4299.042 
37081000    57.283452   -4647.5998   -4549.4179   -4647.5998            0    1640.9273    17.913144    23.273812    21.972735    9160.5904     1408.719    2157.7865    1356.2766    910.60499   -108.49648    270.10737   -4330.1936 
37082000    53.759214   -4645.6636   -4553.5221   -4645.6636            0    2245.3731    17.888962    23.264102    21.930676    9126.9036    2090.2207    2614.6153    2031.2835   -237.01414    116.83214   -67.742122   -4254.6483 
37083000    51.690973   -4643.5561   -4554.9596   -4643.5561            0    2359.7534    17.951405    23.233125    21.896946    9132.4985    1703.3238    2041.0243    3334.9121    -179.7289   -83.244986    217.20168   -4240.6684 
37084000    56.514859   -4637.5716   -4540.7071   -4637.5716            0     2100.011    17.863251    23.277426    21.977267    9138.3786    2508.5803    1479.1638     2312.289    -505.1734   -163.72611    105.40532   -4260.8305 
37085000      53.8322   -4641.7928   -4549.5263   -4641.7928            0    1663.6926    18.027334    23.085548    21.988556    9150.9967    1230.4736    2277.0581    1483.5461   -342.17973    107.38864    188.19465   -4327.4934 
37086000    57.187188   -4647.9918   -4549.9749   -4647.9918            0    2041.9658    17.935612    23.186742    21.962851    9133.6559    3134.9435    2217.1371    773.81689   -83.261661    79.599129   -291.14708   -4277.9748 
37087000    54.471128   -4647.0407    -4553.679   -4647.0407            0    2053.8015    17.874918    23.358007    21.886714    9138.1948    2627.7285    1629.8278    1903.8483   -672.22363    -97.13349   -212.76328   -4279.9664 
37088000    56.223302   -4640.4853   -4544.1205   -4640.4853            0     1179.238    17.889069    23.321088     21.99829     9177.523    1846.4764     1597.839    93.398701   -109.58283    292.14373   -295.14127   -4386.2856 
37089000    53.058822   -4646.1068   -4555.1658   -4646.1068            0    2265.5693    17.948354    23.271308    21.837122    9120.9656    2084.7348    2554.7378    2157.2352   -22.671513    92.545959   -12.260468      -4253.8 
37090000    54.604268   -4641.3449    -4547.755   -4641.3449            0     2770.699    17.844206    23.279515    21.949487    9117.9152    2959.0091    3008.4788    2344.6091   -295.93743   -37.792447     182.4738   -4179.3201 
37091000    51.734642   -4644.1219   -4555.4505   -4644.1219            0    2343.6471    17.892339    23.290611    21.907576    9129.4019    2574.6642    2633.7919    1822.4853   -124.36901    258.27806    40.147527   -4243.4103 
37092000    57.092485   -4642.5221   -4544.6675   -4642.5221            0    1325.6818     17.95044    23.374427    21.838919     9163.201    1473.9557    599.64425    1903.4454   -360.94865    222.15778    59.889163   -4367.5088 
37093000    54.418954   -4644.4246   -4551.1524   -4644.4246            0    2598.8748    17.839979    23.272031    21.928604    9104.1548    3277.6954    2716.1706    1802.7582    -90.20139    209.97949    24.869132   -4206.0874 
37094000    54.089761   -4640.0402   -4547.3322   -4640.0402            0    2535.0834    17.905152    23.177153    21.966355    9115.8276    2239.5871     3333.825    2031.8381   -25.569165   0.72857139    468.65796   -4210.3056 
37095000    54.376909   -4646.4236   -4553.2234   -4646.4236            0    2302.4612    17.899128    23.261742     21.92639    9129.3792    2142.7664    2297.0709    2467.5463   -708.82765    39.078665     277.9914   -4246.6677 
37096000    54.036807   -4636.4684   -4543.8511   -4636.4684            0    2566.8651    17.940308    23.131095    21.942809    9105.8043    2435.3133    2000.6246    3264.6576    57.986048   -16.483977    281.11432   -4202.9745 
37097000    53.824145   -4641.7969   -4549.5441   -4641.7969            0    1734.5754    18.028436    23.141694    21.937862    9152.6635    1258.2136    1996.5634    1948.9494   -168.63512    374.67894   -265.72486   -4318.0092 
37098000    52.311943   -4645.9933   -4556.3324   -4645.9933            0     1913.278    17.898137    23.334106    21.882924     9139.119     1772.724     1407.225    2559.8849   -688.98569    203.63253    22.397408   -4301.3218 
37099000    52.483705    -4638.286   -4548.3307    -4638.286            0    1668.8934    17.882456    23.413912    21.885558     9163.445    2068.3859    765.21717    2173.0771   -456.48594   -149.95992    24.694922   -4325.3007 
37100000    52.709659   -4643.8334   -4553.4909   -4643.8334            0    2034.0155    17.978718    23.277208    21.825214     9133.729    1911.1693    1371.0172      2819.86   -247.10218    311.64436    82.381172   -4282.5477 
37101000    52.239053   -4646.2255   -4556.6895   -4646.2255            0    2193.6305    17.925949     23.33659    21.810479    9123.9893    2542.4779    1856.6687     2181.745   -327.38493    344.23269     440.3388   -4264.7962 
37102000    56.469281   -4641.2749   -4544.4885   -4641.2749            0    2318.5864    17.811548    23.388765    21.878109    9114.2035    2279.1659    2486.3605    2190.2329    1038.2187    157.78811    -26.66034    -4236.299 
37103000    57.160592   -4643.7651   -4545.7938   -4643.7651            0    2480.5178    17.812546    23.305005    21.930498    9103.8207    2898.0466    2233.4945    2310.0124    220.66924   -294.43543    192.34238   -4216.4557 
37104000    55.093024   -4643.3755   -4548.9479   -4643.3755            0    2137.7835    17.945252    23.292485    21.815362    9118.5923    2560.2151    1235.0124    2618.1231   -345.26484   -320.95477   -187.72469   -4264.6541 
37105000    57.757156   -4643.3681   -4544.3743   -4643.3681            0    2538.0161    17.949161    23.210308    21.851663    9103.5242    2121.1904    2392.2673    3100.5907    204.15136   -161.94936   -155.44606   -4207.4132 
37106000    54.938776   -4646.7232     -4552.56   -4646.7232            0    3007.5851    17.867578    23.155418    21.977965    9092.9707    3324.9713    2562.8683    3134.9156   -607.25479   -191.03533   -43.216872   -4153.7192 
37107000    54.791255   -4646.7462   -4552.8358   -4646.7462            0    2143.0413    17.856605    23.160454     22.08244    9132.5703    2163.7945     2168.949    2096.3805     218.8687   -411.91591    23.880005   -4267.4059 
37108000    52.428378    -4636.679   -4546.8186    -4636.679            0    2533.8697    17.961399    23.096252    21.937088    9100.4032    2707.4867    3201.8257    1692.2967    666.39929   -171.85482    103.13293   -4210.5233 
37109000    56.214637   -4647.8568   -4551.5068   -4647.8568            0    2018.5491    17.859064    23.397338    21.858716    9133.7644    2152.7429    1702.4475     2200.457   -190.44573   -116.45325   -56.273605   -4282.6228 
37110000    54.443594   -4643.3788   -4550.0643   -4643.3788            0    2242.5977    17.963483    23.116647    21.927174    9105.3797     1775.174    3128.3055    1824.3135   -81.565575    149.10658   -81.358699   -4252.2639 
37111000    55.600822    -4642.715   -4547.4171    -4642.715            0    2006.4922    17.957869    23.402746    21.728649    9131.7569    2390.0591     1575.768    2053.6494   -162.76198   -259.42467    214.51352   -4280.1978 
37112000    56.979706   -4646.9594   -4549.2981   -4646.9594            0    1616.6166    17.830927    23.372779    21.938942    9143.2366     1857.391    1345.4989    1646.9599   -234.77967   -240.66255   -167.14401   -4333.7308 
37113000     55.59671    -4646.203   -4550.9122    -4646.203            0    1514.5402    17.841745    23.293212    22.023968    9152.9747    1413.7087     1917.363     1212.549    151.05029   -118.58472   -65.859482   -4348.7411 
37114000    56.436272   -4637.6893   -4540.9594   -4637.6893            0      2267.93    17.911721    23.324351    21.846826    9127.1512    2523.5441    2315.8286    1964.4173   -368.87574   -142.54792   -294.56721   -4239.0749 
37115000    58.576166    -4646.567   -4546.1694    -4646.567            0    2140.7644    17.921403     23.36277    21.778271    9118.4228    2261.3501    2099.1587    2061.7845   -82.659234    104.46391   -2.9183791   -4261.4845 
37116000    52.653677   -4642.0207   -4551.7741   -4642.0207            0    1890.7707    17.911121    23.192519    21.971166     9126.911    1748.8719    2443.3617    1480.0785   -419.20889   -449.74042   -18.016526      -4300.1 
37117000    52.339623   -4646.9769   -4557.2686   -4646.9769            0    2070.9479    17.820612     23.28711    21.980257    9121.5988    2264.2058    1978.4265    1970.2115   -607.94655    110.98914    -69.51303   -4281.7721 
37118000    54.549275   -4648.3521   -4554.8565   -4648.3521            0    1550.4334    17.975954    23.188778    21.962964    9155.0508    1491.5939    1350.7051    1809.0012    54.353567   -163.56744    216.19667   -4347.8472 
37119000    55.410848   -4641.3868   -4546.4145   -4641.3868            0    2157.3354    17.963425    23.289358    21.848394    9140.4205    2194.7387    1823.4121    2453.8554   -310.88705    653.86071     211.1286   -4258.8338 
37120000    52.994949    -4643.151   -4552.3194    -4643.151            0    2174.5537     17.82345    23.390968    21.900838    9130.6293     1542.247    2532.5345    2448.8795   -440.82728    355.36269    324.12013    -4262.754 
37121000    54.310378    -4645.475   -4552.3888    -4645.475            0    1570.1173    17.882077    23.331163    21.942868    9154.7765    1432.8735    2036.4214     1241.057   -435.26623   -35.363456   -36.468409   -4342.7577 
37122000    60.822973   -4645.7531   -4541.5046   -4645.7531            0    2615.3707    17.944316    23.322029    21.763015     9107.775    2856.8875    2514.7917    2474.4328    50.346219    45.640236   -28.301465   -4194.1113 
37123000    53.963449   -4647.5446   -4555.0531   -4647.5446            0    2810.3434    17.939169    23.222197    21.814503    9087.6367    2478.9432    3557.2084    2394.8785    223.88896   -473.63991   -197.93802   -4182.5874 
37124000     56.01268   -4639.8134   -4543.8096   -4639.8134            0    2377.0998    17.906509    23.295925    21.845095    9112.6528    1948.3435    2673.3737     2509.582    655.32515   -99.199133    -62.30696   -4227.8962 
37125000     56.80181   -4637.7852   -4540.4288   -4637.7852            0    2621.9816    17.781125    23.174254    22.091785    9103.2361    3044.3663    2890.2816    1931.2968   -145.12098   -189.17439    318.19152    -4192.331 
37126000    55.011911   -4643.4587   -4549.1701   -4643.4587            0    2100.1917    17.893838    23.327155    21.879396    9132.7297    2109.7367    1591.2833    2599.5551   -333.79428    94.001675    252.13026   -4269.4425 
37127000     54.46565   -4638.9544   -4545.6021   -4638.9544            0     2423.842     17.93587    23.262387    21.869131    9124.4829    2406.9163    2477.8277    2386.7821   -477.98263   -203.88545    2.6074699   -4223.0585 
37128000     55.01435   -4643.1384   -4548.8456   -4643.1384            0    2171.6031    17.876053    23.322907    21.901783    9131.3248    2342.8154     1631.047    2540.9468    502.24761   -17.302111    259.99177   -4259.6511 
37129000    59.442854   -4647.3076   -4545.4246   -4647.3076            0    1784.4333    17.997867    23.215257    21.863181    9134.9861    1332.4311    2300.7893    1720.0796    65.630357    225.64281     204.3277   -4307.6945 
37130000    53.196727     -4646.51   -4555.3326     -4646.51            0    2177.0542    17.917529    23.252911    21.876471    9114.4966    2159.8452    2307.5821    2063.7352    199.89919   -56.365955     9.648964   -4265.9464 
37131000    53.027419   -4646.4631   -4555.5759   -4646.4631            0    1921.7315    17.913877    23.255339     21.90596    9125.8762      1294.49    2398.1123    2072.5921   -43.675381   -38.764789   -166.22842   -4299.8097 
37132000    55.706708   -4637.6854    -4542.206   -4637.6854            0    1942.9466     17.85989    23.365501    21.917118    9146.1292    2139.8983    1910.2226     1778.719    619.90886    323.95723   -441.28621   -4283.0424 
37133000    54.598465   -4644.4761   -4550.8962   -4644.4761            0    2044.7035    18.013044    23.262365     21.80064    9135.0353    2562.9422    1797.8929    1773.2754   -32.590636   -149.92571    17.465628   -4278.4904 
37134000     54.88933   -4648.8694    -4554.791   -4648.8694            0    2165.7636    17.888468    23.346376    21.837511    9120.0195    2768.3232    2121.9407    1607.0269   -56.081908   -285.41077   -167.08837   -4266.7312 
37135000    51.990567   -4646.7628   -4557.6528   -4646.7628            0    1825.0104    17.885504    23.348537     21.87697    9135.8303    1952.7775    1501.6217    2020.6321    225.48059    116.91709    116.89781   -4314.4944 
37136000    54.005527   -4642.3528   -4549.7892   -4642.3528            0    1773.9321    17.936706    23.329498    21.846149    9141.6163    1436.8852    1423.7518    2461.1593    3.8209042   -249.50123    306.31442   -4313.2866 
37137000    51.978462   -4644.5107   -4555.4214   -4644.5107            0    1426.5914    18.066424    23.174605    21.865269       9154.6    836.52598    1946.6265    1496.6217    -42.45143    149.29364    120.42274   -4364.9565 
37138000    54.149987   -4641.2785   -4548.4672   -4641.2785            0    2385.8481    17.904214    23.362062    21.770181    9106.0175    2339.7158    1426.2972    3391.5314   -582.62019   -65.848518    42.146656    -4231.622 
37139000    53.283567   -4649.2118   -4557.8855   -4649.2118            0    2175.7418    18.020487    23.084484    21.907424    9113.3486     2309.791    2255.5463    1961.8881   -49.742813    79.025606     219.7894   -4268.7102 
37140000    56.416108   -4647.8214   -4551.1261   -4647.8214            0    1609.3637    17.917454      23.3198    21.880781    9142.4783    1471.3553    1944.3377    1412.3982   -48.160931   -331.09818    108.58752   -4336.5438 
37141000    54.223741   -4650.2849   -4557.3472   -4650.2849            0    1582.6333    17.987214    23.303862     21.83873    9154.1741     1504.739    1613.8017    1629.3591   -58.472146   -76.435943   -175.02393    -4346.059 
37142000    55.679475   -4648.4026   -4552.9699   -4648.4026            0    1605.2482    17.850695     23.36071    21.909832    9136.5073    1823.5681    915.75284    2076.4235   -432.43333    154.85787   -217.59595   -4339.0761 
37143000    53.555048   -4645.5364   -4553.7449   -4645.5364            0    1914.6877    17.880142    23.368073    21.851803    9130.2178    2150.4067    1777.2735    1816.3829   -158.78083   -286.53162   -199.08819   -4298.7949 
37144000    52.848297   -4642.7775   -4552.1974   -4642.7775            0    1858.2042    17.927594    23.352035    21.841121     9143.694    1613.2557    1408.0766    2553.2802    221.63819   -296.73906    96.802735   -4304.4032 
37145000    56.166113   -4640.3628    -4544.096   -4640.3628            0     2135.539    17.865928    23.339449    21.880076    9123.5741    1929.3703    1936.9018    2540.3448    330.82387   -270.44024     304.5889   -4259.9455 
37146000    52.481105   -4641.3519   -4551.4011   -4641.3519            0    2868.7201    17.839567    23.357569    21.835208    9098.4893    2868.6228    2643.8008    3093.7365   -278.26341    92.521834   -414.79957   -4170.7445 
37147000    51.466411   -4645.8639   -4557.6523   -4645.8639            0    2382.1427    17.942286    23.191951    21.899292    9112.6589    2662.6798     2242.306    2241.4423     430.1221  -0.36710277   -1.0694908   -4241.0684 
37148000    54.246654   -4649.7127   -4556.7358   -4649.7127            0    2204.6265     17.83724    23.341781    21.882703    9110.9279    1781.7166    1970.8304    2861.3326    -92.64875    127.12081   -7.7239079   -4263.7992 
37149000    58.145418   -4641.2207   -4541.5615   -4641.2207            0    2167.3023     17.81359    23.351015    21.973533    9140.2297    2374.7177    1882.1954    2244.9937    375.26599    9.1756695    57.443962   -4252.6582 
37150000    52.789505   -4642.3413   -4551.8619   -4642.3413            0     2094.885    17.955968    23.234585    21.873798    9125.7368     1845.742    2532.2305    1906.6824    105.88149   -85.195594   -114.15404   -4273.0547 
37151000    58.703225   -4646.2189   -4545.6036   -4646.2189            0    1832.5588    17.866891    23.310707    21.912816    9126.4657    1253.0347    2165.5601    2079.0814    -372.4349    117.05547    169.57189   -4301.6898 
37152000    50.982402   -4643.8543   -4556.4722   -4643.8543            0    2104.7049    17.875695    23.334342    21.879776    9126.4394    2195.6493    2036.4829    2081.9823   -399.29517    -33.34468   -5.8019431   -4276.3365 
37153000     56.47443   -4643.8483   -4547.0531   -4643.8483            0    2090.2185    17.891741    23.253987    21.939821    9128.1573    2786.3203    2051.8905    1432.4448   -120.98011    372.80168     328.0852   -4268.7931 
37154000    52.324586   -4644.3854   -4554.7029   -4644.3854            0    2144.8175    17.829809     23.36837     21.89822    9123.9717    3261.7543    1308.5414    1864.1569    448.70741    26.840633   -38.624735   -4269.3054 
37155000    53.076349   -4642.0512   -4551.0802   -4642.0512            0    2074.0374    17.836283    23.353527    21.920131    9130.6138    2459.7425    1603.6352    2158.7344    203.41456    350.72825   -380.54177      -4274.9 
37156000    51.019151   -4646.6964   -4559.2513   -4646.6964            0    2480.4955    17.945588    23.199142    21.892654    9114.3989    1392.9122    3046.7131    3001.8611   -373.70048    161.97344   -61.008054   -4229.5336 
37157000    53.921221   -4644.7512    -4552.332   -4644.7512            0    2288.6095    17.795183    23.393275    21.898242    9115.9667    2478.9444    1847.3183    2539.5656    17.100677   -188.82016    309.10463   -4248.0682 
37158000    56.774696   -4649.1051   -4551.7952   -4649.1051            0    2069.1277     17.82889    23.284551    21.951527    9112.9066    2408.4892    1188.5501    2610.3438    200.32477   -803.39606   -182.40901   -4276.8032 
37159000    54.114794   -4643.9533   -4551.2024   -4643.9533            0     2169.274    17.964027    23.243304     21.83794    9118.2864    2248.1558    1355.8149    2903.8513   -752.97527   -64.380553     96.21711   -4262.7305 
37160000    59.190632   -4645.6695   -4544.2188   -4645.6695            0    1792.5168     17.83718    23.384815    21.909025    9138.6738    1804.8319    1438.3362    2134.3823  -0.53369556   -68.906301    260.96458   -4305.3154 
37161000    52.173838   -4644.8195   -4555.3953   -4644.8195            0     1951.385    17.775994    23.311054    22.017942    9123.7324    2402.4247    1858.2307    1593.4995   -207.61347   -160.65812    107.92746   -4295.7435 
37162000    55.927755   -4649.0167   -4553.1584   -4649.0167            0    2153.1933    17.972059    23.267953    21.820424    9124.7127    1467.7877    2479.4297    2512.3624   -81.931359   -140.92737    190.50876   -4266.6232 
37163000     54.46681   -4642.3152    -4548.961   -4642.3152            0    2419.4962    17.940071    23.296264    21.799817    9110.9421    1868.8234     2824.203    2565.4623    793.84624   -148.88543   -75.114576   -4227.4735 
37164000    51.102563   -4640.6222   -4553.0341   -4640.6222            0    1892.3148    17.897152    23.199375    21.966889    9120.7125    1446.7587    2518.8475     1711.338    2.0271287    52.037305    394.70617   -4301.3256 
37165000    54.451241   -4644.7008   -4551.3732   -4644.7008            0    1972.6113    17.944078    23.248304    21.853054    9116.4251    1827.3537    1992.3835    2098.0965    40.069982   -62.266269    528.92684   -4289.1073 
37166000    54.549818   -4640.0914   -4546.5949   -4640.0914            0    2524.8638    17.917833    23.241023    21.894598      9117.54    2029.0951    2363.7503    3181.7461   -362.02324    -47.54934    148.74161   -4210.8639 
37167000    53.264526   -4645.0377   -4553.7441   -4645.0377            0    2734.1984    17.874036    23.173865    21.933635    9085.1419    2371.0854    2923.7196      2907.79   -78.605521    123.43861    133.68557   -4191.4697 
37168000    56.034085   -4635.4854   -4539.4449   -4635.4854            0    2843.0392    17.864982    23.334906    21.850678      9109.06    2725.4687    2937.1753    2866.4736    -732.2994    335.39848    -401.7187   -4161.7576 
37169000     56.62376   -4640.9221   -4543.8709   -4640.9221            0    1908.4725     17.92126    23.293576    21.894057    9139.6791    1885.4876    2119.7281    1720.2017    -118.5241    151.11058    266.57306   -4289.4852 
37170000    54.449945    -4643.346   -4550.0207    -4643.346            0    2034.8718    17.856297    23.412137    21.855622    9136.8316    2015.9433    1691.8252    2396.8467    -264.7683   -275.53019    53.231306   -4278.8713 
37171000     53.48566   -4641.5784   -4549.9058   -4641.5784            0    1332.5889    17.864837    23.321604    21.967001    9152.2575    1122.5952    1523.9762    1351.1954    224.07714   -282.56481    21.520614   -4372.0368 
37172000     53.61889   -4644.8497   -4552.9487   -4644.8497            0    948.16305    17.983027    23.350899    21.875065     9185.774    719.39797    730.43848    1394.6527   -84.222393    -2.446203   -11.136168    -4425.928 
37173000    53.608029   -4644.2051   -4552.3227   -4644.2051            0    2038.1188    17.962071    23.199211    21.917619    9133.2008    1847.8689    2390.3187    1876.1689    -640.3437   -236.59281    -115.4609   -4280.8486 
37174000     54.18543   -4646.5202   -4553.6482   -4646.5202            0    1771.6169    18.065089    23.173288    21.821885    9135.2413    1486.3465    2049.9673    1778.5368    112.65256   -313.79412    81.015888   -4317.6191 
37175000    55.778598   -4643.8546    -4548.252   -4643.8546            0    1553.4035    17.934711    23.281114    21.920366    9152.6307    2022.5928    1619.4657     1018.152    -388.8165    118.84483    398.70048    -4340.901 
37176000    55.557981    -4647.627   -4552.4025    -4647.627            0    1378.7688    17.960576    23.253879    21.896522    9145.1494    1749.4444    1292.0894    1094.7725   -724.62947   -32.782255    92.844768   -4368.5125 
37177000    59.446108   -4645.4453   -4543.5567   -4645.4453            0    1140.2053    17.954579    23.237922    21.984549    9172.5497    777.07296    1344.7803    1298.7627   -7.6198444     -578.884    507.61983   -4391.0289 
37178000     57.05758   -4644.0031   -4546.2084   -4644.0031            0    1398.7785    17.883275    23.281808    21.983246    9152.8339    1760.1587    1608.5088     827.6679    520.39718   -222.46334    596.97827   -4359.4929 
37179000     54.53758   -4646.1915   -4552.7159   -4646.1915            0     1749.743     17.87303    23.411279    21.830673     9134.619    2074.2481    1369.1257    1805.8551   -172.55386   -85.349019    248.35985   -4319.6168 
37180000     56.49947   -4646.9255   -4550.0873   -4646.9255            0    2414.4113    17.974054    23.251443    21.769813    9098.0988    2187.2406    2197.0218    2858.9716    17.490142   -135.93783    55.051166   -4229.7277 
37181000    55.150483   -4641.7894   -4547.2634   -4641.7894            0    2237.8011    17.839234     23.35738    21.868103    9111.9526    2595.5062    1979.5872    2138.3099   -274.36734   -486.70955    72.026586   -4249.8854 
37182000    55.377799    -4636.468   -4541.5523    -4636.468            0     1901.452    17.817371    23.311793    22.017337    9145.0079    1872.8389    1952.2696    1879.2477    231.18408    359.30249    0.4484963   -4287.9546 
37183000    53.460465   -4646.4399   -4554.8105   -4646.4399            0    1755.6271    17.972608    23.284201    21.870854    9152.4675    2183.5465    1400.0053    1683.3294   -470.33827    441.41444   -69.389219   -4320.4705 
37184000     55.79655   -4650.5672   -4554.9338   -4650.5672            0    2215.4288     17.96846    23.190335    21.920995    9134.3604    2855.6294    1887.1385    1903.5185    347.41136   -44.773946   -266.08436   -4259.8049 
37185000    56.063569   -4642.9472   -4546.8561   -4642.9472            0     1966.547    17.870629    23.205135    22.039998    9139.7747    1705.2723    2451.2093    1743.1595    301.36806   -226.57201   -30.644596   -4284.7267 
37186000     56.70685   -4642.2648   -4545.0712   -4642.2648            0    2582.5032    17.888965    23.295826    21.873576     9115.555    2923.2149    2465.9795    2358.3152   -133.96172   -153.63718    331.05421   -4201.7506 
37187000    52.936515   -4642.5049   -4551.7735   -4642.5049            0    2470.7286    17.979883    23.199552    21.856084    9116.7242    2818.7557    2092.5032    2500.9268    397.57226   -371.47083   -364.76632   -4223.2702 
37188000    55.222799   -4635.5458   -4540.8958   -4635.5458            0    2499.2764    17.763543    23.375125    21.934826    9107.8889    2757.3403    2096.9313    2643.5577    -153.7227   -354.50454    360.46857   -4208.9189 
37189000    52.151911   -4645.5946    -4556.208   -4645.5946            0     2013.076    17.928672    23.248762    21.930659    9141.1247    1930.7215    2288.4058    1820.1007    -56.30077    250.56914    209.00658    -4287.837 
37190000     58.32902   -4640.6393   -4540.6653   -4640.6393            0    1909.7911    17.961977      23.2573    21.861446    9132.5554    2146.8692    1776.7657    1805.7383    291.56787   -41.440224    204.03011   -4286.3023 
37191000    52.063541   -4637.7865   -4548.5514   -4637.7865            0         1669    17.829673    23.468243    21.867259    9149.9413    1940.2724    1047.9662    2018.7614    332.51222    387.79621     60.05878   -4325.8359 
37192000    54.464262   -4640.8424   -4547.4926   -4640.8424            0    1623.7392    17.762932    23.358897    22.045064    9146.9933     1963.709    1610.0087    1297.4999   -115.83333   -120.60323    23.842512   -4330.8865 
37193000    53.716428    -4641.471   -4549.4029    -4641.471            0    1725.0132    17.928805     23.31619    21.894203    9152.4648    807.49112    1366.7411    3000.8073     151.9042   -455.92514    99.566546   -4319.1494 
37194000    56.237116   -4640.0038   -4543.6154   -4640.0038            0    1863.7078    17.963402    23.180112    21.936182     9134.087    1081.1716    2244.9261    2265.0258   -50.430479   -223.17419   -101.80495   -4295.3484 
37195000    55.358009   -4646.7625   -4551.8807   -4646.7625            0     1820.777     17.87278    23.342552    21.929646     9148.967    1942.4604    2507.9316     1011.939   -538.94459    85.553233    -141.0341   -4308.9376 
37196000    56.082886   -4647.0936   -4550.9694   -4647.0936            0    1705.4585    17.846403    23.275455    22.029668    9150.7526    2433.9729    1718.5516    963.85094    13.489215    224.02938    190.78357   -4323.3686 
37197000    56.202609   -4644.9145   -4548.5851   -4644.9145            0    1634.8314    17.874736    23.239474    21.992946    9135.8576    2317.0481    1718.8494    868.59662   -219.87266     153.3263   -15.415318   -4330.7649 
37198000    55.760372   -4645.0801   -4549.5087   -4645.0801            0    1887.8492    17.931644    23.262743    21.913211    9140.8598    2049.1369    2135.3923    1479.0185   -225.26689   -439.44133    190.16074   -4297.8394 
37199000    59.158919   -4647.5366   -4546.1403   -4647.5366            0    1393.0972    17.850017    23.438823    21.870447    9150.2319    1364.6749    952.02301    1862.5937   -284.76021   -586.67995   -11.154888    -4360.236 
37200000    54.149886   -4642.9224   -4550.1114   -4642.9224            0    1741.6909    17.911588    23.323288    21.875674     9138.719    1127.6289    1391.9813    2705.4626    328.54016   -60.001257    448.71778   -4317.9808 
37201000    56.705936   -4648.2922   -4551.1002   -4648.2922            0    1389.3725    17.933757    23.305608    21.894396    9150.9183    1824.6461    959.72985    1383.7415    162.24643    1.8305819   -28.889845    -4365.679 
37202000    55.632732   -4643.2183   -4547.8657   -4643.2183            0    1510.0609    17.996074    23.360863    21.779333    9156.1148    1657.6286    1140.9066    1731.6476   -509.51329   -293.90063   -51.031933   -4346.2234 
37203000    53.429713   -4644.7933   -4553.2166   -4644.7933            0    2039.8573    17.894771    23.215709    21.990573    9135.7593    1853.0336    2218.0573    2048.4811    86.826663    297.12958    -55.16332   -4281.4348 
37204000    56.954367   -4651.6046   -4553.9868   -4651.6046            0    1898.5562    17.886856    23.327765    21.887157    9132.6431    1691.6968    1830.2816    2173.6901    142.88309    -218.9137     32.49609   -4301.1176 
37205000    54.027337   -4650.0917   -4557.4907   -4650.0917            0    1339.2437    17.917743    23.354211    21.895108    9162.1118    1454.4936    1260.8531    1302.3844   -136.51963   -145.71926    63.888282   -4378.5409 
37206000    53.184668   -4645.0577    -4553.901   -4645.0577            0    2351.4192    17.902157    23.174135    21.971104     9115.086    2248.9747    2602.2044    2203.0784     518.5078   -326.67956    390.14979    -4241.317 
37207000    54.682987   -4644.9136   -4551.1889   -4644.9136            0    2048.8738    17.849806    23.327526    21.929262    9131.1654    1875.5868    1166.8642    3104.1703   -284.27212   -51.832144   -109.31575   -4278.3431 
37208000     56.02056   -4641.6351   -4545.6178   -4641.6351            0    2119.7007    18.008784    23.293639    21.781403    9137.0833    1425.7798    1441.5461    3491.7763   -41.160779   -98.003299     44.71035   -4263.1571 
37209000    53.872104   -4641.8187   -4549.4838   -4641.8187            0    1707.4241    17.931592    23.174618    22.000325    9142.4069    772.50232    2268.2573    2081.5129   -62.799942   -207.38197   -78.334124   -4321.8284 
37210000    55.453477   -4638.1558   -4543.1104   -4638.1558            0    1959.1103     17.78807    23.508786    21.866832    9144.1831    2403.6679    1474.1236    1999.5394   -372.15296   -328.81082    96.011711   -4281.8463 
37211000    55.094652   -4647.0429   -4552.6126   -4647.0429            0    1825.9014    17.893245    23.367401    21.888117    9151.8295    1439.1922    1537.3527    2501.1593   -743.64878   -96.173405    124.23159   -4308.9095 
37212000     55.94777   -4644.1776   -4548.2851   -4644.1776            0    1709.3107    17.884256     23.28105    21.941884     9135.816    1544.4205    1565.3539    2018.1578    344.12009   -388.74986    323.17335   -4320.5425 
37213000    56.115084   -4643.6998   -4547.5205   -4643.6998            0    1483.8075    17.948034    23.385012     21.82879    9161.8706    1197.6748    1123.2361    2130.5116    69.423307     63.13494    97.864797   -4349.2594 
37214000    55.512905   -4646.2173     -4551.07   -4646.2173            0      2048.42    17.908195    23.228767    21.961768    9135.7721    1972.1264    1807.7878    2365.3457   -491.77728   -109.60788   -82.531593    -4278.147 
37215000    53.052211   -4651.7622   -4560.8325   -4651.7622            0      2200.84    17.920995    23.257857    21.908683     9131.625     2840.557    1156.5861    2605.3768    108.64327    186.08087    183.03096   -4267.7348 
37216000     54.58142   -4645.1521   -4551.6014   -4645.1521            0    2294.1051    17.781205    23.322492    21.970957    9111.4003    3064.1839    2102.3592    1715.7723   -195.69148    77.954067    106.35784   -4246.7598 
37217000       53.737   -4648.4986   -4556.3952   -4648.4986            0     2269.464    17.951446    23.278218    21.847639    9129.6403    1901.5527     2012.371    2894.4683    363.07402   -120.58241    359.58528   -4254.2241 
37218000    52.984245    -4640.678   -4549.8648    -4640.678            0    2103.7504    17.993449    23.197432    21.889196    9136.5901    1843.0952    2214.1563    2253.9998    114.16515   -322.56062   -467.31355   -4269.5447 
37219000    55.850766   -4643.0258   -4547.2995   -4643.0258            0    2416.5138    17.873355     23.24701      21.9568     9123.096    2460.4817    2857.3347     1931.725    249.19808    68.253531    306.63588   -4225.7799 
37220000    53.580574   -4648.6355   -4556.8002   -4648.6355            0    2321.6822    17.985157    23.234758     21.83022     9122.429    1886.2405    2800.6263    2278.1798   -296.83952   -12.623124    190.78632   -4247.9207 
37221000    56.066594   -4646.4402   -4550.3439   -4646.4402            0    2416.6818    17.908072    23.207697    21.946224    9120.9627    2633.5545    2606.8765    2009.6144     155.4128   -81.624864   -131.62198   -4228.8772 
37222000    55.280113   -4648.0802    -4553.332   -4648.0802            0    2426.3175     17.89024    23.398738    21.792481    9122.5296    2065.2448    2544.5746    2669.1329    416.79934    177.91408    372.80117   -4230.5281 
37223000    51.931675   -4643.1003   -4554.0912   -4643.1003            0    2246.6583    17.949521    23.273488    21.856244    9130.4017    1970.0145    2866.5495    1903.4109    -283.8385    421.38033   -126.41973   -4254.9317 
37224000    54.315693   -4644.7254   -4551.6302   -4644.7254            0    1705.8819     17.88515    23.289893    21.970218    9151.5458      1596.19    2446.6097     1074.846   -4.3456941    177.06877    105.58633   -4323.9531 
37225000    53.561889   -4646.0539   -4554.2507   -4646.0539            0    1524.3105    17.925125    23.232346    21.984284    9155.1949     1464.852    2281.4648     826.6147    483.58038   -641.82049    43.621608   -4350.7261 
37226000    55.290402   -4645.1862   -4550.4204   -4645.1862            0    1487.8298    17.936008    23.191425    22.020412    9159.6457    1535.8061    1276.2848    1651.3985    71.877281    6.5348883    -425.6966     -4351.67 
37227000    58.358037   -4638.4877    -4538.464   -4638.4877            0    1637.4928    17.909439    23.295711    21.962501    9163.0439    1838.2634    1126.2075    1948.0075    349.53993    153.83479    147.30747     -4319.64 
37228000    57.304977    -4643.429   -4545.2103    -4643.429            0    2281.3998    17.923982    23.335575     21.80536    9120.4497      2166.84    1598.7719    3078.5873   -90.826218    74.430174    -101.6766   -4241.7558 
37229000    56.091684   -4644.7059   -4548.5666   -4644.7059            0    2050.2646    17.929542    23.321265    21.831973    9128.8125    1763.6173    1349.0304     3038.146   -370.66262    224.71851   -60.945627    -4275.606 
37230000    54.739121   -4637.1261   -4543.3052   -4637.1261            0    2095.0546    17.851817    23.345007    21.918971    9134.7487    2554.2191    857.08971    2873.8551    169.92363   -531.16961    483.82359      -4264.2 
37231000    58.215122    -4646.841   -4547.0623    -4646.841            0    1518.4745    17.922349    23.324289    21.911969    9159.7741    2024.3533    1386.6691    1144.4011   -132.28858   -175.39732    42.652816   -4344.2155 
37232000    54.548178   -4642.3075   -4548.8138   -4642.3075            0    2040.1961     17.87756    23.381631    21.855712    9135.8302    2673.4241    1882.4372     1564.727    39.807425   -360.64538    614.62741   -4276.9847 
37233000    55.949983   -4647.5013    -4551.605   -4647.5013            0    2482.6908    17.992708    23.206028    21.797236    9101.2025    1961.7498    2948.4259    2537.8969   -115.19018   -386.61706    303.13241   -4222.0732 
37234000    56.492556   -4642.6284   -4545.8021   -4642.6284            0    1781.7708    18.002194     23.22745    21.875679    9147.2073    1124.8603    2402.7905    1817.6614    858.17465   -137.95864   -92.899487   -4308.1092 
37235000    54.173809    -4647.125   -4554.2729    -4647.125            0    1636.8274     17.84741    23.331372    21.949006    9139.6662    1486.4795    1653.8315    1770.1713   -130.46857   -27.443539   -132.25904   -4336.0958 
37236000    54.250341    -4644.782   -4551.7988    -4644.782            0     1494.738    17.904551    23.255029    21.994061    9157.6856    1373.2102    1624.8294    1486.1743   -526.10043   -129.92012    85.199636   -4352.1684 
37237000    53.927448   -4644.0485   -4551.6187   -4644.0485            0    1986.3952    18.025536    23.233246    21.838327      9145.71    2305.9609    1731.0594    1922.1653   -473.85184   -46.480554    67.499793   -4286.6717 
37238000    56.571481   -4642.6675   -4545.7059   -4642.6675            0    2213.4651    17.981891    23.238088    21.853109    9131.6439    2212.1473    1865.8909    2562.3571    842.37465    -135.7752   -203.27105   -4250.9262 
37239000    54.884502   -4642.9612    -4548.891   -4642.9612            0    1929.5181    17.838575    23.335507    21.987985    9152.9864     2574.688    1564.6772    1649.1891   -36.028248   -185.17514     644.3331   -4291.3256 
37240000     53.88148   -4642.1955   -4549.8445   -4642.1955            0    2339.3291     17.89068    23.390839    21.830837    9135.7258     2894.189    2088.4409    2035.3573   -533.07358    92.629261    71.523309   -4238.1636 
37241000    55.609527     -4651.36   -4556.0472     -4651.36            0    1532.0577    17.986795    23.214123    21.927431    9155.7482    2052.1094    1863.8761    680.18759    36.729854   -246.06941    275.55699   -4351.4758 
37242000      53.5617   -4641.3094   -4549.5065   -4641.3094            0    2225.3043    17.946672    23.236395    21.889909    9128.4412    1490.4036    3228.5968    1956.9126   -2.0176181    257.45659    146.49029   -4253.2541 
37243000    56.307696   -4641.0438   -4544.5343   -4641.0438            0    1910.7527    17.785777    23.384915    21.962057    9134.4341    2419.1661    2278.9999     1034.092    398.21888    141.15734    123.53896   -4289.9908 
37244000    56.922533   -4644.6143    -4547.051   -4644.6143            0    1829.4613    17.914237    23.278607    21.896474    9131.2343     1740.775    1522.2327    2225.3761    263.81278    523.10133    426.52617   -4303.4222 
37245000    56.326541   -4641.1367   -4544.5949   -4641.1367            0    1502.3836    17.921364    23.360302    21.820565    9135.1461    2223.0355    966.05072    1318.0645    -561.6607    234.38152    -1.428347   -4344.4372 
37246000    55.787357    -4648.111   -4552.4934    -4648.111            0    2000.7252    17.890284    23.263986    21.934596     9129.164     2412.468    1255.9671    2333.7404    480.92772    59.771979    12.555412   -4286.1179 
37247000    54.439175   -4645.6083   -4552.3014   -4645.6083            0    2095.5637    17.925339    23.268042    21.888624    9129.4723     2412.136    1400.8057    2473.7495    222.80624   -130.48176    550.57676   -4273.2897 
37248000    56.632704   -4641.7345    -4544.668   -4641.7345            0    1868.8251    17.892942    23.340165    21.900061    9145.9962    2233.8977    1340.5683    2032.0093   -212.15762    125.64573   -258.05907   -4295.3948 
37249000    53.510931   -4646.1274   -4554.4115   -4646.1274            0     1987.125    17.858182    23.475206    21.789495    9134.6905    1327.5078     1415.538    3218.3293    324.38667    9.5584886   -38.834509   -4289.6865 
37250000      57.6584   -4639.4342   -4540.6096   -4639.4342            0    2175.9704    17.901747    23.296833    21.862118    9117.6841    1486.1057    2430.8027    2611.0028    341.59568    312.51091    -251.2491   -4251.2663 
Loop time of 353.178 on 64 procs for 250000 steps with 864 atoms

Performance: 122.318 ns/day, 0.196 hours/ns, 707.857 timesteps/s
387.0% CPU use with 16 MPI tasks x 4 OpenMP threads

MPI task timing breakdown:
Section |  min time  |  avg time  |  max time  |%varavg| %total
---------------------------------------------------------------
Pair    | 24.015     | 27.276     | 34.35      |  49.1 |  7.72
Bond    | 1.501      | 1.7769     | 2.3458     |  16.0 |  0.50
Kspace  | 185.95     | 195.3      | 203.46     |  28.6 | 55.30
Neigh   | 0.081446   | 0.090047   | 0.10218    |   2.3 |  0.03
Comm    | 42.956     | 48.798     | 52.117     |  29.8 | 13.82
Output  | 0.43496    | 0.43546    | 0.44092    |   0.2 |  0.12
Modify  | 54.484     | 61.651     | 68.806     |  57.6 | 17.46
Other   |            | 17.85      |            |       |  5.05

Nlocal:        54.0000 ave          60 max          45 min
Histogram: 1 1 2 3 1 0 0 0 3 5
Nghost:        2587.00 ave        2608 max        2570 min
Histogram: 4 3 1 0 0 2 0 1 3 2
Neighs:        13320.7 ave       14750 max       11216 min
Histogram: 1 1 3 2 1 0 0 0 2 6

Total # of neighbors = 213131
Ave neighs/atom = 246.67940
Ave special neighs/atom = 2.0000000
Neighbor list builds = 285
Dangerous builds = 0

unfix		3
unfix		2
unfix		1

write_data	data.final.${pid} nocoeff
write_data	data.final.1 nocoeff
System init for write_data ...
PPPM initialization ...
  extracting TIP4P info from pair style
  using 12-bit tables for long-range coulomb (../kspace.cpp:340)
  G vector (1/distance) = 0.3721856
  grid = 24 27 25
  stencil order = 5
  estimated absolute RMS force accuracy = 0.003103788
  estimated relative force accuracy = 9.3469653e-06
  using double precision FFTW3
  3d grid and FFT values/proc = 6300 1296
Last active /omp style is kspace_style pppm/tip4p/omp

write_restart   restart.lmp.${pid}
write_restart   restart.lmp.1
System init for write_restart ...
PPPM initialization ...
  extracting TIP4P info from pair style
  using 12-bit tables for long-range coulomb (../kspace.cpp:340)
  G vector (1/distance) = 0.3721856
  grid = 24 27 25
  stencil order = 5
  estimated absolute RMS force accuracy = 0.003103788
  estimated relative force accuracy = 9.3469653e-06
  using double precision FFTW3
  3d grid and FFT values/proc = 6300 1296
Last active /omp style is kspace_style pppm/tip4p/omp
Total wall time: 0:05:53
