LAMMPS (30 Jul 2021)
  using 1 OpenMP thread(s) per MPI task
package omp 0
using multi-threaded neighbor list subroutines
echo both

include		in.partitions
variable        pid world 0
include		in.temp
variable        temperature equal 263.66
variable	tempDamp equal 100.0
include		in.pressure
variable        pressure equal 4875.0
variable        pressureDamp equal 1000.0 # This is 1 ps
include		in.seed
variable        seed world 745823

units		real
atom_style	full
read_restart	restart.lmp.${pid}
read_restart	restart.lmp.0
Reading restart file ...
  restart file = 30 Jul 2021, LAMMPS = 30 Jul 2021
  restoring atom style full from restart
  orthogonal box = (0.41286993 1.5778375 0.50370035) to (17.794702 22.051340 21.709495)
  4 by 4 by 4 MPI processor grid
  restoring pair style lj/cut/tip4p/long/omp from restart
  restoring bond style harmonic/omp from restart
  restoring angle style harmonic/omp from restart
  864 atoms
  576 bonds
  288 angles
Finding 1-2 1-3 1-4 neighbors ...
  special bond factors lj:    0        0        0       
  special bond factors coul:  0        0        0       
     2 = max # of 1-2 neighbors
     1 = max # of 1-3 neighbors
     1 = max # of 1-4 neighbors
     2 = max # of special neighbors
  special bonds CPU = 0.361 seconds
  read_restart CPU = 0.592 seconds
include 	in.setup
variable	out_freq equal 1000
variable	out_freq2 equal 10000
variable	out_freq3 equal 1000

timestep	2.0

neigh_modify    delay 7 every 1

include		in.tip4p
# This is TIP4P/Ice

# create groups ###
group ox type 2
288 atoms in group ox
group hy type 1
576 atoms in group hy

# set charges - beside manually ###
set group ox charge -1.1794
Setting atom values ...
  288 settings made for charge
set group hy charge 0.5897
Setting atom values ...
  576 settings made for charge

# ### TIP3P Potential Parameters ###
pair_style lj/cut/tip4p/long/omp 2 1 1 1 0.1577 8.5
pair_coeff 1 1*2 0.000 0.000
pair_coeff 2 2 0.21084 3.1668
bond_style  harmonic
bond_coeff  1 450 0.9572
angle_style harmonic
angle_coeff 1 55 104.52
kspace_style pppm/tip4p/omp 1.0e-5
pair_modify tail yes

thermo          ${out_freq}
thermo          1000
thermo_style    custom step temp pe etotal epair emol press lx ly lz vol pxx pyy pzz pxy pxz pyz enthalpy

restart 	${out_freq3} restart.lmp.${pid} restart2.lmp.${pid}
restart 	1000 restart.lmp.${pid} restart2.lmp.${pid}
restart 	1000 restart.lmp.0 restart2.lmp.${pid}
restart 	1000 restart.lmp.0 restart2.lmp.0


include         in.dump
dump            myDump all atom ${out_freq2} dump.water.${pid}
dump            myDump all atom 10000 dump.water.${pid}
dump            myDump all atom 10000 dump.water.0
dump            myDump2 all dcd ${out_freq2} dump.dcd
dump            myDump2 all dcd 10000 dump.dcd
dump_modify     myDump append yes
dump_modify     myDump2 append yes


variable natoms 	equal  "count(all)"                        # NUMBER ATOMS
variable H      	equal  "enthalpy/v_natoms"                 # ENTHALPY-per-atom
variable Vol      	equal  "vol/v_natoms"                 # volume-per-atom
fix AVG all 		ave/time ${out_freq} 1 ${out_freq} v_Vol v_H file vol_enthalpy.dat
fix AVG all 		ave/time 1000 1 ${out_freq} v_Vol v_H file vol_enthalpy.dat
fix AVG all 		ave/time 1000 1 1000 v_Vol v_H file vol_enthalpy.dat


timer           timeout 23:50:00 every 1000
New timer settings: style=normal  mode=nosync  timeout=23:50:00

fix 		1 all shake 1e-6 200 0 b 1 a 1
       0 = # of size 2 clusters
       0 = # of size 3 clusters
       0 = # of size 4 clusters
     288 = # of frozen angles
  find clusters CPU = 0.469 seconds
fix             2 all nph iso ${pressure} ${pressure} ${pressureDamp}
fix             2 all nph iso 4875 ${pressure} ${pressureDamp}
fix             2 all nph iso 4875 4875 ${pressureDamp}
fix             2 all nph iso 4875 4875 1000
fix             3 all temp/csvr ${temperature} ${temperature} ${tempDamp} ${seed}
fix             3 all temp/csvr 263.66 ${temperature} ${tempDamp} ${seed}
fix             3 all temp/csvr 263.66 263.66 ${tempDamp} ${seed}
fix             3 all temp/csvr 263.66 263.66 100 ${seed}
fix             3 all temp/csvr 263.66 263.66 100 745823

run             250000
PPPM initialization ...
  extracting TIP4P info from pair style
  using 12-bit tables for long-range coulomb (../kspace.cpp:340)
  G vector (1/distance) = 0.37387096
  grid = 24 24 25
  stencil order = 5
  estimated absolute RMS force accuracy = 0.0031154818
  estimated relative force accuracy = 9.3821808e-06
  using double precision FFTW3
  3d grid and FFT values/proc = 2730 288
Last active /omp style is kspace_style pppm/tip4p/omp
Neighbor list info ...
  update every 1 steps, delay 7 steps, check yes
  max neighbors/atom: 2000, page size: 100000
  master list distance cutoff = 10.8154
  ghost atom cutoff = 10.8154
  binsize = 5.4077, bins = 4 4 4
  1 neighbor lists, perpetual/occasional/extra = 1 0 0
  (1) pair lj/cut/tip4p/long/omp, perpetual
      attributes: half, newton on, omp
      pair build: half/bin/newton/omp
      stencil: half/bin/3d
      bin: standard
Per MPI rank memory allocation (min/avg/max) = 9.239 | 9.242 | 9.247 Mbytes
Step Temp PotEng TotEng E_pair E_mol Press Lx Ly Lz Volume Pxx Pyy Pzz Pxy Pxz Pyz Enthalpy 
 3500000    268.25258   -3830.2368   -3370.4611   -3830.2368            0    3856.2794    17.381833    20.473503    21.205795    7546.4426    2717.4249    5009.8097    3841.6037   -252.58069   -1802.4557   -55.922434     -2946.05 
 3501000    260.87854   -3842.6824   -3395.5455   -3842.6824            0    4639.1235    17.241598    20.308325    21.034709    7365.2604    4794.4275    5041.9465    4080.9965     1300.479   -561.18433   -263.70896   -2897.2352 
 3502000    260.98929   -3847.2862   -3399.9594   -3847.2862            0    3713.4028    17.347057    20.432542    21.163369    7501.2388    3957.1152    4214.2703    2968.8228   -361.90777     1023.496    846.87342   -2993.7211 
 3503000    274.17415   -3850.6223   -3380.6972   -3850.6223            0    5387.2617    17.346343      20.4317    21.162498    7500.3124    4748.6868    5992.8038    5420.2947   -221.80996   -154.05919    967.09928    -2791.415 
 3504000    246.16904   -3828.0852   -3406.1599   -3828.0852            0    8190.3156    17.122153    20.167634    20.888986    7213.2448    8291.4099    7667.1633    8612.3737    370.36593    72.284123   -1850.8935   -2544.5569 
 3505000    270.39335    -3834.624   -3371.1791    -3834.624            0    4164.0212    17.277703    20.350852    21.078758    7411.6284    3654.4573    4892.5741    3945.0322   -371.61321   -330.58487    556.46778   -2921.0859 
 3506000    270.43101   -3842.3488   -3378.8393   -3842.3488            0    3504.0654    17.211007    20.272293    20.997389    7326.1272    2937.5431    3660.8649    3913.7884   -339.28437   -147.12525   -1141.7223   -3004.4508 
 3507000    267.07738   -3845.9041   -3388.1426   -3845.9041            0    3783.3328    17.256892    20.326339    21.053367    7384.8776    2583.2992    4713.9617    4052.7374   -693.45661   -1386.2528   -659.70269   -2980.6744 
 3508000    279.00522   -3854.6413   -3376.4359   -3854.6413            0    4386.0728    17.269954    20.341725    21.069304    7401.6602    4969.4126    5207.9267     2980.879   -945.83824    432.51911    276.42064   -2902.9785 
 3509000    285.24295   -3857.0093   -3368.1126   -3857.0093            0    6190.1786    17.259349    20.329234    21.056366    7388.0332    5325.0859    7310.0825    5935.3673    511.67698    1107.0066    172.81001   -2701.1402 
 3510000    263.97024   -3828.0895   -3375.6535   -3828.0895            0    3001.0533    17.355474    20.442456    21.173638    7512.1635    3258.3199    3559.8579    2184.9822    1134.9892   -138.03036    63.905362   -3046.8665 
 3511000    258.93794    -3831.345   -3387.5343    -3831.345            0    6126.7976    17.292609    20.368409    21.096942    7430.8268    4372.9909    7164.0601    6843.3419   -604.66471    962.63725    91.482511   -2723.5671 
 3512000    283.19528   -3843.8238   -3358.4368   -3843.8238            0     4351.028    17.265987    20.337052    21.064463    7396.5602    3881.5497    4825.3479    4346.1864   -596.86852    238.77731    -532.4162    -2889.086 
 3513000    273.10017   -3843.1354   -3375.0511   -3843.1354            0    6118.6568    17.230707    20.295496    21.021422     7351.312     5211.901    6754.2077    6389.8617   -92.017683   -1472.9944    199.41707   -2719.0616 
 3514000    250.11669   -3854.0538   -3425.3624   -3854.0538            0    5088.6332    17.305167      20.3832    21.112263    7447.0272    5407.1324    5356.3201    4502.4471    1197.5732   -1013.3157    417.97116   -2872.6999 
 3515000    261.37394   -3843.5191   -3395.5331   -3843.5191            0    5512.1903    17.318821    20.399283    21.128921    7464.6689     6728.276    5218.4357    4589.8591    160.61007     56.13691    1859.5742   -2795.4511 
 3516000    269.96798   -3851.6783   -3388.9625   -3851.6783            0    4087.7481    17.264917    20.335792    21.063158    7395.1855    4060.4398    4654.9643    3547.8402   -447.61305    168.90097    1886.6135   -2948.0939 
 3517000    266.41389   -3850.3179   -3393.6936   -3850.3179            0    4332.5273    17.220713    20.283725     21.00923    7338.5285    5811.5942    3490.8862    3695.1014    620.86655   -628.82112   -2213.7242   -2930.0052 
 3518000     247.7183   -3867.5354   -3442.9547   -3867.5354            0    3790.5958    17.283356    20.357511    21.085654    7418.9053    4243.2199    4353.3563    2775.2111   -892.68572    607.90344    433.37673   -3032.8231 
 3519000    264.13578   -3868.2061   -3415.4864   -3868.2061            0    6139.4159    17.218876    20.281562    21.006989    7336.1804    6342.8343    7306.2745    4769.1389   -1177.2799    -1700.868    838.53851   -2758.6262 
 3520000    254.48762    -3883.817   -3447.6339    -3883.817            0    5758.0942    17.204401    20.264512    20.989329    7317.6947    5590.7695     6611.934    5071.5791    869.41489   -526.46562    208.76112    -2833.124 
 3521000    265.93014   -3909.9418   -3454.1466   -3909.9418            0    4382.7535    17.271149    20.343133    21.070762    7403.1972    5715.4202    2714.3708    4718.4693    80.553698     1176.036    277.30242   -2980.9493 
 3522000     263.9854   -3842.9425   -3390.4805   -3842.9425            0    5248.9105    17.260874     20.33103    21.058226    7389.9915    4936.2085    5866.8335    4943.6896     -1537.14    1519.4256   -1124.7409   -2824.7769 
 3523000    259.74447   -3852.2103   -3407.0172   -3852.2103            0    4654.5116    17.216033    20.278213     21.00352    7332.5473     5142.584    3117.6059     5703.345    1462.7808    584.93489    893.11492   -2909.2745 
 3524000    272.41716   -3800.6996   -3333.7859   -3800.6996            0    5130.9666    17.328428    20.410599    21.140642    7477.0983    3288.1887    5552.2894    6552.4215   -722.23202    1019.6692   -1063.2372   -2774.2755 
 3525000    256.25884   -3816.4641   -3377.2453   -3816.4641            0    5019.9542      17.2623    20.332709    21.059965     7391.823    4895.0559    5430.1843    4734.6223   -273.32504    892.10869   -1904.0316   -2836.0834 
 3526000    267.12177   -3834.8743   -3377.0367   -3834.8743            0    4942.0267    17.322862    20.404043    21.133851    7469.8951    4393.4928    4049.5688    6383.0184   -268.28989    1140.9777   -1090.3823   -2838.6486 
 3527000    265.23224    -3823.673    -3369.074    -3823.673            0    5771.7503    17.307543       20.386    21.115162    7450.0957    4800.7552    7127.8737    5386.6222    544.39331   -858.47803   -514.36815   -2741.9617 
 3528000    257.50123   -3861.7186   -3420.3703   -3861.7186            0    4613.0995    17.287269    20.362119    21.090428     7423.945    5189.5551     4613.511    4036.2326   -2673.9631   -757.25349    239.42224   -2920.9072 
 3529000    249.41632   -3871.3936   -3443.9025   -3871.3936            0    3392.3207    17.325358    20.406983    21.136896    7473.1247    3865.2544    2136.7359    4174.9717    -2251.478    443.23842   -407.04596   -3074.1808 
 3530000    260.62489   -3821.2653   -3374.5631   -3821.2653            0    5355.8044    17.335694    20.419158    21.149506     7486.508    3893.8305    7193.6713    4979.9114    224.66377    -501.2815      359.562   -2789.8001 
 3531000    269.90361   -3849.0312   -3386.4257   -3849.0312            0    2511.9445    17.363207    20.451564    21.183072    7522.2093    2115.2531    2968.8186    2451.7619    -244.5366   -850.96369    563.63306   -3110.8561 
 3532000    256.78883   -3839.9095   -3399.7822   -3839.9095            0    5714.8124    17.335222    20.418602    21.148931    7485.8968    3753.7982    6228.6095    7162.0297     438.1226   -419.84051   -1009.7021   -2775.8726 
 3533000    269.95831   -3862.4029   -3399.7036   -3862.4029            0     5522.124    17.261598    20.331883     21.05911    7390.9218    4867.4473     6144.248    5554.6768   -498.07273    114.21661   -1414.9956   -2804.4793 
 3534000    264.66871   -3886.8365   -3433.2034   -3886.8365            0    3542.2619    17.286247    20.360916    21.089181    7422.6292     3281.395    3966.5423    3378.8483    922.29996    1261.4384    477.88437   -3049.7484 
 3535000    261.77011   -3902.2113   -3453.5463   -3902.2113            0     6761.438    17.254111    20.323063    21.049975    7381.3078    7358.7789    6834.3275    6091.2077   -77.599632   -860.75628   -647.84229   -2725.6856 
 3536000    259.21307   -3867.0241   -3422.7418   -3867.0241            0    4966.6696     17.26333    20.333922    21.061222    7393.1462    6995.3017    2776.2904    5128.4168    1145.5047    355.37681   -10.691206   -2887.2282 
 3537000    274.65634   -3883.5624   -3412.8108   -3883.5624            0    4386.7897    17.327164     20.40911    21.139099    7475.4618    5310.9803    4713.5368     3135.852   -1694.0079    2164.7695   -207.31367   -2934.5545 
 3538000    252.77514   -3861.3548   -3428.1069   -3861.3548            0    5482.5225     17.30734     20.38576    21.114914    7449.8329    6878.0588    2964.4244    6605.0842    77.750396   -875.92153     209.6908   -2832.4408 
 3539000    268.70164   -3889.8806   -3429.3352   -3889.8806            0    5008.9601    17.277905    20.351089    21.079003    7411.8872    3375.8173    5423.3246    6227.7384   -1410.5077   -214.53398   -1329.8279   -2887.8928 
 3540000     266.4273   -3886.5885   -3429.9412   -3886.5885            0    4679.8807    17.315962    20.395917    21.125434    7460.9735    3995.4215    4280.4184    5763.8021     124.1194    1027.0197   -300.03764   -2920.7204 
 3541000    267.45535   -3861.3101   -3402.9008   -3861.3101            0    5178.1383    17.282213    20.356164     21.08426    7417.4336    2960.2285    6737.7065      5836.48   -1786.0675   -559.91004   -760.19163   -2842.7523 
 3542000    262.26553   -3856.6963   -3407.1821   -3856.6963            0    6410.7415    17.225432    20.289283    21.014986    7344.5624    4556.7965    6914.1585    7761.2694   -81.250233    561.75323   -60.936479    -2720.509 
 3543000    279.92743   -3863.5891   -3383.8031   -3863.5891            0    4308.3599    17.237171     20.30311    21.029308    7359.5884     4032.766    3510.6016     5381.712   -1655.6213   -1197.2986   -796.14255    -2921.378 
 3544000    264.43027   -3849.4323   -3396.2079   -3849.4323            0    7870.3307     17.22387    20.287444    21.013081    7342.5651    7803.4667    6255.2086    9552.3169    1259.6022   -2055.3497   -262.30207   -2553.4231 
 3545000    258.76966   -3876.1263    -3432.604   -3876.1263            0    6541.3585    17.175824    20.230851    20.954465    7281.2895    6477.3113    7308.6551     5838.109   -197.34224    2093.9921    2374.8049   -2737.9762 
 3546000    283.00976    -3844.044    -3358.975    -3844.044            0    5901.2646    17.311703    20.390899    21.120237    7455.4689    7969.0012    4747.8624    4986.9304   -134.37917    781.15506    885.17883   -2717.3283 
 3547000    251.62981   -3819.3595   -3388.0746   -3819.3595            0    5510.2142    17.228867    20.293329    21.019177    7348.9574     7265.295    5787.8997    3477.4478    27.562756    824.06748   -667.59325   -2797.5064 
 3548000    268.81392   -3842.2034   -3381.4656   -3842.2034            0    5915.3364    17.242808    20.309751    21.036186    7366.8122    6904.5446    5098.0168    5743.4479   -452.19358    746.54119    80.876859   -2745.9372 
 3549000    271.13664   -3844.8254   -3380.1065   -3844.8254            0    4983.6451    17.266106    20.337193    21.064609     7396.714    5636.7174    3687.2755    5626.9424   -368.74729    181.03962      2022.92   -2842.5033 
 3550000    255.60955   -3839.4187   -3401.3127   -3839.4187            0    4180.7453    17.307952    20.386481    21.115661    7450.6233    4960.6107    2551.9221    5029.7032    107.88478   -124.37949   -13.516523   -2947.0341 
 3551000    269.06716   -3836.1155   -3374.9436   -3836.1155            0     2948.165    17.422715    20.521657    21.255671    7599.8159    3198.8216    1644.5505     4001.123    75.302334    -551.9928   -92.806171   -3048.1822 
 3552000    261.00874   -3860.3484   -3412.9883   -3860.3484            0    2858.9034    17.401553    20.496731    21.229854    7572.1574    1906.1103      4488.15    2182.4497    1038.6602    537.06053   -719.24967   -3097.2735 
 3553000    272.18919   -3892.5467   -3426.0237   -3892.5467            0    5877.6445    17.292728    20.368549    21.097088    7430.9806     5830.574    5377.5224    6424.8371   -201.37491   -1051.9231    1486.2528   -2789.0444 
 3554000    269.90839     -3845.34   -3382.7262     -3845.34            0    5594.2887    17.295246    20.371515     21.10016     7434.227    6438.3578    4676.3576    5668.1508     402.0551   -997.19743    405.18561   -2776.1902 
 3555000    255.50157   -3868.7577   -3430.8368   -3868.7577            0    5558.8535    17.361559    20.449623    21.181061    7520.0676    5529.2364    5808.3413    5338.9827    857.08979    200.60777    1188.3693   -2821.1836 
 3556000    270.90889   -3854.7338   -3390.4053   -3854.7338            0    5514.2304    17.339791    20.423984    21.154505    7491.8177    5955.0567    5007.3521    5580.2824    -1167.701    283.70998   -515.24477   -2787.9178 
 3557000    271.51342   -3894.1756   -3428.8109   -3894.1756            0    6553.3183    17.263598    20.334238    21.061549    7393.4909    7556.6161    4498.1016    7605.2371   -537.82504   -802.38621   -1598.8304   -2722.1896 
 3558000    267.71599   -3879.1114   -3420.2554   -3879.1114            0    4899.1982    17.296357    20.372823    21.101515    7435.6592    4796.7016    6330.5975    3570.2954   -613.22291   -274.86618   -148.39793   -2888.9792 
 3559000    259.19289   -3862.3943   -3418.1466   -3862.3943            0    3982.5421    17.340717    20.425074    21.155634    7493.0172    4969.3663    2999.0793    3979.1806   -867.55846   -1240.1336   -131.24679   -2982.9425 
 3560000    262.83465    -3896.616   -3446.1264    -3896.616            0    4597.6658    17.252172     20.32078    21.047609    7378.8199    4322.7118    3832.3171    5637.9685    286.45272   -252.23769    -459.4416     -2951.36 
 3561000    252.16452   -3825.5663   -3393.3649   -3825.5663            0    5257.1757    17.324392    20.405846    21.135718    7471.8754      5796.74    4903.5796    5071.2075    1373.1054   -807.33507   -362.08964   -2820.4924 
 3562000    269.12998   -3845.1322   -3383.8527   -3845.1322            0    4103.6062    17.418608     20.51682    21.250661    7594.4433    2260.6186    4626.1254    5424.0746    821.56499    490.68836   -1127.5215   -2929.3489 
 3563000    270.90053   -3812.0808   -3347.7665   -3812.0808            0    6116.6393    17.313465    20.392975    21.122387    7457.7462    6018.0149    5068.6128    7263.2902     -1329.93   -770.52985    2846.6482   -2682.4989 
 3564000    268.89015   -3844.0469   -3383.1783   -3844.0469            0    3474.9519    17.271566    20.343623     21.07127    7403.7327    1704.0727    6576.5216    2144.2615   -1487.5054   -955.16046   -40.760771   -3007.9675 
 3565000    256.22585   -3856.2954    -3417.133   -3856.2954            0    5238.8956    17.296614    20.373126    21.101828    7435.9907    5405.3841    6874.4339    3436.8688   -1206.6678    198.56763    32.574461   -2848.9942 
 3566000    273.85793   -3825.2123   -3355.8292   -3825.2123            0    5361.3307     17.22188      20.2851    21.010653    7340.0202    7215.5688    4758.7842     4109.639    274.10674   -1251.0173    225.17799   -2781.9166 
 3567000    255.14831   -3878.0698   -3440.7543   -3878.0698            0    5411.2238    17.218412    20.281015    21.006423    7335.5872    4454.5062    6604.2003    5174.9648    182.52182    1128.0927    1060.1581   -2861.8507 
 3568000    261.04459   -3851.7552   -3404.3337   -3851.7552            0    5739.4874    17.255609    20.324828    21.051803    7383.2309    4989.6505      6515.04    5713.7716   -598.69083   -31.161234    488.84545   -2786.3238 
 3569000    251.11856   -3856.7643   -3426.3557   -3856.7643            0    2997.9812    17.346122     20.43144    21.162228    7500.0255      2293.53    3212.2412    3488.1723    -168.5857    141.29234   -628.18673    -3098.436 
 3570000    265.39829   -3860.8286    -3405.945   -3860.8286            0     5696.136    17.258591     20.32834    21.055441    7387.0594    5265.4815     6132.662    5690.2646    330.80064    884.80203    1529.9466    -2792.285 
 3571000    252.87932   -3838.5548   -3405.1283   -3838.5548            0    4589.5123    17.315469    20.395336    21.124832    7460.3363     5730.873    3190.5991    4847.0649    260.63504   -287.38654    1172.5938   -2905.7832 
 3572000    283.06255   -3808.9137   -3323.7542   -3808.9137            0     4432.214    17.323781    20.405125    21.134972    7471.0839    5067.2608    3487.1376    4742.2435   -1290.7399    658.13794    1208.2654   -2840.8286 
 3573000    267.63287   -3909.1156    -3450.402   -3909.1156            0    6517.3514    17.256772    20.326198    21.053222    7384.7244     5479.689    8590.8536    5481.5117    249.17056    1565.3873    474.86935   -2748.4922 
 3574000    269.78039    -3914.865   -3452.4707    -3914.865            0    5280.0206    17.381508     20.47312    21.205399    7546.0193    3563.1961    6544.8465    5732.0191   -58.062371    62.511456    589.55295   -2871.3994 
 3575000     262.2634   -3887.3012   -3437.7907   -3887.3012            0    5560.8491    17.334934    20.418263    21.148579    7485.5238     5756.422    6146.7167    4779.4087    1931.2216    316.74758   -801.58996   -2830.7201 
 3576000    259.34361   -3872.4253   -3427.9192   -3872.4253            0    5895.2216    17.324085    20.405483    21.135343    7471.4772    6142.2227    7072.9304    4470.5117    1109.9051    128.37494    823.83553   -2785.5533 
 3577000    264.30899   -3889.8093   -3436.7928   -3889.8093            0     3593.649    17.347261    20.432782    21.163618    7501.5038    4569.5159    3559.6361    2651.7949    728.23446   -291.42408   -613.61163   -3043.6413 
 3578000    278.46815   -3860.7032   -3383.4184   -3860.7032            0    6638.5484    17.295206    20.371468    21.100111    7434.1757    7873.8775    6548.7683    5492.9995   -555.29471    363.12473    618.44925   -2663.6681 
 3579000    253.71497   -3862.7802   -3427.9214   -3862.7802            0    4250.4705    17.303143    20.380817    21.109794    7444.4155    3805.7547    6365.7871    2579.8698    757.30254   -901.78189    81.744813   -2966.4514 
 3580000     272.1788   -3847.0783   -3380.5732   -3847.0783            0    3549.6924    17.379057    20.470233    21.202409    7542.8279    4557.3375    2521.8052    3569.9345    1826.4756    737.55252    712.94967   -2990.0913 
 3581000    267.36229   -3886.7937   -3428.5438   -3886.7937            0    6319.3062    17.367235    20.456309    21.187986    7527.4459    6308.1462    4485.5641    8164.2083   -69.363393   -630.70295   -632.92415   -2734.8099 
 3582000    261.33048   -3894.7334   -3446.8219   -3894.7334            0      5511.95    17.313841    20.393418    21.122846    7458.2322     7026.055    4304.8475    5204.9475   -527.67964     642.3329   -82.560564   -2847.2835 
 3583000    255.92549   -3874.7208   -3436.0733   -3874.7208            0    6311.6372    17.373929    20.464193    21.196153     7536.153    7219.3446    3926.8946    7788.6725   -1352.7146   -1609.3888    712.47186   -2742.3798 
 3584000     283.9407     -3858.33   -3371.6654     -3858.33            0    4543.7557    17.396997    20.491365    21.224296    7566.2116    4519.8029    3835.5063     5275.958   -1060.4921   -1055.8692     1204.411   -2870.2827 
 3585000    270.32622   -3887.1323   -3423.8025   -3887.1323            0    4306.0626    17.281868    20.355758    21.083839    7416.9896    3084.4278    5062.5784    4771.1817    364.78009   -400.94072   -385.92397   -2958.0192 
 3586000    263.11945   -3835.0917   -3384.1139   -3835.0917            0    3929.2709     17.26444     20.33523    21.062577    7394.5726    3392.5907    3777.5019    4617.7202   -1014.6054    1048.4429    529.77914   -2960.3725 
 3587000    258.69165   -3851.8458   -3408.4571   -3851.8458            0    4705.3709    17.221854     20.28507    21.010622    7339.9877    2912.8377    4540.2545    6663.0205    902.76533   -1332.3798   -90.784252   -2904.7651 
 3588000    283.87926   -3841.9771   -3355.4178   -3841.9771            0    5796.2546    17.222222    20.285502     21.01107    7340.4572    3986.5442    6363.0474    7039.1721    213.70713   -382.21339   -210.00507   -2734.9111 
 3589000    256.01471   -3861.9359   -3423.1354   -3861.9359            0    6274.4323    17.204066    20.264118    20.988921     7317.267    7282.2575    6372.4333    5168.6062     222.0236   -653.11436    596.39276   -2753.5604 
 3590000    257.70567   -3826.5756   -3384.8769   -3826.5756            0    5910.2992    17.239677    20.306062    21.032366    7362.7995    5892.9992     6110.535    5727.3636    -220.1529    1508.1461    119.90758   -2750.2356 
 3591000    259.76971   -3888.5212   -3443.2848   -3888.5212            0    5649.9326    17.294799    20.370989    21.099614    7433.6505    4679.9361    6485.5788     5784.283    44.792344    302.65366    963.37446   -2830.7633 
 3592000    258.54613   -3836.4858   -3393.3465   -3836.4858            0    4577.8287    17.319992    20.400662    21.130349     7466.183    4242.1706    5429.8546    4061.4607   -525.97272   -996.64451    -1241.695   -2894.8823 
 3593000    262.61625   -3902.9515   -3452.8363   -3902.9515            0     4450.584    17.280718    20.354403    21.082436    7415.5087     4251.356    4435.5855    4664.8106    527.83093    173.25231   -1005.7951   -2971.5163 
 3594000    262.91394   -3861.4048   -3410.7793   -3861.4048            0     4944.998    17.247879    20.315723    21.042372    7373.3134     2365.681    6285.6021    6183.7108    770.29388   -680.79063   -179.63005   -2879.0327 
 3595000    261.02383   -3881.6498   -3434.2639   -3881.6498            0    5882.5928    17.211157    20.272469    20.997571    7326.3181    7154.7243    5522.9513     4970.103   -716.22009   -166.88426   -945.94963   -2805.7275 
 3596000     265.4791   -3842.6557   -3387.6336   -3842.6557            0     2031.083    17.372547    20.462566    21.194467    7534.3551    3398.2321     1425.966    1269.0509   -598.26601   -149.61947   -534.14381   -3164.4565 
 3597000    260.45381   -3848.9138   -3402.5049   -3848.9138            0    1833.8268    17.400008    20.494911    21.227969    7570.1404    1834.0166    1493.0287    2174.4352   -263.02637    523.63909   -431.70515   -3200.0454 
 3598000    256.00246   -3891.3207   -3452.5412   -3891.3207            0    4311.0322    17.282759    20.356807    21.084926    7418.1363    5963.9211    3163.1594     3806.016    627.06135    522.40228   -142.35695   -2986.1483 
 3599000    251.95041   -3815.9507   -3384.1164   -3815.9507            0    5805.8145    17.268626    20.340161    21.067684    7399.9532     7022.864    7741.3242    2653.2552    241.29532   -1325.6653   -464.36986   -2757.5486 
 3600000    265.40723   -3872.5373   -3417.6384   -3872.5373            0    4936.3101    17.269698    20.341423    21.068991    7401.3306    6064.7989    2861.8856     5882.246   -644.63722   -333.06473     760.0391    -2884.809 
 3601000    263.84839   -3863.8753   -3411.6482   -3863.8753            0    3877.8183    17.281986    20.355897    21.083983    7417.1412    5178.6105    3087.6612    3367.1832    1008.4589   -754.05354    1512.9294   -2992.1792 
 3602000    264.68763   -3848.0377   -3394.3722   -3848.0377            0    3752.7085    17.291735     20.36738    21.095876    7429.7006     3886.565    3936.4396     3435.121   -224.01855     634.7376    216.82239   -2987.7491 
 3603000    279.17025   -3864.8229   -3386.3346   -3864.8229            0    3473.4634    17.283246    20.357381     21.08552    7418.7632    3980.4262    1882.6963    4557.2676    599.45659    450.07592     1521.255   -3010.5231 
 3604000    258.43989    -3837.509   -3394.5519    -3837.509            0    4123.5559    17.287743    20.362678    21.091006     7424.556    3688.6331    4080.7444    4601.2901   -33.349378     51.87082   -285.23011   -2948.0552 
 3605000    274.75755   -3837.9457   -3367.0206   -3837.9457            0    3343.4614    17.307008     20.38537     21.11451    7449.4052    3245.2847    3317.9039    3467.1957     683.6784    -160.9824   -381.78321   -3003.7805 
 3606000    252.17401   -3841.5275   -3409.3099   -3841.5275            0    4484.8242    17.310536    20.389525    21.118814    7453.9616    4489.5882     3775.589    5189.2954    697.73771   -1460.5244    -1289.214   -2921.7719 
 3607000     258.7743   -3835.0243    -3391.494   -3835.0243            0    6821.5761     17.27582    20.348634     21.07646    7409.2052    8679.9554    5852.2013    5932.5715   -2.5765926   -661.83192    963.82433   -2654.3841 
 3608000    263.93439   -3844.8087   -3392.4342   -3844.8087            0      4389.62    17.418049    20.516161    21.249979    7593.7119    4374.0231    4307.8074    4487.0296   -1092.7908    1427.1346    460.17472   -2906.2991 
 3609000    275.23932   -3879.5043   -3407.7535   -3879.5043            0    5920.2189    17.311234    20.390347    21.119665    7454.8631    6366.6445    6061.8171    5332.1951   -861.17821   -829.46007    1568.2353   -2764.0983 
 3610000    260.61861   -3862.1425   -3415.4511   -3862.1425            0    6671.7222    17.268776    20.340337    21.067867    7400.1457    7483.6945    8476.3621    4055.1099   -659.86919    -1142.777   -1186.4145   -2695.4152 
 3611000    268.66463   -3846.5954   -3386.1134   -3846.5954            0    4953.1967    17.256836    20.326273    21.053299    7384.8061    4151.6608    4813.2566    5894.6728     1814.666     707.1878   -1164.6527    -2852.655 
 3612000     266.4749   -3857.6654   -3400.9366   -3857.6654            0    2806.7547     17.33705    20.420755    21.151161     7488.265    2632.8836    3931.5503    1855.8302    1503.6809    1268.5545    192.84919   -3094.4146 
 3613000    260.76521   -3852.5544   -3405.6118   -3852.5544            0    4617.5103    17.341869    20.426431     21.15704    7494.5114    3089.5755    5343.2763     5419.679   -558.81405    721.58079   -410.10884    -2900.919 
 3614000    279.23521   -3833.1034   -3354.5038   -3833.1034            0    5957.1832    17.253734    20.322619    21.049515    7380.8241    6836.0261    4164.9952    6870.5285   -2632.7704     464.2864    634.96306   -2713.2622 
 3615000    263.89235   -3845.1989   -3392.8965   -3845.1989            0    4011.4654    17.340271    20.424549     21.15509    7492.4391    3954.1208    3908.7298    4171.5457    735.16227    264.95102   -996.27387   -2954.5655 
 3616000    256.54495   -3874.0217   -3434.3125   -3874.0217            0     5212.223    17.238324    20.304469    21.030716    7361.0665    4039.7567    4224.2239    7372.6884   -532.35441   -600.00948    1575.8213   -2874.7615 
 3617000     250.2453   -3864.7434   -3435.8315   -3864.7434            0    4415.4306    17.350933    20.437107    21.168097    7506.2678    4788.0639      4039.49    4418.7379   -1031.5094    1123.8782   -1730.2022    -2952.469 
 3618000    256.84355   -3876.9128   -3436.6918   -3876.9128            0    5293.7671    17.232703    20.297848    21.023857    7353.8675    4823.2393    5622.6913    5435.3706   -794.92039   -482.90068   -990.24578   -2868.9426 
 3619000    268.52127   -3865.6672    -3405.431   -3865.6672            0    4770.6646    17.263052    20.333595    21.060884    7392.7897    4059.4768    5438.5206    4813.9963   -1066.6104    -376.4183   -417.67294   -2891.0758 
 3620000    261.45033   -3897.3453   -3449.2283   -3897.3453            0    3359.2637      17.2817     20.35556    21.083634    7416.7728    3577.9083    3292.0202    3207.8626   -856.44379    995.91961   -122.14805   -3085.8701 
 3621000    253.96021   -3875.3881    -3440.109   -3875.3881            0    6464.7575    17.216291    20.278517    21.003835    7332.8766    7107.2224    5934.5268    6352.5232   -429.41694   -543.35785   -457.97292   -2748.7517 
 3622000     273.0597   -3863.2633   -3395.2483   -3863.2633            0    4097.9867    17.298953    20.375881    21.104682     7439.008    3871.5125    3517.4707    4904.9768    400.44475    -28.03218    556.41665   -2950.6565 
 3623000    243.87972   -3874.7582   -3456.7567   -3874.7582            0    3448.4996    17.290504     20.36593    21.094375    7428.1141    2200.8219    5338.5455    2806.1314   -345.18673    626.53192   -1067.2736   -3083.1758 
 3624000    264.29121   -3859.0009   -3406.0148   -3859.0009            0    3779.9609    17.285322    20.359826    21.088052    7421.4366    2781.3783    2800.8811    5757.6233      714.265    170.58364   -860.42428   -2996.8943 
 3625000    285.57007    -3892.262   -3402.8047    -3892.262            0    5026.2328     17.35116    20.437374    21.168374    7506.5625    5293.7512    4798.3251     4986.622    239.72784   -1392.0845    585.99256   -2852.5553 
 3626000    257.09975   -3852.8424   -3412.1823   -3852.8424            0    4723.7421    17.375076    20.465545    21.197553    7537.6464     6078.265    3905.0068    4187.9546   -1553.7037   -468.43916    525.52459   -2892.9068 
 3627000    247.71293   -3828.7139   -3404.1424   -3828.7139            0    4903.5998    17.366429    20.455359    21.187003    7526.3977    4296.9898     6053.066    4360.7435   -23.334087   -2129.4817   -310.70931   -2865.8998 
 3628000    257.79696     -3833.68   -3391.8248     -3833.68            0    5319.4064    17.322797    20.403967    21.133772    7469.8112    4136.9956    6981.0917    4840.1319   -1270.1941    971.45209   -412.89746   -2812.3312 
 3629000    276.61058   -3840.0429   -3365.9418   -3840.0429            0    5305.6557    17.386078    20.478503    21.210975    7551.9736    4927.7155    4624.1931    6365.0586   -335.99261   -502.72616   -886.14615   -2781.5886 
 3630000    269.19332   -3902.4882   -3441.1001   -3902.4882            0    5880.9563    17.358855    20.446438    21.177762    7516.5541    5001.3294    4601.7454    8039.7941   -1079.2779   -984.29586     38.52501   -2796.4224 
 3631000    259.65092   -3886.0922   -3441.0594   -3886.0922            0    3955.3239    17.289372    20.364597    21.092994    7426.6552    4353.8322    3849.5009    3662.6386   -1195.9893    729.74765    421.84587   -3012.6577 
 3632000    267.35859   -3852.8489   -3394.6054   -3852.8489            0    5552.3532    17.398689    20.493358     21.22636    7568.4192    5063.4675    5151.4726    6442.1194   -1100.8055   -956.99305    417.28643   -2781.7499 
 3633000    272.03483   -3898.5504    -3432.292   -3898.5504            0    4122.6897    17.305418    20.383496    21.112569    7447.3512    4931.4496    2046.8923    5389.7272   -85.353063    67.768342    1575.7589   -2984.5186 
 3634000    241.21284   -3861.6352   -3448.2047   -3861.6352            0    7174.3333    17.258905    20.328711    21.055824    7387.4629     6772.187    7845.7337    6905.0792    2161.3379   -362.52562    502.94115   -2675.2523 
 3635000     247.3115    -3859.348   -3435.4646    -3859.348            0    5261.8812    17.321589    20.402544    21.132298    7468.2489    5200.8511    4899.0347    5685.7579    1158.0451   -34.252434   -247.00449   -2862.3576 
 3636000    254.25342   -3821.1031   -3385.3214   -3821.1031            0    4787.6695    17.276505    20.349441    21.077296    7410.0863    5176.0974    4983.9815    4202.9296    2019.1359      37.9262   -466.34282   -2867.9252 
 3637000    252.31734   -3838.6321   -3406.1689   -3838.6321            0    3022.9013    17.419323    20.517661    21.251533     7595.378    2534.1768    3905.3028    2629.2242   -434.87172    571.61864   -247.07004   -3071.3197 
 3638000    273.37536    -3859.291   -3390.7349    -3859.291            0    5326.1702    17.336527    20.420138    21.150522    7487.5866    4225.8034    5583.1932    6169.5139    223.27032   -469.00368    165.61231   -2809.1237 
 3639000    250.00832   -3882.8561   -3454.3504   -3882.8561            0    3496.9135    17.285679    20.360246    21.088488    7421.8968    4099.1205    3135.2439    3256.3762    303.82386   -361.80861    373.26206   -3075.8418 
 3640000    253.81036   -3842.2873    -3407.265   -3842.2873            0    3367.4514    17.340313    20.424599    21.155142    7492.4941    2936.3481    3077.5268    4088.4792   -881.58029    930.97044    542.49883   -3039.3024 
 3641000    244.96853   -3855.8921   -3436.0244   -3855.8921            0     6867.745     17.22285    20.286242    21.011837    7341.2606    6888.5094    7945.8748     5768.851   -635.53557   -106.86789    183.74896    -2700.731 
 3642000    268.06266   -3887.5022    -3428.052   -3887.5022            0     3518.377    17.327134    20.409075    21.139063    7475.4234    3786.0356    3943.2502    2825.8451    175.19967    970.52017    1491.9371   -3044.4737 
 3643000    246.51711   -3837.6252   -3415.1033   -3837.6252            0    4132.8776    17.356253    20.443373    21.174588    7513.1746    3345.9508    3182.8479    5869.8341    776.30967   -465.93532    -385.8495   -2962.2558 
 3644000    253.79779   -3835.1331   -3400.1323   -3835.1331            0    5115.4951     17.34752    20.433087    21.163934    7501.8396    5332.8146    4020.4657     5993.205    478.21824   -1936.9638   -688.06105   -2840.4632 
 3645000    268.66251   -3837.0167   -3376.5383   -3837.0167            0    5078.4942    17.342544    20.427226    21.157863    7495.3859    3912.1086    5457.7486    5865.6253   -128.15498   -636.54516   -1454.9082   -2821.3954 
 3646000    253.03716   -3856.7691    -3423.072   -3856.7691            0    4397.0476    17.325724    20.407415    21.137343     7473.599    3408.4932    4318.4155     5464.234   -151.27771    560.32272   -497.08417   -2943.8168 
 3647000    246.07985   -3844.6786   -3422.9061   -3844.6786            0    6520.8289    17.323478    20.404768    21.134602    7470.6919    3362.0377    7770.6537    8429.7952    545.38804    2123.6229   -126.67786   -2712.4463 
 3648000    248.78218   -3846.5045   -3420.1003   -3846.5045            0    5860.3258    17.338372    20.422313    21.152774    7489.9785    5871.8903    4427.0426    7282.0444    484.78939    615.10667   -1162.1112   -2779.9555 
 3649000    277.30867   -3839.6548   -3364.3572   -3839.6548            0    6322.4436    17.338918    20.422955    21.153439     7490.685    4959.3158    5010.1092    8997.9059   -675.77557   -975.36173    304.03099   -2673.6684 
 3650000    265.60567   -3882.4399   -3427.2009   -3882.4399            0    3670.1132    17.367615    20.456757     21.18845    7527.9404    3092.7984    3547.9915    4369.5498   -480.04434    65.202442    163.91902   -3024.2691 
 3651000    265.05087   -3840.8301    -3386.542   -3840.8301            0    3607.6551    17.313656      20.3932     21.12262    7457.9927    2955.2245    1850.5633    6017.1776    349.09973    559.63898   -506.20014   -2994.1475 
 3652000    253.71104   -3881.2213   -3446.3693   -3881.2213            0    3643.6803    17.345277    20.430445    21.161197    7498.9298    2162.7345    4367.8929    4400.4136   -1188.2926    116.02465   -590.63716   -3047.8811 
 3653000    270.33274   -3871.2902   -3407.9491   -3871.2902            0    6529.7951    17.254576    20.323611    21.050542    7381.9052    6409.7287     5911.186    7268.4707    1861.5229   -71.886143   -812.17506   -2704.9676 
 3654000    259.88078   -3874.8541   -3429.4273   -3874.8541            0    5026.3637    17.307446    20.385886    21.115044    7449.9708    4188.6247    5103.1162    5787.3503   -1120.1727   -601.68453    41.774894    -2883.312 
 3655000    258.98518   -3857.3341   -3413.4424   -3857.3341            0    5752.9571    17.306792    20.385115    21.114246    7449.1261    6651.5734     3606.994     7000.304   -763.40789   -1163.6272    22.557016   -2788.4534 
 3656000    240.00892   -3865.8725   -3454.5055   -3865.8725            0     3483.359    17.337132    20.420851     21.15126    7488.3705    2893.9081    3903.2162    3652.9526    199.58268   -529.83237   -1779.3478   -3074.0871 
 3657000     248.7571   -3837.5396   -3411.1785   -3837.5396            0    3669.9137    17.285204    20.359687    21.087909    7421.2852    3705.2341     4616.304    2688.2029    1342.5152   -2435.0148    590.92186    -3013.977 
 3658000    258.85963   -3854.9885   -3411.3119   -3854.9885            0    5490.1887    17.286914    20.361701    21.089995     7423.488     6134.795    6562.9624    3772.8087    683.72142    2169.8722    243.78867   -2816.9224 
 3659000    256.07736   -3879.3285   -3440.4207   -3879.3285            0    5195.5289    17.310038    20.388938    21.118205    7453.3176    4399.4499    3375.7418    7811.3948    541.94886     978.6329   -936.89965   -2875.6719 
 3660000    276.84617   -3868.3274   -3393.8226   -3868.3274            0    5481.3356    17.232286    20.297357    21.023349     7353.334    6104.2743    4708.3787    5631.3536   -526.49304    547.55545   -426.33678   -2805.9996 
 3661000    250.51802   -3885.8399   -3456.4606   -3885.8399            0    5646.2086    17.231731    20.296703    21.022671     7352.623    6290.6875    4229.4583    6418.4799    612.36271    273.12505   -648.59534    -2851.015 
 3662000    249.62592    -3844.549   -3416.6987    -3844.549            0    5232.7431    17.279105    20.352504    21.080468    7413.4327    6675.2668    5405.4394    3617.5232    3.0120503     824.9947   -292.35633   -2850.9486 
 3663000    267.80559   -3851.9259   -3392.9163   -3851.9259            0    6353.7307    17.222329    20.285628    21.011201    7340.5943    6388.4449    6754.8725    5917.8745   -1012.4142    12.630788     123.2525   -2712.7174 
 3664000    255.50358    -3831.472   -3393.5476    -3831.472            0    3918.8853    17.309322    20.388095    21.117332     7452.393    4026.2494    2381.2653    5349.1413   -782.75389   -412.10161   -1292.2767   -2967.6215 
 3665000    265.87991   -3853.3939   -3397.6848   -3853.3939            0    4303.6015    17.229452    20.294019    21.019891    7349.7063    6195.8953    2204.1367    4510.7725   -1022.9824    958.94954     556.9222   -2936.3907 
 3666000    254.81595   -3822.0985   -3385.3527   -3822.0985            0    5514.1542    17.253581     20.32244    21.049329    7380.6288    6138.6039    5605.2646    4798.5942    169.38442   -2131.7152   -257.94902   -2791.8152 
 3667000    252.88686   -3883.6728   -3450.2334   -3883.6728            0    4371.8523    17.313242    20.392712    21.122115    7457.4575    4500.4166    4975.6995    3639.4407    569.04329   -899.35098   -85.482746   -2974.7535 
 3668000    283.42716   -3855.3777   -3369.5932   -3855.3777            0    5325.8584    17.264718    20.335558    21.062916    7394.9304    3535.0053     5509.732    6932.8379    696.48175   -841.81247    324.02037   -2795.2128 
 3669000     269.9842   -3844.6901   -3381.9464   -3844.6901            0    4823.7529    17.298468     20.37531     21.10409    7438.3825     6427.387    4920.2844    3123.5871    134.36284    676.06831   -623.84391     -2858.66 
 3670000    268.80542   -3869.7523    -3409.029   -3869.7523            0     4455.915    17.323137    20.404368    21.134187    7470.2517    5189.8967     2604.319    5573.5293    87.449028    358.21786     -1338.53   -2923.5751 
 3671000    263.74983   -3883.3782     -3431.32   -3883.3782            0    4776.7688    17.307206    20.385603    21.114751    7449.6606     3125.561    5445.1024     5759.643    962.56502    47.591623   -339.95355   -2912.3448 
 3672000    253.50925    -3847.538   -3413.0318    -3847.538            0     3162.982    17.323986    20.405367    21.135222    7471.3491    3319.6831    2877.3545    3291.9084   -770.71352    1310.3766   -32.454641   -3068.3871 
 3673000    268.29585   -3867.8744   -3408.0245   -3867.8744            0    4188.2876    17.262757    20.333248    21.060524    7392.4108    4157.2696    5690.4985    2717.0948   -710.85306   -171.06563    253.31026   -2956.4821 
 3674000    254.19893   -3850.0246   -3414.3364   -3850.0246            0    4332.0325    17.279185    20.352598    21.080566    7413.5357    3046.7496    5373.7413    4575.6065    899.08528    514.94055    -1797.427   -2945.9622 
 3675000    265.28395   -3840.5666    -3385.879   -3840.5666            0    6533.6286    17.202914    20.262761    20.987515    7315.7975    7213.2827    6245.0912     6142.512   -2670.8844    619.53508    95.114048   -2688.7839 
 3676000    252.08515   -3829.9747   -3397.9094   -3829.9747            0     6290.815    17.210038    20.271151    20.996206     7324.889    8454.9348    6010.7352    4406.7748   -775.82824   -1232.0713    284.77727   -2725.8869 
 3677000    270.51584   -3830.8765   -3367.2216   -3830.8765            0    4961.7869    17.323641     20.40496    21.134801    7470.9027    3535.9381    4388.0741    6961.3485   -289.45443   -352.15249     594.5762   -2826.6079 
 3678000    267.98748   -3861.6436   -3402.3222   -3861.6436            0    3655.4534    17.349438    20.435346    21.166274    7504.3284    4719.0911    3018.1703    3229.0989   -1685.0678   -284.13998    173.65105   -3002.2587 
 3679000    260.63397   -3867.3261   -3420.6083   -3867.3261            0     3287.826    17.361167    20.449161    21.180583     7519.558    4825.4122    2404.3952    2633.6705   -919.98111   -1042.0563   -2314.0042   -3060.0488 
 3680000    262.29782   -3871.1591   -3421.5896   -3871.1591            0    5366.4766    17.166794    20.220216    20.943449    7269.8122    7199.3791    4294.3983    4605.6524    499.28836    183.89796    917.68186    -2852.621 
 3681000    272.02205   -3855.7806   -3389.5441   -3855.7806            0    4688.6272    17.255067     20.32419    21.051142    7382.5355    2809.9064    7540.3043     3715.671   -649.17767   -563.50844    703.03726   -2884.7351 
 3682000    276.02906   -3817.2559   -3344.1515   -3817.2559            0    5065.8654    17.191436    20.249241    20.973512    7301.1635    3603.8524    5823.8191    5769.9247   -269.71178    342.03908    447.36884   -2804.7383 
 3683000    270.19689   -3871.4479   -3408.3396   -3871.4479            0     4865.186     17.26215    20.332533    21.059783    7391.6311    5438.0779    5371.7692    3785.7109    729.20346    358.81445   -67.559929   -2883.8757 
 3684000    274.15932   -3883.9544   -3414.0547   -3883.9544            0    3456.2003    17.331585    20.414317    21.144493    7481.1853     1188.912    4042.3111    5137.3777   -1169.7105    1463.2654   -8.6789584   -3036.9646 
 3685000    265.83551   -3845.7887   -3390.1558   -3845.7887            0    4713.6656    17.250293    20.318567    21.045317    7376.4098       6563.2    4217.6806    3360.1162   -1471.4658     1814.642   -2752.6942    -2883.072 
 3686000     257.5638   -3829.1283   -3387.6728   -3829.1283            0    5486.7711    17.294136    20.370208    21.098805    7432.7955    4565.4312    4463.0394    7431.8425    1440.9401     66.30344   -125.95941   -2792.9085 
 3687000    258.12942   -3864.2081   -3421.7832   -3864.2081            0    4801.5873    17.314467    20.394155    21.123609    7459.0406     7480.055    3373.3607    3551.3461    1408.3543    810.08927    1132.5503   -2899.4547 
 3688000    276.26456   -3862.0891   -3388.5811   -3862.0891            0    5212.3285    17.242355    20.309217    21.035633    7366.2312    5067.7846    3941.6409    6627.5601    946.94709   -1432.1444   -858.90428   -2828.6263 
 3689000    250.35743   -3873.5046   -3444.4005   -3873.5046            0    3704.9607    17.323883    20.405245    21.135096    7471.2158    5522.0122      2253.61    3339.2597     1419.579   -760.82701    1194.2893    -3040.708 
 3690000    276.55041   -3826.8877   -3352.8898   -3826.8877            0     5156.248    17.319163    20.399686    21.129338    7465.1113    6261.3747    4828.3874    4378.9819    1066.0075    -157.9205    75.264064   -2791.5239 
 3691000     264.9839    -3833.963   -3379.7897    -3833.963            0    3229.0722    17.326372    20.408177    21.138133     7474.437     3455.211    2572.6043    3659.4014     212.5773   -2363.9375   -537.38408   -3027.7982 
 3692000    254.16499   -3829.3809   -3393.7508   -3829.3809            0    6245.2765    17.263334    20.333927    21.061228    7393.1519    6757.2446    6411.0042    5567.5805    839.77619    1004.4052      79.3762   -2720.3755 
 3693000    248.95047   -3838.2605   -3411.5679   -3838.2605            0    4107.3515    17.405488    20.501365    21.234654    7577.2945    3457.9007    4754.0107    4110.1431    1186.3297   -461.34977   -112.76085   -2957.6765 
 3694000    270.24312   -3852.6584   -3389.4709   -3852.6584            0    5022.6021    17.278244    20.351489    21.079417    7412.3236     6737.341    5082.5287    3247.9366    544.84063   -78.329067   -504.06584   -2846.5219 
 3695000    262.07313   -3851.4333   -3402.2489   -3851.4333            0    3142.0092    17.311975     20.39122    21.120569    7455.8207    4982.9561    1898.9877    2544.0839    1339.4292     221.8377   -2748.1827    -3060.601 
 3696000    241.53918   -3811.6793   -3397.6894   -3811.6793            0     4253.585    17.321585    20.402539    21.132293    7468.2436    5051.4951     3351.706    4357.5539    1223.1427    601.58046   -96.046949   -2934.4031 
 3697000    259.21481   -3837.6445   -3393.3591   -3837.6445            0    5035.9671    17.342003    20.426588    21.157203    7494.6841    4846.6917     5124.378    5136.8316    508.33999    206.13833   -972.67371   -2842.9165 
 3698000     258.4441   -3841.1454   -3398.1811   -3841.1454            0    5315.0273    17.293097    20.368983    21.097537    7431.4556    6077.9157    4498.6655    5368.5007     1464.294   -72.784409   -523.83583   -2822.1376 
 3699000    266.44415   -3833.0302   -3376.3541   -3833.0302            0    4920.1643    17.260625    20.330737    21.057923    7389.6722    5912.4365    5094.7138    3753.3428   -1545.6604     1613.595   -1005.3481   -2846.1041 
 3700000    269.77167   -3867.1693   -3404.7898   -3867.1693            0    3285.1562    17.310008    20.388903    21.118169    7453.2791    3512.2062     3258.165    3085.0975    922.13498    -83.76816   -532.68077   -3047.6985 
 3701000    255.66665   -3849.6736   -3411.4697   -3849.6736            0      3762.47    17.298604    20.375471    21.104257    7438.5584    3382.7772    3668.3221    4236.3107    1132.2735    1930.6888    958.83659   -3003.3029 
 3702000    248.74921   -3803.4598   -3377.1122   -3803.4598            0     5769.144    17.256608    20.326004    21.053021     7384.513     5630.401    5142.6401     6534.391   -1301.7747   -92.251562   -1032.6698    -2755.801 
 3703000    262.91531   -3878.6454   -3428.0176   -3878.6454            0    4711.3363    17.345963    20.431253    21.162034    7499.8199    3902.1094    5847.9663    4383.9333   -3.9768506   -29.061547   -527.83836   -2912.7049 
 3704000    249.78538    -3866.324   -3438.2004    -3866.324            0    4257.0621     17.32445    20.405913    21.135788    7471.9496     5753.798    3174.0925    3843.2957    390.78835    740.56343   -563.32311   -2974.3052 
 3705000    248.54714   -3871.4341   -3445.4328   -3871.4341            0    4786.4282    17.277208    20.350269    21.078153    7410.9909     4810.588    3956.4804    5592.2162   -814.29859   -1245.0291    1124.2913   -2928.1075 
 3706000    253.37725   -3857.9342   -3423.6542   -3857.9342            0    5204.9429    17.296936    20.373506    21.102221    7436.4063    3936.6677    6803.8386    4874.3225   -966.07967   -104.65811   -278.24781   -2859.1659 
 3707000    257.49728   -3870.2337   -3428.8922   -3870.2337            0     2420.561    17.431835    20.532399    21.266797    7611.7564     1228.594    4875.3305    1157.7583   -506.14255    809.48364   -63.353091   -3160.1866 
 3708000     261.7095   -3838.3597   -3389.7986   -3838.3597            0    5712.8111    17.311185    20.390289    21.119605    7454.7993    5882.5865    5500.4067      5755.44     1622.751   -97.076974     622.9266   -2768.6983 
 3709000    265.37773   -3879.2596   -3424.4113   -3879.2596            0    2838.6478    17.381438    20.473038    21.205313    7545.9284    3251.8414    3391.6543    1872.4477    1483.6908    1280.9847   -540.44129   -3112.0192 
 3710000    277.94448   -3851.0938   -3374.7065   -3851.0938            0    6061.2323     17.28859    20.363675    21.092039    7425.6471    5021.3968     6363.438    6798.8621    862.18991    943.86863    1628.8496   -2718.3026 
 3711000    268.29213   -3870.3622   -3410.5186   -3870.3622            0    5527.5803    17.360728    20.448645    21.180048    7518.9885    5899.7934    4789.0893    5893.8581     1125.776    141.34398   -515.72568   -2804.3822 
 3712000    268.47884   -3845.5395   -3385.3759   -3845.5395            0     3044.434     17.35342    20.440037    21.171132    7509.4969    4029.4791    2811.1455    2292.6775   -883.54406   -453.04119    169.68413   -3051.9547 
 3713000    266.54474   -3829.8624   -3373.0138   -3829.8624            0    3341.1364    17.340166    20.424425    21.154962     7492.303    1910.3199     3942.743    4170.3462   -274.89324    254.02161    34.950233    -3007.936 
 3714000    253.52431   -3837.2898   -3402.7578   -3837.2898            0    4244.4855    17.311836    20.391056      21.1204    7455.6411    5735.3411    3126.2821    3871.8333   -380.29944    1064.5471     25.29451   -2941.2427 
 3715000    251.75832    -3910.026   -3478.5209    -3910.026            0    4659.9758    17.319816    20.400455    21.130135    7465.9558    4919.5633    3739.9092    5320.4548    561.76297    363.34954    375.54429   -2971.1273 
 3716000    254.44099   -3863.0789   -3426.9758   -3863.0789            0    4281.4373    17.353961    20.440674    21.171792     7510.199    4229.5021    3937.3862    4677.4236    1471.2441    171.58095    1359.7165   -2958.0362 
 3717000    256.87308   -3886.3967   -3446.1251   -3886.3967            0    3282.2643    17.433997    20.534946    21.269436    7614.5897    4042.0409    3296.1127    2508.6392   -88.684422   -400.86915    740.44298   -3081.6264 
 3718000    256.42809   -3834.0364   -3394.5274   -3834.0364            0    4848.3249    17.357393    20.444716    21.175978     7514.655    5494.2363    3498.5169    5552.2215    212.07141    558.93589   -1392.0521   -2863.1823 
 3719000    262.19808   -3840.0996    -3390.701   -3840.0996            0    6280.2186    17.351425    20.437686    21.168698    7506.9065    7053.4825    6366.5971    5420.5761    639.03671    284.13389   -366.71638   -2703.1394 
 3720000    257.29192   -3866.4585    -3425.469   -3866.4585            0    5261.9526    17.295693    20.372042    21.100705    7434.8036    6070.6873     5892.943    3822.2276     420.4459   -277.11466    551.85955   -2854.9208 
 3721000    271.10549   -3875.2891   -3410.6236   -3875.2891            0    4184.9218    17.337893    20.421748    21.152189    7489.3576    3611.5195    4342.3905    4600.8553   -799.76079   -830.55302    651.19925   -2953.5272 
 3722000    264.35443   -3876.8748   -3423.7804   -3876.8748            0    5966.6656    17.240907    20.307511    21.033866    7364.3751    5751.1752     5906.149    6242.6728   -850.06641    182.11527    330.54044   -2782.9494 
 3723000    259.76186    -3887.196    -3441.973    -3887.196            0    4541.5854    17.320479    20.401236    21.130944    7466.8132    4679.9878    4140.6834    4804.0851   -268.41938    1571.2058   -551.45384   -2947.4134 
 3724000    270.55078   -3882.0132   -3418.2984   -3882.0132            0    6347.0493    17.252094    20.320688    21.047514    7378.7198    7413.6597    4734.2201     6893.268    933.73871    1101.0415    -1577.317   -2735.2857 
 3725000    255.02958   -3863.0189   -3425.9069   -3863.0189            0    6717.9934    17.145198    20.194779    20.917102    7242.4106    8171.9294    5913.3995    6068.6513   -150.70781    145.25363    746.48201   -2716.3314 
 3726000    260.29102   -3838.6025   -3392.4726   -3838.6025            0    5143.7196    17.269644     20.34136    21.068926    7401.2617    6550.3176    3823.7051    5057.1361    1022.0837   -634.37877   -734.84405   -2837.2605 
 3727000    273.36861   -3820.9031   -3352.3586   -3820.9031            0    3891.0818    17.433476    20.534331      21.2688    7613.9062    5154.8795    3059.7204    3458.6456   -749.86772    111.98436    796.26205   -2920.2889 
 3728000    279.09897   -3843.4397   -3365.0736   -3843.4397            0    4507.2757    17.321545    20.402492    21.132244    7468.1915    4374.2254    5025.0423    4122.5594    180.22333    1265.9621   -408.54645   -2874.1595 
 3729000    258.62987   -3837.6116   -3394.3289   -3837.6116            0    2975.5019    17.319163    20.399686    21.129338     7465.111    2999.5517    998.22738    4928.7267   -472.27486   -468.19964    154.68388    -3070.383 
 3730000    255.24354   -3812.1873   -3374.7086   -3812.1873            0    5110.8047    17.317426    20.397641     21.12722    7462.8657      4807.96    5893.1206    4631.3334   -268.50481    452.35735   -1296.3553   -2818.4576 
 3731000    259.50678   -3844.8294   -3400.0436   -3844.8294            0    3900.7011    17.301634    20.379039    21.107953    7442.4671    4390.7564    3955.8329     3355.514    535.85496   -913.78242   -1735.9601   -2976.6586 
 3732000    267.79215   -3876.3321   -3417.3455   -3876.3321            0     4091.822    17.247228    20.314957    21.041578    7372.4787    3161.2114    5317.3179    3796.9368    523.10125   -204.80276    1117.4303   -2977.3927 
 3733000    257.24105   -3871.1158   -3430.2134   -3871.1158            0     6459.108     17.28562    20.360178    21.088417    7421.8216    7141.2481    6943.3189    5292.7568   -1430.8842   -696.76081    1167.6633   -2731.0818 
 3734000    258.27898   -3862.7554    -3420.074   -3862.7554            0     3652.658    17.360548    20.448432    21.179828    7518.7539    3352.3731    2920.1814    4685.4195    1503.3301     872.8364    1893.7461    -3019.548 
 3735000    254.61547    -3894.699   -3458.2968    -3894.699            0    4164.6605    17.321476    20.402411     21.13216    7468.1024     4481.218    7112.5355      900.228   -942.14708    318.95579    1162.3006   -3004.7044 
 3736000    266.74893    -3879.334   -3422.1355    -3879.334            0    2663.7503    17.288857     20.36399    21.092366    7425.9919    3028.6003    227.76197    4734.8888    282.45864   -60.673184   -376.96845   -3133.6501 
 3737000    270.15697   -3895.3169   -3432.2771   -3895.3169            0    3552.0203    17.231474      20.2964    21.022358    7352.2937     3354.104    3975.8373    3326.1196    80.903799   -1645.6256    1245.7494   -3051.4094 
 3738000    254.28507   -3863.2061   -3427.3702   -3863.2061            0    4809.8358    17.291785    20.367438    21.095937    7429.7644    6776.1356     4620.267    3033.1048   -288.45764   -243.32045   -358.47889   -2906.1981 
 3739000    268.32691   -3892.3385   -3432.4353   -3892.3385            0    5014.6223    17.312774    20.392161    21.121544    7456.8528    4351.8017    3855.0509    6837.0141   -124.20005    99.237724   -570.39146   -2887.0924 
 3740000    267.77954   -3885.5057   -3426.5407   -3885.5057            0     4350.386    17.369623    20.459121    21.190899    7530.5511    3158.9356     5304.415    4587.8073   -32.319063    744.89613    93.674661    -2948.758 
 3741000    264.42923    -3876.687   -3423.4643    -3876.687            0    4598.9856    17.289764    20.365058    21.093471    7427.1596    4714.1207    6094.3393     2988.497    1637.6364    1316.8753   -923.96718   -2925.3137 
 3742000    254.80591    -3827.437   -3390.7084    -3827.437            0    4237.3626    17.336662    20.420298    21.150688    7487.7627    4469.6837    3558.6372    4683.7668   -214.14462   -200.50166    459.27491   -2927.9827 
 3743000    278.04624   -3853.4058   -3376.8441   -3853.4058            0    5956.9058    17.367492    20.456612      21.1883      7527.78    5975.9514     6045.777    5848.9889   -1886.6872     585.7337   -1309.0311   -2722.8655 
 3744000    264.77403   -3847.5119   -3393.6983   -3847.5119            0    6067.6953    17.331385    20.414082    21.144249    7480.9265    4267.5182     5709.022    8226.5458   -547.43078    1517.6841    580.99248   -2731.7028 
 3745000    281.70997   -3869.2149   -3386.3736   -3869.2149            0    3981.2254     17.27634    20.349247    21.077095    7409.8745    2273.3579     3814.505    5855.8133   -995.84309   -1115.0392   -559.37349   -2956.1408 
 3746000    256.51975   -3842.9234   -3403.2574   -3842.9234            0    3801.1557    17.335376    20.418783    21.149118    7486.0954    1615.8563    4553.4189    5234.1918    1170.2676   -178.34115   -608.28191   -2988.2585 
 3747000     256.7345   -3847.2549   -3407.2207   -3847.2549            0    4564.3279    17.337345    20.421102     21.15152    7488.6465    5359.6899    3933.9477     4399.346    1682.0217   -537.14961   -373.60192   -2908.7312 
 3748000    271.05152   -3814.8117   -3350.2387   -3814.8117            0     4369.641    17.358189    20.445654     21.17695    7515.6895    4336.0136    4747.2056    4025.7039   -292.94801   -695.50404     364.3075   -2871.2883 
 3749000    262.61612   -3873.4236   -3423.3086   -3873.4236            0    4255.7813    17.387789    20.480518    21.213062    7554.2029    5598.4757     3486.125    3682.7431   -6.9465064   -753.88138   -157.80031   -2954.4479 
 3750000    267.72856    -3833.679   -3374.8015    -3833.679            0    5286.8011    17.314386     20.39406    21.123511     7458.936    5524.1328    5023.8425    5312.4281   -502.45083   -67.052711   -496.03702   -2799.6983 
Loop time of 453.054 on 64 procs for 250000 steps with 864 atoms

Performance: 95.353 ns/day, 0.252 hours/ns, 551.811 timesteps/s
99.0% CPU use with 64 MPI tasks x 1 OpenMP threads

MPI task timing breakdown:
Section |  min time  |  avg time  |  max time  |%varavg| %total
---------------------------------------------------------------
Pair    | 20.078     | 25.322     | 29.773     |  45.7 |  5.59
Bond    | 0.26147    | 0.27796    | 0.29144    |   0.9 |  0.06
Kspace  | 200.79     | 208.18     | 216.33     |  23.6 | 45.95
Neigh   | 5.4888     | 5.9531     | 6.8977     |  15.3 |  1.31
Comm    | 92.898     | 101.46     | 107.3      |  32.6 | 22.39
Output  | 1.518      | 1.5203     | 1.5404     |   0.3 |  0.34
Modify  | 100.88     | 103.51     | 108.28     |  17.1 | 22.85
Other   |            | 6.83       |            |       |  1.51

Nlocal:        13.5000 ave          19 max           8 min
Histogram: 2 4 8 9 11 8 8 6 5 3
Nghost:        2152.56 ave        2187 max        2116 min
Histogram: 3 3 7 11 8 5 11 5 7 4
Neighs:        4133.03 ave        6232 max        2346 min
Histogram: 1 5 10 11 12 8 6 5 5 1

Total # of neighbors = 264514
Ave neighs/atom = 306.15046
Ave special neighs/atom = 2.0000000
Neighbor list builds = 14372
Dangerous builds = 0

unfix		3
unfix		2
unfix		1

write_data	data.final.${pid}
write_data	data.final.0
System init for write_data ...
PPPM initialization ...
  extracting TIP4P info from pair style
  using 12-bit tables for long-range coulomb (../kspace.cpp:340)
  G vector (1/distance) = 0.37419119
  grid = 24 24 25
  stencil order = 5
  estimated absolute RMS force accuracy = 0.0030797005
  estimated relative force accuracy = 9.2744264e-06
  using double precision FFTW3
  3d grid and FFT values/proc = 2730 288
Last active /omp style is kspace_style pppm/tip4p/omp
WARNING: Not all mixed pair coeffs generated from mixing. Use write_data with 'pair ij' option to store all pair coeffs. (../write_data.cpp:312)

write_restart   restart.lmp.${pid}
write_restart   restart.lmp.0
System init for write_restart ...
PPPM initialization ...
  extracting TIP4P info from pair style
  using 12-bit tables for long-range coulomb (../kspace.cpp:340)
  G vector (1/distance) = 0.37419119
  grid = 24 24 25
  stencil order = 5
  estimated absolute RMS force accuracy = 0.0030797005
  estimated relative force accuracy = 9.2744264e-06
  using double precision FFTW3
  3d grid and FFT values/proc = 2730 288
Last active /omp style is kspace_style pppm/tip4p/omp
Total wall time: 0:07:36
