LAMMPS (30 Jul 2021)
  using 1 OpenMP thread(s) per MPI task
package omp 0
using multi-threaded neighbor list subroutines
echo both

include		in.partitions
variable        pid world 0
include		in.temp
variable        temperature equal 259.31
variable	tempDamp equal 100.0
include		in.pressure
variable        pressure equal 7250.0
variable        pressureDamp equal 1000.0 # This is 1 ps
include		in.seed
variable        seed world 745823

units		real
atom_style	full
read_restart    restart.lmp.${pid}
read_restart    restart.lmp.0
Reading restart file ...
  restart file = 30 Jul 2021, LAMMPS = 30 Jul 2021
  restoring atom style full from restart
  triclinic box = (-3.2150913 -0.21913023 0.0042766590) to (14.825090 22.799129 19.225721) with tilt (-0.069309768 -6.4672756 0.016860954)
  4 by 4 by 4 MPI processor grid
  restoring pair style lj/cut/tip4p/long/omp from restart
  restoring bond style harmonic/omp from restart
  restoring angle style harmonic/omp from restart
  1008 atoms
  672 bonds
  336 angles
Finding 1-2 1-3 1-4 neighbors ...
  special bond factors lj:    0        0        0       
  special bond factors coul:  0        0        0       
     2 = max # of 1-2 neighbors
     1 = max # of 1-3 neighbors
     1 = max # of 1-4 neighbors
     2 = max # of special neighbors
  special bonds CPU = 1.896 seconds
  read_restart CPU = 2.347 seconds

include 	in.setup
variable	out_freq equal 1000
variable	out_freq2 equal 10000
variable	out_freq3 equal 1000

timestep	2.0

neigh_modify    delay 7 every 1

include		in.tip4p
# This is TIP4P/Ice

# create groups ###
group ox type 2
336 atoms in group ox
group hy type 1
672 atoms in group hy

# set charges - beside manually ###
set group ox charge -1.1794
Setting atom values ...
  336 settings made for charge
set group hy charge 0.5897
Setting atom values ...
  672 settings made for charge

# ### TIP3P Potential Parameters ###
pair_style lj/cut/tip4p/long/omp 2 1 1 1 0.1577 8.5
pair_coeff 1 1*2 0.000 0.000
pair_coeff 2 2 0.21084 3.1668
bond_style  harmonic
bond_coeff  1 450 0.9572
angle_style harmonic
angle_coeff 1 55 104.52
kspace_style pppm/tip4p/omp 1.0e-5
pair_modify tail yes

thermo          ${out_freq}
thermo          1000
thermo_style    custom step temp pe etotal epair emol press lx ly lz vol pxx pyy pzz pxy pxz pyz enthalpy

restart 	${out_freq3} restart.lmp.${pid} restart2.lmp.${pid}
restart 	1000 restart.lmp.${pid} restart2.lmp.${pid}
restart 	1000 restart.lmp.0 restart2.lmp.${pid}
restart 	1000 restart.lmp.0 restart2.lmp.0


include         in.dump
dump            myDump all atom ${out_freq2} dump.water.${pid}
dump            myDump all atom 10000 dump.water.${pid}
dump            myDump all atom 10000 dump.water.0
dump            myDump2 all dcd ${out_freq2} dump.dcd
dump            myDump2 all dcd 10000 dump.dcd
dump_modify     myDump append yes
dump_modify     myDump2 append yes


variable natoms 	equal  "count(all)"                        # NUMBER ATOMS
variable H      	equal  "enthalpy/v_natoms"                 # ENTHALPY-per-atom
variable Vol      	equal  "vol/v_natoms"                 # volume-per-atom
fix AVG all 		ave/time ${out_freq} 1 ${out_freq} v_Vol v_H file vol_enthalpy.dat
fix AVG all 		ave/time 1000 1 ${out_freq} v_Vol v_H file vol_enthalpy.dat
fix AVG all 		ave/time 1000 1 1000 v_Vol v_H file vol_enthalpy.dat



fix 		1 all shake 1e-6 200 0 b 1 a 1
       0 = # of size 2 clusters
       0 = # of size 3 clusters
       0 = # of size 4 clusters
     336 = # of frozen angles
  find clusters CPU = 0.717 seconds
fix             2 all nph tri ${pressure} ${pressure} ${pressureDamp}
fix             2 all nph tri 7250 ${pressure} ${pressureDamp}
fix             2 all nph tri 7250 7250 ${pressureDamp}
fix             2 all nph tri 7250 7250 1000
fix             3 all temp/csvr ${temperature} ${temperature} ${tempDamp} ${seed}
fix             3 all temp/csvr 259.31 ${temperature} ${tempDamp} ${seed}
fix             3 all temp/csvr 259.31 259.31 ${tempDamp} ${seed}
fix             3 all temp/csvr 259.31 259.31 100 ${seed}
fix             3 all temp/csvr 259.31 259.31 100 745823


run             250000
PPPM initialization ...
  extracting TIP4P info from pair style
  using 12-bit tables for long-range coulomb (../kspace.cpp:340)
  G vector (1/distance) = 0.38308684
  grid = 24 30 32
  stencil order = 5
  estimated absolute RMS force accuracy = 0.0019781862
  estimated relative force accuracy = 5.957249e-06
  using double precision FFTW3
  3d grid and FFT values/proc = 4080 384
Last active /omp style is kspace_style pppm/tip4p/omp
Neighbor list info ...
  update every 1 steps, delay 7 steps, check yes
  max neighbors/atom: 2000, page size: 100000
  master list distance cutoff = 10.8154
  ghost atom cutoff = 10.8154
  binsize = 5.4077, bins = 5 5 4
  1 neighbor lists, perpetual/occasional/extra = 1 0 0
  (1) pair lj/cut/tip4p/long/omp, perpetual
      attributes: half, newton on, omp
      pair build: half/bin/newton/tri/omp
      stencil: half/bin/3d/tri
      bin: standard
Per MPI rank memory allocation (min/avg/max) = 9.340 | 9.346 | 9.348 Mbytes
Step Temp PotEng TotEng E_pair E_mol Press Lx Ly Lz Volume Pxx Pyy Pzz Pxy Pxz Pyz Enthalpy 
13000000    270.74566   -4819.4467   -4277.9219   -4819.4467            0    7285.9936    18.040182    23.018259    19.221445    7981.7737    7283.8447    6769.0565    7805.0797    230.29616    107.88668    589.13243   -3429.7887 
13001000    263.44488   -4838.9261   -4312.0037   -4838.9261            0    6237.2188    17.818776    23.117459    19.413768    7997.0127    6949.8068    5909.3375    5852.5121   -393.62719   -192.87573    244.84324    -3584.568 
13002000    254.22662   -4810.2405   -4301.7558   -4810.2405            0    6959.1784    18.058718    23.187032    19.122127    8006.9716    7457.4103    5402.6359     8017.489   -384.25901   -259.83099    869.26526   -3489.1084 
13003000    263.33516   -4845.5031   -4318.8003   -4845.5031            0    6296.0726    17.878196     23.20759    19.340762    8024.6729    6928.4771    5848.6055    6111.1351   -1703.5086   -340.76045   -61.890209   -3581.9607 
13004000    248.77574   -4838.4508   -4340.8686   -4838.4508            0      6227.01     17.90042    23.345616    19.074734    7971.2613    6333.3427    5335.1402    7012.5471   -407.14571   -747.15426    671.71683   -3616.9621 
13005000     260.5707   -4826.1192   -4304.9456   -4826.1192            0    5432.6883    17.877042    23.155743     19.38236    8023.4478    5787.3995    5563.5286    4947.1369    1185.1851   -445.74304   -575.05205   -3669.2464 
13006000    263.87866   -4824.8104   -4297.0205   -4824.8104            0    7428.4057    17.927399     23.16041    19.229637    7984.2591    7384.4688    7195.9231    7704.8253    484.06617   -1024.8673    798.77946   -3432.0404 
13007000    268.78735   -4831.6239    -4294.016   -4831.6239            0    9135.7103    17.604376    23.289164    19.261008    7896.8441    12048.235    7567.7737    7791.1227    1249.0017   -1071.7927   -624.31542   -3241.8802 
13008000    259.01484   -4820.0883   -4302.0266   -4820.0883            0    6400.2357    17.981429    23.171878    19.216049    8006.6257    5055.1824     6862.289    7283.2358    -1722.378    500.73971   -1113.9304   -3554.6811 
13009000    271.44378     -4808.08   -4265.1589     -4808.08            0    8057.8842    17.941399    23.097699    19.233478    7970.4501    8072.8927     7203.926    8896.8338   -216.67948    384.69164    1397.7643   -3328.5037 
13010000    268.55155   -4821.8177   -4284.6815   -4821.8177            0     7639.427     17.93953    23.154238    19.263958    8001.7887    7541.5408    7011.2474    8365.4927   -941.76912   -548.73184   -152.34758   -3393.1765 
13011000     263.6265   -4836.0787   -4308.7932   -4836.0787            0    6977.4976    17.950607     22.91912    19.362738    7966.0649    7396.6385     8361.971    5173.8833   -273.76119    635.25624    14.327773   -3498.1692 
13012000    271.23517    -4802.839   -4260.3351    -4802.839            0    5831.7235    17.998875     23.05772    19.355685    8032.8613    4271.0124    6563.1728    6660.9854   -200.77075    318.47035    418.67329   -3577.1426 
13013000     265.0459   -4791.3247   -4261.2001   -4791.3247            0      7388.53    17.919035     23.21476    19.228249    7998.6843    7805.1847     6636.899    7723.5064    111.34492   -247.41989    57.614425   -3399.3089 
13014000    265.37498   -4842.5303   -4311.7475   -4842.5303            0    6889.9696    17.889678    22.943001    19.393887    7960.0833    6628.5062    5583.3001    8458.1024    366.09473   -2345.3853    178.15371   -3511.8934 
13015000    276.29119   -4849.0238   -4296.4073   -4849.0238            0    7427.3936    18.065655    22.868306    19.275231    7963.1936    7378.3795    7750.1218    7153.6795    1001.1656   -847.70157    1851.3463   -3433.8269 
13016000    255.43374   -4806.2176   -4295.3185   -4806.2176            0    9107.0127    18.051896    22.807373    19.341207    7963.0906    7424.6236    9304.5253    10591.889   -1074.0337    749.31952   -1436.1794   -3237.6892 
13017000    260.75534   -4828.2176   -4306.6747   -4828.2176            0    7585.5441    18.118387    22.801551    19.351632     7994.688    6611.3176    7761.8139    8383.5008    1568.4304    -98.01047    1037.5994   -3422.2433 
13018000    260.76958   -4853.0634   -4331.4921   -4853.0634            0    6665.3835    18.006239    22.731381    19.436294    7955.4049    6944.6086    7299.7081    5751.8337   -313.77759    602.82002   -747.84398   -3558.1648 
13019000    264.16435    -4828.435   -4300.0736    -4828.435            0    6056.3579    18.013423    22.918489    19.354379    7990.2702    6409.1178    6122.9493    5637.0066   -522.18189    -455.4441     97.18473   -3594.3269 
13020000    260.20912   -4825.6621   -4305.2117   -4825.6621            0    7304.8169    17.963945    22.862191    19.362013    7951.8847    6247.7535    7559.3564    8107.3409    137.52795   -1199.2968   -182.21265   -3458.0715 
13021000    253.45817   -4828.5933   -4321.6457   -4828.5933            0    7545.8948    17.964039    22.803204    19.400136    7947.0261    8708.6686    8012.1026    5916.9133   -1771.9582   -668.65809     -1458.69   -3447.0823 
13022000    258.26778   -4822.3633   -4305.7958   -4822.3633            0      6265.46    18.042087    22.874657    19.415107    8012.7417    5317.0339    7273.6288    6205.7175   -547.77349    692.29026   -798.51081   -3573.6291 
13023000    255.18636   -4849.1857   -4338.7814   -4849.1857            0    6944.4521    18.177948    22.833561    19.244914    7987.9341    6482.7742    7174.0628    7176.5192    798.60126   -398.51476   -358.91341   -3529.7817 
13024000    268.80839    -4800.299    -4262.649    -4800.299            0     7164.546    18.027711    22.831784    19.489379     8021.922    5458.2941    8391.1459    7644.1981   -1156.7994    1641.7345    -3346.339    -3424.458 
13025000    268.62407   -4807.1135   -4269.8322   -4807.1135            0     9117.631    18.015035     22.90095    19.256249    7944.3858    7861.0208    9299.2265    10192.646    123.84597    216.03009    1200.7866    -3213.457 
13026000    267.81254   -4819.3403   -4283.6821   -4819.3403            0    7635.3869    17.877317    23.031288    19.428433     7999.417    8380.9962    7339.6107    7185.5539   -269.92146    1398.4025   -1.8197103   -3392.9127 
13027000    265.94621   -4797.3605   -4265.4352   -4797.3605            0    7919.4166    18.249294    22.972864    19.078563    7998.4689    7370.0925    8076.5629    8311.5944   -64.112971    343.38973   -979.45785   -3341.6395 
13028000    239.19705   -4792.7998   -4314.3762   -4792.7998            0    7871.4385    17.831949    23.014896    19.417533    7968.9645    8065.3977    7189.9597    8358.9581   -1200.2629   -11.536956   -402.30015   -3399.5641 
13029000    271.38395   -4846.0233   -4303.2219   -4846.0233            0    6641.1321    17.987657     23.07957    19.272024    8000.7302    6824.3503    6103.9989    6995.0472   -65.988084   -424.01461   -1968.1364   -3528.3184 
13030000    267.08443   -4807.7435   -4273.5416   -4807.7435            0      7030.86     17.98168    23.070936    19.249627    7985.7883       6374.3    7338.1481    7380.1317    393.20986   -1203.9345    313.40697   -3454.6958 
13031000    260.37391   -4800.4656   -4279.6856   -4800.4656            0    5527.2772    17.997328    22.958738    19.477089    8047.8545    9015.2112    4032.9561    3533.6642   -657.84417   -601.32932   -909.98976   -3630.9507 
13032000    263.41874   -4814.7338   -4287.8638   -4814.7338            0    7899.1601    17.973432    22.873337    19.360877    7959.4956    7040.3701     8125.392    8531.7181    487.08288    1180.3828    861.25795   -3370.9208 
13033000    253.44749   -4805.7989   -4298.8726   -4805.7989            0    6935.4147    18.051154    22.933349    19.305574    7991.9941    5935.6526    7703.1227    7167.4687   -946.40155   -458.62827   -981.16975   -3490.5151 
13034000    252.33299   -4833.7632   -4329.0661   -4833.7632            0    7848.2204    17.942319    22.978702    19.282241    7949.8981     7369.086    7634.9331     8540.642    1055.8958   -364.58764   -2230.5058   -3419.1347 
13035000    257.87212   -4853.3186   -4337.5425   -4853.3186            0    7517.0656    17.916749    22.899492    19.360168    7943.1757    8333.4955    8083.3255    6134.3757    1049.1693   -256.43058   -2196.2974   -3466.7426 
13036000    251.73362   -4833.7278   -4330.2294   -4833.7278            0     6242.174     18.05483    22.908286    19.308183    7985.9649    7381.4393    5443.8906    5901.1922    897.10622   -1786.9536   -91.990301   -3603.2215 
13037000    251.33171    -4801.863   -4299.1685    -4801.863            0    7830.8025    18.029361    22.794659       19.486    8008.2225     7414.095    8653.9047    7424.4076   -135.57462   -102.44984     23.62689   -3384.5957 
13038000    260.57862   -4828.3506   -4307.1612   -4828.3506            0    6610.6293    18.086337    22.828143    19.388115    8004.9161    5937.7073    6652.5526    7241.6281     2098.948   -76.334027    1893.1703   -3535.4133 
13039000    257.88257   -4826.7307   -4310.9337   -4826.7307            0    7520.7445    17.993095    22.810534     19.43642     7977.331    7209.0323    7037.1198    8316.0814     1090.124   -512.00832    43.044471   -3435.9613 
13040000    262.12335   -4826.1133   -4301.8343   -4826.1133            0    4283.9395     18.13471    22.966283    19.365864     8065.628    3846.8773    4430.8991     4574.042    1954.4354    906.19635    61.570098   -3797.9191 
13041000    263.95755    -4826.784   -4298.8363    -4826.784            0    7937.6497    17.987772    22.826714    19.394923    7963.5888    7254.2889    8039.4384    8519.2219   -809.43789    1058.2718    1022.2794   -3376.9515 
13042000    257.58536   -4812.9528   -4297.7503   -4812.9528            0    7308.6141     18.12376    22.905151    19.265412    7997.6014    5550.3232    8080.6511    8294.8678    677.62197    355.33045   -631.34171   -3445.2968 
13043000    265.29207   -4811.6481   -4281.0312   -4811.6481            0     6661.367    17.800754    22.992549    19.448472    7959.9623    7861.9444    6391.0557    5731.1009    299.94835   -1127.6845    983.36819   -3507.7272 
13044000       253.89   -4832.2609   -4324.4495   -4832.2609            0    7820.3044    17.866521     23.00527    19.309214    7936.5533    7722.5772     7370.283    8368.0529    584.83812   -751.03908     1199.798   -3419.2768 
13045000    251.58583   -4847.1634   -4343.9607   -4847.1634            0    6434.7072    18.000468    23.050732     19.28283    8000.9082    5846.2754    6926.5505    6531.2957   -1001.8595    479.93125    -164.2778   -3593.1266 
13046000    260.86069   -4835.6237   -4313.8701   -4835.6237            0    7526.3037    17.969387    22.966562    19.229036     7935.728     6576.431    7606.8947    8395.5853     51.14432    249.28334   -551.02132   -3442.8174 
13047000    256.80247   -4818.2078   -4304.5712   -4818.2078            0    6259.2875    17.872578    23.217081    19.347509    8028.2312    6035.6281    6075.0005    6667.2338    366.80657    620.89601    1132.6389   -3571.7118 
13048000    250.51944   -4821.4246   -4320.3547   -4821.4246            0    7812.8733    17.712474    23.324189    19.193405    7929.3539    7826.4877    6494.0865    9118.0456     427.3166   -378.92703    468.15639   -3416.8624 
13049000    260.90291   -4806.2908   -4284.4527   -4806.2908            0    6570.9993    18.040846    23.020461    19.301369    8016.0241    7286.9494     6246.562    6179.4865    511.78426   -323.30109    1732.7663   -3516.2668 
13050000    258.55022   -4845.6759   -4328.5436   -4845.6759            0    7262.1032    17.931338    23.028578    19.354419    7992.0826    7207.8258    6145.1412    8433.3425   -669.88743   -112.56986   -1009.2532   -3482.0995 
13051000    276.01351   -4788.5074   -4236.4463   -4788.5074            0    8980.1904    17.917235    23.106388     19.26846    7977.1923    10155.636    7981.9116    8803.0241   -1421.5633    670.12998    290.84646   -3191.6984 
13052000    247.37866   -4823.4421   -4328.6542   -4823.4421            0    8182.8449     17.89888    22.818996     19.45077    7944.3649    9042.3387    8733.2318    6772.9641   -884.89513   -653.53127    801.93709   -3380.5864 
13053000    245.39538   -4834.4987   -4343.6776   -4834.4987            0    8959.4395     18.05707    22.839827    19.292829     7956.755    10021.497    9005.8348    7850.9862    1326.9142    1500.3188   -268.36039   -3304.0143 
13054000    273.32103   -4815.9099   -4269.2341   -4815.9099            0    8591.6097    17.988342      22.9082    19.277491    7943.8787     7045.942    10122.101    8606.7861   -867.73478    2327.8227    766.21261   -3273.8675 
13055000    265.57107   -4810.6556   -4279.4807   -4810.6556            0    7109.7096    18.048127     22.76437    19.434708    7984.8319    5199.0948     8714.411    7415.6229    1711.8162    1233.5831    2016.5604   -3451.5508 
13056000    271.22442   -4801.0603   -4258.5779   -4801.0603            0    6561.0354    18.119386    22.858615    19.429453    8047.3698    6394.3946    7191.3589    6097.3527   -1269.9819    694.58112    -1135.128   -3488.5575 
13057000    264.10096   -4866.0346      -4337.8   -4866.0346            0    5787.0066    17.995558    22.786657    19.543807    8014.1067    6301.0311     6231.195    4828.7937   -53.272294   -1189.9497    49.462163    -3661.429 
13058000    264.74122   -4838.8757   -4309.3605   -4838.8757            0    6169.3159     18.10576    22.797067    19.375152    7997.2534    4272.1987    7793.6205    6442.1284    637.04736    598.69571     1449.881   -3589.8225 
13059000    258.67028   -4825.2025   -4307.8299   -4825.2025            0    7255.9434    18.041764    22.709991    19.542872    8007.2674    7890.4844    6717.4582    7159.8876    42.520372      64.6556    1693.3215    -3460.497 
13060000     263.1369    -4835.929   -4309.6227    -4835.929            0    6082.1399    18.134481    22.879464    19.282102    8000.2831    5561.9747    6902.5083    5781.9368   -487.15332    684.15702   -1652.6774   -3599.9834 
13061000    261.62478   -4809.5784   -4286.2965   -4809.5784            0    6208.3712    18.026581    22.898865    19.456673    8031.4857    6169.6393    6125.6717    6329.8026     463.1681   -706.92143    1215.8334   -3559.1039 
13062000     271.5863   -4793.9116   -4250.7054   -4793.9116            0    8133.2657    18.029504    22.889941     19.33104    7977.8098    8050.4263    9295.4352    7053.9357   -2067.6456   -985.40167   -1129.7428   -3304.4148 
13063000    264.01717   -4804.7275   -4276.6605   -4804.7275            0    7401.2727    18.062104    22.846162    19.401376    8005.9732    8730.8215    5583.7536    7889.2431   -1158.8934   -1218.1886    1531.7478    -3412.496 
13064000    252.85456   -4818.6297   -4312.8894   -4818.6297            0    7030.2299     18.20102    22.851379    19.220113    7993.9988    5515.2511    7683.1006    7892.3381   -368.62713    1101.6863   -317.97554   -3493.2751 
13065000     255.0346   -4844.3155   -4334.2148   -4844.3155            0     7501.822    17.871183     22.98731    19.449064    7989.8783    9642.2025    7218.5232    5644.7402    73.374957   -493.04497    1589.8796   -3460.0712 
13066000    274.19875   -4808.8656   -4260.4343   -4808.8656            0    8894.8735    17.988896    22.899714    19.259312    7933.6919    7845.2266    9095.5235    9743.8704    110.60178   -769.81154    556.99259   -3231.2551 
13067000    258.10957   -4830.0064   -4313.7554   -4830.0064            0    6695.6588    18.086752    22.823981    19.409249    8012.3646    7367.4321    7534.6275    5184.9169    1301.5868    856.30255    1799.8721   -3531.3535 
13068000    257.24288   -4817.4276   -4302.9101   -4817.4276            0    7185.6349    18.093884    22.770956    19.390953    7989.3642      5245.51     9077.235    7234.1596    -1266.502    596.60273    992.72262   -3465.6637 
13069000    255.35156   -4850.3349   -4339.6002   -4850.3349            0    7805.4955    17.988598    22.834964    19.355462    7950.6236    8408.1105     7218.034     7790.342    634.21045   -885.25316   -382.88007   -3434.5398 
13070000    263.69431   -4826.8384   -4299.4172   -4826.8384            0     6306.073    18.012226     22.87965      19.4051    7997.1021    5155.2474     8624.072    5138.8996   -64.705555     156.0561    92.556181   -3563.9428 
13071000    243.94018   -4794.9161   -4307.0056   -4794.9161            0    7112.9596    17.985096    22.879944    19.360576    7966.8381    8674.7134    7438.4172    5225.7481    677.39385    888.89881    693.94136   -3480.5639 
13072000    276.48162   -4801.4981   -4248.5007   -4801.4981            0    6146.6112     18.09875    23.086647    19.240631    8039.4944     6014.013    6872.0697    5553.7508    1335.2426   -509.86985    2798.6882   -3527.8242 
13073000    262.06625   -4867.8234   -4343.6585   -4867.8234            0    6889.0102    17.811537    23.034046    19.461916    7984.6747    7606.5312    7156.7715     5903.728   -1776.0228   -436.01079     -1195.93   -3541.4451 
13074000    246.73555   -4833.5648   -4340.0633   -4833.5648            0    7486.9771    18.054544     22.99795    19.131951     7943.921    5498.5527    7984.2756    8978.1029    1161.5363    785.52632     2036.178   -3472.6675 
13075000    259.55674   -4831.1081   -4311.9626   -4831.1081            0    7189.6519    17.994794    22.849465    19.456612    8000.0026    8608.3518    6681.6369    6278.9671   -1329.3309    124.98208   -553.00246   -3473.1327 
13076000    253.34983   -4792.5678   -4285.8368   -4792.5678            0    7188.5709    18.077838    22.944838    19.207612    7967.1845     7230.258    7827.8783    6507.5765    227.98337    498.89045     1282.059   -3450.5736 
13077000    245.81182   -4842.9964   -4351.3424   -4842.9964            0    7378.9781    18.003005    22.831613    19.390924    7970.3995    8596.5787    7831.0984    5709.2572    148.09462   -148.90185   -636.68696   -3493.6092 
13078000     269.3993   -4791.8464   -4253.0145   -4791.8464            0      9166.49     18.07969     22.82346     19.32248    7973.2493    7138.2359     10179.91    10181.324   -1424.8288   -132.84019   -1257.8085   -3187.1198 
13079000      262.257   -4847.5895   -4323.0431   -4847.5895            0    6628.3563    17.897994    22.930917    19.507765    8006.3267    6622.3843    6229.5785    7033.1062     835.1679    595.74053    1845.7674   -3549.0893 
13080000    276.50288    -4829.934   -4276.8941    -4829.934            0    7726.5555    18.092991    22.932593    19.234984    7980.9642    7057.4939    8178.2942    7943.8784   -1396.4971   -1854.1455   -460.55134    -3377.568 
13081000     252.7548   -4806.6656   -4301.1248   -4806.6656            0     6065.547    17.995026    22.947553    19.394057     8008.617    6555.6069    6089.4153    5551.6186    569.32192    126.26525    972.55288   -3592.6843 
13082000    251.32347   -4833.4167   -4330.7388   -4833.4167            0    4945.6993    18.130797     22.72615    19.457253    8017.2289    4719.8933    5149.9825     4967.222     233.0741    51.831885    1190.5015   -3752.4725 
13083000     262.8962   -4805.0167   -4279.1919   -4805.0167            0    5886.1078    18.046882    22.859162    19.373828    7992.4128    3987.0395    7144.9838       6526.3   -68.099782   -496.03612   -1370.6632   -3593.1004 
13084000    264.81042   -4797.4349   -4267.7814   -4797.4349            0    6670.8941    17.926699    22.973628    19.426596    8000.6749    6496.5285    6303.3212    7212.8326   -843.50581   -1255.5067   -1062.2843   -3489.4105 
13085000    247.16773   -4817.7757   -4323.4097   -4817.7757            0      7022.55    18.117393    22.847255    19.340036    8005.4732     7025.498    6971.1696    7070.9825   -480.82069    221.16091   -1218.9777   -3503.5157 
13086000    250.62275   -4822.2079   -4320.9314   -4822.2079            0    7578.1489    18.093034    22.807028    19.346809    7983.4282     8192.348    7994.9004    6547.1982    1159.0321    998.25205    60.047348   -3438.6067 
13087000    244.71798    -4814.431   -4324.9648    -4814.431            0    6037.0831    18.050891    22.970586     19.39464    8041.7847    5697.3377    6641.8158    5772.0959   -552.37501   -5.1125551    374.70844   -3616.9285 
13088000    263.61998   -4828.3522   -4301.0797   -4828.3522            0    8367.7726    18.036793    22.868326    19.239756    7935.8465    7414.1048    9145.1299    8544.0831   -1797.3301   -902.95315    573.37712   -3332.6256 
13089000    232.97128    -4827.689   -4361.7177    -4827.689            0    5737.1263    18.015587    22.953744    19.397425    8021.3234    6816.0422    4681.0563    5714.2803    -874.1774   -1457.6111   -114.90068   -3690.5727 
13090000    261.94974   -4841.7711   -4317.8393   -4841.7711            0    10243.534    17.943678     22.78247     19.34301    7907.4479    10208.693    10613.624    9908.2845   -517.89316      430.298   -321.93138   -3136.5343 
13091000    246.73668   -4815.1402   -4321.6364   -4815.1402            0     6405.077    18.017993    23.027312    19.235814    7981.0538    5759.8253    7375.4349    6079.9708   -705.84201    460.60362   -703.27774   -3576.1143 
13092000    251.22945   -4819.7958   -4317.3059   -4819.7958            0    8551.7343    17.884596    22.923615    19.406275    7956.1771    9407.5519    8074.8957    8172.7554   -873.44681   -1061.5182   -1392.4317   -3325.0252 
13093000    266.40449   -4811.3267   -4278.4848   -4811.3267            0      7043.31    17.850105    23.209885    19.245593    7973.4279    7774.7521    6193.8998     7161.278   -445.77133   -674.73201    508.18333   -3459.4586 
13094000    256.79849    -4817.649   -4304.0203    -4817.649            0    6561.1685    17.839316    23.175575    19.291404    7975.7687    8105.2101    6582.8254      4995.47   -84.525503   -1.2623493   -1030.9174   -3540.8357 
13095000    254.50597   -4855.6521   -4346.6087   -4855.6521            0    6594.8055     18.10854    22.952818    19.184865    7974.0361    8402.2665     6423.435     4958.715    42.478324    436.31244   -166.95046   -3579.6781 
13096000    268.25131   -4826.3435   -4289.8077   -4826.3435            0    7947.1532    17.908924     22.83605    19.407475    7937.0573    6506.9806    9614.9805    7719.4983   -693.06984    75.555129   -1991.8571   -3369.8942 
13097000    251.79372   -4811.9019   -4308.2834   -4811.9019            0    8557.1616    18.092231    22.780406    19.264764    7939.9411    8207.8688    9698.9071    7764.7089    1571.6629   -214.00116    1509.5714   -3317.3992 
13098000    270.78482   -4845.2751    -4303.672   -4845.2751            0    8438.2556     17.73827     22.87701    19.529197    7924.9203     10146.61    7397.1366    7771.0203    218.33906   -594.11176    414.92499   -3328.4051 
13099000    263.26511    -4840.247   -4313.6842    -4840.247            0    7810.8353    18.214266     22.83012    19.124316    7952.5387    5313.1071     8422.524    9696.8748    1452.9669    31.074341   -109.95334   -3407.7865 
13100000    263.17335   -4832.3891   -4306.0099   -4832.3891            0    7625.7863    17.929009    22.763179    19.514786    7964.3987    8358.3134    7635.0194    6884.0261    1478.4336   -105.92096   -416.66802   -3420.2551 
13101000    247.59052   -4840.1081   -4344.8965   -4840.1081            0    5143.0035    18.241027    22.694199    19.386817    8025.4735    3188.0122    7507.3385    4733.6599    1167.6961    372.69231   -627.72413   -3742.9424 
13102000    259.72729   -4815.6983   -4296.2116   -4815.6983            0    7264.7722    17.894618    22.656299    19.716015    7993.3814    9126.2587    7545.9485    5122.1094     348.9667   -76.417585    339.13096   -3449.3189 
13103000     254.5906   -4793.9496   -4284.7369   -4793.9496            0    8034.8235     18.21326    22.685126    19.278632    7965.3543     7407.985    8602.9409    8093.5446    250.94579   -124.63678    599.40448   -3351.3594 
13104000    256.96338   -4805.4902   -4291.5317   -4805.4902            0     6785.247    18.040703    22.679553    19.522162     7987.592    8094.2107    6283.5926    5977.9377   -1294.3645   -521.92678    1513.5445   -3501.1126 
13105000    263.77731   -4785.2236   -4257.6364   -4785.2236            0    6581.7932    18.141886     22.81153    19.412649    8033.8117    5352.7831    7729.4032    6663.1934   -1669.2461    -862.1308    75.713221   -3486.4812 
13106000    254.28553   -4847.6951   -4339.0926   -4847.6951            0    6599.3273    18.005429    22.855348    19.491264    8021.0518    6517.0546    7287.9559    5992.9715   -317.88781    36.070356    444.35218   -3567.1111 
13107000     267.0766   -4831.9485   -4297.7623   -4831.9485            0    8351.1289    18.135975    22.882554    19.173686    7957.0301    7488.3201    7826.8883    9738.1782   -86.601272   -836.73597    1951.9003   -3328.6545 
13108000    262.23387   -4804.3017   -4279.8016   -4804.3017            0    7307.1068    17.998564    22.882703    19.472769    8019.9729    5954.2024    7346.2647    8620.8534   -1606.3709   -33.819071    24.916352   -3425.1398 
13109000    259.55968   -4835.3954   -4316.2439   -4835.3954            0    6476.6327    18.050441    22.962576    19.290805     7995.742    5414.2901    6268.3369    7747.2711   -2055.0046   -156.56156   -83.450491   -3561.0057 
13110000    266.58502   -4816.7515   -4283.5485   -4816.7515            0    6997.9166    18.116549    22.897428    19.309242    8009.9057    7079.5456    6664.1387    7250.0655    524.54049   -416.00393   -278.57603   -3466.0781 
13111000    275.11951   -4805.0582   -4254.7852   -4805.0582            0    7621.2162    17.847225    22.915307    19.501247    7975.5154    7973.4534    9251.3499    5638.8452   -651.04484    1448.8985   -489.48146   -3368.3256 
13112000    257.31925   -4812.2051   -4297.5348   -4812.2051            0    6919.8272     17.91969    23.298766    19.115996    7981.0555    7388.7209    5677.3449    7693.4157   -369.54586   -784.44985    322.04625    -3492.098 
13113000    260.31911   -4839.6805   -4319.0101   -4839.6805            0    8142.3435    17.905709    23.066906    19.233106    7943.8367     8515.719    8015.6541    7895.6573    567.97113    596.74697    741.11442   -3375.6975 
13114000    264.70452   -4819.8722   -4290.4305   -4819.8722            0    7474.4782    18.116116    23.093787    19.164867    8018.0002    5940.4167    7205.5489     9277.469   -885.04888    443.23483   -1989.0592   -3416.4075 
13115000    257.96575   -4830.7868   -4314.8235   -4830.7868            0    4856.9529    17.886484    23.155471    19.506884    8079.1656    6826.9018    3969.9725    3773.9844    648.89043   -237.41925     424.5896   -3742.5465 
13116000    248.78508   -4832.5035   -4334.9026   -4832.5035            0    6785.0259    18.031005    23.043242    19.206014    7979.9606    7087.3955    6318.5728    6949.1094   -406.26472   -282.12672    57.633541   -3545.2644 
13117000    259.94097   -4867.1549   -4347.2409   -4867.1549            0     5804.842    17.878281    22.957124    19.490643    7999.6211    6651.1561     5246.501    5516.8687    582.39917    184.15005    1246.5312   -3670.0116 
13118000    254.93546   -4842.9265   -4333.0241   -4842.9265            0    6368.2799    18.104304    23.055301      19.1686     8000.977    4306.4462    5357.0857    9441.3079    841.35071    -916.8417    409.93664   -3589.9347 
13119000    250.35975   -4830.4215    -4329.671   -4830.4215            0    8118.2375    17.835424    23.007489    19.392048    7957.4939    9890.9739    6729.4532    7734.2855    1558.9905   -113.54196   -743.75211   -3387.5343 
13120000    257.87324    -4833.255   -4317.4767    -4833.255            0    7184.5836     17.94295     23.20195    19.195509    7991.3098     7184.225    6016.2605    8353.2652    242.78818   -127.65376   -249.31234    -3480.149 
13121000    253.77023    -4830.106   -4322.5342    -4830.106            0     6669.105    17.773678    23.201231    19.382333    7992.7162    8413.1392    6707.7756    4886.4002   -515.70555   -1122.3027    974.27083   -3545.1461 
13122000    262.49964   -4808.9986   -4283.9669   -4808.9986            0    6991.8912    17.942367    23.169977    19.295698    8021.6893    7238.1518    6337.9249     7399.597   -528.39375    115.91871    495.33652   -3465.9988 
13123000    265.98154   -4836.0934   -4304.0975   -4836.0934            0    10046.648    17.938371    22.874632    19.251021    7899.3416     10201.24    11058.889    8879.8147   -1899.9996    875.80604    532.12553   -3146.6855 
13124000    268.00639   -4832.5087   -4296.4628   -4832.5087            0    6390.7548    17.915785    23.201939    19.265856    8008.4492    6461.8864    5869.0884    6841.2898   -94.078962     74.45198    1330.1589   -3550.0545 
13125000    270.60238   -4814.6324   -4273.3942   -4814.6324            0    7741.3124    17.835239     23.19183    19.284357     7976.624    8846.3056    6839.0267    7538.6049    264.34589    42.943631    641.48906   -3372.8405 
13126000    262.45017   -4844.8709   -4319.9382   -4844.8709            0    6641.7157     17.95745    23.219692    19.191182    8002.0794    6733.7092    5852.8108     7338.627   -1341.5058   -101.60527   -205.76345   -3544.8359 
13127000    254.36705   -4841.2529   -4332.4874   -4841.2529            0    5458.9517    17.943005    23.087121    19.415294    8042.8306    7052.9652    4485.3357    4838.5541   -677.50278    304.71225   -361.05513   -3692.1718 
13128000    257.98501   -4841.9403   -4325.9384   -4841.9403            0    7051.2432    17.964852    22.978697    19.311573    7971.9891    7171.9118    7073.2291    6908.5888    610.31266    -832.3205    1056.6131   -3506.1377 
13129000    273.35418   -4801.5515   -4254.8094   -4801.5515            0    5365.2174    18.051569    23.024375     19.26395    8006.6003    5857.6401    4221.6558    6016.3563    -587.1035   -1341.6446   -2654.5339   -3628.3234 
13130000    243.90334   -4837.5196   -4349.6827   -4837.5196            0    5910.9051    18.029935    22.825531    19.469753    8012.6379    6272.1171    5564.4637    5896.1345   -174.17105      27.0351   -37.802933   -3658.9574 
13131000    258.97558   -4849.5399   -4331.5567   -4849.5399            0      9709.14    17.914782    22.829554    19.301429    7894.0236     7617.797    10338.306    11171.317    -119.4338    464.36517   -607.81572     -3213.78 
13132000    262.13198   -4808.1806   -4283.8843   -4808.1806            0    6459.2176    18.041923    22.879084    19.417744    8015.3082    6000.5739    6923.1144    6453.9644    448.64349    796.23625    167.59685   -3528.8337 
13133000    264.56514   -4812.1908   -4283.0278   -4812.1908            0    8478.2027    17.981193    22.909859    19.380316    7983.6552    8108.6598    8660.8046    8665.1435    456.97576    634.46106   -1330.8067   -3295.8817 
13134000    251.72854   -4836.0168   -4332.5286   -4836.0168            0    5956.7033    17.758754    23.192777    19.422658    7999.7035    6690.3124    5553.1087    5626.6889   -437.08559   -239.73765   -65.076516   -3637.5751 
13135000    256.29692   -4839.9744   -4327.3489   -4839.9744            0    8159.3006    17.903849    23.223808    19.113295    7947.2229    7453.6492    8063.8409    8960.4117    97.243971   -743.83231    1224.4135   -3381.6688 
13136000    276.19102   -4838.0023   -4285.5861   -4838.0023            0    8329.7774    17.839631    23.015459    19.377519     7956.163    8422.1699    9166.6839    7400.4782    242.18995    2540.4847    228.75322   -3319.0614 
13137000    254.66741   -4817.3902   -4308.0239   -4817.3902            0    8543.2817    17.844266    23.289532    19.067113    7923.9991    8871.1438    8351.1475    8407.5538   -1369.7262    675.25094   -533.24687   -3320.7332 
13138000    250.40606   -4805.3348   -4304.4917   -4805.3348            0    5882.0073    17.662879    23.429862    19.334982    8001.5659    7650.6893    4899.1375    5096.1953   -557.45944    659.54064   -82.825835    -3618.093 
13139000    242.00184   -4820.4351   -4336.4015   -4820.4351            0     8557.084    17.989329      23.2363    19.016621    7949.0511    8677.8221    7754.2533    9239.1765   -1272.6254    264.01764     1124.976   -3344.3894 
13140000    263.48381   -4818.2108   -4291.2106   -4818.2108            0     7666.728    17.634845    23.142803    19.497722    7957.4052    10809.235    6582.7751    5608.1739   -1740.7409    128.26634   -2303.1232   -3401.4823 
13141000    255.61742   -4826.5482   -4315.2818   -4826.5482            0    6754.2129    18.126187    23.150289    19.018733    7980.7635    6110.1247    5495.3508    8657.1632   -448.75845   -1023.7345    1697.4639   -3529.1505 
13142000    250.45543   -4799.0654   -4298.1235   -4799.0654            0    9511.4426    17.696429    22.828601    19.600819    7918.4309    9573.2081    9315.9231    9645.1967     1067.198    710.37385    193.47985   -3199.7213 
13143000    259.71423   -4840.2919   -4320.8314   -4840.2919            0    8024.0263    18.152215    22.969819    19.083016    7956.7224    5856.4119    6972.8378    11242.829    1873.3688    167.86644   -1035.9992   -3389.7183 
13144000    278.66298   -4859.2274    -4301.867   -4859.2274            0    5604.4829    17.965522    23.056108    19.374791     8025.329    5259.3387    5242.5046    6311.6054    586.14361    764.28897    1071.8746   -3645.9117 
13145000    259.08609   -4828.7873   -4310.5831   -4828.7873            0     7043.527    17.955986    22.946703    19.400729    7993.6958    7670.1468    6717.8631    6742.5711    630.92962   -1615.9291   -1093.9216   -3489.4498 
13146000    245.20219   -4817.0025   -4326.5678   -4817.0025            0    8004.8847    18.019849    22.986328    19.216974    7959.8656    8120.0554      6881.93    9012.6687    396.41106   -717.96795    1352.4992    -3397.309 
13147000    248.31216   -4831.1487   -4334.4937   -4831.1487            0    8244.4422    17.910368    22.874966    19.383058    7941.2203    8870.8884    8178.7893     7683.649   -52.505567    610.68598    359.04172   -3379.6673 
13148000    253.42282   -4828.3811   -4321.5041   -4828.3811            0    5800.4389    18.171125    22.828983    19.330459    8018.8214    4111.4565    5697.8591     7592.001   -588.66966   -137.34504   -308.44552   -3643.1644 
13149000    265.55109   -4810.5262   -4279.3912   -4810.5262            0    7203.4607    18.037884    22.643442    19.495466    7962.7236    5745.3454    7451.5224    8413.5142    5.6040109   -303.06035   -234.95644   -3442.8666 
13150000    250.18114   -4813.2536   -4312.8604   -4813.2536            0    6880.9518    18.213167    22.712919    19.289826    7979.7029    5452.6864     7639.653    7550.5159    1791.6303    -1097.906    1049.7598   -3512.0842 
13151000    274.75858   -4811.5588   -4262.0077   -4811.5588            0    7600.5949    17.907929    22.986503    19.435426    8000.4113     8737.801    6784.8477    7279.1362     417.0736   -795.57515   -1669.4544    -3375.187 
13152000    260.49703   -4812.5614   -4291.5351   -4812.5614            0    8913.0245    18.020498    22.889424    19.288503    7956.0989    8660.6637     8315.862    9762.5479    -294.3507   -656.03591   -2266.1249   -3257.3432 
13153000    260.35513   -4815.7818   -4295.0394   -4815.7818            0    7226.4022    17.908962    22.921581    19.416014    7970.3074    7031.2166    7567.9349    7080.0551    1344.0171    482.81346    168.44907   -3455.0514 
13154000    257.27185   -4820.5701   -4305.9947   -4820.5701            0     9004.791    17.985843    22.811941    19.303748    7920.1733    9951.2476    8430.8003    8632.3251   -38.814004   -928.72824     1454.365   -3265.8728 
13155000    255.59083   -4834.0041   -4322.7908   -4834.0041            0    6899.6646    17.907967     22.92208    19.407654    7966.6064    6895.5523    7830.9744    5972.4671   -50.843844   -291.99813   -688.56356   -3521.1548 
13156000    249.84145   -4842.0299   -4342.3161   -4842.0299            0    5692.7866    18.126342    22.976566    19.268634    8025.0221    4513.2482    5646.8845    6918.2271    1565.6146     785.4736   -974.67959   -3676.0511 
13157000    265.96657   -4852.7378   -4320.7718   -4852.7378            0    6045.8855    17.991987    22.982604    19.333945     7994.639    6065.0794    6482.9197    5589.6574   -710.88502     730.4824   -694.77386   -3615.8602 
13158000    252.58208    -4839.867   -4334.6717    -4839.867            0    9391.2195    17.766604    23.037567    19.254117    7880.6973     10278.37    7821.3789     10073.91      166.866   -758.16213   -2008.4924   -3255.3211 
13159000    254.13413   -4833.0887    -4324.789   -4833.0887            0    8048.5396    18.064164    23.181746    19.050167    7977.4262    6451.5787    7111.6664    10582.374    1422.3759   -609.05136     1413.031   -3388.4012 
13160000    266.52056   -4832.4427   -4299.3686   -4832.4427            0    8043.9866    17.929314     22.98954    19.326502    7966.1265    7752.6204     7917.343    8461.9964   -1293.5458     626.9743   -806.88539   -3364.8361 
13161000    245.12437   -4816.1479   -4325.8689   -4816.1479            0    7689.3369    18.040213    23.097328     19.12591    7969.3979    9981.1229    5942.4142    7144.4735     116.9476   -1495.6529    355.54383   -3432.1719 
13162000    253.20729   -4817.3918   -4310.9459   -4817.3918            0     6966.991    18.115179    22.714679    19.541872    8041.0993    8079.7952      7152.47    5668.7079   -1372.8838    189.95597   -1382.3812   -3493.9186 
13163000    265.73594   -4838.9355   -4307.4308   -4838.9355            0    8458.1486    18.228379    22.608224    19.299975    7953.7372    9149.0669    8875.4435    7349.9353    2466.9419    994.42515    678.36532   -3326.3102 
13164000    253.32192   -4827.9043   -4321.2292   -4827.9043            0    7167.3504    18.140053    22.699744    19.355129    7969.9494    6067.6053    7942.4372    7492.0087    257.70075    548.56634    -159.7206   -3488.1427 
13165000     255.3242   -4826.9183   -4316.2384   -4826.9183            0      6785.76    18.004817    22.674888    19.541493    7977.9558     7797.003     7206.797      5353.48   -245.11452   -599.05833    1183.5703   -3526.7132 
13166000     267.3341   -4798.7688   -4264.0676   -4798.7688            0    7295.5946     18.11899    22.629384    19.481114    7987.6773    5631.9112    8678.4182    7576.4545    1152.2821    930.15102    577.05333   -3414.1886 
13167000    254.44907   -4830.8873   -4321.9577   -4830.8873            0    8215.6645    18.252783    22.427416    19.416147    7948.2473    6350.5898     9110.132    9186.2718   -1649.9829     -181.554   -1135.1724   -3369.6223 
13168000     262.2841   -4809.5039   -4284.9033   -4809.5039            0    6617.5571    18.164517    22.498376    19.574324    7999.4809    6142.8682    7703.1796    6006.6235   -954.77972    463.78675   -522.18022   -3512.8711 
13169000    262.53847   -4795.1929   -4270.0836   -4795.1929            0    8986.1914    18.107064    22.676125    19.427569    7976.9218    7693.7131    9489.7799    9775.0811   -405.88198    101.41466    268.28705    -3224.673 
13170000    257.93977    -4800.642   -4284.7306    -4800.642            0    10160.647    18.175539    22.525666    19.393891    7940.1716    10142.506    11175.399    9164.0372   -618.31566   -776.15628    1686.2137   -3108.1352 
13171000    260.51191   -4818.1993   -4297.1433   -4818.1993            0    6772.7018    18.151951    22.615936    19.542339    8022.5866    6451.5996    7159.2224    6707.2836   -736.57801   -633.31634   -1262.2872   -3504.7291 
13172000    249.17942   -4823.6434   -4325.2537   -4823.6434            0    7654.8527    18.158978     22.73112    19.330308    7979.0465    6725.3151    8831.1431       7408.1   -687.24349     719.1739    31.346923   -3434.4875 
13173000    253.13941   -4835.7546   -4329.4446   -4835.7546            0    7155.9885    18.088517    22.682648    19.525598    8011.2643    5906.7115    8364.9232     7196.331   -361.96181    707.84696   -1389.1276    -3493.367 
13174000    258.73745   -4825.7677   -4308.2608   -4825.7677            0    9762.6033    18.113167    22.424219    19.454523    7901.9144    7200.0179    12073.314    10014.478   -376.46097   -455.50146    1111.6543   -3183.2056 
13175000     248.0641   -4812.5845   -4316.4257   -4812.5845            0    9130.8804    18.007288    22.849728    19.276876     7931.695     10146.59    8253.8578    8992.1936    -370.1004    28.734932    1156.9062   -3260.2053 
13176000     262.6603   -4838.7937   -4313.4406   -4838.7937            0    6941.8503    18.130545    22.704797    19.420965    7994.6468    5789.4298    7190.3043    7845.8169   -2155.1058    901.56277   -1079.9744   -3504.0645 
13177000    265.45666   -4821.1569   -4290.2108   -4821.1569            0    5075.2444    18.124292    22.759686    19.420975     8011.214    4344.7416    5943.4638    4937.5276   -178.45864   -1105.4083    1285.9984   -3697.2429 
13178000    259.24686   -4817.4699   -4298.9441   -4817.4699            0    7472.6043    18.195464    22.567703    19.486752    8001.8413    6365.3615    8569.3376    7483.1139   -2269.8513    220.91607   -1720.2545   -3426.9013 
13179000    264.64239   -4816.6483   -4287.3308   -4816.6483            0    6890.7157    18.131757    22.735222    19.367478     7983.846    6703.3846    6164.8303    7803.9322   -76.124692   -646.23433    2076.0904    -3485.002 
13180000    256.12413   -4817.7775   -4305.4976   -4817.7775            0    5186.9255    18.112795    22.626561    19.626066    8043.3558    5970.3853    5779.0725    3811.3186   -615.97982   -83.233826    176.27975     -3697.05 
13181000    263.23892   -4841.0719   -4314.5615   -4841.0719            0    8444.3237    18.097673    22.569311    19.389292    7919.5951    8844.2148    9362.9255    7125.8309    613.75615   -214.97674    4.5511275   -3339.2491 
13182000    259.09346   -4821.9997   -4303.7807   -4821.9997            0    5265.5264    18.060736    22.844074    19.521136    8054.0456    6351.7606    5232.9931    4211.8254   -487.24591   -940.58179   -514.52088    -3685.292 
13183000    255.71617   -4840.7229    -4329.259   -4840.7229            0    7840.9253    18.053303    22.962526    19.184089    7952.7532    7902.9631    7862.6196    7757.1931    825.70793    1971.8498   -494.53583   -3419.8469 
13184000    248.26924   -4837.6988   -4341.1296   -4837.6988            0    4372.7209    18.112656    22.948778    19.433805    8077.9201    4415.4537    3638.7558    5063.9531    496.87029    -686.8359   -59.445918   -3825.9873 
13185000    274.74861   -4830.4422    -4280.911   -4830.4422            0    7113.0557    17.944953    22.806442    19.438242     7955.305    7438.2932    8358.4851    5542.3889   -1050.2186   -299.58338   -3351.8095   -3455.6546 
13186000    263.99776   -4816.4507   -4288.4226   -4816.4507            0    6890.4987    17.996158    23.018628    19.301867    7995.7376     6685.917    7464.1378    6521.4413     363.3933   -933.31927   -380.44233    -3484.924 
13187000    252.17044   -4825.0284   -4320.6564   -4825.0284            0    5631.5463    17.958557    22.964053    19.420047    8008.8516    5655.2897    4913.9705    6325.3789   -550.81289   -1202.9212   -1403.2697   -3662.8868 
13188000    263.82788   -4818.7911   -4291.1027   -4818.7911            0    7993.4913    17.996945     22.95497    19.284794    7966.9212    6888.8963    8896.4303    8195.1473   -461.18024     1114.198    190.34453    -3362.344 
13189000    246.40943   -4831.0149   -4338.1655   -4831.0149            0    7675.0257    17.882241    22.937032    19.393454    7954.5263    6804.8908    7815.3906    8404.7956    206.39856   -235.94299    -73.89449   -3447.7965 
13190000    284.88067    -4820.629   -4250.8325    -4820.629            0    6540.4076    17.995771     23.09885    19.257891    8005.1514    6152.7505    5856.1775    7612.2947   -1127.9127   -1052.8183   -1451.7975     -3487.26 
13191000    250.96721   -4799.6253   -4297.6599   -4799.6253            0    7005.7691    17.966071    22.831543    19.482029    7991.3942    5387.2202    7978.4456    7651.6415    202.46415    1040.1759    916.47585   -3481.1635 
13192000    256.18056   -4801.2736   -4288.8808   -4801.2736            0    8487.6505     18.16415     22.70079    19.305794    7960.5618    9528.0541    7862.1802    8072.7171   -1183.9024   -553.73243   -979.19167   -3303.4932 
13193000    260.80901   -4830.1172   -4308.4669   -4830.1172            0    7688.3986    18.096771    22.669586    19.363187    7943.6758    6498.8631     9016.427    7549.9056   -440.49486    1470.4511    1495.5967   -3417.7631 
13194000    251.91269   -4802.6283   -4298.7718   -4802.6283            0    6928.1864    18.069336    22.783532    19.397674    7985.6982    8942.5456    7210.6089    4631.4048     363.8828    203.22609   -628.64931   -3491.8929 
13195000     259.1804   -4823.9527   -4305.5599   -4823.9527            0    7226.3689    17.961087    22.824515      19.5201    8002.3257    6946.8545    7724.9929    7007.2593    332.57839   -631.92376   -2013.9168   -3462.2013 
13196000    254.49133   -4837.1131    -4328.099   -4837.1131            0    4842.0642    18.113503    22.935509    19.348007    8037.9831    2255.6169    5591.1521    6679.4237    943.36692   -355.59904    504.47397   -3760.4844 
13197000     261.7907   -4840.3215   -4316.7078   -4840.3215            0    8769.1108    17.839602    22.783516    19.496462    7924.3149    9411.5456    8659.9069      8235.88   -79.281085   -481.50364   -2659.7198   -3303.2792 
13198000    260.09301   -4824.8185   -4304.6004   -4824.8185            0    7807.7847    18.232596     22.88541    19.249491     8032.051    7193.4285    7906.9514    8322.9741   -2347.7237    515.86724    -1793.433   -3390.0025 
13199000    254.66439    -4800.175   -4290.8148    -4800.175            0    7185.2931    18.060627    22.904388    19.340086    8000.3672    6430.4699    7595.9836    7529.4259   -696.37545    391.77325    567.21493   -3452.4553 
13200000    258.32287   -4824.5913   -4307.9136   -4824.5913            0    8469.9099    17.920823    22.861676    19.355609    7929.9944    7977.4048    8636.2619    8796.0631    183.04251   -26.567926   -48.256636   -3328.3615 
13201000    265.40401   -4840.9868    -4310.146   -4840.9868            0    7430.7293      18.2079    22.800413    19.256113    7994.1301    4758.2337     9385.883    8148.0711   -234.15879    983.99595    678.79583   -3443.8256 
13202000    258.58336   -4824.8116   -4307.6129   -4824.8116            0    5471.7928    18.058138    22.649657    19.695931     8055.845    5993.3398    6454.5736     3967.465   -1638.7666   -1114.3348   -757.02799   -3664.7526 
13203000    246.23661   -4828.1173   -4335.6137   -4828.1173            0    8433.0866    18.085019    22.874713    19.187986    7937.8704    6314.6785    9415.5224    9569.0589    1410.7949    299.42465    924.82833   -3359.3515 
13204000    249.20243   -4845.2063   -4346.7707   -4845.2063            0    7057.2479    17.885766      22.9379    19.449132    7979.2381    7674.8429    6480.1386     7016.762    -249.3336   -363.45185   -1015.7355   -3525.5258 
13205000    250.24239   -4842.6541   -4342.1384   -4842.6541            0    6976.6574    18.095771    22.974786    19.253159    8004.4328    4860.1198    7808.5098    8261.3425    1569.3499    749.34001    1045.9891   -3527.7082 
13206000    240.97947   -4799.6323   -4317.6435   -4799.6323            0    8813.5355    18.001545    23.011512    19.195819    7951.7291    6967.0323    9392.8725    10080.702   -422.49259    1406.0587     553.3383   -3295.5571 
13207000    257.48614    -4814.051   -4299.0469    -4814.051            0    8740.4347     17.79368    22.893403    19.478851    7934.8637    10305.214    7954.9002    7961.1897    121.14468    985.71759    1990.5887   -3287.5877 
13208000    266.94881   -4823.2527   -4289.3221   -4823.2527            0    6019.8849    18.153483    23.079133    19.100529    8002.4849    3353.7806    6271.0288    8434.8452   -1005.9609   -785.37254    119.32626   -3586.7531 
13209000     255.5256   -4827.1591   -4316.0764   -4827.1591            0    5538.4901    17.981561    22.950741    19.430343    8018.7109    5491.9472     6535.606    4587.9172   -1638.7988    1674.6253   -123.14199   -3668.3794 
13210000    261.17486   -4818.9951   -4296.6131   -4818.9951            0    7038.6249    18.017312    22.910287    19.407209    8010.9422    5757.9608    8316.2122    7041.7017   -1365.6413    1615.7659   -530.88652   -3474.2809 
13211000    257.63771   -4807.6188   -4292.3116   -4807.6188            0    9415.5161    18.000427    22.797875    19.361095    7945.2412    9701.6175    9965.0894    8579.8414   -1783.4964   -73.553553   -437.56259   -3201.3057 
13212000    255.42393   -4820.6099   -4309.7305   -4820.6099            0    6062.1958     17.99386     22.99742    19.361846     8012.171    5672.4553    6560.6239    5953.5081   -772.59775   -156.62018    1072.4661   -3601.3672 
13213000    250.64762   -4807.0648   -4305.7386   -4807.0648            0    8219.8153    17.989851    22.824228    19.351697    7945.8932    7236.9434    8626.3322    8796.1702   -2277.1643    213.19663   -1352.0797   -3353.2042 
13214000    256.02484   -4828.7606   -4316.6792   -4828.7606            0    7553.0605    18.039822    22.833834    19.379941    7982.9526    7243.3783    7502.6314    7913.1719    53.139147    419.08523     2429.279    -3437.328 
13215000    249.69585   -4855.4163   -4355.9937   -4855.4163            0    7417.0605    18.079033     22.76884    19.345791    7963.4746    7335.6412    8028.7565     6886.784   -1702.9301   -365.21871   -2371.3966   -3494.5829 
13216000    259.01951   -4830.2487   -4312.1777   -4830.2487            0    6343.5556    17.982353    22.836901     19.45313     7988.646    4775.6574    6813.4287    7441.5807    749.78495    511.88347    446.23425   -3573.1141 
13217000    246.45903   -4845.4506   -4352.5021   -4845.4506            0    5336.3586    18.100152    22.896599    19.365489    8025.6768    5354.7703    5073.9224    5580.3831   -1978.6874   -693.25143   -435.70384   -3727.9013 
13218000    257.89791   -4806.0008   -4290.1732   -4806.0008            0    8007.7891    18.133989    22.635837    19.404127    7964.9676    6904.3043    8782.0342    8337.0288     894.3632    1345.4298   -1.9060054   -3359.9813 
13219000     253.5028   -4816.0611   -4309.0242   -4816.0611            0    6732.0155    17.893491    22.860472    19.513325    7981.9969    7318.0572    5817.9263     7060.063   -1219.2882    41.482124   -783.64525   -3525.3554 
13220000    254.64558   -4849.5207   -4340.1981   -4849.5207            0    7407.5804    17.929796    22.985692    19.264804      7939.58    7110.3251     8383.782    6728.6341    109.59511   -160.65492   -29.392997   -3482.4697 
13221000    258.57196     -4834.51   -4317.3341     -4834.51            0     7362.966    17.976639    23.070834    19.302398    8005.4001    7894.6739    6513.6608    7680.5633      597.821   -727.78824   -604.49565   -3457.7038 
13222000    257.75313   -4876.2635   -4360.7254   -4876.2635            0    6104.3982     18.01106    23.101983    19.223097    7998.5615    6988.0244    4620.6109    6704.5594    551.91648    25.918834    1612.6305   -3648.6423 
13223000    243.42006   -4832.5694   -4345.6992   -4832.5694            0     6649.408    17.863636      23.1674    19.317997    7994.8307    7547.6334    5636.5003    6764.0903    69.116096    774.05747   -490.21025   -3570.4021 
13224000    246.71996   -4799.7031   -4306.2327   -4799.7031            0    9225.2767    17.894252    23.122339    19.165187    7929.7292    9290.0765    9971.8864    8413.8674   -339.72414    130.06853    47.125523   -3239.3575 
13225000    258.45849    -4841.788   -4324.8391    -4841.788            0     7194.496    17.648545    23.194521    19.464004    7967.5815    8523.5612    6787.1573    6272.7695   -2526.4695    31.176771   -418.06425   -3488.8458 
13226000    254.30135    -4818.176   -4309.5419    -4818.176            0    8270.3377    18.014161    22.962223    19.287005    7977.9766    8929.7839    8079.9477    7801.2814   -1818.4376      589.467    266.23653   -3347.2831 
13227000    272.46004   -4795.2568   -4250.3031   -4795.2568            0    7612.1326     18.09663    22.975338     19.26916     8011.658    5552.5036    8621.2487    8662.6454    239.21044    1258.7808    2057.9663   -3360.8877 
13228000    261.82829   -4803.4734   -4279.7845   -4803.4734            0    7621.0196     17.92011    22.925221    19.392011    7966.6743    8863.1631    8011.3441    5988.5516      826.251    469.26049    728.31352   -3394.3305 
13229000    264.09534   -4821.3073    -4293.084   -4821.3073            0    7292.1452    18.078028    23.009741    19.205619    7988.9757    7928.6954     6927.998    7019.7423   -344.19093    387.88715    760.67316   -3443.4688 
13230000    270.61919   -4813.1435   -4271.8716   -4813.1435            0    6814.7695    17.927552    22.981889    19.494852     8032.055    6726.9681    7228.1404    6489.1999   -929.27369     660.4204   -1827.4438   -3473.5944 
13231000    278.31216   -4843.0139   -4286.3552   -4843.0139            0    6546.3093    18.099884    22.970618    19.276927    8014.6817    4419.4917    7916.4257    7303.0106    290.46375   -143.96212    771.20739   -3521.1838 
13232000    250.68164   -4810.7631   -4309.3688   -4810.7631            0    6377.2287    17.899394      22.9879    19.460421    8007.3693    6148.4931    7598.4057    5384.7874    304.21837    328.31537   -1596.1341   -3564.6407 
13233000    258.74259   -4841.9365   -4324.4194   -4841.9365            0    8930.3396    18.032676    23.152161     18.96371    7917.2618    8484.4287    8652.5302    9654.0598   -2233.6369     161.2181   -2288.1852   -3293.2765 
13234000    277.38058   -4841.5962   -4286.8008   -4841.5962            0    6958.3785     17.77177    23.059254    19.382191    7942.8947    9349.0824    5213.4385    6312.6147    738.67034    -608.6789    445.14362   -3480.7494 
13235000    253.75866   -4840.6301   -4333.0814   -4840.6301            0    7893.7946    18.020308    23.043421    19.197678    7971.8267    7637.9742    7406.2375    8637.1722   -1254.5243   -749.98039   -1534.7947   -3415.3417 
13236000    259.09479    -4842.409   -4324.1874    -4842.409            0    6307.7547    17.917059    23.235688    19.208691    7996.8702    5731.4052      5231.35    7960.5089   -692.41413    72.057098   -2210.7983   -3588.5382 
13237000    249.66797   -4827.3045   -4327.9377   -4827.3045            0    5136.7286    17.966425    23.313986    19.291338    8080.5432    6112.9582    3983.5035    5313.7239    482.44678   -274.51497    521.06801   -3722.5925 
13238000    264.24958   -4809.8359   -4281.3041   -4809.8359            0    9673.9342    17.838332    22.972092    19.311347    7913.4774    7728.1778    11769.413    9524.2115   -591.12751    1214.5985   -309.80119   -3164.8358 
13239000    266.41721   -4825.4059   -4292.5386   -4825.4059            0    8517.9334    17.991289    23.015367    19.125616    7919.4609    7043.7363    8830.8758    9679.1882     1261.621    691.95192   -271.20103    -3308.741 
13240000    270.31034   -4829.9656   -4289.3116   -4829.9656            0    7010.2831     17.86368    23.177819    19.299377     7990.736    6681.8935    7130.4591    7218.4968   -1685.7757    93.346168    102.69375   -3472.3564 
13241000    245.97001   -4818.8783   -4326.9078   -4818.8783            0     8329.184    18.041231    23.025103     19.17682    7966.0738    7216.0246    7732.5547    10038.973     587.9994   -100.44672   -40.412538   -3359.2481 
13242000     251.9377   -4822.8133   -4318.9068   -4822.8133            0    5521.0514    17.933527    22.977956    19.513096    8040.8745    5998.1358    5777.3197    4787.6988   -224.37661   -686.66905    1135.2724   -3671.4647 
13243000    272.04438    -4830.599   -4286.4767    -4830.599            0     5923.333    18.180329    22.952775      19.2703    8041.2841    5126.5284    6226.7482    6416.7225    766.61197    1809.8364     1368.359   -3591.8244 
13244000    275.12428   -4837.5144   -4287.2319   -4837.5144            0    7149.3159    18.028782    22.602922    19.618394    7994.5578    7008.3605    7462.9637    6976.6234    1531.3269    1142.8871    233.06299   -3453.6758 
13245000    277.90635   -4818.0358   -4262.1888   -4818.0358            0    7178.8603    18.109415    22.751716    19.396576    7991.7821    7578.3791    7388.8932    6569.3085   -824.47399   -98.547901   -1151.8205   -3425.4786 
13246000    253.18447   -4821.0202   -4314.6199   -4821.0202            0    6261.6097    18.042466    22.714617     19.58486    8026.4183    6981.8803    6919.0127    4883.9361    1254.3886   -1288.6353    704.11341   -3581.6542 
13247000    266.25351    -4849.538   -4316.9981    -4849.538            0    8268.6165    18.022454    22.828547     19.40242    7982.6688    10221.145    6415.2148    8169.4893   -1970.9242   -483.63814    -817.9236   -3354.3737 
13248000    265.80608   -4814.2944   -4282.6494   -4814.2944            0    7712.1159    18.104256    22.781761    19.363205    7986.2926    7038.4438    7338.0698     8759.834    714.71004   -597.84502   -1640.0073   -3384.4048 
13249000    256.17138   -4832.4978   -4320.1234   -4832.4978            0    7826.5114    18.028258    22.605403    19.575724    7977.8132    7958.4041    8720.3746    6800.7556    21.947775    283.36664   -331.99055   -3409.5227 
13250000    262.70134   -4789.8444   -4264.4093   -4789.8444            0    8427.6749    18.103948    22.722033    19.331909    7952.3451    6819.1384    9549.4747    8914.4116     775.9099     605.4446    552.44725   -3286.9945 
Loop time of 527.072 on 64 procs for 250000 steps with 1008 atoms

Performance: 81.962 ns/day, 0.293 hours/ns, 474.319 timesteps/s
99.2% CPU use with 64 MPI tasks x 1 OpenMP threads

MPI task timing breakdown:
Section |  min time  |  avg time  |  max time  |%varavg| %total
---------------------------------------------------------------
Pair    | 28.368     | 32.547     | 36.295     |  30.2 |  6.17
Bond    | 0.27267    | 0.28157    | 0.29601    |   1.1 |  0.05
Kspace  | 242.77     | 253.45     | 265.71     |  25.3 | 48.09
Neigh   | 4.2192     | 4.8661     | 5.9132     |  15.4 |  0.92
Comm    | 101.38     | 113.63     | 124.17     |  41.2 | 21.56
Output  | 0.99453    | 0.99541    | 1.0078     |   0.2 |  0.19
Modify  | 110.17     | 114.77     | 118.06     |  23.8 | 21.78
Other   |            | 6.52       |            |       |  1.24

Nlocal:        15.7500 ave          21 max           9 min
Histogram: 1 0 3 7 8 18 15 6 4 2
Nghost:        2507.38 ave        2534 max        2476 min
Histogram: 4 4 3 7 8 10 10 8 6 4
Neighs:        5258.58 ave        7024 max        2998 min
Histogram: 1 0 3 7 9 17 15 6 4 2

Total # of neighbors = 336549
Ave neighs/atom = 333.87798
Ave special neighs/atom = 2.0000000
Neighbor list builds = 9453
Dangerous builds = 0

unfix		3
unfix		2
unfix		1

write_data	data.final.${pid}
write_data	data.final.0
System init for write_data ...
PPPM initialization ...
  extracting TIP4P info from pair style
  using 12-bit tables for long-range coulomb (../kspace.cpp:340)
  G vector (1/distance) = 0.37914547
  grid = 24 27 32
  stencil order = 5
  estimated absolute RMS force accuracy = 0.002462185
  estimated relative force accuracy = 7.414797e-06
  using double precision FFTW3
  3d grid and FFT values/proc = 3825 384
Last active /omp style is kspace_style pppm/tip4p/omp
WARNING: Not all mixed pair coeffs generated from mixing. Use write_data with 'pair ij' option to store all pair coeffs. (../write_data.cpp:312)

write_restart   restart.lmp.${pid}
write_restart   restart.lmp.0
System init for write_restart ...
PPPM initialization ...
  extracting TIP4P info from pair style
  using 12-bit tables for long-range coulomb (../kspace.cpp:340)
  G vector (1/distance) = 0.37914547
  grid = 24 27 32
  stencil order = 5
  estimated absolute RMS force accuracy = 0.002462185
  estimated relative force accuracy = 7.414797e-06
  using double precision FFTW3
  3d grid and FFT values/proc = 3825 384
Last active /omp style is kspace_style pppm/tip4p/omp
Total wall time: 0:08:51
