LAMMPS (30 Jul 2021)
  using 1 OpenMP thread(s) per MPI task
package omp 0
using multi-threaded neighbor list subroutines
echo both

include		in.partitions
variable        pid world 0
include		in.temp
variable        temperature equal 252.72
variable	tempDamp equal 100.0
include		in.pressure
variable        pressure equal 5750.0
variable        pressureDamp equal 1000.0 # This is 1 ps
include		in.seed
variable        seed world 745823

units		real
atom_style	full
read_restart	restart.lmp.${pid}
read_restart	restart.lmp.0
Reading restart file ...
  restart file = 30 Jul 2021, LAMMPS = 30 Jul 2021
  restoring atom style full from restart
  orthogonal box = (0.48699628 1.6651486 0.59413433) to (17.720576 21.964029 21.619061)
  4 by 4 by 4 MPI processor grid
  restoring pair style lj/cut/tip4p/long/omp from restart
  restoring bond style harmonic/omp from restart
  restoring angle style harmonic/omp from restart
  864 atoms
  576 bonds
  288 angles
Finding 1-2 1-3 1-4 neighbors ...
  special bond factors lj:    0        0        0       
  special bond factors coul:  0        0        0       
     2 = max # of 1-2 neighbors
     1 = max # of 1-3 neighbors
     1 = max # of 1-4 neighbors
     2 = max # of special neighbors
  special bonds CPU = 1.574 seconds
  read_restart CPU = 1.954 seconds
include 	in.setup
variable	out_freq equal 1000
variable	out_freq2 equal 10000
variable	out_freq3 equal 1000

timestep	2.0

neigh_modify    delay 7 every 1

include		in.tip4p
# This is TIP4P/Ice

# create groups ###
group ox type 2
288 atoms in group ox
group hy type 1
576 atoms in group hy

# set charges - beside manually ###
set group ox charge -1.1794
Setting atom values ...
  288 settings made for charge
set group hy charge 0.5897
Setting atom values ...
  576 settings made for charge

# ### TIP3P Potential Parameters ###
pair_style lj/cut/tip4p/long/omp 2 1 1 1 0.1577 8.5
pair_coeff 1 1*2 0.000 0.000
pair_coeff 2 2 0.21084 3.1668
bond_style  harmonic
bond_coeff  1 450 0.9572
angle_style harmonic
angle_coeff 1 55 104.52
kspace_style pppm/tip4p/omp 1.0e-5
pair_modify tail yes

thermo          ${out_freq}
thermo          1000
thermo_style    custom step temp pe etotal epair emol press lx ly lz vol pxx pyy pzz pxy pxz pyz enthalpy

restart 	${out_freq3} restart.lmp.${pid} restart2.lmp.${pid}
restart 	1000 restart.lmp.${pid} restart2.lmp.${pid}
restart 	1000 restart.lmp.0 restart2.lmp.${pid}
restart 	1000 restart.lmp.0 restart2.lmp.0


include         in.dump
dump            myDump all atom ${out_freq2} dump.water.${pid}
dump            myDump all atom 10000 dump.water.${pid}
dump            myDump all atom 10000 dump.water.0
dump            myDump2 all dcd ${out_freq2} dump.dcd
dump            myDump2 all dcd 10000 dump.dcd
dump_modify     myDump append yes
dump_modify     myDump2 append yes


variable natoms 	equal  "count(all)"                        # NUMBER ATOMS
variable H      	equal  "enthalpy/v_natoms"                 # ENTHALPY-per-atom
variable Vol      	equal  "vol/v_natoms"                 # volume-per-atom
fix AVG all 		ave/time ${out_freq} 1 ${out_freq} v_Vol v_H file vol_enthalpy.dat
fix AVG all 		ave/time 1000 1 ${out_freq} v_Vol v_H file vol_enthalpy.dat
fix AVG all 		ave/time 1000 1 1000 v_Vol v_H file vol_enthalpy.dat


timer           timeout 23:50:00 every 1000
New timer settings: style=normal  mode=nosync  timeout=23:50:00

fix 		1 all shake 1e-6 200 0 b 1 a 1
       0 = # of size 2 clusters
       0 = # of size 3 clusters
       0 = # of size 4 clusters
     288 = # of frozen angles
  find clusters CPU = 0.258 seconds
fix             2 all nph iso ${pressure} ${pressure} ${pressureDamp}
fix             2 all nph iso 5750 ${pressure} ${pressureDamp}
fix             2 all nph iso 5750 5750 ${pressureDamp}
fix             2 all nph iso 5750 5750 1000
fix             3 all temp/csvr ${temperature} ${temperature} ${tempDamp} ${seed}
fix             3 all temp/csvr 252.72 ${temperature} ${tempDamp} ${seed}
fix             3 all temp/csvr 252.72 252.72 ${tempDamp} ${seed}
fix             3 all temp/csvr 252.72 252.72 100 ${seed}
fix             3 all temp/csvr 252.72 252.72 100 745823

run             250000
PPPM initialization ...
  extracting TIP4P info from pair style
  using 12-bit tables for long-range coulomb (../kspace.cpp:340)
  G vector (1/distance) = 0.37457581
  grid = 24 24 25
  stencil order = 5
  estimated absolute RMS force accuracy = 0.0030372185
  estimated relative force accuracy = 9.1464933e-06
  using double precision FFTW3
  3d grid and FFT values/proc = 2730 288
Last active /omp style is kspace_style pppm/tip4p/omp
Neighbor list info ...
  update every 1 steps, delay 7 steps, check yes
  max neighbors/atom: 2000, page size: 100000
  master list distance cutoff = 10.8154
  ghost atom cutoff = 10.8154
  binsize = 5.4077, bins = 4 4 4
  1 neighbor lists, perpetual/occasional/extra = 1 0 0
  (1) pair lj/cut/tip4p/long/omp, perpetual
      attributes: half, newton on, omp
      pair build: half/bin/newton/omp
      stencil: half/bin/3d
      bin: standard
Per MPI rank memory allocation (min/avg/max) = 9.240 | 9.244 | 9.251 Mbytes
Step Temp PotEng TotEng E_pair E_mol Press Lx Ly Lz Volume Pxx Pyy Pzz Pxy Pxz Pyz Enthalpy 
 7250000    268.78114    -3879.573   -3418.8914    -3879.573            0    4620.4808     17.23358    20.298881    21.024927    7354.9901    5757.0635    3842.2287    4262.1501   -2956.2449    715.51784   -1141.4054   -2923.2755 
 7251000    251.88993   -3917.6816   -3485.9509   -3917.6816            0    3755.2892    17.309198    20.387949    21.117181    7452.2331     4626.343     3454.231    3185.2936    112.02814   -176.68157    664.57253   -3077.8141 
 7252000    258.23028    -3929.614   -3487.0161    -3929.614            0    4674.0586    17.249366    20.317474    21.044186    7375.2201    5417.1382    4507.4551    4097.5824    1784.6301    566.66776   -175.54727   -2984.2743 
 7253000    259.23814   -3944.4871   -3500.1618   -3944.4871            0    4089.2429    17.303435    20.381161     21.11015    7444.7917    5828.3872    3478.9289    2960.4127   -344.42501   -947.60238    1187.9209   -3056.1737 
 7254000    241.94491   -3919.1376   -3504.4523   -3919.1376            0    5203.1171    17.210341    20.271509    20.996576    7325.2766    4836.2173    5179.1552    5593.9789    -1074.231   -623.21515    980.24558   -2948.5947 
 7255000    259.90595   -3885.6036   -3440.1337   -3885.6036            0    6289.6306    17.227657    20.291905    21.017702    7347.4098    7647.3803    6479.6423    4741.8692   -788.72972   -561.79546    1063.1151   -2766.1719 
 7256000     259.6019   -3887.8715   -3442.9227   -3887.8715            0    5874.9364    17.162826    20.215542    20.938608     7264.772     7178.981    4899.3009    5546.5273    -518.7699    1411.3143   -180.24698   -2820.4776 
 7257000     252.4183   -3877.6575   -3445.0212   -3877.6575            0    6413.4885    17.166267    20.219595    20.942806    7269.1424    5363.2329    6112.6526    7764.5801    826.82329    980.79629    216.40346   -2765.1081 
 7258000    260.24236   -3896.0535    -3450.007   -3896.0535            0    4865.7318    17.190339    20.247948    20.972173    7299.7651    5211.2149    4335.8478    5050.1327    361.98687    960.68262    238.40351   -2932.0032 
 7259000    264.48892    -3890.554   -3437.2291    -3890.554            0    4214.7789     17.25797    20.327609    21.054683    7386.2619     4026.383    3722.0291    4895.9245   -398.34954    768.45051    259.66016   -2983.2086 
 7260000     269.6146   -3952.9946   -3490.8844   -3952.9946            0    5652.3835    17.264497    20.335297    21.062646    7394.6454    5419.2833    7109.1943    4428.6728    318.50012    -220.2845   -82.170172   -2881.3126 
 7261000    250.29809   -3913.7986   -3484.7963   -3913.7986            0    5941.4526    17.237095    20.303021    21.029216    7359.4915    5479.6071    6677.7798    5666.9711   -482.05572    337.27389   -1055.3314   -2847.0964 
 7262000    266.28319   -3893.4456   -3437.0453   -3893.4456            0    4566.8735    17.278483     20.35177    21.079708    7412.6312    3977.9639    5263.6961    4458.9607   -2014.0365    311.69971    910.09373   -2943.3406 
 7263000    255.53931   -3897.2735   -3459.2879   -3897.2735            0    5691.4739    17.209985    20.271089    20.996141    7324.8218    5481.9772     4588.826    7003.6185   -875.23885    372.84117    1523.5257   -2851.2961 
 7264000    232.61934   -3880.7967   -3482.0951   -3880.7967            0     7320.501    17.194984     20.25342     20.97784    7305.6844     6812.569    7420.7189    7728.2151   -833.06382    -463.9335    593.84339   -2702.1256 
 7265000    244.15851   -3887.0299   -3468.5505   -3887.0299            0    3856.9618    17.260658    20.330775    21.057962    7389.7138    3028.6792     3307.909    5234.2971    961.70609    33.697737   -747.38885   -3052.8804 
 7266000    249.56327   -3906.2109    -3478.468   -3906.2109            0    6398.3324    17.126323    20.172547    20.894074    7218.5173    6757.7852    7104.3131     5332.899    21.371073    1901.6766   -609.07309   -2804.8857 
 7267000    257.15684   -3922.6168   -3481.8588   -3922.6168            0    6091.7385    17.130772    20.177787    20.899502    7224.1439    5492.2596    5976.8413    6806.1147   -1107.9224   -1152.2795     810.1297   -2840.0531 
 7268000    253.07347   -3966.1131   -3532.3539   -3966.1131            0    5083.0857    17.120846    20.166096    20.887393    7211.5943    5137.2043    4788.0181    5324.0347    711.01949   -241.34165    510.29549   -2997.7469 
 7269000    254.36507   -3921.6862   -3485.7131   -3921.6862            0       5224.6    17.156144    20.207671    20.930455    7256.2897    3793.3367    5650.4843     6229.979    1521.2664    58.388089   -1427.9162    -2932.817 
 7270000    249.37931   -3953.4034   -3525.9758   -3953.4034            0    5594.4912    17.133275    20.180735    20.902556    7227.3111    4938.4303     5225.151    6619.8924    289.82932    27.627648    597.41523   -2936.3001 
 7271000    251.21122   -3942.4699   -3511.9025   -3942.4699            0    5207.1667    17.134413    20.182075    20.903944    7228.7509     4533.269    6998.5618    4089.6695   -1258.2525   -437.87616    711.80435   -2962.9425 
 7272000    265.95763   -3929.2815   -3473.4392   -3929.2815            0     4542.183    17.159157    20.211221    20.934132    7260.1143     2625.215    3827.1932    7174.1407   -228.05022   -905.49904   -491.23869   -2992.5069 
 7273000    246.37802   -3920.0719   -3497.7884   -3920.0719            0    5734.9125    17.103619    20.145804    20.866375    7189.8462    5884.2808    5448.0474    5872.4094   -936.16331    721.14963   -1304.5386   -2896.4453 
 7274000    274.37253   -3900.6047   -3430.3396   -3900.6047            0    4399.4583    17.141485    20.190406    20.912572    7237.7063    3912.4245    4323.7797    4962.1708   -1150.6949   -64.928778    623.90659   -2965.9569 
 7275000    251.69511   -3899.7696   -3468.3728   -3899.7696            0    5728.6438    17.091366    20.131372    20.851427    7174.4058    5916.4846    6302.8776    4966.5691    758.86842   -675.86217    544.86918    -2868.977 
 7276000    264.09686   -3896.8781   -3444.2251   -3896.8781            0    4338.9975    17.194215    20.252514    20.976903    7304.7049    3510.8578    5253.8639    4252.2708    1409.3574   -175.07625    1202.4741   -2981.9846 
 7277000    258.39908   -3903.0161   -3460.1289   -3903.0161            0     4818.408     17.17157    20.225842    20.949276    7275.8817    4748.0417    5396.0454    4311.1369    608.97814   -75.936369   -358.60249   -2948.8415 
 7278000    262.44919   -3925.1901   -3475.3612   -3925.1901            0    4159.1288    17.167087    20.220561    20.943806    7270.1841    3189.9986    4341.9855    4945.4024    533.80706   -9.6127011     944.7477   -3034.3763 
 7279000    247.31106   -3924.1687    -3500.286   -3924.1687            0    5474.2426    17.172458    20.226887    20.950359      7277.01    4003.3393    6566.4226    5852.9658    377.23896   -499.24988   -1507.1318    -2919.317 
 7280000    261.71509   -3875.4287    -3426.858   -3875.4287            0    5172.6397    17.239239    20.305547    21.031832    7362.2386     4857.632    5751.4798    4908.8074   -591.01451    -493.2173    34.184563    -2871.468 
 7281000    255.10905   -3845.8448   -3408.5966   -3845.8448            0    5598.8716    17.226355    20.290371    21.016113    7345.7434    6595.6894    5508.4725    4692.4528    911.67625   -594.86834   -79.233637   -2808.7887 
 7282000    259.23309   -3870.8707   -3426.5541   -3870.8707            0    5797.0476     17.24759    20.315383    21.042019    7372.9423    5456.6303    4827.2508    7107.2617   -958.85683   -531.68037    932.75948   -2803.2161 
 7283000    262.38872   -3896.4854   -3446.7601   -3896.4854            0    4545.9685    17.177022    20.232263    20.955927    7282.8137    6254.2229      3280.71    4102.9726    217.54927   -498.44204    1372.4867    -2963.922 
 7284000    261.01574   -3920.6481   -3473.2761   -3920.6481            0    4959.5654    17.115986    20.160371    20.881463    7205.4546    5297.8624    4019.8861    5560.9476    2180.5813   -832.47864    1273.6837   -2952.1043 
 7285000    245.50369   -3921.6215   -3500.8366   -3921.6215            0    6254.4716     17.13233    20.179622    20.901403    7226.1152    7049.1851    5014.5244    6699.7054    796.81806    80.477791   -1120.3467   -2841.7061 
 7286000     243.9197   -3909.6958   -3491.6257   -3909.6958            0     6438.723    17.102354    20.144314    20.864831     7188.251    5132.3928    7259.2467    6924.5295   -334.83779   -918.44261   -1221.6174   -2816.6334 
 7287000    253.03483   -3882.9266   -3449.2336   -3882.9266            0    6787.2199     17.09694    20.137937    20.858227    7181.4269    6890.3633    6266.3519    7204.9445   -240.63977   -130.65889    201.21689   -2738.3826 
 7288000    249.77577   -3913.4272   -3485.3201   -3913.4272            0    4328.9795    17.192139    20.250069    20.974369    7302.0588     4182.036    4940.8041    3864.0984   -702.44544   -795.17082    -1141.826   -3024.3139 
 7289000    262.59885   -3930.6761   -3480.5907   -3930.6761            0    5708.2845    17.081501    20.119752    20.839391    7161.9891    4968.7837    8586.8437    3569.2261   -30.784674    -186.0793   -2259.1481   -2884.3589 
 7290000    254.75036   -3926.0492   -3489.4158   -3926.0492            0    4230.9991    17.184835    20.241465    20.965458    7292.7557     1925.997     4279.846    6487.1544      677.887    265.45194    -123.0394   -3039.4179 
 7291000    249.42011   -3877.2685   -3449.7709   -3877.2685            0     5191.229    17.150385    20.200889     20.92343    7248.9857    6674.7641    5460.6216    3438.3014    1296.6317    735.08035    855.17952   -2900.9593 
 7292000    244.24827   -3882.3244   -3463.6912   -3882.3244            0    6318.3582    17.156669    20.208289    20.931096    7256.9558    7034.1514    4678.6625    7242.2608   -98.897876   -503.80057   -923.93102   -2794.9862 
 7293000    250.82854   -3873.4925    -3443.581   -3873.4925            0    4397.9711     17.20982    20.270895    20.995941    7324.6116    4766.2066    4070.5494    4357.1573   -204.95002    699.27459    951.72786   -2973.7811 
 7294000    258.89988   -3908.3546   -3464.6091   -3908.3546            0    8913.8367    17.160207    20.212457    20.935412    7261.4462    10696.508    8111.8018    7933.2009    551.68288   -1190.8421    1934.5131   -2520.6272 
 7295000    239.44531   -3935.1525   -3524.7514   -3935.1525            0    4903.1592     17.17991    20.235664     20.95945    7286.4875    5188.2536    4410.7997    5110.4243   -118.74788    1031.8353   -763.51829   -3003.7126 
 7296000    269.94008   -3916.6343   -3453.9662   -3916.6343            0    6154.5986    17.123913    20.169708    20.891134    7215.4704    6279.0977    6957.2043    5227.4938    48.598735   -320.72601    847.70995   -2806.3164 
 7297000    243.61983   -3900.2052   -3482.6492   -3900.2052            0    6779.8236    17.169138    20.222976    20.946308    7272.7898     7674.711    7819.6899    4845.0699    -1280.601    728.20321   -1495.0784   -2763.5392 
 7298000    264.37803   -3925.7805   -3472.6457   -3925.7805            0    5156.0006    17.214329    20.276206    21.001441    7330.3696    5935.9515    5857.5072    3674.5432    22.853719   -288.38289    347.82042   -2921.4387 
 7299000    268.74568   -3914.1985   -3453.5776   -3914.1985            0    4817.0936    17.220648    20.283649     21.00915    7338.4451    5555.4718    5080.2954    3815.5136    98.410978   -383.73979    1045.9392   -2938.0345 
 7300000    257.00833     -3924.01   -3483.5065     -3924.01            0    6220.3725    17.169737    20.223682    20.947039    7273.5517    5110.1117    7100.3938     6450.612    1214.0954   -423.36321   -83.171702   -2823.6663 
 7301000    254.65721   -3895.4893   -3459.0156   -3895.4893            0    3396.6043    17.248867    20.316887    21.043577      7374.58    3517.0484    4448.6927    2224.0719    527.23663   -65.751111    47.390188   -3093.7085 
 7302000    251.27443   -3908.2293   -3477.5536   -3908.2293            0    7215.2078    17.182737    20.238995      20.9629     7290.086    6890.9954    7136.7666    7617.8615    -821.6754     243.6527   -615.19066    -2710.444 
 7303000    248.87065   -3922.5075   -3495.9517   -3922.5075            0    6797.1924     17.17342     20.22802    20.951532    7278.2329    7994.8858      5166.07    7230.6213   -1167.5803    196.69795    470.47202   -2774.4599 
 7304000    259.89442   -3896.9661   -3451.5159   -3896.9661            0    5358.6019    17.228916    20.293388    21.019238    7349.0206    6418.7124    6008.7015     3648.392   -516.12473   -1013.3009     417.5674   -2877.1921 
 7305000    263.87569   -3915.4317   -3463.1578   -3915.4317            0    4427.9996    17.230867    20.295685    21.021617    7351.5169    3352.9064    5205.4557    4725.6367    1985.4606   -768.29481   -854.17967   -2988.4128 
 7306000    263.91957    -3869.971   -3417.6219    -3869.971            0    6443.7197    17.178518    20.234025    20.957751    7284.7163    6600.5791    6827.6445    5902.9355    1148.5483   -950.14617   -413.11752   -2733.0403 
 7307000    250.97092   -3876.7435   -3446.5879   -3876.7435            0    6178.5303     17.14399    20.193356    20.915628    7240.8795    8156.5081    6455.4175    3923.6653   -534.27906     1205.472    1785.5878   -2794.1302 
 7308000    247.16826   -3902.2976   -3478.6597   -3902.2976            0    6566.1372    17.221328     20.28445     21.00998     7339.315    7339.2865     6763.788    5595.3372    -344.0459    534.16418   -238.00343   -2775.8441 
 7309000    263.08473   -3928.0111   -3477.0929   -3928.0111            0    4680.2823    17.222534     20.28587    21.011451    7340.8565    5195.1093     6115.992    2729.7457    1333.5763    455.52976   -728.54564   -2976.0272 
 7310000    252.86118   -3928.0013   -3494.6059   -3928.0013            0     7020.236    17.084605    20.123408    20.843178    7165.8947    6917.3782     7141.813    7001.5169    581.59967    594.77037   -1050.6314   -2760.9405 
 7311000    247.87173    -3886.979   -3462.1354    -3886.979            0     5575.945    17.172385    20.226802     20.95027    7276.9179    4869.8561    7346.0073    4511.9715      1514.29   -503.11688     1454.865   -2870.3805 
 7312000    249.41215   -3855.1974   -3427.7135   -3855.1974            0    4906.4198    17.206967    20.267535     20.99246    7320.9693      5344.02    4685.9518    4689.2875    577.23342    1275.5769   -720.01284   -2903.8608 
 7313000    266.94956   -3903.6067   -3446.0643   -3903.6067            0    5105.0122    17.209825    20.270901    20.995946    7324.6174    4102.6078    5364.6113    5847.8176    604.04192   -987.55586   -789.32274   -2900.7365 
 7314000    248.47687    -3894.575   -3468.6942    -3894.575            0    5111.7076    17.238103    20.304208    21.030445    7360.7828    4564.4134    5121.7255     5648.984   -319.62529    641.24126   -708.79422   -2919.9551 
 7315000    240.37738   -3916.5751   -3504.5765   -3916.5751            0    4289.5648    17.239302     20.30562    21.031908    7362.3185     4682.223    4201.8636    3984.6077   -1202.0696   -371.22919    386.75911   -3043.9979 
 7316000    264.16887   -3913.4756   -3460.6992   -3913.4756            0     3878.392    17.327337    20.409314    21.139311    7475.6859     3260.466    4692.4792    3682.2307   -353.45583    784.20338   -392.38289   -3037.8567 
 7317000    245.49148   -3939.9559   -3519.1919   -3939.9559            0    6787.6903    17.206121    20.266538    20.991428    7319.8896    7702.0079    7643.4997    5017.5631     234.1977   -503.16555    236.60142    -2794.585 
 7318000    258.72759   -3930.4815   -3487.0313   -3930.4815            0     4860.216    17.245895    20.313386    21.039951    7370.7688    3922.1875     7728.999    2929.4616   -2002.5633   -1009.5587   -765.25085   -2964.5818 
 7319000    253.13905   -3941.3269   -3507.4552   -3941.3269            0    4422.4897    17.199488    20.258725    20.983336    7311.4273    4602.4819    5035.9038    3629.0833     249.6775      794.209    151.59479   -3035.8866 
 7320000     256.4694   -3918.3244   -3478.7446   -3918.3244            0    5361.0117    17.179956    20.235719    20.959506    7286.5463    5310.1851    4895.3497    5877.5005   -432.74217    132.43044    248.12125    -2909.047 
 7321000    256.14695   -3943.2714   -3504.2443   -3943.2714            0    4749.4503    17.167039    20.220505    20.943748    7270.1234     5011.164    3213.1098    6024.0771   -385.91669   -1177.1577    21.646452    -3000.673 
 7322000     273.3407   -3888.2714   -3419.7748   -3888.2714            0    6087.4623    17.117569    20.162235    20.883394    7207.4537    7878.7291    6241.2531    4142.4046   -731.25924    70.832223   -1550.2344   -2779.9014 
 7323000    251.19032   -3930.7827   -3500.2511   -3930.7827            0    6416.5864    17.122517    20.168063    20.889431    7213.7056    6665.9677    5841.0463    6742.7452   -1045.4471    -1526.716   -720.29992   -2825.1974 
 7324000    252.19793   -3924.0481   -3491.7895   -3924.0481            0     5625.368    17.137379    20.185568    20.907562    7232.5055    5158.5116    4506.1461    7211.4463   -446.40597    612.86354   -500.83014   -2898.4331 
 7325000    256.21724   -3922.7713   -3483.6237   -3922.7713            0    6418.4267    17.144071    20.193451    20.915726    7240.9818    7737.8823    6018.4029    5498.9949   -120.63018     254.4429     499.8088   -2805.8231 
 7326000    252.60063   -3916.9042   -3483.9553   -3916.9042            0    6672.0042    17.162231    20.214841    20.937882    7264.0163    6037.9241    5722.0223    8256.0661   -684.63109   -197.77346    346.41215   -2777.1351 
 7327000    250.15175   -3931.1672   -3502.4157   -3931.1672            0    6321.4977    17.155019    20.206347    20.929083    7254.8631    5695.3506    8274.0726    4995.0699   -1721.0885   -1651.6727    672.05338   -2833.5713 
 7328000    268.10072   -3891.4291   -3431.9137   -3891.4291            0    5053.5049    17.191875    20.249758    20.974047    7301.7224    4171.2981    4160.1442    6829.0723   -345.71139    659.70293    639.78813   -2893.7754 
 7329000    258.85608   -3924.6128   -3480.9423   -3924.6128            0    6481.2693    17.108985    20.152125    20.872922    7196.6165    7718.5113    6623.0312    5102.2654    520.31921   -302.00971   -405.20306    -2800.699 
 7330000    269.06634   -3875.0834   -3413.9129   -3875.0834            0    5447.6727    17.182415    20.238615    20.962506    7289.6756    3983.7392    6429.4531    5929.8258    411.00657    977.61288    532.01557   -2834.7575 
 7331000    255.52672   -3896.7269   -3458.7628   -3896.7269            0    5498.3729    17.222338    20.285639    21.011212    7340.6061    3815.7116    6651.3614    6028.0456    163.21382   -1075.3549     909.2295   -2870.1334 
 7332000    254.49946   -3907.6717   -3471.4683   -3907.6717            0     5655.484    17.115248    20.159502    20.880563    7204.5222    6989.6402    4990.5879     4986.224    355.12326    1233.0496    195.05027   -2877.2434 
 7333000    241.07148   -3854.8807   -3441.6925   -3854.8807            0    6950.7977    17.048333    20.080684    20.798926    7120.3501     8942.618    6047.9845    5861.7906    772.56459     615.8228   -44.068203   -2719.9008 
 7334000    267.83395   -3877.3696   -3418.3113   -3877.3696            0    4801.6278    17.231095    20.295953    21.021895    7351.8086    5218.0557    4689.9033    4496.9243    247.31222   -877.55283    106.68327   -2903.4876 
 7335000    265.13129   -3930.6608   -3476.2348   -3930.6608            0      6292.56    17.209278    20.270256    20.995279    7323.9191    6637.5076    5510.1659    6730.0065    462.81064   -884.05562   -1205.9402   -2804.1149 
 7336000    244.77478   -3889.0957   -3469.5601   -3889.0957            0     5205.182    17.226977    20.291103    21.016871     7346.539    6892.6962    3161.9826    5560.8672    808.11288     991.6191    917.31678   -2911.8679 
 7337000    249.17982   -3923.0904   -3496.0047   -3923.0904            0    6674.7237    17.187543    20.244656    20.968763    7296.2047     7363.114    5333.9038    7327.1533   -655.21264   -1882.2334    1054.1136   -2785.7629 
 7338000    268.54315   -3905.6925   -3445.4187   -3905.6925            0    5969.5209    17.270369    20.342214     21.06981    7402.1937    5601.7841    5685.6956    6621.0832    1951.5253    1165.2323   -205.89894   -2800.9886 
 7339000    243.45157   -3944.2567   -3526.9891   -3944.2567            0    6302.7794    17.190011    20.247562    20.971773    7299.3479    7198.1077    5631.4311    6078.7995    1506.2618   -1546.6177    106.16184   -2856.0361 
 7340000    247.74747   -3909.9825   -3485.3518   -3909.9825            0    7230.7474    17.145044    20.194598    20.916914    7242.2153    7760.4251    6929.9399    7001.8773   -644.16574    291.22035    969.19028   -2721.6382 
 7341000    237.51785   -3899.1504   -3492.0529   -3899.1504            0    6909.2795    17.186154    20.243019    20.967067    7294.4351    8053.5588    6127.5833    6546.6964     1106.048   -986.91009    1669.5263   -2757.0309 
 7342000    274.77698   -3897.6962   -3426.7379   -3897.6962            0    5941.5117    17.268799    20.340364    21.067895    7400.1752    6413.4398    5859.9482     5551.147    -470.8498   -756.53028   -870.26372   -2785.5064 
 7343000    241.45043   -3920.3649   -3506.5271   -3920.3649            0    4488.9099    17.284046    20.358323    21.086496    7419.7935    3718.3017    5326.7027    4421.7254     856.9829   -90.513245    132.51076   -3020.7818 
 7344000    256.07943   -3909.5707   -3470.6593   -3909.5707            0    5123.7466    17.219054    20.281771    21.007206     7336.408    3579.5972    5600.5008    6191.1417   -296.37204    57.532021   -683.00826   -2922.4492 
 7345000    249.91924   -3920.9174   -3492.5644   -3920.9174            0    5724.5042    17.222316    20.285613    21.011185    7340.5776    5444.7612     6508.109    5220.6422   -1508.5789    -573.1951     312.9332   -2879.7288 
 7346000    258.17523   -3895.1799   -3452.6764   -3895.1799            0     6109.201    17.234883    20.300416    21.026518    7356.6593    5857.7481    7063.0128    5406.8421   -1737.2305    1417.8445   -1033.1342   -2797.2243 
 7347000    258.96577    -3923.892   -3480.0336    -3923.892            0    4897.8307    17.210502    20.271698    20.996772    7325.4818    6206.8174    4056.6174    4430.0572    416.22389    688.01279   -100.38562   -2956.7756 
 7348000    244.78302    -3907.069   -3487.5192    -3907.069            0    6048.9061    17.132966    20.180371    20.902178      7226.92    7652.0032    5011.9187    5482.7963   -88.550291    463.19345   -1306.7718   -2849.9814 
 7349000    253.64658   -3888.6415   -3453.8999   -3888.6415            0    6749.4228    17.169275    20.223138    20.946476    7272.9648    5802.1178    8876.0601    5570.0904    299.24999    1020.6554   -420.81834   -2737.9972 
 7350000     260.0068   -3929.7055   -3484.0627   -3929.7055            0    4276.5395    17.257037     20.32651    21.053545    7385.0645    3805.2446    4635.5356    4388.8383    800.70822   -571.56795   -2423.0729   -3023.4641 
 7351000     254.6024   -3916.4704   -3480.0906   -3916.4704            0    7421.4594    17.131077    20.178146    20.899874    7224.5302    6149.5262    8334.8965    7779.9555   -821.71334    113.65399    983.66449   -2698.1481 
 7352000    267.32269   -3900.9257   -3442.7438   -3900.9257            0    4052.9613    17.227171    20.291332    21.017108    7346.7874     3572.724    4904.6895    3681.4704    119.41426    156.67389   -431.55943   -3008.4878 
 7353000    244.21314    -3862.457    -3443.884    -3862.457            0    6079.2495    17.189056    20.246437    20.970608     7298.131    5175.6963    6361.6548    6700.3974   -158.00328    -100.1499    263.33058   -2796.8345 
 7354000    247.46335   -3896.9428   -3472.7991   -3896.9428            0    5320.8562    17.190505    20.248144    20.972376    7299.9769    5193.4633    4758.5002    6010.6049   -926.16764    844.55987    350.45861   -2906.3265 
 7355000    262.83507   -3904.9399   -3454.4495   -3904.9399            0    7092.8772    17.154952    20.206267    20.929001    7254.7773     6879.945    6698.4038    7700.2828    2515.9241   -285.43261   -642.07672   -2703.9984 
 7356000    260.21998   -3954.7181     -3508.71   -3954.7181            0     4824.221    17.158096    20.209971    20.932837    7258.7672    3526.6233    5466.0509    5479.9888    1113.3099    224.16972   -72.148526   -2998.0099 
 7357000    249.63646   -3929.5909   -3501.7226   -3929.5909            0    4575.8829    17.171513    20.225775    20.949206    7275.8092    6126.5042    3719.4528    3881.6917    1246.6241   -22.566668    735.57723   -3016.1746 
 7358000    241.97694   -3876.1293   -3461.3891   -3876.1293            0    3431.3665     17.19414    20.252426    20.976811     7304.609    2976.2609    5153.6799    2164.1588    201.32355   -213.90215    15.773091   -3095.8448 
 7359000    245.08228   -3890.6301   -3470.5674   -3890.6301            0     4513.627     17.23999    20.306431    21.032747    7363.1999    4335.8091    5263.5644    3941.5074    -469.5279     2298.497    1184.0171   -2985.8729 
 7360000    247.84713   -3868.1352   -3443.3337   -3868.1352            0    4609.0993    17.225014    20.288791    21.014476    7344.0279    3368.3517    4940.5039    5518.4422   -99.957061    1647.9451    771.74223   -2949.6756 
 7361000    258.82095   -3881.6723   -3438.0621   -3881.6723            0    5575.9786    17.249182    20.317257    21.043961    7374.9838    6732.8704    5822.6749    4172.3904    -375.5529    1150.7806   -515.82453    -2838.329 
 7362000    246.92291   -3877.0655   -3453.8481   -3877.0655            0    5392.5558    17.211344     20.27269      20.9978    7326.5578    4563.3413    6254.5074    5359.8189    23.034361   -734.47835   -244.96396   -2877.6517 
 7363000    256.48287   -3913.6242   -3474.0213   -3913.6242            0    6566.1723    17.146928    20.196816    20.919212    7244.6024    5846.5576    7062.0649    6789.8945   -108.38045    1211.8729   -1894.0198   -2780.2717 
 7364000    257.70944   -3863.0822    -3421.377   -3863.0822            0    6813.2568    17.277649    20.350789    21.078692    7411.5587    9775.4792    4957.8944    5706.3969    78.981436    2362.3607   -443.43004   -2684.9322 
 7365000    255.28909   -3866.5912   -3429.0344   -3866.5912            0    5127.3735    17.222375    20.285683    21.011257    7340.6529    5397.9544    5300.7815    4683.3846    110.99115    781.28829   -865.32375   -2880.1189 
 7366000    256.12535   -3915.7127   -3476.7226   -3915.7127            0    7717.5922      17.1518    20.202555    20.925156    7250.7798    7621.1721    6547.0512    8984.5535    291.96955    316.71062   -62.999888   -2660.6244 
 7367000    257.88588   -3964.9279   -3522.9203   -3964.9279            0    4085.3702    17.192881    20.250943    20.975275    7303.0045    5353.6267    4397.1974    2505.2866    553.34263   -1095.6885    -509.8909   -3087.8005 
 7368000    252.00067   -3941.5181   -3509.5976   -3941.5181            0    4688.4877    17.234075    20.299464    21.025532    7355.6246    6299.7306    4577.4028    3188.3296    -353.4283   -1804.9583   -880.88799   -3006.6437 
 7369000    248.77339   -3867.1408   -3440.7517   -3867.1408            0    6519.9793    17.145217    20.194801    20.917125    7242.4341    5411.6054    6007.8645     8140.468     384.4867   -964.81061   -593.25975   -2752.0889 
 7370000    249.03519   -3904.8368    -3477.999   -3904.8368            0    6276.8801    17.192454     20.25044    20.974753      7302.46    4666.9425    7386.9137    6776.7842   -1546.2396    623.04544    280.85932   -2809.5183 
 7371000    243.67112   -3892.7669   -3475.1229   -3892.7669            0    7359.3708    17.182713    20.238967     20.96287    7290.0553    6877.2577    6260.8692    8939.9856    2032.0452    690.28488   -743.27277   -2692.6895 
 7372000    262.94144   -3879.1635   -3428.4909   -3879.1635            0    6947.7966     17.12562    20.171718    20.893216    7217.6277    6282.4755    8956.3602     5604.554    891.76961    -801.1977    1150.7272    -2697.154 
 7373000    255.67724   -3926.0955   -3487.8734   -3926.0955            0    6302.8135    17.079407    20.117286    20.836837    7159.3564    4680.5792    7610.2228    6617.6385   -820.57137   -25.234853   -23.877835   -2829.7849 
 7374000    263.77219   -3880.9153   -3428.8187   -3880.9153            0     5340.055    17.113174    20.157059    20.878033    7201.9038    6713.5311    6565.6687    2740.9653   -244.70183    1168.5122    1288.6678   -2867.9401 
 7375000    253.49744   -3857.4414   -3422.9554   -3857.4414            0    5445.9187    17.140989    20.189821    20.911966    7237.0774    5881.3938    3741.4865    6714.8758   -515.58191   -247.42735   -1088.0896    -2848.164 
 7376000    264.49452   -3897.8409   -3444.5063   -3897.8409            0    4806.6797    17.097946    20.139122    20.859454    7182.6949    7029.3607    3539.2492    3851.4292   -554.92743    638.64283   -1047.7517   -2940.9959 
 7377000    258.41835   -3888.2808   -3445.3606   -3888.2808            0    7705.9048    17.051265    20.084138    20.802503    7124.0242    9173.5136    8476.1951    5468.0056   -221.03683   -496.44937    318.56594   -2644.7434 
 7378000    255.38741   -3881.3619   -3443.6367   -3881.3619            0    4943.4777    17.179019    20.234615    20.958363     7285.354    4765.3159     4925.982    5139.1351    1286.9832   -817.72941   -850.95756   -2918.3951 
 7379000    252.00509   -3856.8603   -3424.9322   -3856.8603            0    6900.9773    17.137068    20.185202    20.907183    7232.1119    8505.6039    7044.4814    5152.8465    1690.0544   -44.762374    422.51444   -2697.0659 
 7380000    255.06702   -3928.9743   -3491.7981   -3928.9743            0    5736.5094    17.125176    20.171196    20.892675    7217.0672    5522.3308    5299.5108    6387.6866    428.91248   -1188.9543   -995.51138   -2888.0103 
 7381000     242.3622   -3905.1388   -3489.7383   -3905.1388            0    3529.1821    17.153225    20.204233    20.926894    7252.5868    4722.0882    2492.4012     3373.057    836.25206   -331.64004    482.82066   -3116.4513 
 7382000    245.34659   -3845.4304   -3424.9147   -3845.4304            0     4872.178    17.210888    20.272152    20.997243    7325.9742    5947.0062    3861.6228    4807.9051    912.00535    367.34352   -799.09894   -2904.3624 
 7383000    248.27147   -3919.2994   -3493.7705   -3919.2994            0      3953.54    17.191735    20.249593    20.973877    7301.5446    5084.5576    2535.4747    4240.5878   -719.07185   -956.29831   -264.31293   -3072.7757 
 7384000    248.81141   -3950.4148   -3523.9606   -3950.4148            0    5764.3566    17.117427    20.162067     20.88322    7207.2735    5612.7121    6530.5038    5149.8538   -134.86757    237.72063    571.87073   -2918.0651 
 7385000    246.91502   -3932.8386   -3509.6347   -3932.8386            0    5319.6763    17.133919    20.181494    20.903342    7228.1265    7453.8402    4112.6782    4392.5103    44.876812   -1287.5762     440.9418   -2948.8621 
 7386000    244.79725   -3904.0511    -3484.477   -3904.0511            0    5504.8972    17.152773    20.203701    20.926343    7252.0139    8226.2219    3384.2312    4904.2386    205.60386   -868.23309   -1287.0755   -2902.2616 
 7387000    251.14802   -3926.9503   -3496.4912   -3926.9503            0    6245.3632    17.124408    20.170291    20.891738    7216.0962    7506.6463    5226.8044    6002.6389    286.10414     149.5088   -480.86883   -2839.2332 
 7388000     258.3482   -3903.8886   -3461.0887   -3903.8886            0    6747.1299    17.095071    20.135736    20.855947    7179.0722    6483.0523    8140.0804     5618.257   -407.81325   -696.46472    244.46682   -2754.6682 
 7389000    219.26195   -3891.2513   -3515.4438   -3891.2513            0     7341.482    17.121316    20.166648    20.887965    7212.1871       7411.7    7631.0447    6981.7013    758.51309    541.58702    457.65672   -2743.2495 
 7390000    246.09315   -3894.5714   -3472.7761   -3894.5714            0    5048.6252    17.173855    20.228533    20.952063    7278.7866      6978.33    2821.9097    5345.6358    37.193903    341.76192    1307.5497   -2936.8462 
 7391000    237.06313     -3898.43   -3492.1119     -3898.43            0    6961.1741    17.134637    20.182339    20.904217    7229.0342    7462.8901    6315.5621      7105.07    -844.6531   -1004.7859    375.33758   -2758.2089 
 7392000    239.77205   -3897.7255   -3486.7644   -3897.7255            0     4381.224     17.22512    20.288916    21.014606    7344.1636    3761.9063    4742.2074    4639.5583   -927.52106   -826.79482    62.981308   -3017.5042 
 7393000    247.18417   -3897.9288   -3474.2635   -3897.9288            0    4487.8811    17.163168    20.215945    20.939025    7265.2068    4697.5689    5621.0764    3144.9978    755.08047    767.27349   -292.34758   -2998.7475 
 7394000    241.22016   -3900.4709   -3487.0278   -3900.4709            0    6069.1054    17.195422    20.253936    20.978374    7306.2426    6280.6479    7333.3709    4593.2974     399.7576   -1103.7226    113.26958     -2840.34 
 7395000    250.94908    -3891.312   -3461.1939    -3891.312            0    4506.7347    17.264585    20.335401    21.062753    7394.7587    4680.1747    5031.5893    3808.4401    396.52444   -244.49061    3018.5065   -2975.1652 
 7396000    258.36119   -3959.7751   -3516.9529   -3959.7751            0    4596.8094    17.257053    20.326529    21.053564    7385.0849    5286.0774    4123.8548     4380.496    1037.6253   -356.50091   -1253.6419   -3021.8586 
 7397000    248.77388    -3945.338    -3518.948    -3945.338            0    5276.7013    17.187739    20.244886    20.969001    7296.4538    5109.9524    5094.4244     5625.727    540.10007    -989.5488    78.365863   -2957.4474 
 7398000    227.52335    -3928.617   -3538.6498    -3928.617            0    5989.4463    17.256659    20.326065    21.053083    7384.5787    6219.2648    5819.5363    5929.5377     922.7103   -467.81486    333.93608   -2893.6074 
 7399000    259.95823   -3893.6623   -3448.1028   -3893.6623            0    6519.3341    17.166186    20.219499    20.942706     7269.039    8193.5981    4088.0335    7276.3706    1082.9829   -74.929024     545.7716   -2756.9785 
 7400000    247.72436   -3951.8353   -3527.2443   -3951.8353            0    6209.0652    17.186762    20.243735    20.967809    7295.2091    5990.2847    4673.3426    7963.5682   -284.21329   -479.76786   -1108.2671   -2866.6423 
 7401000    254.78829   -3915.5108   -3478.8124   -3915.5108            0    4591.2646    17.288755     20.36387    21.092241    7425.8599     5443.368    4592.0082    3738.4176   -1913.8792    305.99335   -955.81715   -2981.5851 
 7402000    234.53615   -3916.3191   -3514.3322   -3916.3191            0    4991.4169     17.21388    20.275677    21.000894    7329.7968    5522.2162    4670.4719    4781.5626   -203.39998    148.82103   -1449.6003   -2980.7619 
 7403000     253.4688   -3923.4311   -3488.9942   -3923.4311            0    3788.5223    17.334677     20.41796    21.148266    7485.1905    3211.5409     6202.676      1951.35   -169.86383    3.3925969     371.3028   -3075.4246 
 7404000    246.04536    -3935.288   -3513.5747    -3935.288            0    3841.6743    17.238384     20.30454    21.030789    7361.1431     4651.746    2843.6591    4029.6178     399.9612   -719.65646    1107.7579   -3101.1528 
 7405000    245.75081   -3908.7683   -3487.5598   -3908.7683            0    6275.0497    17.210345    20.271513     20.99658    7325.2812    7885.3013    4595.7934    6344.0545   -841.48809     150.8847   -164.63797   -2817.1855 
 7406000    229.57274   -3931.6031   -3538.1232   -3931.6031            0    5728.2204    17.277379    20.350471    21.078362    7411.2112    8159.7285    4253.6237    4771.3092    689.72178    137.75241    986.62278    -2918.989 
 7407000    245.81484   -3923.9591   -3502.6408   -3923.9591            0    4339.4735    17.259472    20.329378    21.056515    7388.1907    2127.7142     4891.325    5999.3814   -57.719495   -774.79779    218.52264   -3035.0661 
 7408000    251.76102   -3947.5627    -3516.053   -3947.5627            0    6009.9454     17.25723    20.326738    21.053781    7385.3125    8422.8525     2531.604    7075.3797   -1469.2854   -181.96404   -546.03854   -2868.7385 
 7409000    240.62417   -3910.6432   -3498.2216   -3910.6432            0    7351.4863    17.177346    20.232644    20.956322    7283.2255    7548.3702    5638.7899    8867.2989   -253.08002    94.229453   -1176.2049   -2717.3587 
 7410000    255.81326   -3886.0962    -3447.641   -3886.0962            0    8680.2422     17.15411    20.205275    20.927974    7253.7091    9425.4221    7078.7392    9536.5652   -212.32762    -500.7008   -1044.4298   -2529.3764 
 7411000     244.4642   -3922.8169   -3503.8137   -3922.8169            0     6869.292    17.169069    20.222896    20.946225    7272.7032    6523.1256    7029.4122    7055.3383   -327.72503    190.32347     188.8476   -2775.2228 
 7412000    238.71558    -3915.605   -3506.4546    -3915.605            0    6682.8392    17.170283    20.224326    20.947706     7274.246    8028.6532    5681.8334    6338.0311   -1366.8046   -1280.1615   -524.82273   -2797.4895 
 7413000    264.24105   -3933.1201     -3480.22   -3933.1201            0    6413.9683    17.162753    20.215456    20.938518    7264.6791    5709.8598    6295.5305    7236.5146    177.31386   -123.93901    779.18194   -2800.6735 
 7414000      262.467   -3928.7014   -3478.8419   -3928.7014            0    6931.8111     17.16592    20.219186    20.942382    7268.7014     7068.786    6655.8251    7070.8222   -618.69725     564.0994    1115.7694   -2744.0245 
 7415000    247.98089     -3901.89   -3476.8592     -3901.89            0    4933.6297    17.211963    20.273418    20.998554    7327.3471    4152.5056    5943.9093    4704.4742   -787.49189   -162.63877   -649.88222   -2949.6425 
 7416000    254.79913   -3910.5124   -3473.7954   -3910.5124            0    6514.8433    17.220568    20.283554    21.009052    7338.3425    6008.6254    6031.6107    7504.2939   -931.62902    1299.6846   -772.52952   -2776.5625 
 7417000    251.86047   -3949.3176   -3517.6374   -3949.3176            0    5559.3508     17.15759    20.209375     20.93222    7258.1256    6301.0945    5220.7386    5156.2194   -1473.8255    176.97286   -939.99847   -2929.1672 
 7418000    270.95156   -3909.2098   -3444.8081   -3909.2098            0    5460.8074    17.210278    20.271434    20.996499    7325.1957    5722.3065    4671.6557      5988.46    886.01813    860.51119   -470.77104   -2861.4275 
 7419000    258.01122   -3890.8008   -3448.5784   -3890.8008            0    5244.5641    17.194578    20.252941    20.977345    7305.1666    4368.1701    7437.7831    3927.7391    1696.7063    1271.6186   -1165.9398   -2889.8312 
 7420000    259.85773   -3928.9402   -3483.5529   -3928.9402            0    5744.4326    17.213759    20.275535    21.000746     7329.642    8811.1988    4846.5581     3575.541    1127.8845   -147.04703    56.477953      -2869.5 
 7421000    254.74083   -3921.2274   -3484.6103   -3921.2274            0     5408.196    17.177165    20.232432    20.956101    7282.9958    6255.8928    5634.2329    4334.4622   -770.13711   -430.95786     177.1234   -2910.1787 
 7422000    259.39548   -3935.7188   -3491.1238   -3935.7188            0    6318.8653    17.180759    20.236664    20.960485    7287.5677    6036.5823     6122.025    6797.9884    899.74273   -68.117791   -128.17776   -2819.5441 
 7423000    234.36848   -3874.6403   -3472.9408   -3874.6403            0     6644.141    17.178316    20.233788    20.957506    7284.4604    5260.3863    8608.7071    6063.3295   -762.63891   -416.91087    104.33001   -2767.0913 
 7424000    249.50438   -3914.2417   -3486.5997   -3914.2417            0    5863.4983    17.198368    20.257406    20.981969    7309.9985     5879.417    5070.4677    6640.6103   -302.25189    153.72453    582.29855    -2861.499 
 7425000    262.55964   -3885.2777   -3435.2594   -3885.2777            0    7457.2608    17.135766    20.183669    20.905595     7230.464     6416.737    7859.9604     8095.085    -1329.521    1216.8461   -498.81422   -2648.8995 
 7426000    235.93811   -3897.8634   -3493.4736   -3897.8634            0    8926.8226    17.107985    20.150947    20.871702    7195.3546    9472.6551      8528.39    8779.4227    416.03637    1105.3194    113.69201   -2556.7208 
 7427000    250.72159   -3891.4241   -3461.6959   -3891.4241            0     4372.132    17.238731    20.304948    21.031211     7361.587    3997.7611    4886.9492    4231.6858    1726.5645   -1898.9396    89.003586   -2992.2986 
 7428000    255.23065   -3889.9527   -3452.4961   -3889.9527            0    5825.6355    17.192615    20.250629     20.97495    7302.6648    6309.2517    6186.5175    4981.1372    557.66288    323.50578   -716.26297    -2832.055 
 7429000    257.39377    -3912.804   -3471.6399    -3912.804            0    5093.9005     17.12843    20.175028    20.896645    7221.1819     4900.441    5319.3195     5061.941    1308.2897    1545.2447    746.95695   -2935.1833 
 7430000    248.92698   -3896.3161   -3469.6638   -3896.3161            0    4247.8051    17.170787    20.224919     20.94832    7274.8862    4319.8502    3342.7328    5080.8323   -391.97707   -1332.4758    1.5814484   -3018.9855 
 7431000    257.20188   -3872.1295   -3431.2943   -3872.1295            0    6845.0136    17.090025    20.129793    20.849791    7172.7174    7487.4315    6137.2288    6910.3806   -182.49377   -551.30043    46.155992   -2715.2598 
 7432000    261.81543   -3861.2124   -3412.4697   -3861.2124            0    4263.0949    17.181583    20.237635    20.961491    7288.6167    3928.5394    5091.8137    3768.9315   -584.84974    48.275072   -768.63078   -2959.3155 
 7433000    247.76225   -3907.3394   -3482.6834   -3907.3394            0    6839.4901    17.075323    20.112474    20.831854    7154.2207    6341.0854    8636.5705    5540.8145    1079.9855    402.89846   -837.33162   -2769.0717 
 7434000    253.01948   -3935.5079   -3501.8412   -3935.5079            0    6618.9384    17.077491    20.115028    20.834499    7156.9464    7257.5741    6606.1285    5993.1126    34.205979    439.30368    814.36768   -2810.9781 
 7435000    252.51016    -3898.826   -3466.0323    -3898.826            0    5928.3786    17.109226    20.152409    20.873216    7196.9207    5209.7926    7556.0687    5019.2745    1561.2066    317.08266    1250.2917   -2843.7914 
 7436000    267.37519   -3899.4714   -3441.1995   -3899.4714            0    6202.8227    17.096416     20.13732    20.857588     7180.767    6475.8756    6688.6406    5443.9518    1261.5214    684.26922   -122.90754   -2791.6143 
 7437000    249.72502   -3912.7283   -3484.7082   -3912.7283            0    7658.1293    17.087959    20.127359     20.84727    7170.1161    6636.2185     8993.715    7344.4543   -1772.7583    504.87556    130.41246   -2683.9069 
 7438000    247.71431   -3860.4803   -3435.9065   -3860.4803            0    7306.6526    17.099989    20.141528    20.861946    7185.2695    7507.2532    7670.4537    6742.2508   -881.34756    49.612408    1664.5227   -2670.2439 
 7439000    250.07844   -3924.4429    -3495.817   -3924.4429            0    6132.9704    17.119364    20.164349    20.885584     7209.721    5562.1029    6005.3637    6831.4447    749.65432    782.47679    156.72403   -2850.9574 
 7440000    252.93724   -3853.2791   -3419.7534   -3853.2791            0    6129.2835    17.112505     20.15627    20.877216    7201.0581    5702.6798    6146.7131    6538.4577   -195.29644     108.6281   -1779.0392   -2776.0557 
 7441000    259.14694   -3899.1438   -3454.9748   -3899.1438            0    6118.7548     17.11078    20.154239    20.875112    7198.8812    6796.3251    5886.9919    5672.9474   -425.71866    230.74295    1501.6634   -2812.5772 
 7442000    249.86282   -3890.8707   -3462.6144   -3890.8707            0    5932.7499    17.138441    20.186819    20.908858    7233.8502    6684.4939    7067.8958    4045.8599   -459.56173    108.59546    1257.8021   -2836.7194 
 7443000    256.87248   -3908.5951   -3468.3244   -3908.5951            0    5946.3588    17.186314    20.243208    20.967263    7294.6396    5731.3641    6128.4268    5979.2854   -536.87444    1294.1775    1141.1831    -2835.722 
 7444000     261.1649   -3904.5349   -3456.9072   -3904.5349            0    5322.9098    17.151038    20.201657    20.924226    7249.8132    5423.5398    4091.1643    6454.0254   -502.51183   -1610.3309   -89.334465   -2894.1101 
 7445000    242.42494    -3889.855    -3474.347    -3889.855            0    6043.7723    17.154653    20.205915    20.928636    7254.3979    5972.9587    5088.6751    7069.6831   -614.55721    -658.9495   -490.25632   -2834.9282 
 7446000    253.21683   -3902.3149   -3468.3099   -3902.3149            0    3879.8047    17.256746    20.326168     21.05319    7384.6911    2936.8081    4041.3881     4661.218    1405.6984    744.31742   -58.516906   -3050.4621 
 7447000    241.78736   -3854.7812   -3440.3659   -3854.7812            0    6498.1705    17.162879    20.215605    20.938673    7264.8396    6046.6065      6364.17    7083.7352   -248.70992     87.88547   -290.68808   -2751.8832 
 7448000    248.09809   -3883.3589   -3458.1272   -3883.3589            0    5938.5966    17.235504    20.301147    21.027275    7357.4543    5168.6497    6619.4043    6027.7358    1073.9228    1344.8453    1173.0352   -2820.9103 
 7449000     261.1782   -3893.2954   -3445.6449   -3893.2954            0    5347.8145    17.212882    20.274501    20.999676    7328.5212    7175.8432    4416.4494    4451.1509    962.07565    2687.5561    380.03058    -2874.076 
 7450000    246.06611   -3897.0727   -3475.3238   -3897.0727            0    4373.8734    17.260295    20.330348     21.05752    7389.2479    4079.7946    2131.4814    6910.3443    1012.2897    159.26402   -160.15898   -3003.9751 
 7451000    252.40951   -3897.8274   -3465.2062   -3897.8274            0    5186.8581    17.192862    20.250921    20.975252    7302.9807    5764.6747    5275.6282    4520.2712    80.208128    1416.8519    484.46097   -2912.7722 
 7452000    258.36102   -3904.0865   -3461.2645   -3904.0865            0    4069.9502    17.167305    20.220818    20.944072    7270.4612    3454.3036    4822.6207    3932.9262    307.31061   -92.646491    577.84142   -3029.7187 
 7453000    260.99779   -3927.0051   -3479.6638   -3927.0051            0    5022.9087    17.149523    20.199873    20.922378    7247.8927    5803.6064    4396.9104    4868.2094   -1299.9449    675.90475   -120.98516   -2948.7269 
 7454000    248.57163   -3914.2892    -3488.246   -3914.2892            0    7186.7508    17.148402    20.198552     20.92101    7246.4708     7316.567    7936.5465    6307.1389    909.61956    405.91247    1940.5242   -2728.7333 
 7455000     241.3979   -3906.1307    -3492.383   -3906.1307            0    4965.7111    17.183109    20.239433    20.963353    7290.5591    5399.2399     6637.018    2860.8754    232.12384   -149.49978   -1727.6233   -2964.4021 
 7456000    244.63633   -3928.1944   -3508.8961   -3928.1944            0    7435.5857     17.15095    20.201554     20.92412    7249.7022    6973.2915    5059.0488    10274.417    644.87788    118.25776   -686.42184   -2722.7355 
 7457000     253.0631   -3925.9047   -3492.1632   -3925.9047            0     5501.044    17.187854    20.245021    20.969141    7296.5999    6809.3297    5502.0113    4191.7908   -304.23261    62.161793   -761.65967   -2906.7783 
 7458000    256.44879    -3888.553   -3449.0085    -3888.553            0    7629.9208    17.140058    20.188724    20.910831    7235.8981    7470.6154    8342.0185    7077.1285    837.12048    902.74084   -2168.7255   -2643.8371 
 7459000    262.26945    -3939.802   -3490.2811    -3939.802            0    5966.4088    17.226114    20.290086    21.015818    7345.4347    4613.1656    7096.7909      6189.27    1765.5104   -370.38999    613.06526   -2851.1258 
 7460000    264.33719   -3902.2891   -3449.2242   -3902.2891            0    4072.7175    17.216061    20.278246    21.003555    7332.5831    4979.0665    4066.7315    3172.3546    432.68079   -357.38231    283.26139   -3013.6951 
 7461000    254.47879   -3908.4985   -3472.3305   -3908.4985            0    6777.5102    17.171883    20.226209    20.949657    7276.2786    6905.8525    7391.2607    6035.4173    1027.1014    530.18738   -1679.8669   -2753.1211 
 7462000    256.98153   -3905.7208   -3465.2633   -3905.7208            0    6029.1232    17.097514    20.138613    20.858927    7182.1498    6616.3867    6729.8739    4741.1088    312.81461    206.94189    -752.9845   -2833.7471 
 7463000    254.20163   -3868.9661   -3433.2733   -3868.9661            0    7588.9255    17.092625    20.132854    20.852962    7175.9908    7976.8515    6942.8106    7847.1143    1144.3939   -1084.3273    1193.5996   -2639.0583 
 7464000    246.30081   -3894.1077   -3471.9565   -3894.1077            0    5909.0682    17.153803    20.204914    20.927599    7253.3197    7042.9428    4466.0506    6218.2112   -20.561007    779.83058   -415.84711   -2846.8821 
 7465000    243.05476   -3935.1504   -3518.5629   -3935.1504            0    6942.3062    17.118793    20.163677    20.884888    7208.9999    7002.6567    6065.1393    7759.1226    960.10281    285.24054   -435.82449   -2788.6775 
 7466000    253.65613   -3899.5397   -3464.7818   -3899.5397            0    7727.0927    17.129206    20.175942    20.897591     7222.163    9579.3309    6311.7664    7290.1809    875.58081   -620.84099   -10.615029   -2650.9038 
 7467000    247.49528   -3904.4981   -3480.2997   -3904.4981            0    6660.2023    17.119987    20.165084    20.886344    7210.5086    7735.9155    7649.7418    4594.9494    1482.7725    1631.6671    212.19659    -2779.927 
 7468000    249.95968   -3897.9579   -3469.5356   -3897.9579            0    5046.5921    17.198685     20.25778    20.982356    7310.4035    3703.4675    5813.9926    5622.3161    909.66978    118.55397    -941.3673   -2931.4945 
 7469000    252.18782   -3890.9456   -3458.7043   -3890.9456            0    3051.6734    17.284258    20.358573    21.086755    7420.0673    3717.5568    2620.5573    2816.9062    964.26157   -93.383698    1041.9075   -3128.4703 
 7470000    248.75851    -3929.565   -3503.2014    -3929.565            0    5774.3586    17.163658    20.216522    20.939622    7265.8281    5635.3619    5517.2241    6170.4898   -173.27548    1123.7323    648.75607   -2891.3235 
 7471000    260.45445   -3930.7625   -3484.3525   -3930.7625            0    4971.7839    17.150077    20.200525    20.923054    7248.5946    5214.7916    4620.4739    5080.0862   -753.29424   -52.221959   -794.15153   -2958.7687 
 7472000    252.35288   -3934.4677   -3501.9435   -3934.4677            0    5433.5114    17.160014     20.21223    20.935177    7261.2022    5630.7661    4439.9554    6229.8128    1198.9428   -1175.1733   -267.45692   -2926.5499 
 7473000    257.41142   -3935.3545   -3494.1601   -3935.3545            0    4448.1065     17.17908    20.234687    20.958438     7285.432    4820.7995    6278.0857    2245.4342   -609.71453   -526.38263     512.4055   -3021.5464 
 7474000    246.84428   -3888.3489   -3465.2662   -3888.3489            0    4006.5936     17.23681    20.302686    21.028868    7359.1271    3839.0014    3123.1656     5057.614    557.57604    135.17574   -82.117271   -3035.2573 
 7475000    241.61501   -3889.8521   -3475.7322   -3889.8521            0    6421.4685    17.085016    20.123892    20.843679    7166.4116    5668.3654    7252.8016    6343.2384    225.56338    952.94106    671.08874    -2804.594 
 7476000    256.25152   -3890.0016   -3450.7952   -3890.0016            0    6397.6655    17.191032    20.248765    20.973019    7300.6489    6206.9295    6189.6128    6796.4543   -1442.5204    366.52395   -753.71106   -2769.6199 
 7477000    265.66509    -3853.091   -3397.7502    -3853.091            0    5029.4993    17.175025     20.22991     20.95349    7280.2735    4711.6268    5478.4566    4898.4147   -515.66511    1185.5496   -397.27306   -2863.7415 
 7478000    270.59833   -3907.3377   -3443.5415   -3907.3377            0    4887.9785    17.185561    20.242321    20.966344    7293.6805    7090.0769    2573.4332    5000.4254   -200.97086   -1106.5168   -120.96856    -2923.603 
 7479000    257.55003   -3893.5972   -3452.1653   -3893.5972            0    6760.4398    17.132415    20.179722    20.901507    7226.2234    6342.6379     7783.411    6155.2706   -8.8846806   -442.81195    1181.0885   -2739.7024 
 7480000    253.16429   -3860.3137   -3426.3988   -3860.3137            0    4619.5408    17.198818    20.257936    20.982518    7310.5724    5493.8595    5230.7505    3134.0123   -923.44616    393.83362   -610.35634   -2933.8763 
 7481000    252.14336   -3894.8514   -3462.6863   -3894.8514            0    4905.6021    17.181096    20.237062    20.960897    7287.9973    4598.3532    5861.8943    4256.5588   -99.440846    2200.1253   -340.06007   -2941.2798 
 7482000    254.60375   -3904.5098   -3468.1277   -3904.5098            0    6040.6162    17.185226    20.241927    20.965936    7293.2543    6043.3685    5367.9368    6710.5434    255.69368   -512.53717   -821.95331   -2825.6197 
 7483000    253.04663   -3891.6936   -3457.9803   -3891.6936            0    6476.7803    17.118303      20.1631     20.88429    7208.3808    6269.9656    7852.3482    5308.0271   -803.77354    1299.2641   -1486.7009   -2777.0969 
 7484000    256.31542   -3877.7879    -3438.472   -3877.7879            0    5735.6228    17.174077    20.228795    20.952334    7279.0691      3782.26    5985.7729    7438.8356   -399.56686   -1529.9815    -213.1051   -2829.5911 
 7485000    243.45134   -3894.4036   -3477.1363   -3894.4036            0    7666.3085    17.108835    20.151948    20.872739    7196.4265    7881.2661    7384.8092    7732.8501   -337.03179     24.82504     811.2282   -2672.5381 
 7486000    255.70107    -3905.663   -3467.4001    -3905.663            0     6185.975    17.057317    20.091266    20.809887    7131.6128    7212.4279     5767.879    5577.6181   -64.872578   -312.18732   -751.99266   -2824.0138 
 7487000    246.43912   -3890.2365   -3467.8483   -3890.2365            0    5522.4235    17.216116    20.278311    21.003622    7332.6532    4036.4964     6383.403    6147.3711    417.02882   -228.36366    2061.8786   -2877.2846 
 7488000    259.29322   -3902.4143   -3457.9946   -3902.4143            0    5797.7068     17.18595    20.242779    20.966819    7294.1761    5987.0982    5852.7252     5553.297   -710.33026    24.895638    365.77134   -2841.2457 
 7489000    247.23494   -3899.2712    -3475.519   -3899.2712            0     4085.106      17.2526    20.321284    21.048131    7379.3691    3170.5819    4435.6267    4649.1093    348.60428    176.14942   -588.80391   -3035.8777 
 7490000    250.96171   -3894.0533   -3463.9136   -3894.0533            0    6597.3425    17.203696    20.263681    20.988469    7316.7944    4787.4126    7627.8218    7376.7932    158.87496    910.85207   -220.57763   -2759.9247 
 7491000    249.05297   -3934.9852    -3508.117   -3934.9852            0    5819.4471    17.211492    20.272864     20.99798    7326.7463     3830.256    6399.6698    7228.4154   -17.127743    145.35553    1034.3293   -2886.2911 
 7492000    249.14352   -3905.5415    -3478.518   -3905.5415            0    5124.7421     17.16676    20.220175    20.943407    7269.7682     5910.051    4504.1755    4959.9997   -14.748724   -66.189222   -482.15119    -2935.182 
 7493000    250.87886   -3883.8388    -3453.841   -3883.8388            0    4981.4252     17.18421    20.240729    20.964696    7291.9603     5226.359     4758.336    4959.5805    503.94215    626.88702   -2410.4224   -2924.0875 
 7494000    266.29598   -3937.8504   -3481.4282   -3937.8504            0    5340.7477    17.177765    20.233138    20.956833     7283.759     2208.844    7392.7221    6420.6771   -1395.4381   -138.33724   -120.24362   -2914.1011 
 7495000    258.95354   -3897.2314   -3453.3939   -3897.2314            0    5736.6412    17.159973    20.212182    20.935127    7261.1502    3816.8339    7659.8377    5733.2521     151.1473   -505.25159    311.77242   -2845.9041 
 7496000    250.72928   -3904.4545   -3474.7131   -3904.4545            0    6174.3338    17.199035    20.258191    20.982783    7310.8493    7325.6996    4905.4052    6291.8964    1311.7285   -229.61487   -52.423638    -2816.398 
 7497000    249.26876    -3904.234   -3476.9959    -3904.234            0    6502.3382    17.133256    20.180712    20.902532    7227.2869    5325.4633    6908.8165     7272.735   -140.62089    707.05405    509.19935   -2791.6328 
 7498000    261.38163   -3893.2173   -3445.2181   -3893.2173            0    5078.6932    17.207335    20.267967    20.992908    7321.4382    5580.8966    4803.3128    4851.8702    -474.7475   -310.56072     641.6104   -2902.9373 
 7499000    245.83441   -3916.4445   -3495.0927   -3916.4445            0    4838.1816    17.204365     20.26447    20.989285    7317.6484    6672.5921    3209.7502    4632.2025   -1340.0738   -732.81939     425.2582     -2978.76 
 7500000    258.75675   -3875.8954   -3432.3952   -3875.8954            0    4965.0899    17.274814    20.347449    21.075232      7407.91    4545.6717     4302.431     6047.167   -105.50649   -1741.9942    985.13257   -2895.9829 
Loop time of 468.362 on 64 procs for 250000 steps with 864 atoms

Performance: 92.236 ns/day, 0.260 hours/ns, 533.776 timesteps/s
99.1% CPU use with 64 MPI tasks x 1 OpenMP threads

MPI task timing breakdown:
Section |  min time  |  avg time  |  max time  |%varavg| %total
---------------------------------------------------------------
Pair    | 20.548     | 26.072     | 31.667     |  48.7 |  5.57
Bond    | 0.27443    | 0.28369    | 0.29988    |   1.1 |  0.06
Kspace  | 199.45     | 208.08     | 217.76     |  32.2 | 44.43
Neigh   | 4.8193     | 5.591      | 6.6512     |  25.7 |  1.19
Comm    | 101.64     | 113.88     | 121.77     |  48.6 | 24.31
Output  | 1.4181     | 1.4207     | 1.445      |   0.3 |  0.30
Modify  | 104.87     | 107.09     | 112.04     |  15.6 | 22.86
Other   |            | 5.944      |            |       |  1.27

Nlocal:        13.5000 ave          19 max           5 min
Histogram: 1 0 3 3 6 16 12 14 8 1
Nghost:        2154.84 ave        2187 max        2109 min
Histogram: 3 2 2 7 6 10 8 13 10 3
Neighs:        4167.16 ave        5701 max        1122 min
Histogram: 1 0 0 3 8 9 14 13 12 4

Total # of neighbors = 266698
Ave neighs/atom = 308.67824
Ave special neighs/atom = 2.0000000
Neighbor list builds = 13073
Dangerous builds = 0

unfix		3
unfix		2
unfix		1

write_data	data.final.${pid}
write_data	data.final.0
System init for write_data ...
PPPM initialization ...
  extracting TIP4P info from pair style
  using 12-bit tables for long-range coulomb (../kspace.cpp:340)
  G vector (1/distance) = 0.37437942
  grid = 24 24 25
  stencil order = 5
  estimated absolute RMS force accuracy = 0.0030588435
  estimated relative force accuracy = 9.2116164e-06
  using double precision FFTW3
  3d grid and FFT values/proc = 2730 288
Last active /omp style is kspace_style pppm/tip4p/omp
WARNING: Not all mixed pair coeffs generated from mixing. Use write_data with 'pair ij' option to store all pair coeffs. (../write_data.cpp:312)

write_restart   restart.lmp.${pid}
write_restart   restart.lmp.0
System init for write_restart ...
PPPM initialization ...
  extracting TIP4P info from pair style
  using 12-bit tables for long-range coulomb (../kspace.cpp:340)
  G vector (1/distance) = 0.37437942
  grid = 24 24 25
  stencil order = 5
  estimated absolute RMS force accuracy = 0.0030588435
  estimated relative force accuracy = 9.2116164e-06
  using double precision FFTW3
  3d grid and FFT values/proc = 2730 288
Last active /omp style is kspace_style pppm/tip4p/omp
Total wall time: 0:07:51
