LAMMPS (30 Jul 2021)
  using 1 OpenMP thread(s) per MPI task
package omp 0
using multi-threaded neighbor list subroutines
echo both

include		in.partitions
variable        pid world 0
include		in.temp
variable        temperature equal 252.54
variable	tempDamp equal 100.0
include		in.pressure
variable        pressure equal 10750.0
variable        pressureDamp equal 1000.0 # This is 1 ps
include		in.seed
variable        seed world 745823

units		real
atom_style	full

read_restart	restart.lmp.${pid}
read_restart	restart.lmp.0
Reading restart file ...
  restart file = 30 Jul 2021, LAMMPS = 30 Jul 2021
  restoring atom style full from restart
  orthogonal box = (0.14656332 0.25633082 0.0056743157) to (19.853438 19.743670 20.694324)
  4 by 4 by 4 MPI processor grid
  restoring pair style lj/cut/tip4p/long/omp from restart
  restoring bond style harmonic/omp from restart
  restoring angle style harmonic/omp from restart
  972 atoms
  648 bonds
  324 angles
Finding 1-2 1-3 1-4 neighbors ...
  special bond factors lj:    0        0        0       
  special bond factors coul:  0        0        0       
     2 = max # of 1-2 neighbors
     1 = max # of 1-3 neighbors
     1 = max # of 1-4 neighbors
     2 = max # of special neighbors
  special bonds CPU = 1.790 seconds
  read_restart CPU = 2.216 seconds
include 	in.setup
variable	out_freq equal 1000
variable	out_freq2 equal 10000
variable	out_freq3 equal 1000

timestep	2.0

neigh_modify    delay 7 every 1

include		in.tip4p
# This is TIP4P/Ice

# create groups ###
group ox type 2
324 atoms in group ox
group hy type 1
648 atoms in group hy

# set charges - beside manually ###
set group ox charge -1.1794
Setting atom values ...
  324 settings made for charge
set group hy charge 0.5897
Setting atom values ...
  648 settings made for charge

# ### TIP3P Potential Parameters ###
pair_style lj/cut/tip4p/long/omp 2 1 1 1 0.1577 8.5
pair_coeff 1 1*2 0.000 0.000
pair_coeff 2 2 0.21084 3.1668
bond_style  harmonic
bond_coeff  1 450 0.9572
angle_style harmonic
angle_coeff 1 55 104.52
kspace_style pppm/tip4p/omp 1.0e-5
pair_modify tail yes

thermo          ${out_freq}
thermo          1000
thermo_style    custom step temp pe etotal epair emol press lx ly lz vol pxx pyy pzz pxy pxz pyz enthalpy

restart 	${out_freq3} restart.lmp.${pid} restart2.lmp.${pid}
restart 	1000 restart.lmp.${pid} restart2.lmp.${pid}
restart 	1000 restart.lmp.0 restart2.lmp.${pid}
restart 	1000 restart.lmp.0 restart2.lmp.0


include         in.dump
dump            myDump all atom ${out_freq2} dump.water.${pid}
dump            myDump all atom 10000 dump.water.${pid}
dump            myDump all atom 10000 dump.water.0
dump            myDump2 all dcd ${out_freq2} dump.dcd
dump            myDump2 all dcd 10000 dump.dcd
dump_modify     myDump append yes
dump_modify     myDump2 append yes


variable natoms 	equal  "count(all)"                        # NUMBER ATOMS
variable H      	equal  "enthalpy/v_natoms"                 # ENTHALPY-per-atom
variable Vol      	equal  "vol/v_natoms"                 # volume-per-atom
fix AVG all 		ave/time ${out_freq} 1 ${out_freq} v_Vol v_H file vol_enthalpy.dat
fix AVG all 		ave/time 1000 1 ${out_freq} v_Vol v_H file vol_enthalpy.dat
fix AVG all 		ave/time 1000 1 1000 v_Vol v_H file vol_enthalpy.dat


timer           timeout 02:55:00 every 1000
New timer settings: style=normal  mode=nosync  timeout=02:55:00

fix 		1 all shake 1e-6 200 0 b 1 a 1
       0 = # of size 2 clusters
       0 = # of size 3 clusters
       0 = # of size 4 clusters
     324 = # of frozen angles
  find clusters CPU = 1.178 seconds
fix             2 all nph aniso ${pressure} ${pressure} ${pressureDamp}
fix             2 all nph aniso 10750 ${pressure} ${pressureDamp}
fix             2 all nph aniso 10750 10750 ${pressureDamp}
fix             2 all nph aniso 10750 10750 1000
fix             3 all temp/csvr ${temperature} ${temperature} ${tempDamp} ${seed}
fix             3 all temp/csvr 252.54 ${temperature} ${tempDamp} ${seed}
fix             3 all temp/csvr 252.54 252.54 ${tempDamp} ${seed}
fix             3 all temp/csvr 252.54 252.54 100 ${seed}
fix             3 all temp/csvr 252.54 252.54 100 745823


run             250000
PPPM initialization ...
  extracting TIP4P info from pair style
  using 12-bit tables for long-range coulomb (../kspace.cpp:340)
  G vector (1/distance) = 0.37367001
  grid = 24 24 25
  stencil order = 5
  estimated absolute RMS force accuracy = 0.0032564116
  estimated relative force accuracy = 9.8065869e-06
  using double precision FFTW3
  3d grid and FFT values/proc = 2366 288
Last active /omp style is kspace_style pppm/tip4p/omp
Neighbor list info ...
  update every 1 steps, delay 7 steps, check yes
  max neighbors/atom: 2000, page size: 100000
  master list distance cutoff = 10.8154
  ghost atom cutoff = 10.8154
  binsize = 5.4077, bins = 4 4 4
  1 neighbor lists, perpetual/occasional/extra = 1 0 0
  (1) pair lj/cut/tip4p/long/omp, perpetual
      attributes: half, newton on, omp
      pair build: half/bin/newton/omp
      stencil: half/bin/3d
      bin: standard
Per MPI rank memory allocation (min/avg/max) = 9.232 | 9.236 | 9.244 Mbytes
Step Temp PotEng TotEng E_pair E_mol Press Lx Ly Lz Volume Pxx Pyy Pzz Pxy Pxz Pyz Enthalpy 
27250000    256.71184   -4674.5979   -4179.5075   -4674.5979            0    9755.3094    19.706874    19.487339    20.688649    7945.1561    9630.7864    10805.642    8829.4999    663.93105    1825.7117    277.64741   -3049.1408 
27251000    240.70368   -4700.5315   -4236.3142   -4700.5315            0    10271.462    19.840606    19.862299     20.34838    8018.8908    10403.601    10159.712    10251.072   -30.939329    1515.7124    133.12023   -3035.0945 
27252000    245.88031   -4691.4231   -4217.2222   -4691.4231            0    12196.596    19.938123    19.566578    20.304372    7921.1587    12863.927    13064.087    10661.774    1150.9918   -1103.6982    619.07846   -2808.2473 
27253000    246.66778   -4698.9769   -4223.2573   -4698.9769            0    11734.289    19.835576    19.704514    20.201023    7895.5776    11063.169    11743.873    12395.824    1161.0179   -508.60277    1081.3137   -2872.0669 
27254000    241.25412   -4719.0756   -4253.7967   -4719.0756            0     10351.31    19.843785    19.383429    20.606086    7925.9373    9375.8799    12696.155    8981.8962    917.19367     -84.9689    57.817488   -3057.2715 
27255000     249.1241    -4702.559   -4222.1022    -4702.559            0     10106.36    19.734244    19.733078    20.487368    7978.1373     9072.542    10520.446     10726.09   -10.418676    212.84326    -595.2071   -3046.1975 
27256000    261.09821   -4702.5825   -4199.0326   -4702.5825            0    10510.145     19.75422    19.675901    20.510539     7972.079    10179.681    12008.954     9341.801   -165.07881   -318.26492    686.62508   -2977.0748 
27257000    255.20245   -4719.9895   -4227.8101   -4719.9895            0    9691.9066    19.832829    19.733449     20.34232    7961.3764    9077.4314    10113.054    9885.2346    412.99808    185.56676    1283.4112   -3102.4972 
27258000     258.3221   -4717.8455   -4219.6496   -4717.8455            0    10747.225    19.770492    19.676206    20.440968    7951.7053    12310.864    9021.4274    10909.384    150.44248    1176.9937    218.99493   -2973.3212 
27259000    265.39582   -4716.0086   -4204.1704   -4716.0086            0    9982.1505    19.855162    19.524615    20.687335    8019.7429      10099.5    10063.573    9783.3782    292.89446    116.50535    694.30609   -3036.6608 
27260000    250.99424   -4683.7732   -4199.7097   -4683.7732            0    10833.371      19.3434    19.982907    20.474872     7914.303    11489.494    10377.334    10633.285   -343.66419     450.1628   -676.84951   -2949.3004 
27261000    242.10256     -4705.83   -4238.9149     -4705.83            0    10053.247    19.877726    19.684766    20.431139    7994.4674    10973.608    9341.5083    9844.6255   -630.12104    181.24122   -930.85516   -3066.7956 
27262000    265.66641   -4702.7302   -4190.3702   -4702.7302            0    8861.8579    19.821663    19.895412    20.436649    8059.4002    10436.644    8928.0393    7220.8904    402.94209    1056.1675    881.94636   -3148.7644 
27263000     263.9087   -4689.9213   -4180.9512   -4689.9213            0     9426.138    19.652083    19.752428    20.552711    7978.0761    10634.028    8396.3567    9248.0295   -12.226128   -1226.0654   -103.68586   -3084.2006 
27264000    251.92631   -4722.7812   -4236.9201   -4722.7812            0    9603.8455    19.797207    19.726975    20.444567    7984.4007    10095.213    9678.3051    9038.0186     313.5948    260.70193    1012.4352   -3118.6071 
27265000    242.52499   -4702.9306   -4235.2008   -4702.9306            0     9760.776    19.947062     19.84791    20.212356    8002.2233    7291.8496    10412.811    11577.667    312.38054   -100.70484   -156.56151   -3096.0771 
27266000    257.78147   -4717.2774   -4220.1241   -4717.2774            0    11095.299    19.785795    19.675543    20.370791    7930.2727    10958.152    10975.686    11352.058   -380.19034   -895.21907     2113.515   -2936.8986 
27267000    245.94493   -4701.6671   -4227.3416   -4701.6671            0    10055.187    19.961901    19.403893     20.64157    7995.2766    10466.629    10456.298    9242.6343    235.32234    450.47649    157.98629   -3054.8775 
27268000    248.66545   -4721.1502    -4241.578   -4721.1502            0    11475.159     19.75193    19.792662    20.280594    7928.5619    11269.255    10839.118    12317.103     230.8596    1108.6834    488.67955    -2914.706 
27269000    255.99352   -4717.6719   -4223.9669   -4717.6719            0     11687.61    19.724556    19.685457    20.462144    7945.1821    11830.019    10515.499    12717.313   -97.800107   -48.116563     469.5408   -2869.6963 
27270000    251.71092   -4724.5112   -4239.0655   -4724.5112            0    8124.6171    19.540101    19.897249    20.572914    7998.6308    8315.2177    7380.8386    8677.7949    327.32155    37.400702    569.41887   -3291.3141 
27271000    246.65784   -4733.5739   -4257.8735   -4733.5739            0    9536.8444     19.93176    19.577967    20.512957    8004.6344    9569.8645    10491.158    8549.5108    485.24801   -1202.9123    152.82577   -3144.5482 
27272000    260.59866   -4711.3329   -4208.7465   -4711.3329            0    11778.224    19.518215    19.639864    20.622329     7905.262    12238.533    11459.256    11636.884    688.28103    1145.9439    379.49573   -2850.8334 
27273000    252.88936   -4726.8636   -4239.1452   -4726.8636            0    10808.937    19.973014    19.569292    20.251432    7915.4289     9348.733    10758.871    12319.206   -205.23704    1217.3293   -131.90848   -2991.3787 
27274000    257.48246   -4662.7679   -4166.1914   -4662.7679            0    10752.842    19.473411    19.834445    20.608317    7959.8447    12026.031    10673.388    9559.1074   -177.59283   -752.53418    296.01929   -2917.9351 
27275000    265.02414   -4709.0312   -4197.9099   -4709.0312            0    9579.7121    19.649611    19.828369    20.482414    7980.3527    9506.0161    10277.354    8955.7665    601.94526    719.01542    -427.8783   -3082.9726 
27276000    249.55431   -4672.8422   -4191.5558   -4672.8422            0    10725.763    19.499539    19.888546    20.618763    7996.3166    10937.651    12211.579    9028.0606    -598.8832   -1017.4964    1379.6009   -2940.7379 
27277000    263.67647   -4695.6453    -4187.123   -4695.6453            0    10735.634    19.553834     19.84906    20.553992     7977.523    9155.6095    11803.974     11247.32     253.2351   -1056.3335   -329.88438   -2938.0965 
27278000    249.11725    -4710.324   -4229.8804    -4710.324            0    11302.214    19.698504    19.626696     20.39069    7883.3782    10399.283    11476.213    12031.147   -670.16611    807.35134   -1651.3721   -2930.4537 
27279000    244.21888   -4700.2598   -4229.2632   -4700.2598            0    8535.0041    19.874851    19.962481    20.261671    8038.8451    5608.0177    10467.932     9529.063    576.52292    5.7318386    1936.2972   -3228.6337 
27280000    261.04055     -4699.27   -4195.8314     -4699.27            0    10090.095    19.581984    19.925584    20.418132    7966.7973    10944.851    9376.6241    9948.8089   -173.21006    425.60733   -645.62134   -3023.4878 
27281000    257.70428   -4688.5832   -4191.5788   -4688.5832            0    10858.374    19.557845    19.803982    20.512716    7945.0512    12124.658    9677.3598    10773.103    -313.0611    458.05541    392.17356   -2933.4145 
27282000     254.8561   -4712.5433   -4221.0319   -4712.5433            0    10065.651    19.720491    19.963705    20.354574     8013.475    9477.1208    9263.9192    11455.914    903.04052    554.37159   -2151.8163   -3044.6762 
27283000    248.25158   -4691.4387   -4212.6646   -4691.4387            0    12675.165    19.686357    19.884966    20.300763    7946.9883    12837.137    10534.755    14653.604   -63.225013    254.42347   -701.37113   -2743.6298 
27284000    247.58508   -4718.9739   -4241.4852   -4718.9739            0    11224.354    19.729519     19.74026    20.379741     7937.213    9315.3931    12424.084    11933.585    246.18196    1387.4848    201.69084   -2942.1976 
27285000    249.06027    -4739.275   -4258.9413    -4739.275            0    12470.653    19.450584    20.112781    20.209387    7906.0201    12355.599    12436.594    12619.765   -536.91792     -215.585    160.77874   -2821.0601 
27286000     257.3102   -4728.7634    -4232.519   -4728.7634            0    11282.258    19.592332    19.651073     20.41367    7859.4746    11016.686    11582.653    11247.435   -354.48687    733.34183   -818.71861   -2939.3198 
27287000    251.23151   -4710.6489   -4226.1278   -4710.6489            0    12416.658    19.664273    19.755474    20.510313    7967.7855    13356.043    11453.902    12440.028    348.06484   -1686.4158    952.50092   -2783.2876 
27288000    250.60906   -4682.9229   -4199.6023   -4682.9229            0    12385.874    19.848942    19.866101    20.146565    7944.2154    12792.781    12184.601    12180.239   -1051.0649    1418.3052    990.61783   -2764.5968 
27289000    248.79101   -4733.0493   -4253.2349   -4733.0493            0    10433.152    19.863673    19.752433    20.413397    8009.3163    11072.738     10608.71     9618.009    914.73754    1083.7208   -511.68474   -3034.5628 
27290000    253.08598   -4704.8384   -4216.7408   -4704.8384            0    12653.726    19.983107     19.50493    20.239407    7888.6954     13137.16    10376.907    14447.111    783.91707    1222.9422    -1740.244   -2760.9482 
27291000    247.46112    -4690.357   -4213.1074    -4690.357            0    12175.412    19.716751    19.607177    20.485582    7919.5174    11848.535        13264    11413.702   -91.679361    759.99779    -559.9254   -2806.8712 
27292000     245.2777   -4693.6713   -4220.6326   -4693.6713            0    13062.417    19.935388    19.661502    20.150463     7898.169    12297.535    13866.299    13023.415   -249.69925   -14.346052   -645.12463    -2716.016 
27293000    253.49788   -4700.9262   -4212.0342   -4700.9262            0     9733.202    19.745325     19.79243    20.430457     7984.385    8500.5018    11241.261    9457.8431   -625.49375   -90.771362   -333.50755   -3078.6606 
27294000    244.21276   -4723.2342   -4252.2494   -4723.2342            0    10011.284    19.598317    19.913759    20.357203    7944.9307    10602.292    9786.2049     9645.356    134.13139    998.03413    2044.8302   -3092.2552 
27295000    239.66957   -4739.9024   -4277.6795   -4739.9024            0    9369.7956    19.811759    19.945206    20.378174    8052.4277     9661.335    8401.3486    10046.703     139.7578   -240.62892   -295.77712   -3177.3245 
27296000    239.42666   -4699.1542   -4237.3998   -4699.1542            0    10379.198    20.013469    19.517663    20.318944    7936.9077    11759.266     10033.21    9345.1179     320.4069    1236.9781      444.913   -3035.9904 
27297000    247.98951   -4709.1541   -4230.8855   -4709.1541            0    10949.286    19.905668    19.611907    20.450289      7983.55    8480.2391    11836.605    12531.015    331.49027    840.08957   -1833.8441   -2956.0394 
27298000    248.16446   -4738.7653   -4260.1593   -4738.7653            0    10543.854    19.616653    19.519389    20.768353    7952.3077    11610.342    11044.528     8976.691    392.44765    506.26103    1226.8697   -3037.3227 
27299000     259.5328   -4714.2705   -4213.7397   -4714.2705            0    10581.307    19.794129     19.72756    20.474147    7994.9471    10155.524    11823.887    9764.5115    260.89013    1579.2623     312.9687   -2979.9793 
27300000    239.91378   -4714.9883   -4252.2944   -4714.9883            0    10837.992     19.70381    19.808633    20.385688    7956.6471    11589.679    10590.685    10333.611   -613.32757    529.43368   -77.785963   -2994.6588 
27301000    269.11284   -4687.4452   -4168.4385   -4687.4452            0    10985.074    19.939666    19.885981     20.17716    8000.6439    8719.2454    10999.842    13236.135    150.78324    -305.3225    773.64299    -2886.687 
27302000    243.65818   -4716.7576   -4246.8423   -4716.7576            0    10131.697    19.841685    19.654782    20.352236     7937.046    9425.7501    9417.3282    11552.014    -438.0693   -1565.9217    696.28763   -3074.0611 
27303000    249.79482   -4729.5793    -4247.829   -4729.5793            0    11673.917    19.786175    19.490958    20.527236    7916.3593    11359.144    12727.811    10934.796   -625.58003     1909.647   -702.20535   -2900.0521 
27304000    274.49635   -4727.6008   -4198.2115   -4727.6008            0    10388.118    19.740154    19.675553    20.503415    7963.4947    12123.375    9751.8939    9289.0865   -113.87427   -95.329637    1165.9369   -2991.7417 
27305000    249.03304   -4704.6474   -4224.3663   -4704.6474            0    9497.3046    19.994949    19.867279    20.183967    8017.9848    10792.848     8153.704    9545.3623   -1211.7432   -872.63322    509.04912   -3113.8076 
27306000    263.45298   -4701.9628   -4193.8716   -4701.9628            0    8624.9526    19.730349    19.630274    20.819604     8063.686     8444.707    9723.3309    7706.8199    186.35153     2054.839    24.569805   -3179.5721 
27307000    241.09584   -4710.7582   -4245.7846   -4710.7582            0    9227.9074    19.789053    19.913471    20.166369    7946.9358    8471.4484    9163.7161    10048.558    -265.5689    1081.2616   -11.521202   -3176.2894 
27308000    251.73527   -4717.1365   -4231.6439   -4717.1365            0    10160.623    19.641103    19.769037    20.606673    8001.2765    12170.658    8813.9595    9497.2522    4.4694408   -380.39186    754.70081   -3045.9966 
27309000    252.18619   -4726.0213    -4239.659   -4726.0213            0    10394.095    19.943803    19.759345    20.326832     8010.326    8651.7244    10556.816    11973.746     246.7368    225.18775    180.49895    -3025.396 
27310000    266.30935   -4736.4306   -4222.8306   -4736.4306            0    11734.603    19.637254    19.781248    20.403684    7925.7983    11882.255    11763.012    11558.542    210.86777     193.2225   -871.35864   -2866.4321 
27311000    250.76734   -4686.5922   -4202.9663   -4686.5922            0    12440.616    19.596316    19.662585     20.44037    7875.9654    12063.208    12161.186    13097.453   -702.53433    448.84663   -82.773438   -2774.0014 
27312000     265.0875   -4693.2669   -4182.0234   -4693.2669            0    11637.826    19.878409    19.725002    20.303066    7960.8657    10992.493    10931.725    12989.259    -232.9104    349.66674    84.954418   -2830.8595 
27313000    256.99159   -4690.1232   -4194.4933   -4690.1232            0    10762.069    19.823059    19.609889    20.453382    7950.8022    11198.576    11194.371    9893.2609   -722.90257    418.96957    925.49826   -2946.5852 
27314000    251.84473   -4710.6973   -4224.9936   -4710.6973            0     10662.47    19.942309    19.584327     20.44884    7986.4316    9633.9745     10728.59    11624.846   -510.04388   -401.52911     200.3383   -2983.0939 
27315000    254.56166   -4731.7877   -4240.8442   -4731.7877            0    10628.104    19.676827    19.937648    20.406749    8005.7646    11370.431    9696.6823    10817.199   -293.96794    1241.6789    -498.3009   -2999.9507 
27316000    270.16526   -4706.9416   -4185.9052   -4706.9416            0    10808.271    19.743704    19.934326    20.235926    7964.4039    10016.552    10087.082     12321.18   -252.78891    -344.4193   -345.74009   -2930.4957 
27317000    242.25418   -4700.5331   -4233.3256   -4700.5331            0     12696.64    19.848993    19.652951    20.261293    7903.7537    12298.555    13066.788    12724.576    398.76066   -1357.9661   -366.90251   -2769.8075 
27318000    258.42326   -4735.6313   -4237.2403   -4735.6313            0    8735.5914    19.630558    19.799111     20.63319    8019.4519    8916.2178    8487.7094    8802.8468    25.247336   -814.36804    876.95807    -3215.565 
27319000    240.88704   -4709.5477   -4244.9768   -4709.5477            0    11326.039    19.766678    19.801403    20.140013    7882.9614      11208.4    11357.511    11412.206      399.922   -217.27849   -408.40581   -2942.8798 
27320000    247.28604   -4689.5736   -4212.6617   -4689.5736            0    11503.923    19.629563    19.801824    20.401935    7930.2555    11911.693    11593.177    11006.899   -343.10672    182.66853    1871.3115   -2882.1795 
27321000      257.475   -4719.3034   -4222.7412   -4719.3034            0    9764.7615     19.63224     19.66869     20.76597    8018.5809    7685.8182    12771.841    8836.6254   -79.568524    216.11794   -1286.9469   -3080.8228 
27322000    273.29182   -4700.9092   -4173.8429   -4700.9092            0    9168.0732    19.728446    19.875372    20.419285      8006.61    9750.4783    7964.0475    9789.6936    696.94931    2375.5656    356.32567   -3103.3036 
27323000    246.20001   -4744.4339   -4269.6165   -4744.4339            0    9427.8205    19.663226     19.78639    20.505974    7978.1415    11097.331    8396.7273    8789.4035    854.14182    513.95546    510.13494   -3172.6612 
27324000    247.20984   -4723.6549   -4246.8899   -4723.6549            0    10220.189    19.719432    19.772079    20.427164    7964.4322    11153.109    7867.0231    11640.434    593.82619    556.20126    420.34586   -3059.7836 
27325000    252.46872   -4729.6003   -4242.6931   -4729.6003            0    11035.788    19.784241    19.605638    20.582167    7983.4658    10878.146    13246.348    8982.8714     1270.209    686.28797    1365.6753    -2957.789 
27326000    265.01852     -4739.55   -4228.4395     -4739.55            0      10372.9    19.587038    19.816561    20.482593    7950.2723    12197.336     9140.093    9781.2702    112.84919    185.71858   -1818.6651   -3025.7374 
27327000    250.08788   -4741.1427   -4258.8272   -4741.1427            0    11716.655    19.706072    19.720359    20.197175    7848.8405    9935.5144    11662.368    13552.083    71.952422    1048.9508     1946.608   -2917.6534 
27328000    263.42079   -4696.4238   -4188.3947   -4696.4238            0    10643.898    19.856768    19.946971    20.217552    8007.8156    11259.008    9382.1664    11290.521    79.956904    1260.1698     1477.915   -2945.3387 
27329000    244.95857   -4706.7261   -4234.3029   -4706.7261            0    11478.473    19.602098    19.572944     20.60871    7906.9595    10797.702    13299.829    10337.888    757.21414    447.94924    1864.0756    -2910.664 
27330000    250.35291   -4679.8995   -4197.0729   -4679.8995            0    11099.031    19.679349    19.844346     20.36107    7951.4829    11749.895    11395.941    10151.257   -625.09583    708.48216   -724.53041   -2909.9824 
27331000    252.81295   -4694.5153   -4206.9442   -4694.5153            0    10942.128    19.519802    20.036833    20.310221    7943.6323    11363.522    11196.447    10266.415      179.764   -790.13259    349.75671   -2939.3017 
27332000      232.359   -4703.0035   -4254.8796   -4703.0035            0    10958.593    19.658157    19.818424    20.429865    7959.3465    12644.662     9417.842    10813.274   -163.02461    790.98548    1219.5414   -2982.8182 
27333000    262.31751   -4726.5716   -4220.6703   -4726.5716            0    10423.548    19.668479    19.752517    20.583569    7996.7575    10805.028     9768.566     10697.05    131.12107    211.22942   -1476.2211   -3005.0291 
27334000    249.39925   -4661.9179   -4180.9304   -4661.9179            0    11932.057    19.558374    19.897264    20.342615    7916.4942    13909.089    10125.594    11761.487   -908.66302    1008.2603   -773.41883   -2803.3274 
27335000    249.45846   -4719.7092   -4238.6076   -4719.7092            0    10884.133    19.512876    19.859888     20.43928    7920.7019    12101.136    9219.6397    11331.623    717.62614    846.86431    750.36763   -2981.3236 
27336000     261.1028   -4743.5808   -4240.0221   -4743.5808            0     10915.98    19.828008    19.699283    20.309688    7932.9141    11001.322    11871.241    9875.3758    705.92452    546.56321    755.91649   -2977.1151 
27337000    247.26937   -4719.4514   -4242.5717   -4719.4514            0    8775.1694     19.88119    19.453491    20.660799    7990.7411    6719.1614    10232.826    9373.5206    439.23758    675.29427   -661.90453   -3219.9418 
27338000    255.52296   -4709.5657   -4216.7682   -4709.5657            0    10510.399     19.96988    19.568692     20.29581    7931.2863    11273.373    9167.0141     11090.81    464.66769   -1095.4203    685.23141   -3001.0337 
27339000    237.36723    -4735.384   -4277.6013    -4735.384            0    9062.9911    19.796637    19.819879    20.293544    7962.5159    9682.3627    7982.8535     9523.757    -42.43814    1479.0247   -399.90975   -3225.1604 
27340000    247.67095    -4722.285   -4244.6308    -4722.285            0    10776.168    19.737645    19.774371    20.431619    7974.4512    9587.6815    11906.022      10834.8   -326.24141    567.27026   -1144.9452   -2991.3712 
27341000    254.20242   -4731.4867    -4241.236   -4731.4867            0    11174.964    19.701247    19.649868    20.561818     7960.033    11154.147    13562.132    8808.6133    967.35014   -259.08469     232.5603   -2943.9465 
27342000    244.16977   -4701.4416   -4230.5397   -4701.4416            0    11656.842    19.591756    20.116527    20.040633    7898.3759    12567.357    10034.919     12368.25   -623.85571    1269.0545    1158.1357   -2887.7914 
27343000    266.47791   -4725.2367   -4211.3116   -4725.2367            0    11067.209    19.812026    19.660162    20.506595    7987.4755    12703.553    9873.9267    10624.146   -487.39019   -113.22845    -1246.476    -2922.102 
27344000    245.56934   -4694.2047   -4220.6036   -4694.2047            0    11009.396    19.815774    20.025537    20.103796    7977.6185     13026.98    9584.8261    10416.382    1253.3333   -527.97616   -268.62437   -2939.7112 
27345000    240.38151    -4729.888    -4266.292    -4729.888            0    11028.347    19.825353    19.793162     20.31522    7971.8225    9969.1755    10852.793    12263.072    455.50234   -456.15748   -1686.8442    -2984.127 
27346000    251.95975   -4696.0764   -4210.1508   -4696.0764            0    9675.0465    19.604606    19.669723    20.628875    7954.8481    9978.0521    9647.1237    9399.9636    30.285489   -179.84906    152.39344   -3087.7168 
27347000    254.38526   -4719.1995   -4228.5961   -4719.1995            0     10104.73    19.574464     19.87412    20.442756    7952.7484    8569.7529    11031.518    10712.919   -224.08764    356.62195    1035.2374   -3056.6225 
27348000    243.04128   -4710.4753   -4241.7497   -4710.4753            0    7894.3185    19.645949    19.771955    20.648423    8020.6487    6734.6702    10125.936    6822.3493   -181.01314   -232.46826   -708.08468   -3318.3281 
27349000    248.09706   -4710.9076   -4232.4316   -4710.9076            0    11230.117    19.705335    19.889422    20.222956    7925.9372    11564.129      9285.73    12840.492   -1286.8774   -2135.6981    1037.6061   -2934.3237 
27350000    252.13809   -4714.0095     -4227.74   -4714.0095            0    11089.507    19.787985    19.781004    20.295456    7944.1734    9561.9856    12851.735    10854.801   -212.88578    793.27166    1468.9844   -2942.9361 
27351000    238.93102   -4724.8476    -4264.049   -4724.8476            0    11182.669    19.567574    19.849187    20.528202     7973.163    11875.723    11230.526    10441.758   -230.15538    2463.6162    1214.4814   -2963.7237 
27352000    254.34778   -4695.0138   -4204.4827   -4695.0138            0    12595.853    19.888975    19.708838    20.040496    7855.6461    9117.5924    13549.538    15120.428     272.0675    1250.2973   -1243.2442   -2761.4194 
27353000    254.92623   -4690.9631   -4199.3165   -4690.9631            0    10687.248    19.714632    19.619996    20.457066    7912.8137    10441.877    11661.548    9958.3185    208.24258    533.76287   -1300.5268   -2966.0051 
27354000    243.64473    -4674.005   -4204.1156    -4674.005            0    10674.553    19.525032     19.75932    20.530266    7920.6044      9822.87     11454.23    10746.558   -74.785503   -63.294787   -932.70619   -2971.0565 
27355000    259.30996   -4670.2218   -4170.1207   -4670.2218            0    11239.967    19.668774    19.776643    20.376419    7926.0671    11376.561    10174.028    12169.311   -393.55732   -1800.1778    101.09122    -2870.853 
27356000    244.77233   -4734.3527   -4262.2886   -4734.3527            0    9311.0837      19.6679    19.914329    20.479427    8021.2392    9407.6186    9684.9991    8840.6336   -70.742969    32.065607   -213.39447   -3173.0637 
27357000    251.54819   -4704.1833   -4219.0515   -4704.1833            0    9153.1733    19.581253    19.757457     20.49742    7929.9549    8046.5396    8531.6328    10881.347   -602.57043   -365.74924    2170.4968   -3160.4846 
27358000    249.65067   -4683.9789   -4202.5066   -4683.9789            0    11052.185    19.609794    19.721746    20.591815    7963.6659    10565.647      11968.6    10622.307    65.194475   -659.37938   -228.34528   -2918.8849 
27359000    242.01955   -4702.0188   -4235.2637   -4702.0188            0      10019.4    19.701391    19.945163    20.442803    8032.9473    10618.062     8323.092    11117.046   -235.63724    667.60732    338.40819    -3061.468 
27360000    257.72756   -4700.2588   -4203.2096   -4700.2588            0    10508.609    19.622703    19.931066     20.42593    7988.6097    13583.324     7769.426    10173.076   -1044.7905    513.76688   -1227.3758    -2978.897 
27361000    264.89832   -4700.3361   -4189.4575   -4700.3361            0    9694.2541    19.735136    19.690017    20.528433    7977.0446    8662.6482     11455.61    8964.5044   -120.87735    1102.3389   -294.05665   -3061.6569 
27362000    243.63804   -4679.8549   -4209.9785   -4679.8549            0    10388.955     19.60119    19.888606    20.412101    7957.4604    9852.8889    10850.775    10463.202    659.18351    938.07965    919.09759   -3004.3257 
27363000    240.44054   -4711.6137   -4247.9039   -4711.6137            0    10905.191    19.638137    19.802397    20.358012    7916.8679    11879.906    9022.6565     11813.01    31.499537   -275.77376   -585.91171   -2988.7971 
27364000    252.77173   -4702.3584   -4214.8669   -4702.3584            0    11414.677    19.695408    19.897026    20.303353     7956.479    12406.481     9636.238    12201.311   -683.14273    1165.3391   -1528.5908   -2890.3411 
27365000    249.59835   -4714.0999   -4232.7285   -4714.0999            0    9533.6154    19.866881    19.574353    20.547981    7990.7265    10903.461    9114.0792    8583.3058   -227.29568     274.1202    880.39948   -3121.7138 
27366000    252.34173    -4731.679   -4245.0167    -4731.679            0    10475.469    19.651086    19.741355    20.378341    7905.5544    10196.504    10397.159    10832.745   -97.864733    940.16507    1304.3055   -3037.2538 
27367000    247.82427   -4729.4827   -4251.5327   -4729.4827            0    12549.772    19.832324    19.593225    20.372635    7916.3819    9656.4489    14984.971    13007.894   -943.17265     425.3018    193.28348   -2802.6326 
27368000    252.69056   -4722.3737   -4235.0387   -4722.3737            0    12447.609    19.606825     19.69726    20.415092    7884.3236     13783.93    11860.942    11697.954    -391.2295    243.43001    359.35585   -2803.7533 
27369000    238.37519   -4701.3383   -4241.6117   -4701.3383            0    11614.419    19.762952    19.414464    20.538544    7880.3749    8935.3934    14105.993    11801.871    66.051234    986.13294   -655.48405   -2906.7992 
27370000    248.72571   -4707.4957   -4227.8073   -4707.4957            0    9299.2407    19.707776    19.969769    20.271844    7978.1817    9770.5107    8843.0362    9284.1753   -49.743252   -107.71874    440.65066   -3145.8072 
27371000    254.39234   -4752.8698   -4262.2528   -4752.8698            0    9507.5129    19.567084    19.923497    20.421976    7961.4002    12196.542    7296.0114     9029.985    540.44997     1783.221   -689.37363   -3158.3464 
27372000     267.9789   -4711.0489    -4194.229   -4711.0489            0     10411.04    19.738763    19.607432    20.493525    7931.5363    10584.995    11048.628     9599.495    387.81101    78.427475    2003.0366   -2989.9495 
27373000    246.48008   -4689.2384   -4213.8808   -4689.2384            0    11821.909     19.43821    19.788149      20.5132    7890.3243    13334.726    12899.609    9231.3924    686.95436    950.27781    1116.4471   -2853.5067 
27374000    255.90025   -4708.7114   -4215.1863   -4708.7114            0    10248.329    19.691273    19.787167    20.270184    7897.9631    10892.619    9251.3408    10601.026    299.17275   -427.90766   -105.55003   -3034.7459 
27375000    265.79179   -4705.7355   -4193.1337   -4705.7355            0     9685.417    19.760057    19.662408      20.5413    7980.9175    9666.5238     9821.263    9568.4642    139.54786   -2292.7743    399.55424   -3065.8142 
27376000    244.21272   -4732.8304   -4261.8456   -4732.8304            0    9549.4433    19.942222     19.47035    20.536116    7973.8051    9338.7064    9992.7018    9316.9217   -458.90658    68.900035   -1046.1495   -3151.3431 
27377000    248.47271   -4714.9292   -4235.7287   -4714.9292            0    9636.8391    19.818157    19.715123    20.434206    7983.9998    8339.9868    11422.631    9147.8991    440.24035    213.49099    498.32901   -3113.6301 
27378000    264.09046   -4750.2922   -4240.9716   -4750.2922            0    10450.196    19.910843    19.724431    20.303349    7973.7353    8701.1342    11427.598    11221.855   -373.66343    -1153.338   -740.58974   -3025.7314 
27379000    262.83279   -4690.5792    -4183.684   -4690.5792            0     9322.714    19.902677    19.617842    20.499561    8004.0039    8847.2136    9366.4772    9754.4511    135.64878    155.73635    873.67792   -3095.4419 
27380000    239.26678   -4736.4007   -4274.9546   -4736.4007            0    12059.299    19.866326    19.645316    20.399784    7961.6329    11379.876    12658.469    12139.553    202.99049    -486.5444    348.22363   -2874.7222 
27381000    237.44996   -4716.7584   -4258.8162   -4716.7584            0    11175.762    19.689808    19.803181    20.317968     7922.399    10817.585     12042.56    10667.141     821.7036   -821.68752   -672.92353    -2967.568 
27382000    262.54425   -4698.9656   -4192.6269   -4698.9656            0    10099.475    19.771782    19.596214    20.627849    7992.3026    10309.839    10026.424    9962.1611    436.69214    311.70878    710.31988   -3015.4368 
27383000    247.15609   -4653.5433    -4176.882   -4653.5433            0    13510.144    19.907599     19.46975    20.344048    7885.2714    12097.371    14168.439    14264.621    973.35845    1687.8885   -420.24134   -2623.2345 
27384000    243.87009   -4718.7854   -4248.4614   -4718.7854            0    10086.953    19.661742    19.774838     20.53288    7983.3431    11311.287    9514.6003    9434.9709    64.534269    -185.7632    -1373.617   -3074.0489 
27385000    258.50498    -4717.562   -4219.0134    -4717.562            0    12014.186    19.840526    19.662332     20.31621    7925.5774    11150.873    11302.802    13588.881    1065.2347    43.539284    1902.9936   -2830.3368 
27386000    247.27079   -4705.2174   -4228.3349   -4705.2174            0      11775.8    19.836373    19.736448    20.401618    7987.2242    13190.847    9340.6113    12795.941     559.3008    752.96764   -800.02124   -2856.6254 
27387000    248.21502    -4720.706   -4242.0024    -4720.706            0    9946.1386    19.852627    19.682927    20.425291    7981.3419    9971.8284    9691.5865    10175.001   -192.92733   -464.10136   -60.714435    -3084.275 
27388000     251.3237   -4712.2111   -4227.5122   -4712.2111            0    12916.533    19.831687    19.640717    20.287629    7902.2049    11115.081    14982.011    12652.509   -404.53684   -120.69072    2022.3724   -2738.9391 
27389000    240.58357   -4731.5302   -4267.5446   -4731.5302            0    13045.522    19.761648    19.512075    20.563136    7928.9552     12939.36    14216.859    11980.346    843.66023    922.23616   -241.74167   -2759.0169 
27390000    253.51913    -4718.379    -4229.446    -4718.379            0    9045.4104     19.93443    19.820831    20.379327    8052.2176    8884.9335    9353.8727     8897.425    850.06913    215.53644   -504.18885   -3167.2133 
27391000     246.0973   -4699.4532   -4224.8338   -4699.4532            0    11179.063    19.584559    19.879735    20.382906     7935.796    11003.009    11787.224    10746.955    728.61236    1370.4969   -389.56408   -2931.0201 
27392000    254.92937   -4718.9121   -4227.2594   -4718.9121            0    10448.983    19.955064    19.592283    20.297475    7935.6076    9312.7646    9951.7585    12082.426    196.63742   -516.73751    814.27478   -3017.9704 
27393000    240.14297    -4706.027   -4242.8911    -4706.027            0    10684.682    19.714146    19.862646    20.380218    7980.3861    9887.5233    11214.775    10951.749    1172.2814     339.1922    823.65547   -2999.3464 
27394000    259.11216   -4725.0671   -4225.3475   -4725.0671            0    11530.771     19.66971    19.635261    20.513864    7922.8621    13911.206    10875.919    9805.1881    1011.2981   -204.25237    265.62311   -2893.0036 
27395000     256.1409   -4722.4098   -4228.4205   -4722.4098            0    10861.511    19.656713    20.034928    20.180174    7947.3724    10785.022    10808.138    10991.374   -34.787338    399.72283    1053.2399   -2969.5249 
27396000    248.16006    -4727.075   -4248.4775    -4727.075            0    10096.654      19.8746    19.846316    20.253593    7988.7784    9086.3149    10308.713    10894.935   -2.6291177    631.32982    946.64455   -3072.1351 
27397000     252.5547   -4741.8062   -4254.7333   -4741.8062            0    10282.858    19.748116    19.633553    20.591868    7983.9959    11030.614    9402.1732    10415.787     300.4543   -673.94694    1092.0743   -3057.4138 
27398000    246.31814   -4715.2811   -4240.2358   -4715.2811            0    11481.127    19.510655    19.781154    20.490182    7908.0475    13906.244    9069.1046    11468.034     278.9529    104.15759   -47.332392   -2916.1087 
27399000    257.74324   -4709.8162   -4212.7367   -4709.8162            0    9933.8444    19.873685    19.671178    20.473487      8003.88     11248.86    9756.9281    8795.7452   -355.83058   -787.83387   -505.77987   -3053.1751 
27400000    252.84071   -4731.8553   -4244.2307   -4731.8553            0     10570.44     19.84912    19.600897    20.495598     7974.029    11104.123    11867.713    8739.4836   -509.68994   -59.484649   -929.97015   -3014.9622 
27401000     269.9247   -4709.2192   -4188.6467   -4709.2192            0    10850.353    19.845504    19.643685    20.412535    7957.5987    10921.196    9777.1742    11852.688    -93.38063    975.25931   -939.05962   -2929.4262 
27402000    256.97868    -4698.742    -4203.137    -4698.742            0    11434.292     19.76996    19.692265    20.363349     7927.763    12561.253    10301.428    11440.195    658.40524    382.78474   -1664.1491   -2881.1237 
27403000    242.05219   -4698.5097   -4231.6917   -4698.5097            0    11182.015    19.811576    19.672882    20.353363    7932.7392    11804.036    10462.062    11279.948   -292.01346    244.82597    120.86934   -2938.0347 
27404000    254.04954   -4719.5432   -4229.5873   -4719.5432            0    10983.528    19.702244    19.644287    20.584303    7966.8769    10845.018    10146.382    11959.183    208.29053   -980.19314    684.46928   -2953.4251 
27405000    250.86698   -4721.0406   -4237.2226   -4721.0406            0    11016.175     19.72328    19.871693    20.318205     7963.415    11719.509    10489.535     10839.48   -770.22519   -237.48265    1883.3863   -2957.8234 
27406000    246.93633   -4745.0669   -4268.8294   -4745.0669            0    8779.4759    19.820735    19.837492    20.595029    8097.8353    9827.1825    8471.6365    8039.6088   -226.59672   -787.37001    15.825213   -3231.9854 
27407000    257.68857   -4712.1945   -4215.2204   -4712.1945            0    11217.938    19.444389    19.784104       20.651    7944.2293    14095.926    8608.6015    10949.285   -590.92207   -84.764604   -844.67851   -2915.5278 
27408000    240.74395   -4725.0184   -4260.7235   -4725.0184            0    8310.1033    19.700604    19.615842     20.70823      8002.57    9004.3416    7441.6992    8484.2692   -588.74237   -391.44397   -973.07267   -3290.8573 
27409000    245.50023    -4715.839   -4242.3712    -4715.839            0    12762.266     19.97003    19.509246    20.270278    7897.3048    12981.217    11619.788    13685.794   -338.90812    1244.0686   -505.00973   -2772.4888 
27410000    251.06034   -4702.4235   -4218.2325   -4702.4235            0    11009.387    19.648615    19.790681    20.451443    7952.7376    12350.648    11303.333    9374.1802   -307.83296   -642.17352    63.283137   -2941.3361 
27411000     255.2065   -4741.2329   -4249.0457   -4741.2329            0    10500.633    19.988973    19.543723    20.447562    7988.0229    9226.8682    12687.079    9587.9527   -527.94913     800.8057    459.43967   -3025.7522 
27412000     246.8414   -4709.3075   -4233.2531   -4709.3075            0    8683.4569    19.973551    19.840173    20.315561    8050.6239    7498.6208    8454.7569    10096.993   -309.12063   -516.97041    216.58611   -3213.7276 
27413000    268.20018   -4735.5318   -4218.2852   -4735.5318            0    11027.531    19.692615    19.474445    20.742585    7954.8385    10111.242    12401.087    10570.263    816.12726    429.96744    123.54798   -2938.9465 
27414000    249.57835   -4713.6546   -4232.3218   -4713.6546            0    11435.106    19.970273     19.44305     20.40255    7921.9637    9962.2698    14195.187    10147.862   -414.48948     1280.393    1203.8465   -2911.1815 
27415000    262.20428   -4729.2983   -4223.6153   -4729.2983            0    11509.895    19.703675    19.672634    20.411814    7912.0921    11646.557    10122.694    12760.435    1056.9219    1048.6592    80.735939   -2895.4914 
27416000    260.95224   -4715.0241   -4211.7557   -4715.0241            0    10873.852    20.028471    19.575438    20.310829    7963.1873    10235.299    11184.258    11201.998    100.96361   -664.25046    70.828418   -2948.9219 
27417000    260.32866   -4715.0895   -4213.0238   -4715.0895            0     12185.57    19.729466    19.601445    20.346701    7868.5991    13034.448    11194.099    12328.162   -168.13167    61.095865   -1306.3211   -2814.6633 
27418000    263.94625   -4707.6157   -4198.5732   -4707.6157            0    10821.309    19.777297    19.978399    20.182529    7974.4954     8449.384    12039.022    11975.521    67.141836   -314.22262    -550.7914   -2940.0567 
27419000    262.17863   -4704.2716   -4198.6381   -4704.2716            0    11366.615     19.66484    19.784828    20.491107    7972.3825    12116.803    10226.245    11756.796    232.35663     152.0332   -495.08489   -2877.0529 
27420000    265.00396   -4731.8839   -4220.8014   -4731.8839            0     11243.87     19.95632    19.732736    20.240869    7970.7086    12683.802    9986.7658    11061.044    120.80035   -449.00929   -1023.5469   -2913.7621 
27421000    254.55864    -4706.874   -4215.9362    -4706.874            0    9552.4205    19.880853    19.492481    20.659651    8006.1755    9336.7824    10833.658    8486.8208   -125.43968    88.529843    231.23602   -3100.5779 
27422000    245.51391     -4708.43   -4234.9358     -4708.43            0    9201.5551    19.799205    19.807869     20.38794    7995.7435    10178.727    8131.4422    9294.4961   -1040.7779    374.19358    1100.8777    -3161.945 
27423000    244.84467   -4717.2328   -4245.0293   -4717.2328            0    10954.467    20.136018    19.626929    20.131869    7956.2799    9239.1819     12574.22        11050    503.04149    808.07161   -334.69486   -2973.9367 
27424000    250.00911   -4696.2569   -4214.0933   -4696.2569            0    10974.115    19.386229    19.807263    20.576684    7901.2026    13317.895    9309.7756    10294.674    877.01833    2542.1234   -105.51565   -2949.5357 
27425000    254.46778   -4719.7734   -4229.0109   -4719.7734            0    10133.733    19.551482    19.844577    20.466275    7940.7282    11180.192    9053.1453     10167.86    924.86351     55.59417    1016.2992   -3055.4499 
27426000    246.44827   -4735.0172    -4259.721   -4735.0172            0    9542.5849    19.762588    19.678388    20.487545    7967.5215     7507.438    11785.228    9335.0886    519.86289   -470.19411   -436.59832   -3150.8905 
27427000    247.48251   -4702.0776   -4224.7868   -4702.0776            0    11130.123    19.697987    19.907122    20.347983    7979.0593    11147.989    10844.042     11398.34   -374.45314    1378.8896    1515.0808   -2929.6144 
27428000    250.04362   -4699.6715   -4217.4413   -4699.6715            0    11272.093    19.679976    19.673714    20.453579    7919.1802    11099.254    12014.694    10702.331   -58.064673    937.54265    159.96061   -2915.5921 
27429000    258.89044   -4683.7024   -4184.4104   -4683.7024            0    11639.087    19.603396    19.743425    20.379792    7887.7578    12444.664    10044.485    12428.113   -173.56183    884.48515   -1389.1372   -2845.5096 
27430000    261.86808   -4714.3634   -4209.3288   -4714.3634            0    10893.809     19.93193    19.557642    20.473387    7980.9672     10659.66     12540.62    9481.1454    742.58502    779.20568   -432.50382   -2941.3525 
27431000    256.62392   -4716.6317   -4221.7109   -4716.6317            0    12564.446     19.61545    19.531809    20.519119    7861.3919    14878.522    11379.687    11435.128    70.812207    55.009271    -1095.971    -2781.193 
27432000    242.49209   -4692.8454    -4225.179   -4692.8454            0     9136.418     19.78682    19.663809    20.352243    7918.7371    9379.9186    10319.046     7710.289    -202.0433   -1162.5344   -656.44549   -3170.0446 
27433000    251.77031   -4739.2876   -4253.7274   -4739.2876            0    11350.706    19.477206    19.870774    20.511495    7938.5055    11467.164    12392.117    10192.838     642.4262    541.62816    722.98846   -2939.5998 
27434000    243.22826    -4727.703   -4258.6169    -4727.703            0    9666.2227    19.799184    19.746619     20.44873    7994.7777    9314.9228    11028.953    8654.7926   -79.402868   -416.03864    230.66202   -3131.5775 
27435000     256.8271   -4695.9536    -4200.641   -4695.9536            0    12131.233    19.450187    19.903875    20.517253    7942.9281    10327.777    13735.031     12330.89   -622.63478   -661.62452    196.89726   -2795.3655 
27436000    250.27244   -4684.6882   -4202.0168   -4684.6882            0    11171.762    19.760709    19.648259    20.457712    7942.9836    9953.8792    11645.535    11915.873     439.5076   -740.99062   -516.47505   -2907.8768 
27437000    240.39162   -4705.5877   -4241.9722   -4705.5877            0    10893.564    19.450055    19.956606    20.548051    7975.8716     12752.46    7749.5708     12178.66   -108.93754    1308.3293   -1181.7109   -2974.8339 
27438000    261.52086   -4718.2727   -4213.9078   -4718.2727            0    10892.749    19.736724    19.795201    20.354612    7952.3921    10165.981    11244.079    11268.188    168.22258   -1255.4699    1004.1771   -2950.5941 
27439000    246.42323   -4734.5568   -4259.3088   -4734.5568            0    9921.0782    19.616409    19.930874    20.380815    7968.3315     10241.17    10475.857    9046.2074    503.54237    -296.7111    362.85978   -3106.3809 
27440000    257.55586   -4680.4661    -4183.748   -4680.4661            0     11312.55    19.704819    19.641441    20.472173    7923.3667    10050.978    14173.193    9713.4781    -1164.615   -1010.2145    253.86739   -2876.5356 
27441000    247.63847   -4705.0679   -4227.4762   -4705.0679            0    10343.102    19.779785    19.884471    20.321236    7992.5565    8475.2848    10426.696    12127.324    818.64838    500.64003   -1270.9395   -3021.8508 
27442000    253.67799   -4706.8768   -4217.6375   -4706.8768            0    10951.358    20.036798    19.565846    20.358724    7981.3708    11075.288    10368.019    11410.767   -143.70512   -249.41384   -650.00616   -2942.8982 
27443000     258.9702    -4723.282   -4223.8362    -4723.282            0    9923.1082    19.674951    19.848456    20.458268    7989.3097    12481.738    8053.0888     9234.498    513.84692     1451.775   -1013.9913   -3067.6364 
27444000    254.08367   -4703.9348   -4213.9131   -4703.9348            0    9875.2875    20.020596     19.51554    20.473739    7999.3508    7788.8302    12592.369    9244.6631   -50.245885    1350.4882   -1077.7268   -3061.8391 
27445000    244.00597   -4691.1959   -4220.6098   -4691.1959            0    11091.123    19.692414    19.717307    20.468746    7947.6328    11866.403    9635.8053    11771.159    82.825671    1608.1873     460.0048   -2935.0592 
27446000    247.06859   -4722.0441   -4245.5515   -4722.0441            0    9721.4232    20.064617    19.774398    20.321613    8062.9194     7953.618    9205.5606    12005.091    119.71625   -255.69555   -309.21499   -3102.4151 
27447000    246.51848   -4687.2833   -4211.8517   -4687.2833            0    9420.7605    19.830133     19.63761     20.40373    7945.5471     6417.696    12205.647    9638.9385   -83.819195    65.642398    1613.0955   -3120.1961 
27448000    261.37866   -4724.3581   -4220.2674   -4724.3581            0    11039.724    19.760635    19.649394     20.45732    7943.2604    11844.118    10270.235     11004.82     101.7589    458.63942   -686.58107   -2941.3782 
27449000     258.1301    -4682.757   -4184.9314    -4682.757            0    11934.563    19.592872    19.736401    20.353379    7870.5049    9615.1184    13622.587    12565.985   -61.316915    831.97046    -1350.308   -2815.0436 
27450000    254.74616   -4716.2644    -4224.965   -4716.2644            0    10586.959    19.961129    19.546813    20.346353    7938.6675    9829.2357    10666.335    11265.308    10.022927   -2301.5186    704.54369   -2999.2352 
27451000    242.17717   -4708.0597   -4241.0007   -4708.0597            0    9940.6988    19.546641    19.957001    20.490795    7993.3022    12173.702    8368.7751    9279.6192   -224.83621     127.2648   -211.33628   -3082.1725 
27452000    249.85416   -4701.5802   -4219.7154   -4701.5802            0    10994.687    19.877016     19.52956     20.46578    7944.5988    11826.567    10954.575    10202.919    269.87228   -601.08391    720.42561    -2945.829 
27453000    246.45325    -4737.932   -4262.6262    -4737.932            0     10992.32    19.617992    19.835822    20.518527    7984.5588     10946.62    11735.763    10294.576     539.8479    1866.1364    114.47951    -2982.608 
27454000    241.72377   -4717.9051   -4251.7205   -4717.9051            0    10917.951    19.646075    19.844351     20.35564    7935.9231    9882.2222    11425.511     11446.12   -22.227227    137.31383    1392.3919   -2988.1063 
27455000    243.64608      -4744.8   -4274.9081      -4744.8            0    8130.1759    19.551165    19.841144     20.72003    8037.6615    9072.8417    7726.6457    7591.0401   -174.28537   -165.29124    595.72485   -3321.8803 
27456000    246.83644   -4734.3471   -4258.3023   -4734.3471            0    10693.558    19.697281    19.731415    20.557443    7989.7578    10830.778    11525.111    9724.7857   -289.43396   -964.99941   -87.410746    -3012.263 
27457000    248.33589   -4699.1939   -4220.2573   -4699.1939            0     12029.02     19.81816    19.501774    20.540031    7938.5017    12502.568    12689.383    10895.111    -73.33625    -985.1246    464.08741   -2827.5986 
27458000    250.49676   -4700.2079   -4217.1038   -4700.2079            0    11806.342      19.6219    19.779269    20.482197    7949.2807    11028.852    12464.512    11925.661    -71.11625   -1388.7025   -586.47367   -2848.3697 
27459000    247.85544   -4708.4525   -4230.4425   -4708.4525            0     10652.21    19.967044    19.944429    20.022941    7973.7617    8791.6343     11576.45    11588.545   -740.03783   -2067.3296    292.70317   -2991.7062 
27460000    254.66019   -4688.8641   -4197.7305   -4688.8641            0    11093.988    19.676491    19.702171    20.503572    7948.6113    12918.636    10460.681    9902.6479    187.28782   -234.79186   -261.28639   -2911.6894 
27461000    250.18534   -4712.4859   -4229.9824   -4712.4859            0    11090.268    19.650687    20.113457    20.236034    7998.1559    12039.667    9641.2363    11589.902    292.78337    929.76583    565.54744   -2936.3592 
27462000    236.06752   -4684.1851    -4228.909   -4684.1851            0    11048.166    19.710555    19.957366    20.281165    7978.0178    12614.765     9177.149    11352.583     287.4794    155.12133    2118.9794   -2943.4416 
27463000    257.33754   -4705.2587   -4208.9616   -4705.2587            0    9869.6551     19.68898    19.817269    20.593711    8035.2919     10106.96    10479.901    9022.1037    722.20585   -18.148678   -529.36529   -3052.3713 
27464000     266.1542   -4732.6705   -4219.3697   -4732.6705            0    10784.496    19.984534    19.507348    20.382628    7946.0708    8854.6437    12234.731    11264.114   -643.75627   -1255.9278   -1392.2169   -2969.6052 
27465000    237.44424   -4736.4669   -4278.5357   -4736.4669            0    9982.0639    19.723553    19.807685     20.42603    7979.9991    10312.974    10578.338    9054.8801   -113.39919     49.92424   -1789.0194   -3116.8221 
27466000    244.06935   -4708.7075   -4237.9992   -4708.7075            0    12830.821    20.018932    19.589031    20.216557     7927.953    11177.226    13293.821    14021.417    928.37582   -1114.4862    155.90911   -2754.4861 
27467000    240.96832   -4721.3227    -4256.595   -4721.3227            0    11279.456    19.616328    19.666813    20.564976    7933.7755    12444.225    10892.414    10501.728   -217.56723    259.64143    172.29527   -2951.4946 
27468000    261.42982   -4713.0602   -4208.8708   -4713.0602            0     9424.036    19.927164    19.794547    20.260707    7991.8193    7766.3456    8023.2689    12482.493   -43.305984   -1387.8161   -235.68879    -3110.476 
27469000    251.51581   -4694.4136   -4209.3442   -4694.4136            0    9900.0476    19.743994    19.762916    20.303782    7922.5136    10174.671    9513.8017     10011.67    469.99518    258.84093    325.83275   -3065.4755 
27470000    239.04884   -4714.7736   -4253.7478   -4714.7736            0    10411.557     19.76543    19.784781    20.425068    7987.3193    11170.929    10060.198    10003.544     293.2776   -1863.1624   -1556.3779   -3040.9383 
27471000     247.9143    -4703.976   -4225.8524    -4703.976            0    11058.372    19.854951    19.615134    20.479457    7975.8789    11222.082    10503.588    11449.446   -792.33841   -331.35888   -686.47462   -2939.5425 
27472000    246.31207   -4724.3372   -4249.3037   -4724.3372            0    10999.669    19.837816    19.752427    20.329609    7966.0558    10430.844    11628.476    10939.687   -90.224195   -1021.2031   -1130.6724   -2971.3979 
27473000    256.72362   -4742.7025   -4247.5894   -4742.7025            0    12289.879    19.680111    19.809157     20.46082    7976.5775    14575.932    11466.629    10827.075    -329.1355   -1334.7779   -1423.8001   -2817.9053 
27474000    255.78315   -4718.6949   -4225.3955   -4718.6949            0    9566.7452    19.588773    19.656367    20.638225    7946.6266    9015.6654    11002.998    8681.5723    109.17151   -569.68237    261.55114   -3116.6729 
27475000    242.01881   -4712.0114   -4245.2578   -4712.0114            0    11663.561    19.564857    19.738679    20.404651    7879.9587    12788.186    9349.3585    12853.139    -433.3511    725.15139   -690.51606   -2904.8683 
27476000    251.57759   -4725.2295    -4240.041   -4725.2295            0    10499.646    19.765884    19.890822    20.373841    8010.1728    9598.1153    11599.477    10301.345    663.32784   -364.75468    383.11457   -3013.4707 
27477000    266.91632   -4682.4507   -4167.6801   -4682.4507            0    11040.439    19.497021    19.791096    20.667097    7974.7592    12458.283    10465.961    10197.073   -58.133005   -1581.5929    821.86548   -2883.6364 
27478000     254.1518    -4695.107   -4204.9539    -4695.107            0     8605.542    19.773064    19.908306    20.378894    8022.1151    8049.3607    9368.2933    8398.9719    391.89903   -112.33508   -404.94066   -3198.1543 
27479000    261.75266     -4714.69    -4209.878     -4714.69            0     12980.45    19.555833    19.972336    20.296906    7927.4779     14780.76    11174.858    12985.732   -83.242202    388.02279    -1071.787   -2709.1546 
27480000    254.27279   -4682.5776   -4192.1911   -4682.5776            0    10366.207    19.763921    19.625742    20.602384    7991.2863    10618.557    11304.216     9175.848   -74.046191   -108.41591    125.67196   -2984.0645 
27481000     260.7742   -4704.9112   -4201.9862   -4704.9112            0    10974.074    19.812498    19.602802    20.350394    7903.6954    11648.196    10637.614    10636.413    182.96107   -2293.3204    569.13937   -2937.0343 
27482000    254.45614   -4711.9591   -4221.2191   -4711.9591            0    10988.263    19.661277     19.74856    20.551999    7979.9695    11081.116     11817.49    10066.184    91.032327    51.382388    632.95881   -2942.4086 
27483000    251.95278   -4738.8609   -4252.9488   -4738.8609            0    11329.048    19.738179    19.877601    20.363574    7989.6004    11903.739    10737.039    11346.365     154.2819   -409.32775   -1418.5357   -2932.8867 
27484000    277.31922   -4750.6257   -4215.7922   -4750.6257            0    10479.359    19.982673    19.832374    20.235146    8019.2661    9316.1234    11892.973    10228.981   -128.10562    423.86468   -129.82806   -2990.2022 
27485000    238.31995    -4720.205   -4260.5849    -4720.205            0      11776.4    19.478565    19.844189    20.618955    7969.9747    14400.193    9711.4155    11217.592    642.59702    1323.2444    423.49146   -2891.7679 
27486000    251.79009   -4733.7979   -4248.1996   -4733.7979            0    10076.417    19.667934    19.908898    20.344963    7966.4139    9729.7372    9551.9061    10947.606    238.87181    163.00197   -516.49389   -3077.5016 
27487000    247.01437    -4707.177    -4230.789    -4707.177            0    10724.314    19.771144    19.904242    20.278777    7980.2999    9730.1574    9828.6151     12614.17   -105.13182    555.47983   -114.76176   -2982.6452 
27488000    249.95488   -4698.7637   -4216.7047   -4698.7637            0    10862.806    19.738906     19.91979    20.388528    8016.6643    11845.949     10977.66    9764.8077    266.68582    907.42718   -1685.1045   -2946.6816 
27489000    245.77122   -4716.3018   -4242.3113   -4716.3018            0     8524.391    19.757148    19.914976    20.390212    8022.7966    9260.7496    7025.1198    9287.3035    545.51488    -405.6314   -680.43304   -3244.9213 
27490000    264.14155   -4735.0644   -4225.6452   -4735.0644            0     8777.663    19.553843    19.945572    20.638138    8049.1336    8854.2177    9227.6668    8251.1046   -180.81837   -784.78857    185.30283   -3195.2498 
27491000    252.23382   -4739.9139   -4253.4598   -4739.9139            0    11983.924    19.948428    19.794543    20.169049    7964.1529    10920.621    12499.575    12531.575    475.95823    314.97888     1033.007    -2861.539 
27492000    234.89512   -4693.7654   -4240.7504   -4693.7654            0    10246.725    20.047527    19.755159    20.325966    8049.9377    8767.0285    11911.164    10061.983    -262.2429    1299.6187   -36.026027    -3037.784 
27493000    258.48065   -4706.4972   -4207.9956   -4706.4972            0    8653.0003    19.573126    19.790889     20.59991    7979.7778    11351.922    6615.6477    7991.4311    182.02976   -2085.0346    1283.0978   -3200.9864 
27494000    266.42252   -4736.9948   -4223.1766   -4736.9948            0    9570.5077    19.913375    19.777016    20.323255     8003.849    9384.0437    10490.084    8837.3953   -901.76591     105.0477   -1573.3765   -3106.0311 
27495000    267.65916   -4694.5996   -4178.3964   -4694.5996            0    11712.794     19.59586    20.046181    20.204931    7936.9442    13962.348    8316.1192    12859.916    572.88169    479.26939    925.50061   -2822.6148 
27496000    265.59686   -4725.3148   -4213.0889   -4725.3148            0    10157.774    19.764093    19.744112    20.402158    7961.4212    9606.5151    11746.405    9120.4003    393.98816    542.76243    367.90524   -3033.6783 
27497000    260.72211   -4729.0008   -4226.1763   -4729.0008            0    10540.568     19.57735    19.858792    20.405622     7933.349     10247.65    11570.965      9803.09    1144.5196    2.5942915    624.93708   -3006.6351 
27498000    245.70622    -4691.109   -4217.2439    -4691.109            0    10173.359    19.798691    19.911513    20.377988    8033.4492     9672.063    10748.703     10099.31   -619.92926   -841.94144   -1374.2397   -3025.3371 
27499000    240.07168   -4706.7189   -4243.7205   -4706.7189            0    11217.259    19.692912    19.562909    20.687524    7969.8821    12408.725    10467.599    10775.454   -197.90603      951.473   -75.842075   -2939.9098 
27500000    253.41079   -4678.0914   -4189.3674   -4678.0914            0    10530.804    19.755339    19.645898    20.641478    8011.1923     10792.41    9902.0134    10897.987   -325.16197    280.10927   -1179.0337   -2959.0007 
Loop time of 446.815 on 64 procs for 250000 steps with 972 atoms

Performance: 96.684 ns/day, 0.248 hours/ns, 559.516 timesteps/s
99.0% CPU use with 64 MPI tasks x 1 OpenMP threads

MPI task timing breakdown:
Section |  min time  |  avg time  |  max time  |%varavg| %total
---------------------------------------------------------------
Pair    | 21.33      | 29.406     | 38.758     |  78.3 |  6.58
Bond    | 0.26277    | 0.27985    | 0.29224    |   0.9 |  0.06
Kspace  | 185.08     | 197.3      | 214.29     |  40.3 | 44.16
Neigh   | 2.8948     | 3.227      | 3.9825     |  13.9 |  0.72
Comm    | 85.059     | 97.395     | 104.07     |  41.2 | 21.80
Output  | 1.2728     | 1.2732     | 1.2806     |   0.1 |  0.28
Modify  | 107.8      | 109.67     | 113.39     |  12.0 | 24.54
Other   |            | 8.265      |            |       |  1.85

Nlocal:        15.1875 ave          20 max          10 min
Histogram: 2 2 3 9 7 12 12 8 4 5
Nghost:        2324.83 ave        2360 max        2271 min
Histogram: 2 0 2 8 4 12 11 15 7 3
Neighs:        4893.47 ave        7207 max        3145 min
Histogram: 4 5 8 7 20 9 4 4 1 2

Total # of neighbors = 313182
Ave neighs/atom = 322.20370
Ave special neighs/atom = 2.0000000
Neighbor list builds = 7185
Dangerous builds = 0

unfix		3
unfix		2
unfix		1

write_data	data.final.${pid}
write_data	data.final.0
System init for write_data ...
PPPM initialization ...
  extracting TIP4P info from pair style
  using 12-bit tables for long-range coulomb (../kspace.cpp:340)
  G vector (1/distance) = 0.37218358
  grid = 24 24 24
  stencil order = 5
  estimated absolute RMS force accuracy = 0.0035142666
  estimated relative force accuracy = 1.0583109e-05
  using double precision FFTW3
  3d grid and FFT values/proc = 2197 216
Last active /omp style is kspace_style pppm/tip4p/omp
WARNING: Not all mixed pair coeffs generated from mixing. Use write_data with 'pair ij' option to store all pair coeffs. (../write_data.cpp:312)

write_restart   restart.lmp.${pid}
write_restart   restart.lmp.0
System init for write_restart ...
PPPM initialization ...
  extracting TIP4P info from pair style
  using 12-bit tables for long-range coulomb (../kspace.cpp:340)
  G vector (1/distance) = 0.37218358
  grid = 24 24 24
  stencil order = 5
  estimated absolute RMS force accuracy = 0.0035142666
  estimated relative force accuracy = 1.0583109e-05
  using double precision FFTW3
  3d grid and FFT values/proc = 2197 216
Last active /omp style is kspace_style pppm/tip4p/omp
Total wall time: 0:07:32
