#include		in.partitions
include		in.temp
variable        temperature equal 53.97
variable	tempDamp equal 100.0
include		in.pressure
variable        pressure equal 6797.2
variable        pressureDamp equal 1000.0 # This is 1 ps
include		in.seed
variable        seed equal 745823

units		real
atom_style	full

read_restart	restart.lmp.${pid}
read_restart	restart.lmp.1
Reading restart file ...
  restart file = 30 Jul 2021, LAMMPS = 30 Jul 2021
  restoring atom style full from restart
  orthogonal box = (0.13827148 0.11374837 0.15532677) to (19.861730 19.886253 20.544671)
  2 by 4 by 4 MPI processor grid
  restoring pair style lj/cut/tip4p/long/omp from restart
  restoring bond style harmonic/omp from restart
  restoring angle style harmonic/omp from restart
  972 atoms
  648 bonds
  324 angles
Finding 1-2 1-3 1-4 neighbors ...
  special bond factors lj:    0        0        0       
  special bond factors coul:  0        0        0       
     2 = max # of 1-2 neighbors
     1 = max # of 1-3 neighbors
     1 = max # of 1-4 neighbors
     2 = max # of special neighbors
  special bonds CPU = 0.002 seconds
  read_restart CPU = 0.006 seconds
include 	in.setup
variable	out_freq equal 1000
variable	out_freq2 equal 10000
variable	out_freq3 equal 1000

timestep	2.0

neigh_modify    delay 7 every 1

include		in.tip4p
# This is TIP4P/Ice

# create groups ###
group ox type 2
324 atoms in group ox
group hy type 1
648 atoms in group hy

# set charges - beside manually ###
set group ox charge -1.1794
Setting atom values ...
  324 settings made for charge
set group hy charge 0.5897
Setting atom values ...
  648 settings made for charge

# ### TIP3P Potential Parameters ###
pair_style lj/cut/tip4p/long/omp 2 1 1 1 0.1577 8.5
pair_coeff 1 1*2 0.000 0.000
pair_coeff 2 2 0.21084 3.1668
bond_style  harmonic
bond_coeff  1 450 0.9572
angle_style harmonic
angle_coeff 1 55 104.52
kspace_style pppm/tip4p/omp 1.0e-5
pair_modify tail yes

thermo          ${out_freq}
thermo          1000
thermo_style    custom step temp pe etotal epair emol press lx ly lz vol pxx pyy pzz pxy pxz pyz enthalpy

restart 	${out_freq3} restart.lmp.${pid} restart2.lmp.${pid}
restart 	1000 restart.lmp.${pid} restart2.lmp.${pid}
restart 	1000 restart.lmp.1 restart2.lmp.${pid}
restart 	1000 restart.lmp.1 restart2.lmp.1


include         in.dump
dump            myDump all atom ${out_freq2} dump.water.${pid}
dump            myDump all atom 10000 dump.water.${pid}
dump            myDump all atom 10000 dump.water.1
dump            myDump2 all dcd ${out_freq2} dump.dcd
dump            myDump2 all dcd 10000 dump.dcd
dump_modify     myDump append yes
dump_modify     myDump2 append yes


variable natoms 	equal  "count(all)"                        # NUMBER ATOMS
variable H      	equal  "enthalpy/v_natoms"                 # ENTHALPY-per-atom
variable Vol      	equal  "vol/v_natoms"                 # volume-per-atom
fix AVG all 		ave/time ${out_freq} 1 ${out_freq} v_Vol v_H file vol_enthalpy.dat
fix AVG all 		ave/time 1000 1 ${out_freq} v_Vol v_H file vol_enthalpy.dat
fix AVG all 		ave/time 1000 1 1000 v_Vol v_H file vol_enthalpy.dat


timer           timeout 02:55:00 every 1000
New timer settings: style=normal  mode=nosync  timeout=02:55:00

fix 		1 all shake 1e-6 200 0 b 1 a 1
       0 = # of size 2 clusters
       0 = # of size 3 clusters
       0 = # of size 4 clusters
     324 = # of frozen angles
  find clusters CPU = 0.000 seconds
fix             2 all nph aniso ${pressure} ${pressure} ${pressureDamp}
fix             2 all nph aniso 6797.2 ${pressure} ${pressureDamp}
fix             2 all nph aniso 6797.2 6797.2 ${pressureDamp}
fix             2 all nph aniso 6797.2 6797.2 1000
fix             3 all temp/csvr ${temperature} ${temperature} ${tempDamp} ${seed}
fix             3 all temp/csvr 53.97 ${temperature} ${tempDamp} ${seed}
fix             3 all temp/csvr 53.97 53.97 ${tempDamp} ${seed}
fix             3 all temp/csvr 53.97 53.97 100 ${seed}
fix             3 all temp/csvr 53.97 53.97 100 745823


run             250000
PPPM initialization ...
  extracting TIP4P info from pair style
  using 12-bit tables for long-range coulomb (../kspace.cpp:340)
  G vector (1/distance) = 0.37246729
  grid = 24 24 24
  stencil order = 5
  estimated absolute RMS force accuracy = 0.0034739143
  estimated relative force accuracy = 1.046159e-05
  using double precision FFTW3
  3d grid and FFT values/proc = 3211 432
Last active /omp style is kspace_style pppm/tip4p/omp
Neighbor list info ...
  update every 1 steps, delay 7 steps, check yes
  max neighbors/atom: 2000, page size: 100000
  master list distance cutoff = 10.8154
  ghost atom cutoff = 10.8154
  binsize = 5.4077, bins = 4 4 4
  1 neighbor lists, perpetual/occasional/extra = 1 0 0
  (1) pair lj/cut/tip4p/long/omp, perpetual
      attributes: half, newton on, omp
      pair build: half/bin/newton/omp
      stencil: half/bin/3d
      bin: standard
Per MPI rank memory allocation (min/avg/max) = 10.19 | 10.19 | 10.19 Mbytes
Step Temp PotEng TotEng E_pair E_mol Press Lx Ly Lz Volume Pxx Pyy Pzz Pxy Pxz Pyz Enthalpy 
41750000    57.389359     -5135.01   -5024.3298     -5135.01            0     6243.799    19.723458    19.772504    20.389344    7951.4806    5371.8307    7035.3429    6324.2235    187.27773   -459.46174    354.82492   -4300.2727 
41751000    53.137124   -5131.4019   -5028.9225   -5131.4019            0    6801.6016    19.717904    19.780502    20.302529     7918.596    7062.1154    6349.6461    6993.0433   -69.290513   -121.32761    478.69451   -4243.4422 
41752000    56.216933   -5143.1255   -5034.7064   -5143.1255            0    5849.6245    19.743082    19.784219    20.414725    7974.0213     6016.016    5564.9466     5967.911    32.388003    86.064579   -30.585903   -4354.4365 
41753000    54.658779    -5137.724     -5032.31    -5137.724            0    6797.7214     19.72414    19.825188    20.337341    7952.6077    7086.3616    6133.9133    7172.8893   -140.68086    804.16945    485.62585    -4243.906 
41754000    52.942041   -5140.4384   -5038.3352   -5140.4384            0    7104.3746    19.676637     19.76424    20.416383    7939.8041    7965.2668    6508.4981     6839.359    59.258841   -116.97795    603.19488   -4215.6919 
41755000    54.075683   -5132.6353   -5028.3458   -5132.6353            0    7388.5716    19.735261    19.790662    20.258227    7912.3343    7235.7331    7836.9083    7093.0734   -362.36113   -277.62145   -68.289593   -4175.7543 
41756000    55.095304   -5130.2345   -5023.9785   -5130.2345            0    7031.6449    19.699424     19.70108    20.411804    7921.8197    7247.2911    6975.3006     6872.343   -283.59023     68.43404    681.91998   -4211.6012 
41757000    54.506647   -5136.3538   -5031.2332   -5136.3538            0     6646.959    19.657254    19.808581     20.43464    7956.8874    6247.5894    6368.3699    7324.9177   -13.147526    320.54781    784.07457   -4259.8999 
41758000    53.461301   -5132.9723   -5029.8677   -5132.9723            0    6429.5786    19.749929    19.782451    20.340657    7947.1352    7037.8244    5828.4844     6422.427    66.260346    438.30117   -550.56262   -4284.6743 
41759000    57.081929   -5134.7247   -5024.6374   -5134.7247            0    6129.2616    19.679229    19.789203    20.409194    7948.0804     6093.744    6052.6327    6241.4081   -248.56766    343.99584   -188.99189   -4314.1665 
41760000    56.124216    -5131.897   -5023.6567    -5131.897            0    7361.3408    19.648723    19.682101    20.424686    7898.8014     6808.145    7886.5873    7389.2902    -199.0722   -538.50562    390.08764   -4175.6603 
41761000    53.852214   -5136.9863   -5033.1278   -5136.9863            0    6612.5303    19.756929    19.669028    20.461042     7951.153    6671.5701    6902.8769     6263.144   -98.118307    117.72658    -487.0732   -4266.3427 
41762000    56.621825    -5129.895    -5020.695    -5129.895            0    7304.7031    19.734185     19.79762    20.290471    7927.2818    6980.9612    7256.1415    7677.0065   -605.42098    311.16323    39.580769    -4176.189 
41763000    55.771475   -5128.7244   -5021.1644   -5128.7244            0    6532.3533    19.513832    19.775588    20.550426    7930.3581    7019.3706    6604.4612     5973.228   -279.74267   -309.71872    1064.0795   -4265.6577 
41764000    53.720326   -5135.9888   -5032.3846   -5135.9888            0    6477.2699    19.681737    19.770282    20.366571    7924.9076     6539.634     6477.092    6415.0838   -256.14747    962.58864    36.262057   -4283.7635 
41765000    54.397191   -5138.3837   -5033.4741   -5138.3837            0    6218.0949     19.90635    19.754602    20.246153    7961.6381    5113.9981     6594.989    6945.2977    4.3734589    22.404849    130.14273   -4311.4767 
41766000      54.1476     -5131.81   -5027.3818     -5131.81            0     7909.593    19.813763    19.617922    20.370487    7918.1073    7280.8115    8354.1202    8093.8471    114.89033    39.021106    6.4323417    -4114.002 
41767000    55.640714   -5138.6662   -5031.3584   -5138.6662            0    6288.9609    19.766851     19.77348    20.358472    7957.3007    7162.9342    5279.4083    6424.5403    19.368289   -151.22968   -98.157407   -4301.5304 
41768000    53.516715   -5139.1048   -5035.8933   -5139.1048            0    6975.6662    19.718904    19.749728    20.406704    7947.2477    6582.0126     7344.407    7000.5789    75.172038    -268.9903    39.950333   -4227.3965 
41769000    52.876355   -5125.8769   -5023.9004   -5125.8769            0    8093.3322    19.609517    19.643864    20.445602    7875.7824    7189.3461    9279.4307    7811.2198   -457.70992    500.14898    126.04731   -4094.2985 
41770000    53.788157   -5132.6109    -5028.876   -5132.6109            0    7454.6648    19.659848    19.805887    20.335492    7918.2486     8412.358    5818.9057    8132.7308     456.0668    371.37318   -330.05746   -4168.0147 
41771000    55.463525   -5143.4514   -5036.4853   -5143.4514            0    6689.6066    19.807709    19.738459    20.307446    7939.6763    6187.6937    7518.8297    6362.2963   -30.709273    617.15853   -649.66711   -4261.8821 
41772000    53.770827   -5130.7542   -5027.0527   -5130.7542            0    6653.0129    19.722515    19.657624    20.447933    7927.6185    5933.3006    7834.2177    6191.5202    4.7115937      446.799   -227.30518   -4257.8567 
41773000    52.527926   -5134.5987   -5033.2942   -5134.5987            0    7569.5744    19.601016    19.739788    20.473283    7921.5205    7509.2084    7965.9668     7233.548    79.906908    279.58323    78.782342   -4158.8021 
41774000    56.180507    -5123.558   -5015.2091    -5123.558            0    7393.1551    19.623781    19.732716    20.386648    7894.3318    6858.0334    7861.6021    7459.8299   -50.991691    252.08321   -283.26031   -4164.0298 
41775000    55.957293   -5127.1857   -5019.2673   -5127.1857            0    8208.8603    19.792178    19.639113    20.310931    7894.8757    7598.8022     9449.135    7578.6437   -255.04228    374.17104    410.52056   -4074.1101 
41776000    53.753786    -5124.093   -5020.4243    -5124.093            0    7612.3085    19.674766    19.678964    20.430791    7910.3737    7666.2214    7914.8276    7255.8766    117.12046    661.35207    895.90385   -4142.2327 
41777000    53.921539   -5126.3088   -5022.3166   -5126.3088            0    7157.1819    19.709596    19.777797    20.308243    7916.4048    6439.2319    7824.7623    7207.5514   -503.33822    536.30247    386.29562    -4196.001 
41778000    53.937145   -5131.8215   -5027.7991   -5131.8215            0    7222.7426    19.680492    19.642537    20.426221    7896.2618    6533.9828      7756.39    7377.8551   -181.98664     36.50238    924.34641   -4196.0362 
41779000    56.459397    -5140.548   -5031.6613    -5140.548            0    6185.5644    19.746514    19.760017     20.42318    7968.9501    6238.0871    6700.1438    5618.4624   -149.31055    175.22204    720.82358   -4312.7814 
41780000    53.945322   -5128.5117   -5024.4736   -5128.5117            0    7044.7868    19.667758    19.705561    20.394684    7904.2497    7503.0275    6642.9442    6988.3887   -491.86957   -362.14554    122.50816   -4212.3832 
41781000    54.434888   -5128.3406   -5023.3584   -5128.3406            0    7053.2272    19.733242    19.714032    20.420098    7943.8629    7574.9286    6630.2541    6954.4989    -414.6613    62.283907    565.40427   -4206.2202 
41782000     55.12307   -5128.6067   -5022.2972   -5128.6067            0    7510.6153    19.728206    19.769731    20.286612    7912.2112    8404.4955    6348.5332    7778.8173   -448.33843   -43.840855    454.28139   -4155.6361 
41783000    54.391056   -5134.7607    -5029.863   -5134.7607            0    6007.9773    19.923669    19.776217    20.229971    7970.9084    5562.6526    5760.2977    6700.9817   -122.29335    812.96344    -184.6514   -4331.4505 
41784000    55.603236   -5136.5349   -5029.2994   -5136.5349            0    6486.5915    19.715658    19.767905    20.284365    7905.5729     5970.358    6791.3073    6698.1091   -298.56448    487.79873    328.83235     -4281.43 
41785000    50.708236   -5132.4781    -5034.683   -5132.4781            0    7243.0587    19.616048    19.817498    20.284049    7885.2414    6801.6749    7297.8132    7629.6879   -503.64021    1244.4588    540.27449   -4201.7446 
41786000    52.889941   -5137.0102   -5035.0075   -5137.0102            0    6936.2483    19.803944    19.771732    20.277461    7939.8076    5947.8775    7949.7486    6911.1188   -529.24944    1079.5275    967.15733   -4231.8319 
41787000     53.11467    -5133.841   -5031.4048    -5133.841            0    6585.0974    19.759583    19.709682    20.413013    7949.9519    6079.5789    6843.8156    6831.8976   -171.80373    397.00618    76.779552   -4267.9162 
41788000    55.308772   -5133.6186    -5026.951   -5133.6186            0    6661.2785    19.777651    19.739252    20.325426    7934.9661    6920.4463    6078.4006    6984.9886    -103.6778     697.0203   -572.25868   -4256.0856 
41789000    52.356855   -5132.0548   -5031.0802   -5132.0548            0    6482.4675    19.696889    19.745938    20.335242    7909.0578    5573.7995    7158.4296    6715.1733   -545.59359   -137.21648    533.16299   -4283.3568 
41790000    53.157895   -5130.5926   -5028.0732   -5130.5926            0    7101.7051    19.619681    19.779947    20.377589    7908.0585    7746.4391     7108.901     6449.775   -67.399926   -334.85981    144.40972    -4209.027 
41791000    54.576503   -5133.8094    -5028.554   -5133.8094            0    7498.9578    19.703156    19.748971    20.378759    7929.7231    6904.2557    8535.3549    7057.2627    3.4783383   -69.417929    538.01578    -4161.323 
41792000    54.429071   -5137.2443   -5032.2733   -5137.2443            0    6657.6274    19.762902    19.731495    20.343368    7932.9292    5777.8781    7559.7479    6635.2563    302.49657    306.42903    718.29778   -4262.0282 
41793000     55.75751   -5129.0621    -5021.529   -5129.0621            0    6309.2108    19.613386    19.818041      20.3181    7897.6226    6966.3191    5127.7056    6833.6076   -54.883017    324.28952    212.86273   -4294.8422 
41794000    54.797593   -5143.8129   -5038.1312   -5143.8129            0    6367.0302    19.794076    19.827786    20.270162     7955.485    5730.8632    6654.0679    6716.1595   -136.73016    576.01385   -295.07734   -4299.4118 
41795000    53.884726   -5138.7103   -5034.7891   -5138.7103            0    7222.7093    19.821095    19.592919    20.428282    7933.3867    6563.2757    8283.5502    6821.3019    26.390009    467.93066    9.4636121   -4199.1194 
41796000    48.856647   -5130.1373   -5035.9132   -5130.1373            0    6784.6981    19.659327    19.799448    20.433924    7953.7789    6352.2472     7221.556    6780.2913    37.901954    590.50844   -469.53612   -4248.9038 
41797000    53.360538   -5130.3324   -5027.4221   -5130.3324            0    7703.2033    19.663942    19.741101    20.339323    7895.4784     8670.957    6947.8769    7490.7761   -178.33986   -533.84334    48.364033   -4140.4178 
41798000    52.949017   -5135.9088   -5033.7922   -5135.9088            0    7231.2893    19.719382    19.693071     20.36725    7909.3199    7627.9691    6941.4559    7124.4429    374.71617   -483.93833     247.0364   -4199.6679 
41799000    54.817151   -5132.0404   -5026.3209   -5132.0404            0     7011.692    19.698845    19.757494     20.35153    7920.8117    6953.3233    7788.7514    6293.0011    98.159377   -152.11975     54.91528   -4216.3519 
41800000    50.330965    -5132.214   -5035.1465    -5132.214            0    7000.1856    19.856293    19.677134    20.322759    7940.4056    7172.5514    6307.3166    7520.6888   -466.70781    24.819302   -182.60013   -4224.5064 
41801000     57.21906     -5126.15   -5015.7983     -5126.15            0    6648.8616    19.725734    19.833365     20.29914    7941.5856    6055.4697    6418.4563    7472.6588   -89.794662    99.296744   -73.934192   -4245.7279 
41802000    52.443282   -5134.9325   -5033.7912   -5134.9325            0    6450.3676    19.809114    19.697287    20.350211    7940.3633    4668.2374    7797.4493    6885.4162   -117.46608    675.06219   -554.53194   -4286.8254 
41803000    52.822743   -5141.9173   -5040.0442   -5141.9173            0    5774.3211    19.729441    19.786137    20.401117    7963.9721    6129.8177    5488.9753    5704.1702   -1.7745459    877.04157    60.390412   -4369.3778 
41804000    56.984936   -5135.7151   -5025.8148   -5135.7151            0    6379.2353    19.721556    19.811372    20.368951    7958.3749    5921.1955    6884.3524     6332.158    140.87284    132.74826   -475.75354   -4285.4106 
41805000    52.846996   -5128.7783   -5026.8584   -5128.7783            0    7293.8474    19.690888    19.711588    20.403094    7919.2295    8272.1876    6435.2262    7174.1283    176.05142    801.17397   -92.359841    -4184.464 
41806000    54.803511   -5122.6615   -5016.9684   -5122.6615            0    7749.1489    19.653897    19.790694    20.294105    7893.6817    8207.4115    7043.0844    7996.9508   -621.00736    48.525607     386.7547   -4124.8766 
41807000    52.898203   -5140.7112   -5038.6926   -5140.7112            0    6564.3836    19.764159    19.734289    20.386188     7951.258    5551.5695    7701.1467    6440.4346   -204.47381    151.66224    838.91577   -4277.4805 
41808000    55.040928   -5137.5234   -5031.3724   -5137.5234            0     6689.607    19.756692    19.687969    20.420711    7943.0265    6235.7455    7498.9812    6334.0942   -101.66081    646.83116    1017.3172   -4256.4423 
41809000    53.990818   -5133.8503   -5029.7245   -5133.8503            0    6995.4907    19.636935     19.77404    20.388217     7916.776     6027.476    7694.1634    7264.8327    73.742318    420.43783    279.71962   -4222.0387 
41810000    51.008019   -5123.6787   -5025.3055   -5123.6787            0    7337.2841    19.572599     19.76954    20.409405    7897.2414    7624.0002    7304.9914    7082.8607   -80.333355   -123.21545     88.77318   -4180.2472 
41811000    53.608154   -5132.1951   -5028.8073   -5132.1951            0    6811.7425    19.691949    19.757086     20.42659    7947.0778    6345.9185    7643.9425    6445.3665     321.3334   -332.47102    132.47556   -4239.3265 
41812000    56.854698   -5130.9307   -5021.2816   -5130.9307            0    7161.3539    19.692627    19.752503    20.393554    7932.6576    7546.0972    6556.8306     7381.134   -33.549003      128.257   -132.33634   -4192.7869 
41813000    55.486773   -5134.7217   -5027.7108   -5134.7217            0    6550.4629    19.787796    19.754756    20.363435    7960.1298    5923.3731    7064.1039    6663.9119    13.036119    20.711796    51.260682   -4267.2654 
41814000    55.755675   -5135.7102   -5028.1807   -5135.7102            0    7407.1108    19.659192    19.722512    20.409253    7913.2518    7734.0939    7252.8027    7234.4358   -612.96149   -303.64285   -812.66133   -4173.3508 
41815000    53.617635   -5133.3161     -5029.91   -5133.3161            0      7088.27    19.661415    19.709917    20.427142    7916.0252    6149.7593    8095.6956    7019.3551    287.43768    733.76967    279.41368   -4211.5897 
41816000    56.904694    -5128.249   -5018.5035    -5128.249            0    7770.7195    19.675867     19.78357    20.327521    7912.6685    8071.8252    7771.2438    7469.0894    153.45511   -778.63322   -519.09702   -4121.7768 
41817000    52.252819   -5135.3993   -5034.6253   -5135.3993            0    6744.7066    19.735105    19.720343    20.421314    7947.6293    5961.8841    7248.8967    7023.3389   -183.89936   -82.293224    153.29734   -4252.8597 
41818000    52.149448   -5131.2191   -5030.6445   -5131.2191            0    6992.1658    19.728423    19.714968    20.417538    7941.3038    7598.3581    6520.2763    6857.8629    32.068425    497.20413   -205.53982   -4220.8415 
41819000    51.253262   -5137.1773   -5038.3311   -5137.1773            0    6934.4695    19.744366    19.790322    20.361858     7956.342    6521.7978    7180.4708    7101.1399    344.69448    668.66132   -471.59671   -4233.6893 
41820000    54.637881   -5131.8631   -5026.4894   -5131.8631            0    6525.0589    19.727606    19.747388    20.346778    7926.4676    5706.4098    6902.9169    6965.8502   -212.96405   -659.00213   -325.33525   -4272.1965 
41821000    53.986274   -5135.3345   -5031.2175   -5135.3345            0    6499.5242    19.759965    19.805742    20.338702    7959.7702    6519.6965    5944.0045    7034.8715   -118.80168    344.60895   -111.26974   -4276.7197 
41822000    58.550756   -5134.2399   -5021.3198   -5134.2399            0    6412.9231    19.654966     19.77132     20.47874    7958.1329    7252.2853    5910.9518    6075.5323   -276.28549   -377.43508    80.149182   -4277.0282 
41823000    53.297132   -5141.3254   -5038.5374   -5141.3254            0     7189.961    19.719135     19.72616    20.373877    7925.0881    7138.2811    6864.3875    7567.2146   -146.65531    714.46749   -42.474861   -4207.5269 
41824000    51.620725   -5132.8032   -5033.2483   -5132.8032            0     7075.786     19.69861    19.701555    20.398194    7916.4015    7130.6324    7247.3249    6849.4006   -93.458885     178.4508   -392.19369   -4216.3305 
41825000    54.275196   -5141.2821   -5036.6078   -5141.2821            0    6385.3605    19.814271    19.802904     20.30068    7965.5825    6285.5763    6117.2403    6753.2648    7.3768668     149.7349    185.69904   -4294.8214 
41826000    51.429257   -5129.8473   -5030.6616   -5129.8473            0    6638.8225    19.724847     19.77732    20.354552    7940.4047    7160.6144    6614.3616    6141.4915   -260.87302    520.67753    269.01609   -4261.8684 
41827000     51.15381   -5133.7959   -5035.1414   -5133.7959            0    6888.1283    19.669556    19.744224    20.361061     7907.424      6307.04    7689.7431    6667.6018   -120.26926    483.95924   -78.469452    -4240.791 
41828000    55.869964   -5130.1057   -5022.3558   -5130.1057            0     6385.114    19.659899    19.795117     20.39838    7938.4379     7209.772    5736.2418    6209.3281     347.4133   -273.94025    170.35412   -4283.1258 
41829000    54.171258   -5138.5168    -5034.043   -5138.5168            0     7100.323    19.670914     19.68774    20.490584    7935.5082    7916.7984    7101.7099    6282.4607   -543.67525     8.578992     417.8474   -4212.3138 
41830000    54.602375   -5128.6383    -5023.333   -5128.6383            0    7197.5376    19.709367    19.750064    20.367439    7928.2547    7074.4435    7386.4718    7131.6975    -150.0702   -454.76332    -87.97931   -4191.1144 
41831000    55.204302   -5131.1859   -5024.7198   -5131.1859            0    6726.8868    19.680653    19.788216    20.318854    7913.0763    6089.0944    6742.1371    7349.4288    164.16712   -205.78219   -849.39224   -4248.4095 
41832000    53.392097   -5140.4048   -5037.4336   -5140.4048            0    6620.3329    19.753845    19.764931    20.363807    7950.7099    5961.5778     7201.038    6698.3829   -68.352803    492.52574    512.26662   -4269.7865 
41833000    52.639031   -5130.4311   -5028.9123   -5130.4311            0    6688.9474    19.670147    19.708246    20.488868    7942.7988     7318.879    6494.0693    6253.8941   -232.03883   -914.31966    182.90048   -4254.0808 
41834000    54.529068   -5124.7513   -5019.5874   -5124.7513            0     7200.033    19.624403    19.775417     20.40836    7920.0915    7699.4947    7328.5314    6572.0731    570.60317    276.81926   -247.99197   -4187.9374 
41835000    51.011646   -5128.1188   -5029.7385   -5128.1188            0    7292.8243     19.73977    19.746737    20.271025    7901.5652    6820.6306    7026.7657    8031.0767   -268.94804    353.94331     277.0706    -4189.341 
41836000    52.654142   -5135.4271   -5033.8792   -5135.4271            0    6404.1843    19.800413    19.671142    20.413453    7950.9735    5887.5642    7374.6339     5950.355    153.69014   -110.21217     113.8197   -4291.2705 
41837000    53.905163   -5136.0088   -5032.0482   -5136.0088            0    6639.8815    19.765344    19.715105     20.36161    7934.4276    6729.1419    6734.4797    6456.0228   -470.52848    117.06198    548.12135   -4263.7111 
41838000    53.785082   -5133.3768   -5029.6477   -5133.3768            0    7091.5125    19.636931    19.748145    20.445714    7928.7043    6958.4444    7366.2779    6949.8151   -108.19734   -499.38111    18.322772   -4209.6418 
41839000    49.806425   -5136.2894   -5040.2336   -5136.2894            0    6287.4518    19.659963    19.779854    20.409865    7936.8087    6919.4877    5725.0334    6217.8344   -107.63657    611.63819     298.1784   -4312.4597 
41840000    52.718154   -5132.0031   -5030.3317   -5132.0031            0    6559.4766    19.734513    19.692964     20.39693    7926.8807    6389.7579    6246.1688    7042.5032    73.436762    449.55622    828.36606   -4272.0207 
41841000    54.071815   -5138.4759   -5034.1939   -5138.4759            0    5958.6112     19.62949    19.765666    20.456575    7936.9454    6049.4027    6304.5229    5521.9081   -278.09141   -166.66269    38.464132   -4344.4715 
41842000    51.993067   -5131.4409   -5031.1679   -5131.4409            0    6505.7865    19.589721    19.809577    20.468655      7943.15    8170.3102    5017.6584    6329.3909   -32.921701    310.60942   -257.30792   -4277.5201 
41843000     55.00517   -5127.8426   -5021.7605   -5127.8426            0    7072.1738    19.630546    19.720333    20.428855    7908.4369    7948.6103    6364.1336    6903.7776    105.25748    279.20025    287.45023   -4206.0812 
41844000    52.853651    -5131.561   -5029.6283    -5131.561            0    7023.8933    19.724709    19.727774    20.406907    7940.8298    6962.6919    7650.9679    6458.0201   -192.02833    -223.0141   -186.98648   -4216.1993 
41845000     53.27227   -5135.4989   -5032.7589   -5135.4989            0    7649.2917    19.636847    19.864962    20.219681    7887.3985    9002.0877    6005.5609    7940.2265   -596.75161    321.97785    347.63545   -4152.8638 
41846000     54.64246   -5133.5949   -5028.2124   -5133.5949            0    6557.0163      19.6939    19.780688    20.392714     7944.163    5772.7465    6312.4525    7585.8498   -223.92832    294.66531      158.882    -4268.533 
41847000    54.896594   -5134.5473   -5028.6746   -5134.5473            0    6986.6727    19.659587    19.847743    20.337221    7935.5516    8453.0466    5672.0771    6834.8944    106.46768   -544.77824    679.44424   -4220.0938 
41848000    53.547334    -5134.963   -5031.6924    -5134.963            0    5747.1254    19.742964    19.756689    20.396019    7955.5814    4891.3125    6627.3419    5722.7218    203.79247    175.83724    357.76094    -4364.888 
41849000    53.325261   -5134.1154   -5031.2731   -5134.1154            0    6356.1161    19.681094    19.775549     20.38949    7935.6799    6794.1362    5972.3765    6301.8357   -283.23237    1093.2136    154.28228   -4295.6559 
41850000    54.537769   -5135.7995   -5030.6189   -5135.7995            0    6938.2388    19.741757    19.789675    20.327483    7941.6011    7471.5611    6296.1976    7046.9578   -85.278861    391.00214   -78.768721   -4227.0313 
41851000    51.614176   -5139.6477   -5040.1054   -5139.6477            0    6506.1305    19.802828    19.786859    20.271081    7942.9343    6612.5141    5810.1919    7095.6856   -51.273612   -291.61636    47.276795   -4286.4381 
41852000    52.030598    -5129.237   -5028.8916    -5129.237            0    6756.0457    19.716136    19.822196    20.298252    7932.9045    6615.5532    6397.1423    7255.4416   -102.84714    540.75388    908.43762   -4247.2625 
41853000    56.504227   -5135.3493   -5026.3761   -5135.3493            0    6422.3896    19.684003      19.7094    20.419407    7921.9108    5667.5405    7526.7555    6072.8729   -209.24062   -74.237838    426.75763   -4284.3785 
41854000    56.540508   -5131.4145   -5022.3714   -5131.4145            0    7259.4425    19.746482    19.738875    20.283536    7905.9815    7247.5951    6751.1459    7779.5865   -273.32307   -370.12699   -631.50035   -4185.3531 
41855000    56.417038   -5132.3565   -5023.5515   -5132.3565            0    6450.6278    19.716394    19.795426    20.409407    7965.6775    6552.9476    6548.8359    6250.0999   -159.63246    834.72708   -831.23452   -4274.1741 
41856000     52.55099   -5131.2352   -5029.8862   -5131.2352            0    7875.5295    19.584969    19.667804    20.497451    7895.4813    8260.7175    8288.2708    7077.6001   -169.54047   -103.14857    444.08639   -4123.0387 
41857000    54.723757   -5131.0987   -5025.5594   -5131.0987            0    7157.3673    19.758675    19.724556      20.2817    7904.4094    7906.6573    6333.8852    7231.5595   -243.42247    627.75505    355.98183   -4200.4745 
41858000       51.948   -5125.6363   -5025.4502   -5125.6363            0    6125.9227    19.751594    19.653326    20.458452    7941.6544    5902.5625    6942.8328    5532.3729   -266.64147    286.77279    392.26347   -4315.9404 
41859000    52.582483   -5135.1493   -5033.7396   -5135.1493            0    6896.3755    19.700727    19.742825    20.435458    7948.3304    7110.5343    6803.7573     6774.835   -11.893121    210.01594    576.22406   -4234.3238 
41860000    56.647451   -5134.5666   -5025.3172   -5134.5666            0    6277.9215    19.734599    19.742766    20.395006     7946.212    5590.4047    6126.1875    7117.1725    43.131732   -102.29246    766.29186   -4297.7855 
41861000    56.162645   -5131.8131   -5023.4987   -5131.8131            0    6716.1995    19.673368    19.750701     20.40267    7927.7189    6774.3005    7075.1853    6299.1128    422.74705    652.17459    543.31692   -4246.9876 
41862000    54.392765   -5132.6948   -5027.7938   -5132.6948            0    6267.9517    19.731222    19.796282    20.343182    7946.1449    6258.7233    5829.6432    6715.4886   -612.48934    141.02501   -306.86599   -4301.4236 
41863000    52.397671   -5134.2977   -5033.2444   -5134.2977            0    6883.6098    19.622589    19.766437     20.40415    7914.1302    7797.3222    6152.0179    6701.4892    72.145358    179.74828    358.58757   -4238.7418 
41864000    55.443201     -5134.02   -5027.0931     -5134.02            0    6576.1806    19.719799    19.810851    20.335373    7944.3388    7517.8692     5952.963    6257.7097   -177.59921   -400.28709    872.95324   -4265.1766 
41865000    52.533895   -5131.0875   -5029.7715   -5131.0875            0    7262.9008    19.744941    19.733878    20.374681    7938.8772    7113.3088    7461.4374    7213.9563   -191.56252    416.47219    119.65087   -4188.8701 
41866000    54.239943   -5141.0627   -5036.4564   -5141.0627            0     6912.951    19.652992    19.784858    20.404324    7933.8469    7023.8155    7111.4787    6603.5589    219.91861     65.74187   -886.35344   -4236.5795 
41867000    50.536905   -5132.0937    -5034.629   -5132.0937            0    6995.9768    19.703425    19.771952    20.347404    7926.8435    7503.2672    6763.4683    6721.1949    113.42788    319.01533    464.01051   -4225.8599 
41868000    53.379033   -5137.2522   -5034.3063   -5137.2522            0    6178.4327    19.720203    19.751974    20.372823    7935.4781    6449.7196    6135.5324    5950.0462    93.903511   -192.76679   -761.47146   -4319.2713 
41869000    50.606149   -5132.3582     -5034.76   -5132.3582            0     6388.826    19.687084    19.760011    20.409591    7939.6777    6268.3236     6547.026    6351.1286   -156.36555   -140.97202   -188.65794   -4294.9847 
41870000    54.884313   -5133.3771   -5027.5281   -5133.3771            0     7296.586    19.697246    19.820478    20.310631    7929.4495     7393.183    6193.3235    8303.2514   -170.77975    521.32395    282.70279   -4183.7298 
41871000    52.143646   -5138.6938   -5038.1303   -5138.6938            0    6714.3047    19.682522    19.794495    20.391433    7944.6161    6998.6074    6145.1591    6999.1477   -109.90013    513.73921   -256.96331   -4260.1836 
41872000    57.452515   -5133.0238   -5022.2218   -5133.0238            0    6484.1657    19.702017    19.784978    20.334166    7926.3389    7025.0063    5863.0908    6564.3999    75.209545    631.58859    252.13244   -4272.6683 
41873000    54.293418   -5133.2741   -5028.5646   -5133.2741            0    6743.5412    19.789103    19.642949    20.399415    7929.5858    5889.7546     7547.326    6793.5429   -65.236349   -305.54217   -338.27849   -4248.7087 
41874000    53.219304   -5130.5755   -5027.9376   -5130.5755            0    6430.9762    19.676693    19.778295    20.389135    7934.8689    6580.1067    6122.3888     6590.433    64.178229    177.24714   -145.65931   -4283.7327 
41875000    56.410041   -5134.6247   -5025.8332   -5134.6247            0    5617.0469    19.726127    19.749393    20.449035    7966.5155    5497.8622     5730.564    5622.7146   -342.73069   -133.75328    27.679388   -4373.2252 
41876000    50.427529   -5133.7504   -5036.4966   -5133.7504            0    6867.7695    19.745909    19.779076    20.292286    7925.2706    6801.9702    6391.1945     7410.144   -160.17434    29.511165   -438.96946   -4242.7065 
41877000    54.637929   -5137.3844   -5032.0105   -5137.3844            0     6692.281    19.712376    19.794272    20.313652    7926.2271    7150.9124     6073.755    6852.1756   -18.693694    125.19713     -58.0466   -4258.4104 
41878000     50.62066   -5131.9918   -5034.3656   -5131.9918            0    6531.1695    19.799393    19.809218    20.280636    7954.2785    5139.8022    7026.8648    7426.8416   -268.01904    331.06057    372.62203   -4276.7173 
41879000    54.902677   -5122.6398   -5016.7554   -5122.6398            0    7602.3774      19.6014    19.747842     20.36445    7882.7806    7855.4479    7646.2218    7305.4625   -70.174765    -249.8687    1063.0394   -4142.7688 
41880000    53.057875   -5140.7031   -5038.3766   -5140.7031            0    7044.7061    19.687663    19.831915    20.308414    7929.2997    7490.0716    5927.0476    7716.9991     198.1304    160.46022    77.863341   -4223.7218 
41881000    52.097635   -5139.6958   -5039.2211   -5139.6958            0    6686.8546     19.66364    19.812336    20.367791    7934.9376    6347.0574    6713.8455     6999.661   -380.46116    261.93427    534.72959   -4265.3987 
41882000    57.872565    -5135.621   -5024.0089    -5135.621            0    6388.0415    19.782994    19.716802    20.366279    7944.0172    6602.0095    6342.0631     6220.052   -196.70925   -309.21631   -456.26715   -4283.9201 
41883000    55.193161   -5129.0709   -5022.6262   -5129.0709            0    6524.5974    19.779032    19.758204    20.291211    7929.7677    6184.6362    6684.6019    6704.5542   -140.55934    749.73482    -747.4015   -4268.0726 
41884000    53.974981   -5139.8997   -5035.8044   -5139.8997            0    5854.3049    19.768393    19.694858     20.42785    7953.2913    5118.5224    6819.4868    5624.9054    120.30682    88.461714    136.01342   -4356.7601 
41885000    52.729713   -5131.3296   -5029.6359   -5131.3296            0    7272.2825    19.633175    19.723337    20.459137    7922.4268    7653.1724    7512.6842     6650.991   -244.27215    -312.8529    492.87564   -4189.3929 
41886000    54.504376   -5133.7588   -5028.6426   -5133.7588            0    6856.2739    19.623587     19.71035    20.501337    7929.6661      7265.13    6913.7456    6389.9462    61.223385    121.16388    490.18904   -4235.7416 
41887000    53.534291    -5140.083   -5036.8376    -5140.083            0    6230.8213    19.728823    19.772737    20.378469    7949.4948    6001.7846    6858.7089    5831.9704   -25.874288    12.092154     -174.896   -4314.4659 
41888000    54.071981   -5139.7862   -5035.5038   -5139.7862            0    5988.4102     19.72245    19.736685    20.445619    7958.5755    6125.8491    6478.8145    5360.5672    180.46554    58.722799   -18.964923    -4340.443 
41889000    48.882526   -5132.0487   -5037.7746   -5132.0487            0    6640.6835    19.715657    19.764359    20.325846    7920.3181    6055.0632    7070.2382     6796.749   -2.6910387    410.91192    248.66424   -4270.7111 
41890000    54.178752   -5129.8019   -5025.3136   -5129.8019            0    6468.1088    19.648289    19.826641    20.356655    7930.1298    6482.6281    6646.0586    6275.6397   -165.83529   -48.446755     507.3728   -4277.2587 
41891000    53.082321   -5134.5656   -5032.1919   -5134.5656            0    6674.6533    19.698407    19.794523    20.348833    7934.4283    7025.4931    6260.4441    6738.0227    12.491609   -387.47047     154.0193    -4259.831 
41892000    52.609852   -5133.2365   -5031.7739   -5133.2365            0    6045.5591    19.736339    19.727268     20.44411    7959.7926     5589.061    6574.6746    5972.9418    24.035852    23.205492    219.87674   -4329.9727 
41893000    53.392604   -5127.8076   -5024.8355   -5127.8076            0    7699.6716    19.588729    19.824819    20.236681    7858.7736    8969.9128    5848.9145    8280.1874    4.7625717    649.05138    299.62867   -4142.3596 
41894000     54.47382   -5135.5395   -5030.4821   -5135.5395            0    6431.8911    19.711616    19.774409    20.400604    7951.8607    7220.5658    5459.3662    6615.7414   -194.61456   -217.84822     278.1319   -4284.5774 
41895000    53.398803    -5131.651   -5028.6669    -5131.651            0    7437.5809    19.691668    19.749412    20.365374    7920.0712    7411.3906    7408.4219    7492.9301   -203.39607    196.50667    271.24859   -4169.5809 
41896000    54.327197   -5136.3846   -5031.6101   -5136.3846            0    6285.7572    19.614007    19.777745    20.400511    7913.7833    6245.8852    6118.1342    6493.2523   -43.568121    403.02437    149.88459   -4306.1431 
41897000    52.144012   -5136.3454   -5035.7813   -5136.3454            0    6542.9118    19.670177    19.833605    20.300021     7919.658    6840.0993    5633.7588    7154.8773    31.259013    580.61172    268.96282   -4280.0744 
41898000     54.87135   -5138.9284   -5033.1044   -5138.9284            0    7161.5994     19.72427    19.759653     20.30019    7911.8921    7169.0302    7012.2909     7303.477   -284.77524    275.02175    158.25894   -4206.7502 
41899000    55.653131   -5132.0487   -5024.7169   -5132.0487            0    7180.4895    19.761567    19.657974    20.396152    7923.3418     7369.081    7475.0812    6697.3062   -102.25179    268.22636    211.43828    -4194.984 
41900000    54.503396   -5135.3237   -5030.2093   -5135.3237            0    7247.2779    19.705081    19.813814    20.264675    7911.9939    7461.1878    6482.5614    7798.0844   -299.94209   -468.42423    87.129876   -4193.9581 
41901000    53.858404   -5125.5501   -5021.6796   -5125.5501            0    7272.9803    19.703587    19.738413    20.385966    7928.4595    6872.5978    7598.5103    7347.8328    179.84449   -257.47485   -477.12828   -4180.7162 
41902000    54.464305   -5128.8376   -5023.7986   -5128.8376            0    7622.3423      19.7454    19.749786    20.299916     7916.306    7786.8936    7373.6725    7706.4609   -278.17472    873.95613   -534.16564     -4143.79 
41903000    52.561429   -5133.1555   -5031.7863   -5133.1555            0    6653.6205    19.727827     19.74976    20.375966    7938.8809    6149.6952    6799.3887    7011.7776    67.489464    475.66355   -532.18022   -4261.4273 
41904000    53.900688   -5129.2092   -5025.2572   -5129.2092            0    7351.1554    19.680036     19.83759    20.211276    7890.5729      7221.38    6972.2194    7859.8668    218.38331    461.87129    232.50315   -4179.3163 
41905000    53.501266   -5134.6958   -5031.5141   -5134.6958            0    7122.5098    19.698896    19.830362    20.293757    7927.4771    7707.9036    6403.8289    7255.7969   -108.53561    594.97595    8.7877042   -4208.0514 
41906000    51.326269   -5134.3008   -5035.3137   -5134.3008            0    6473.4066    19.674536    19.699424    20.506161     7947.717    6745.5585    6651.0169    6023.6446    264.09069    280.67194    280.99733   -4284.9857 
41907000     54.72325   -5131.9072   -5026.3688   -5131.9072            0    7745.2597    19.725825     19.79446    20.292237    7923.3485    7702.8698    7318.0488    8214.8607    231.13957    107.28915    185.50152   -4131.3738 
41908000    52.159966   -5131.8686   -5031.2737   -5131.8686            0    7709.6822    19.603639    19.763635    20.362586    7889.2631    7813.7706    7690.1827    7625.0933   -218.18947   -35.209789   -37.276814   -4144.2223 
41909000    52.383656   -5133.1131   -5032.0868   -5133.1131            0     7522.408    19.704141    19.695182     20.40961     7920.493    7321.7646    7385.8838    7859.5755    318.64877    404.86705   -386.51341   -4163.1564 
41910000    54.449243    -5134.628    -5029.618    -5134.628            0    7237.6711    19.679349    19.782872    20.364754     7928.285    7164.5167    6993.2862    7555.2105   -285.33343   -39.031428   -671.79064   -4192.7558 
41911000    53.999362   -5137.0057   -5032.8634   -5137.0057            0    7595.8468    19.656605     19.69739     20.45747    7920.8013    8475.9005    7160.1078     7151.532   -270.89381   -386.28033    489.84807   -4155.4158 
41912000    52.723351   -5134.1834    -5032.502   -5134.1834            0    6683.3841    19.755655    19.821439    20.333208    7962.1897    6632.6751    6559.3456    6858.1316     69.05106    113.05816    399.20416    -4256.425 
41913000    53.240181   -5126.2553   -5023.5772   -5126.2553            0    7912.4671    19.601606    19.699745    20.383142    7870.8818    7794.8423    8329.2178    7613.3411   -331.24124   -44.380505    584.55064   -4115.3151 
41914000    53.038153   -5134.3474   -5032.0589   -5134.3474            0    7423.3032    19.698896    19.786686    20.306655    7915.0439    6648.5907     7618.456    8002.8628   -407.69393    1401.1268    577.95234   -4175.1662 
41915000    53.350391   -5135.5918   -5032.7011   -5135.5918            0    6341.4333    19.817589    19.691151    20.423997    7970.0796    6816.1716    5951.8347    6256.2937   -546.53385    32.394996    553.23057   -4295.6018 
41916000    54.620532   -5133.3429   -5028.0026   -5133.3429            0    6082.5302    19.688243    19.851255    20.323541    7943.1783    6827.7949    4710.2525    6709.5432   -472.45693   -51.815154   -134.26241   -4323.3834 
41917000    53.188481   -5128.4768   -5025.8984   -5128.4768            0    7349.0797      19.5739    19.795719    20.383264    7898.0954     7178.871    7352.4849    7515.8833   -173.41801    275.48996   -156.47051   -4179.3901 
41918000    58.044195   -5136.2454   -5024.3022   -5136.2454            0    6905.9337    19.683544    19.796437    20.386663    7943.9493    6972.5599    6326.6275    7418.6138   -31.024258    623.20282    -1019.868   -4224.2198 
41919000    58.007666   -5138.9624   -5027.0897   -5138.9624            0    5745.6693    19.750452    19.823218    20.360719    7971.5779    6338.5801    5511.3392    5387.0886   -313.47245    461.92097   -2.8303738   -4359.1138 
41920000    54.955627   -5132.9026   -5026.9161   -5132.9026            0    6470.2148    19.637812    19.816487    20.352017    7920.0374    7006.0414    5841.0839     6563.519   -89.478043    69.705141    613.09132   -4279.5699 
41921000    55.926253   -5133.8028   -5025.9443   -5133.8028            0    6854.4425    19.670751       19.762    20.362355    7915.5271    7244.2773    6849.6126    6469.4375   -22.129421   -21.553572    321.55678   -4234.6685 
41922000    52.969564   -5135.3522    -5033.196   -5135.3522            0     7231.103      19.6514    19.742432    20.422978    7923.4295    8008.1205    6628.7744    7056.4141   -19.996134   -358.22892   -837.97126   -4197.6052 
41923000    51.851966   -5136.2931   -5036.2922   -5136.2931            0     6015.683    19.719588    19.851837    20.314124    7952.3709    5769.6376    5454.0914    6823.3199   -421.11023    -275.5258    -141.9126   -4338.6103 
41924000    52.023235   -5126.8718   -5026.5407   -5126.8718            0      7288.23    19.801897    19.690725    20.294223    7912.9957    6645.6112    8112.1578    7106.9208   -118.98044   -802.24908    231.92196   -4185.4576 
41925000    55.525826   -5139.2333   -5032.1471   -5139.2333            0    7045.2849    19.756311    19.794752      20.2806    7931.1601    7088.9189    7100.2516    6946.6843    243.76314    325.50018    224.80747   -4217.2342 
41926000    54.003808   -5135.3226   -5031.1717   -5135.3226            0    8075.7049    19.804918    19.703908    20.245567    7900.5146    8005.8144    7707.2133    8514.0871    -29.40683    309.93619   -390.50706   -4100.6817 
41927000    55.349517   -5137.0593   -5030.3131   -5137.0593            0    6223.0435    19.648248    19.786004    20.439206    7945.9523     6887.595    6080.0775    5701.4579   -5.8093733    166.30599   -315.58566   -4309.1646 
41928000    53.874144   -5131.2168    -5027.316   -5131.2168            0    7315.2003    19.694586    19.785602    20.324928    7919.9995    7875.1049    6456.1558    7614.3403   -233.96406    595.26385   -255.73591   -4182.3733 
41929000    52.919563   -5128.4221   -5026.3623   -5128.4221            0    6544.0229    19.753466    19.786397    20.352747    7954.8694    7170.3923    5499.2223    6962.4542    -427.6164     343.5197    569.63756   -4267.1666 
41930000    56.557759   -5134.1725   -5025.0961   -5134.1725            0    7014.5142    19.704482    19.707983    20.384898    7916.1813    5955.0951    8223.2857    6865.1617   -262.85274    319.08288   -174.44087   -4215.2747 
41931000    55.311791   -5138.4921   -5031.8187   -5138.4921            0    6053.3054    19.589824    19.768782    20.498581     7938.423    7055.8803     5933.401     5170.635    220.51425    341.18747    392.45171   -4331.0048 
41932000    53.889842   -5133.4816   -5029.5505   -5133.4816            0    6309.2208    19.746311    19.747208    20.333164    7928.6021    6854.4778    6857.1492    5216.0352   -121.39266    467.88247    557.24842    -4300.012 
41933000    55.265155   -5139.6718   -5033.0883   -5139.6718            0    7272.2238    19.732918    19.714256    20.340522    7912.8658    7515.2662    7227.1912    7074.2141   -329.37237   -71.530385    614.43056   -4193.8662 
41934000    52.852979    -5142.027   -5040.0956    -5142.027            0    6315.2734    19.685161    19.799721     20.43009     7962.846    6161.1745    6856.3803    5928.2653   -146.04986    221.35563   -333.84759   -4306.7033 
41935000    55.275933   -5130.6948   -5024.0905   -5130.6948            0    6246.2312     19.64733    19.736595    20.433052     7923.353    7584.7226    5346.8016    5807.1695   -93.597109    256.42333    4.2310872   -4302.3136 
41936000    55.607791   -5130.9061   -5023.6618   -5130.9061            0    6054.2682    19.774802    19.732303    20.294324    7918.8937    5430.2212    7209.1714    5523.4121   -245.67854   -589.02326    84.752197   -4324.4608 
41937000    53.530761   -5139.5622   -5036.3236   -5139.5622            0    5810.1971    19.756561    19.742253    20.450512    7976.4978     5641.209    6157.5064    5631.8758    214.78528    493.19957   -172.41454    -4360.429 
41938000    54.740696   -5132.7706   -5027.1985   -5132.7706            0    6456.9963    19.631679    19.713148    20.520012    7941.2892    6443.8802    7266.2906     5660.818    164.39855    775.93228   -228.09647   -4279.3779 
41939000    53.071478   -5142.2556   -5039.9028   -5142.2556            0    6379.9122    19.688017    19.739622    20.476962    7958.0439    6259.5701    6762.0885    6118.0781   -440.95293    320.81041    15.328865   -4299.4508 
41940000      55.3711   -5131.0949   -5024.3071   -5131.0949            0    6675.4616    19.764429    19.744142    20.408517    7964.0501    7262.3496    5788.1153    6975.9198   -369.12824    896.54854    169.27877   -4248.9689 
41941000    54.844216   -5134.4263   -5028.6546   -5134.4263            0     6756.421    19.693757    19.742622    20.398272    7930.9784    6785.4778    6803.6115    6680.1736    33.621404    364.56959   -244.86784   -4247.1719 
41942000    54.636583   -5131.4599   -5026.0886   -5131.4599            0    7412.9104    19.677621    19.784205    20.314822    7908.6841    7981.5136    6863.5404    7393.6771   -324.81335   -58.496914    20.395124   -4171.0832 
41943000    52.748239   -5131.1676   -5029.4382   -5131.1676            0    6945.7027    19.733547    19.852425    20.283754    7946.3383    6562.5382    7068.4165    7206.1535    93.254297    869.83479     440.9185   -4224.5063 
41944000    54.339616   -5129.9707   -5025.1721   -5129.9707            0    7589.7119    19.623988     19.78787    20.423515    7930.7963    8294.6003    6822.6256    7651.9097   -247.16862   -125.46342   -72.992519   -4147.3269 
41945000    54.864289   -5129.1908   -5023.3804   -5129.1908            0    7073.8797    19.611518    19.619302    20.494011    7885.3638    6926.8573    7628.0338     6666.748   -600.82386   -384.30536    311.68842   -4209.8846 
41946000    54.504741   -5140.4905   -5035.3735   -5140.4905            0    6058.9197     19.68513     19.84755    20.377025    7961.3361    6870.6084     5128.169    6177.9819    116.53144    760.44183    156.36674   -4331.8849 
41947000    54.435171   -5134.0864   -5029.1036   -5134.0864            0    6973.6978    19.639214    19.812595    20.362262    7923.0331    7249.9889    6535.7981    7135.3065   -319.03004   -168.29218    99.985945   -4223.2976 
41948000    53.393664   -5129.6073   -5026.6332   -5129.6073            0    6943.2083    19.684324    19.745602     20.41559    7935.1076    7376.2884    6573.2749    6880.0616   -195.13673    703.90065   -215.79312   -4223.1276 
41949000    56.144372   -5129.5536   -5021.2744   -5129.5536            0    8088.4397    19.786858    19.691969    20.279891    7901.9011     7112.678    8834.8816    8317.7596    54.102117    431.84915    308.12757   -4089.1536 
41950000    52.260295   -5131.8176   -5031.0292   -5131.8176            0    6547.2618    19.604729    19.807046    20.400089    7921.5947     7405.016    6123.2034    6113.5659    91.236386    823.58446    172.61689   -4274.6349 
41951000     51.85043   -5135.2916   -5035.2937   -5135.2916            0    6198.7708    19.668353    19.823745    20.418771    7961.2871    5756.1419    6543.8969    6296.2735   -267.03785    659.91788   -124.68044   -4315.5717 
41952000    55.640758   -5135.5447   -5028.2368   -5135.5447            0    6551.5154    19.713311    19.713704    20.376507    7918.7665    6692.9038    6554.4275    6407.2149   -572.60548    482.54438     174.0336   -4271.6214 
41953000    53.482928   -5138.5101   -5035.3637   -5138.5101            0    6629.2106      19.7841    19.730873    20.335108    7937.9637    6037.1289    7073.2536    6777.2493    62.538528    674.34297    157.07023   -4267.9195 
41954000    53.034628   -5137.2093   -5034.9275   -5137.2093            0    6457.3707    19.632522    19.827028    20.363027    7926.4012    6065.0262    6384.9748    6922.1112   -592.19488    72.383012   -219.81344   -4288.4656 
41955000    52.758354    -5137.661   -5035.9121    -5137.661            0    7127.7365    19.688826    19.847657    20.277411    7923.9472    7170.8197    7137.9021    7074.4875    228.60967     838.0135    235.82576    -4212.212 
41956000    53.930305   -5137.3492   -5033.3401   -5137.3492            0    6954.2607    19.682701    19.634636    20.463348    7908.3201    7547.3121    6796.9027    6518.5674    -135.6748    104.55486    196.34799   -4231.2723 
41957000    51.704818   -5131.2297   -5031.5126   -5131.2297            0    6110.9146    19.723832    19.717041    20.412064    7938.1616    6474.1302     5939.431    5919.1826   -338.28156    267.38814    146.75258   -4324.0524 
41958000    57.075663   -5137.5015   -5027.4263   -5137.5015            0    6587.9021    19.682461    19.800435    20.351477    7931.4035    6752.9786    6457.0236    6553.7042      -194.07   -76.201212   -162.54098   -4265.3946 
41959000    54.010614   -5130.2523   -5026.0883   -5130.2523            0    7009.8943    19.638634    19.802415    20.305269    7896.5645    6204.8823     7113.324    7711.4767    47.391137  -0.68913363    405.79916   -4218.8058 
41960000    55.423808   -5128.3694     -5021.48   -5128.3694            0     6887.382      19.6662    19.703432    20.447208     7923.122    6940.6005    7827.3248    5894.2206    211.75903    116.58955     667.6107   -4225.6388 
41961000    54.400632   -5133.6292    -5028.713   -5133.6292            0    6387.6924    19.816599    19.728428    20.343202    7953.1817    5973.3871    6412.3322    6777.3579   -58.551511    104.43681    365.44529   -4287.8109 
41962000    53.704882   -5129.5624    -5025.988   -5129.5624            0    7324.0242    19.634453    19.683461    20.460414    7907.4178    7445.3224    7446.7896    7079.9606     346.4474    474.86378    563.07173     -4181.37 
41963000    55.475297   -5127.9944   -5021.0056   -5127.9944            0    6750.6003    19.618642    19.879663    20.255541     7899.904    6659.5293    6427.8504    7164.4212   -507.13728     98.95586    349.50287   -4243.2554 
41964000     56.22581   -5130.6308   -5022.1946   -5130.6308            0    7859.8099     19.64768    19.759875    20.282522    7874.3994    8951.4169    6172.0529      8455.96   -233.77811    906.12903    61.470056   -4119.5737 
41965000    54.020046   -5147.7981   -5043.6159   -5147.7981            0     6380.869    19.729133    19.782611    20.408103     7965.155    7652.7279    5670.8543    5819.0249   -162.03521    311.37069    530.09823   -4302.3911 
41966000    53.550296   -5133.1293    -5029.853   -5133.1293            0    7796.5015    19.663998    19.681038    20.379219    7886.9186    8392.1326     7403.786     7593.586    -355.5633    316.63445    880.00251    -4133.079 
41967000    51.243024    -5135.314   -5036.4876    -5135.314            0    6863.0779    19.680505    19.770864    20.361278    7922.5856    6776.6152    6978.0689    6834.5498    1.0468023    477.39541    437.57193   -4243.5084 
41968000    56.862101   -5133.3747   -5023.7114   -5133.3747            0    7297.1892    19.823619     19.66697    20.312468    7919.2326    6934.4972    7576.2156    7380.8549    332.23178    776.95839   -187.38962   -4180.9307 
41969000    52.281532   -5128.7399   -5027.9106   -5128.7399            0     6821.984    19.811627    19.769048    20.282895    7943.9381    6417.2116     6633.004    7415.7363   -156.66194     485.2152     113.1798   -4237.5551 
41970000    54.243201   -5136.7844   -5032.1719   -5136.7844            0    7611.7513    19.502895    19.748936    20.496966    7894.6404    7918.3625    7497.0665    7419.8247    -56.36934    558.21092    61.303115   -4155.7911 
41971000    53.387734   -5133.8944   -5030.9317   -5133.8944            0    7022.1543    19.690194    19.749466     20.39604    7931.4244     8217.788    6374.8373    6473.8376    122.72847    -180.9332    33.469208   -4218.6672 
41972000    53.832995   -5139.5699   -5035.7484   -5139.5699            0    7003.3476     19.77301    19.655136    20.440189    7943.8997     6719.391    7416.2392    6874.4126    218.08677    626.39174   -170.44931   -4224.3852 
41973000    51.544915   -5137.8193   -5038.4106   -5137.8193            0    5877.7266    19.762357    19.751773    20.400508    7963.1664    6079.0617    5261.9893     6292.129   -160.66355    87.597782    168.55392   -4355.8031 
41974000    54.778399   -5132.0343   -5026.3895   -5132.0343            0    6850.6849    19.753226    19.647621    20.368172    7904.9673    6571.6435    6929.6612      7050.75   -29.975959   -368.07965   -148.31452   -4236.6026 
41975000    51.751772   -5134.5472   -5034.7395   -5134.5472            0    6609.8711    19.657743    19.764713    20.423269    7935.0455    5915.5773    7196.6918    6717.3442   -102.29975   -18.435066     552.0032   -4269.8155 
41976000    53.664511   -5131.9714   -5028.4749   -5131.9714            0    6907.8079    19.712072    19.746651    20.338113    7916.5579    6052.4699    7721.0737    6949.8801   -179.24408    297.42102    645.27229   -4230.9348 
41977000    55.937835   -5125.6639   -5017.7831   -5125.6639            0    6590.9062    19.654877    19.772714    20.450957    7947.8607    6832.2519    6251.9664    6688.5003    -236.8947    588.64545    574.97375   -4253.8219 
41978000    53.695894   -5126.2152   -5022.6582   -5126.2152            0    6798.9821    19.666785    19.657746    20.465197    7911.9407    7172.4917    6574.6843    6649.7705    -238.1039    613.80289    -229.9333   -4238.1403 
41979000    56.212608   -5135.4606   -5027.0498   -5135.4606            0    6266.5739    19.736423    19.788381    20.334564    7941.7015    6410.1232    5752.0252    6637.5733   -54.173423    8.1885268     29.40239   -4301.2454 
41980000    58.646548   -5130.8752   -5017.7704   -5130.8752            0    7222.5905    19.721584    19.690903     20.31251    7888.0744    6215.9394    8486.8446    6964.9875   -358.68933     245.9047   -98.939294   -4186.8874 
41981000    53.402123   -5131.8008   -5028.8103   -5131.8008            0    6461.0942    19.760114    19.789451    20.399597    7977.0954     6109.806    7400.9943    5872.4823   -190.07054   -114.76487   -369.76311   -4277.1411 
41982000      53.8778   -5131.3758   -5027.4679   -5131.3758            0    7240.9649    19.614523    19.774457    20.429426    7923.8911    7613.6166    7332.8957    6776.3826    96.045757     552.8132    147.81131   -4190.6888 
41983000    56.018826   -5143.5307   -5035.4937   -5143.5307            0    6565.5061    19.719505    19.784523    20.376296    7949.6288    7101.6756    5829.7898     6765.053    8.5449342   -486.09687    379.55257   -4274.3074 
41984000    56.098282   -5135.1625   -5026.9722   -5135.1625            0    7181.2197     19.73888    19.745075    20.354041    7932.8993    6272.9417    7618.3568    7652.3607   -207.21001    -84.72369    318.31113   -4196.1539 
41985000    52.806655    -5139.242      -5037.4    -5139.242            0    6118.8968    19.809783    19.741096    20.337539    7953.3371    5786.5942    5981.0811    6589.0152   -406.51178   -149.39748    157.97862   -4327.6614 
41986000    51.452108    -5132.427   -5033.1973    -5132.427            0    6807.1863    19.765684    19.776316    20.254527    7917.3412    6411.0473    6712.1664    7298.3451    97.004387    427.23092     423.4913   -4247.1966 
41987000    52.751402   -5131.8312   -5030.0957   -5131.8312            0    6550.4946    19.734532    19.729531    20.386769    7937.6508    6979.1069    6544.8852    6127.4917    52.882944   -5.2527839   -642.95324   -4271.7941 
41988000    51.484447   -5122.2094   -5022.9173   -5122.2094            0     6453.695    19.634983    19.799716     20.33874    7907.0328    5923.4243    7327.4367    6110.2242    245.81234    503.00754   -181.74907   -4278.7032 
41989000    52.603656   -5134.0672   -5032.6166   -5134.0672            0    6258.9706    19.633421    19.807727    20.497279     7971.257    6906.7906    6177.0379    5693.0833   -259.61023   -133.51941   -412.57138   -4304.9949 
41990000    53.993012   -5132.5748   -5028.4447   -5132.5748            0    7088.7959    19.694756    19.777368    20.365242    7932.4743    7353.0875    6660.9213    7252.3791    107.40263    253.70519   -5.0702592   -4208.3632 
41991000    51.355505   -5132.9961   -5033.9527   -5132.9961            0     6956.669    19.720762    19.786377    20.339072    7936.3552    7475.3064    6211.0025     7183.698   -196.79358   -526.76863   -439.74789   -4228.7628 
41992000    56.007227    -5136.796   -5028.7813    -5136.796            0    7559.1381    19.734787    19.757096    20.281571    7907.8268    8157.9786    6881.2254    7638.2105    -36.57434    388.56921    950.83549   -4157.0045 
41993000    56.393791   -5131.5996   -5022.8394   -5131.5996            0    7230.7374     19.72445    19.723745    20.321998    7906.0709    6842.4315     7398.816    7450.9647    64.231015   -304.73037   -213.03423   -4189.1214 
41994000    54.321429   -5130.4884    -5025.725   -5130.4884            0    6828.3312    19.595921    19.785634    20.457284    7931.6517     6581.944    6992.6156     6910.434   -317.22932     60.96385     406.7473   -4235.8577 
41995000    55.196397   -5133.1386   -5026.6877   -5133.1386            0    6280.5547    19.679065    19.834266    20.424733    7972.1783    7006.6973    6204.4585    5630.5082    352.52934    350.82024    386.62258   -4296.4725 
41996000     54.82549   -5132.6518   -5026.9162   -5132.6518            0    7143.0343    19.774854    19.688104    20.371637    7931.2768    7627.6825    6538.3716    7263.0487   -288.92514    160.69169     500.2597   -4200.6848 
41997000    52.835065   -5133.6195   -5031.7226   -5133.6195            0    6339.7042    19.705757    19.731712    20.437835    7946.8093    6192.8008    6345.4933    6480.8185   -105.97639    139.67737   -371.59256   -4296.9759 
41998000    53.176779   -5127.4996   -5024.9437   -5127.4996            0    6605.6129    19.737419    19.784259    20.324749    7936.6153    7017.5934    6599.5967    6199.6487    32.870479    59.783287   -22.968197   -4260.3613 
41999000    53.262404   -5141.0883   -5038.3673   -5141.0883            0    6145.1655     19.76537    19.728837    20.465075    7980.3103    5583.7166    6902.0597    5949.7203    60.989704    668.92914   -510.39904   -4323.1644 
42000000    54.901853   -5129.5834   -5023.7005   -5129.5834            0    5836.2269    19.684065    19.847141    20.344948      7948.21    5871.7189    5412.8199    6224.1419   -123.62188      407.992   -141.45382   -4347.1856 
Loop time of 358.488 on 64 procs for 250000 steps with 972 atoms

Performance: 120.506 ns/day, 0.199 hours/ns, 697.373 timesteps/s
193.6% CPU use with 32 MPI tasks x 2 OpenMP threads

MPI task timing breakdown:
Section |  min time  |  avg time  |  max time  |%varavg| %total
---------------------------------------------------------------
Pair    | 28.324     | 35.474     | 41.882     |  67.8 |  9.90
Bond    | 0.91426    | 1.1987     | 1.4775     |  13.1 |  0.33
Kspace  | 155.44     | 163.71     | 177.81     |  40.1 | 45.67
Neigh   | 0.090445   | 0.097357   | 0.11195    |   2.2 |  0.03
Comm    | 60.465     | 67.963     | 72.175     |  38.9 | 18.96
Output  | 0.4617     | 0.46196    | 0.46331    |   0.0 |  0.13
Modify  | 71.699     | 73.434     | 74.955     |  11.2 | 20.48
Other   |            | 16.15      |            |       |  4.50

Nlocal:        30.3750 ave          38 max          26 min
Histogram: 5 7 3 4 3 5 1 1 0 3
Nghost:        2713.16 ave        2745 max        2681 min
Histogram: 2 3 5 2 4 3 6 2 3 2
Neighs:        9887.81 ave       13331 max        7879 min
Histogram: 5 4 5 4 6 2 4 0 1 1

Total # of neighbors = 316410
Ave neighs/atom = 325.52469
Ave special neighs/atom = 2.0000000
Neighbor list builds = 266
Dangerous builds = 0

unfix		3
unfix		2
unfix		1

write_data	data.final.${pid}
write_data	data.final.1
System init for write_data ...
PPPM initialization ...
  extracting TIP4P info from pair style
  using 12-bit tables for long-range coulomb (../kspace.cpp:340)
  G vector (1/distance) = 0.37248816
  grid = 24 24 24
  stencil order = 5
  estimated absolute RMS force accuracy = 0.0034707217
  estimated relative force accuracy = 1.0451975e-05
  using double precision FFTW3
  3d grid and FFT values/proc = 3211 432
Last active /omp style is kspace_style pppm/tip4p/omp
WARNING: Not all mixed pair coeffs generated from mixing. Use write_data with 'pair ij' option to store all pair coeffs. (../write_data.cpp:312)

write_restart   restart.lmp.${pid}
write_restart   restart.lmp.1
System init for write_restart ...
PPPM initialization ...
  extracting TIP4P info from pair style
  using 12-bit tables for long-range coulomb (../kspace.cpp:340)
  G vector (1/distance) = 0.37248816
  grid = 24 24 24
  stencil order = 5
  estimated absolute RMS force accuracy = 0.0034707217
  estimated relative force accuracy = 1.0451975e-05
  using double precision FFTW3
  3d grid and FFT values/proc = 3211 432
Last active /omp style is kspace_style pppm/tip4p/omp
Total wall time: 0:05:58
