LAMMPS (30 Jul 2021)
Processor partition = 1
  using 2 OpenMP thread(s) per MPI task
using multi-threaded neighbor list subroutines
variable        pid world 0 1
variable        phase world IceIII Liquid

shell cd ${phase}
shell cd Liquid
include Restart.lmp
echo both
log log.lammps
#include		in.partitions
include		in.temp
variable        temperature equal 260.59
variable	tempDamp equal 100.0
include		in.pressure
variable        pressure equal 2875.0
variable        pressureDamp equal 1000.0 # This is 1 ps
include		in.seed
variable        seed equal 745823

units		real
atom_style	full
read_restart	restart.lmp.${pid}
read_restart	restart.lmp.1
Reading restart file ...
  restart file = 30 Jul 2021, LAMMPS = 30 Jul 2021
  restoring atom style full from restart
  orthogonal box = (0.30962582 1.4562296 0.37774278) to (17.897947 22.172948 21.835453)
  2 by 4 by 4 MPI processor grid
  restoring pair style lj/cut/tip4p/long/omp from restart
  restoring bond style harmonic/omp from restart
  restoring angle style harmonic/omp from restart
  864 atoms
  576 bonds
  288 angles
Finding 1-2 1-3 1-4 neighbors ...
  special bond factors lj:    0        0        0       
  special bond factors coul:  0        0        0       
     2 = max # of 1-2 neighbors
     1 = max # of 1-3 neighbors
     1 = max # of 1-4 neighbors
     2 = max # of special neighbors
  special bonds CPU = 0.002 seconds
  read_restart CPU = 0.008 seconds
include 	in.setup
variable	out_freq equal 1000
variable	out_freq2 equal 10000
variable	out_freq3 equal 1000

timestep	2.0

neigh_modify    delay 7 every 1

include		in.tip4p
# This is TIP4P/Ice

# create groups ###
group ox type 2
288 atoms in group ox
group hy type 1
576 atoms in group hy

# set charges - beside manually ###
set group ox charge -1.1794
Setting atom values ...
  288 settings made for charge
set group hy charge 0.5897
Setting atom values ...
  576 settings made for charge

# ### TIP3P Potential Parameters ###
pair_style lj/cut/tip4p/long/omp 2 1 1 1 0.1577 8.5
pair_coeff 1 1*2 0.000 0.000
pair_coeff 2 2 0.21084 3.1668
bond_style  harmonic
bond_coeff  1 450 0.9572
angle_style harmonic
angle_coeff 1 55 104.52
kspace_style pppm/tip4p/omp 1.0e-5
pair_modify tail yes

thermo          ${out_freq}
thermo          1000
thermo_style    custom step temp pe etotal epair emol press lx ly lz vol pxx pyy pzz pxy pxz pyz enthalpy

restart 	${out_freq3} restart.lmp.${pid} restart2.lmp.${pid}
restart 	1000 restart.lmp.${pid} restart2.lmp.${pid}
restart 	1000 restart.lmp.1 restart2.lmp.${pid}
restart 	1000 restart.lmp.1 restart2.lmp.1


include         in.dump
dump            myDump all atom ${out_freq2} dump.water.${pid}
dump            myDump all atom 10000 dump.water.${pid}
dump            myDump all atom 10000 dump.water.1
dump            myDump2 all dcd ${out_freq2} dump.dcd
dump            myDump2 all dcd 10000 dump.dcd
dump_modify     myDump append yes
dump_modify     myDump2 append yes


variable natoms 	equal  "count(all)"                        # NUMBER ATOMS
variable H      	equal  "enthalpy/v_natoms"                 # ENTHALPY-per-atom
variable Vol      	equal  "vol/v_natoms"                 # volume-per-atom
fix AVG all 		ave/time ${out_freq} 1 ${out_freq} v_Vol v_H file vol_enthalpy.dat
fix AVG all 		ave/time 1000 1 ${out_freq} v_Vol v_H file vol_enthalpy.dat
fix AVG all 		ave/time 1000 1 1000 v_Vol v_H file vol_enthalpy.dat


timer           timeout 23:50:00 every 1000
New timer settings: style=normal  mode=nosync  timeout=23:50:00

fix 		1 all shake 1e-6 200 0 b 1 a 1
Finding SHAKE clusters ...
       0 = # of size 2 clusters
       0 = # of size 3 clusters
       0 = # of size 4 clusters
     288 = # of frozen angles
  find clusters CPU = 0.001 seconds
fix             2 all nph iso ${pressure} ${pressure} ${pressureDamp}
fix             2 all nph iso 2875 ${pressure} ${pressureDamp}
fix             2 all nph iso 2875 2875 ${pressureDamp}
fix             2 all nph iso 2875 2875 1000
fix             3 all temp/csvr ${temperature} ${temperature} ${tempDamp} ${seed}
fix             3 all temp/csvr 260.59 ${temperature} ${tempDamp} ${seed}
fix             3 all temp/csvr 260.59 260.59 ${tempDamp} ${seed}
fix             3 all temp/csvr 260.59 260.59 100 ${seed}
fix             3 all temp/csvr 260.59 260.59 100 745823

run             250000
PPPM initialization ...
  extracting TIP4P info from pair style
  using 12-bit tables for long-range coulomb (../kspace.cpp:340)
  G vector (1/distance) = 0.37289515
  grid = 24 24 25
  stencil order = 5
  estimated absolute RMS force accuracy = 0.0032268627
  estimated relative force accuracy = 9.7176013e-06
  using double precision FFTW3
  3d grid and FFT values/proc = 3822 576
Last active /omp style is kspace_style pppm/tip4p/omp
Neighbor list info ...
  update every 1 steps, delay 7 steps, check yes
  max neighbors/atom: 2000, page size: 100000
  master list distance cutoff = 10.8154
  ghost atom cutoff = 10.8154
  binsize = 5.4077, bins = 4 4 4
  1 neighbor lists, perpetual/occasional/extra = 1 0 0
  (1) pair lj/cut/tip4p/long/omp, perpetual
      attributes: half, newton on, omp
      pair build: half/bin/newton/omp
      stencil: half/bin/3d
      bin: standard
Setting up Verlet run ...
  Unit style    : real
  Current step  : 3750000
  Time step     : 2
  Walltime left : 23:49:59.94
Per MPI rank memory allocation (min/avg/max) = 10.20 | 10.20 | 10.21 Mbytes
Step Temp PotEng TotEng E_pair E_mol Press Lx Ly Lz Volume Pxx Pyy Pzz Pxy Pxz Pyz Enthalpy 
 3750000    254.22081    -3798.728   -3363.0022    -3798.728            0    833.61399    17.588321    20.716719     21.45771    7818.5951    860.15414    722.76885    917.91898    177.45329   -74.227994   -249.58501   -3267.9484 
 3751000    277.76977   -3871.4083   -3395.3204   -3871.4083            0    4664.6625     17.51361     20.62872    21.366564    7719.3839     4238.996    5764.4743    3990.5171    170.61824   -521.73167   -1018.1416    -2870.176 
 3752000    278.85637   -3889.1227   -3411.1724   -3889.1227            0    1514.0457    17.704509    20.853573     21.59946    7974.5696    697.79128    2152.0159    1692.3299   -979.87246   -1351.1428   -386.03037   -3235.0875 
 3753000    257.81894   -3858.2712   -3416.3784   -3858.2712            0    3155.7888    17.555426    20.677973    21.417579    7774.8088    1738.4586    3958.3777    3770.5302    1203.4806   -790.07448    658.73225    -3058.551 
 3754000    242.06012   -3872.0819   -3457.1992   -3872.0819            0    1586.5883    17.494919    20.606704    21.343761    7694.6954    1795.8803    2700.0361    263.84851   -626.02952    892.37374     -587.067   -3279.1534 
 3755000    271.21094   -3863.5453   -3398.6991   -3863.5453            0    1487.7996    17.504094     20.61751    21.354953     7706.807    1843.0636    714.57532    1905.7598    649.79857      55.0608   -301.03945   -3231.4765 
 3756000    267.64657   -3872.5449   -3413.8079   -3872.5449            0    1229.7049    17.607283    20.739053    21.480844    7843.9098    1827.6362     1678.763    182.71551   -889.92431    -684.4679    1515.1854   -3273.1353 
 3757000    269.30926    -3889.675   -3428.0882    -3889.675            0    2810.9697    17.573009    20.698683     21.43903    7798.1928    4386.4737    948.90844    3097.5269   -295.00879   -879.44731   -352.04234   -3108.4004 
 3758000    273.87684    -3866.954   -3397.5385    -3866.954            0    3112.1512    17.576873    20.703235    21.443744    7803.3382    2274.7085    3927.1077    3134.6374    29.454114   -1358.8832   -672.95129   -3043.3642 
 3759000    278.60806   -3866.1421   -3388.6175   -3866.1421            0    3258.0613    17.593483    20.722799    21.464009    7825.4819    3553.3644    4039.0054     2181.814    1221.0213   -713.73386   -165.58641   -3016.7859 
 3760000    261.88967   -3864.7934   -3415.9234   -3864.7934            0    1472.1292    17.637685    20.774863    21.517934     7884.612   -1313.7858    4589.5127    1140.6607    196.14051    558.66533   -895.38553   -3246.6448 
 3761000    264.49201   -3889.5364   -3436.2062   -3889.5364            0    2392.0484    17.594692    20.724223    21.465483    7827.0949    1901.5506    1779.4017     3495.193   -2041.8815    185.91414   -1978.3466   -3163.1535 
 3762000    263.28257   -3846.3582   -3395.1009   -3846.3582            0    1256.3254    17.552678    20.674736    21.414226    7771.1575    874.50559    290.98076    2603.4899    7.2627076   -1084.5707    2.5188056   -3252.7161 
 3763000    253.56578   -3837.4853   -3402.8822   -3837.4853            0    2519.1993    17.669383    20.812199    21.556606    7927.1984    2057.1605    3623.2648    1877.1727   -280.64556   -713.52545   -317.86854   -3111.6374 
 3764000    258.05727   -3896.8849   -3454.5836   -3896.8849            0    2604.6883     17.59911    20.729427    21.470873    7832.9921    3524.5594     3055.805    1233.7007   -180.64753    465.82062   -746.18634    -3157.034 
 3765000    267.82429   -3884.9629   -3425.9212   -3884.9629            0    2019.0867    17.608761    20.740795    21.482647    7845.8861    3371.5142    1081.8335    1603.9123    679.40933    526.11126    186.34861   -3194.8889 
 3766000    267.80657   -3875.8593    -3416.848   -3875.8593            0    2047.0588    17.590588    20.719389    21.460476    7821.6187    1179.8541    2635.8893     2325.433   -526.50169   -1673.7353     -463.774   -3183.3394 
 3767000    271.20604   -3870.9891   -3406.1512   -3870.9891            0     4263.974    17.500798    20.613628    21.350932    7702.4541    2826.6841    5860.4756    4104.7624    98.179143   -114.77067   -495.24152   -2927.1688 
 3768000    249.75376   -3897.6207   -3469.5513   -3897.6207            0    2082.4448    17.567571    20.692279    21.432396    7790.9565    2603.9437    666.12838    2977.2623    337.85141    -556.9098    502.58985   -3232.9374 
 3769000    253.05991   -3864.1454   -3430.4093   -3864.1454            0    3822.7025    17.555894    20.678524    21.418149    7775.4302    2237.3439    4860.5362    4370.2275   -199.72405   -488.46476    401.26484   -2996.9276 
 3770000    259.43018   -3881.3376   -3436.6832   -3881.3376            0     1672.853    17.659597    20.800673    21.544668    7914.0354    872.92252    2484.7783    1660.8583   -3.4225647   -426.14955   -211.00506   -3243.6057 
 3771000    258.51291   -3897.9103    -3454.828   -3897.9103            0     3118.469    17.628527    20.764077    21.506762    7872.3372    3862.0295    2312.5433    3180.8342    986.10185   -489.98083    -264.0123   -3096.7967 
 3772000    265.81405    -3850.565   -3394.9688    -3850.565            0    4457.9095    17.504493     20.61798     21.35544    7707.3342    3544.3387    4187.7299      5641.66    306.03769     174.4103    1304.6765   -2893.8839 
 3773000    261.48633    -3914.179   -3466.0004    -3914.179            0    4095.1367     17.63985    20.777413    21.520576     7887.516    4220.2055    4752.2884    3312.9162    347.61033    193.41915   -1286.8071   -2994.9314 
 3774000    270.17303   -3847.6933    -3384.626   -3847.6933            0     2615.512    17.648657    20.787787     21.53132    7899.3357    1630.6272    2340.5887    3875.3202   -1180.1397    205.96513    437.27259   -3083.3093 
 3775000    260.94864   -3856.0759   -3408.8188   -3856.0759            0     1989.113    17.554231    20.676566    21.416121    7773.2212    2559.8439    944.14936    2463.3459    1499.0824    323.62248    609.05245   -3183.3241 
 3776000    266.71806   -3828.8789   -3371.7332   -3828.8789            0    3372.4317    17.559542    20.682821      21.4226    7780.2781    3722.7477    3892.6836    2501.8637    1274.9422    1205.1171   -1984.6006   -2989.0722 
 3777000    260.69131   -3829.2408   -3382.4248   -3829.2408            0     3852.281    17.489703     20.60056    21.337397    7687.8148    3850.3163    5938.6543    1767.8723    469.96044   -1072.4254   -786.05575   -2950.5114 
 3778000    258.67702   -3890.2702   -3446.9067   -3890.2702            0     2592.971    17.543266    20.663651    21.402744    7758.6643    1941.3207    4006.2435    1831.3488   -601.95966     370.8176    23.539249   -3153.5064 
 3779000    254.47125   -3880.8765   -3444.7215   -3880.8765            0    2722.7562    17.494697    20.606442    21.343489    7694.4018    2951.1357    1591.7583    3625.3747   -117.73549     544.5189    657.33264   -3139.1875 
 3780000     271.5961   -3851.9649   -3386.4585   -3851.9649            0    3581.6801    17.576889    20.703253    21.443763    7803.3592     3272.982    4805.7773    2666.2809    269.96872   -929.72379    169.57472    -2978.849 
 3781000    272.08769   -3855.5335   -3389.1845   -3855.5335            0     3961.284    17.484908    20.594911    21.331546    7681.4924    3759.7981      2616.74    5507.3139   -1154.2003    337.69315    1467.8226    -2945.415 
 3782000    263.69455   -3851.5478   -3399.5844   -3851.5478            0    4548.4304    17.498272    20.610653    21.347851    7699.1193    4245.8489     3838.886    5560.5564   -125.61477   -1652.3013    519.90549   -2888.8695 
 3783000    264.96009   -3867.8921   -3413.7596   -3867.8921            0    3775.4452    17.573008    20.698682    21.439028    7798.1913    7443.0926    1751.6331    2131.6099    992.98795   -298.75466   -6.8355536   -2984.3834 
 3784000     244.6081   -3867.2543   -3448.0044   -3867.2543            0    4012.3692    17.512094    20.626933    21.364713    7717.3787    3377.5368    3233.1932    5426.3775     900.3363   -556.80976    8.9000498    -2996.412 
 3785000    241.95998   -3873.8309   -3459.1198   -3873.8309            0    2247.8746    17.623364    20.757995    21.500462    7865.4214     2746.798    1158.3097     2838.516    681.91782   -1111.5949   -60.617243   -3201.2681 
 3786000    268.00929   -3871.8541   -3412.4953   -3871.8541            0    3029.4534     17.56767    20.692395    21.432516    7791.0873     3074.447    2614.4818    3399.4313    437.85246    482.22145    732.30175   -3068.2737 
 3787000    258.19217    -3854.158   -3411.6254    -3854.158            0    4332.8046    17.565318    20.689624    21.429647    7787.9585     3763.021    6058.1069     3177.286   -1007.8424    2047.1345    241.05206   -2919.5081 
 3788000    260.84673   -3863.3615   -3416.2791   -3863.3615            0    4046.5035     17.56119    20.684762    21.424611    7782.4695    4408.4154    3067.3832    4663.7119   -192.30848    317.47259     223.1848   -2957.0036 
 3789000    268.58897   -3870.5671   -3410.2148   -3870.5671            0    1484.4598    17.550823    20.672551    21.411963    7768.6944    1163.7896    1025.0922    2264.4976    -776.8164   -722.08501    425.98896   -3242.0278 
 3790000    263.27162   -3867.6578   -3416.4192   -3867.6578            0    399.00969    17.555641    20.678226    21.417841    7775.0939    1050.1358   -128.39775    275.29101   -1214.5551    297.85512    882.69014   -3371.1748 
 3791000    248.99224   -3839.9456   -3413.1814   -3839.9456            0    3171.8911    17.459983    20.565554    21.301139      7648.69    3412.6229    2007.9461    4095.1044    326.00434    343.06009    1257.0771   -3059.3623 
 3792000    253.11456   -3864.0823   -3430.2526   -3864.0823            0     2237.317    17.497822    20.610123    21.347301    7698.5253    3194.6807    1442.1685    2075.1018    559.03938    -444.5109    45.804086   -3179.0576 
 3793000    263.51936   -3825.0324   -3373.3692   -3825.0324            0    3533.6407    17.472375    20.580149    21.316256    7664.9865    3986.2777    3487.9407    3126.7038    -1434.704   -219.53761    180.23857   -2978.3578 
 3794000    258.20825   -3848.9655   -3406.4054   -3848.9655            0    4751.1169    17.379842    20.471158    21.203366    7543.8498    3752.1615     6416.146     4085.043   -253.91305     -730.858    1277.1552   -2883.6908 
 3795000    246.58705   -3891.4367   -3468.7949   -3891.4367            0    3353.5494    17.438161     20.53985    21.274515    7620.0465    4394.4087    2156.6502    3509.5895     125.5476    310.40466    679.37695   -3096.1131 
 3796000    278.58277   -3899.9569   -3422.4756   -3899.9569            0    4809.1559    17.444086    20.546829    21.281744    7627.8167    3717.2492    6147.6854     4562.533    108.81269   -410.71427     244.2214   -2887.4864 
 3797000    254.41718   -3882.5216   -3446.4592   -3882.5216            0    3342.2093     17.55777    20.680734    21.420438    7777.9232    3948.7195    4273.9308    1803.9777    1343.4948    183.37869    -613.7974   -3067.3423 
 3798000    257.59805   -3847.9762    -3406.462   -3847.9762            0    3844.0026    17.518116    20.634027    21.372061    7725.3437    3050.8469    4800.3248    3680.8361   -630.35568   -559.91239    470.42085   -2973.3727 
 3799000    263.18304   -3834.9454   -3383.8586   -3834.9454            0    2236.5731    17.572329    20.697882      21.4382    7797.2873    2611.3621    1661.3884    2436.9688    496.45807   -260.50663   -33.667051   -3129.5258 
 3800000    255.28243   -3862.7748   -3425.2294   -3862.7748            0    4833.0335     17.55248    20.674502    21.413984    7770.8946    4354.0325    4379.4756    5765.5926   -778.11132   -1971.3857   -304.06228   -2877.4992 
 3801000    267.72718   -3851.7698   -3392.8945   -3851.7698            0    1445.7263    17.602525    20.733449    21.475039    7837.5526    1073.2748    2158.4475    1105.4565    220.53325    -387.4205   -510.44569   -3227.6442 
 3802000    252.07045   -3866.7541    -3434.714   -3866.7541            0    3776.7382    17.480562    20.589793    21.326245    7675.7669    2470.0927    5682.5296    3177.5922   -676.07795   -1032.2433   -816.53796   -3011.9339 
 3803000    257.34614   -3859.4035    -3418.321   -3859.4035            0    2620.6986    17.628971    20.764599    21.507303    7872.9316    1543.5495    4615.2233     1703.323    -1157.862    168.99344   -1161.9456    -3117.416 
 3804000    254.69099   -3810.9036    -3374.372   -3810.9036            0    1936.9737    17.552368    20.674372    21.413849    7770.7471    2049.2024    2107.9856    1653.7333    578.72469    1022.7931   -111.99237   -3154.8579 
 3805000    254.32485   -3853.3543   -3417.4502   -3853.3543            0    4166.8094    17.662425    20.804003    21.548117    7917.8371     3824.105     3604.981    5071.3422    284.96611   -605.91284    -179.0463    -2936.294 
 3806000    257.63843   -3814.9735     -3373.39   -3814.9735            0    2703.5979    17.697415    20.845217    21.590804    7964.9868    2926.6244    2143.4181    3040.7511   -263.94264    1023.7034   -166.59976    -3059.337 
 3807000    271.55739   -3882.5627   -3417.1226   -3882.5627            0    2260.9342    17.713553    20.864226    21.610493    7986.7969    1577.7801    3664.2243    1540.7982   -545.12954    241.97714   -705.80684   -3153.7707 
 3808000    264.80504   -3903.5053   -3449.6386   -3903.5053            0    2017.1873    17.765307    20.925185    21.673633    8057.0066    1504.6761    2757.0265    1789.8593   -519.59045   -534.90958     252.1643   -3212.6126 
 3809000    268.11342   -3859.1392    -3399.602   -3859.1392            0    2888.5403    17.684243    20.829703    21.574736    7947.2163    1829.1566     4441.095    2395.3692   -622.31374   -1162.0976   -635.51923   -3064.8144 
 3810000    248.39678   -3877.8057   -3452.0621   -3877.8057            0    2571.4664    17.579932    20.706838    21.447476    7807.4136    3078.1668    2059.4191    2576.8132   -242.12258    1207.8234    115.09052   -3159.2669 
 3811000    255.28214   -3860.4052   -3422.8603   -3860.4052            0    2503.4032    17.644937    20.783405    21.526781    7894.3413    2690.3099    2183.1464    2636.7534   -806.84375   -1489.1761   -953.01834   -3134.6413 
 3812000    257.84484   -3854.8872     -3412.95   -3854.8872            0    1962.1034    17.673487    20.817033    21.561613    7932.7233     3135.606    1573.9594    1176.7448   -497.56705    1719.7094    247.96841    -3185.953 
 3813000     271.1096   -3861.0878   -3396.4152   -3861.0878            0    2575.1966    17.639212    20.776661    21.519797    7886.6595    3517.2707    2273.5457    1934.7734   -525.98626   -384.94122    465.71384   -3100.2191 
 3814000     266.3539   -3861.7528   -3405.2313   -3861.7528            0    2958.3203    17.533146     20.65173    21.390397    7745.2444    3277.8769    3166.7145    2430.3697   -534.93369   -355.34676    950.09586     -3071.07 
 3815000    253.97557   -3891.9067   -3456.6013   -3891.9067            0    3689.2249    17.594002     20.72341    21.464641    7826.1738    3412.1751    4200.9585    3454.5412    -189.0973    443.49023    597.21205   -3035.5253 
 3816000    259.11019   -3829.3108   -3385.2048   -3829.3108            0    2403.4634    17.652194    20.791953    21.535635    7904.0862     2103.845    3499.4296    1607.1157     1418.534    222.00327    75.677399   -3108.1504 
 3817000    248.29556   -3872.5086   -3446.9385   -3872.5086            0    3752.5351    17.556923    20.679736    21.419405     7776.798    4025.8173    3581.2948    3650.4933    1479.5629   -86.040959    794.02805   -3021.3387 
 3818000     269.5416   -3887.4657   -3425.4806   -3887.4657            0    3910.8883    17.505286    20.618915    21.356408     7708.382    3685.6212    4586.2454    3460.7983   -380.01433    722.56678    972.07772    -2985.823 
 3819000    256.32221   -3912.2737   -3472.9462   -3912.2737            0     2472.573    17.474117    20.582201    21.318382    7667.2794    2447.9485    3206.6944    1763.0761    -672.4791   -593.96418    711.09215   -3196.4645 
 3820000    257.03695   -3868.5054   -3427.9529   -3868.5054            0    2341.2769    17.490078    20.601001    21.337854    7688.3084    1309.0504    2630.5015    3084.2788    322.95799    552.34901   -375.64397   -3165.4346 
 3821000    266.17307   -3907.6493   -3451.4377   -3907.6493            0    948.63084    17.551066    20.672837    21.412259    7769.0168    2484.4029    543.69658   -182.20695   -812.17418    351.12479   -296.60059   -3343.9549 
 3822000    276.91694   -3835.7957   -3361.1696   -3835.7957            0    2878.5684     17.52043    20.636752    21.374884    7728.4052    3209.8448    2325.3588    3100.5016   -1500.1918     763.2548   -8.7158755   -3036.7236 
 3823000    258.52811   -3881.1933   -3438.0849   -3881.1933            0    3808.5162    17.430831    20.531216    21.265573    7610.4413    2583.5169    4046.1826    4795.8493   -694.11493   -267.88771    235.62304   -3015.3759 
 3824000    260.61835   -3866.4195   -3419.7286   -3866.4195            0    2519.9334    17.528609    20.646387    21.384863    7739.2341    2157.1419    1636.1117    3766.5466    1624.2312    1083.6946    35.947926   -3135.3067 
 3825000    259.81839   -3851.3363   -3406.0164   -3851.3363            0    4048.9866    17.488572    20.599227    21.336017    7686.3226     3925.216    4885.9639      3335.78   -436.18169   -746.65218    759.35077   -2952.1367 
 3826000    268.84217   -3891.9836   -3431.1974   -3891.9836            0    2840.2687    17.551265    20.673072    21.412502    7769.2815     3862.185    1438.7622    3219.8588   -186.41586    412.45016   -810.72441    -3109.375 
 3827000    258.67147   -3901.5851    -3458.231   -3901.5851            0    2133.3741    17.604567    20.735854     21.47753    7840.2806    1499.9595     3502.257    1397.9059    875.21593   -2091.2056   -825.62213   -3214.2958 
 3828000    267.82588   -3850.8114    -3391.767   -3850.8114            0    4632.8363    17.563897     20.68795    21.427913    7786.0682    6078.1345    3992.0883    3828.2859    151.46098     1236.837    729.32871      -2865.7 
 3829000    253.86295   -3871.7235   -3436.6111   -3871.7235            0    2267.8295    17.628723    20.764308    21.507001       7872.6    3359.9492    2064.4162     1379.123   -784.77157    1446.4375    635.36117    -3176.233 
 3830000    264.30084   -3837.3005   -3384.2979   -3837.3005            0    2926.2784    17.591985    20.721034     21.46218    7823.4823    2480.4407    4756.7774    1541.6173    239.68401     616.5508   -673.52605   -3050.4169 
 3831000      261.172   -3889.9026   -3442.2627   -3889.9026            0    977.86565    17.679955    20.824651    21.569503    7941.4357    583.32088     1829.822    520.45405   -262.82913    1525.2019   -762.92898   -3329.0085 
 3832000    251.21519   -3874.4101   -3443.8359   -3874.4101            0    2442.9967    17.595023    20.724613    21.465887    7827.5363    2999.8271    1618.6752    2710.4879    1103.3483    985.00955   -2092.3998   -3164.9517 
 3833000    250.66992   -3874.1235   -3444.4838   -3874.1235            0    1965.9484     17.63713    20.774209    21.517257    7883.8673    3582.4376    1045.8908     1269.517   -411.86782    854.40364   -1804.4216   -3218.4428 
 3834000    269.56983   -3834.7121   -3372.6786   -3834.7121            0    2596.1094    17.598213     20.72837    21.469779    7831.7946    2555.9619    2479.5379    2752.8284   -961.88299    1187.9893    501.88629   -3076.1544 
 3835000    256.23502   -3866.7523   -3427.5743   -3866.7523            0    2672.7122    17.663862    20.805696     21.54987    7919.7698    1472.7296    4732.3842    1813.0227    1417.7852    1737.3765    1740.4829   -3118.8714 
 3836000    254.78386   -3861.6096   -3424.9187   -3861.6096            0    2081.8704     17.58482    20.712595    21.453439    7813.9274    2093.0785    488.86763    3663.6651    860.85677    68.504636    1542.2796   -3187.6727 
 3837000    253.21413   -3884.5761   -3450.5758   -3884.5761            0    2227.8838    17.508348    20.622521    21.360143    7712.4274    2320.4857    3201.3199    1161.8457   -901.46138    448.57305    948.69548   -3199.9882 
 3838000    269.79366   -3861.1896   -3398.7725   -3861.1896            0    3434.5733    17.535478    20.654477    21.393243    7748.3358    3500.8399    3013.8916    3788.9885    108.32786     1784.229     981.8059   -3010.6604 
 3839000    247.75576   -3897.6882   -3473.0433   -3897.6882            0     2118.878    17.558357    20.681426    21.421155    7778.7039    2188.7803    982.01216    3185.8415   -187.92156    1556.1154   -363.47174   -3232.6684 
 3840000    251.30474   -3881.3177   -3450.5899   -3881.3177            0     3001.344    17.578699    20.705385    21.445972    7805.7705    4436.2529    2920.1922    1647.5868    851.90233    755.39394   -447.68934   -3108.9195 
 3841000    250.07868   -3908.2783    -3479.652   -3908.2783            0    3273.7674    17.557789    20.680756    21.420461    7777.9481    4002.7781    2696.0766    3122.4473    991.19735   -312.29377    540.39314   -3108.2974 
 3842000    267.66485   -3885.4269   -3426.6585   -3885.4269            0    4279.5212    17.592703    20.721881    21.463057    7824.4411    5415.5018    3513.5707     3909.491   0.32101174   -170.08753   -317.71812   -2938.3162 
 3843000    253.25519   -3887.9701   -3453.8994   -3887.9701            0    2491.3261    17.535905     20.65498    21.393764    7748.9021    1361.5327    3358.2041    2754.2414   -431.80384     -513.557     911.0802   -3172.3552 
 3844000    259.21098   -3894.8718   -3450.5931   -3894.8718            0    2200.2007    17.532643    20.651138    21.389784    7744.5786    2541.8282    2051.1884    2007.5855    57.998499    281.18366    1541.9898   -3202.0876 
 3845000    263.31069   -3916.6791   -3465.3736   -3916.6791            0    3433.7981    17.525846    20.643132    21.381491    7735.5745    4047.4485    2832.4488    3421.4969   -20.158639    215.58853   -1905.8719   -3077.9882 
 3846000    255.51045   -3856.7408   -3418.8047   -3856.7408            0    3425.6587    17.525389    20.642594    21.380934    7734.9698    1878.0435    5901.7605    2497.1722    89.339009    548.09796   -252.75472   -3032.3678 
 3847000    254.47544   -3844.3052    -3408.143   -3844.3052            0    3790.3345    17.463785    20.570032    21.305777    7653.6869    3632.7917    4491.2584    3246.9534    1199.4185    978.99363    510.84416   -2985.0614 
 3848000    257.61255   -3913.5331    -3471.994   -3913.5331            0    2506.7073    17.482143    20.591655    21.328173    7677.8491    3280.6669    3661.8524    577.60253   -1180.6337    530.43014   -989.49521   -3191.3091 
 3849000    251.05205   -3860.8161   -3430.5215   -3860.8161            0    1742.7104    17.481564    20.590973    21.327467    7677.0867    282.13071    1812.1847    3133.8159    473.37415     1326.491    913.25419   -3235.4034 
 3850000    250.75036   -3865.6268   -3435.8492   -3865.6268            0    4681.1924    17.539692    20.659441    21.398384    7753.9234    4223.6071     4524.292    5295.6779     94.27565    893.39669    820.83709   -2906.4859 
 3851000     262.8008   -3911.5364   -3461.1049   -3911.5364            0    5235.1158    17.472635    20.580456    21.316574    7665.3289    4739.5403    6124.4145    4841.3927    582.15828   -412.10963    235.00547   -2875.8662 
 3852000    275.94909   -3884.8912    -3411.924   -3884.8912            0    3299.7052    17.543514    20.663942    21.403046    7758.9923     2264.026    5583.6635    2051.4261   -192.98067   -1089.8327   -14.094481   -3038.5394 
 3853000     256.6683   -3862.2675   -3422.3469   -3862.2675            0    1327.8406    17.663879    20.805716    21.549891    7919.7929    75.932491    1921.6868    1985.9026   -3.2091145   -924.28056    1340.7638   -3268.9785 
 3854000    256.18429   -3878.5693   -3439.4782   -3878.5693            0    194.47547     17.63835    20.775647    21.518746    7885.5046   -302.07737    176.92408    708.57971    255.96392   -255.19889    1106.0014   -3417.1131 
 3855000     271.6461   -3854.0525   -3388.4603   -3854.0525            0    2724.9121    17.601009    20.731664     21.47319    7835.5283    2301.1303    2149.1179     3724.488   -534.36144   -207.70778   -870.42897   -3077.0761 
 3856000     247.2681   -3893.3962   -3469.5871   -3893.3962            0     1845.018    17.652681    20.792526    21.536229      7904.74    2883.7535    399.70231    2251.5981    731.11016    149.41384    814.09692   -3256.8888 
 3857000    262.51693   -3931.1915   -3481.2465   -3931.1915            0     3148.176    17.511166     20.62584    21.363581    7716.1519    2655.7468    1582.8246    5205.9567   -81.002464    218.16212   -694.93052   -3126.9754 
 3858000    251.57613   -3871.1863   -3439.9934   -3871.1863            0    1781.2734    17.669858    20.812759    21.557185    7927.8379    1973.1983    760.50309    2610.1187     20.47837   -428.13651   -2478.1335   -3234.0436 
 3859000    256.57688   -3888.5401   -3448.7761   -3888.5401            0    3260.4791    17.561473    20.685095    21.424956    7782.8454    3802.5014    2999.4258    2979.5099   -1403.5596    876.54376     29.98554    -3078.696 
 3860000     257.7451    -3862.402   -3420.6357    -3862.402            0    4191.2163      17.5593    20.682536    21.422304    7779.9563    5171.9564    4025.6426    3376.0498     348.9729   -923.80833   -355.95155   -2945.0891 
 3861000    263.46677   -3867.5529   -3415.9798   -3867.5529            0    2948.5398    17.636769    20.773785    21.516817    7883.3843    2811.7771    2178.0213    3855.8209    881.47191    343.87456   -22.474775   -3076.9831 
 3862000    271.06892    -3900.806   -3436.2031    -3900.806            0    2651.3326    17.574455    20.700387    21.440794    7800.1184     1558.731    3418.0682    2977.1986    1196.4667    149.39931    1020.9765   -3134.5962 
 3863000    249.59066   -3851.1554   -3423.3656   -3851.1554            0    4050.8604    17.471916    20.579609    21.315696    7664.3826    3760.4101    4544.4544    3847.7168    1431.6032    1026.5819   -19.418198   -2970.5719 
 3864000    270.55512    -3861.675   -3397.9528    -3861.675            0    2668.0748    17.611332    20.743823    21.485784    7849.3233    4041.3417    2952.2003    1010.6824    777.49649   -242.34534   -686.88151   -3092.5267 
 3865000    269.67836   -3884.6894   -3422.4699   -3884.6894            0    3150.9208    17.612843    20.745603    21.487628    7851.3439    2099.1446    3249.2268    4104.3911    1295.1085    164.09195   -1036.0351   -3061.6775 
 3866000     258.2749    -3887.565   -3444.8907    -3887.565            0    3006.0891    17.578984    20.705721     21.44632    7806.1504    2829.8855    3736.6973    2451.6844    522.89531   -361.82806   -582.35471   -3102.6634 
 3867000    257.02412   -3895.0147   -3454.4841   -3895.0147            0    2829.8219    17.585954    20.713931    21.454823    7815.4392     3417.084    2032.0848    3040.2968    221.09256      794.003    1088.6722   -3131.9406 
 3868000    264.97134   -3908.5226   -3454.3708   -3908.5226            0    1705.6901    17.572923    20.698582    21.438924    7798.0779    3354.7089    819.60781    942.75374   -847.86298    679.58754   -522.42097   -3260.3878 
 3869000    250.58427   -3835.1406   -3405.6478   -3835.1406            0    1275.1522    17.532276    20.650706    21.389336     7744.092    1142.5205    1564.4483    1118.4878     -120.193    808.64191   -1270.2911   -3261.6325 
 3870000    248.66821   -3879.0853   -3452.8765   -3879.0853            0    4092.9011    17.473635    20.581634    21.317794    7666.6449    4194.6511    5544.7441    2539.3079   -448.90164   -1416.6784   -530.65466   -2995.2486 
 3871000    269.00997   -3916.2257   -3455.1518   -3916.2257            0    1611.5072    17.611106    20.743556    21.485508    7849.0206      840.469    2542.0508    1452.0017    1273.5979    354.91477    421.73322   -3270.6827 
 3872000    269.27204   -3851.7437   -3390.2207   -3851.7437            0    2521.2981    17.527775    20.645404    21.383845    7738.1292    2249.1717    2576.1267     2738.596    1041.1046    142.96456    1164.9545   -3105.6854 
 3873000     254.0326   -3889.1168   -3453.7137   -3889.1168            0    797.85176    17.585073    20.712893    21.453748    7814.2648   -479.77019    1498.5295     1374.796     505.6525   -45.653954    226.00389   -3362.7881 
 3874000    260.53754   -3846.6364    -3400.084   -3846.6364            0    2666.7376    17.534525    20.653354    21.392079     7747.072    2995.4497    3915.6673    1089.0957    474.85789    250.90536    749.94744   -3098.7877 
 3875000    277.99163   -3871.7719   -3395.3038   -3871.7719            0    1849.3709    17.635523    20.772316    21.515297    7881.7129    2803.3422    1727.3595    1017.4111   -660.04491   -1203.8205   -690.27163   -3182.7247 
 3876000    262.46525   -3879.8928   -3430.0364   -3879.8928            0     923.4601    17.543775     20.66425    21.403365    7759.3398   -560.48023    1351.4568    1979.4037   -273.97453   -247.28276   -487.93841   -3325.5357 
 3877000    261.99144   -3861.4387   -3412.3943   -3861.4387            0    4622.9929    17.445771    20.548813    21.283799    7630.0266    4952.1651    3871.0623    5045.7515    -1911.191    -9.602746    632.97471   -2897.9656 
 3878000    265.16996   -3886.7699   -3432.2776   -3886.7699            0    1921.1547    17.526125     20.64346    21.381832    7735.9438    2719.0337    790.17279    2254.2576   -72.692817    411.24939   -265.02554   -3215.5314 
 3879000    262.62539   -3857.5462   -3407.4153   -3857.5462            0    1605.1891    17.603674    20.734803    21.476442    7839.0885    3408.6549    1110.0225    296.88994    1223.0546   -1542.2851    816.05343   -3223.9019 
 3880000    248.50039   -3879.2896   -3453.3684   -3879.2896            0     2383.719    17.529732    20.647709    21.386232    7740.7215    3952.4966    2267.5963    931.06409   -101.00678   -334.77578   -449.97308   -3184.2693 
 3881000    252.94002   -3879.0498   -3445.5193   -3879.0498            0    3640.5235    17.607563    20.739383    21.481185    7844.2843     3223.013    3337.3872    4361.1703    1308.3949    524.49916    795.38698   -3029.0403 
 3882000    274.38466    -3854.686   -3384.4001    -3854.686            0      1671.32    17.620695    20.754851    21.497206    7861.8486    2451.3814    1453.0905    1109.4882   -252.31379   -1168.5124    376.37929   -3192.7715 
 3883000    245.03012   -3847.8755   -3427.9022   -3847.8755            0     3570.553    17.570273    20.695461    21.435692    7794.5517    3077.4116    2098.7117    5535.5358     354.6637   -676.02818    2140.3843   -3022.0177 
 3884000    251.69338   -3884.2561   -3452.8623   -3884.2561            0    1726.7357    17.608563    20.740561    21.482406    7845.6212    1806.9803    1413.5512    1959.6757    273.13514    1657.4443    257.34715   -3255.2886 
 3885000    256.98138   -3896.5584   -3456.1011   -3896.5584            0     3112.454    17.488923    20.599642    21.336446    7686.7864    2122.5606    3481.6187    3733.1828    2183.5923   -73.379042    411.49028   -3107.1829 
 3886000    259.08869    -3848.842   -3404.7728    -3848.842            0     5268.141    17.496895    20.609031    21.346171    7697.3023    4007.7888    4577.1764    7219.4579    11.053054    94.614506   -317.98337   -2813.3858 
 3887000    262.65933   -3887.9327   -3437.7436   -3887.9327            0    1502.0363    17.601166    20.731849    21.473381    7835.7379   -214.87592    1328.2926    3392.6921   -163.42779    866.44234    316.65847   -3266.0966 
 3888000      253.309    -3847.232    -3413.069    -3847.232            0    3472.6491    17.564789    20.689002    21.429002    7787.2556    3729.2448    1806.0478    4882.6548    558.02821     400.0564   -789.33969   -3018.6833 
 3889000    239.72522   -3883.7351   -3472.8542   -3883.7351            0    3588.9712    17.567839    20.692593    21.432722    7791.3118    3194.9972    4154.9048    3417.0117    284.97917   -216.71465    533.21864   -3065.0456 
 3890000    246.57159   -3866.5821   -3443.9668   -3866.5821            0     3758.544    17.545424    20.666192    21.405376    7761.5273    4145.8925    2446.4678    4683.2717   -1216.8931    1446.8408    435.25159   -3018.5225 
 3891000    250.35792   -3865.0912   -3435.9863   -3865.0912            0    2500.9056    17.501747    20.614747    21.352091    7703.7082    1050.9757    5260.8789    1190.8624    334.34465   -371.38015    762.22159   -3155.0078 
 3892000    252.26024   -3853.6274    -3421.262   -3853.6274            0    3065.4199    17.538446    20.657973    21.396863    7752.2706    3398.8492    3020.2525    2777.1581   -646.51692    141.70999    558.65114    -3074.689 
 3893000    254.34729   -3845.0584   -3409.1159   -3845.0584            0    1932.7662    17.536727    20.655948    21.394766    7749.9912    1945.2698    2926.2297    926.79911   -273.12792     -555.534    970.38145   -3190.6637 
 3894000    257.72127   -3856.9401   -3415.2146   -3856.9401            0    3106.3853     17.54785     20.66905    21.408337     7764.748    1726.1505    3155.7424    4437.2631   -1144.0608    802.83618   -1182.3497   -3063.4448 
 3895000     263.9243   -3853.2429   -3400.8857   -3853.2429            0     3425.059    17.547507    20.668645    21.407918     7764.292     3431.954    3530.7985    3312.4245    182.84031    1795.8015   -108.17671   -3013.0517 
 3896000    262.13791   -3890.5038   -3441.2084   -3890.5038            0    3896.8968      17.5188    20.634832    21.372895    7726.2482    5334.0057    3151.4021    3205.2826    6.6223126    340.62765   -632.51282   -3002.1083 
 3897000    257.84595   -3888.0431    -3446.104   -3888.0431            0     3006.552    17.557356    20.680246    21.419933    7777.3732    2908.6165    1447.7485    4663.2911    42.850224    1045.5543    178.93972   -3105.0858 
 3898000    255.08745   -3875.6383   -3438.4271   -3875.6383            0    2381.6774    17.624042    20.758793     21.50129    7866.3295    998.01495    3534.3957    2612.6216     154.2457    665.68956   -109.68392   -3165.1955 
 3899000    263.49239   -3840.1062   -3388.4893   -3840.1062            0     3109.172    17.541533    20.661609    21.400629    7756.3644    2728.6341    4452.8084    2146.0734    1301.8206    -1640.119    1556.9459    -3036.784 
 3900000    256.86609   -3868.6209   -3428.3613   -3868.6209            0    4139.2446    17.546447    20.667397    21.406625    7762.8852    2124.0577    3263.2967    7030.3793   -643.99413   -1001.5199    129.07426    -2959.742 
 3901000    258.72764    -3853.343   -3409.8927    -3853.343            0    2043.2366    17.657972    20.798758    21.542684    7911.8498     948.3324    1845.2194    3336.1579   -1294.1352    1138.0417   -33.083014   -3174.1313 
 3902000    249.86435   -3904.8057   -3476.5467   -3904.8057            0    1950.6688    17.636257    20.773182    21.516193    7882.6977    1974.6201    2253.7748    1623.6115    1300.4616   -162.03564    267.23381   -3252.2958 
 3903000    258.80239   -3875.4304   -3431.8519   -3875.4304            0    3447.9148    17.449492    20.553197    21.288339    7634.9105     3972.653    3090.0416    3281.0498     185.8422    550.65679    579.99557   -3047.9358 
 3904000     259.8404   -3896.5902   -3451.2327   -3896.5902            0    4092.1491    17.476582    20.585105    21.321389    7670.5251    5090.2492    3365.1489    3821.0491   -1002.6556    211.63484   -21.750943   -2993.4573 
 3905000    270.08247   -3896.8432   -3433.9311   -3896.8432            0    2533.8879    17.485041    20.595068    21.331709     7681.668    2261.1224    2722.0082    2618.5332    1078.5638    -553.9487    480.58993   -3150.0615 
 3906000    244.54039   -3897.7166   -3478.5828   -3897.7166            0    2343.7649    17.605253    20.736663    21.478368    7841.1978    3217.7764    441.61505    3371.9033    1201.0854      1041.12    1479.1098   -3210.5596 
 3907000    247.87761   -3896.7127    -3471.859   -3896.7127            0     2832.242     17.58515    20.712983    21.453841    7814.3667    1062.8716    4813.8699    2619.9846    777.15538   -756.37782    133.49967   -3149.0839 
 3908000    263.15037   -3909.5756   -3458.5449   -3909.5756            0    2421.1127    17.619181    20.753068     21.49536     7859.823    2830.1757    2692.5532    1740.6092    1551.9506    495.92069    -457.3046   -3181.0189 
 3909000    252.98501   -3880.3395   -3446.7318   -3880.3395            0    2885.9357    17.651576    20.791224    21.534881    7903.2554    5167.0885    1252.5907    2238.1279     553.6003      -298.18   -153.30274   -3114.0963 
 3910000    271.22025   -3876.4236   -3411.5614   -3876.4236            0    3666.3306    17.594039    20.723454    21.464687    7826.2238    3184.5786    4265.7462    3548.6669   -692.09083    379.71711    271.85059   -2993.0958 
 3911000    256.38398   -3919.8688   -3480.4354   -3919.8688            0    4355.3744    17.570211    20.695388    21.435617    7794.4693    5437.8816    3832.9816    3795.2601   -27.026705   -906.60691   -320.85146   -2985.3411 
 3912000    258.35159   -3902.5326   -3459.7269   -3902.5326            0    2923.2241    17.655873    20.796287    21.540124    7909.0296    3338.1147    3561.4609    1870.0965   -745.40501   -365.49713     848.3391   -3122.5473 
 3913000    248.52443   -3847.0683   -3421.1059   -3847.0683            0    3935.5272    17.516831    20.632513    21.370492    7723.6428    4920.5385    3590.8796    3295.1635    505.61517     209.8664    1977.8214   -2977.8026 
 3914000    266.56504   -3908.3138   -3451.4304   -3908.3138            0    2404.3454    17.588255    20.716641     21.45763    7818.5075    3250.8654    1014.0002    2948.1705   -98.785565    1376.7795   -201.26706   -3177.2752 
 3915000    269.43779   -3897.5048   -3435.6977   -3897.5048            0    3865.9329    17.554595    20.676994    21.416565    7773.7042    3487.0647    2867.8076    5242.9266   -829.09511      293.852   -538.37767   -2997.4111 
 3916000     260.9891   -3899.5097   -3452.1833   -3899.5097            0    2584.3822     17.62513    20.760076    21.502618    7867.7872    4166.8218    2281.6537     1304.671    742.59029    232.49159    961.41502    -3155.642 
 3917000    255.42008   -3904.9462   -3467.1649   -3904.9462            0    1293.6276    17.684063     20.82949    21.574515    7946.9728    1500.3628    -375.6241     2756.144   -289.12082    -1801.678    1145.3947   -3317.2355 
 3918000     262.5999   -3851.2943   -3401.2071   -3851.2943            0    3494.5727    17.647515    20.786442    21.529928    7897.8031    3825.1552    2891.5028    3767.0599   -381.08647    -110.9169   -1969.6773   -2998.6975 
 3919000    266.82589   -3847.2012   -3389.8708   -3847.2012            0    3697.7564    17.585356    20.713227    21.454093    7814.6421    3759.2322    3114.0695    4219.9674    1735.4146    297.59911   -1763.8626   -2968.4429 
 3920000    261.37801   -3852.1237   -3404.1307   -3852.1237            0    4150.7807    17.703697    20.852617    21.598469    7973.4729    4480.8824     3003.503    4967.9566    696.40881   -202.49436   -173.54292   -2921.4575 
 3921000     242.1007     -3851.18   -3436.2277     -3851.18            0    2218.8517    17.640569     20.77826    21.521453    7888.4807    1847.0121    2759.2731    2050.2698    231.14692   -511.27645   -949.16084    -3180.959 
 3922000    264.41432   -3888.8535   -3435.6564   -3888.8535            0    4120.0129    17.577218     20.70364    21.444164    7803.7971    3637.9048    6306.2006    2415.9332     718.6516   -488.43759   -666.61774   -2966.7562 
 3923000    245.58639   -3875.0678   -3454.1411   -3875.0678            0     3638.752    17.557997    20.681002    21.420716    7778.2255    4298.9166    1955.3549    4661.9844     1024.034    1077.9428   -998.21375   -3041.3704 
 3924000     235.4392   -3856.3526   -3452.8179   -3856.3526            0    2379.9871    17.583104    20.710574    21.451346    7811.6399    3535.9183    2683.8179    920.22511   -83.155858     603.2004    858.68079   -3181.6784 
 3925000    262.78162    -3860.176   -3409.7773    -3860.176            0    3182.9384    17.553081    20.675211    21.414718    7771.6941    4279.6704    1320.1277    3949.0172   -159.29229   -610.90311    787.22537   -3049.0161 
 3926000    254.88155    -3882.302   -3445.4437    -3882.302            0    2575.5752    17.562544    20.686357    21.426262    7784.2693    2908.1874    3073.6225    1744.9157    438.79759   -127.42162    -77.56802     -3153.05 
 3927000    276.66355   -3873.0606   -3398.8688   -3873.0606            0    3050.0933    17.614982    20.748122    21.490237    7854.2041    2911.9307    4495.2295    1743.1195   -80.351737   -1757.9743    130.67429   -3049.4943 
 3928000    278.61571    -3886.013   -3408.4752    -3886.013            0    2560.7552    17.591046    20.719928    21.461035    7822.2295    2351.4744    3085.6937    2245.0974   -936.16008    248.35895   -426.43655   -3116.3463 
 3929000    260.32668   -3891.5945   -3445.4035   -3891.5945            0    1033.6473    17.627731    20.763138     21.50579    7871.2701    2361.0747    279.38464    460.48242    165.23637   -28.816446   -125.40172   -3326.7466 
 3930000    250.30128   -3869.5335   -3440.5257   -3869.5335            0    2855.2385    17.626388    20.761557    21.504152    7869.4714    2177.4398    2787.8005    3600.4753   -546.75167    533.89478    1948.2995   -3112.8352 
 3931000    271.71737   -3881.2032   -3415.4889   -3881.2032            0    3035.6635    17.566108    20.690555    21.430611    7789.0101    3178.2453    3706.4428    2222.3026      408.004    1213.1366   -605.71323   -3070.6535 
 3932000    275.82302   -3865.4962    -3392.745   -3865.4962            0    3191.4097    17.639388    20.776869    21.520012    7886.8965    3251.4706    2867.3419    3455.4167    841.95079    37.949618   -433.35134   -3025.6617 
 3933000    244.41169   -3849.5055   -3430.5922   -3849.5055            0    3516.6881    17.618003    20.751681    21.493923    7858.2467    4256.8942    2592.0763    3701.0937   -993.72021    795.65928   -206.99282   -3027.5641 
 3934000    254.15178   -3861.9002   -3426.2927   -3861.9002            0     4156.639    17.534918    20.653818    21.392559    7747.5936    4802.0531    2590.9088    5076.9552   -641.17393    1355.8815    18.293089   -2956.6311 
 3935000    269.64089   -3879.8019   -3417.6466   -3879.8019            0    3760.7152    17.506589     20.62045    21.357998    7710.1037     2488.788    5474.7639    3318.5938    975.82976    1328.1421    484.61076   -2994.7769 
 3936000    261.92575   -3853.6054   -3404.6736   -3853.6054            0    2950.2905    17.551856    20.673767    21.413223    7770.0658    3201.6328    2723.3433    2925.8954    288.58322     -45.1436    126.29386   -3070.3513 
 3937000    263.91152   -3872.2776   -3419.9423   -3872.2776            0     2785.975    17.505213    20.618829    21.356319    7708.2859    1832.1146    2662.8755    3862.9349     463.1589   -973.11148   -261.79804   -3106.7501 
 3938000    268.80646   -3832.4426   -3371.7175   -3832.4426            0    3411.6075    17.544122    20.664658    21.403788    7759.7994    2984.2221    3558.4147    3692.1856    296.39903    651.19794    250.38361   -2985.6302 
 3939000    252.60149   -3892.6181   -3459.6678   -3892.6181            0    759.33109    17.601234    20.731929    21.473464    7835.8288    1120.4636    1223.3334   -65.803797    102.63984    137.36865    820.03864   -3372.8933 
 3940000    277.05628   -3869.1114   -3394.2465   -3869.1114            0    3724.5908    17.534539    20.653371    21.392097    7747.0908    2339.6558    4408.2604     4425.856   -117.93929    537.55033    690.75382   -2973.4296 
 3941000    260.36795   -3872.7721   -3426.5103   -3872.7721            0    2873.0529    17.580049    20.706975    21.447618    7807.5686    2739.0375    2269.2232    3610.8981   -131.02338   -4.4340135   -1046.2904   -3099.3691 
 3942000    261.54039    -3887.266   -3438.9948    -3887.266            0     4158.472    17.521853    20.638429     21.37662    7730.2885     4095.196    3880.0658    4500.1541    937.12189   -45.410434    299.29679   -2970.1756 
 3943000    255.12133   -3866.3188   -3429.0496   -3866.3188            0    1184.1292    17.596832    20.726743    21.468094    7829.9508    1175.2767    892.16232    1484.9485    368.11635    -39.37336    313.56546   -3293.8317 
 3944000    274.07069   -3887.4272   -3417.6794   -3887.4272            0    2722.5671    17.501315    20.614237    21.351563    7703.1371    576.19133    3628.7663    3962.7437    283.92626    22.475848   -650.06561   -3111.8198 
 3945000    257.56493   -3888.7041   -3447.2466   -3888.7041            0    2117.4881    17.471794    20.579466    21.315548    7664.2226    1907.2623    2073.1591    2372.0429   -77.290667   -194.17457    147.39967   -3210.5647 
 3946000    249.96251   -3855.3383   -3426.9111   -3855.3383            0    2256.6899    17.614922    20.748051    21.490163    7854.1238    3612.3545    1546.0695    1611.6457     435.8888   -1070.0519    2.4767053   -3168.4201 
 3947000    263.56835   -3895.5043   -3443.7572   -3895.5043            0    4272.5753    17.503056    20.616288    21.353687    7705.4362    5141.4489    2344.6846    5331.5925    1044.3197    88.678602    972.20354   -2963.6228 
 3948000    264.12967   -3884.5954   -3431.8862   -3884.5954            0    3922.5255    17.571711    20.697154    21.437446    7796.4652     2461.234    3174.8019    6131.5406    96.712095   -663.96863   -28.484264   -2985.8815 
 3949000    260.54732   -3871.4367   -3424.8675   -3871.4367            0    3560.1121    17.637039    20.774102    21.517146    7883.7459    2664.7305    4107.8242    3907.7817    1179.8618   -385.86125   -447.66193   -3015.5388 
 3950000    265.56899   -3912.1417   -3456.9656   -3912.1417            0    3725.4264     17.58947    20.718072    21.459112    7820.1276    3680.7469    3244.8899    4250.6424   -1618.9062    1020.2138   -263.61742   -3032.0861 
 3951000    251.39232   -3873.3943   -3442.5165   -3873.3943            0    2284.1301    17.699809    20.848037    21.593725    7968.2199     3200.138    967.50749    2684.7446   -1531.0335    116.13699   -176.66913   -3177.0816 
 3952000    261.96682   -3881.6563   -3432.6541   -3881.6563            0    2638.5494    17.695305    20.842732     21.58823    7962.1386     2172.884    3242.0797    2500.6844   -982.79557   -643.36982   -576.65045   -3126.2667 
 3953000    257.58501   -3910.3368   -3468.8449   -3910.3368            0    2303.4114    17.636647     20.77364    21.516668    7883.2195    2605.7545    1958.8607    2345.6189    171.26896    314.74368   -339.40067   -3204.0247 
 3954000    251.89026   -3907.3864   -3475.6551   -3907.3864            0    2404.7225    17.679341    20.823928    21.568755    7940.6087    2128.5897    2047.0838     3038.494    752.59091   -206.72458    98.398708   -3197.1747 
 3955000    252.35485   -3896.3585   -3463.8309   -3896.3585            0    2752.2049    17.631825    20.767961    21.510785    7876.7559    3272.8135     3286.812    1696.9892   -532.91319    505.86135     942.5341    -3147.673 
 3956000    249.46166   -3879.9797   -3452.4109   -3879.9797            0    2700.5469    17.622763    20.757287     21.49973    7864.6173    2677.6205    3506.3724    1917.6478     320.9568    413.59222   -514.80535   -3142.6653 
 3957000    267.56682   -3912.7658   -3454.1654   -3912.7658            0    2650.1975    17.634616    20.771248     21.51419     7880.497    2348.5232    2230.0167    3372.0527   -668.99922    582.45111    733.21646    -3149.581 
 3958000    258.15693   -3873.4085   -3430.9364   -3873.4085            0     3603.988    17.609575    20.741753     21.48364    7846.9738    3670.7391    2716.2326    4424.9924   -1187.5537    337.46006    277.23356   -3018.4957 
 3959000    260.06819   -3898.3519   -3452.6039   -3898.3519            0    4058.8392    17.605854    20.737371    21.479101    7842.0013    4700.8918    4188.8342    3286.7916   -143.81156    545.80378    1019.3804   -2988.4045 
 3960000    263.69671   -3883.1238   -3431.1566   -3883.1238            0    2249.6486    17.750005    20.907162    21.654965    8036.2059    4273.0648   -12.051448    2487.9324   -1621.7788      863.517   -984.61062   -3167.4982 
 3961000    264.47423   -3936.5888    -3483.289   -3936.5888            0    3366.4256    17.611621    20.744163    21.486136    7849.7089    1096.6031    4551.4508    4451.2228    -1017.273    156.39152   -29.315925   -3097.9008 
 3962000    268.36358   -3915.7991   -3455.8331   -3915.7991            0    2577.0089    17.653995    20.794074    21.537833    7906.5059    2100.3169    726.62869    4904.0812   -280.67805    -176.3061   -857.11725   -3158.6827 
 3963000    266.13681   -3879.3647   -3423.2154   -3879.3647            0    2280.6423    17.646279    20.784986     21.52842    7896.1436     1536.762     3066.908    2238.2569    1086.5988   -593.25351   -405.41069   -3160.5831 
 3964000    264.43571   -3905.0541   -3451.8204   -3905.0541            0    2164.4542    17.622863    20.757405    21.499852    7864.7511    2162.5844    1603.6254    2727.1528   -897.19923    798.06608    664.50483   -3203.5589 
 3965000    251.12918   -3931.7856   -3501.3588   -3931.7856            0    968.50965    17.635526     20.77232      21.5153     7881.717     1760.772    1778.0522   -633.29517   -230.52697   -402.89872    276.45789   -3390.0318 
 3966000    256.14806   -3894.4204   -3455.3914   -3894.4204            0    2784.4507    17.639963    20.777546    21.520714    7887.6675    1546.7804    2585.2989    4221.2728    567.79885   -968.66443    1264.3032   -3135.0862 
 3967000    257.77959   -3911.9272   -3470.1018   -3911.9272            0    3781.0482      17.5791    20.705858    21.446461    7806.3046    3830.7874      4020.31    3492.0473    -445.4444    199.17687   -296.72737    -3039.641 
 3968000    265.75393    -3902.638   -3447.1448    -3902.638            0    2811.7716    17.560459    20.683901    21.423719    7781.4973    2416.0101    2431.7481    3587.5566     499.9805    769.76596   -288.36165   -3128.0505 
 3969000    262.90791   -3880.0076   -3429.3925   -3880.0076            0     3742.751    17.669482    20.812316    21.556727    7927.3326    4936.8966    3554.1389    2737.2175   -288.15979   -722.66911   -265.30049   -2996.6855 
 3970000    251.84547   -3910.5143   -3478.8598   -3910.5143            0    2651.6712     17.60249    20.733408    21.474997    7837.5062    3320.3809    3225.9044    1408.7283    6.6829955    121.03693    632.37689   -3175.7685 
 3971000    265.32217    -3902.485   -3447.7319    -3902.485            0    834.36401    17.704395    20.853439    21.599321     7974.416   -219.11296     -291.106     3013.311    1888.0459    443.41997   -196.02288   -3350.6965 
 3972000    248.43801   -3901.5871   -3475.7729   -3901.5871            0    2704.1465    17.661172    20.802528    21.546589     7916.153    2492.9505    3093.5209    2525.9682    810.69061    1332.2099    -756.3732   -3163.5819 
 3973000    255.96137   -3895.8843   -3457.1752   -3895.8843            0    2575.9632      17.6277    20.763102    21.505753    7871.2289     4812.264    461.83373    2453.7919   -940.90215   -1230.0919    218.86968   -3161.4706 
 3974000    259.42154   -3861.2541   -3416.6145   -3861.2541            0    3691.7526     17.51464    20.629932     21.36782    7720.7452    1244.4215    5140.8163    4690.0201    -1104.122   -445.50877    -51.26468   -3000.9263 
 3975000    259.36377   -3872.9931   -3428.4524   -3872.9931            0    3175.2439    17.590815    20.719656    21.460753    7821.9217    2640.7861    3594.1538    3290.7917    -564.4755    437.70483    717.38869   -3066.2374 
 3976000    256.92454   -3850.3749    -3410.015   -3850.3749            0    3977.4493    17.522509    20.639201     21.37742    7731.1563    5195.6309    3046.6432    3690.0737   -618.18296    827.13219   -964.02701   -2961.5537 
 3977000    271.06264   -3813.4585   -3348.8664   -3813.4585            0    3877.5018    17.338666    20.422659    21.153133    7490.3595    4883.1693    5226.7185    1522.6176   -443.08027    403.42422   -8.7618963   -2925.2912 
 3978000    253.12608   -3802.9423   -3369.0929   -3802.9423            0    3397.1598    17.479331    20.588343    21.324743    7674.1454    2327.3071    2935.8913    4928.2811   -277.43792    483.60869   -1657.1329   -2988.8843 
 3979000    269.74414   -3866.7063   -3404.3741   -3866.7063            0    2684.3592    17.543639    20.664089    21.403198    7759.1585    3194.2486     1759.393    3099.4359   -593.66832    244.46805   -610.70275   -3100.6137 
 3980000    264.35356   -3861.5743   -3408.4813   -3861.5743            0    2924.4057    17.602483      20.7334    21.474988    7837.4973    5043.0924    2424.7386    1305.3861   -1260.3895    505.22554    61.306187   -3074.2163 
 3981000    278.46276    -3895.307   -3418.0313    -3895.307            0    1412.6973    17.728965    20.882379    21.629296    8007.6624    2428.0817    1608.4741    201.53607    690.82777   -348.62758    562.93748   -3253.0515 
 3982000    273.34072   -3900.8661   -3432.3694   -3900.8661            0     2334.991    17.615675    20.748938    21.491082    7855.1311    735.82975    2088.3033    4180.8398    234.92929    38.867307   -1080.4077   -3164.8751 
 3983000     248.1879   -3872.7035    -3447.318   -3872.7035            0    1575.8992    17.608532    20.740525    21.482368    7845.5798   -398.61342    4455.4357    670.87542    472.33063   -684.46795    521.48854    -3267.004 
 3984000    268.03843   -3857.3216    -3397.913   -3857.3216            0    765.28356    17.638461    20.775777    21.518882    7885.6532    565.53162    706.27554    1024.0435    143.09934    933.07369   -898.76884   -3309.9022 
 3985000    256.67829   -3873.7699   -3433.8321   -3873.7699            0    2817.4267    17.528682    20.646472    21.384951    7739.3303    2285.9554     3964.535    2201.7897    -91.15903   -82.506432    836.98581   -3115.8286 
 3986000    252.32505   -3865.9599   -3433.4834   -3865.9599            0    2420.4018    17.496525    20.608596     21.34572    7696.8145    947.79282    3086.5269    3226.8858    435.40716   -956.03032   -1589.3722   -3161.7929 
 3987000    265.24703   -3876.3939   -3421.7695   -3876.3939            0    1942.1915    17.571559    20.696976    21.437261    7796.2632     256.7564    2877.8348    2691.9834   -1211.0407    -714.9508   -118.09902   -3200.9414 
 3988000    259.00167   -3853.4977   -3409.5777   -3853.4977            0    3510.9223    17.532139    20.650544    21.389168      7743.91    2921.8618    3845.4914    3765.4135   -1065.4735    -7.327321   -1046.3038   -3013.0648 
 3989000    270.24474   -3882.8413   -3419.6511   -3882.8413            0    1123.9383    17.597833    20.727922    21.469315    7831.2871     1071.958    801.49087    1498.3661   -165.27402    715.70056    806.36541   -3291.2847 
 3990000    262.69839   -3862.1628   -3411.9068   -3862.1628            0    3323.4026    17.502995    20.616216    21.353613    7705.3555    3265.2713    3055.3471    3649.5894   -66.421606   -1191.7378   -705.92887   -3038.4404 
 3991000    261.69039   -3896.7506   -3448.2223   -3896.7506            0    3233.9857     17.55485    20.677294    21.416876    7774.0432    2648.3157    3996.0962    3057.5452   -1427.7379    1225.1599   -1989.6209   -3081.5645 
 3992000     256.7416    -3884.802   -3444.7557    -3884.802            0    4408.7915     17.58571    20.713644    21.454525     7815.114    4346.0852    3775.2346    5105.0546   -1904.4784    481.36416   -205.37688   -2942.2618 
 3993000     263.2233   -3843.8686   -3392.7128   -3843.8686            0    3026.2515    17.653178    20.793112    21.536836    7905.4082    3977.1337    1086.6626    4014.9582    510.07657    909.28701   -532.90692   -3043.8094 
 3994000    257.86358   -3844.6582   -3402.6889   -3844.6582            0    3138.5533     17.44794    20.551368    21.286446    7632.8732    1715.4787    2211.5265    5488.6547    71.647015   -433.22147   -436.68646   -3053.3126 
 3995000    271.32129   -3851.6621   -3386.6267   -3851.6621            0    3277.7872    17.578547    20.705207    21.445787    7805.5686    2948.9043    2203.6329    4680.8246     669.2153   -328.24853    804.74885   -3013.4958 
 3996000     267.4247   -3882.1873   -3423.8305   -3882.1873            0    3220.0484      17.5496     20.67111     21.41047      7767.07    4036.1239    2216.2897    3407.7318   -174.00312   -940.26804   -57.944022   -3059.0803 
 3997000    256.32851   -3868.8477   -3429.5094   -3868.8477            0    1885.7456    17.695472    20.842929    21.588435    7962.3646    1415.4575     3220.095    1021.6843   -906.14953    85.368325   -412.16379   -3210.5311 
 3998000      270.918   -3862.1435   -3397.7993   -3862.1435            0    2455.7253    17.605821    20.737332    21.479061    7841.9571    2670.7237    2341.6423    2354.8098   -1863.1327    526.79969    701.97276   -3116.9456 
 3999000    262.19283   -3914.7808   -3465.3913   -3914.7808            0    4048.3498    17.574829    20.700827     21.44125    7800.6158    5842.8788    4498.0677    1804.1029   -1718.3392   -661.82008     -389.675   -3004.8349 
 4000000    279.61461   -3894.5005   -3415.2507   -3894.5005            0    3400.0474    17.574713    20.700691    21.441109    7800.4625    3219.9601     4945.356    2034.8259   -198.36088    979.00716   -846.82255   -3028.4553 
Loop time of 364.626 on 64 procs for 250000 steps with 864 atoms

Performance: 118.478 ns/day, 0.203 hours/ns, 685.635 timesteps/s
193.7% CPU use with 32 MPI tasks x 2 OpenMP threads

MPI task timing breakdown:
Section |  min time  |  avg time  |  max time  |%varavg| %total
---------------------------------------------------------------
Pair    | 23.6       | 29.885     | 35.159     |  51.8 |  8.20
Bond    | 0.91357    | 1.0908     | 1.4999     |  14.0 |  0.30
Kspace  | 163.83     | 172.85     | 183.71     |  35.3 | 47.41
Neigh   | 3.4365     | 3.9302     | 4.6588     |  19.9 |  1.08
Comm    | 66.807     | 74.634     | 81.299     |  43.6 | 20.47
Output  | 0.44238    | 0.44273    | 0.44437    |   0.0 |  0.12
Modify  | 66.497     | 69.838     | 73.733     |  20.5 | 19.15
Other   |            | 11.95      |            |       |  3.28

Nlocal:        27.0000 ave          33 max          19 min
Histogram: 1 0 3 2 5 5 5 9 0 2
Nghost:        2408.47 ave        2482 max        2363 min
Histogram: 4 7 4 1 4 7 2 0 1 2
Neighs:        7915.88 ave       10091 max        5711 min
Histogram: 2 3 1 5 6 2 4 6 1 2

Total # of neighbors = 253308
Ave neighs/atom = 293.18056
Ave special neighs/atom = 2.0000000
Neighbor list builds = 13887
Dangerous builds = 1

unfix		3
unfix		2
unfix		1

write_data	data.final.${pid}
write_data	data.final.1
System init for write_data ...
PPPM initialization ...
  extracting TIP4P info from pair style
  using 12-bit tables for long-range coulomb (../kspace.cpp:340)
  G vector (1/distance) = 0.37295924
  grid = 24 24 25
  stencil order = 5
  estimated absolute RMS force accuracy = 0.0032194374
  estimated relative force accuracy = 9.6952401e-06
  using double precision FFTW3
  3d grid and FFT values/proc = 3822 576
Last active /omp style is kspace_style pppm/tip4p/omp
WARNING: Not all mixed pair coeffs generated from mixing. Use write_data with 'pair ij' option to store all pair coeffs. (../write_data.cpp:312)

write_restart   restart.lmp.${pid}
write_restart   restart.lmp.1
System init for write_restart ...
PPPM initialization ...
  extracting TIP4P info from pair style
  using 12-bit tables for long-range coulomb (../kspace.cpp:340)
  G vector (1/distance) = 0.37295924
  grid = 24 24 25
  stencil order = 5
  estimated absolute RMS force accuracy = 0.0032194374
  estimated relative force accuracy = 9.6952401e-06
  using double precision FFTW3
  3d grid and FFT values/proc = 3822 576
Last active /omp style is kspace_style pppm/tip4p/omp
Total wall time: 0:06:04
