LAMMPS (30 Jul 2021)
  using 1 OpenMP thread(s) per MPI task
package omp 0
using multi-threaded neighbor list subroutines
echo both

include		in.partitions
variable        pid world 0
include		in.temp
variable        temperature equal 259.86
variable	tempDamp equal 100.0
include		in.pressure
variable        pressure equal 7375.0
variable        pressureDamp equal 1000.0 # This is 1 ps
include		in.seed
variable        seed world 745823

units		real
atom_style	full
read_restart	restart.lmp.${pid}
read_restart	restart.lmp.0
Reading restart file ...
  restart file = 30 Jul 2021, LAMMPS = 30 Jul 2021
  restoring atom style full from restart
  orthogonal box = (0.57907573 1.7736060 0.70647103) to (17.628497 21.855572 21.506725)
  4 by 4 by 4 MPI processor grid
  restoring pair style lj/cut/tip4p/long/omp from restart
  restoring bond style harmonic/omp from restart
  restoring angle style harmonic/omp from restart
  864 atoms
  576 bonds
  288 angles
Finding 1-2 1-3 1-4 neighbors ...
  special bond factors lj:    0        0        0       
  special bond factors coul:  0        0        0       
     2 = max # of 1-2 neighbors
     1 = max # of 1-3 neighbors
     1 = max # of 1-4 neighbors
     2 = max # of special neighbors
  special bonds CPU = 0.716 seconds
  read_restart CPU = 0.923 seconds
include 	in.setup
variable	out_freq equal 1000
variable	out_freq2 equal 10000
variable	out_freq3 equal 1000

timestep	2.0

neigh_modify    delay 7 every 1

include		in.tip4p
# This is TIP4P/Ice

# create groups ###
group ox type 2
288 atoms in group ox
group hy type 1
576 atoms in group hy

# set charges - beside manually ###
set group ox charge -1.1794
Setting atom values ...
  288 settings made for charge
set group hy charge 0.5897
Setting atom values ...
  576 settings made for charge

# ### TIP3P Potential Parameters ###
pair_style lj/cut/tip4p/long/omp 2 1 1 1 0.1577 8.5
pair_coeff 1 1*2 0.000 0.000
pair_coeff 2 2 0.21084 3.1668
bond_style  harmonic
bond_coeff  1 450 0.9572
angle_style harmonic
angle_coeff 1 55 104.52
kspace_style pppm/tip4p/omp 1.0e-5
pair_modify tail yes

thermo          ${out_freq}
thermo          1000
thermo_style    custom step temp pe etotal epair emol press lx ly lz vol pxx pyy pzz pxy pxz pyz enthalpy

restart 	${out_freq3} restart.lmp.${pid} restart2.lmp.${pid}
restart 	1000 restart.lmp.${pid} restart2.lmp.${pid}
restart 	1000 restart.lmp.0 restart2.lmp.${pid}
restart 	1000 restart.lmp.0 restart2.lmp.0


include         in.dump
dump            myDump all atom ${out_freq2} dump.water.${pid}
dump            myDump all atom 10000 dump.water.${pid}
dump            myDump all atom 10000 dump.water.0
dump            myDump2 all dcd ${out_freq2} dump.dcd
dump            myDump2 all dcd 10000 dump.dcd
dump_modify     myDump append yes
dump_modify     myDump2 append yes


variable natoms 	equal  "count(all)"                        # NUMBER ATOMS
variable H      	equal  "enthalpy/v_natoms"                 # ENTHALPY-per-atom
variable Vol      	equal  "vol/v_natoms"                 # volume-per-atom
fix AVG all 		ave/time ${out_freq} 1 ${out_freq} v_Vol v_H file vol_enthalpy.dat
fix AVG all 		ave/time 1000 1 ${out_freq} v_Vol v_H file vol_enthalpy.dat
fix AVG all 		ave/time 1000 1 1000 v_Vol v_H file vol_enthalpy.dat


timer           timeout 23:50:00 every 1000
New timer settings: style=normal  mode=nosync  timeout=23:50:00

fix 		1 all shake 1e-6 200 0 b 1 a 1
       0 = # of size 2 clusters
       0 = # of size 3 clusters
       0 = # of size 4 clusters
     288 = # of frozen angles
  find clusters CPU = 0.117 seconds
fix             2 all nph iso ${pressure} ${pressure} ${pressureDamp}
fix             2 all nph iso 7375 ${pressure} ${pressureDamp}
fix             2 all nph iso 7375 7375 ${pressureDamp}
fix             2 all nph iso 7375 7375 1000
fix             3 all temp/csvr ${temperature} ${temperature} ${tempDamp} ${seed}
fix             3 all temp/csvr 259.86 ${temperature} ${tempDamp} ${seed}
fix             3 all temp/csvr 259.86 259.86 ${tempDamp} ${seed}
fix             3 all temp/csvr 259.86 259.86 100 ${seed}
fix             3 all temp/csvr 259.86 259.86 100 745823

run             250000
PPPM initialization ...
  extracting TIP4P info from pair style
  using 12-bit tables for long-range coulomb (../kspace.cpp:340)
  G vector (1/distance) = 0.37390041
  grid = 24 24 24
  stencil order = 5
  estimated absolute RMS force accuracy = 0.0032024588
  estimated relative force accuracy = 9.6441096e-06
  using double precision FFTW3
  3d grid and FFT values/proc = 2535 216
Last active /omp style is kspace_style pppm/tip4p/omp
Neighbor list info ...
  update every 1 steps, delay 7 steps, check yes
  max neighbors/atom: 2000, page size: 100000
  master list distance cutoff = 10.8154
  ghost atom cutoff = 10.8154
  binsize = 5.4077, bins = 4 4 4
  1 neighbor lists, perpetual/occasional/extra = 1 0 0
  (1) pair lj/cut/tip4p/long/omp, perpetual
      attributes: half, newton on, omp
      pair build: half/bin/newton/omp
      stencil: half/bin/3d
      bin: standard
Per MPI rank memory allocation (min/avg/max) = 9.235 | 9.238 | 9.242 Mbytes
Step Temp PotEng TotEng E_pair E_mol Press Lx Ly Lz Volume Pxx Pyy Pzz Pxy Pxz Pyz Enthalpy 
 1500000    284.39347    -3879.253   -3391.8123    -3879.253            0    7779.5461    17.049421    20.081966    20.800254    7121.7134    9111.8593    7408.8532    6817.9258   -652.37556    175.71953   -732.27939   -2583.8062 
 1501000    272.04747    -3895.006   -3428.7259    -3895.006            0    6174.2752    17.142732    20.191874    20.914093    7239.2857    6375.0946    5218.9273    6928.8037    1016.0434    1515.1445    1477.7011    -2776.861 
 1502000    259.43879   -3899.5903   -3454.9211   -3899.5903            0    6640.3233    17.175941     20.23099    20.954608    7281.4388    6565.1465    6635.0948    6720.7285     794.6523    47.547554    1362.8656   -2749.7698 
 1503000    266.57698   -3889.0559    -3432.152   -3889.0559            0    3036.5478    17.206591    20.267091    20.992001    7320.4887    2505.8205    3081.3253    3522.4976     857.8531     -19.1403    348.92961   -3107.9647 
 1504000    245.23663   -3888.8408   -3468.5136   -3888.8408            0    5595.2647    17.164624     20.21766    20.940801    7267.0555    5634.3529    5487.7072     5663.734     63.99246    223.49543   -567.25542   -2875.5132 
 1505000    252.02989   -3847.4347   -3415.4641   -3847.4347            0    6529.0327    17.084739    20.123565    20.843341    7166.0627    6304.7976     6810.527    6471.7734    963.98337    2833.6633    681.75587    -2733.117 
 1506000    256.06346   -3841.3548   -3402.4708   -3841.3548            0    9749.0768    16.946835    19.961133    20.675099     6993.932    9415.5104    9030.1967    10801.523   -465.14262   -1545.9119    415.68787   -2408.0716 
 1507000    263.99132   -3884.7698   -3432.2977   -3884.7698            0    7841.7351    17.038434    20.069024    20.786849    7107.9536    8834.6828    7433.2076    7257.3149   -434.70969     1320.748    492.16473   -2619.4061 
 1508000    267.83966   -3852.5949   -3393.5269   -3852.5949            0    9010.6906    17.034678    20.064601    20.782268    7103.2547     9081.327    10489.486    7461.2585    1795.1668    2562.1245      663.858   -2460.0763 
 1509000    276.61465   -3853.1062   -3378.9982   -3853.1062            0    7696.9932    17.080158     20.11817    20.837752    7160.2999    8131.2668    8869.9749    6089.7378   -2070.5309     -679.593   -602.47404   -2575.2348 
 1510000     261.3309   -3860.1515   -3412.2393   -3860.1515            0    6676.8185    17.097542    20.138646    20.858961    7182.1855    8640.7849    7503.8499    3885.8208    846.20009   -353.93397   -754.10256   -2712.8772 
 1511000    245.80878   -3822.9746   -3401.6668   -3822.9746            0     9610.813    17.009262    20.034664     20.75126    7071.5078    7577.7425    10771.058    10483.639   -63.101158    305.67937    1549.7374    -2410.497 
 1512000    274.12687   -3851.4348   -3381.5907   -3851.4348            0    6482.1981    17.127022    20.173369    20.894927    7219.4005    6383.5217    6866.8065     6196.266   -251.06506   -166.22518   -900.65086    -2699.096 
 1513000    268.33424   -3855.8774   -3395.9617   -3855.8774            0    8133.1166    17.082176    20.120547    20.840215    7162.8384    8282.2673    7838.8165    8278.2662     488.5653    120.85596    -790.3385   -2546.3548 
 1514000    258.87497   -3875.7763   -3432.0734   -3875.7763            0    7578.7731    17.054042    20.087409    20.805892    7127.5059    6233.3777     9176.132    7326.8095   -1093.2862   -759.11567    1459.9528     -2644.28 
 1515000    269.49553   -3876.4009   -3414.4948   -3876.4009            0    7479.8422    17.137141    20.185288    20.907272    7232.2041    7667.4233     7732.304    7039.7992   -694.32548   -66.692183    1763.8369   -2625.5638 
 1516000    259.80761   -3879.6264    -3434.325   -3879.6264            0    7298.0082     17.10612     20.14875    20.869427    7193.0018    8786.4734    6388.4942    6719.0569    302.53403   -285.42917   -734.45427   -2668.7453 
 1517000    257.72894   -3852.7858   -3411.0472   -3852.7858            0    7675.7909    17.096284    20.137164    20.857426    7180.6002    9502.6547    6022.3121     7502.406    308.76579    -495.1951   -565.98694   -2607.2254 
 1518000    253.08607   -3897.0061   -3463.2252   -3897.0061            0    6281.1179    17.129993    20.176869    20.898551     7223.158    6626.2157    5933.7044    6283.4335    772.05099    33.029075     260.5248   -2801.5575 
 1519000    257.82627   -3869.0367   -3427.1313   -3869.0367            0    6646.1362    17.065855    20.101323    20.820303    7142.3272    6322.4197    6462.5437    7153.4453    574.15793   -1658.7719   -514.60725   -2734.8463 
 1520000    254.38627   -3882.3158   -3446.3064   -3882.3158            0    9034.1599    17.074048    20.110973    20.830298    7152.6183    8958.5829    9912.3238    8231.5731    671.81866    84.351973    266.43059   -2503.9207 
 1521000    270.29953   -3899.6768   -3436.3926   -3899.6768            0    8363.8991    17.012679    20.038689    20.755429    7075.7701    8764.0084    7752.8017    8574.8872    465.99312   -1114.8778    1111.6658    -2573.298 
 1522000    265.24976   -3889.5103   -3434.8813   -3889.5103            0    9156.9882     17.00827    20.033495    20.750049      7070.27    9623.8893    8383.6761     9463.399    711.76102   -2079.4334   -342.50163   -2490.6801 
 1523000    242.89246    -3885.552   -3469.2427    -3885.552            0    7693.6472    17.079201    20.117043    20.836586    7159.0972     7860.711    6343.9371    8876.2937   -797.91053    586.37346   -1567.2501   -2665.9637 
 1524000    262.18181   -3818.6777    -3369.307   -3818.6777            0    5608.8918    17.050194    20.082876    20.801196    7122.6818     5776.741     6319.899    4730.0354   -242.94186   -47.536927    1461.1625   -2786.6721 
 1525000    253.77512   -3861.7107   -3426.7489   -3861.7107            0    6713.4105    17.029385    20.058366     20.77581    7096.6349    8313.5261    6431.2973    5395.4081    132.82638    150.42983   -678.64137   -2731.9301 
 1526000    273.30989   -3839.5512   -3371.1074   -3839.5512            0    6067.3351    17.107126    20.149934    20.870653    7194.2699    7267.2479    7025.7185     3909.039   -813.15071   -134.26393    966.41395   -2734.5162 
 1527000    276.35108   -3860.2982   -3386.6419   -3860.2982            0    7429.9497    17.044402    20.076055    20.794131    7115.4263    8873.7976    7710.2479    5705.8036   -572.22715    740.23875   -304.52361   -2615.6272 
 1528000    253.99502   -3872.1638    -3436.825   -3872.1638            0    6748.6267    17.059795    20.094185     20.81291    7134.7208    6780.5394    5338.6788    8126.6621   -187.73993   -411.05394     365.4722   -2734.6129 
 1529000    256.10855   -3908.2426   -3469.2813   -3908.2426            0    6125.4107    17.037537    20.067969    20.785756    7106.8321     6549.019    5827.7177    5999.4954   -999.86329    124.78458    722.46284   -2834.4078 
 1530000    275.61181    -3855.783   -3383.3938    -3855.783            0    7090.9099    17.005216    20.029899    20.746324    7066.4628    5711.4461    6800.5508    8760.7326    315.96156   -42.984321    758.63766   -2652.6251 
 1531000    264.46619   -3821.8656   -3368.5796   -3821.8656            0    5772.4782    17.053662    20.086961    20.805428    7127.0291      5287.86    4309.9186    7719.6561   -753.50673    135.33164    198.58862   -2768.5859 
 1532000    270.60682   -3847.5067   -3383.6959   -3847.5067            0    8140.0807    17.018184    20.045173    20.762145    7082.6415    9703.9754    6495.4201    8220.8467    422.04072    344.19112   -779.22081    -2542.882 
 1533000    262.85951    -3856.343   -3405.8107    -3856.343            0       9354.1    17.007129    20.032152    20.748658    7068.8476    9585.0264    9965.8172    8511.4564   -387.26336   -1499.0937    -951.0395   -2441.4789 
 1534000    262.71287   -3867.9776   -3417.6967   -3867.9776            0    8312.4281    16.954555    19.970226    20.684517    7003.4942    8745.2379     7543.943    8648.1033   -592.20305   -1755.5096    1700.9113   -2568.6755 
 1535000    251.95358   -3886.1112   -3454.2714   -3886.1112            0    7668.8421    16.964373    19.981791    20.696496    7015.6681    5353.4907    7995.6043    9657.4312   -866.17797   -961.36109    1084.5161   -2669.6236 
 1536000    252.08188   -3898.8093   -3466.7496   -3898.8093            0    7671.9338     16.99889    20.022447    20.738606    7058.5789    6515.7275    6648.4611    9851.6127   -950.51658    315.18154    886.13764   -2676.9843 
 1537000    263.62242   -3866.7302   -3414.8904   -3866.7302            0    8205.7994    17.022174    20.049873    20.767013    7087.6243    8993.8694    8579.0441    7044.4848    1611.9843   -1839.3779    146.71516   -2566.6919 
 1538000    261.29779   -3858.7514   -3410.8959   -3858.7514            0    9400.8697    16.998117    20.021536    20.737663    7057.6157    10031.971    10281.869    7888.7692    -1651.734   -876.50478     1249.677   -2443.2824 
 1539000    257.06323   -3858.0815   -3417.4839   -3858.0815            0    8723.2374    17.023791    20.051777    20.768985    7089.6434    7328.2171     9598.504    9242.9912   -441.91698    1223.6379   -1158.3381   -2515.5432 
 1540000    259.28209   -3878.7677   -3434.3671   -3878.7677            0    7373.2351    17.065463    20.100861    20.819825    7141.8348     8829.616    6942.7251    6347.3643    49.075775    146.30815   -1342.9205   -2666.3979 
 1541000    260.80413   -3868.7194   -3421.7101   -3868.7194            0    5391.1765    17.087287    20.126567     20.84645      7169.27     5485.409    4881.1152    5807.0052    967.06304    -845.3879   -2424.9776   -2858.0278 
 1542000    260.96603   -3867.4772   -3420.1903   -3867.4772            0    8615.5839    17.018836    20.045941    20.762941    7083.4557    8695.1734    7909.8559    9241.7224    586.52458   -468.31374   -1187.3335    -2530.158 
 1543000    268.30762   -3874.9341    -3415.064   -3874.9341            0    7580.7977    17.037909    20.068406    20.786209    7107.2967    8281.0588    6130.4986    8330.8358     399.5188   -1093.9394    756.98051   -2629.2944 
 1544000    273.94303    -3873.356    -3403.827    -3873.356            0    9282.2985    16.974386    19.993584    20.708711    7028.0978    11193.504    9071.6879    7581.7031      -398.16    222.12983   -857.38305   -2452.4137 
 1545000    252.39361   -3920.3903   -3487.7963   -3920.3903            0    6512.1118    17.032602    20.062156    20.779735    7100.6582    5318.0673    6663.9928    7554.2754    873.49261    1454.5701   -454.58296   -2813.4292 
 1546000    250.86229   -3868.7308   -3438.7614   -3868.7308            0    7681.3456    17.071006     20.10739    20.826587    7148.7961    7352.7354    7222.8805    8468.4207    931.01024     218.2323    1074.7429   -2637.9208 
 1547000    259.10224   -3911.5367   -3467.4443   -3911.5367            0    7577.5598    17.019721    20.046984     20.76402    7084.5609    7503.7991    7442.9678    7785.9126    473.91851    645.14072    1666.1424   -2684.5229 
 1548000    259.94465   -3884.3296   -3438.7934   -3884.3296            0    9269.9843     17.06492    20.100221    20.819162    7141.1528     8403.836    8425.6919    10980.425   -154.23902   -115.75436    581.61087    -2473.358 
 1549000    256.24498   -3863.7633   -3424.5682   -3863.7633            0    9108.0128    17.059177    20.093458    20.812156    7133.9464    11919.225    8101.7919     7303.022   -204.04802    546.66934    1141.1611   -2476.9588 
 1550000    254.60898   -3872.4764   -3436.0853   -3872.4764            0    6650.3063    17.055282    20.088869    20.807404    7129.0606    7062.2288    5950.8376    6937.8524     312.7676   -480.38163    927.92635   -2744.6528 
 1551000    265.91331   -3874.6104   -3418.8441   -3874.6104            0    6449.1513    17.059106    20.093374     20.81207    7133.8573    6186.0334    6623.2007    6538.2199   -249.63689    -38.05104   -180.74583   -2747.8744 
 1552000    262.24499   -3891.3153   -3441.8364   -3891.3153            0    6405.2695    17.044728    20.076438    20.794528    7115.8337    4444.8089    7004.8709    7766.1288    163.44305     348.8279   -890.73677   -2777.1158 
 1553000    272.96335   -3909.0925   -3441.2427   -3909.0925            0    9089.5073    16.940007    19.953091    20.666769     6985.482    8525.0259    9222.9632    9520.5327     510.1441   -1517.2682   -1001.8828   -2515.2393 
 1554000    275.66242   -3886.5637   -3414.0877   -3886.5637            0    7771.7186    16.988249    20.009914    20.725625    7045.3323    7921.9859    7115.9812    8277.1887    -615.3856   -131.86481    1694.9464   -2615.5518 
 1555000     270.6723   -3896.7611    -3432.838   -3896.7611            0    7188.3497    17.089017    20.128604     20.84856    7171.4471    5947.3767    8927.7771    6689.8953    267.09493   -1017.0695    529.91556   -2681.0215 
 1556000    281.85337   -3857.1709   -3374.0838   -3857.1709            0    8865.4148     16.98423     20.00518    20.720721    7040.3326    10836.456    8932.8256    6826.9626     399.0771    -645.8315    1162.0384   -2463.8182 
 1557000     260.3399   -3875.4501   -3429.2364   -3875.4501            0    9772.9835    16.935266    19.947506    20.660985    6979.6178    9706.2838    8679.3753    10933.291   -809.16503    208.29721     1040.335   -2434.4389 
 1558000    257.77675   -3865.4367   -3423.6162   -3865.4367            0    6334.8837    17.088297    20.127757    20.847683    7170.5419     7253.565    6845.4785    4905.6076   -2020.7215    1283.8877   -1781.5745   -2761.1458 
 1559000    265.23437   -3875.7892   -3421.1865   -3875.7892            0    8097.1192    17.029187    20.058132    20.775568    7096.3871     7531.416    8725.7278    8034.2138    92.732058   -856.83915    836.79415   -2583.1871 
 1560000    253.50532   -3889.9444    -3455.445   -3889.9444            0    7712.5282    17.002821    20.027077    20.743402    7063.4772    7534.4419    6051.8126      9551.33   -295.43218    1300.2623     448.1694   -2660.9499 
 1561000    263.27203   -3866.5675   -3415.3283   -3866.5675            0    7063.1814    17.039005    20.069697    20.787546    7108.6683    6074.8756    6740.1673    8374.5013   -361.67134    482.53026    80.884109   -2683.0697 
 1562000    269.14666   -3844.0516   -3382.7434   -3844.0516            0    6929.7901    17.022946    20.050782    20.767955    7088.5889    8390.2149    5857.0924    6542.0631   -612.15447   -484.22133    964.50132   -2666.3431 
 1563000    260.17587    -3826.616   -3380.6835    -3826.616            0    9597.1292    16.996512    20.019646    20.735705    7055.6168    9712.3264    9129.6785    9949.3826    -637.2275   -1542.5166    1183.2081   -2393.1491 
 1564000     254.9904    -3878.549   -3441.5042    -3878.549            0    6097.6077    17.089626    20.129323    20.849304     7172.215    5243.5501    6911.4683    6137.8047   -384.12111     368.6702    1136.1595   -2803.6981 
 1565000    251.65299   -3892.9633   -3461.6387   -3892.9633            0    6533.5082    17.055773    20.089448    20.808004    7129.6766    4849.8319    9372.0623    5378.6303   -1279.3068    190.62548    745.62081   -2782.2909 
 1566000    264.48893   -3848.5614   -3395.2364   -3848.5614            0    8626.8235    17.083233    20.121792    20.841505    7164.1686    8675.2105    9092.8859     8112.374    512.33056    760.75407   -1908.4981   -2493.8883 
 1567000    250.02605    -3910.003   -3481.4669    -3910.003            0    8988.0358    17.017655     20.04455      20.7615    7081.9812    6498.0018    13755.022    6711.0838    11.986733    298.98675    141.11692   -2553.1517 
 1568000    252.48586   -3873.4059   -3440.6537   -3873.4059            0    7443.2943    17.131713    20.178896     20.90065    7225.3351    7288.4946    7525.7282      7515.66   -101.08329   -898.09593   -1529.6208   -2656.3233 
 1569000    246.63059   -3900.1404    -3477.424   -3900.1404            0    7846.7016    17.125282     20.17132    20.892804    7217.2007    8035.0643    9203.1338    6301.9067   -929.55657   -298.72964    491.00033   -2651.5157 
 1570000    259.19083    -3862.802   -3418.5578    -3862.802            0    6749.7112    17.174299    20.229056    20.952605    7279.3507    6164.5762    7180.5683    6903.9891   0.68389074   -117.19508    99.689188   -2701.9958 
 1571000    251.87217   -3852.3708   -3420.6705   -3852.3708            0    8649.7143    17.138009    20.186311    20.908331    7233.3035    7563.3888    9976.0093    8409.7448    1436.1066   -127.55775   -192.93579   -2508.2094 
 1572000    273.88362   -3828.8341   -3359.4069   -3828.8341            0    7605.3835    17.127992    20.174512     20.89611    7220.6277    5494.2721    8955.7078    8366.1705   -282.03189   -209.17334     134.1351   -2558.5186 
 1573000    256.36467   -3884.5594   -3445.1592   -3884.5594            0    7759.7569    17.014081     20.04034    20.757139    7077.5198    8144.7534    8114.9918    7019.5255   -985.48383   -206.80084    109.04083   -2644.2097 
 1574000    271.83313   -3886.1243   -3420.2116   -3886.1243            0    8430.0029    17.011556    20.037366    20.754059    7074.3691     9034.108    8129.0331    8126.8677   -738.78264   -1255.0936    84.774937   -2550.4678 
 1575000    259.01306   -3867.4485    -3423.509   -3867.4485            0    8174.0991    17.047802    20.080059    20.798279    7119.6851     7755.749    8723.4561    8043.0923   -1198.9887    572.42751   -132.83945   -2574.7653 
 1576000      251.441   -3865.5303   -3434.5691   -3865.5303            0      6316.56    17.123431    20.169139    20.890545    7214.8602    6567.7428    6133.0143    6248.9227   -592.82297    1118.0691   -206.63836   -2769.9322 
 1577000    248.62968   -3853.4635   -3427.3208   -3853.4635            0    7168.6558    17.020865     20.04833    20.765415    7085.9884    7239.2203    6662.5445    7604.2027   -423.62419   -358.15986    645.38557   -2686.4984 
 1578000    269.61099   -3820.7092   -3358.6052   -3820.7092            0    7492.2796    16.964119    19.981492    20.696186    7015.3533    8165.3362    7719.5826    6591.9199   -608.31763   -692.94269    14.019288   -2592.0571 
 1579000    262.87457   -3871.3274   -3420.7694   -3871.3274            0    8921.7876    17.002613    20.026833    20.743149    7063.2182     8572.088     9434.732    8758.5427   -98.667252    1802.5594    903.97188   -2501.7379 
 1580000    269.48987   -3854.6901   -3392.7937   -3854.6901            0     6547.416    17.158418    20.210349    20.933229    7259.1753    7389.3897    7913.2533     4339.605   -66.513435    224.19696   -1028.3981   -2699.6343 
 1581000     255.3221   -3853.7827   -3416.1694   -3853.7827            0    10432.225    17.062031    20.096819    20.815638    7137.5272    10248.597    9938.1543    11109.922   -17.282637   -1229.5762   -989.36666   -2330.2425 
 1582000    251.60787   -3886.5878   -3455.3405   -3886.5878            0    9099.1495    17.030213    20.059342    20.776821    7097.6709    9489.6638    9874.0059    7933.7788   -817.63075   -53.907948   -173.22495   -2513.4671 
 1583000    258.13908   -3899.7306    -3457.289   -3899.7306            0    6972.8757    17.110082    20.153417    20.874261    7198.0009    7894.0866     6025.674    6998.8664       489.58    533.88071    85.270323   -2725.3082 
 1584000    254.41831   -3814.4451   -3378.3808   -3814.4451            0    4288.1229    17.128985    20.175682    20.897322    7221.8835    4241.9408    5647.1641    2975.2636   -1697.8277    1286.8933   -462.83955   -2926.7396 
 1585000     255.0516   -3846.4253   -3409.2755   -3846.4253            0    8450.6744    17.014914    20.041322    20.758156    7078.5595    7781.0898    8519.2278    9051.7054   -64.700332    118.86893    1169.2388   -2536.8826 
 1586000     265.8074   -3868.9271   -3413.3423   -3868.9271            0    7594.1826    17.118193     20.16297    20.884155    7208.2412     7817.836    7617.6594    7347.0525   -160.98619   -1213.6539    -23.49882   -2615.0053 
 1587000     252.3909   -3851.5981   -3419.0087   -3851.5981            0    7987.6636    16.994402    20.017161    20.733131      7052.99    7037.1622    9805.7642    7120.0644    548.78577   -818.23223    718.40705   -2597.3927 
 1588000      259.271   -3826.6539   -3382.2723   -3826.6539            0     5721.815    17.132379     20.17968    20.901463    7226.1775    4239.1068    5181.5276    7744.8106   -807.98154   -475.15926   -584.90171   -2779.2709 
 1589000    245.02746   -3844.2499   -3424.2813   -3844.2499            0    7203.6303    17.045265     20.07707    20.795183    7116.5063    7410.1853    7224.2271    6976.4786    626.06189    1206.4863   -3088.5867   -2676.6385 
 1590000    252.28111   -3838.2493   -3405.8481   -3838.2493            0    8583.9967    17.084054    20.122759    20.842506    7165.2015    7214.3797    10360.579    8177.0319   -1072.8769    246.37847   -1391.1109   -2508.8452 
 1591000    258.23586   -3904.1352   -3461.5278   -3904.1352            0    7035.3461    17.015871    20.042449    20.759323    7079.7541     5792.907    7254.5521    8058.5791   -420.15824   -238.30681    -589.7712   -2735.1216 
 1592000    276.80979    -3891.038   -3416.5954    -3891.038            0    7245.4804    17.015901    20.042484    20.759359    7079.7909    5843.9861    9403.4453    6489.0099   -803.20306    184.21995    794.53132   -2668.4888 
 1593000    259.03575   -3897.8159   -3453.8375   -3897.8159            0    5610.9102     17.11589    20.160258    20.881346    7205.3334    4690.0504    5955.8002    6186.8798    642.05162   -490.69173    176.26977   -2864.2296 
 1594000     261.7981   -3891.0344   -3442.3214   -3891.0344            0    7417.2983    17.099006    20.140371    20.860748    7184.0309    7565.1117    8121.9042    6564.8791    1549.1934    828.17525   -849.83558   -2665.1983 
 1595000    264.45318   -3910.2813   -3457.0177   -3910.2813            0    7126.7923    17.011186     20.03693    20.753607    7073.9075     8879.235    5694.2722    6806.8697     600.6078   -1025.8376   -245.56022   -2721.7772 
 1596000    270.44501   -3903.1413   -3439.6078   -3903.1413            0    7148.0747     17.04729    20.079456    20.797654    7119.0432    7399.6328    8582.7539    5461.8374   -450.62017     1158.094   -182.32756   -2697.4665 
 1597000    261.32224   -3912.2709   -3464.3735   -3912.2709            0    6569.4651    17.077002    20.114453    20.833903    7156.3322     6041.902    7674.3352    5992.1581   -702.23829   -232.97866    270.45585   -2778.7331 
 1598000    248.94461   -3918.4644   -3491.7818   -3918.4644            0    7199.2947    17.140997     20.18983    20.911976     7237.087    6968.0206    6045.5646     8584.299   -1332.2235   -1463.5614   -322.09494   -2731.9287 
 1599000     268.0884   -3924.1755   -3464.6811   -3924.1755            0    7469.6584    17.087788    20.127158    20.847062    7169.9009    8091.9021     8297.611    6019.4622   -1095.8136   -99.175925    1460.4285   -2683.6114 
 1600000    248.52661   -3918.6494   -3492.6833   -3918.6494            0    7350.4261    17.062271    20.097102    20.815931    7137.8288    6418.6246    7929.7989    7702.8549    1145.7466    287.13277   -1178.7128   -2727.5193 
 1601000    243.44674   -3890.3138   -3473.0544   -3890.3138            0    9646.8399    17.013795    20.040004    20.756791    7077.1632    7757.9235    12849.399    8333.1971   -129.99961   -221.08777   -1171.2674   -2477.3735 
 1602000    269.33962   -3898.7355   -3437.0966   -3898.7355            0    5984.8105    17.083039    20.121564    20.841268    7163.9246    5945.6801    5749.5203     6259.231    144.13873    452.62623   -184.63782   -2811.8126 
 1603000    265.67138   -3879.9783   -3424.6267   -3879.9783            0    7075.5069    17.045174    20.076964    20.795073    7116.3933    5722.9196    6601.2067    8902.3945    -802.1023   -894.23367   -589.79257   -2690.2931 
 1604000      262.068    -3871.849   -3422.6734    -3871.849            0    6346.3902    17.074016    20.110936     20.83026    7152.5792    5777.2585    5475.1539    7786.7582   -585.57521   -55.125575    467.88157   -2760.6622 
 1605000    265.42639   -3871.2981   -3416.3663   -3871.2981            0    8016.8553    17.146296    20.196072    20.918441    7243.8016    7065.0584     8759.987    8225.5204   -173.65218    137.00723    32.095288   -2569.4383 
 1606000    256.51799   -3888.1762   -3448.5132   -3888.1762            0    6412.4685    17.074277    20.111243    20.830578    7152.9067    6210.8509    7665.1475    5361.4072    1596.4259    413.26462    1011.3307   -2779.5785 
 1607000    257.13541   -3875.9933    -3435.272   -3875.9933            0    7084.3279      17.0997    20.141188    20.861594    7184.9057    5767.9946    6774.7652    8710.2238    909.98363    -1474.172    686.03273   -2692.9444 
 1608000    257.29774   -3852.6046   -3411.6051   -3852.6046            0    7646.3429     17.01968    20.046934    20.763969    7084.5086    8240.2173    7888.8969    6809.9146   -58.361228    570.54846   -277.83969   -2621.5827 
 1609000    258.04526   -3887.8247   -3445.5439   -3887.8247            0    7672.0009    17.095683    20.136457    20.856694    7179.8438    9234.5323    6905.8032     6875.667    1932.3704     30.83145     268.4521   -2642.2037 
 1610000    253.41751   -3893.5279    -3459.179   -3893.5279            0    6894.8601    17.074805    20.111864    20.831222    7153.5697    8844.3713    4409.9209     7430.288     119.3317    177.91987    1693.0538   -2739.8556 
 1611000    271.51865     -3903.63   -3438.2563     -3903.63            0    6143.2343    17.118878    20.163777    20.884991    7209.1073     6218.818    6176.6535    6034.2313    890.20678    14.631442    -415.7149   -2792.3724 
 1612000    262.80743   -3898.1004   -3447.6575   -3898.1004            0    5797.8926     17.15166    20.202389    20.924985    7250.6014    6168.1121    7019.0311    4206.5345   -441.54939    176.19749   -930.51762   -2834.5733 
 1613000    254.39965   -3879.2888   -3443.2566   -3879.2888            0    7625.7224    17.007807     20.03295    20.749484    7069.6925    10513.054    7318.6927    5045.4207   -474.76087    646.36491    531.14809   -2657.0124 
 1614000    273.02175   -3891.2661   -3423.3161   -3891.2661            0    6067.5799    17.149938    20.200362    20.922885    7248.4189     6099.454    5790.4863    6312.7995    532.80891   -703.76914   -63.259513   -2781.9077 
 1615000    260.12454   -3857.9412   -3412.0966   -3857.9412            0     7816.125    16.968299    19.986415    20.701286    7020.5405    9105.4569    6067.0637    8275.8544   -953.35621   -1911.4329   -700.07426    -2611.824 
 1616000    250.29524   -3875.9564    -3446.959   -3875.9564            0    6577.2419    17.021166    20.048685    20.765782    7086.3644    5335.8026    7416.0333    6979.8897   -1831.5895    119.48115    -445.4456   -2767.2184 
 1617000    247.93358   -3894.7182   -3469.7685   -3894.7182            0    6857.6309    17.071355    20.107801    20.827013    7149.2346    6095.8093    6711.8842    7765.1993    213.41797    1375.6535      960.772   -2754.7628 
 1618000    258.98463   -3897.6002   -3453.7094   -3897.6002            0    7718.0569     17.01967    20.046923    20.763958    7084.4966    6887.5254    8417.8069    7848.8384   -585.90185    -30.96746    324.73361   -2656.2789 
 1619000    256.51351   -3870.2518   -3430.5964   -3870.2518            0    8337.3705    17.023788    20.051773    20.768981      7089.64    9050.3918    8458.5155    7503.2042   -1154.4596    166.10713   -250.12925   -2568.5529 
 1620000    260.83319   -3915.1962    -3468.137   -3915.1962            0     6898.921    17.043205    20.074645    20.792671    7113.9272    8267.0684    6121.5123    6308.1823    86.538735   -1675.6562    1352.7869   -2752.3786 
 1621000    267.02254    -3920.035   -3462.3675    -3920.035            0    5836.2973    17.004083    20.028564    20.744942      7065.05    5829.6182    7572.7413    4106.5324    155.69541   -1256.7732   -599.65102   -2861.0158 
 1622000    268.86863   -3884.2234   -3423.3918   -3884.2234            0    6869.6054    17.072011    20.108573    20.827813    7150.0587    5985.6287    6503.4936    8119.6938    1365.5371   -2656.7311   -140.45565   -2707.0549 
 1623000     255.9072   -3909.5862     -3470.97   -3909.5862            0    8192.6966    17.030589    20.059785    20.777279     7098.141    8048.2787     7434.522    9095.2892    182.81315     887.4424   -1386.3608   -2622.8694 
 1624000    257.44038   -3859.7185   -3418.4745   -3859.7185            0    7180.2945    17.085724    20.124726    20.844543    7167.3022    9372.1062    7315.9577    4852.8195   -493.78357   -510.51652     406.6223   -2667.9345 
 1625000    278.78459   -3863.0824   -3385.2552   -3863.0824            0    8323.5051    17.050506    20.083244    20.801578    7123.0733    7767.4176    7776.5281    9426.5695   -582.77847    51.864666   -1981.8072   -2520.5869 
 1626000    263.75738   -3893.2229   -3441.1518   -3893.2229            0    6183.3772    17.093735    20.134162    20.854316    7177.3887    5498.2855    5322.1542    7729.6919    517.06744    241.94324    778.47737   -2793.9077 
 1627000    261.73591   -3856.9162   -3408.3098   -3856.9162            0    7043.9324    17.128682    20.175325    20.896952    7221.5005    5905.0163     6908.014    8318.7667    -390.1144    776.24815   -601.94083   -2666.4557 
 1628000    265.85917   -3861.5902   -3405.9167   -3861.5902            0    7882.2699    17.014156    20.040428     20.75723     7077.613    7397.5955     9362.887    6886.3274   -97.476198   -222.34388     -851.474   -2592.3109 
 1629000    270.13632   -3871.7973   -3408.7929   -3871.7973            0    6068.8492    17.063094    20.098071    20.816935    7138.8612    6125.5029     5845.558    6235.4868   -1432.6418    715.92004    643.66022    -2776.947 
 1630000    254.40173   -3895.6173   -3459.5814   -3895.6173            0    8494.9326    16.990505     20.01257    20.728376    7048.1384    8899.6677    7131.8293    9453.3007    -640.4107    407.47459    846.75815   -2586.3884 
 1631000    247.87069   -3899.0151   -3474.1733   -3899.0151            0    6690.1586    17.036712    20.066997    20.784749    7105.7997    6516.7026    6316.2125    7237.5607   -1413.4753    2118.8116   -978.03904   -2780.8668 
 1632000    262.72543   -3845.2713   -3394.9689   -3845.2713            0    5955.3393    17.044706    20.076412    20.794502    7115.8068     7099.107    5901.4779    4865.4331    -1355.426   -1303.7214    209.70331   -2776.9432 
 1633000    254.93586   -3886.7887   -3449.8374   -3886.7887            0    6422.3969    16.970019    19.988441    20.703384    7022.6751    6311.9207    6723.3012    6231.9689   -711.18926   -390.53106    403.89573    -2792.065 
 1634000    252.54439   -3899.1179   -3466.2654   -3899.1179            0    7751.5904    17.047682    20.079918    20.798132    7119.5345    8406.6615    7652.1389    7195.9707   -1287.1774    112.24925    -657.9717   -2661.4092 
 1635000    251.46239   -3894.4522   -3463.4542   -3894.4522            0    7298.0456    17.038889     20.06956    20.787405    7108.5235    6839.3284    7723.2489    7331.5596    402.10172   -466.47358   -750.02456    -2706.862 
 1636000    256.76681   -3889.2693   -3449.1798   -3889.2693            0    7018.5136    17.043219    20.074661    20.792687    7113.9442     6741.719    7360.5226    6953.2992    564.38119   -287.59556   -676.11311    -2721.012 
 1637000    256.89058   -3890.3072   -3450.0056   -3890.3072            0    8169.0307    17.027793    20.056491    20.773867    7094.6447    6672.0902    10218.745    7616.2569   -1622.0322    1185.6936   -1436.3388   -2604.7714 
 1638000     268.4196   -3878.9388   -3418.8768   -3878.9388            0    7915.8371    17.005231    20.029916    20.746342    7066.4814    8738.6613    8159.8024    6849.0478    992.18516    766.93731   -1036.8115   -2603.0914 
 1639000    241.11677   -3874.3822   -3461.1163   -3874.3822            0    7110.7372    16.995974    20.019012    20.735048    7054.9466    6874.9398    7704.2046    6753.0672    676.13267     170.6677   -381.10313   -2729.4986 
 1640000    262.58328    -3861.043   -3410.9842    -3861.043            0    7889.4607    17.045016    20.076778     20.79488    7116.1951    9055.6162     7398.222     7214.544   -1514.0181    775.43152   -602.67475    -2592.197 
 1641000    249.31984   -3876.0597    -3448.734   -3876.0597            0    7045.5459    16.978501    19.998431    20.713731    7033.2101    8094.2486    8307.9347    4734.4544     190.0222   -298.68842    1213.7887   -2726.0572 
 1642000    255.44347   -3897.7558   -3459.9344   -3897.7558            0    5642.7853    17.067013    20.102687    20.821716    7143.7815    6677.6146    5434.0362    4816.7049   -669.40397    1378.0607    590.04191   -2872.0424 
 1643000    253.76534   -3883.9268   -3448.9817   -3883.9268            0     7516.672    17.050749     20.08353    20.801874     7123.378    6786.8894    7570.8271    8192.2996    83.266424   -1091.4605    1123.8949    -2668.096 
 1644000    252.35159   -3871.3339   -3438.8119   -3871.3339            0    9307.6239     16.98703    20.008477    20.724137    7043.8148    9956.3097    9246.2614    8720.3005    868.76757    1367.1128   -1114.0694   -2482.6694 
 1645000    275.93484   -3881.7414   -3408.7985   -3881.7414            0    8405.3002    17.082947    20.121455    20.841156    7163.8087    6365.4363    7987.7149    10862.749   -467.56694   -208.27925   -671.29211   -2530.6396 
 1646000    246.72625   -3873.9518   -3451.0714   -3873.9518            0    8719.6877    17.112753    20.156563    20.877519    7201.3719    7337.0568    11046.453    7775.5533   -945.31396   -77.650897    2.9691658   -2535.2895 
 1647000    242.80584   -3875.8385   -3459.6776   -3875.8385            0    7616.9065    17.075451    20.112626     20.83201    7154.3819     7528.615    8362.9981    6959.1065    108.95328    970.29286   -1548.3514   -2664.9347 
 1648000    256.99469   -3914.7017   -3474.2216   -3914.7017            0    7155.8032    17.104344    20.146658     20.86726     7190.761     7672.508    6628.2668    7166.6349   -378.72843     29.60601    547.41709   -2723.7934 
 1649000    273.49934   -3878.9087   -3410.1401   -3878.9087            0    7703.5608    17.087261    20.126536    20.846418    7169.2369     7511.098    6565.5266    9034.0577    777.18095   -1967.9091   -1174.0779   -2604.6869 
 1650000    247.51638   -3874.7028   -3450.4681   -3874.7028            0    9515.9296     16.98976    20.011693    20.727468    7047.2118    7912.5872    7871.9907    12763.211   -494.48656    2.6406354   -327.47227   -2472.4556 
 1651000    260.06186   -3877.1043   -3431.3672   -3877.1043            0    7822.1358    17.050613    20.083369    20.801708    7123.2068    8007.3371    6365.5375    9093.5328    247.07204   -291.73582    1717.5815   -2618.7672 
 1652000      247.129   -3875.7732   -3452.2026   -3875.7732            0    7882.6774    17.016506    20.043196    20.760097    7080.5458      7223.66    6648.5566    9775.8154    239.76178   -629.61356   -540.98063   -2638.2176 
 1653000    270.10762   -3883.2855   -3420.3302   -3883.2855            0    8899.7835    17.014061    20.040316    20.757114     7077.494    7399.6713    7900.9373    11398.742   -503.31429   -1578.4278   -1549.6096   -2501.7125 
 1654000    246.10733   -3872.8113   -3450.9918   -3872.8113            0    8011.0796    17.002119     20.02625    20.742545    7062.6021    6897.8989    9666.6069     7468.733    355.97795   -268.02229    327.94574   -2625.8441 
 1655000    256.20611   -3890.4892   -3451.3607   -3890.4892            0    6013.5351    17.063233    20.098235    20.817104    7139.0357    7504.5925    7073.5738    3462.4389    -423.9933    807.59027    329.19285   -2825.2584 
 1656000     236.2018   -3883.3063   -3478.4645   -3883.3063            0    7908.4662     16.99345     20.01604     20.73197    7051.8048    8122.4944    7551.3138    8051.5905   -1367.1566    1317.7596    867.63964   -2665.1314 
 1657000     258.1974   -3899.0399   -3456.4984   -3899.0399            0    8252.5597    16.950393    19.965324     20.67944    6998.3383    9720.0549    9740.5656    5297.0585   -1317.4499    550.06482    100.76594   -2614.2125 
 1658000    259.81345   -3894.0103   -3448.6989   -3894.0103            0    8064.7201    17.041021    20.072071    20.790005    7111.1919     6438.168     7936.364    9819.6283   -582.02913   -767.37776     -1198.44   -2612.3113 
 1659000    263.98532   -3919.1189   -3466.6571   -3919.1189            0    6310.7005     17.02685     20.05538    20.772717    7093.4667    4311.3905    7790.7864    6829.9245   -1396.4988    840.00842    482.78298   -2813.8093 
 1660000    276.71575   -3893.7317   -3419.4503   -3893.7317            0    6567.0145    17.059728    20.094106    20.812828    7134.6367    3361.4372    9521.4231    6818.1833   -725.19192   -168.26757    1143.8876   -2736.1435 
 1661000    236.95766   -3884.5871   -3478.4498   -3884.5871            0    8817.4361    17.008637    20.033928    20.750498    7070.7284    9845.8235    7151.9244    9454.5604    239.46201    2141.5919    778.44849   -2569.2018 
 1662000    260.82263   -3903.8902   -3456.8491   -3903.8902            0    7367.3004    17.075605    20.112807    20.832198    7154.5753    6868.3934    8310.9448    6922.5629   -500.77935    1492.0488    131.31538   -2688.1292 
 1663000    253.80117   -3838.9708   -3403.9643   -3838.9708            0     9403.877    17.035063    20.065054    20.782737     7103.736    8235.4466    9663.1301    10313.054   -309.75397    36.033029    1075.1808    -2429.716 
 1664000    258.15582   -3880.9539   -3438.4837   -3880.9539            0    7006.7575    17.080836    20.118969     20.83858    7161.1533    7621.3789    7896.7389    5502.1546    28.225809    659.74286     429.6499   -2706.7114 
 1665000    255.84204   -3859.5756   -3421.0711   -3859.5756            0    9642.3225    17.051192    20.084052    20.802415    7123.9335    10494.314    7713.4501    10719.204   -212.30016   -843.16434    1709.7002   -2419.2794 
 1666000    252.56204   -3846.7963   -3413.9136   -3846.7963            0     8719.809    17.114151     20.15821    20.879225    7203.1375     8314.379    7289.4058    10555.642   -507.22922    492.76464    2391.2299   -2497.8944 
 1667000    244.89056   -3892.6128   -3472.8787   -3892.6128            0    6186.5562    17.051219    20.084083    20.802447    7123.9662      4232.25    6134.2664    8193.1524   -972.77717    924.45486    69.542136   -2830.1219 
 1668000    281.56434   -3900.5585   -3417.9668   -3900.5585            0     5007.457    17.096399      20.1373    20.857567    7180.7454    4176.9927    4263.8533    6581.5248    423.02943    193.79887   -875.69471   -2893.5669 
 1669000    270.33248   -3888.8573   -3425.5167   -3888.8573            0    8147.9607    17.011118     20.03685    20.753524    7073.8226    8304.5264    8158.6022    7980.7536    552.23785    285.46701   -395.12197   -2584.9368 
 1670000    255.68074    -3876.497   -3438.2689    -3876.497            0    6532.5138    17.072609    20.109279    20.828544     7150.811    6270.0499    6592.1564    6735.3352    101.84156   -22.149562   -76.126198   -2757.0111 
 1671000    256.40021    -3891.277   -3451.8158    -3891.277            0    5744.3718    17.132983    20.180391    20.902199    7226.9416    6274.6636    5681.4513    5277.0006    -977.2289   -1052.7026   -373.86455   -2846.3732 
 1672000    268.67055   -3901.9272   -3441.4351   -3901.9272            0    6187.7092    17.018357    20.045377    20.762356    7082.8575    5017.8979    7736.7869    5808.4428    760.63793    -715.9333   -988.00867   -2802.2682 
 1673000    256.01431   -3871.3037   -3432.5039   -3871.3037            0    9179.0352    17.014771    20.041153    20.757981    7078.3808    10106.946    7815.6407    9614.5183   -1186.8372    749.56015   -62.088785   -2484.9436 
 1674000    246.85028   -3862.9025   -3439.8095   -3862.9025            0    9004.3764    16.989149    20.010973    20.726722    7046.4509     8888.646    8256.7827    9867.7004   -260.70462    -170.5584    511.79443   -2514.4725 
 1675000    271.06734   -3857.4977   -3392.8975   -3857.4977            0    7038.4466    16.990094    20.012086    20.727874    7047.6268    7853.0352    5877.9741    7384.3306     952.5001   -1416.0838   -971.83225    -2669.469 
 1676000    262.97316      -3890.4    -3439.673      -3890.4            0    7456.9829      16.9614    19.978289    20.692868    7011.9801    8391.8061    7020.9348    6958.2077    153.32489   -723.65824   -557.78537    -2677.103 
 1677000    268.74121   -3865.6254   -3405.0122   -3865.6254            0    8184.9791    17.034608    20.064519    20.782182    7103.1674     8977.345    9125.6418    6451.9506    691.85504   -331.19649    -830.9284   -2557.1105 
 1678000    268.38869   -3874.6098   -3414.6008   -3874.6098            0    5591.8557    17.091983    20.132099     20.85218     7175.183    6421.8753    5102.6915    5251.0001    -899.8581   -1016.6529   -427.26671    -2829.454 
 1679000    245.40938   -3849.7261   -3429.1028   -3849.7261            0    7195.5392    17.052602    20.085713    20.804135    7125.7003    7266.9996    9160.8155    5158.8025    2076.1835    481.02406     -1342.39    -2681.335 
 1680000    259.80354   -3890.5678   -3445.2734   -3890.5678            0    5489.7037    17.133058    20.180479    20.902291    7227.0367    4936.0208    6070.5652    5462.5252   -996.81001    1190.5322   -70.964572   -2866.6646 
 1681000    258.69102   -3852.8988   -3409.5113   -3852.8988            0    7904.5587      17.0716    20.108089    20.827312    7149.5423    7649.2413     9797.192    6267.2427    9.8766745    598.55976   -300.56002   -2585.3129 
 1682000    268.44931   -3856.5303   -3396.4174   -3856.5303            0     7292.965    17.074749    20.111799    20.831154    7153.5002    6917.7837    7899.9408    7061.1705    420.72824    103.45139   -1189.5947   -2635.5682 
 1683000    249.30795   -3870.1355   -3442.8302   -3870.1355            0    8870.7715    17.005864    20.030662    20.747115    7067.2706    10612.674    8592.8666     7406.774   -13.823799     650.5741   -1362.4141   -2528.5296 
 1684000     256.3012   -3890.3913   -3451.0998   -3890.3913            0    6816.0638    17.092312    20.132486    20.852581    7175.5972      6670.27    7881.0405    5896.8809    459.90996   -344.11329   -848.90693   -2737.8074 
 1685000    265.46562   -3861.7577   -3406.7587   -3861.7577            0    8409.2444    17.041513    20.072652    20.790606    7111.8085     8638.653    8590.1548    7998.9254    235.61488    49.892173    481.90363    -2534.565 
 1686000    276.67882   -3875.1692   -3400.9512   -3875.1692            0    8448.5749    16.984195    20.005139    20.720679    7040.2895    9976.3478    6132.4237    9236.9531    18.013545   -369.88655    738.70077   -2533.4904 
 1687000    256.23323   -3876.7332   -3437.5582   -3876.7332            0    7253.4203    17.032506    20.062042    20.779617    7100.5377    8177.0157    7666.1776    5917.0675    399.17045    420.13028   -836.44201   -2686.4371 
 1688000    281.90195    -3877.344   -3394.1737    -3877.344            0    10986.069    17.019339    20.046534    20.763554    7084.0837    10572.846    10770.148    11615.214   -510.67746    489.14914    704.08293   -2259.1579 
 1689000    244.85225   -3881.0387   -3461.3703   -3881.0387            0    5543.6695    17.142328    20.191398      20.9136    7238.7733    7135.9801     5209.926    4285.1023    102.20298     2017.339   -619.26985   -2876.1246 
 1690000    275.11741   -3845.0862   -3373.5444   -3845.0862            0    8579.1169    17.046552    20.078587    20.796754     7118.119    8168.9436    11771.589    5796.8177     452.4513    770.20441   -1056.4625   -2482.9423 
 1691000     269.4505   -3889.4301   -3427.6012   -3889.4301            0    7761.4584    17.074363    20.111345    20.830684    7153.0154    8875.3698    7444.0488    6964.9566   -302.93177   -69.416058    88.211001   -2617.9306 
 1692000    261.08535   -3871.9874   -3424.4961   -3871.9874            0    7712.0108    17.034955    20.064927    20.782606    7103.6013    7073.8046    8135.5599     7926.668   -526.45541   -523.72109    773.69866   -2625.5415 
 1693000    261.79157   -3855.9258    -3407.224   -3855.9258            0    8212.2856    17.026719    20.055226    20.772557    7093.3027    6109.9702    9280.5334    9246.3533    909.62404   -1068.1793    1240.8057    -2557.675 
 1694000    274.30616   -3894.0036   -3423.8522   -3894.0036            0    6981.6421    17.097887    20.139052    20.859382      7182.62    6612.3517    7285.5202    7047.0543    344.43204   -737.89773   -948.99742   -2692.5172 
 1695000    247.87917   -3892.9569   -3468.1005   -3892.9569            0    7642.0223    17.127267    20.173659    20.895226    7219.7111    9388.1156     8246.534    5291.4174    1035.7736    833.39927   -1285.7094    -2663.456 
 1696000    259.91051   -3880.7601   -3435.2824   -3880.7601            0    6110.4176    17.151601     20.20232    20.924913    7250.5269    6854.3717    5496.3352    5980.5458   -667.37666    1485.6189    393.03919   -2789.1576 
 1697000     256.3563   -3879.0675   -3439.6815   -3879.0675            0    7618.2905    17.112038     20.15572    20.876646     7200.469    8437.3855    7786.2236    6631.2625   -297.72408    218.98487    1050.6278   -2639.6738 
 1698000    259.26112   -3869.8214   -3425.4567   -3869.8214            0    6426.0874    17.105234    20.147706    20.868345    7191.8831    6380.1681    6513.3118    6384.7823   -907.44565   -671.29629   -1219.0935   -2751.4486 
 1699000    276.81869   -3877.7797   -3403.3219   -3877.7797            0    7869.1979    17.016614    20.043323    20.760229    7080.6804    8528.0419    7903.9551    7175.5967    1086.5172    909.01089   -735.10532   -2590.7135 
 1700000    270.20477   -3877.2453   -3414.1236   -3877.2453            0    8058.0138     17.06017    20.094627    20.813368    7135.1924     8275.841    10130.826    5767.3742   -303.96844    757.29947    403.15805    -2575.611 
 1701000     251.8505   -3857.5993   -3425.9362   -3857.5993            0    8950.7293    17.072682    20.109364    20.828632    7150.9018    11799.286    7053.9981    7998.9035    979.49864    3057.5556    186.82971   -2492.4774 
 1702000    254.06249   -3864.2502   -3428.7957   -3864.2502            0    6099.7002    17.108472     20.15152    20.872296    7195.9683    6148.4583    5264.5898    6886.0524    614.01052    439.78378    117.65206   -2788.6577 
 1703000    242.03759    -3879.882   -3465.0379    -3879.882            0    8962.8025    17.003015    20.027306    20.743639    7063.7188    8965.8438    9785.2119    8137.3517   -1387.2187    1711.7587   -730.21923    -2541.716 
 1704000    244.69604   -3875.4765   -3456.0759   -3875.4765            0    6756.5801    17.104083     20.14635    20.866941    7190.4315    7132.9952    6190.8783    6945.8667    1149.1179    786.98967    1551.0041   -2747.5466 
 1705000    256.91335   -3899.5494   -3459.2087   -3899.5494            0    6220.1491    17.039718    20.070537    20.788417    7109.5617      4923.03    7961.1498    5776.2674   -428.51768   -545.48524    1080.5285   -2814.2684 
 1706000    253.21098   -3882.1866   -3448.1916   -3882.1866            0    7428.6825    17.001462    20.025477    20.741744    7061.7835    6632.2175    6450.4835    9203.3466     542.6081    -1491.309    1288.7962     -2683.12 
 1707000    254.39673   -3876.9284   -3440.9011   -3876.9284            0    8216.2041    16.998391     20.02186    20.737998    7057.9579    8519.9154    7284.5751    8844.1216    2392.7017    389.34016   -1411.3611   -2595.1819 
 1708000    266.35974   -3876.9353   -3420.4038   -3876.9353            0    7695.0134    17.060298    20.094778    20.813524    7135.3528    6252.1633    7624.2956    9208.5814    81.405816    962.46757    2452.3048   -2619.6468 
 1709000    270.26445   -3888.7987   -3425.5746   -3888.7987            0    8649.3097    16.967591    19.985581    20.700421    7019.6611    10039.391    9158.0221    6750.5155   -1066.7997   -154.34631   -325.57511   -2540.1054 
 1710000    266.62704   -3850.4716    -3393.482   -3850.4716            0     6700.055     17.07875    20.116512    20.836036    7158.5302    7103.0118    8821.8213     4175.332    619.72426    91.933463    904.66669   -2693.9975 
 1711000    255.39538   -3880.7753   -3443.0364   -3880.7753            0    10503.939    17.021126    20.048639    20.765734    7086.3154    9859.8038    9942.3585    11709.655    785.46557     136.8665   -784.95119   -2357.4895 
 1712000     261.1413   -3883.2808   -3435.6936   -3883.2808            0    7186.1617    17.044933     20.07668    20.794779    7116.0915      7766.58    6390.6419    7401.2631   -962.05804    673.95729    321.56439   -2689.9073 
 1713000    265.51374   -3865.2972   -3410.2157   -3865.2972            0    7263.8128     17.03058    20.059773    20.777267    7098.1287     7171.475    6047.5232    8572.4401   -754.45317    -276.7524    1674.2058   -2658.2736 
 1714000    251.41749   -3853.0514   -3422.1305   -3853.0514            0    8744.6022    17.004916    20.029545    20.745958    7066.0882    8308.9587    7011.8601    10912.988   -991.70992   -723.81277    411.27532   -2520.9848 
 1715000    248.21766   -3900.0845   -3474.6479   -3900.0845            0    8266.6208    17.028585    20.057424    20.774834     7095.635    8948.5963     8682.227     7169.039   -2385.4009   -759.21609    1327.3752   -2619.1968 
 1716000    255.91701   -3874.7014   -3436.0684   -3874.7014            0    8554.0725     17.05859    20.092765    20.811439     7133.209    9723.8439     8726.015    7212.3586   -997.46257   -1342.3272    -1048.474   -2546.1836 
 1717000    260.61428   -3905.6642   -3458.9802   -3905.6642            0     5929.602    17.060098    20.094542     20.81328    7135.1018    7410.1799     3317.037    7061.5892   -566.14188    309.26465   -401.64917   -2841.9568 
 1718000    259.84169   -3882.8579   -3437.4981   -3882.8579            0    6527.1314    17.103194    20.145304    20.865857    7189.3112    6621.3663    6484.9552    6475.0726     1446.675   -438.48322    1286.6331   -2753.1367 
 1719000    250.79115   -3845.1305    -3415.283   -3845.1305            0    6841.9852    17.079561    20.117467    20.837024    7159.5494    8225.1618    5838.3971    6462.3967    314.35435    455.68123    645.01227   -2700.8793 
 1720000    244.44158   -3862.4673   -3443.5028   -3862.4673            0    9594.2501     16.97612    19.995627    20.710827    7030.2523    9498.7442    8871.3104    10412.696   -96.462376     16.69009    563.00371   -2459.8138 
 1721000    261.08321   -3874.4299   -3426.9422   -3874.4299            0    6345.5765    17.036707     20.06699    20.784742    7105.7924    6263.8169    5866.4828    6906.4296    824.29887   -758.35629      491.343   -2769.3457 
 1722000    253.54212   -3872.5177   -3437.9552   -3872.5177            0    7215.9971    17.090356    20.130182    20.850195     7173.134    8298.7989    6465.2389    6883.9534   -169.53593   -1280.3251    -163.0602   -2683.0695 
 1723000    260.66532    -3883.623   -3436.8516    -3883.623            0    6370.8821    17.062212    20.097032    20.815859    7137.7541     6526.296    5796.3873     6789.963   -747.92654   -82.731161   -627.81911    -2773.663 
 1724000    256.46496   -3859.2129   -3419.6407   -3859.2129            0     7563.374    17.011219    20.036969    20.753647    7073.9481    7269.2317    9122.0687    6298.8216   -1992.5864    134.90896   -104.95911   -2639.3556 
 1725000    250.84369    -3865.813   -3435.8755    -3865.813            0    6966.0196    17.006147    20.030995     20.74746    7067.6233    6986.6804    8421.3893    5489.9892    664.71777   -1246.7162    -983.6123   -2717.8598 
 1726000    263.01966   -3836.9312   -3386.1245   -3836.9312            0    8975.3353    16.983813    20.004688    20.720212    7039.8137     8901.274    8703.2559    9321.4759   -787.00044    1125.6183    604.26102   -2464.6406 
 1727000    275.45019   -3833.4929   -3361.3807   -3833.4929            0     9064.244    17.021098    20.048605    20.765699    7086.2796    9033.4327    9736.7567    8422.5427   -220.61631   -80.816591    13.014397   -2424.6263 
 1728000    262.30426   -3844.8897   -3395.3092   -3844.8897            0    7864.6018    16.999569    20.023247    20.739434    7059.4247    10000.582    6629.0567    6964.1671   -950.76729   -240.02188    1037.0553   -2585.6133 
 1729000     257.4318   -3882.4592   -3441.2299   -3882.4592            0    8166.9465    17.086233    20.125326    20.845164    7167.9434    7787.2371    8233.5396    8480.0627    1012.3377   -139.51163   -527.05857    -2587.481 
 1730000    263.85595   -3857.0093   -3404.7693   -3857.0093            0    8079.4125    17.092973    20.133264    20.853387    7176.4294    6575.8718     8778.643    8883.7228    -868.5023   -743.68301    192.41085    -2559.171 
 1731000    254.51327   -3848.6417   -3412.4147   -3848.6417            0      8856.55    17.011629    20.037452    20.754147    7074.4597    8943.2289    9051.4169    8575.0041    -498.7424    274.09953   -478.03071   -2498.6513 
 1732000    261.98201   -3874.0616   -3425.0334   -3874.0616            0     8146.097    17.011967     20.03785     20.75456    7074.8819    8090.9163    9603.0058    6744.3688   -1546.3739    914.13081   -203.25115     -2584.52 
 1733000    243.19438   -3840.7989    -3423.972   -3840.7989            0    8920.8143    16.988342    20.010023    20.725738    7045.4479    7781.6862    9015.3299    9965.4268    955.51313    928.17014   -14.804711   -2507.3527 
 1734000    262.07878   -3884.9203   -3435.7263   -3884.9203            0    7986.1134    17.062853    20.097787    20.816641    7138.5588    9647.4009    7534.6958    6776.2436   -1865.9034   -955.40788   -331.90313   -2604.3035 
 1735000    252.91619   -3907.7405   -3474.2508   -3907.7405            0      9212.51    17.001584     20.02562    20.741893    7061.9357    11729.728    8491.2899    7416.5123   -1217.6309    -924.8609   -224.98571   -2525.4444 
 1736000    254.44118   -3893.8056   -3457.7021   -3893.8056            0    6826.7221    17.085432    20.124382    20.844187    7166.9348    7729.3853    6831.1785    5919.6025    696.87638    690.42805    1033.6224   -2744.1568 
 1737000    261.70516   -3887.6528   -3439.0991   -3887.6528            0    8179.4529    17.040103    20.070991    20.788886    7110.0432    9061.2361    8517.5477    6959.5749    1123.4802    597.20218    734.13595   -2590.9496 
 1738000    259.86994   -3883.7387   -3438.3305   -3883.7387            0    5443.4685    17.056869    20.090739    20.809341    7131.0511    6510.0802    5059.8055    4760.5199   -1305.6837   -197.36218    1812.6226   -2872.2149 
 1739000    254.85583   -3877.7387   -3440.9246   -3877.7387            0    6667.9533    17.057746    20.091771     20.81041    7132.1507    7697.6814    5949.4079    6356.7707   -1767.1335   -237.16536    47.824675   -2747.3567 
 1740000    268.24966   -3881.3467    -3421.576   -3881.3467            0     6831.558    17.031137     20.06043    20.777948     7098.826    7096.4802    5975.2204    7422.9735   -3.4148305    559.05735    275.98794    -2714.311 
 1741000    261.44171   -3905.8011    -3457.699   -3905.8011            0    6680.6686    17.052476    20.085564    20.803981    7125.5426    6496.5828    6832.1408    6713.2822    318.38326    424.93244     694.2485   -2763.4524 
 1742000    259.09801   -3871.8467   -3427.7616   -3871.8467            0    5383.2838    17.125998    20.172164    20.893678    7218.1066    6399.3899     5340.624    4409.8374   -1298.7877   -501.47967    260.65638   -2861.0704 
 1743000    262.78731   -3858.0474   -3407.6389   -3858.0474            0    6662.7984    17.150249    20.200728    20.923264    7248.8126    6999.7091    5836.1066    7152.5795    565.21926    933.45203    1625.2431   -2703.2712 
 1744000    259.22281   -3872.3312   -3428.0322   -3872.3312            0    7913.6058    17.140051    20.188716    20.910822    7235.8889    7952.6159    7824.6132    7963.5883    -155.8965   -1540.8687   -1258.3697    -2592.925 
 1745000    266.36824   -3865.8464   -3409.3004   -3865.8464            0    5108.0417     17.08589    20.124921    20.844745    7167.5112    3303.5933    5145.5729    6874.9588   -193.65121   -233.34583   -144.34276   -2875.3527 
 1746000    266.33648   -3883.9897   -3427.4981   -3883.9897            0    7474.0105    16.995729    20.018724     20.73475    7054.6425    7452.8037    7233.5183    7735.7094    336.32143   -940.50373   -1751.6167   -2658.5366 
 1747000    257.38583   -3881.3919   -3440.2414   -3881.3919            0    7195.6179    17.075414    20.112582    20.831965    7154.3352    7078.8947    6581.3064    7926.6528    275.60067   -7.2964944    1059.9209   -2689.4604 
 1748000    254.23104   -3830.3277   -3394.5844   -3830.3277            0    7785.2128    17.101041    20.142767     20.86323    7186.5956    8670.9478    5668.8524    9015.8383    903.52441    1714.9085    349.15332   -2578.6231 
 1749000    250.64429   -3878.8767   -3449.2809   -3878.8767            0    8568.6545    17.013155    20.039249    20.756009    7076.3639    8319.7768     9570.766    7815.4206    211.01931   -199.45018   -520.33211   -2564.9829 
 1750000    269.66469   -3873.0523   -3410.8563   -3873.0523            0    6734.1112      17.1275    20.173932     20.89551     7220.005    6618.6867    6324.9131    7258.7336    772.59827     996.9267   -561.05792   -2701.7789 
Loop time of 443.029 on 64 procs for 250000 steps with 864 atoms

Performance: 97.511 ns/day, 0.246 hours/ns, 564.297 timesteps/s
99.1% CPU use with 64 MPI tasks x 1 OpenMP threads

MPI task timing breakdown:
Section |  min time  |  avg time  |  max time  |%varavg| %total
---------------------------------------------------------------
Pair    | 21.199     | 26.366     | 31.592     |  49.0 |  5.95
Bond    | 0.2861     | 0.29622    | 0.30705    |   0.8 |  0.07
Kspace  | 189.47     | 197.35     | 207.77     |  27.3 | 44.55
Neigh   | 5.3292     | 5.9039     | 6.6924     |  14.5 |  1.33
Comm    | 92.546     | 102.32     | 109.64     |  36.4 | 23.10
Output  | 0.96448    | 0.96708    | 0.97965    |   0.3 |  0.22
Modify  | 102.02     | 105.11     | 108.04     |  14.8 | 23.73
Other   |            | 4.716      |            |       |  1.06

Nlocal:        13.5000 ave          18 max           9 min
Histogram: 2 5 7 6 9 12 13 5 3 2
Nghost:        2209.41 ave        2242 max        2166 min
Histogram: 1 2 5 5 11 12 9 7 7 5
Neighs:        4275.64 ave        6261 max        2406 min
Histogram: 2 6 6 5 14 13 8 4 4 2

Total # of neighbors = 273641
Ave neighs/atom = 316.71412
Ave special neighs/atom = 2.0000000
Neighbor list builds = 13929
Dangerous builds = 0

unfix		3
unfix		2
unfix		1

write_data	data.final.${pid}
write_data	data.final.0
System init for write_data ...
PPPM initialization ...
  extracting TIP4P info from pair style
  using 12-bit tables for long-range coulomb (../kspace.cpp:340)
  G vector (1/distance) = 0.37352259
  grid = 24 24 24
  stencil order = 5
  estimated absolute RMS force accuracy = 0.0032463555
  estimated relative force accuracy = 9.7763033e-06
  using double precision FFTW3
  3d grid and FFT values/proc = 2535 216
Last active /omp style is kspace_style pppm/tip4p/omp
WARNING: Not all mixed pair coeffs generated from mixing. Use write_data with 'pair ij' option to store all pair coeffs. (../write_data.cpp:312)

write_restart   restart.lmp.${pid}
write_restart   restart.lmp.0
System init for write_restart ...
PPPM initialization ...
  extracting TIP4P info from pair style
  using 12-bit tables for long-range coulomb (../kspace.cpp:340)
  G vector (1/distance) = 0.37352259
  grid = 24 24 24
  stencil order = 5
  estimated absolute RMS force accuracy = 0.0032463555
  estimated relative force accuracy = 9.7763033e-06
  using double precision FFTW3
  3d grid and FFT values/proc = 2535 216
Last active /omp style is kspace_style pppm/tip4p/omp
Total wall time: 0:07:24
