#include		in.partitions
include		in.temp
variable        temperature equal 191.47
variable	tempDamp equal 100.0
include		in.pressure
variable        pressure equal 7462.1
variable        pressureDamp equal 1000.0 # This is 1 ps
include		in.seed
variable        seed equal 745823

units		real
atom_style	full

read_restart	restart.lmp.${pid}
read_restart	restart.lmp.1
Reading restart file ...
  restart file = 30 Jul 2021, LAMMPS = 30 Jul 2021
  restoring atom style full from restart
  orthogonal box = (0.068676137 0.14035618 0.076956274) to (19.931325 19.859645 20.623042)
  4 by 2 by 4 MPI processor grid
  restoring pair style lj/cut/tip4p/long/omp from restart
  restoring bond style harmonic/omp from restart
  restoring angle style harmonic/omp from restart
  972 atoms
  648 bonds
  324 angles
Finding 1-2 1-3 1-4 neighbors ...
  special bond factors lj:    0        0        0       
  special bond factors coul:  0        0        0       
     2 = max # of 1-2 neighbors
     1 = max # of 1-3 neighbors
     1 = max # of 1-4 neighbors
     2 = max # of special neighbors
  special bonds CPU = 0.002 seconds
  read_restart CPU = 0.009 seconds
include 	in.setup
variable	out_freq equal 1000
variable	out_freq2 equal 10000
variable	out_freq3 equal 1000

timestep	2.0

neigh_modify    delay 7 every 1

include		in.tip4p
# This is TIP4P/Ice

# create groups ###
group ox type 2
324 atoms in group ox
group hy type 1
648 atoms in group hy

# set charges - beside manually ###
set group ox charge -1.1794
Setting atom values ...
  324 settings made for charge
set group hy charge 0.5897
Setting atom values ...
  648 settings made for charge

# ### TIP3P Potential Parameters ###
pair_style lj/cut/tip4p/long/omp 2 1 1 1 0.1577 8.5
pair_coeff 1 1*2 0.000 0.000
pair_coeff 2 2 0.21084 3.1668
bond_style  harmonic
bond_coeff  1 450 0.9572
angle_style harmonic
angle_coeff 1 55 104.52
kspace_style pppm/tip4p/omp 1.0e-5
pair_modify tail yes

thermo          ${out_freq}
thermo          1000
thermo_style    custom step temp pe etotal epair emol press lx ly lz vol pxx pyy pzz pxy pxz pyz enthalpy

restart 	${out_freq3} restart.lmp.${pid} restart2.lmp.${pid}
restart 	1000 restart.lmp.${pid} restart2.lmp.${pid}
restart 	1000 restart.lmp.1 restart2.lmp.${pid}
restart 	1000 restart.lmp.1 restart2.lmp.1


include         in.dump
dump            myDump all atom ${out_freq2} dump.water.${pid}
dump            myDump all atom 10000 dump.water.${pid}
dump            myDump all atom 10000 dump.water.1
dump            myDump2 all dcd ${out_freq2} dump.dcd
dump            myDump2 all dcd 10000 dump.dcd
dump_modify     myDump append yes
dump_modify     myDump2 append yes


variable natoms 	equal  "count(all)"                        # NUMBER ATOMS
variable H      	equal  "enthalpy/v_natoms"                 # ENTHALPY-per-atom
variable Vol      	equal  "vol/v_natoms"                 # volume-per-atom
fix AVG all 		ave/time ${out_freq} 1 ${out_freq} v_Vol v_H file vol_enthalpy.dat
fix AVG all 		ave/time 1000 1 ${out_freq} v_Vol v_H file vol_enthalpy.dat
fix AVG all 		ave/time 1000 1 1000 v_Vol v_H file vol_enthalpy.dat


timer           timeout 02:55:00 every 1000
New timer settings: style=normal  mode=nosync  timeout=02:55:00

fix 		1 all shake 1e-6 200 0 b 1 a 1
       0 = # of size 2 clusters
       0 = # of size 3 clusters
       0 = # of size 4 clusters
     324 = # of frozen angles
  find clusters CPU = 0.001 seconds
fix             2 all nph aniso ${pressure} ${pressure} ${pressureDamp}
fix             2 all nph aniso 7462.1 ${pressure} ${pressureDamp}
fix             2 all nph aniso 7462.1 7462.1 ${pressureDamp}
fix             2 all nph aniso 7462.1 7462.1 1000
fix             3 all temp/csvr ${temperature} ${temperature} ${tempDamp} ${seed}
fix             3 all temp/csvr 191.47 ${temperature} ${tempDamp} ${seed}
fix             3 all temp/csvr 191.47 191.47 ${tempDamp} ${seed}
fix             3 all temp/csvr 191.47 191.47 100 ${seed}
fix             3 all temp/csvr 191.47 191.47 100 745823


run             250000
PPPM initialization ...
  extracting TIP4P info from pair style
  using 12-bit tables for long-range coulomb (../kspace.cpp:340)
  G vector (1/distance) = 0.37210904
  grid = 24 24 24
  stencil order = 5
  estimated absolute RMS force accuracy = 0.0035204378
  estimated relative force accuracy = 1.0601694e-05
  using double precision FFTW3
  3d grid and FFT values/proc = 3211 432
Last active /omp style is kspace_style pppm/tip4p/omp
Neighbor list info ...
  update every 1 steps, delay 7 steps, check yes
  max neighbors/atom: 2000, page size: 100000
  master list distance cutoff = 10.8154
  ghost atom cutoff = 10.8154
  binsize = 5.4077, bins = 4 4 4
  1 neighbor lists, perpetual/occasional/extra = 1 0 0
  (1) pair lj/cut/tip4p/long/omp, perpetual
      attributes: half, newton on, omp
      pair build: half/bin/newton/omp
      stencil: half/bin/3d
      bin: standard
Per MPI rank memory allocation (min/avg/max) = 10.18 | 10.19 | 10.19 Mbytes
Step Temp PotEng TotEng E_pair E_mol Press Lx Ly Lz Volume Pxx Pyy Pzz Pxy Pxz Pyz Enthalpy 
14250000    200.25774   -4836.5572   -4450.3433   -4836.5572            0    8315.2462    19.862649    19.719289    20.546085    8047.4353    7545.1385    9406.1231    7994.4768    -278.7087    595.79283   -618.33827   -3474.4362 
14251000    189.78479   -4849.6621   -4483.6462   -4849.6621            0    7124.1587    19.783968    19.807159    20.589393    8068.2459     5624.407    8414.2342    7333.8348   -482.93657    28.734428    172.92093   -3645.3672 
14252000    200.63503   -4861.9129   -4474.9714   -4861.9129            0    6957.9775    19.760398    19.951606    20.466189    8068.8288    5659.1629    8249.4768    6965.2927    910.19497   -505.50898    123.71205   -3656.1873 
14253000    185.30424   -4847.9586   -4490.5838   -4847.9586            0     6216.153    19.966367    19.801826    20.559128     8128.473     6800.011    6236.2388    5612.2092   -346.79397    602.44466   -892.67525   -3753.6872 
14254000     181.2523   -4847.6959   -4498.1356   -4847.6959            0    7420.8548    19.817138    19.701968     20.46477    7990.1959    9751.1859    5184.3534    7327.0251   -253.27302     157.0894    193.28129   -3633.3922 
14255000    189.16203   -4851.5863   -4486.7714   -4851.5863            0    5793.6353    19.812605    19.769235    20.666451    8094.6362    6901.3472    4976.6671    5502.8916    235.57945    557.07428    -965.8143   -3802.8214 
14256000    194.57732   -4843.9155   -4468.6568   -4843.9155            0    8260.8299    20.018887     19.75068    20.345276    8044.2502    7057.6714    8680.0986    9044.7198    138.57077    849.65447    627.81979   -3499.5198 
14257000    187.80625   -4839.3476   -4477.1474   -4839.3476            0    7123.0008    19.802636    19.718423    20.644179    8061.0721    5089.7403    9335.4859    6943.7761     302.1589    287.33843   -553.62229   -3639.7499 
14258000    183.96343    -4829.053    -4474.264    -4829.053            0    7189.9567    19.733973    19.901492    20.517158    8057.8164    7487.3687    6792.6524    7289.8489   -900.79813   -39.094527    23.029241   -3629.3364 
14259000    196.59986   -4832.0601   -4452.9008   -4832.0601            0    8387.6052    19.909534     19.76762    20.409194    8032.3264    6449.2817    9075.5681    9637.9657   -270.26796   -806.60585    387.18375   -3470.3495 
14260000    191.48599   -4835.0399    -4465.743   -4835.0399            0    7176.3532    19.929016    20.056972    20.197623    8073.3071    5903.3991    7216.5436    8409.1169    -135.7557    141.83246   -330.24845   -3620.7927 
14261000    195.26576   -4856.7786   -4480.1921   -4856.7786            0    7425.6697    19.752797    19.827153    20.622582    8076.6637    7547.8918    7824.5032    6904.6141   -50.642035   -302.85832   -1167.7685   -3605.5236 
14262000    190.52054   -4820.5505   -4453.1156   -4820.5505            0    5973.4973    20.146966    19.909215    20.308951    8146.1289    5009.2158    6230.1069    6681.1691   -129.50191   -528.27172    1090.8269   -3743.4466 
14263000    195.36449   -4826.0337   -4449.2569   -4826.0337            0    7564.4518    19.826895    19.748141    20.524638    8036.3051    7297.1375    8054.2731    7341.9448   -121.27958    555.61022   -494.03804   -3562.6935 
14264000    191.96404   -4866.9267   -4496.7079   -4866.9267            0    5323.8657    19.982885    19.730331    20.637255    8136.6286    4518.8194    5929.6323    5523.1453     857.4449   -47.075093    -901.0759   -3864.9546 
14265000    199.28765   -4866.4657   -4482.1227   -4866.4657            0      6940.02    19.918809    19.875998    20.377676    8067.6487     7136.773    5880.7297    7802.5572    115.56753    644.07416    422.84282   -3665.5712 
14266000    187.90583   -4839.2146   -4476.8224   -4839.2146            0    7814.9563    19.809904    19.678377    20.683005    8062.7889    9460.9203    7915.2572    6068.6915    579.17541    -962.9867    1467.0749   -3557.8811 
14267000    197.19934   -4858.8087   -4478.4932   -4858.8087            0      8059.29    19.753165    19.828265    20.505432    8031.3828    7816.9403    7787.4054    8573.5244   -698.19228    1064.6326    1431.1203   -3534.5127 
14268000    182.52284   -4851.9486   -4499.9379   -4851.9486            0    7673.7048    19.639975    20.000301    20.526521    8062.9285    9248.3429    6826.1644    6946.6071   -811.00602   -508.88456   -659.41015   -3597.5905 
14269000    194.97034   -4860.7226   -4484.7059   -4860.7226            0    7179.9422    19.927531    19.745345    20.488258    8061.6375    6725.6724    7674.9654    7139.1887   -470.39531   -65.754547   -36.606938    -3640.555 
14270000    187.76812   -4849.1528   -4487.0262   -4849.1528            0    6715.2759    19.802417    19.814659     20.53066    8055.7825    7965.1126    5619.6001     6561.115    133.35861    167.20717   -303.59939   -3698.0798 
14271000    189.63597   -4864.0278   -4498.2989   -4864.0278            0    7718.3126    19.891577    19.870806    20.319518    8031.5266    7084.1656    8060.3186    8010.4537    208.74123    1013.2545    1249.9274   -3594.2407 
14272000    182.64932   -4831.9376   -4479.6831   -4831.9376            0    7965.1803    19.823647    19.795796    20.607161    8086.7625    6783.9458    9842.3629    7269.2323   -142.77834   -1372.8431   -217.44075   -3540.2925 
14273000    190.40718    -4872.962   -4505.7457    -4872.962            0    6158.7937    19.933238    19.846918    20.464123      8095.88    6507.5019    5395.2703    6573.6088   -132.97769    609.75784    388.83862   -3778.5763 
14274000    200.35345   -4839.0871   -4452.6886   -4839.0871            0    7327.8929    19.802239    19.853802    20.607516    8101.8394      7866.68    6408.6672    7708.3315   -516.71559    -332.0677   -751.47383   -3586.8467 
14275000    196.04381   -4836.7802   -4458.6932   -4836.7802            0    7511.0483    19.872292     20.03566    20.265028    8068.6121    8406.9039      5281.02    8845.2209    1153.1578    1105.5547    74.353303   -3574.8499 
14276000    203.24805   -4853.0813   -4461.1003   -4853.0813            0    6654.1272    20.088615     19.58325    20.598816    8103.5821    5924.7026    8058.6951    5978.9838     374.1229    558.12027   -207.56253   -3674.6994 
14277000    195.31859   -4831.8265   -4455.1381   -4831.8265            0    8388.5009    19.852149    19.937781    20.496654    8112.7354    9391.9136    7055.4163    8718.1727   -569.54512    -136.2315   -216.27207   -3462.6449 
14278000    188.46184   -4857.3734   -4493.9089   -4857.3734            0    8517.3506    19.651212    19.931489    20.577968    8059.9356    9531.5427    8030.3523    7990.1568    262.34364    524.54684    1329.0042   -3492.7293 
14279000    198.14891    -4854.814   -4472.6671    -4854.814            0    8491.9161    19.912999    19.757609    20.516236    8071.7693    8575.3585    8636.8825    8263.5073    816.61318   -300.51272    655.91669   -3473.0117 
14280000    197.55417   -4844.6143   -4463.6144   -4844.6143            0    8158.7774    19.898516    19.814097    20.563587    8107.6288    9035.1831    8207.4334    7233.7157   -131.23313    174.63607   -280.37892   -3498.9087 
14281000    196.90372   -4836.4468   -4456.7015   -4836.4468            0      8484.63    20.141293    19.654093    20.396573    8074.1638    7122.6993    8832.1742    9499.0164   -205.66442   -680.10766    93.952886   -3457.6075 
14282000    192.45113   -4841.0259   -4469.8677   -4841.0259            0    8057.1052    19.797781    19.788222    20.540477    8046.9963    8752.7608    7115.5197    8303.0352    -140.0151   -11.788448   -1504.3725   -3524.3085 
14283000    187.72252   -4835.8049   -4473.7663   -4835.8049            0    7749.1802     19.93238    19.657657    20.569254    8059.5255    7053.2646    9009.1646    7185.1115   -398.14851     1275.928    270.29262   -3562.9283 
14284000    191.08667    -4857.792   -4489.2653    -4857.792            0    8349.1995     19.87491    19.804754    20.405848    8032.1033    8605.0618    7608.1783    8834.3584   -67.778555    388.32586     652.6109   -3511.2402 
14285000    194.04379   -4883.8502   -4509.6204   -4883.8502            0    7996.9454    19.549781    20.021026    20.527614    8034.6449    7699.2642    7393.9596    8897.6123   -428.88975    58.738761    1001.4434   -3572.5619 
14286000    174.27295   -4838.9269   -4502.8268   -4838.9269            0     5604.486    19.996749    19.555411    20.682459     8087.765    4470.1537    6216.2477    6127.0566    126.97068   -178.41552    527.61452   -3841.7678 
14287000    192.05797   -4851.6961   -4481.2962   -4851.6961            0    7114.1752    19.849926    19.770558    20.495183    8043.2143    6986.9556    7157.5911    7197.9787   -736.44495    243.32492    53.305089    -3646.789 
14288000    188.45258   -4831.3004   -4467.8538   -4831.3004            0    7337.2206    19.927638    19.736107    20.592968    8099.0904    6405.6294    8321.3327    7284.6997   -57.964783    370.48227     53.64645   -3601.2038 
14289000    184.19547   -4852.8962   -4497.6597   -4852.8962            0    7238.6446    19.901564    19.618871    20.594147    8040.9067     7951.822    6503.9353    7260.1766    -404.5953   -880.87607    -835.5689   -3648.7956 
14290000    187.94235   -4846.4387    -4483.976   -4846.4387            0    6828.2079    20.030144    19.684451    20.420565    8051.4695    6171.5231      6164.62    8148.4805    663.06127    304.52274   -191.10342   -3682.1913 
14291000    186.05039   -4828.1116   -4469.2977   -4828.1116            0    8143.0891    19.717323    19.695055    20.634144    8012.9346    8014.7133    9275.5469    7139.0072   -291.02045   -376.87493     896.6783   -3517.6928 
14292000    182.30672   -4838.4909    -4486.897   -4838.4909            0    8268.3274    19.921189    19.692423    20.483403    8035.5669    7469.9334    9008.3146    8326.7342    303.88217   -78.435808    1360.7813   -3517.9276 
14293000    202.78511   -4854.6023   -4463.5141   -4854.6023            0    7393.3781    19.789175     19.76553    20.572383    8046.7547    6788.4401    8148.6017    7243.0924   -114.52923   -157.82638   -107.06916   -3595.8742 
14294000    185.85334   -4862.3302   -4503.8964   -4862.3302            0    7572.7898    19.834594    19.959143     20.39814    8075.2465    7976.5745    6897.2776    7844.5174    159.21384   -74.336888   -7.0592136   -3612.0551 
14295000    185.03347   -4856.7147   -4499.8621   -4856.7147            0    9385.4339     19.61275    19.770076    20.614096    7993.0243    10370.177    9887.8082    7898.3162   -289.78197    1130.5053    2024.0224   -3405.8015 
14296000    187.03621   -4857.2863   -4496.5712   -4857.2863            0    5854.0862     19.98444     19.78129    20.511401    8108.5261    6904.2605    4152.0634    6505.9346   -71.990909    244.73985    -1944.753    -3804.299 
14297000    182.79536   -4838.8095   -4486.2733   -4838.8095            0    7866.0599    19.769367    19.907071    20.494955    8065.7933    9439.6075    7181.0109    6977.5614   -69.678544    76.058553    351.30596   -3560.9783 
14298000    185.76089   -4851.7606   -4493.5051   -4851.7606            0    8755.9931    19.598354     19.94891    20.475397    8005.1801    9439.1554    7405.6646    9423.1593    229.73033    71.980572   -8.9413672   -3471.2662 
14299000    196.85505   -4847.3992   -4467.7476   -4847.3992            0    7226.5658    19.717527    19.767271    20.669549    8056.1989    7724.4154     7954.155     6001.127    61.290758     432.6607    1507.6834   -3618.6883 
14300000    193.66958   -4873.3999   -4499.8919   -4873.3999            0    7249.3126    19.895287     19.77399     20.54549    8082.7849    7726.2055    5987.2993    8034.4329   -395.46071    768.22459   -602.88427   -3645.3492 
14301000    204.60326   -4822.5137   -4427.9191   -4822.5137            0    8075.3326    19.826094     19.99234    20.458285    8109.0507    9829.2112    6100.0859    8296.7006   0.50560945    603.66822   -176.62369   -3472.9126 
14302000    182.97221   -4845.8239   -4492.9466   -4845.8239            0    7735.5303    19.583601     19.97025    20.558649    8040.2698    8356.8308    6511.2534    8338.5068   -250.64511   -582.77882    1282.5965   -3585.8853 
14303000    181.26043   -4859.5751   -4509.9991   -4859.5751            0    7716.0266    19.886265    19.810821    20.536752    8090.7253     5701.231    9965.4139    7481.4348   -695.69698   -471.69974    274.00015   -3599.5471 
14304000    193.50887   -4830.7729   -4457.5748   -4830.7729            0    6413.2572    20.181228    19.691566    20.274999    8057.2843    5549.9789    6649.2708    7040.5218    398.60259    1253.1337   -357.73372   -3703.9707 
14305000    192.08142    -4844.353   -4473.9079    -4844.353            0    6415.7278     19.94297    19.678971     20.53453    8058.9224    6387.4325    5435.6894    7424.0615   -187.65691   -108.32265     530.3497   -3719.8602 
14306000    200.40619    -4839.247   -4452.7468    -4839.247            0    8297.8096     19.80618    19.858596    20.547635    8081.8558    9478.3199    6836.8283    8578.2805    687.13353    291.89067   -1032.3011   -3474.7207 
14307000    185.90115    -4855.721    -4497.195    -4855.721            0    8372.0068     19.89461    19.596581    20.513179    7997.3983    9477.2891    7466.9812    8171.7502     248.1942    542.31369   -411.56451   -3520.7356 
14308000    194.47155   -4857.3214   -4482.2667   -4857.3214            0    6874.5588    19.767945    20.053871    20.387727    8082.1803    8845.1769    4513.8845    7264.6151     514.8568    -3.627393   -97.398126   -3671.9603 
14309000    183.10307   -4847.4728   -4494.3431   -4847.4728            0    5037.8216    19.862753    19.855268    20.721527    8172.1618    6932.6142    3743.6686    4437.1821   -18.705505    1268.0505   -69.630007   -3893.9224 
14310000    196.23146   -4856.3574   -4477.9085   -4856.3574            0    6968.9045    19.754907    19.932783    20.414739     8038.717     7155.035    6263.8791    7487.7995    61.290176    885.77768    702.04018    -3660.899 
14311000    190.19258   -4840.2901   -4473.4878   -4840.2901            0    7173.6723    19.840699    19.813669    20.591688    8094.9434    7685.3687    6396.0838    7439.5644   -605.95602    522.82105   -1163.7718   -3626.5895 
14312000    194.65867    -4827.413   -4451.9973    -4827.413            0    6054.8713    19.936249    19.884369    20.481351    8119.2117    5791.5758     5568.061    6804.9772    53.421521   -810.93134   -388.59961   -3735.0378 
14313000    199.13678   -4840.7996   -4456.7475   -4840.7996            0    10661.474    19.841125    19.725172     20.43039    7995.8336    10495.531    10954.417    10534.475   -28.627222    280.44951    69.814875    -3213.502 
14314000    198.50204   -4860.8483   -4478.0204   -4860.8483            0    7605.4846    19.744802    19.915096    20.532316    8073.7092    6988.6414    7630.6784    8197.1341   -1.4291484    1457.2683   -646.66869   -3582.4992 
14315000    196.66749   -4868.7722   -4489.4824   -4868.7722            0     8416.981    19.901304    19.692873    20.553486    8055.1961    8845.4626    7456.2331    8949.2473    187.53546    911.06943    66.631846   -3500.6826 
14316000    196.76766   -4827.0938   -4447.6109   -4827.0938            0    7847.9016    19.768032    19.938086    20.439083    8055.7931    7070.7076    7955.1929    8517.8044   -831.96171   -177.13204   -271.27749   -3525.5964 
14317000    183.83036   -4843.0006   -4488.4683   -4843.0006            0    7024.1254    20.003825    19.476278    20.634746    8039.2983    4931.5553    9170.1801    6970.6408   -539.17585    1072.4965    90.004866   -3664.9253 
14318000    189.89286   -4841.8283   -4475.6039   -4841.8283            0    7263.5585    19.979456    19.762443    20.331426    8027.7183    5430.4346    8273.2405    8087.0004   -417.05006   -576.49398    646.06668   -3625.2153 
14319000    188.16647    -4869.434   -4506.5391    -4869.434            0    8318.7888    19.794525    19.707399    20.611318    8040.4465    8329.7147    7456.7097    9169.9419    135.04411    308.79246   -1560.2601   -3531.0641 
14320000    195.75797   -4848.3296   -4470.7938   -4848.3296            0     7718.335    19.777646    19.918712    20.503192    8077.1347    8351.1145      7278.93    7524.9604   -864.32834    302.83224    232.40145   -3561.5993 
14321000    193.99591   -4853.0065   -4478.8691   -4853.0065            0    6300.0931    19.941283    19.814544    20.447214    8079.2552    5425.8117    6990.3128    6484.1549    416.14181   -1031.8887   -659.55291   -3736.5439 
14322000    202.65519   -4836.8204   -4445.9829   -4836.8204            0    5737.5425    19.945888    19.890004    20.588305    8167.8701    5335.1466     6318.216    5559.2649   -94.364808   -284.56073      1166.76   -3762.5268 
14323000    182.15353   -4847.7142   -4496.4158   -4847.7142            0    9164.4016    19.644576    19.920467    20.435908    7997.1662    9070.8378    9537.3022    8885.0648   -286.99806   -235.29469    556.23697   -3427.5674 
14324000    178.28757   -4851.8932   -4508.0506   -4851.8932            0    7311.4103    19.943909    19.765837    20.640263     8136.558    5552.8653    8640.8346    7740.5309   -446.78688    240.29408   -43.423485   -3640.4542 
14325000    197.28843   -4868.2155   -4487.7282   -4868.2155            0    8153.1213    20.046906    19.938961    20.177363     8065.184    5898.7878    8749.6293    9810.9469   -409.35304   -1459.8615   -185.84579   -3528.7382 
14326000    193.25928   -4858.8139   -4486.0971   -4858.8139            0    6911.3209    19.782316    19.805994    20.652899    8091.9798    6814.7464    8471.7573    5447.4588    461.58412    682.30763    291.03094   -3670.4698 
14327000    173.80425   -4849.7784   -4514.5822   -4849.7784            0    7713.5255     19.74161    20.061331    20.399327    8079.0103    7752.2746     7465.159     7923.143   -571.51963   -876.07914   -264.38059   -3605.7432 
14328000      199.141   -4834.2628   -4450.2026   -4834.2628            0    8064.4282    19.697109    19.859006     20.59332    8055.3864    9942.1067    6870.2446    7380.9333   -112.80265   -901.61488   -674.79187   -3502.7973 
14329000    191.58391   -4864.3561   -4494.8705   -4864.3561            0    6779.9131    19.674004    19.899944    20.571596    8054.0179    7445.6785    6130.0585    6764.0022     210.9289   -11.811754   -687.67652   -3698.5047 
14330000    194.33137   -4835.3535   -4460.5691   -4835.3535            0    8314.3091    19.980883    19.694888    20.391447    8024.4676    6720.7583    9322.4654    8899.7035    516.05226    1323.8808    28.569648   -3487.5569 
14331000    197.16743   -4855.7278   -4475.4738   -4855.7278            0    7204.8267    19.767502    19.878598    20.551347    8075.6563    6061.2644    8271.4032    7281.8127    445.14483   -480.37932   -595.31982   -3626.9242 
14332000    184.73819   -4857.0523   -4500.7692   -4857.0523            0    7281.6451    19.808453    19.937272    20.378509    8048.0137    7487.9566    6198.8915    8158.0873    21.389377    1183.0993    575.69995   -3646.1078 
14333000    186.80809   -4834.4303   -4474.1552   -4834.4303            0    8135.0179    19.754127    19.929869    20.526089    8081.0633    8782.1646     7826.096    7796.7932    386.14655    210.99173    467.80362   -3515.4107 
14334000    197.45984   -4842.4912   -4461.6733   -4842.4912            0    6288.3699    19.955859    19.884844    20.493207    8132.0968    6302.8651    5695.2372    6867.0075    -739.4949   -1276.6924   -330.67377   -3715.8833 
14335000    185.93233   -4841.1762   -4482.5901   -4841.1762            0    8525.5267    19.775769    19.510581    20.672547    7976.2283    8113.3952    9076.4674    8386.7174    69.496025    351.67085   -565.90647   -3490.8572 
14336000    191.77422   -4855.2406   -4485.3879   -4855.2406            0    8226.2676    19.845298    19.774114    20.410663    8009.6174    8162.0053    8640.5498    7876.2477    421.83044    -285.4587   -1054.1839   -3524.4607 
14337000    184.94761   -4850.5052   -4493.8182   -4850.5052            0    5787.9323     19.86048    19.680411    20.788909    8125.6032    6684.0639    5612.0341    5067.6988   -144.02614   -688.04017   -205.55138   -3807.9275 
14338000    192.39353   -4843.3332   -4472.2861   -4843.3332            0    6201.0103    19.920878    19.662239    20.444576    8007.9168     7733.124    5241.9256    5627.9812    325.25202    888.02159   -857.76673   -3748.0871 
14339000    182.92215    -4873.094   -4520.3133    -4873.094            0    5985.2612    20.024794    19.741848    20.469747    8092.2321     4675.137    6523.2782    6757.3684    374.54043    1064.9107    1039.2346   -3813.9513 
14340000     186.7684   -4848.9985   -4488.7999   -4848.9985            0     7288.268    19.991852    19.744389    20.469998    8080.0589    7549.4147    7430.8448    6884.5445   -54.298246    90.694247    1101.8401    -3629.955 
14341000    194.01049   -4862.0268   -4487.8613   -4862.0268            0    8263.1208    19.787642    19.784265    20.500171    8025.4878    8304.1624    8647.5877    7837.6122   -92.554153   -726.00536    911.03475   -3520.7166 
14342000    187.14987   -4839.2315   -4478.2972   -4839.2315            0    6716.6313    19.701756    19.644955    20.712056    8016.3961     6067.412    6981.9914    7100.4906     -199.365    535.85604    110.61918   -3693.0497 
14343000     190.5286   -4831.1567   -4463.7063   -4831.1567            0    7489.1833    19.979368    19.838069    20.411694    8090.2171    5662.0333    9105.4668    7700.0497   -4.9844722    -425.9368    1900.8412   -3580.0761 
14344000    187.57947   -4843.7059   -4481.9431   -4843.7059            0    7199.6243    19.768893    19.742191    20.727054    8089.3812    7185.6788    7205.6108    7207.5832   -312.33904   -1679.0414    719.85953   -3632.5651 
14345000     180.8191   -4860.5957   -4511.8709   -4860.5957            0    7852.2249    19.753886    20.129367    20.312787    8077.0388    8827.0973    5621.6141    9107.9633    103.06719   -851.76118     359.8524   -3586.9155 
14346000    195.88993   -4851.2145   -4473.4243   -4851.2145            0    7592.0721    19.864365    19.808122     20.50698    8068.9997    8094.3233    7787.1934    6894.6998     -491.201    418.04173    299.96271   -3580.0038 
14347000    195.04323   -4852.6397   -4476.4824   -4852.6397            0    8203.9683    19.881436    19.780093    20.471402    8050.5152    7818.9241    8588.4961    8204.4847    284.39051    39.684068    44.654392   -3513.2667 
14348000    194.57427   -4865.6251   -4490.3723   -4865.6251            0    6082.9143    20.000325    19.966946    20.384388    8140.4119     5059.612    6526.8052    6662.3256   -31.830537     673.3705   -393.94371   -3768.2114 
14349000    186.39329   -4840.3188   -4480.8437   -4840.3188            0    7916.8198    19.751638    19.667582    20.636326    8016.5314     8937.229    6970.8322    7842.3982    184.53918    263.80959   -1463.4189   -3555.2654 
14350000     193.0118   -4856.9505    -4484.711   -4856.9505            0    7022.7063    19.637784    19.905512    20.595512    8050.7888    8214.4837    6383.7468    6469.8883   -549.35331     803.5155    278.61129   -3660.1576 
14351000    185.94005   -4866.0244   -4507.4234   -4866.0244            0    7776.2135    19.965924    19.805311    20.392065    8063.6614    7422.1767    8076.5739    7829.8898    14.391649   -15.085956    316.35777   -3592.9389 
14352000    187.85457   -4846.1972   -4483.9039   -4846.1972            0    7076.8948    19.952509    19.743396    20.582134    8107.9258    9032.9996    6108.3348    6089.3501   -840.74955    411.02611    625.97389   -3647.0909 
14353000    191.38747   -4836.1235   -4467.0167   -4836.1235            0    6083.7489    19.699024    20.031896    20.470082    8077.6747    4491.9539    6592.6442    7166.6485     109.8356    404.83789    139.69847   -3750.3231 
14354000    192.02901   -4844.2221    -4473.878   -4844.2221            0    6719.5029    19.744276     19.87068    20.675053    8111.4887    8371.3046    6313.5775    5473.6266   -516.70409    680.95133    58.805704    -3678.976 
14355000    190.14673   -4815.5812   -4448.8673   -4815.5812            0    7726.9254    19.946858    19.797698    20.534553    8109.1334    7224.2876    8584.3984    7372.0902   -62.392142    519.63101    222.13579   -3535.0548 
14356000    178.08107   -4850.8607   -4507.4163   -4850.8607            0    6487.1482     19.96934    19.851104    20.480872    8118.8931    5649.2147    8405.6158     5406.614        498.5    759.87174    133.15413   -3739.3008 
14357000    193.13047   -4842.3133   -4469.8449   -4842.3133            0    6855.7078    19.758356    19.694958    20.665794    8041.8871    4182.3591     9241.259    7143.5052   -295.89761    467.66582    1392.9573   -3665.7892 
14358000    194.35009   -4839.6535    -4464.833   -4839.6535            0    8049.7182     19.76072    19.911997    20.432368    8039.6342    10266.381    5631.8568    8250.9164    245.49126   -631.22615    320.60383    -3521.005 
14359000     190.4843    -4850.111    -4482.746    -4850.111            0    8277.8658    19.781981    19.733887    20.730495    8092.6749    9063.0027    7186.2375    8584.3571    69.021444    650.72951   -892.99906   -3505.7644 
14360000    198.41441   -4845.3964   -4462.7375   -4845.3964            0    8489.8934    20.061919    19.736951    20.357517    8060.7849    9175.4184    7729.5522    8564.7095   -19.934388    819.60166    1167.7049   -3464.6802 
14361000    191.96063   -4822.3035   -4452.0913   -4822.3035            0    9859.0952    19.654622    19.704344    20.671695    8005.7638    10386.076    10850.368    8340.8414   -455.46089    744.36462    803.79903   -3300.9842 
14362000    188.53176   -4835.3906   -4471.7912   -4835.3906            0    6579.0332    19.930472    19.964936    20.333486    8090.9099    6908.7263    5429.0079    7399.3654   -323.98414    288.67885     282.8261   -3695.4809 
14363000    191.01281   -4858.6333    -4490.249   -4858.6333            0    8812.9902    19.871019    19.583252    20.538537    7992.3494    8448.6102    9035.2613    8955.0991   -299.71219    951.01204   -295.23182    -3463.005 
14364000    196.76347   -4851.3314   -4471.8565   -4851.3314            0    7385.6865    19.958107    19.767767    20.446125    8066.5526    5602.1848    7886.7108    8668.1638   -121.23054   -402.63492   -520.27636   -3602.9867 
14365000    190.16124    -4847.148   -4480.4061    -4847.148            0    7758.6422    19.766411    19.853616    20.493062    8042.1893    7122.2196    8708.3571      7445.35   -517.68885    186.74217    239.12466   -3570.4176 
14366000    185.11681   -4858.8376   -4501.8242   -4858.8376            0    9156.8493    19.805034     19.76352    20.569618     8051.302     9003.565    10087.177    8379.8062      75.3062    697.03741    695.00032   -3426.6272 
14367000    184.88139   -4867.4028   -4510.8435   -4867.4028            0    6470.3029    19.930285    19.808963    20.595012    8130.8752     5548.885    6665.2634    7196.7603   -70.485593    214.14102    418.67189    -3743.592 
14368000    188.00708   -4863.1018   -4500.5144   -4863.1018            0    7315.3368    19.877578    19.988955    20.395592    8103.8217    9527.3289     5227.733    7190.9484    28.118868   -1102.8339    352.76179   -3635.9445 
14369000    186.46912   -4864.3101   -4504.6887   -4864.3101            0    6699.7312    19.952881    19.713401     20.61313     8107.951    5262.2443    8609.1506    6227.7986    65.397247   -478.57248   -281.88374   -3712.4713 
14370000    188.55566   -4848.2708   -4484.6254   -4848.2708            0    6715.0208    19.972116    19.774876    20.689879    8171.3875    5460.9906    8014.6506    6669.4212   -77.697153    942.66842    -534.9865   -3684.3876 
14371000    182.76154   -4854.4852   -4502.0142   -4854.4852            0    7012.2518    20.124533     19.91644    20.125901    8066.6435    7131.5148    6334.7272    7570.5132    -197.0959   -309.32121    431.02379   -3677.0668 
14372000    197.04386   -4841.9104   -4461.8947   -4841.9104            0    7439.8512    19.694356    19.829891    20.699375    8083.8708    6853.6048    8926.6363    6539.3126   -55.715888   -733.33634   -712.26944   -3584.7737 
14373000    187.29884   -4845.4009   -4484.1794   -4845.4009            0    7431.3969    19.877328    20.078756    20.222871    8071.1905    6650.3098    7917.9555    7725.9255   -257.74904    474.96908   -88.383464   -3609.4294 
14374000    193.78621   -4852.0064   -4478.2734   -4852.0064            0     8572.934    19.765904    19.853284    20.525661    8054.6408    8816.3806    8661.4745     8240.947      22.6626   -4.6135119   -1023.3927   -3471.2222 
14375000    208.58886   -4868.8711   -4466.5899   -4868.8711            0    5658.8062    19.941669    19.836423    20.580497    8141.0556    5235.6076    4995.1559    6745.6551    553.78685      -142.92   -286.34651   -3794.7258 
14376000    173.44115   -4844.7093   -4510.2134   -4844.7093            0    6671.8216     19.82539    19.721678    20.674595    8083.5591    7618.9459    6916.8974    5479.6215    493.06961     333.8907    181.71065   -3723.6696 
14377000    194.53435   -4858.6866   -4483.5108   -4858.6866            0    7544.5492    19.711147    19.911029    20.498719    8045.1164    7374.9126    8218.3707    7040.3642    -546.4132   -716.32441    226.20245   -3598.3105 
14378000     185.5074   -4852.7283   -4494.9617   -4852.7283            0    6150.4977    19.819457    19.972224    20.503784    8116.1899    8372.1591     5956.863    4122.4711    198.66234    126.29445   -199.56819     -3766.95 
14379000    207.00177   -4844.5663    -4445.346   -4844.5663            0    6857.9528     19.93637    19.534929    20.665385    8048.2494    5648.4321     7876.796    7048.6304     159.0322   -172.64417   -1035.9762   -3640.3906 
14380000    181.95947   -4872.2636   -4521.3395   -4872.2636            0    5492.6224    19.933213    19.868034    20.508775    8122.1672    3049.5646    7108.2873    6320.0153    251.85616    630.49084   -131.48327   -3870.7193 
14381000    185.11489   -4867.3642   -4510.3546   -4867.3642            0    7431.6277    19.990284    19.762625     20.40956    8063.0111    7662.4294    6884.5512    7747.9026   -15.432307   -950.80644    176.60276   -3636.4639 
14382000    196.74155   -4841.3408   -4461.9081   -4841.3408            0    7361.1284     19.72725    19.903623    20.582782    8081.7009    6217.1092    7363.2436    8503.0323    73.444609    754.54018    46.219769   -3594.3011 
14383000    194.82645   -4831.8058   -4456.0667   -4831.8058            0     8970.213    19.772317    19.919635     20.45234     8055.304    9752.7384    8621.7466    8536.1542   -958.95393     869.6506   -221.67831   -3402.2609 
14384000    184.88166   -4849.9197   -4493.3599   -4849.9197            0     6365.767    19.760084     19.68455    20.743853    8068.7025    6131.7277    6546.6779    6418.8953   -475.12146    822.68433    1557.4498   -3744.2763 
14385000    188.96409    -4843.324   -4478.8909    -4843.324            0    8286.9686    19.913883    19.720956    20.341934     7988.701    7575.8606      9064.54    8220.5054   -111.96859   -6.2969708    803.40576    -3513.401 
14386000    192.22236   -4838.2777   -4467.5607   -4838.2777            0    7706.1014    19.804902    19.731976    20.471318    7999.9834    6680.5195    9432.4725    7005.3122   -646.50726     223.3642    -655.4486   -3568.4779 
14387000     189.3242   -4859.4967    -4494.369   -4859.4967            0    6517.5603    19.936502    19.688368    20.623908    8095.2381    6706.9679    7249.0282    5596.6849   -124.44548    137.87298   -262.23726    -3724.901 
14388000    183.73155   -4843.1647   -4488.8229   -4843.1647            0    7128.5701    19.872223     19.85429    20.522394    8097.0876    8817.5167    4948.7866     7619.407   -440.69246    1615.0193    619.60771   -3647.0263 
14389000    182.57746   -4860.5611   -4508.4452   -4860.5611            0    8200.8535    19.584446    19.716713    20.729618    8004.5535    10448.429    7319.7304    6834.4011    260.98399   -1510.9384    29.074355   -3551.0923 
14390000    195.23746   -4842.7931   -4466.2612   -4842.7931            0    7636.2115    20.010741    19.597006    20.531433    8051.4137    6292.5853    9414.7853     7201.264   -230.10722   -998.91087   -344.06251   -3569.6049 
14391000    184.43667   -4843.7679   -4488.0663   -4843.7679            0    8694.1109    19.991542    19.576807     20.65648    8084.3383    8346.1922    9215.0435     8521.097   -377.40843    1194.8559   -45.415023   -3463.0152 
14392000    197.25958   -4854.8203   -4474.3886   -4854.8203            0    7561.9806    19.558233    19.893313    20.548724    7995.0573    8458.3169    6812.9363    7414.6885    211.15223   -501.53741   -877.04752   -3592.6638 
14393000     188.1989     -4852.67   -4489.7126     -4852.67            0    6938.2589    19.925432    19.926289    20.378754    8091.1788    7169.9119    6024.9532    7619.9116    278.29547    1383.8647    435.28062   -3670.9874 
14394000    198.02414   -4859.4394   -4477.5332   -4859.4394            0    7395.1451    19.716101     19.73666    20.638979    8031.2457    6696.1101    9666.9802    5822.3451    198.94275   -586.10898    331.88234   -3611.3585 
14395000     191.7999   -4855.3652   -4485.4629   -4855.3652            0    6368.4981    19.813333     19.89052     20.45955    8063.0577     7026.811    5338.9116    6739.7716   -102.02991    107.65727   -272.41545   -3736.5821 
14396000    185.83692   -4858.7322   -4500.3301   -4858.7322            0    6407.3455    19.695033    20.009224    20.463952    8064.4818    6079.4357     7194.556    5948.0447    -300.7207    110.18825    1524.0336   -3746.7481 
14397000    187.24471   -4868.4757   -4507.3586   -4868.4757            0    6859.5036    19.798855    19.749168    20.702143     8094.764    7342.1358    7495.6844    5740.6904    -840.9295    619.99907   -225.21334   -3697.5679 
14398000     191.0721   -4860.0852   -4491.5866   -4860.0852            0    8738.8263    19.741102    19.768816    20.495123    7998.3904     8381.161    8987.4478    8847.8702   -86.147691   -426.35453    210.36803   -3472.2172 
14399000    198.73353   -4847.7782   -4464.5038   -4847.7782            0    7475.4569    20.035983    19.818188    20.295437    8058.8484    7301.9226    6865.1775    8259.2705    282.83256    497.87922    -457.4581   -3585.9131 
14400000    194.43557   -4867.8705   -4492.8852   -4867.8705            0    6140.1583    19.745623    19.859397    20.650299    8097.7288    8508.1231    3919.4376    5992.9141    402.73442   -1671.5565    745.37054   -3767.7505 
14401000    197.81048   -4828.5092   -4447.0151   -4828.5092            0    8969.7113    19.971313    19.832326      20.3459    8058.5552    8902.1799    8441.7178    9565.2363    538.95655   -78.155894    87.022427   -3392.8429 
14402000    191.91907   -4845.7926   -4475.6605   -4845.7926            0    8607.1875    19.655356    19.877274    20.677609    8078.6365    9097.9254     8521.831    8201.8063   -1097.1672   -1249.8209    719.44125   -3461.5735 
14403000    190.04598   -4845.1614   -4478.6417   -4845.1614            0    7700.8796     19.90931     19.90872    20.234155    8020.1894    5945.4887    7156.6142    10000.536     567.4183    5.2216984   -921.18455   -3577.8988 
14404000    188.54508   -4843.8531   -4480.2281   -4843.8531            0    7401.5805    19.901442    19.734902    20.530037     8063.234    7468.1548    6745.3746     7991.212    -671.8044   -143.45602   -2468.3087   -3609.8466 
14405000    192.67264   -4857.2589   -4485.6735   -4857.2589            0    7631.6937    19.728001    20.006667    20.526953    8101.8147    8859.0352    7391.4029     6644.643    -561.3358    50.959937    168.15649   -3583.9381 
14406000    180.55669   -4845.9767   -4497.7579   -4845.9767            0    7819.3246    20.059265    19.748562    20.325444     8051.755    7452.2218    8241.6779    7764.0741    745.90676    456.90044    314.17991   -3579.5613 
14407000    195.38123      -4854.7   -4477.8908      -4854.7            0    6753.4364    19.797515    19.788359    20.679141     8101.267    6553.2602    6624.7407    7082.3084   -275.22137   -321.25533   -1250.6186   -3679.9813 
14408000    186.02566   -4858.5966   -4499.8304   -4858.5966            0    6387.1696    19.783773    19.839783    20.412551    8012.0437    5825.5838    5314.3363    8021.5888   -166.04467   -1605.4605    928.86826    -3753.506 
14409000    181.67892   -4848.6653   -4498.2823   -4848.6653            0    7498.0816    19.814972    19.790385    20.478525    8030.5705    7062.2804    7961.0599    7470.9046   -497.95191    198.64908   -420.68668   -3620.1247 
14410000    188.89425   -4841.2071   -4476.9087   -4841.2071            0    8434.3896    19.899728    19.780468    20.461795    8054.2933    7828.5518    8233.1582    9241.4588   -707.16615    527.04646     -316.496   -3486.1748 
14411000     182.7707   -4850.5085   -4498.0198   -4850.5085            0    7976.1767      19.9044    19.740727    20.605314    8096.3908    9184.8816    6586.5606     8157.088    325.05888    1271.2345    1378.5614   -3556.2124 
14412000    183.13279   -4842.9368   -4489.7498   -4842.9368            0       6173.8    19.842632    19.969794    20.549261    8142.7125    5359.3695    7474.2397    5687.7909    -110.5525    535.51534    -289.2459   -3756.5919 
14413000    189.48907   -4845.9074   -4480.4618   -4845.9074            0    7487.4214    19.904106     19.81463    20.523295    8094.2334    7590.7744    7873.4847    6998.0051   -473.01674   -177.79602   -526.05018   -3596.6009 
14414000    180.44213   -4839.6875   -4491.6897   -4839.6875            0    7576.6061    19.989516    19.852427    20.328512    8067.1751    7437.8451    7287.1187    8004.8544    214.89988   -1500.4941    235.87687   -3600.2908 
14415000    188.95516   -4844.3501   -4479.9342   -4844.3501            0     8084.729     19.62753    19.890929    20.550579    8023.1474    9043.3909    7100.7544    8110.0416   -866.65054   -360.84025   -859.66951   -3533.9451 
14416000    192.21532    -4843.963   -4473.2596    -4843.963            0    6518.6612    19.985535    19.777153    20.395011    8061.2708    6441.3435    6969.6592    6144.9811   -2.8738362    112.19192    919.26377   -3706.8908 
14417000    193.64386   -4859.9756   -4486.5171   -4859.9756            0    6464.1522     19.81687    19.799287    20.732132    8134.4573    7432.1703    6074.4772    5885.8093    358.07222    133.34642   -128.92134   -3719.6572 
14418000    195.09936   -4834.2737   -4458.0081   -4834.2737            0    6146.9305    19.997652    19.933788     20.31368    8097.6211    5132.8324    5635.7939    7672.1652   -880.10972     1462.432   -862.50376   -3732.0833 
14419000    194.07261   -4829.5964   -4455.3111   -4829.5964            0    7619.2809     19.77206    19.768072    20.617578    8058.4937    8819.6935     8033.947    6004.2021   -525.06305    1067.4913    347.39169   -3559.8561 
14420000    189.63569   -4841.3955   -4475.6671   -4841.3955            0    8428.2483    19.936542    19.974198    20.183983    8037.5937    7477.6721     8305.024    9502.0488   -595.23446   -1131.4264    9.8186163   -3487.7074 
14421000    193.92867   -4850.9801   -4476.9724   -4850.9801            0    5630.3865    19.763959     19.97813    20.677847    8164.5847    6258.0786    5597.5518     5035.529   -349.45805   -192.84665    116.36408   -3806.5504 
14422000    188.90871   -4868.2789   -4503.9525   -4868.2789            0    5419.7464      19.9399    19.799006    20.691614    8168.8463    4381.1281    6351.9926    5526.1184   -88.467162    778.30853    763.64864   -3858.2751 
14423000    185.91206   -4856.2785   -4497.7315   -4856.2785            0    7796.4306    19.907665    19.842067     20.36171    8043.0631    7143.4206    8577.8359    7668.0355   -402.91414    191.47617   -242.98171   -3583.2115 
14424000    189.18087   -4839.2747   -4474.4235   -4839.2747            0    8654.4733    19.611856    19.950762    20.524284    8030.5664    9917.4268    8800.0859    7245.9073   -148.79344    1111.0353   -333.46221   -3460.8326 
14425000    189.90678    -4850.453   -4484.2018    -4850.453            0    9095.9571    19.796418    19.795201    20.482409    8026.5253    9503.8795    8443.4889    9340.5028   -152.79918    1158.8811   -373.51123   -3419.4414 
14426000    195.22689   -4877.4727   -4500.9612   -4877.4727            0    7047.8024    19.831377    19.804417    20.411231    8016.4878    8367.3743    5827.4337    6948.5991   -46.327167    155.64105    399.35218   -3676.9868 
14427000    187.06909   -4837.1467   -4476.3683   -4837.1467            0    8016.5955    19.786508    19.860994    20.541462    8072.3778    8694.1763    7154.6655    8200.9447   -486.40105    904.89306    342.08906   -3532.5957 
14428000    191.62948   -4845.0571   -4475.4836   -4845.0571            0    6917.9938    19.881613    19.800136     20.39755    8029.6716    6843.1489     7154.649    6756.1836    362.19466   -524.99823    88.424003   -3665.3552 
14429000    198.18078   -4848.0916   -4465.8833   -4848.0916            0    5698.0467    20.010442    19.751076    20.591373    8138.2825    5360.8172     6506.237    5227.0858   -581.96984    374.93844   -429.93438   -3789.5906 
14430000    192.87078    -4835.033   -4463.0655    -4835.033            0    8248.3263    19.825492    19.954823    20.363747    8056.1872    8588.1979    7305.4947    8851.2863   -198.80175    626.84142    533.54648   -3493.9595 
14431000    193.02562   -4866.5131   -4494.2469   -4866.5131            0    6109.8136    19.782715    19.869881     20.64763    8116.1745     6544.037    6510.7666    5274.6371    316.29434    -162.3411    2338.7436   -3771.0522 
14432000    188.75592   -4852.0819   -4488.0503   -4852.0819            0    7352.0108    19.852215    20.021861    20.363026    8093.8609    9319.0895    4670.5689     8066.374       560.38   -263.26498    -475.0795   -3620.2141 
14433000    179.32464   -4851.7575   -4505.9148   -4851.7575            0    6560.6472    19.961797    19.813951    20.521728    8116.7963    5899.7544    6449.1757    7333.0114   -605.71399   -340.25757   -634.76811   -3729.2972 
14434000    184.68322   -4848.8259   -4492.6488   -4848.8259            0    8247.3115    19.567056     19.79151    20.672404     8005.628    8516.0545    8580.3474    7645.5324   -610.08786   -1232.5876    189.53875   -3529.7432 
14435000    191.65655   -4835.3322   -4465.7065   -4835.3322            0    7656.7936    19.857047     19.89502     20.46085    8083.1886    9430.4717    7218.7379    6321.1712    23.461308    251.17337     908.0389   -3563.0852 
14436000      191.652    -4834.432    -4464.815    -4834.432            0    7399.1924    19.616761    20.194118    20.474072     8110.664     7712.482     7896.396    6588.6992    -167.7714    -484.9551    202.99802   -3589.5962 
14437000    190.88256   -4859.8723   -4491.7392   -4859.8723            0    8741.7845     19.69083     19.84434    20.541338     8026.559    10167.702    7350.8706    8706.7808    499.91264    378.49393    315.74536   -3468.4335 
14438000    193.03558   -4850.9694    -4478.684   -4850.9694            0     7352.507    19.902613    19.907634    20.398223    8082.0602    7292.4062    7258.5231    7506.5917    55.675302    611.73398   -1302.4038   -3612.0546 
14439000    187.74276   -4871.1058   -4509.0281   -4871.1058            0    6645.3136    19.942861    19.637022    20.710358    8110.5575    6180.9205    8132.1189    5622.9015    180.14278    449.92127   -629.18966   -3722.9927 
14440000    192.30014    -4824.327     -4453.46    -4824.327            0      8053.54    19.846846    19.769321    20.464958    8029.6037    8050.1198    7760.4189    8350.0811   -474.13117    1457.5306   -19.807784    -3510.362 
14441000     191.3708   -4847.9983   -4478.9236   -4847.9983            0    7795.9161    19.597345    20.012444    20.513285    8045.1213    9300.2721    7244.0773    6843.3989   -444.69921    251.99725   -536.60292     -3564.23 
14442000    190.11763   -4841.7622   -4475.1043   -4841.7622            0    8727.2117     19.76302    19.861974     20.44309    8024.5786    7498.3912    9474.7891    9208.4548   -302.31272   -273.35814   -146.01952   -3453.7566 
14443000    184.46605   -4833.1957   -4477.4374   -4833.1957            0    6380.5197      19.9488    19.691356    20.543435    8069.8502    3779.9561    9203.7691    6157.8338    543.90797   -516.64213   -506.24068   -3726.5109 
14444000    203.41026   -4852.6567   -4460.3629   -4852.6567            0    8193.8484    19.850306     19.80687    20.421943    8029.3449    7042.6189    9385.3574    8153.5689   -341.72369   -608.59136   -644.96073   -3500.8653 
14445000    186.64502   -4836.5818   -4476.6212   -4836.5818            0    7751.2103    19.607854    19.848894    20.686324    8050.9976    8045.9213    6473.8578    8733.8516   -782.03194    -884.7939    200.11514   -3566.5086 
14446000    186.30928   -4848.1514   -4488.8383   -4848.1514            0    6738.5264    19.806167    19.957456    20.481097    8095.7826    5630.8159    6462.8715    8121.8916     52.66721    1130.2915   -766.44257   -3693.2293 
14447000    192.15035   -4856.0159   -4485.4378   -4856.0159            0    7973.3245    19.886734     19.76777    20.487582    8054.0042    8911.3108    7300.9044    7707.7584   -622.98337    861.75025    643.38874    -3548.896 
14448000    194.40646    -4855.931   -4481.0018    -4855.931            0    7447.4874    19.807703    19.813727    20.676492    8114.7876    7259.7464    8513.7147    6569.0013    18.561416    -208.7106    398.77838   -3599.6225 
14449000    198.68205    -4840.498    -4457.323    -4840.498            0    8423.5069    19.726998    19.831347    20.534798    8033.4786    9112.9868    7684.8152    8472.7187   -26.281651   -233.11042     319.3244   -3470.4245 
14450000    187.11604   -4854.0655   -4493.1965   -4854.0655            0    7615.3975    20.024445    19.671516    20.450537     8055.695    7564.8924    7938.7348    7342.5653    415.09223    207.50811   -123.50192   -3598.5088 
14451000    190.52496   -4854.9222   -4487.4788   -4854.9222            0    6968.1719    19.757086    19.945262    20.426025    8049.0844    7881.2988    6420.0778     6603.139    68.705985    1048.7076    626.62825   -3669.5015 
14452000    191.18748   -4838.8739   -4470.1528   -4838.8739            0    6595.5199    19.618075     19.91352    20.627851    8058.5781    7753.0963    5568.7093    6464.7541   -89.100819    616.15052   -650.56171   -3695.0071 
14453000    190.73272    -4870.625    -4502.781    -4870.625            0    7426.9188    19.866752    19.795528    20.553144    8082.9936    6657.8185    8831.6941    6791.2439   -323.91106   -253.94381    105.53185   -3627.2796 
14454000    184.17617   -4857.4741   -4502.2748   -4857.4741            0    6957.0252    20.011867    19.768163    20.440242    8086.1155    5402.7006    7627.0756    7841.2994   -363.37606    705.18567    407.54619   -3681.8488 
14455000    182.31127   -4865.2533   -4513.6506   -4865.2533            0    5273.3312    19.911752     19.82875    20.541693    8110.3772    4932.3023     5247.992    5639.6993   -121.84721    484.91764   -1496.9852   -3889.9129 
14456000    188.83845   -4858.2636   -4494.0727   -4858.2636            0    8264.4405    19.809102    19.789427    20.500664     8036.481    8968.0127    7061.8253    8763.4835   -313.73863   -949.02036     1934.072   -3525.4486 
14457000    192.33281   -4855.1984   -4484.2684   -4855.1984            0    7425.6319    19.798249    19.995828    20.418872    8083.4716    8228.5984    6730.8042    7317.4931    -208.8519    919.67973    579.57869   -3608.8671 
14458000    196.34427   -4857.1056   -4478.4392   -4857.1056            0    7390.7682    19.753259    19.854996    20.565363    8065.7533    8080.6234    6645.4535    7446.2275   -927.37579    1427.2999    240.71468   -3609.0577 
14459000     191.4861   -4854.3442   -4485.0471   -4854.3442            0    7279.0644    19.828612    19.725565    20.615377    8063.3043    8572.2863    7436.7043    5828.2025    34.267011    752.37092    514.55621   -3629.0654 
14460000     195.1575   -4836.2931   -4459.9155   -4836.2931            0    6683.3164    19.916483    19.770361    20.505255    8074.0683    5366.7848    7104.7812    7578.3831    213.51152    630.95585    1093.9537   -3672.9416 
14461000     197.9711   -4860.9556   -4479.1517   -4860.9556            0    7864.7609    19.688408    19.800677    20.586564    8025.5445    7042.0164    9688.4188    6863.8474    70.802792    641.99467   -385.35216    -3558.626 
14462000    189.76004   -4845.3815   -4479.4133   -4845.3815            0    8001.0834    19.805702    19.631396    20.729534    8059.9243    7680.5039    8601.4968    7721.2497    603.05221    61.656743   -466.99007   -3538.9202 
14463000    194.24675   -4840.0362    -4465.415   -4840.0362            0    8688.0921    19.880576    19.779165    20.521915    8069.6519    9521.2361    7006.0594    9536.9807    278.59299    829.58606    230.70501   -3442.9343 
14464000    196.39304   -4845.5646   -4466.8041   -4845.5646            0     8368.656    20.005073    19.794176    20.223171    8008.0507     5786.608    9362.0545    9957.3055   -7.7014527    567.68049    697.78939   -3489.4354 
14465000    192.54541   -4888.4633   -4517.1233   -4888.4633            0    7571.6937    19.691438    19.820199    20.598829    8039.4803    9495.0826    7604.6032    5615.3953   -358.11134    1026.3775    568.86993   -3629.3606 
14466000    185.22411   -4850.6896   -4493.4693   -4850.6896            0     7184.131    19.860576    19.905093    20.358285    8048.1718    8023.0306    5356.5899    8172.7724   -56.857998   -335.87648    81.586563   -3650.2368 
14467000    182.34397   -4862.0125   -4510.3468   -4862.0125            0    7441.2272    19.754871    19.829103    20.579363    8061.3762    7496.7025    7815.6674    7011.3116   -59.603535   -1120.3705    705.01643   -3635.5048 
14468000     199.2659   -4859.0835   -4474.7824   -4859.0835            0    6870.2378    19.938685    19.898088    20.411405    8098.0555    5664.9841    7781.6939    7164.0355   -419.37048    151.41568    919.34853   -3663.3948 
14469000    184.70425   -4841.7184   -4485.5007   -4841.7184            0         7334    19.871212    19.819166    20.575366    8103.2135    8195.7908    6120.9098    7685.2994    502.25841    671.50317   -1196.4199   -3618.7901 
14470000    191.75762   -4864.0848   -4494.2641   -4864.0848            0    8487.9617    19.713243    19.922327    20.371266    8000.4822    9392.5938    6759.7809    9311.5105    51.667079    -1332.313   -120.82218   -3503.8987 
14471000    186.61378     -4845.43   -4485.5296     -4845.43            0    7735.9894    19.776721    19.857583    20.464813    8036.8982    8292.8313    6872.1581     8042.979   -216.28443   -536.96746    1388.2739    -3578.795 
14472000    191.84173   -4865.9368   -4495.9539   -4865.9368            0    8192.7741     19.62086    19.843627    20.666273    8046.3937    10554.387    6072.1633    7951.7723    41.618226      494.636    129.50842    -3534.545 
14473000    184.14388   -4847.0903   -4491.9533   -4847.0903            0    6785.9858    19.807941    20.003387    20.363821    8068.6736    8668.7053    4733.5509    6955.7013    93.401483    429.00458   -153.03644   -3693.4238 
14474000    185.98091   -4848.3751   -4489.6952   -4848.3751            0    7911.9004    19.897619    19.833424    20.573228    8118.9753    5610.7818    10416.597    7708.3222    154.92878    738.86624   -421.89924   -3552.8714 
14475000    192.63163   -4868.1877   -4496.6814   -4868.1877            0    7805.7356    19.754349    19.714392    20.549622     8002.947     5935.029    9334.3052    8147.8726    457.09433   -304.25439   -1252.3294   -3585.6368 
14476000    190.48018   -4853.3965   -4486.0394   -4853.3965            0     7147.784    19.579263    19.948046    20.635693    8059.6417     7232.559     7649.256     6561.537    156.91907   -1031.7669    536.63599   -3645.8774 
14477000    205.23517   -4827.3738   -4431.5605   -4827.3738            0    8069.4816    19.856141    19.845961    20.375551    8029.2754     7872.379    8979.5653    7356.5007     370.2641   -412.79237    331.54076   -3486.6343 
14478000    198.97038   -4840.6219   -4456.8908   -4840.6219            0    8795.0395    19.587696    19.764003    20.667471    8001.0243    10624.139    8396.0079     7364.972   -271.91222    866.56562   -117.85837   -3430.6264 
14479000    192.28256   -4843.9696   -4473.1365   -4843.9696            0    6841.4674    19.870384    19.877057    20.467571    8083.9692    5022.6365     8268.155    7233.6108    1076.7708    1209.8326   -198.84724   -3666.5521 
14480000    205.06949   -4851.2446   -4455.7509   -4851.2446            0    8124.1003     19.77597    19.796664    20.608077    8068.0253    6341.0395     9960.829    8070.4325   -533.43051    801.88514    854.39745   -3499.8378 
14481000    200.98666   -4859.8673   -4472.2476   -4859.8673            0    5909.3658    20.097036    19.768492    20.417889    8111.7844    5133.3338     4274.491    8320.2725    -764.2656   -393.08134    286.21746   -3773.1575 
14482000     188.6807   -4847.0999   -4483.2133   -4847.0999            0    6765.9884    19.866517    19.823039    20.551195    8093.3632     6347.039    7833.4585    6117.4677    587.91225   -310.05996    117.18289   -3684.6007 
14483000    186.20327   -4856.7495   -4497.6409   -4856.7495            0    5648.4263    19.828772    19.877012    20.484467    8073.6816    5175.8781    6096.2601    5673.1408    93.280394   -157.18337   -753.73221   -3832.5592 
14484000    189.19506   -4825.5469   -4460.6683   -4825.5469            0    8321.0221    19.850309     19.83786    20.323276     8003.055    8274.7453    7957.4604    8730.8606    488.41327    351.29002    244.10183    -3489.469 
14485000    182.74119   -4857.0207   -4504.5889   -4857.0207            0    5908.9225    19.878684    19.716735    20.707877     8116.302    5381.0203    7340.3328    5005.4144    349.27374    124.55854   -451.61033   -3805.1619 
14486000    193.16645   -4873.0447    -4500.507   -4873.0447            0    5669.1143    20.006517    19.852646    20.445168    8120.4587    6155.9704    5014.1362    5837.2364   -153.04073    764.22888   -669.68036   -3829.1219 
14487000     188.6736   -4846.0608   -4482.1879   -4846.0608            0    9216.6109    19.697189    19.675957     20.75289    8043.0118    8561.7289    10798.976    8289.1273    208.06774    662.34739    26.964858    -3401.088 
14488000    189.12512   -4841.5403   -4476.7966   -4841.5403            0    7433.1845     19.95268    19.990151    20.336807    8111.4794    8044.1811    6278.5574     7976.815   -209.43093   -790.21851   -268.35554   -3597.4687 
14489000    186.34295   -4846.9869   -4487.6088   -4846.9869            0    7328.4649    19.710073    19.897725    20.685393    8112.5136    6885.9236    6527.3135    8572.1575    209.05265   -368.72266   -751.55312   -3620.5584 
14490000    189.98135   -4837.6165   -4471.2215   -4837.6165            0    8126.2454    19.809044    19.812875    20.460773    8030.3238    9287.5237    6907.9768    8183.2358   -572.15672     903.2779    756.53212   -3519.5241 
14491000    179.10989   -4839.7825   -4494.3541   -4839.7825            0    8765.2982    19.700102    19.822022    20.495812    8003.5295    8932.4354    8265.3885    9098.0708   -4.9043254    310.74601     -993.587   -3471.2398 
14492000    183.13454   -4829.3818   -4476.1914   -4829.3818            0     8545.679     19.61483    19.603127     20.85885    8020.4777    8830.0379    9797.8817    7009.1174   -405.83222    2551.0214    -271.0272   -3476.5996 
14493000    194.03999   -4841.2125     -4466.99   -4841.2125            0    6159.0504    19.878125    19.880408    20.435448    8075.7875    6695.1346    5138.7927     6643.224    53.432867   -1168.8522   -442.31052   -3741.5951 
14494000    189.02301   -4832.9994   -4468.4527   -4832.9994            0    7714.2752    19.997016    19.603172    20.550121     8055.749    8016.8743    7933.5207    7192.4307   -466.18226    -246.9354   -77.468658   -3562.1423 
14495000    199.94877   -4842.4495   -4456.8315   -4842.4495            0      6681.08    19.954698    19.871323    20.488107    8124.0721    5752.0534    7803.1358    6488.0508    154.86378    905.19013   -635.04521   -3665.2487 
14496000    198.03272   -4849.1143   -4467.1916   -4849.1143            0    6958.5286    19.605884    19.811283    20.823132    8088.0735    8037.7699    7589.3962    5248.4196    -113.5485    817.83887    41.836687   -3646.3896 
14497000    196.66219   -4872.6828   -4493.4032   -4872.6828            0    7077.5547    19.902358     19.83289    20.512449    8096.7002    8295.4717    5323.5597    7613.6329   -285.89161    86.878387   -1255.7285   -3657.6709 
14498000    195.51434   -4846.8912   -4469.8253   -4846.8912            0    6794.4776    19.810431    19.971179     20.50562    8112.7957    7652.0284    5234.8897    7496.5148     135.3801    1029.4991    219.28219   -3665.9244 
14499000    188.14147   -4862.3307   -4499.4841   -4862.3307            0    8061.9073    19.645988    19.921034    20.630689    8074.1999    8184.6079    8415.1751    7585.9389   -303.79998    543.42696   -404.00664   -3550.1628 
14500000    203.50879   -4845.1801   -4452.6963   -4845.1801            0    8302.4473    19.771107    19.823642    20.543539     8051.739    8995.9889    8620.1341     7291.219   -704.13493   -855.03121   -1246.1338   -3477.7702 
Loop time of 382.378 on 64 procs for 250000 steps with 972 atoms

Performance: 112.977 ns/day, 0.212 hours/ns, 653.803 timesteps/s
194.8% CPU use with 32 MPI tasks x 2 OpenMP threads

MPI task timing breakdown:
Section |  min time  |  avg time  |  max time  |%varavg| %total
---------------------------------------------------------------
Pair    | 26.404     | 36.837     | 47.001     |  83.6 |  9.63
Bond    | 0.98814    | 1.247      | 2.2709     |  20.5 |  0.33
Kspace  | 160.87     | 176.77     | 193.21     |  50.7 | 46.23
Neigh   | 1.3347     | 1.6528     | 1.8837     |  13.4 |  0.43
Comm    | 67.682     | 74.766     | 83.025     |  51.9 | 19.55
Output  | 0.52269    | 0.52378    | 0.5261     |   0.1 |  0.14
Modify  | 73.635     | 76.134     | 78.797     |  14.6 | 19.91
Other   |            | 14.44      |            |       |  3.78

Nlocal:        30.3750 ave          37 max          23 min
Histogram: 2 1 6 0 2 7 4 6 2 2
Nghost:        2722.84 ave        2752 max        2702 min
Histogram: 1 3 7 6 5 2 4 2 1 1
Neighs:        9752.72 ave       12708 max        6657 min
Histogram: 2 3 1 2 5 9 4 2 3 1

Total # of neighbors = 312087
Ave neighs/atom = 321.07716
Ave special neighs/atom = 2.0000000
Neighbor list builds = 4538
Dangerous builds = 0

unfix		3
unfix		2
unfix		1

write_data	data.final.${pid}
write_data	data.final.1
System init for write_data ...
PPPM initialization ...
  extracting TIP4P info from pair style
  using 12-bit tables for long-range coulomb (../kspace.cpp:340)
  G vector (1/distance) = 0.37209835
  grid = 24 24 24
  stencil order = 5
  estimated absolute RMS force accuracy = 0.0035215233
  estimated relative force accuracy = 1.0604963e-05
  using double precision FFTW3
  3d grid and FFT values/proc = 3211 432
Last active /omp style is kspace_style pppm/tip4p/omp
WARNING: Not all mixed pair coeffs generated from mixing. Use write_data with 'pair ij' option to store all pair coeffs. (../write_data.cpp:312)

write_restart   restart.lmp.${pid}
write_restart   restart.lmp.1
System init for write_restart ...
PPPM initialization ...
  extracting TIP4P info from pair style
  using 12-bit tables for long-range coulomb (../kspace.cpp:340)
  G vector (1/distance) = 0.37209835
  grid = 24 24 24
  stencil order = 5
  estimated absolute RMS force accuracy = 0.0035215233
  estimated relative force accuracy = 1.0604963e-05
  using double precision FFTW3
  3d grid and FFT values/proc = 3211 432
Last active /omp style is kspace_style pppm/tip4p/omp
Total wall time: 0:06:22
