LAMMPS (30 Jul 2021)
  using 1 OpenMP thread(s) per MPI task
package omp 0
using multi-threaded neighbor list subroutines
echo both

include		in.partitions
variable        pid world 0
include		in.temp
variable        temperature equal 240.72
variable	tempDamp equal 100.0
include		in.pressure
variable        pressure equal 2250.0
variable        pressureDamp equal 1000.0 # This is 1 ps
include		in.seed
variable        seed world 745823

units		real
atom_style	full
box tilt large
read_restart	restart.lmp.${pid}
read_restart	restart.lmp.0
Reading restart file ...
  restart file = 30 Jul 2021, LAMMPS = 30 Jul 2021
  restoring atom style full from restart
  triclinic box = (-10.803392 -9.3040923 -0.033647540) to (12.783392 12.294090 21.893647) with tilt (-9.4368560 2.0724988 3.1291368)
  4 by 4 by 4 MPI processor grid
  restoring pair style lj/cut/tip4p/long/omp from restart
  restoring bond style harmonic/omp from restart
  restoring angle style harmonic/omp from restart
  1296 atoms
  864 bonds
  432 angles
Finding 1-2 1-3 1-4 neighbors ...
  special bond factors lj:    0        0        0       
  special bond factors coul:  0        0        0       
     2 = max # of 1-2 neighbors
     1 = max # of 1-3 neighbors
     1 = max # of 1-4 neighbors
     2 = max # of special neighbors
  special bonds CPU = 1.443 seconds
  read_restart CPU = 1.734 seconds
include 	in.setup
variable	out_freq equal 1000
variable	out_freq2 equal 10000
variable	out_freq3 equal 1000

timestep	2.0

neigh_modify    delay 7 every 1

include		in.tip4p
# This is TIP4P/Ice

# create groups ###
group ox type 2
432 atoms in group ox
group hy type 1
864 atoms in group hy

# set charges - beside manually ###
set group ox charge -1.1794
Setting atom values ...
  432 settings made for charge
set group hy charge 0.5897
Setting atom values ...
  864 settings made for charge

# ### TIP3P Potential Parameters ###
pair_style lj/cut/tip4p/long/omp 2 1 1 1 0.1577 8.5
pair_coeff 1 1*2 0.000 0.000
pair_coeff 2 2 0.21084 3.1668
bond_style  harmonic
bond_coeff  1 450 0.9572
angle_style harmonic
angle_coeff 1 55 104.52
kspace_style pppm/tip4p/omp 1.0e-5
pair_modify tail yes

thermo          ${out_freq}
thermo          1000
thermo_style    custom step temp pe etotal epair emol press lx ly lz vol pxx pyy pzz pxy pxz pyz enthalpy

restart 	${out_freq3} restart.lmp.${pid} restart2.lmp.${pid}
restart 	1000 restart.lmp.${pid} restart2.lmp.${pid}
restart 	1000 restart.lmp.0 restart2.lmp.${pid}
restart 	1000 restart.lmp.0 restart2.lmp.0


include         in.dump
dump            myDump all atom ${out_freq2} dump.water.${pid}
dump            myDump all atom 10000 dump.water.${pid}
dump            myDump all atom 10000 dump.water.0
dump            myDump2 all dcd ${out_freq2} dump.dcd
dump            myDump2 all dcd 10000 dump.dcd
dump_modify     myDump append yes
dump_modify     myDump2 append yes


variable natoms 	equal  "count(all)"                        # NUMBER ATOMS
variable H      	equal  "enthalpy/v_natoms"                 # ENTHALPY-per-atom
variable Vol      	equal  "vol/v_natoms"                 # volume-per-atom
fix AVG all 		ave/time ${out_freq} 1 ${out_freq} v_Vol v_H file vol_enthalpy.dat
fix AVG all 		ave/time 1000 1 ${out_freq} v_Vol v_H file vol_enthalpy.dat
fix AVG all 		ave/time 1000 1 1000 v_Vol v_H file vol_enthalpy.dat


timer           timeout 10:00:00 every 1000
New timer settings: style=normal  mode=nosync  timeout=10:00:00

fix 		1 all shake 1e-6 200 0 b 1 a 1
       0 = # of size 2 clusters
       0 = # of size 3 clusters
       0 = # of size 4 clusters
     432 = # of frozen angles
  find clusters CPU = 0.095 seconds
fix             2 all nph tri ${pressure} ${pressure} ${pressureDamp}
fix             2 all nph tri 2250 ${pressure} ${pressureDamp}
fix             2 all nph tri 2250 2250 ${pressureDamp}
fix             2 all nph tri 2250 2250 1000
fix             3 all temp/csvr ${temperature} ${temperature} ${tempDamp} ${seed}
fix             3 all temp/csvr 240.72 ${temperature} ${tempDamp} ${seed}
fix             3 all temp/csvr 240.72 240.72 ${tempDamp} ${seed}
fix             3 all temp/csvr 240.72 240.72 100 ${seed}
fix             3 all temp/csvr 240.72 240.72 100 745823


run             250000
PPPM initialization ...
  extracting TIP4P info from pair style
  using 12-bit tables for long-range coulomb (../kspace.cpp:340)
  G vector (1/distance) = 0.37610602
  grid = 30 40 36
  stencil order = 5
  estimated absolute RMS force accuracy = 0.0027754181
  estimated relative force accuracy = 8.3580891e-06
  using double precision FFTW3
  3d grid and FFT values/proc = 5472 750
Last active /omp style is kspace_style pppm/tip4p/omp
Neighbor list info ...
  update every 1 steps, delay 7 steps, check yes
  max neighbors/atom: 2000, page size: 100000
  master list distance cutoff = 10.8154
  ghost atom cutoff = 10.8154
  binsize = 5.4077, bins = 7 5 5
  1 neighbor lists, perpetual/occasional/extra = 1 0 0
  (1) pair lj/cut/tip4p/long/omp, perpetual
      attributes: half, newton on, omp
      pair build: half/bin/newton/tri/omp
      stencil: half/bin/3d/tri
      bin: standard
Per MPI rank memory allocation (min/avg/max) = 9.446 | 9.459 | 9.467 Mbytes
Step Temp PotEng TotEng E_pair E_mol Press Lx Ly Lz Volume Pxx Pyy Pzz Pxy Pxz Pyz Enthalpy 
 5250000      240.283   -6294.3841   -5676.2707   -6294.3841            0    1369.0693    23.586784    21.598183    21.927294    11170.458    1418.5208    633.59298    2055.0941   -62.024552    391.03429   -36.030463   -5453.2361 
 5251000    227.16265   -6309.2869   -5724.9248   -6309.2869            0    2134.8199    23.443684     21.67511    21.765571    11060.053    2414.3474    1980.9028    2009.2096    606.80878    420.57133   -402.84591   -5380.5794 
 5252000    238.89761   -6325.4148   -5710.8653   -6325.4148            0    3612.0873    23.419302    21.497729    21.909686     11030.69    4275.3242    2884.4253    3676.5124    573.66509    58.230089    527.24529   -5129.7841 
 5253000    244.05499   -6341.0299   -5713.2133   -6341.0299            0    2409.5056    23.551153    21.472415    21.945974    11098.082    2038.9245    3165.0991    2024.4933   -108.54014   -333.16417    98.149822   -5323.2248 
 5254000    240.11204   -6372.1484   -5754.4748   -6372.1484            0    1312.5412    23.369226     21.75128    21.837276    11100.118     1798.469    103.91611    2035.2386   -167.33606   -198.25348    638.71393   -5541.9956 
 5255000    235.85848   -6330.5347   -5723.8032   -6330.5347            0    552.16984     23.81274    21.343018    21.964595    11163.192   -1078.2969    1723.3276    1011.4788   -1335.4892    510.64041   -163.43722   -5633.9079 
 5256000    245.90887   -6340.6368   -5708.0513   -6340.6368            0    1246.9298     23.23446    21.808322    21.979034    11136.877    2389.3016   -477.46669    1828.9544   -1056.5499     675.5813    983.13124    -5505.525 
 5257000    250.57274   -6387.0587   -5742.4756   -6387.0587            0    2661.4165    23.526616     21.41763    21.887313    11028.675    2341.5496    3144.7339    2497.9661   -1397.4818     68.48426   -781.59019   -5314.4083 
 5258000    249.03039   -6353.2531   -5712.6376   -6353.2531            0    3680.7764    23.235173    21.566796    21.830646    10939.517    3536.2737    4182.2321    3323.8235    478.79962   -151.51536    693.22442   -5125.4005 
 5259000    253.51725   -6317.5493   -5665.3916   -6317.5493            0     3791.311    23.422967    21.291464    22.085782    11014.384    4597.2391    4458.6042    2318.0896   -314.64106   -910.49162   -552.11543   -5056.3801 
 5260000    245.80808   -6333.8556   -5701.5293   -6333.8556            0    2914.9141    23.404648    21.573131    21.840404    11027.472    2585.0287    3097.5826    3062.1311    412.56181    889.76216    509.95056   -5232.7401 
 5261000    244.32004   -6347.7107   -5719.2122   -6347.7107            0    1888.4486    23.496938    21.552576    21.879696    11080.306    1480.2668    2163.6796    2021.3995    795.57304    298.29129    455.86411   -5414.0486 
 5262000    247.32524   -6318.4791     -5682.25   -6318.4791            0    2770.8284    23.459954    21.550532    21.917925    11081.144    731.58378    4388.5978    3192.3035   -1097.3224    957.11176    373.66478   -5234.4644 
 5263000    244.49954   -6322.6322   -5693.6721   -6322.6322            0    3241.3931    23.302708    21.598275    21.890271    11017.336    4202.7265    2723.2098    2798.2429   -306.45496   -1088.0346   -348.98587   -5172.8562 
 5264000    233.48375   -6343.7079   -5743.0852   -6343.7079            0    2422.9251    23.605351    21.567233    21.774696    11085.544    2611.2143    2464.6824    2192.8786   -279.80447    229.41961   -334.95264   -5351.3678 
 5265000    233.52929   -6320.0215   -5719.2816   -6320.0215            0    1905.2074    23.433711    21.635826    21.926326    11116.816     1766.348    2274.7658    1674.5084    1440.6973   -1496.0089    -132.1817   -5410.3954 
 5266000    242.16238   -6350.2938   -5727.3459   -6350.2938            0    2707.2136    23.398318     21.43092    22.049633    11056.733    3117.2493    3479.3285     1525.063    868.75506   -94.666571    122.29336   -5290.8047 
 5267000    250.44035   -6362.9333   -5718.6908   -6362.9333            0    3369.2271    23.506994    21.521404     21.70032    10978.268    2443.1416    3275.0644    4389.4753     586.2256    440.97935   -509.84904   -5179.2547 
 5268000    230.47397   -6342.3439   -5749.4636   -6342.3439            0    1460.6006    23.559205    21.641127     21.81119    11120.386    1031.2101    2483.2855    867.30621    418.68251    425.25757   -906.04732   -5512.5843 
 5269000    236.56199   -6334.3828   -5725.8415   -6334.3828            0    2773.8026    23.447161     21.58734    21.873697    11071.631    3401.7177    3280.4213    1639.2688    -2164.009    710.39725   -1121.1337   -5277.9601 
 5270000    242.30733   -6356.3231   -5733.0022   -6356.3231            0    2621.3649    23.357284    21.610939    21.893747    11051.369     2017.506    2830.9486    3015.6402   -522.71132    648.60477    531.56586   -5310.5093 
 5271000    233.13298   -6347.7992   -5748.0788   -6347.7992            0    1825.6197    23.464742       21.485    22.034109    11108.275    1769.0465    2158.2171    1549.5954   -244.97342    356.71976    481.75556   -5452.3233 
 5272000    243.97956   -6343.1311   -5715.5085   -6343.1311            0    1398.8551    23.456749    21.675697    21.863973    11116.549    2073.8432    1496.9347    625.78725   -848.46253    830.59599   -763.60146   -5488.7213 
 5273000    245.86349   -6365.5187   -5733.0498   -6365.5187            0    1647.6507    23.541902    21.546468    21.924294    11120.985    1197.3609    1444.7049    2300.8864    -66.70988    413.07356   -995.29836   -5465.8204 
 5274000    253.61216   -6304.0213   -5651.6195   -6304.0213            0     2906.122    23.321903    21.586886     22.04486    11098.424    4671.8365    2426.0253    1620.5043    528.95459    126.52656   -562.47465   -5181.2371 
 5275000    255.16473   -6343.1719   -5686.7762   -6343.1719            0     2427.393    23.398079    21.584014    21.941587    11081.038    3002.5955    1875.1495    2404.4339    -74.30441   -675.52105    508.33586   -5294.4959 
 5276000    237.59489   -6297.2301   -5686.0317   -6297.2301            0    3374.9656    23.567972    21.468848     21.82926    11045.108    2440.2942    3227.4534    4457.1491   -4.6529891     325.1502    662.75408    -5142.387 
 5277000    252.56349   -6344.0864   -5694.3822   -6344.0864            0    1821.1172    23.457943    21.795767    21.666249    11077.604    1959.2328    805.72327    2698.3954    -778.8977    366.16033   -1234.1004   -5400.1707 
 5278000    236.62187   -6358.2045   -5749.5092   -6358.2045            0    875.34457    23.572014    21.511312    21.995571    11153.183    227.12535    1396.7978    1002.1105    94.020001   -86.126795   -978.58967   -5607.1276 
 5279000     230.3648   -6339.7256   -5747.1262   -6339.7256            0    1595.7993    23.364628    21.629913    22.001435    11118.972    1913.7791    628.29948    2245.3194    1138.7826    -775.1199    2130.4817   -5488.3533 
 5280000    244.19903   -6305.4835   -5677.2963   -6305.4835            0      2078.31    23.676628    21.448252    21.852028    11096.946    2596.4906    1483.1099    2155.3295   -1676.7241    1203.1393    1114.9138   -5340.9477 
 5281000    243.97519    -6318.113   -5690.5017    -6318.113            0    1209.5021     23.46634    21.671177    21.960782    11168.007    1711.8224    293.36943    1623.3145   -1021.6525   -446.82352   -725.70323   -5493.5053 
 5282000    242.45911   -6325.3688   -5701.6576   -6325.3688            0    3356.6604    23.486353    21.517937    21.890478    11062.963    2653.2415    4610.9905    2805.7491    268.34931   -292.59601   -1161.3961   -5160.0874 
 5283000    239.42445   -6343.3389    -5727.434   -6343.3389            0    2165.8959    23.272623    21.596659    21.995869    11055.364    2428.6728    2159.8672    1909.1478    296.37269    1421.0168     197.3683   -5378.2242 
 5284000    239.97235   -6355.6381   -5738.3239   -6355.6381            0    1661.9182    23.634421    21.430006    21.864407    11074.011    402.35314    2419.5802    2163.8214   -411.76047    1540.5706    1193.1242   -5469.9189 
 5285000    239.11032   -6359.0445   -5743.9478   -6359.0445            0    2424.9738    23.378036    21.659286    21.787812    11032.293    3258.4388    1498.6588    2517.8237    305.28851   -796.34172     300.7248   -5353.7824 
 5286000    242.11541   -6362.1227   -5739.2955   -6362.1227            0    2571.2479    23.510709    21.417089    21.971402    11063.281    1734.4832    3735.4098    2243.8506    -290.3532   -21.396961   -645.47921   -5324.4334 
 5287000    251.78917   -6359.1515   -5711.4392   -6359.1515            0    2976.0411    23.257324    21.647184    21.881876    11016.552    2621.0312    3566.3366    2740.7557    476.93882    277.79806   -470.47187   -5233.2932 
 5288000    244.09434   -6348.1319   -5720.2141   -6348.1319            0     1904.815    23.617789    21.486143    21.829094    11077.287    2705.1275    1932.7407    1076.5766    323.37397   -1004.6012   -163.29499   -5412.4895 
 5289000    242.53412   -6343.0175   -5719.1132   -6343.0175            0    484.17994    23.401571    21.678768    21.976339    11148.975     1605.845   -295.46322    142.15803   -156.56283    34.868062   -247.00317   -5640.3873 
 5290000    237.90245   -6353.1406    -5741.151   -6353.1406            0    2773.2725    23.359025     21.53637    21.970424    11052.631    2453.4906    4166.8845    1699.4424   -55.067465    -944.6224   -752.36482   -5294.1237 
 5291000    246.46748   -6372.5526     -5738.53   -6372.5526            0    4122.2811    23.535245    21.481504    21.706969    10974.446    3292.9268    4274.5861    4799.3304   -1052.9568    -445.4256    543.93261   -5078.7547 
 5292000    243.00653   -6352.9491   -5727.8296   -6352.9491            0    2270.9539      23.3543    21.677277    21.819492    11046.284    2319.0596     2253.252    2240.5501    449.15054   -363.63199   -537.56853   -5361.9818 
 5293000    246.17484   -6330.2469   -5696.9771   -6330.2469            0    3367.4484    23.542072    21.337832    21.940729    11021.635    2322.6692    4640.6713    3139.0046    419.71583    43.373517   -474.77088    -5155.696 
 5294000    245.38593   -6338.1736   -5706.9332   -6338.1736            0    3261.7794    23.342571    21.658139    21.822669    11032.596    3797.8489    3863.5344    2123.9549   -108.76788    1499.6681   -104.42708   -5182.1159 
 5295000    231.97332   -6382.2646   -5785.5273   -6382.2646            0    2051.1079     23.66029    21.387169    21.836932    11050.069    743.66669    3026.4833    2383.1738    726.95889    794.57801    245.01766   -5454.9833 
 5296000    246.25659   -6342.6004   -5709.1203   -6342.6004            0     2729.634    23.170774    21.743502    21.956126    11061.799    4099.8234    1433.9217    2655.1569   -959.31717    378.10864   -163.22701   -5268.7622 
 5297000    243.66043    -6371.961   -5745.1594    -6371.961            0    2275.0059    23.505796    21.464259    21.830707    11014.345    2592.5006    2532.2706    1700.2467   -277.43123   -847.91492   -180.58463   -5379.7186 
 5298000     250.6602   -6347.2191    -5702.411   -6347.2191            0    2592.1806    23.398192    21.644501    21.802975    11041.946    3241.2884    2205.3978    2329.8555   -1110.7126   -260.61409   -119.08071    -5284.978 
 5299000    251.98135   -6344.6825   -5696.4758   -6344.6825            0    3660.3663    23.400848    21.415322    22.018465    11034.261    2681.5976    4376.5058    3922.9956   -309.05005    1849.5869    1146.7343   -5107.4373 
 5300000    245.07012   -6343.1547   -5712.7267   -6343.1547            0    2657.2359     23.29888    21.644526    21.883953    11035.929    2458.7336    2626.7249    2886.2494    709.03171   -307.80263   -585.67129   -5285.0507 
 5301000    245.57514    -6323.293   -5691.5659    -6323.293            0    1487.4887    23.726181    21.451337    21.848726     11120.09    633.63327    2359.5431    1469.2897    597.52703    558.84692     -63.5984   -5450.3323 
 5302000    230.18173   -6334.7596   -5742.6312   -6334.7596            0    1469.9269    23.373182    21.693634    21.956921     11133.24     3116.431    974.87634    318.47349   -661.89665    166.76348   -711.31865   -5503.9637 
 5303000    242.45476   -6365.9882   -5742.2881   -6365.9882            0    2508.7245    23.512481    21.424864    21.951632    11058.172    1902.2394    2796.8448    2827.0895    949.35742    324.11463    50.979137   -5337.7008 
 5304000    241.69285   -6321.1676   -5699.4274   -6321.1676            0    1916.7135    23.384889    21.767457    21.780524    11086.931    1851.7972    2487.1093    1411.2342    25.049605    398.52883   -482.11288   -5389.5111 
 5305000    244.57358   -6338.0848   -5708.9341   -6338.0848            0    2604.6013    23.584376    21.434176    21.849489    11045.172    1889.5679    3775.0692    2149.1668   -1019.5507    765.19825    454.53873   -5289.3784 
 5306000    237.89269   -6287.0031   -5675.0386   -6287.0031            0    2498.6001    23.332962    21.669916    22.001138    11124.288    2876.5315    2030.0731    2589.1956    105.17316    315.06168   -89.478019   -5269.6749 
 5307000    243.25117   -6344.8659   -5719.1171   -6344.8659            0    2533.0935    23.468076    21.462713    21.976225    11069.173     2694.491    3660.9877    1243.8017    779.73691    559.23185   -441.53046   -5310.1934 
 5308000    232.13813   -6319.9534   -5722.7922   -6319.9534            0    3517.7701    23.421782    21.581992    21.830987    11035.317    3323.0901    3460.8472     3769.373    270.11779    571.07712   -424.75337   -5156.6466 
 5309000    237.88003   -6322.8043   -5710.8724   -6322.8043            0    3391.8408    23.652823    21.391454    21.805175    11032.727    1468.8313     3836.863     4869.828    279.75728    315.94813    1279.1387   -5165.1219 
 5310000    236.73259   -6362.2964   -5753.3163   -6362.2964            0    1153.7337    23.362032    21.747928    21.867169    11110.179    1310.8153    775.75457    1374.6313   -143.28543    59.479944     866.2887   -5566.3761 
 5311000    245.09795     -6356.25   -5725.7505     -6356.25            0     455.9133    23.541347    21.480192    22.053983    11152.096   -302.32823    1345.8391    324.22901   -1295.2693   -208.26331    -721.2433   -5651.5999 
 5312000    242.11844   -6327.6796   -5704.8446   -6327.6796            0    1889.5088    23.483811    21.571212    21.893646    11090.758    2047.5073    2395.3309    1225.6882    890.22737   -699.75982    125.06835   -5399.2216 
 5313000    248.13806   -6314.0201   -5675.7001   -6314.0201            0      1705.68    23.536144    21.727614     21.80423     11150.34    869.55566    2015.9032    2231.5812    984.00364    762.91195   -32.892143   -5398.3288 
 5314000    235.44805   -6339.1258     -5733.45   -6339.1258            0    1050.8034    23.615029    21.501992    21.936052    11138.473    443.90198    1164.5358    1543.9724    628.24217   -692.74461    772.09735   -5562.7542 
 5315000    226.59166   -6355.0033     -5772.11   -6355.0033            0    1885.1247    23.436441    21.650572    21.891085    11107.807    1687.6559    2090.6203    1877.0978    248.85021   -880.32494   -63.555187   -5466.7274 
 5316000    253.71835   -6339.1621   -5686.4871   -6339.1621            0    2417.5822    23.563801    21.542916    21.865001    11099.395    2077.1196    2014.2809    3161.3462    353.89126   -817.59015     1021.579   -5295.1451 
 5317000    233.62318    -6359.202   -5758.2206    -6359.202            0    2400.5567    23.226811     21.83145     21.75148    11029.631    3426.4794    1144.5337    2630.6569   -319.07881    328.70584    29.921748    -5372.077 
 5318000    231.33722   -6338.8479    -5743.747   -6338.8479            0    2213.1844    23.490109    21.417725    21.967857    11052.132     2738.563    2141.5784    1759.4118     337.2328    774.41498    1058.7764   -5387.0171 
 5319000    228.26934   -6357.8851   -5770.6762   -6357.8851            0    2202.7928    23.405057    21.618546    21.901824    11081.957    2603.5839    2210.0884     1794.706     -39.2243    1185.0941   -303.95456   -5414.6631 
 5320000     235.9973   -6330.2604   -5723.1717   -6330.2604            0    3352.2806    23.607098    21.464154    21.746527    11019.104    2752.2747    3405.2696    3899.2976    293.83254    112.23827    524.48455   -5184.4524 
 5321000    236.56986   -6319.7511   -5711.1895   -6319.7511            0    1603.2167    23.351499    21.729477    21.878777    11101.638    2024.1066    1231.4997    1554.0438   -178.29237    1090.6779   -32.664776   -5451.6191 
 5322000    253.99037   -6307.7393   -5654.3646   -6307.7393            0    1774.0469    23.513173    21.466082    22.043945    11126.366    1351.5319    2980.3202    990.28867   -292.76566   -152.90851    -438.2335    -5366.496 
 5323000     240.2334   -6364.5767   -5746.5909   -6364.5767            0    1939.8665    23.290902    21.711471    21.847044    11047.608    1824.4891    790.07629     3205.034   -509.35255    289.74467    1006.9731   -5434.0435 
 5324000    245.43349   -6354.5941   -5723.2314   -6354.5941            0    2535.5181    23.745187    21.417608    21.739355    11055.877     1122.156    3954.6493    2529.7492    477.58442    -298.2612   -405.80528   -5314.4079 
 5325000    243.27577    -6349.105   -5723.2929    -6349.105            0    2646.4715    23.313869    21.672279    21.867978    11049.117    2286.1983    3140.2797    2512.9364     168.1152   -141.42595   -487.88601   -5296.8404 
 5326000    241.14662   -6346.5282   -5726.1932   -6346.5282            0    3303.3581    23.465984    21.356592    21.940295    10995.454    3284.0935    4368.2523    2257.7287    554.98367   -13.162371   -260.66858   -5196.4752 
 5327000     236.5618   -6346.9985   -5738.4577   -6346.9985            0    2955.6658    23.443395    21.648779    21.749925    11038.541    2578.1289    2452.5757    3836.2928    2000.5761   -699.33203    496.79891   -5262.6375 
 5328000      247.281   -6317.7914   -5681.6761   -6317.7914            0    2698.2348    23.532804    21.431207     22.00009    11095.447    3171.3337    2114.5481    2808.8227    1215.9979   -1454.5717    930.27887   -5245.0593 
 5329000    232.08674   -6339.5572   -5742.5282   -6339.5572            0    3588.5751    23.346499    21.571954     21.86165    11010.174    3065.6916    4685.6243    3014.4094   -134.55259   -220.69282    123.17661   -5166.3032 
 5330000    244.91108     -6312.09   -5682.0711     -6312.09            0    2772.5061    23.522768    21.490817    21.875407    11058.532    2721.9826    2410.2761    3185.2595    196.74559   -370.22387   -474.69588   -5234.9287 
 5331000    236.39073   -6340.7409   -5732.6402   -6340.7409            0     2786.844    23.362281    21.671378    21.794531    11034.414    3333.5714    2287.7107    2739.2499   -562.48552    -1416.832    -1711.486   -5284.1656 
 5332000    234.22106   -6335.3941   -5732.8747   -6335.3941            0    1999.0055     23.63574    21.515363    21.806409    11089.246    1345.9139    2071.3139    2579.7887    704.09858    121.85536    208.52592   -5409.5849 
 5333000    240.90627   -6344.8406   -5725.1239   -6344.8406            0    1983.7043    23.361821    21.633963    21.858295    11047.374    1807.6285    1440.0624    2703.4221     9.864283    721.98727   -503.12153   -5405.5201 
 5334000    243.49638   -6295.2764   -5668.8968   -6295.2764            0    2364.5068    23.555398    21.503335    21.960117     11123.23    2485.1655    2397.2961     2211.059   -545.87169   -40.063679    393.44092   -5285.3244 
 5335000    234.16006   -6330.2725     -5727.91   -6330.2725            0     3758.636    23.368854    21.638816    21.798136    11022.758    3591.8569     3970.019     3714.032    151.94808    1370.5076   -1188.4821   -5123.6882 
 5336000    241.57662   -6355.3022   -5733.8611   -6355.3022            0    736.82166    23.432425    21.515285    22.078519    11131.003    451.06228    490.94477    1268.4579   -1245.0806    724.42449    921.33435   -5614.2497 
 5337000     233.4697   -6354.6231   -5754.0365   -6354.6231            0    861.46263    23.408955    21.581951    22.067978    11148.983    695.02534    1312.5443    576.81828   -625.12502    223.18476    1000.3942   -5613.9657 
 5338000    244.70538   -6346.2637    -5716.774   -6346.2637            0    2455.0733    23.550802    21.535416    21.837555    11075.491    2363.9118      3131.27    1870.0383   -285.66064   -78.960319   -1717.6128   -5320.2191 
 5339000     234.5417   -6364.6893   -5761.3451   -6364.6893            0    3545.8006    23.544767    21.625135    21.646826    11021.671    3626.0553    3309.0681    3702.2785   -438.03401    -43.91404   -1890.6419   -5191.3939 
 5340000    235.22638   -6346.4173   -5741.3117   -6346.4173            0    2178.3515     23.50399    21.577687    21.878116    11095.744    1333.1417    2832.9836     2368.929   -586.87866    203.37816   -63.120784   -5388.8108 
 5341000    242.18824   -6377.3496   -5754.3351   -6377.3496            0    2386.6622    23.439163    21.500815     21.90663     11040.09    1741.7351    3295.8983    2122.3532    184.81446   -279.42105      15.7784   -5370.0625 
 5342000     239.1153   -6335.1641   -5720.0546   -6335.1641            0    2395.3693    23.352925    21.549074    21.981728    11061.951    2731.2963    1702.4819    2752.3298    294.68434     -389.976    63.326727   -5333.6164 
 5343000    235.37893    -6323.708   -5718.2101    -6323.708            0    3362.7723    23.548336    21.513081    21.831801    11059.931    3755.8564    3623.7081    2708.7523   -662.51938   -1344.5864   -288.71625   -5175.8025 
 5344000    241.93472   -6333.0001   -5710.6378   -6333.0001            0    3046.8538    23.293181    21.734632    21.850655    11062.303    3573.4686    4151.8986    1415.1943   -592.99875   -16.710046   -1590.1237   -5219.0818 
 5345000    234.38149   -6362.9702   -5760.0381   -6362.9702            0    2112.7801    23.558039    21.451665    21.858053    11046.167    2364.3926    1743.3667     2230.581   -20.018566    787.68392    643.07857   -5419.6755 
 5346000    246.09964   -6329.2201   -5696.1438   -6329.2201            0    1585.4066     23.40644    21.761478    21.845397    11127.144    1820.1565    786.04194    2150.0213    1192.8311    307.94401    665.54437   -5438.8673 
 5347000     245.0316   -6356.5471   -5726.2182   -6356.5471            0      1663.09     23.51016    21.437933    22.023653    11100.125    1538.8235     2319.342    1131.1044    777.20449   -810.00312   -175.98563   -5456.9906 
 5348000    233.79657   -6363.9887   -5762.5613   -6363.9887            0    1982.3437    23.363734    21.724626    21.806279    11068.178    2824.4566    173.47689    2949.0977    84.336282   -1631.9311    1024.0205   -5442.5753 
 5349000    240.41606   -6341.9724   -5723.5168   -6341.9724            0    2466.4066    23.527339    21.522171    21.900791    11089.672    1617.4444      2884.88    2896.8955   -92.831324    280.28419    193.29976   -5324.6212 
 5350000    239.21485    -6357.364   -5741.9983    -6357.364            0    3178.5385    23.340086    21.501597    21.940717    11010.929    3599.9699    3449.7186     2485.927    355.78073   -1598.6405    530.38802   -5231.5787 
 5351000    241.17241   -6368.8994   -5748.4981   -6368.8994            0    2686.5335    23.457655    21.671752    21.723891    11043.742    1520.4744    2300.3755    4238.7506    11.536211    306.76388   -1021.1267   -5315.8006 
 5352000    240.19273   -6341.8897   -5724.0085   -6341.8897            0    663.73888    23.703878    21.553443    21.830396    11153.153   -792.96003    1281.9621    1502.2145    1255.7387    34.573396   -1000.2243   -5616.0466 
 5353000    242.27906   -6319.1602   -5695.9121   -6319.1602            0    1523.5023    23.373415    21.582036    22.039985     11117.98    2473.0572    1504.5651    592.88448   -515.82255    581.17485    -362.1606   -5448.8848 
 5354000    244.98128   -6348.6049   -5718.4055   -6348.6049            0    1313.3306    23.470529    21.563184    21.966411    11117.186    1442.6418    1664.0058    833.34411    688.70498   -189.75109    514.36104   -5505.4716 
 5355000    238.89684   -6322.6424   -5708.0948   -6322.6424            0    2643.1146    23.560881    21.586053    21.749727    11061.616    1224.9879    3355.3203    3349.0355    51.891526    1060.8121    -529.2238   -5281.7015 
 5356000    240.96197   -6361.3867   -5741.5267   -6361.3867            0    2522.1804    23.457928     21.57042    21.889744    11076.153    2132.3051    2950.9078    2483.3284   -532.31465    178.31369   -637.30763    -5334.108 
 5357000    242.94582   -6357.8246   -5732.8613   -6357.8246            0    1648.7966    23.403577    21.616781    21.910131    11084.554    1325.8338    562.89937    3057.6566    564.42528    891.63133    140.09861    -5466.322 
 5358000    239.12336   -6337.7562    -5722.626   -6337.7562            0    2291.8488     23.59193    21.467702    21.872647     11077.72     2416.992    1835.4992    2623.0553    420.79294    910.39017    220.26794   -5352.3613 
 5359000    241.34206   -6359.4811   -5738.6434   -6359.4811            0    1436.2618    23.438838    21.733062     21.82109    11115.614    2601.2653   -435.29264    2142.8127   -1010.1483    139.26736   -884.09768   -5505.8112 
 5360000    233.21081   -6338.4253   -5738.5047   -6338.4253            0    2677.4003    23.543265    21.460077    21.898658    11064.084    2875.3828     2289.989     2866.829   -1636.6057   -1215.2334   -278.38415   -5306.4839 
 5361000    236.52228   -6326.5619   -5718.1227   -6326.5619            0    1669.8323    23.351619    21.626367    22.058746    11139.902    1736.0052    1868.0825    1405.4093    1152.0591   -752.85272    303.96666    -5446.835 
 5362000    245.13375   -6356.7828   -5726.1911   -6356.7828            0    2226.3433    23.572449    21.589843    21.743588    11065.866    2030.1916    2044.2812    2604.5572    70.843163    463.13039    53.976251   -5366.8943 
 5363000    242.08209   -6345.4697   -5722.7283   -6345.4697            0     4270.507    23.405629    21.595639    21.733986     10985.65    3931.0222    3522.2765    5358.2224   -476.10297    722.56759   -754.44797   -5038.5314 
 5364000    240.98852   -6328.0984   -5708.1701   -6328.0984            0    2121.1044    23.433487    21.587987    21.848978    11053.001    2009.5832    2089.0697    2264.6602   -518.72094   -234.69634   -760.01436   -5366.2551 
 5365000    240.11075    -6328.208   -5710.5377    -6328.208            0    2689.1347    23.444174    21.472808    22.025704    11088.009    3918.3399    2214.5574    1934.5069   -196.90064   -634.76905    1261.1366   -5275.6851 
 5366000    231.96335   -6358.9791   -5762.2675   -6358.9791            0    1487.2248    23.358413    21.713692    21.839793    11077.086    1273.7913    1273.8501    1914.0329   -950.60718    348.16571    539.08763   -5522.0094 
 5367000    228.52534   -6370.9163   -5783.0487   -6370.9163            0     1055.777    23.714432    21.587573    21.645496    11081.131   -546.10951    1360.1962    2353.2442    -580.3408   -659.92323   -90.828735   -5612.4279 
 5368000    236.49332   -6363.3096   -5754.9449   -6363.3096            0    1601.2778    23.369715    21.621325     21.90386    11067.675    1772.6379    1317.2379    1713.9577    505.02433   -451.96607   -844.66204   -5496.4816 
 5369000    238.77372   -6344.3525   -5730.1216   -6344.3525            0    2987.3764    23.463943    21.451702    21.953091    11049.902    3386.4168    4355.6043    1220.1079     486.5792    129.93473   -720.82313   -5248.7015 
 5370000    234.99768   -6331.1776   -5726.6604   -6331.1776            0    1110.6851    23.444051    21.706462    21.809814     11098.74    1098.6876     1084.938    1148.4296    647.37257    356.81175    336.21615   -5546.8808 
 5371000    236.82868   -6338.4999   -5729.2725   -6338.4999            0    1125.8605    23.871595    21.390442    21.776077    11119.387   -115.76973    2124.5368    1368.8146   -129.36779    462.90792    341.20345   -5546.6975 
 5372000    248.80876   -6329.0737   -5689.0283   -6329.0737            0    2111.3345    23.318087    21.730263    21.908741    11101.338    1980.9224    3308.7118    1044.3691    180.72563    111.91731   -991.71235   -5347.1998 
 5373000    231.09092   -6336.9641   -5742.4968   -6336.9641            0    2432.6818    23.616937    21.520922    21.774092    11066.862    2279.4241    2827.0436    2191.5778   -731.53699   -62.388952   -1342.6927   -5349.8648 
 5374000    246.86941   -6344.6916   -5709.6351   -6344.6916            0    2951.9729    23.370332    21.501538    21.942705    11026.167    1993.4036     3208.405    3654.1101    1377.5805    1719.0953     141.0156   -5234.9421 
 5375000    242.78465   -6321.3272   -5696.7785   -6321.3272            0    2992.4241    23.372241    21.521992      21.9891    11060.896    3269.7702    1822.7593    3884.7426   -157.66092     61.45585    633.25419   -5214.0651 
 5376000    238.95835   -6341.3392   -5726.6334   -6341.3392            0    3385.7532    23.420576    21.571778    21.827388    11027.709    2865.8588    3873.3371    3418.0638   -1355.0218   -23.997092   -411.22984   -5182.1101 
 5377000    241.10359    -6349.369   -5729.1447    -6349.369            0    2682.6085    23.398944    21.656243    21.873346    11083.951    2624.5803    2590.1661    2833.0791   -362.70371    155.55449    241.22372   -5295.5062 
 5378000     246.7005    -6362.524    -5727.902    -6362.524            0    2280.6861    23.440501    21.552168    21.895283    11061.358    2225.8209    1646.7809    2969.4566    882.18505   -243.46759    434.30468    -5359.985 
 5379000     244.7034   -6304.6393   -5675.1548   -6304.6393            0    2520.6358    23.476732    21.514373    21.914195    11068.578    2002.4092    3893.3357    1666.1625    559.88398     210.5695    792.60303    -5268.264 
 5380000     224.9364   -6357.5528   -5778.9176   -6357.5528            0    495.33986    23.468608    21.662498    21.990681    11179.813    1345.8159   -41.844758    182.04843    966.76993   -424.15222    123.97135   -5698.1544 
 5381000    245.85387   -6399.6104   -5767.1663   -6399.6104            0     427.1889    23.501451    21.482612    22.100257    11157.813    355.88779    1836.1068   -910.42787   -1300.1662    450.08404   -1311.2583   -5697.6519 
 5382000    244.83167   -6326.2002   -5696.3857   -6326.2002            0    1224.0626    23.462446    21.623412    22.007299    11165.142    1207.3773    822.60556     1642.205   -535.89169    590.47721    364.85516   -5497.0689 
 5383000    237.98612   -6316.2119   -5704.0071   -6316.2119            0     2555.742     23.48979    21.489269    21.953574     11081.69    2450.0381    2814.8699    2402.3181   -300.88785    957.59773    333.89852   -5290.9606 
 5384000    227.84247   -6348.1603   -5762.0494   -6348.1603            0    2724.4364    23.368989    21.615064    21.839827    11031.781    3971.2478    1541.1458    2660.9157   -334.44433    488.32049    595.31177   -5323.7224 
 5385000    238.00452   -6376.3908   -5764.1386   -6376.3908            0    3069.7941    23.360395    21.450312    21.904459    10976.056    3402.4212    4216.6074    1590.3537   -237.63809   -61.894083   -932.96562   -5272.7428 
 5386000    247.52238   -6338.5257   -5701.7895   -6338.5257            0    1173.2147    23.568503    21.537043     21.90365    11118.202    1011.6974     430.3892    2077.5576   -302.14123    407.69159    547.28522   -5511.5556 
 5387000    245.95461   -6369.8134   -5737.1101   -6369.8134            0    1534.1364    23.428039     21.56915    21.932877    11083.184    2214.7727    1826.9159    560.72066    469.94407   -364.36906    173.56366   -5489.1371 
 5388000    234.50436   -6350.0607   -5746.8125   -6350.0607            0    1781.2728    23.593464    21.568515    21.810584    11098.882    1920.8601    1653.5408    1769.4175   -169.35642   -46.205838   -79.965134   -5458.4853 
 5389000    232.74511   -6332.1163   -5733.3937   -6332.1163            0    2525.9653    23.308533    21.655386    21.869056    11038.521    2819.5897     2070.496    2687.8102    534.16334   -192.39761   -592.80537   -5326.7499 
 5390000    245.91597   -6360.0667   -5727.4628   -6360.0667            0    531.66807    23.496576    21.501038    22.046336    11137.826     313.3723    986.49209    295.13981   -873.11902    792.60365    926.02667    -5641.102 
 5391000    243.49979   -6371.7088   -5745.3205   -6371.7088            0    1395.1421    23.368284    21.675728    21.918182    11102.097    2845.2653    490.79339    849.36764    -386.8571   -318.19474    322.83915   -5519.4292 
 5392000    235.96756   -6329.9444   -5722.9322   -6329.9444            0    2295.0128    23.606953    21.447904    21.845839    11060.978    409.57061    2624.2587    3851.2091   -130.75759    756.16297    404.89249   -5352.7168 
 5393000     238.4716   -6335.0366   -5721.5829   -6335.0366            0    1608.2085      23.4832    21.712401    21.847272    11139.414    1778.3488    279.61752    2766.6591   -292.91791    388.76648    117.43318   -5460.3183 
 5394000    239.37579   -6352.8836   -5737.1039   -6352.8836            0    1916.6144    23.597639     21.47247    21.818113    11055.229    1946.1014    2033.4431    1770.2987    -96.33534    305.44913   -1334.0267   -5428.0898 
 5395000    249.32009   -6332.4837    -5691.123   -6332.4837            0     2351.621    23.374706     21.70868    21.875355    11100.299     2954.694    1597.9979     2502.171   -245.03554    72.331848    -6.949033   -5310.4273 
 5396000    245.24518   -6371.6787   -5740.8004   -6371.6787            0    2599.0925    23.569336    21.411698    21.898543    11051.307    2218.5581    2272.6889    3306.0304   -967.85345   -1563.4565    213.27301   -5321.8996 
 5397000    237.47273   -6365.1854   -5754.3012   -6365.1854            0    2778.9496    23.380405    21.691389    21.778271    11044.926    3771.8278     1810.606     2754.415    560.73573   -840.35634    576.06927    -5306.671 
 5398000    234.14391   -6352.1697   -5749.8487   -6352.1697            0    3470.5758    23.512313    21.362299    21.868849    10984.221     3329.984    4692.4598    2389.2835   -549.68472   -55.015501   -328.74029   -5193.8847 
 5399000    247.08546    -6323.875   -5688.2627    -6323.875            0    2681.4656    23.263342    21.773501    21.901203    11093.494    3153.3103    2252.5794     2638.507    227.86583    1517.8554   -9.8499001   -5254.4358 
 5400000    228.97876    -6329.787   -5740.7531    -6329.787            0    2266.3767    23.627262    21.468351     21.91281    11115.018    28.436157     3660.334      3110.36    1087.1038    1735.4584   -554.69861   -5373.3709 
 5401000    247.61728   -6337.7943    -5700.814   -6337.7943            0      759.436    23.480449    21.734089    21.875243    11163.509     1606.213    193.90537    478.18963    567.81005   -139.97244   -58.444405   -5577.1715 
 5402000    240.20591   -6380.2728   -5762.3577   -6380.2728            0    72.388061    23.717863    21.590871    21.844778    11186.477   -243.68475   -796.61018    1257.4591   -452.97742   -334.73667    173.32057   -5750.5481 
 5403000    245.89689   -6332.6117   -5700.0569   -6332.6117            0    2393.1873      23.3931    21.588213    21.856013    11037.619    2384.9514     2778.215    2016.3957   -539.96976    242.92866       406.35   -5314.8199 
 5404000    239.94846   -6342.6786   -5725.4258   -6342.6786            0    2661.6543    23.533437    21.504452    21.870626    11068.148    2701.4031    1281.8052    4001.7547   -106.28374   -583.40923    539.05947    -5295.788 
 5405000    228.12102   -6334.4623   -5747.6349   -6334.4623            0    2845.9197    23.406505    21.667632    21.737685    11024.562    3785.7739    2362.3634    2389.6218    465.32419    -767.5585    -535.2533   -5290.0624 
 5406000    233.03785   -6374.5783   -5775.1026   -6374.5783            0    2158.9502    23.540409    21.541104    21.853366    11081.544    2448.7983    2241.1359    1786.9165     -351.758   -99.521999   -982.32119   -5426.1883 
 5407000    239.88984    -6365.104    -5748.002    -6365.104            0    1637.8888    23.462546    21.552624     21.95665    11103.026    2491.1723    1172.8119    1249.6823    589.42287    615.30144    639.64496   -5482.7848 
 5408000     240.8172   -6368.5413   -5749.0537   -6368.5413            0    1650.1376    23.506954     21.60361    21.795297    11068.417    2805.6443    861.17119    1283.5974    1395.8556    -141.0233     77.60324    -5482.686 
 5409000    247.78302   -6358.8393   -5721.4326   -6358.8393            0    3632.8959     23.54812    21.450212     21.74339    10982.851    3344.7668    3622.9199     3931.001   -575.29114   -1069.1657     198.8828   -5139.5385 
 5410000    250.87759   -6381.1142   -5735.7468   -6381.1142            0    2222.4948    23.371161    21.613921    21.897265    11061.238    1988.7036    1880.0697    2798.7109   -523.16121     346.6628   -236.33523   -5377.2211 
 5411000    235.14884   -6360.1197   -5755.2136   -6360.1197            0    1531.0987    23.510663    21.557191     21.86842    11083.437    954.49348    1945.5372    1693.2654    -193.4173    119.74039    968.11504    -5507.726 
 5412000    231.57735   -6317.2743   -5721.5556   -6317.2743            0    1062.9613    23.477167    21.544231    22.086467     11171.28    525.71697    1571.1018    1092.0651   -462.23894    950.13451    10.258803   -5548.3762 
 5413000    242.12179   -6348.4479   -5725.6043   -6348.4479            0    2374.9405    23.415426    21.591206    21.897034    11070.424     2942.854    1897.3412    2284.6264    928.00726    779.88383    593.58533   -5342.1683 
 5414000    227.42006   -6334.9452   -5749.9209   -6334.9452            0    2848.9958     23.47298    21.551789    21.799091    11027.827    3398.6526    2177.3621    2970.9727   -143.62845   -38.952482   -311.69409   -5291.7182 
 5415000    241.02775   -6344.5359   -5724.5068   -6344.5359            0    2325.5608    23.455919    21.559215    21.913356    11081.391    3908.9881     1449.729    1617.9654   -605.33719   -1167.3849     321.3224   -5348.6712 
 5416000    251.21094   -6337.6396   -5691.4148   -6337.6396            0    3008.3844    23.412784    21.558136    21.808239    11007.403    2371.1239    3369.3497    3284.6797   -385.61412    208.44413    1637.7503   -5208.4738 
 5417000    234.65165   -6345.4881    -5741.861   -6345.4881            0    1154.4338    23.481473    21.510179    22.043873    11134.155    457.10448    1632.1365    1374.0604   -367.31757    287.94208    223.15371   -5554.4038 
 5418000    247.35908   -6336.8492   -5700.5331   -6336.8492            0     2107.623    23.482152    21.621753    21.825431    11081.323    1526.9659     2243.468     2552.435     1322.211    233.73952    52.540578   -5359.9207 
 5419000    254.10056   -6326.6606   -5673.0023   -6326.6606            0    2245.9141    23.614217     21.52525    21.831746    11097.119     2091.925    2210.4388    2435.3785   -13.399077    -184.3116   -551.63086   -5309.5234 
 5420000    239.52657   -6343.4785   -5727.3109   -6343.4785            0    2676.7578    23.341798    21.562179    21.881105     11012.76     3398.816    1898.3296    2733.1277    7.4261961    276.52098   -365.11131   -5297.3974 
 5421000    240.32823   -6333.0297      -5714.8   -6333.0297            0    3760.4591    23.533998    21.325774    21.953399    11017.988    3603.5676    3745.3114    3932.4982   -135.93333    62.895107    739.71672   -5110.5467 
 5422000    238.29198   -6324.5869   -5711.5953   -6324.5869            0    2194.1323    23.293571    21.715488    21.878612    11066.886    3333.1012    1089.6691    2159.6267    -118.2129   -924.52538   -192.21378   -5357.4641 
 5423000    237.82972   -6354.3417   -5742.5392   -6354.3417            0    2157.3125     23.56148    21.512232      21.8537    11076.767    2094.1195    2275.5202    2102.2979    49.992828   -646.18036    -260.3428   -5394.0399 
 5424000    225.98614   -6322.1976   -5740.8621   -6322.1976            0    2654.5181    23.393039    21.751135    21.768994    11076.612    3049.4448    1624.5657    3289.5437   -373.43514    -925.3051   -898.91278   -5312.0485 
 5425000    234.83293   -6327.9785   -5723.8851   -6327.9785            0    2828.3559    23.543748    21.377367    21.994294    11069.801    1924.3333     4464.909    2095.8255    937.09241   -375.69466    69.500875   -5267.2705 
 5426000    232.32662    -6351.722   -5754.0759    -6351.722            0    2854.9577     23.44285    21.587953    21.747165    11005.874    2603.1359    2403.5416    3558.1955   -714.24847   -20.986259    566.20495   -5295.8284 
 5427000    246.11238   -6318.4052   -5685.2961   -6318.4052            0    3261.6004    23.480876    21.524616    21.873602    11055.286    3821.9208    3555.3123    2407.5682    -120.5686    -1258.027    -1398.613   -5159.4283 
 5428000    242.92218   -6339.2027   -5714.3002   -6339.2027            0    1543.7796    23.431521    21.616508    22.031793    11159.272    1868.1746    983.33057    1779.8336    31.318359    -579.4261   -326.62116   -5463.0554 
 5429000    240.99842    -6349.227   -5729.2732    -6349.227            0    1002.0328    23.573393    21.786544    21.761002    11176.075    836.04419    26.145319    2143.9088    1322.2245   -53.117709   -164.37141   -5565.9503 
 5430000    245.72445   -6354.9877   -5722.8765   -6354.9877            0    1327.3132    23.470631    21.622799    21.886297    11107.312    1640.2552    964.88128     1376.803   -824.30283   -326.22442    520.08252   -5507.8667 
 5431000    238.73722   -6349.8403   -5735.7034   -6349.8403            0    2383.7914    23.328532    21.521571    22.026477    11058.759    3267.6159    2017.6799    1866.0785   -778.60333    309.64123     424.5911   -5351.2439 
 5432000    245.78891     -6335.77    -5703.493     -6335.77            0    2638.0781    23.475946    21.527641    21.875681     11055.57    2490.2489     1937.863    3486.1225   -327.97467    294.56003    116.05971   -5278.1447 
 5433000    234.04225   -6352.0142   -5749.9548   -6352.0142            0    2207.4003    23.437033    21.648811    21.783377    11052.535    2596.1812    1469.1461    2556.8735   -271.00799   -136.65183     544.9079   -5394.1442 
 5434000    235.82808   -6351.6886   -5745.0352   -6351.6886            0    1144.3221    23.510369    21.634662    21.911444    11145.012    1100.1712    1094.4322    1238.3629   -772.03881     528.4386   -492.11215   -5559.0387 
 5435000    237.05756   -6314.7795   -5704.9633   -6314.7795            0     2183.057    23.345746    21.561369     22.03802    11093.195    4008.5264     1980.331    560.31341    -800.0912   -557.00543   -1247.5455   -5351.7821 
 5436000      250.082   -6343.5788   -5700.2581   -6343.5788            0    1435.5952    23.381324    21.670635    21.917405    11105.289    1347.7444    1302.5751    1656.4662    366.61443    291.19062    797.66582   -5467.7502 
 5437000    228.47431    -6342.969   -5755.2328    -6342.969            0    1758.1954    23.582744    21.511539    21.907436    11113.667    1069.8584    3055.6881    1149.0396    343.52584   -1183.4475   -234.19583    -5470.262 
 5438000    243.74929   -6333.2462    -5706.216   -6333.2462            0    2618.6691    23.482187    21.658049     21.76398    11068.689    3549.3104    951.28149    3355.4155   -662.11774    254.27037    742.44962   -5283.4961 
 5439000     231.1766   -6371.1384   -5776.4507   -6371.1384            0    3419.2878     23.51549    21.521665    21.758515    11011.821    2046.0737    4606.3792    3605.4105    886.00832   -451.05428   -940.49895   -5227.3263 
 5440000    257.34557   -6329.9679   -5667.9621   -6329.9679            0    3282.6558    23.445274    21.511576    21.926429     11058.48    4024.0395    3973.6543    1850.2736    1803.0369   -662.32146   -491.06579   -5138.5466 
 5441000    251.70662   -6351.0369   -5703.5369   -6351.0369            0     2014.502    23.370248    21.521824    22.061029    11096.044     2593.738    2667.1362    782.63174    1028.8024   -1413.9491     -44.5038   -5377.5413 
 5442000    237.91085    -6326.799   -5714.7879    -6326.799            0    2696.6314    23.521725    21.566924    21.795139    11056.483    2684.6254    885.75396    4519.5148    400.26319   -89.273385    370.69279   -5279.9629 
 5443000    241.80381   -6359.8408   -5737.8152   -6359.8408            0    2219.4492    23.439054    21.688729      21.7819    11073.118    1705.1916    2593.0999    2360.0561   -27.086917   -422.51032    279.06398   -5379.3962 
 5444000    243.91668   -6345.0783   -5717.6175   -6345.0783            0    1002.3833    23.631558    21.459851    21.972732    11143.025   -70.442095    1427.0479    1650.5442     232.4489    566.39181    1274.3728   -5554.7206 
 5445000    237.43913   -6317.2706   -5706.4729   -6317.2706            0    2375.7504    23.450798    21.650776    21.825999     11081.67     2953.441    1107.5879    3066.2222    451.26002    465.66267    563.69654   -5322.5165 
 5446000    244.52702   -6372.3454   -5743.3146   -6372.3454            0    1632.5005    23.492232    21.536633    21.914265    11087.382    2117.0788    1782.1927    998.22985   -61.671013    102.86403   -534.76125   -5479.3424 
 5447000    234.45325   -6323.6602   -5720.5435   -6323.6602            0    1366.8112    23.368126    21.653656    21.969455    11116.662    2913.2355    842.08307    345.11511   -609.99293    71.931117   -1083.1778   -5498.9491 
 5448000    243.35997   -6329.6272   -5703.5985   -6329.6272            0     2762.161    23.520242    21.377067     21.98497    11053.906    1740.4348    3837.0629    2708.9853   -472.64319    33.533368    436.09145   -5258.3109 
 5449000    242.27059   -6323.5368   -5700.3104   -6323.5368            0    2175.4109    23.311955    21.742331    21.863599    11081.702    1689.6235    2633.3438    2203.2655   -379.56294    246.54098    612.77932   -5348.7308 
 5450000    234.49691   -6343.9968   -5740.7677   -6343.9968            0    2637.8893    23.579666    21.424688     21.88562     11056.33    1185.2536    3114.6955    3613.7187    57.567911   -547.13586    249.51405   -5315.4207 
 5451000    247.04789    -6344.981   -5709.4653    -6344.981            0    2418.4738    23.347589    21.632768    21.895696    11058.924    3312.7816    1635.8695    2306.7702   -253.59746    -338.4549   -1009.7243   -5319.4065 
 5452000    251.32017   -6365.8585   -5719.3527   -6365.8585            0    1721.9565    23.530734    21.494791    21.877629    11065.447    2906.9433    1371.4776    887.44847   -418.54453   -120.42543   -558.87942   -5441.4664 
 5453000    227.03906   -6361.6133   -5777.5692   -6361.6133            0    1604.8941      23.4717    21.644876    21.804103    11077.401    1751.2099    905.19309    2158.2793    441.62223   -75.609537    38.614701   -5518.2945 
 5454000     244.9747   -6369.3427   -5739.1602   -6369.3427            0    2214.5542    23.507378    21.570591    21.827695    11068.126    2117.5023    1417.1153     3109.045     27.39129    1018.0104    521.31778   -5381.6929 
 5455000    239.85527   -6361.8281    -5744.815   -6361.8281            0    2987.2728     23.27951    21.553287    21.984193    11030.568    3243.1489    4147.6301    1571.0393   -6.4145563   -751.53503    64.939031   -5264.2539 
 5456000    231.58053   -6357.5035   -5761.7767   -6357.5035            0    4153.6524    23.385852    21.510956    21.812061    10972.602    5217.9029    3758.5592    3484.4951   -799.93651    -367.0708   -364.08614    -5097.092 
 5457000     234.5475   -6351.5824   -5748.2232   -6351.5824            0    2203.3855    23.481187    21.499574    21.877415    11044.496    2751.2305    1862.8579    1996.0683    498.61779  -0.49268034   -230.39076   -5393.3181 
 5458000    251.42579    -6367.411   -5720.6334    -6367.411            0    1291.6109    23.353646    21.615332    21.996745    11103.887    1074.0688    1668.1362    1132.6275   -462.15937    1719.2651   -661.96763   -5511.4715 
 5459000    235.47488   -6311.0679   -5705.3232   -6311.0679            0    1685.8397    23.628907    21.464546    21.898277     11106.45    911.55475    1849.8093     2296.155    309.94868    285.30495    800.62851   -5432.2573 
 5460000     245.3219   -6361.1694   -5730.0938   -6361.1694            0    1802.9815    23.317367     21.73309    21.876448    11086.074    2024.0506    1360.0386    2024.8554   -415.13998   -363.99608    988.33452   -5438.5895 
 5461000    236.99497   -6321.8133   -5712.1582   -6321.8133            0    2363.1257    23.554243    21.481605    21.927491    11094.937    1145.7275    2589.6378    3354.0117    224.72001    -400.6334    492.67739   -5329.7849 
 5462000    235.08469   -6353.1415   -5748.4005   -6353.1415            0    2486.7796    23.388907    21.632993    21.894157    11077.832    2920.2192    2018.4996    2521.6199   -515.96749    289.44316    338.45756   -5346.6393 
 5463000    231.21016    -6328.589    -5733.815    -6328.589            0    2952.4196    23.532041    21.540195    21.824252    11062.381    5382.0478    870.04372    2605.1674   -1050.5341   -2285.0025   -691.76302   -5257.4908 
 5464000    244.16326   -6347.4939   -5719.3988   -6347.4939            0    3165.1733    23.345498     21.67218    21.750928    11004.835    3772.2628    2218.4265    3504.8308    388.68781   -267.60143   -309.45524   -5211.4067 
 5465000     228.0983    -6349.747    -5762.978    -6349.747            0     3023.063    23.464019    21.436906    22.029034    11080.515    3145.9465    3426.7585    2496.4841     482.8102   -260.34566    288.22326   -5274.4572 
 5466000    238.67556   -6355.5249   -5741.5466   -6355.5249            0    1891.7304    23.359997     21.57575    21.960017    11068.056     2958.785     1403.228    1313.1783    346.57832   -170.02136   -333.48847   -5436.1906 
 5467000    243.57381   -6362.0799   -5735.5011   -6362.0799            0      2197.87    23.708398    21.565626    21.647236    11067.938    185.27977    3427.4314    2980.8988    686.51614    113.24215   -507.97576   -5380.7329 
 5468000    242.23407   -6325.5343   -5702.4019   -6325.5343            0    2667.1227    23.497647    21.748256    21.669723     11073.94     3802.073     1119.893    3079.4021   -446.34369   -1240.0736    -863.7366   -5271.6561 
 5469000    242.18395   -6357.0188   -5734.0153   -6357.0188            0    2558.6639    23.411602    21.540023    21.937461    11062.764    2137.9167     2879.238    2658.8371   -534.92105    85.937735   -635.84287   -5321.2028 
 5470000    231.89917   -6368.9397   -5772.3933   -6368.9397            0    1303.0249    23.432299    21.531045    21.953032    11075.785    1334.8466      627.561    1946.6671   -692.65529   -271.69812    254.82497    -5561.917 
 5471000    232.16197   -6335.6571   -5738.4346   -6335.6571            0    3057.1931    23.477202    21.607389    21.650981    10983.132    2643.5549    3076.7229    3451.3015   -712.42477   -178.46124    274.93586   -5248.7404 
 5472000    228.45765   -6334.6941   -5747.0007   -6334.6941            0    2647.7809    23.431433     21.62912    21.806282    11051.451    3963.2562    1689.2337    2290.8526    -729.0871    533.84615   -269.20965   -5320.2471 
 5473000    224.03154   -6324.5339   -5748.2264   -6324.5339            0    2542.7913    23.412427    21.489403    22.013846    11075.586    1628.1886    4078.2381    1921.9471    397.82293    1642.9577   -635.39612   -5337.4993 
 5474000    256.18372   -6352.8527   -5693.8357   -6352.8527            0    2898.5816    23.382588    21.508325    21.918145     11023.08    2744.5874    3443.8368    2507.3207    -565.6919    794.87658   -402.99899   -5227.8588 
 5475000    242.62747   -6360.7471   -5736.6027   -6360.7471            0    2055.6499    23.444658    21.635245     21.79709    11056.158    2341.2475    1144.4386    2681.2636   -566.40073    1015.0813    440.51781   -5405.1441 
 5476000    233.07653    -6329.638   -5730.0628    -6329.638            0    2165.9035    23.498074     21.51364    21.958841    11100.833    2366.6002    2225.2397    1905.8704    -173.9038   -461.13673   -440.10604   -5379.4154 
 5477000    253.63746   -6323.4535   -5670.9866   -6323.4535            0    2485.9609    23.356033    21.683449    21.883119    11082.472    2634.9734    1948.3908    2874.5184    280.71956    269.76807    853.20053   -5269.1895 
 5478000    250.54002   -6332.3828   -5687.8838   -6332.3828            0    1757.6581    23.552995    21.481729     21.91982    11090.531    694.87401    1775.4999    2802.6005    429.83227   -237.21797    1224.2628   -5403.5931 
 5479000    235.04895   -6314.0806   -5709.4315   -6314.0806            0    2195.5864    23.434145    21.633027    21.871984    11088.035    1963.1822    2049.3135    2574.2634    678.86612     926.3338    505.60605   -5354.3885 
 5480000    252.82471   -6338.9247   -5688.5486   -6338.9247            0    1412.2653    23.557877     21.61749    21.885896    11145.659     391.7946    1395.3064    2449.6948     715.4103    17.804087   -128.04401   -5458.9877 
 5481000    244.49507   -6331.8473   -5702.8987   -6331.8473            0    1563.3887    23.544346    21.657105    21.810111    11121.027    190.47291     1236.778    3262.9151    392.11709    770.10355   -254.74022   -5449.3346 
 5482000    239.57917   -6326.8562   -5710.5534   -6326.8562            0    1907.2879    23.454519     21.54126    21.932684    11081.267    2046.8295    2077.5088    1597.5252    617.37724   -464.17711    552.57402   -5402.3187 
 5483000    242.21994    -6363.098   -5740.0019    -6363.098            0    3379.8232     23.38381    21.483694    21.895226    10999.518    4212.1867    3990.7724    1936.5104    -468.1239   -1563.1619   -378.99474   -5197.8219 
 5484000    236.53264   -6336.1015   -5727.6357   -6336.1015            0    2473.7339    23.461526     21.63592    21.837374    11084.907    2131.3132    2363.8254    2926.0629    707.32068   -609.27589   -774.14259   -5327.7269 
 5485000    234.78657   -6334.1323   -5730.1581   -6334.1323            0    2518.0372    23.572838    21.499105     21.84216    11069.496    2281.3857    2144.6066    3128.1193    -390.1152   -1059.1784   -1196.4089   -5323.6531 
 5486000    236.94822   -6335.5771   -5726.0422   -6335.5771            0    2077.2464    23.315321    21.645317    21.907724    11056.117    2443.5337    1841.0366     1947.169    200.07238    1216.1499    652.62536   -5391.1026 
 5487000     241.9218   -6370.3348   -5748.0058   -6370.3348            0    1099.8143    23.670569    21.374847    21.958373    11109.944    392.56114    1777.6447    1129.2371   -301.77755    1034.4908     425.2408    -5569.806 
 5488000    254.11105   -6347.4788   -5693.7936   -6347.4788            0    1425.3054    23.389407    21.724204    21.896136    11125.783     1745.266    731.60918    1799.0409   -453.24124    625.63741   -501.46076   -5462.5262 
 5489000     229.9333   -6331.9261   -5740.4367   -6331.9261            0    1134.1826     23.51114    21.454664    22.050724    11122.905    1993.4879    782.26162    626.79824   -561.09828   -564.62708    1224.2706    -5556.454 
 5490000    251.95288   -6363.6497   -5715.5162   -6363.6497            0    2349.2774    23.302619    21.722877    21.841579    11056.206    3388.4072    1522.2678    2137.1574   -1106.0138   -1556.5902    255.09656   -5336.7107 
 5491000    240.10333   -6362.1734   -5744.5222   -6362.1734            0    2540.6661      23.5987    21.467038    21.835729    11061.853    2080.6195      2483.28    3058.0989   -223.32767    40.507163    865.11422   -5334.6473 
 5492000    242.68163   -6361.6921   -5737.4084   -6361.6921            0    1825.0356    23.368964    21.617336    21.965061    11096.194    2034.2067    1864.7227    1576.1773    385.56057    78.898582    439.31044   -5442.0691 
 5493000    241.49527   -6324.1796   -5702.9477   -6324.1796            0    1552.5429    23.508455    21.453166    22.061542    11126.314    1390.2052    2521.4809    745.94266    738.13213   -193.69528   -224.32697   -5451.0229 
 5494000    238.35564   -6345.6377   -5732.4824   -6345.6377            0    1295.6787    23.366747    21.710643    22.035824     11178.93    1125.9385    1389.7746    1371.3229    791.46344    187.82709   -1057.4413   -5521.2437 
 5495000    243.71001   -6299.7878   -5672.8586   -6299.7878            0    2681.2077    23.456359    21.540534     21.95669    11093.892    2633.9533    2633.2004    2776.4694   -329.98304   -714.01126    139.58446   -5239.0579 
 5496000    239.09255   -6354.2116   -5739.1606   -6354.2116            0     1318.459    23.713245    21.525144    21.837395    11146.483   -563.07622    2862.3589    1656.0942   -297.04263    388.76617   -797.19783   -5524.8318 
 5497000     237.7341   -6339.8617   -5728.3053   -6339.8617            0    1395.7124    23.325174    21.847192    21.823937     11121.25    2557.4959    232.56578    1397.0755   -249.22489    -610.5761   -300.01044   -5501.9318 
 5498000     236.0745   -6324.1058   -5716.8185   -6324.1058            0    1922.8035    23.541492    21.388701    22.095251    11125.444    1128.1798    4228.3912    411.83944   -224.37901    290.56475   -538.28218   -5404.8376 
 5499000    235.85657   -6352.0292   -5745.3025   -6352.0292            0    2001.4707    23.351254    21.712341    21.828443    11067.248    1951.5079    1618.7544    2434.1497   -294.61019    476.86761   -279.77194   -5422.2563 
 5500000    250.03404   -6316.2389   -5673.0416   -6316.2389            0    2374.3322    23.631406    21.511866    21.843247    11104.138    1363.2656    2514.7687    3244.9624   -379.72857    363.27878    221.84773   -5288.5364 
Loop time of 667.495 on 64 procs for 250000 steps with 1296 atoms

Performance: 64.720 ns/day, 0.371 hours/ns, 374.535 timesteps/s
99.3% CPU use with 64 MPI tasks x 1 OpenMP threads

MPI task timing breakdown:
Section |  min time  |  avg time  |  max time  |%varavg| %total
---------------------------------------------------------------
Pair    | 28.801     | 37.805     | 46.76      |  94.4 |  5.66
Bond    | 0.26629    | 0.27571    | 0.28613    |   0.8 |  0.04
Kspace  | 350.51     | 369.97     | 386.09     |  42.1 | 55.43
Neigh   | 3.9175     | 4.8167     | 5.5562     |  17.9 |  0.72
Comm    | 106.48     | 116.99     | 132.77     |  55.0 | 17.53
Output  | 1.002      | 1.009      | 1.0166     |   0.6 |  0.15
Modify  | 122.95     | 127.19     | 132.25     |  25.1 | 19.05
Other   |            | 9.443      |            |       |  1.41

Nlocal:        20.2500 ave          27 max          13 min
Histogram: 3 3 10 5 5 14 6 10 3 5
Nghost:        2521.47 ave        2550 max        2471 min
Histogram: 1 2 3 4 8 6 11 11 13 5
Neighs:        6281.34 ave        8474 max        3974 min
Histogram: 3 4 8 6 8 11 8 8 3 5

Total # of neighbors = 402006
Ave neighs/atom = 310.18981
Ave special neighs/atom = 2.0000000
Neighbor list builds = 8830
Dangerous builds = 0

unfix		3
unfix		2
unfix		1

write_data	data.final.${pid}
write_data	data.final.0
System init for write_data ...
PPPM initialization ...
  extracting TIP4P info from pair style
  using 12-bit tables for long-range coulomb (../kspace.cpp:340)
  G vector (1/distance) = 0.36690574
  grid = 30 40 32
  stencil order = 5
  estimated absolute RMS force accuracy = 0.0045686932
  estimated relative force accuracy = 1.3758484e-05
  using double precision FFTW3
  3d grid and FFT values/proc = 5168 640
Last active /omp style is kspace_style pppm/tip4p/omp
WARNING: Not all mixed pair coeffs generated from mixing. Use write_data with 'pair ij' option to store all pair coeffs. (../write_data.cpp:312)

write_restart   restart.lmp.${pid}
write_restart   restart.lmp.0
System init for write_restart ...
PPPM initialization ...
  extracting TIP4P info from pair style
  using 12-bit tables for long-range coulomb (../kspace.cpp:340)
  G vector (1/distance) = 0.36690574
  grid = 30 40 32
  stencil order = 5
  estimated absolute RMS force accuracy = 0.0045686932
  estimated relative force accuracy = 1.3758484e-05
  using double precision FFTW3
  3d grid and FFT values/proc = 5168 640
Last active /omp style is kspace_style pppm/tip4p/omp
Total wall time: 0:11:10
