LAMMPS (30 Jul 2021)
Processor partition = 0
  using 4 OpenMP thread(s) per MPI task
using multi-threaded neighbor list subroutines
variable        pid world 0 1
variable        phase world IceVI IceV

shell cd ${phase}
shell cd IceVI
include Restart.lmp
echo both
log log.lammps
#include		in.partitions
include		in.temp
variable        temperature equal 93.27
variable	tempDamp equal 100.0
include		in.pressure
variable        pressure equal 8281.8
variable        pressureDamp equal 1000.0 # This is 1 ps
include		in.seed
variable        seed equal 745823

units		real
atom_style	full
read_restart	restart.lmp.${pid}
read_restart	restart.lmp.0
Reading restart file ...
  restart file = 30 Jul 2021, LAMMPS = 30 Jul 2021
  restoring atom style full from restart
  orthogonal box = (0.030516242 0.032319332 0.0040602711) to (24.699485 24.697682 22.805940)
  4 by 2 by 2 MPI processor grid
  restoring pair style lj/cut/tip4p/long/omp from restart
  restoring bond style harmonic/omp from restart
  restoring angle style harmonic/omp from restart
  1920 atoms
  1280 bonds
  640 angles
Finding 1-2 1-3 1-4 neighbors ...
  special bond factors lj:    0        0        0       
  special bond factors coul:  0        0        0       
     2 = max # of 1-2 neighbors
     1 = max # of 1-3 neighbors
     1 = max # of 1-4 neighbors
     2 = max # of special neighbors
  special bonds CPU = 0.001 seconds
  read_restart CPU = 0.006 seconds
include 	in.setup
variable	out_freq equal 1000
variable	out_freq2 equal 10000
variable	out_freq3 equal 1000

timestep	2.0

neigh_modify    delay 7 every 1

include		in.tip4p
# This is TIP4P/Ice

# create groups ###
group ox type 2
640 atoms in group ox
group hy type 1
1280 atoms in group hy

# set charges - beside manually ###
set group ox charge -1.1794
Setting atom values ...
  640 settings made for charge
set group hy charge 0.5897
Setting atom values ...
  1280 settings made for charge

# ### TIP3P Potential Parameters ###
pair_style lj/cut/tip4p/long/omp 2 1 1 1 0.1577 8.5
pair_coeff 1 1*2 0.000 0.000
pair_coeff 2 2 0.21084 3.1668
bond_style  harmonic
bond_coeff  1 450 0.9572
angle_style harmonic
angle_coeff 1 55 104.52
kspace_style pppm/tip4p/omp 1.0e-5
pair_modify tail yes

thermo          ${out_freq}
thermo          1000
thermo_style    custom step temp pe etotal epair emol press lx ly lz vol pxx pyy pzz pxy pxz pyz enthalpy

restart 	${out_freq3} restart.lmp.${pid} restart2.lmp.${pid}
restart 	1000 restart.lmp.${pid} restart2.lmp.${pid}
restart 	1000 restart.lmp.0 restart2.lmp.${pid}
restart 	1000 restart.lmp.0 restart2.lmp.0


include         in.dump
dump            myDump all atom ${out_freq2} dump.water.${pid}
dump            myDump all atom 10000 dump.water.${pid}
dump            myDump all atom 10000 dump.water.0
dump            myDump2 all dcd ${out_freq2} dump.dcd
dump            myDump2 all dcd 10000 dump.dcd
dump_modify     myDump append yes
dump_modify     myDump2 append yes


variable natoms 	equal  "count(all)"                        # NUMBER ATOMS
variable H      	equal  "enthalpy/v_natoms"                 # ENTHALPY-per-atom
variable Vol      	equal  "vol/v_natoms"                 # volume-per-atom
fix AVG all 		ave/time ${out_freq} 1 ${out_freq} v_Vol v_H file vol_enthalpy.dat
fix AVG all 		ave/time 1000 1 ${out_freq} v_Vol v_H file vol_enthalpy.dat
fix AVG all 		ave/time 1000 1 1000 v_Vol v_H file vol_enthalpy.dat




fix 		1 all shake 1e-6 200 0 b 1 a 1
Finding SHAKE clusters ...
       0 = # of size 2 clusters
       0 = # of size 3 clusters
       0 = # of size 4 clusters
     640 = # of frozen angles
  find clusters CPU = 0.000 seconds
fix             2 all nph aniso ${pressure} ${pressure} ${pressureDamp}
fix             2 all nph aniso 8281.8 ${pressure} ${pressureDamp}
fix             2 all nph aniso 8281.8 8281.8 ${pressureDamp}
fix             2 all nph aniso 8281.8 8281.8 1000
fix             3 all temp/csvr ${temperature} ${temperature} ${tempDamp} ${seed}
fix             3 all temp/csvr 93.27 ${temperature} ${tempDamp} ${seed}
fix             3 all temp/csvr 93.27 93.27 ${tempDamp} ${seed}
fix             3 all temp/csvr 93.27 93.27 100 ${seed}
fix             3 all temp/csvr 93.27 93.27 100 745823


run             250000
PPPM initialization ...
  extracting TIP4P info from pair style
  using 12-bit tables for long-range coulomb (../kspace.cpp:340)
  G vector (1/distance) = 0.37528311
  grid = 30 30 30
  stencil order = 5
  estimated absolute RMS force accuracy = 0.003173543
  estimated relative force accuracy = 9.5570306e-06
  using double precision FFTW3
  3d grid and FFT values/proc = 7920 1800
Last active /omp style is kspace_style pppm/tip4p/omp
Neighbor list info ...
  update every 1 steps, delay 7 steps, check yes
  max neighbors/atom: 2000, page size: 100000
  master list distance cutoff = 10.8154
  ghost atom cutoff = 10.8154
  binsize = 5.4077, bins = 5 5 5
  1 neighbor lists, perpetual/occasional/extra = 1 0 0
  (1) pair lj/cut/tip4p/long/omp, perpetual
      attributes: half, newton on, omp
      pair build: half/bin/newton/omp
      stencil: half/bin/3d
      bin: standard
Setting up Verlet run ...
  Unit style    : real
  Current step  : 34000000
  Time step     : 2
Per MPI rank memory allocation (min/avg/max) = 12.57 | 12.57 | 12.57 Mbytes
Step Temp PotEng TotEng E_pair E_mol Press Lx Ly Lz Volume Pxx Pyy Pzz Pxy Pxz Pyz Enthalpy 
34000000    97.309738   -9791.7617   -9420.7726   -9791.7617            0    8674.1853    24.668969    24.665362    22.801879    13874.238    8408.5673    9054.9476    8559.0411   -642.76131   -672.49716   -67.802671   -7665.6247 
34001000    96.058378   -9819.6297   -9453.4114   -9819.6297            0    7784.2897    24.642884    24.760759    22.786046     13903.51    8772.5946     7006.207    7574.0674   -309.45345   -487.01244   -705.77901   -7875.0032 
34002000    95.770743   -9817.1588   -9452.0371   -9817.1588            0    7685.9363    24.721462      24.7278    22.751904    13908.407    8043.3059    7351.0993    7663.4036    55.411537    215.20307   -26.507443   -7893.0229 
34003000    93.696151   -9810.2349   -9453.0224   -9810.2349            0    7593.0229    24.713623    24.747221       22.752    13914.975    7794.9572      7523.43    7460.6815   -353.87951    122.43168    497.86582   -7912.1274 
34004000    91.435411   -9802.9736   -9454.3801   -9802.9736            0    9430.7995    24.603186    24.779818    22.676482        13825    9831.2173    8746.9767    9714.2045   -96.102636    621.43531   -51.304519   -7552.9098 
34005000    91.445999    -9791.794   -9443.1602    -9791.794            0    8422.6497    24.757154    24.687248    22.714456    13882.757    7880.4777    8537.2603    8850.2111   -245.69858   -518.79414    773.07562   -7737.8619 
34006000    94.108507   -9793.1727   -9434.3882   -9793.1727            0    7952.4558    24.640208    24.794726    22.746352     13896.82    8208.4728    7638.2514    8010.6434   -269.33377   -233.01945   -404.12554   -7822.6571 
34007000     91.44421   -9806.2819   -9457.6549   -9806.2819            0    7726.4097    24.864322    24.636387    22.709526    13911.107    6135.2682    9280.7739    7763.1871    -258.1824     117.8028    131.60351   -7890.1268 
34008000    93.465784   -9813.3212    -9456.987   -9813.3212            0     8238.358    24.680875    24.768729    22.721123    13889.739     8717.006     7163.711     8834.357   -79.425618    99.650873   -443.56258   -7788.1627 
34009000    96.169981   -9801.1022   -9434.4584   -9801.1022            0    7964.2712    24.621594    24.791617    22.762715    13894.569     7843.377    8148.8237    7900.6128    -108.5272   -232.53769    10.121799   -7820.5941 
34010000    94.618591   -9802.7995   -9442.0703   -9802.7995            0     8724.428    24.725612     24.63828    22.770203    13871.529    8426.4623    9111.6438     8635.178   -466.65425   -38.426169    735.58061   -7677.1009 
34011000     90.22612   -9795.4892   -9451.5061   -9795.4892            0    8539.0335      24.6577    24.675035     22.81084     13878.79    9002.1389    8530.4256     8084.536    326.40281   -783.88229   -287.90842   -7723.1381 
34012000    93.713167   -9786.7721   -9429.4948   -9786.7721            0    9036.9228    24.604968    24.724057    22.788184    13862.841    9496.5115    8888.7811    8725.4759   -266.22001    399.78325    408.61317    -7602.452 
34013000    94.909175   -9799.3596   -9437.5225   -9799.3596            0    8297.5805    24.684622     24.64989    22.828109    13890.293    7968.0726    8803.9931    8120.6757    89.811682   -196.16182    1190.8158   -7756.6345 
34014000    90.160032   -9806.0382   -9462.3071   -9806.0382            0    8800.1533     24.56511    24.703654    22.835781    13857.848    9370.4875    9246.9716    7783.0007     45.49966   -228.06695    184.46301   -7683.7741 
34015000    91.114304   -9791.5261   -9444.1569   -9791.5261            0     9230.282    24.720576    24.656279    22.718939    13847.589    7959.2671    9590.8069    10140.772   -135.21572    -1268.516    237.82709   -7580.0748 
34016000    92.535172   -9796.8529   -9444.0666   -9796.8529            0    8020.7061    24.581587     24.81015    22.785288    13896.129    8816.2915    7667.5666    7578.2602    352.22963   -536.92478    3.4532976    -7818.584 
34017000    93.788228   -9800.8581   -9443.2946   -9800.8581            0    8865.3909    24.657229    24.712874    22.747736    13861.355    8939.9368     8900.981     8755.255   -65.098213   -133.68392   -166.52087   -7651.1235 
34018000    92.901361   -9812.1627   -9457.9803   -9812.1627            0    9036.9374    24.700611    24.677741    22.693243    13832.786    9565.7087    8970.7602    8574.3434   -510.50458   -455.48251   -182.55742   -7634.8957 
34019000    91.614576   -9803.3673   -9454.0907   -9803.3673            0     8377.652    24.684204    24.731253    22.729604    13875.771    7827.8923     8490.746    8814.3175   -417.50078   -463.70899    53.921628   -7758.7566 
34020000    96.162845   -9822.3566   -9455.7399   -9822.3566            0     8512.311    24.708988     24.69089    22.726584    13865.191    8249.8567    8380.9022     8906.174    276.62321   -300.40516   -191.50136   -7734.4691 
34021000    92.954365   -9808.2885   -9453.9041   -9808.2885            0     8476.738     24.68148    24.701978    22.758921     13875.69    8996.1649    8349.1062     8084.943    104.55886   -203.63433    284.66692   -7738.5284 
34022000    92.589956   -9791.1769   -9438.1818   -9791.1769            0    8428.5325    24.611574     24.75857    22.807837    13897.896    9556.0844    7465.4359    8264.0774   -268.52427   -446.54492    433.42957   -7729.8316 
34023000    93.302759   -9817.6337    -9461.921   -9817.6337            0    8051.5433     24.63775    24.713405    22.805061    13885.606    8292.8005    7894.5271    7967.3025    -145.1996    510.10036    784.09836   -7831.4245 
34024000     95.72496   -9787.8949   -9422.9477   -9787.8949            0    8691.4671    24.620892    24.654657    22.848522    13869.502    9331.2911    9238.0854    7505.0248    389.32274   -38.402632   -391.42229   -7664.9033 
34025000    93.216188   -9805.4915   -9450.1088   -9805.4915            0    7787.7907    24.693881    24.714742    22.793474    13910.923    7761.6012    7595.5035    8006.2673    222.17856   -585.62139    153.53207   -7870.1488 
34026000    95.279848    -9801.973   -9438.7228    -9801.973            0    8317.9289    24.666438    24.655433    22.831027    13884.956    8629.6791    8772.3195     7551.788   -567.09453   -370.74186    280.22142   -7754.3601 
34027000    92.150503   -9801.3318    -9450.012   -9801.3318            0    7650.9995    24.662225    24.747565    22.807577    13920.149    8430.4387    7284.8383    7237.7214    -148.3027   -499.19418    509.50569   -7896.7743 
34028000      94.7662   -9817.0922   -9455.8002   -9817.0922            0    8108.5317    24.693412    24.631534    22.838172    13891.013    8103.4558    8865.8227    7356.3168   -349.06143   -490.18706   -804.01764   -7813.1238 
34029000    91.131541   -9807.4499   -9460.0149   -9807.4499            0    8139.2582    24.686276    24.695037    22.783814    13889.662    8158.2247     8610.173    7649.3769   -189.61011   -1019.9624   -168.29353    -7811.274 
34030000    94.231274   -9802.2878   -9443.0352   -9802.2878            0    7415.2631    24.686676    24.801829     22.74098    13923.727    7364.3094    7079.5844    7801.8956    126.45118    -770.4191   -189.12827   -7937.2675 
34031000    93.479802   -9788.2986   -9431.9109   -9788.2986            0     8315.863    24.781795    24.707677    22.683987    13889.418     7942.746    8583.5154    8421.3276    120.31589   -1044.9177   -58.075724   -7747.4255 
34032000    97.225106   -9806.2032   -9435.5368   -9806.2032            0    8377.5759    24.663727    24.779797    22.709334    13879.085    9126.0199    7129.2812    8877.4267    96.395118   -392.46395    531.95715    -7739.813 
34033000    96.906937   -9808.5016   -9439.0482   -9808.5016            0    8402.6192    24.679581    24.788193    22.695544    13884.277    7710.7134      8900.94    8596.2044    21.134249   -513.01907    63.141979   -7737.6191 
34034000    92.378618    -9814.675   -9462.4855    -9814.675            0    8422.9362    24.741202    24.659725    22.740693    13874.353    7727.8652    8373.4444    9167.4992    55.429739     36.54822   -853.86646   -7758.1616 
34035000    93.833479   -9824.8635   -9467.1275   -9824.8635            0    8259.8795    24.670722    24.731533    22.733134    13870.503    8175.6301    7948.3581    8655.6502    419.92754   -116.18518   -49.018044   -7796.2607 
34036000    94.882973   -9808.1673   -9446.4301   -9808.1673            0    8901.1196    24.677848     24.68874    22.750191    13860.894    8652.8536    8512.5394    9537.9659    159.12919    274.55465   -419.38541   -7647.0961 
34037000    93.410944   -9802.4304   -9446.3053   -9802.4304            0    8939.5833    24.695629    24.722602    22.690519    13853.474    8522.3872    9272.5245    9023.8382   -45.145311   -613.61794    273.24753   -7640.1634 
34038000    95.788525    -9802.551   -9437.3615    -9802.551            0    8703.7556    24.627171    24.763886    22.732588    13863.797    9280.9438    8332.4473    8497.8757   -289.34862   -199.60962    42.267979   -7677.5555 
34039000    92.951312   -9810.5699   -9456.1971   -9810.5699            0    8655.6551    24.722982    24.660926    22.736332    13862.151    8717.1862    8380.2561    8869.5228    28.641876    416.68897   -94.460553   -7706.3244 
34040000    92.512977   -9808.4841   -9455.7824   -9808.4841            0    8652.7549      24.6809    24.699779    22.757023    13872.972    8069.9528    8909.9224    8978.3895   -403.35843    57.166339    113.27236   -7705.1305 
34041000    91.307831   -9815.0565   -9466.9494   -9815.0565            0    8079.9107    24.619603    24.710688    22.818982    13882.323    8634.8632    8154.3297    7450.5391   -1095.5219   -51.107183    20.239722   -7831.0952 
34042000    95.128266   -9816.3399   -9453.6675   -9816.3399            0    8038.0739    24.724409    24.640403    22.789964    13884.088    7996.1073    8978.9381    7139.1763   -240.21525     -536.065   -461.62294   -7826.0766 
34043000    92.146468   -9790.8615   -9439.5572   -9790.8615            0    8557.9828    24.608897    24.769431    22.772604    13881.004    9141.8205    8226.8086    8305.3194   -241.01766    415.97106    437.61322   -7707.0774 
34044000    92.390033    -9801.594   -9449.3611    -9801.594            0    7878.5352    24.729249     24.69822    22.763103    13902.984    8602.6837    7508.7817    7524.1401    145.62114   -607.42707   -52.146715   -7851.9033 
34045000    90.781582   -9818.6568    -9472.556   -9818.6568            0    7936.7746    24.703446    24.722749    22.757013    13898.552    7552.8388    8619.6395    7637.8455     12.30164    665.62464    585.00978   -7863.8026 
34046000    95.015711   -9794.5442    -9432.301   -9794.5442            0     7800.042    24.685477    24.781655    22.751609    13918.228    7507.6134    7566.3075    8326.2049   -37.288655   -36.346148    629.39448   -7849.0244 
34047000    94.430632   -9819.5316    -9459.519   -9819.5316            0    7370.2426    24.660228    24.838089    22.726131    13920.049    7675.2182     6491.601    7943.9084    200.15337    -430.9204   -146.81711   -7963.2888 
34048000      93.7294   -9816.7383   -9459.3991   -9816.7383            0    7398.4875    24.731171    24.740435    22.751261    13920.585    6940.1733    7430.9052    7824.3839      91.1777   -109.76725    223.75788    -7957.377 
34049000    92.969228   -9792.0406   -9437.5995   -9792.0406            0     8398.286    24.645832    24.754316    22.751376    13880.403    8567.4213    7518.8447    9108.5921    415.61349   -351.93665    360.35634   -7737.5224 
34050000    96.602615    -9803.445   -9435.1518    -9803.445            0    8931.9335    24.653135    24.684603    22.792599    13870.502    9063.5612    9037.9303     8694.309    3.4049493   -672.15601    26.810664   -7628.3374 
34051000    92.663406   -9802.5098   -9449.2346   -9802.5098            0    8160.7717    24.701574    24.680377    22.793851    13896.138    7722.2055    8577.6879    8182.4218   -153.49177   -1010.3184    165.31548   -7795.3651 
34052000    94.691015   -9809.3877   -9448.3824   -9809.3877            0    8575.6261    24.680333    24.675234     22.78024    13873.006    8784.4194    8644.6019     8297.857   -478.05143   -368.53963   -186.00219   -7713.3311 
34053000    91.657119   -9801.9513   -9452.5126   -9801.9513            0    8401.5442    24.634694    24.675447     22.84864     13889.05    8607.7287    8725.7548     7871.149    98.365635   -1576.8529    705.14684   -7750.7163 
34054000    93.296281    -9800.882    -9445.194    -9800.882            0    7981.1134    24.629718    24.694387    22.847912    13896.461    8548.6589    8580.0023     6814.679   -59.721298   -36.958132   -422.72903   -7827.6967 
34055000    96.329331    -9806.905   -9439.6536    -9806.905            0    8482.3107    24.656091    24.677317    22.811538    13879.593    8351.9024    9096.6881    7998.3416   -33.436091   -494.61081    596.74317   -7722.6674 
34056000    94.185005   -9795.9367   -9436.8605   -9795.9367            0    8472.8551     24.67592     24.67856    22.817837     13895.29    8759.0993    8858.7188    7800.7473    180.80765   -340.28819   -389.33498   -7719.8486 
34057000    94.192069   -9807.9564   -9448.8532   -9807.9564            0    8362.8914    24.658794    24.726477    22.779277    13889.097    8799.2197    7806.8733    8482.5812    63.240266   -829.15197    594.81212   -7754.8807 
34058000    94.774137    -9816.784   -9455.4618    -9816.784            0    8036.5476    24.646656    24.768169    22.733876    13877.953    8611.9944    7270.3604     8227.288    430.96422     122.6962   -48.359493    -7828.899 
34059000     92.30412   -9804.6877   -9452.7823   -9804.6877            0    7679.6344    24.752627    24.659294     22.79879    13915.978    7288.6742     8364.777    7385.4522    5.0670714   -323.16461   -137.96471   -7894.1984 
34060000    93.449042   -9827.9473   -9471.6769   -9827.9473            0    7536.4837    24.676195    24.719154    22.782967    13897.032    7477.3116    7709.9354    7422.2041    390.87524   -32.417747    718.26147   -7944.2279 
34061000    89.349308   -9804.0835   -9463.4432   -9804.0835            0    7410.6206    24.710669    24.757454    22.740193    13911.842    7118.8143     7813.738    7299.3097    361.79007     281.4588    610.29732   -7959.9028 
34062000    94.570764   -9813.8452   -9453.2983   -9813.8452            0    7644.7517    24.755341    24.739811    22.701069    13903.099     6697.788    8083.6439    8152.8232    131.94392   -334.19382   -250.76212   -7903.2299 
34063000    96.299933   -9801.0563    -9433.917   -9801.0563            0    8226.9228    24.649752    24.866033    22.652455    13884.631    8741.6182    6839.8216    9099.3287   -279.95923   -227.10236    913.72653   -7768.0219 
34064000    94.015717   -9807.0896   -9448.6588   -9807.0896            0    8065.4847    24.764294    24.700474    22.710266    13891.638    6786.4552    8625.5517    8784.4472    28.350398   -195.21862    578.23829   -7814.6296 
34065000    90.916314    -9813.938   -9467.3235    -9813.938            0    8734.4449    24.643902    24.770474    22.711909    13864.284    9383.3633    8139.1573     8680.814   -100.09697   -100.50476   -166.00149   -7701.2506 
34066000    97.459814   -9795.4683   -9423.9071   -9795.4683            0     8385.155    24.699571    24.708662    22.751232    13884.925     8405.612     8469.458    8280.3952    -570.8174   -113.79203    365.58314    -7725.935 
34067000    91.649708    -9815.956   -9466.5455    -9815.956            0    7846.9201    24.687427    24.674837    22.802657    13890.426    7697.9976    8009.0926      7833.67   -107.08674   -638.50177   -842.19826   -7876.9351 
34068000    91.343116   -9815.4739   -9467.2323   -9815.4739            0    7595.9937    24.669709     24.76489    22.779487     13916.96    7925.9156    7286.4317    7575.6337   -159.41919   -216.16553   -494.86589   -7925.5146 
34069000    88.872085   -9807.0355   -9468.2145   -9807.0355            0    7441.4234    24.744915    24.648543    22.831418    13925.478    6961.5482    8277.9957    7084.7264   -131.82783    221.34914    495.72855   -7956.9447 
34070000    89.664723   -9804.2377   -9462.3949   -9804.2377            0    7588.1672    24.669014     24.73703    22.799721    13913.259    8290.5244    7054.7525    7419.2247   -351.43802    144.44482   -175.64118   -7922.6752 
34071000    92.751996   -9805.2474   -9451.6345   -9805.2474            0    7622.3334    24.716817    24.778753    22.715535    13912.172    7820.7159    7225.8912    7820.3931   -71.823604   -482.14112    217.45472    -7905.103 
34072000    96.338158   -9808.7908   -9441.5058   -9808.7908            0    7827.0021     24.73767    24.761231    22.707397    13909.079    7936.8255     8023.349    7520.8319    249.85007   -478.01697   -172.19581   -7853.8012 
34073000     88.97005   -9811.1326   -9471.9382   -9811.1326            0    9037.2492    24.613213     24.73874    22.745728    13849.872    9712.1528    8402.2869    8997.3079    137.11909   -500.34843    207.00267   -7646.5389 
34074000    94.475833   -9800.2079   -9440.0229   -9800.2079            0    8054.3672    24.713164    24.711765    22.760934    13900.237    7887.1419    8294.1245    7981.8351   -503.11776    59.630387   -347.70999    -7807.236 
34075000    95.593255   -9804.3622   -9439.9171   -9804.3622            0    7444.6351    24.656402    24.732439    22.843511    13930.269     7180.795    7891.7157    7261.3948    61.615493   -752.62391   -323.19975   -7927.4748 
34076000    92.813942    -9802.225    -9448.376    -9802.225            0    8482.8795    24.657427    24.688516    22.799635    13879.398    8833.1503    8441.8665    8173.6216   -22.399288   -178.50223    185.63119   -7731.2988 
34077000    91.419879   -9814.0941   -9465.5598   -9814.0941            0    8051.5925    24.678452    24.686561    22.814543    13899.215     8764.774    7921.2254    7468.7781   -107.40576   -402.00593    480.28566   -7833.4554 
34078000    95.197502   -9801.4351   -9438.4988   -9801.4351            0    7764.2443    24.690486    24.737191     22.77649    13911.272    8062.0621    7774.4784    7456.1923   -181.85396   -766.13261   -220.77102   -7863.2763 
34079000    92.038124   -9805.7482   -9454.8568   -9805.7482            0    7912.1282    24.653648    24.768752    22.749937    13892.024    8218.4033    8007.1842    7510.7972   -320.31446    716.88013   -429.00341   -7851.8524 
34080000    92.794776   -9807.4097   -9453.6337   -9807.4097            0    7393.1143    24.770585    24.747865    22.707168    13919.927    6783.9999     7704.813    7690.5299   -288.10475    145.31509    125.78212   -7952.7733 
34081000    93.774941   -9792.1559    -9434.643   -9792.1559            0    8951.5524    24.694258     24.72022    22.703696    13859.414    8286.4183    9400.5021    9167.7367   -468.16781    32.501332    644.92029   -7625.3074 
34082000    93.368276    -9811.118   -9455.1555    -9811.118            0     8158.736    24.656195    24.747604    22.762371    13889.183    8655.1072    8268.0437    7553.0572   -490.89634   -144.05939    262.96088   -7802.5261 
34083000     93.64134   -9825.5576   -9468.5541   -9825.5576            0    8072.1104    24.803295     24.57947    22.767325    13880.142    7271.2309    8871.7299    8073.3705   -67.565526     1331.473    283.69664    -7834.536 
34084000    93.658846   -9785.1246   -9428.0543   -9785.1246            0    9027.4049    24.638701    24.715202    22.745489    13850.876    9464.3582    9088.7016    8529.1549   -79.198014   -15.688934   -517.26341   -7604.5111 
34085000    90.807631   -9798.2113   -9452.0112   -9798.2113            0     8503.232     24.62046     24.67406    22.866502    13891.096    9389.4435    8556.5402    7563.7122   -66.286035   -376.83449   -252.88294   -7729.3637 
34086000     93.22397   -9801.1883    -9445.776   -9801.1883            0    8296.5389    24.718687    24.676814     22.76749    13887.678    8021.2765    8648.9566    8219.3836   -382.90852   -1068.3742    405.03411   -7765.4155 
34087000    93.882913   -9808.0504   -9450.1259   -9808.0504            0    8537.7861    24.649287    24.726889    22.764554    13874.999    8330.8726    9162.9319    8119.5538   -19.923604   -266.61517   -57.373041   -7722.4824 
34088000    98.072561   -9807.0825   -9433.1852   -9807.0825            0    8404.1033    24.667195    24.744316    22.726201    13871.456    8683.9911    7846.0542    8682.2647   -121.10331   -38.663554    220.62259    -7733.027 
34089000    88.115445   -9804.5396   -9468.6033   -9804.5396            0    8075.4976    24.688873    24.758588    22.704074     13878.13    7901.9479    8069.2791    8255.2657    -3.879971    603.65667    569.04941   -7834.1365 
34090000    96.154735   -9810.5176   -9443.9319   -9810.5176            0    7646.5869    24.745283    24.680859    22.788187     13917.54    7413.4079    8336.3357    7190.0169  -0.83908327   -245.65614   -643.81641   -7891.8808 
34091000    91.377486   -9810.7835   -9462.4108   -9810.7835            0    8362.8366     24.64546    24.734549    22.772245    13881.832    8347.9496    8037.6619    8702.8984   -228.97265   -405.77869    118.88236   -7769.3355 
34092000    92.951027   -9801.8145   -9447.4428   -9801.8145            0    7873.8374    24.793066    24.660371     22.73247    13898.773    7083.9194    8164.3013    8373.2914   -242.46276   -541.78675    160.25038   -7851.4211 
34093000    94.347482   -9806.4989   -9446.8033   -9806.4989            0    8221.6872    24.653959    24.769728    22.733968    13882.994    8421.2598    8112.5211    8131.2806   -74.321474   -147.97716    110.52904   -7782.1646 
34094000    91.654014   -9799.1451   -9449.7182   -9799.1451            0    8727.6958    24.704836    24.703477    22.737044    13876.313     8579.554    8869.7001    8733.8331   -277.12208    20.629229    13.532289   -7683.4789 
34095000    89.815932   -9812.4145   -9469.9953   -9812.4145            0     8042.247    24.713515    24.714101    22.720724    13877.189    8103.5159    8264.3314    7758.8937   -544.91331    9.4973778    397.44384   -7842.3685 
34096000     94.93357   -9808.0274   -9446.0973   -9808.0274            0    8599.0952    24.706365    24.759627    22.669154    13867.184    7676.8343    8782.2439    9338.2073    -575.6526   -177.45732   -426.88105   -7707.0279 
34097000    94.647656   -9804.3008   -9443.4608   -9804.3008            0    7748.0004    24.728326    24.770004    22.706884    13908.438    7090.3608    7559.9129    8593.7275    -206.5346   -835.36522    -427.3436    -7871.854 
34098000      90.7667   -9817.0645   -9471.0205   -9817.0645            0    8225.6801    24.690195    24.708026    22.755705    13882.026    7963.5621    8606.9552    8106.5231    1.2778614    -531.3948   -301.86875   -7805.6895 
34099000    94.890684   -9803.0252   -9441.2587   -9803.0252            0    8805.1382    24.720892    24.675066    22.751819    13878.374     8661.497    9073.5092    8680.4085    75.354196   -275.78928    133.04437   -7659.0824 
34100000    91.307736   -9813.5151   -9465.4084   -9813.5151            0    7565.2703    24.663211    24.795253    22.747621    13910.866    7917.1757    7101.4992     7677.136   -574.46543   -367.98569    129.42406   -7930.5988 
34101000    93.394485   -9812.6498   -9456.5875   -9812.6498            0    8331.5045    24.664664     24.72579    22.760694    13880.684    8553.5796    8039.5375    8401.3964   -687.88313   -173.59382    447.99609   -7769.9948 
34102000    98.121385   -9812.1208   -9438.0374   -9812.1208            0    8135.0229    24.758744    24.664979    22.733859    13882.975     6934.694    8788.9667    8681.4079   -102.12536    239.37705   -674.03612   -7790.9479 
34103000    95.334674    -9812.187   -9448.7277    -9812.187            0    7816.1519    24.650574    24.747084    22.789719    13902.408    8635.7598    7298.3965    7514.2993    123.64009   -92.879488   -13.313161   -7863.9845 
34104000    93.006502   -9807.1965   -9452.6133   -9807.1965            0    8129.5908    24.753483    24.661045    22.764578    13896.563    7737.0091    8683.2747    7968.4887    55.823023   -277.86485     445.7653   -7805.0126 
34105000    92.663559   -9802.0784   -9448.8027   -9802.0784            0    7839.2105     24.65996    24.713392    22.815514    13904.487     7275.833    8422.0198    7819.7788   -241.39464   -775.98153    338.22362   -7859.1465 
34106000    91.692269   -9809.2157   -9459.6429   -9809.2157            0    8177.5823    24.620224    24.690116    22.851537    13890.905    9163.1422    7886.0998    7483.5051   -253.79596   -575.54529   -341.88537   -7802.9906 
34107000    93.111907   -9804.6056   -9449.6206   -9804.6056            0    8190.6235    24.714602    24.658535    22.796197    13892.592    7638.5052    9096.0432    7837.3221    16.134783   -961.92962    653.27161   -7790.1248 
34108000    92.149191   -9807.7755   -9456.4607   -9807.7755            0    7592.8434    24.681876     24.70378    22.819215    13913.689     8582.058    7527.0236    6669.4485   -118.79675   -909.35664   -325.22476   -7915.7447 
34109000     90.56331   -9803.8251   -9458.5565   -9803.8251            0    7751.5839    24.654673    24.758489    22.801737    13918.464     8291.317    7529.8539    7433.5808   -184.91992   -317.42946    785.60843   -7885.0894 
34110000    93.650179   -9815.5371   -9458.4999   -9815.5371            0     7913.293    24.719611    24.666213    22.783552    13892.024     8258.698    8062.4929    7418.6881   -220.28393     240.4723   -516.23287   -7855.2594 
34111000    95.623441   -9814.3214   -9449.7613   -9814.3214            0    7886.1149    24.732636    24.729884    22.734045    13904.942    7395.3538    8165.2778    8097.7132   -195.12969     295.6919    77.330063   -7850.5414 
34112000    93.404022   -9804.8879   -9448.7892   -9804.8879            0    8172.3782    24.707979     24.75124    22.706427    13886.186    7972.1695    7819.4213    8725.5438   -49.098813    154.24445    893.79518   -7793.7537 
34113000    94.440157   -9811.4005   -9451.3515   -9811.4005            0    7736.1647    24.734828    24.695406    22.763922    13905.037    6754.8253      8289.88    8163.7887    124.33289   -268.10816    338.09664   -7882.5292 
34114000     96.01377   -9794.3905   -9428.3423   -9794.3905            0    7992.7345    24.706578    24.786363    22.713815    13909.627    8461.5456    7332.6716    8183.9862   -460.82584    -64.87763    262.80061    -7806.955 
34115000    93.762188   -9786.7609   -9429.2967   -9786.7609            0    7911.2382    24.715135    24.801809    22.668049    13895.062    8058.8822    7422.9743    8251.8583   -191.56732   -339.78144   -482.01869   -7826.1221 
34116000    91.068211   -9805.0552   -9457.8616   -9805.0552            0    8379.4882    24.692939    24.765886     22.69453     13878.67    8772.3568    7799.2752    8566.8326   -49.692983   -8.4916775    29.298432   -7761.8016 
34117000    89.295261   -9809.8996   -9469.4653   -9809.8996            0    8462.0327    24.742925     24.78628    22.618444    13871.554    8003.3802    8261.0038    9121.7139   -165.80164   -989.66311   -320.77858    -7757.576 
34118000    92.645777   -9823.7158   -9470.5078   -9823.7158            0    7460.3214    24.735056    24.759377    22.704764    13904.955    7233.3945    7613.3813    7534.1883    275.63346   -64.457702    253.37155   -7957.6329 
34119000     90.81987   -9798.3716   -9452.1248   -9798.3716            0    7829.3319    24.710481    24.765408    22.728748    13909.202    7736.6998    7680.9055    8070.3903   -926.85978    -963.8573   -43.674685   -7863.9336 
34120000    91.958114   -9809.8267   -9459.2404   -9809.8267            0     7552.622    24.691096    24.709616    22.799286    13910.016    7597.6557    7737.2002    7323.0101    61.457614   -145.66599   -290.36234   -7927.0905 
34121000    89.626965   -9800.5309    -9458.832   -9800.5309            0     7441.615    24.716759    24.699894    22.819404    13931.277    6290.0649    8661.1023    7373.6779   -198.40864    320.73768   -85.319903    -7946.894 
34122000    94.165831   -9802.5229   -9443.5199   -9802.5229            0    7722.8621    24.665992    24.726664    22.791472    13900.694    7976.6547    7809.1203    7382.8114   -824.86432   -523.26442     292.3675   -7877.8844 
34123000    92.582363   -9820.6417   -9467.6755   -9820.6417            0    6900.0864    24.745802    24.741935    22.786845    13951.451    6515.9592    7050.7211     7133.579    95.452799   -211.29049    553.89011   -8063.7314 
34124000     94.82304   -9797.9934   -9436.4847   -9797.9934            0    8359.5351    24.732889    24.678634    22.744671    13882.754    7476.7965    9127.6835    8474.1255   -172.17994   -762.29674    279.01065   -7743.9654 
34125000    95.085231    -9792.884   -9430.3757    -9792.884            0    8646.7861    24.587529    24.804602    22.747725     13873.47    9032.7324    8417.8828    8489.7431   -554.82085   -509.54278    70.853074   -7680.8686 
34126000    92.533251   -9799.5532   -9446.7743   -9799.5532            0    9438.7469    24.674151    24.675479    22.727416    13837.508    9435.3936    9723.8765    9156.9706    682.12945    324.87629    193.23021   -7541.9799 
34127000    92.936648   -9798.0812   -9443.7643   -9798.0812            0    8660.1525     24.70235    24.673361     22.74014    13859.888    8519.1388    9159.2398    8302.0788    908.58098   -59.876238   -38.880977   -7693.2681 
34128000    92.249251   -9811.0773   -9459.3811   -9811.0773            0     7573.488    24.696523    24.753345    22.763816    13916.011    7259.1539    7453.7316    8007.5785   -386.33901   -398.83136    431.07557    -7922.336 
34129000    93.976889   -9801.0899   -9442.8071   -9801.0899            0     8431.401    24.680835    24.711748    22.753551    13877.541    7863.6763     8784.089    8646.4378   -308.90899   -715.22038   -104.53084   -7736.3784 
34130000    93.490052   -9821.4064   -9464.9797   -9821.4064            0    8474.2854    24.607969    24.673784    22.847142    13872.138    9102.4952    8599.0522    7721.3088   -752.96815   -577.73198   -411.46578   -7750.5393 
34131000    90.960033   -9810.0264   -9463.2452   -9810.0264            0    7714.6308    24.712649    24.706764    22.777831    13907.451    6894.1003    8172.5756    8077.2166    335.84227   -758.18053    317.32218   -7898.5182 
34132000    92.933454   -9804.3812   -9450.0765   -9804.3812            0    8459.7908    24.702183    24.722959    22.728484    13880.536    9349.4317    7717.0803    8312.8603    268.60751   -197.50845   -36.932032   -7737.5324 
34133000     92.31488   -9809.8052   -9457.8587   -9809.8052            0    8067.2585    24.712474    24.759747    22.724366    13904.462    8716.2982    6650.5325    8834.9448    15.899539   -187.56939   -137.56147   -7821.9613 
34134000    92.509686   -9819.2419   -9466.5527   -9819.2419            0     7802.929     24.69189    24.797801    22.692087    13894.469    8506.7435    6786.1867     8115.857   -13.796539    -199.9536    259.87724   -7885.3939 
34135000    94.942674   -9837.3037   -9475.3389   -9837.3037            0    6799.4355    24.716415    24.780374     22.73978    13927.706    7247.5899    6887.5238    6263.1928   -154.13718   -673.97222   -305.29844   -8094.2287 
34136000    95.135892   -9812.3135   -9449.6121   -9812.3135            0    7960.2486    24.701638    24.752596    22.742671    13905.544    7853.5153    7779.7766     8247.454   -289.23753    156.64444    35.387949   -7835.2888 
34137000    88.798405   -9802.9065   -9464.3665   -9802.9065            0    7646.2182    24.705003    24.785883    22.724748    13915.166    8473.9906    6732.9001    7731.7641    220.47306   -1410.1682   -658.01647    -7912.655 
34138000    93.835611    -9808.788   -9451.0438    -9808.788            0    7923.9854    24.732167    24.725969    22.746142    13909.875    7918.2451    7542.7056    8311.0057   -557.80078   -116.98121   -332.43039   -7843.5741 
34139000    92.631905   -9821.8895   -9468.7344   -9821.8895            0    7296.0299    24.769166    24.634411    22.816662    13922.129    6443.4471    8455.7585     6988.884   -66.018276    342.00224   -567.80232   -7987.3487 
34140000     91.79988   -9798.2711   -9448.2881   -9798.2711            0    8297.7448    24.624478    24.773678    22.767791    13889.238    9174.1655     7682.372    8036.6968    15.648897   -333.18396   -78.862736   -7767.4945 
34141000       90.813   -9809.6823   -9463.4618   -9809.6823            0    8011.0097    24.692558     24.69091    22.791665    13895.662    8120.8084    8569.4171    7342.8036    3.3301288   -560.08773    38.542759   -7839.9988 
34142000    90.155229   -9812.0698   -9468.3569   -9812.0698            0    7842.4562    24.666873    24.696861    22.826797    13905.955    7565.7725    8316.1684    7645.4278   -68.797327   -360.92782    468.10536   -7877.8747 
34143000    94.467138   -9811.8875   -9451.7357   -9811.8875            0    8325.7164    24.637196     24.67612    22.834494     13882.24    8921.9566    8511.1718    7544.0207   -283.35258   -270.23637   -341.32525   -7766.1258 
34144000    89.541385   -9793.7899   -9452.4173   -9793.7899            0    8335.3802    24.674386    24.697129    22.783405    13883.899    8342.8232    8822.2052    7841.1121   -17.835367    2.5385283   -78.171757   -7764.6493 
34145000    95.322776   -9800.7915   -9437.3776   -9800.7915            0    7469.4002    24.659959    24.665039    22.928189    13945.815    7194.0378    8408.5838    6805.5789   -684.25987   -681.18621    769.07753   -7918.2105 
34146000    92.328001   -9809.0016   -9457.0052   -9809.0016            0    7680.3892    24.711219    24.690222    22.795063    13907.849    6819.4042    8385.4272    7836.3364   -128.34391   -355.32003    181.71009   -7899.1787 
34147000    91.545132   -9801.1373   -9452.1255   -9801.1373            0    8285.5938    24.630006     24.73936    22.776162    13878.213    8661.1052    7986.0355    8209.6407   -591.27244    184.91984    417.74183   -7775.1255 
34148000    91.323641   -9812.1327   -9463.9653   -9812.1327            0    8296.4701    24.665495    24.674979    22.790338    13870.668    8960.7282    8289.9022    7638.7799    571.88766   -136.37066   -148.45527   -7785.6768 
34149000    91.515118   -9793.5388   -9444.6414   -9793.5388            0    8384.5835    24.669508     24.67559    22.801144    13879.847    9004.5132    8195.2272    7954.0102   -201.96102   -554.05072      -161.53   -7747.4061 
34150000    93.184367   -9815.5442   -9460.2829   -9815.5442            0    7959.1156    24.657998     24.66774    22.850228    13898.813     7982.437    8352.5846    7542.3252   -129.32705   -1051.8831    140.09748   -7846.9707 
34151000    94.642843   -9803.6414   -9442.8197   -9803.6414            0    8644.3241    24.700258    24.680537    22.753368    13870.808    8293.5032    9117.9341    8521.5352    11.646936   -276.21492   -38.223712   -7694.1463 
34152000    91.683881   -9809.3897    -9459.849   -9809.3897            0    8663.8152    24.647309    24.693959    22.789421    13870.545    8387.3862    9042.5658    8561.4937   -226.42892    575.61592    564.86557    -7707.266 
34153000    95.028125   -9805.1485    -9442.858   -9805.1485            0    8816.3239    24.678905    24.645458    22.798483     13866.56    8887.9337    9536.7235    8024.3146     138.2753    227.83404    486.10101   -7659.9368 
34154000    91.408627   -9813.6118   -9465.1204   -9813.6118            0    8229.3668    24.602434    24.751366    22.806737    13888.022    9223.7192    7827.0976    7637.2836   -116.06967   -110.34126   -541.24314   -7798.3234 
34155000    91.459475   -9798.4927   -9449.8075   -9798.4927            0    8885.5968     24.69111    24.679559    22.749795    13862.945     9359.872    8971.9494    8324.9692   -311.22213   -13.144611    272.02754   -7653.3457 
34156000    88.038968   -9819.8473   -9484.2026   -9819.8473            0    8527.8918    24.652146    24.736678    22.727369    13859.427    9012.4457    8245.0536    8326.1761    2.1248854    294.06468     397.8442    -7760.498 
34157000    90.669906   -9801.7934   -9456.1183   -9801.7934            0    8108.3146    24.743367    24.710015    22.730494    13897.627    7416.9761     8709.344    8198.6237   -312.71709    457.18447   -41.251468   -7812.7037 
34158000    92.271746   -9799.6856   -9447.9037   -9799.6856            0    8892.6902     24.69302    24.738186    22.706555    13870.538    8833.4849     8527.789    9316.7968   -375.26952   -294.56945   -216.25306    -7649.023 
34159000    95.031213   -9801.9115   -9439.6092   -9801.9115            0    8605.8341    24.747784    24.714166    22.687902    13876.394    7981.2313    8839.6219     8996.649   -74.788653    402.33887    161.19282    -7698.021 
34160000    91.764121   -9802.3987    -9452.552   -9802.3987            0    8543.3111    24.703208    24.754009    22.683275      13870.9    8518.8247    7655.9454    9455.1632   -392.65959    -556.7254    527.70335   -7724.3012 
34161000    88.431709   -9811.2981   -9474.1561   -9811.2981            0    7723.5418    24.771765    24.777279    22.641296    13896.705    7227.6485    7487.0891    8455.8878   -334.01175   -533.55596   -179.38578   -7908.8321 
34162000    94.310898   -9814.1693   -9454.6131   -9814.1693            0    8355.4841    24.721843    24.742219     22.69336    13880.921     7636.683    8351.7113    9078.0579    186.27886   -364.09312   -88.287975   -7763.1373 
34163000    93.407378   -9799.3325   -9443.2209   -9799.3325            0    8765.1624    24.751748    24.683736    22.711374    13875.868    8482.0625    8736.0277    9077.3969    157.57321    -277.6297    603.98291   -7669.4562 
34164000    91.508832   -9806.7152   -9457.8418   -9806.7152            0    8986.4198    24.652846    24.732486     22.71723     13851.29     9270.191    8288.0313     9401.037   -494.95803   -629.11698   -476.27264   -7642.5234 
34165000    94.347016   -9807.7182   -9448.0243   -9807.7182            0    8984.6247    24.687967      24.7119    22.719269    13860.721    8724.8257    9421.2208    8807.8277   -746.45801   -41.720438    205.06643   -7631.8328 
34166000    93.285761   -9792.1542   -9436.5063   -9792.1542            0    8960.3837    24.703702    24.658172    22.756563    13862.118    8407.5672    9579.6651    8893.9187   -367.67054    59.053761    385.22846   -7625.0324 
34167000    90.635367   -9819.4368   -9473.8934   -9819.4368            0    7647.3723    24.611861     24.85151     22.70822    13889.299    7902.0211    7169.3312    7870.7645   -9.4630829   -157.50352     280.1497   -7924.8327 
34168000    92.716829   -9784.3334   -9430.8545   -9784.3334            0    8629.5358     24.79197    24.670386    22.689469    13877.502     8038.933    8710.0489    9139.6255   -363.28351   -871.11126    144.00383   -7684.3302 
34169000     91.93649   -9803.6655   -9453.1617   -9803.6655            0    8052.1264     24.58208    24.839192    22.744869    13887.994    9456.8406    6699.3993    8000.1394   -92.394212   -740.54739    373.65683   -7822.2667 
34170000    95.482608   -9825.0258   -9461.0025   -9825.0258            0    7809.8669     24.76058    24.703236    22.734789    13906.107    7164.3765    7944.6032    8320.6211   -520.57776   -490.30322    591.99658   -7877.1122 
34171000    89.882945   -9804.8382   -9462.1634   -9804.8382            0    7072.8603    24.679429    24.790008    22.789323    13942.582    7513.6165    6995.8699    6709.0946    154.67902   -462.29945   -282.23173   -8023.9804 
34172000     90.50124   -9795.7897   -9450.7577   -9795.7897            0    8658.9678    24.608256    24.723158     22.78635    13863.074    9547.1926    8511.8204    7917.8904    228.56526    59.372404    201.55556   -7700.0988 
34173000    90.344674   -9804.9895   -9460.5544   -9804.9895            0    7635.5176    24.743347    24.642503    22.819275    13913.779    7993.9795     7900.484    7012.0892   -114.31843   -473.32744    325.65581   -7911.1689 
34174000    94.529916   -9821.7384   -9461.3472   -9821.7384            0    7769.0905    24.643696    24.776876    22.754949    13894.031    8787.1237    7153.9674    7366.1803    233.08412   -570.88165   -72.221051    -7887.095 
34175000    92.396097   -9807.1203   -9454.8643   -9807.1203            0    7836.1651    24.767721    24.684973    22.746674    13907.101    7331.0141    8121.7741    8055.7072   -323.62521   -84.926288    664.44245   -7865.5269 
34176000    93.993119    -9816.418   -9458.0733    -9816.418            0    8398.1048    24.614948    24.751938    22.769378    13872.645    9617.0665    7568.9579    8008.2901   -167.16833    23.442586    444.55345    -7758.983 
34177000    92.640721   -9804.0454   -9450.8568   -9804.0454            0    7237.2233    24.703107    24.734807    22.801857    13932.541    7121.0523    7170.1775    7420.4401    419.62535   -328.00861   -159.44396   -7980.3122 
34178000    92.016448    -9805.157   -9454.3483    -9805.157            0     8179.606    24.700924    24.708152    22.764629    13893.576    7904.1521    8727.3096    7907.3563    148.03111    169.12679    159.14494   -7796.9674 
34179000    90.404504   -9798.3844   -9453.7212   -9798.3844            0    9222.4109    24.640419    24.710781    22.739316    13845.606    9199.0666    9123.7606    9344.4055    21.027648   -296.15115    895.64749   -7591.4955 
34180000    90.876125   -9811.5366   -9465.0753   -9811.5366            0    7734.7652    24.753027    24.666232    22.763436    13898.532    6835.8695    8456.0908    7912.3354    357.02259   -646.60407    630.58057   -7897.2707 
34181000    95.084013   -9815.4455   -9452.9418   -9815.4455            0    7664.2529    24.608277    24.803237    22.783278    13906.114    7932.9606    6980.9594    8078.8386   -693.43062    412.72537    107.16644   -7898.5822 
34182000    93.266823   -9795.1002   -9439.5245   -9795.1002            0     8160.767    24.705077    24.699636     22.76884    13893.692    8535.9168    8086.6661    7859.7179   -728.74519   -103.30063   -442.37142   -7785.9471 
34183000    94.010487   -9813.2346   -9454.8238   -9813.2346            0    8403.0078    24.672145    24.686025    22.777993    13873.101    8559.8869    8433.2515    8215.8851   -143.98869    106.99957   -200.52867   -7754.6857 
34184000    93.992976   -9806.9738   -9448.6297   -9806.9738            0    8438.0877    24.674293    24.716935    22.740914    13869.067    8375.5945    8049.5211    8889.1475   -24.425107   -153.92532    291.10307   -7741.8904 
34185000    94.998309   -9795.6465   -9433.4697   -9795.6465            0    8157.5495    24.671653    24.734467    22.752247    13884.335    8179.9471    8229.7125     8062.989    123.80179   -742.08777    294.41602   -7781.6573 
34186000     94.04655   -9794.0445   -9435.4962   -9794.0445            0    8712.0096    24.644954    24.735589    22.758551    13873.782    9452.0394    8121.5976    8562.3917   -40.602538    95.131371    1.1100198   -7672.7528 
34187000    90.966037   -9818.5148   -9471.7108   -9818.5148            0    8091.2559    24.664163    24.689232    22.808777    13889.159    8402.8227    8343.4344    7527.5106    68.065507   -340.94689    977.00772   -7832.7529 
34188000     95.10166   -9799.0987   -9436.5278   -9799.0987            0    8324.2821    24.664724    24.711466    22.798904    13895.966    9021.2354    8473.5176    7478.0932   -345.73426    207.32729    780.86553    -7749.542 
34189000    92.809948   -9821.9659   -9468.1321   -9821.9659            0    8106.1094    24.655992    24.683175    22.808323    13880.875     7576.855    8776.5129    7964.9602   -454.40829    214.96755    629.69113   -7827.1449 
34190000    96.408771   -9803.2879   -9435.7337   -9803.2879            0    8059.4184    24.622931    24.709403    22.841265    13897.035    8275.0886    8355.2511    7547.9155   -276.64699   -627.28023   -157.17203   -7802.2991 
34191000    91.434771   -9794.2893   -9445.6983   -9794.2893            0    8469.5904    24.729239    24.623315    22.791216    13877.933    7447.0945     9465.193    8496.4836    11.888223   -533.07474    95.651088    -7731.492 
34192000    94.236925   -9798.7192   -9439.4451   -9798.7192            0    9059.5141    24.636283    24.715116    22.759348    13857.907    9141.4225    8712.1876    9324.9321    53.722535   -146.32359   -330.42264   -7608.4868 
34193000    94.541882   -9810.3661   -9449.9293   -9810.3661            0    8449.1926     24.70112    24.633681    22.822449    13886.992    8291.2261    9183.5033    7872.8483   -96.727786    296.18495   -576.46702   -7738.7352 
34194000    92.485741   -9809.4944   -9456.8965   -9809.4944            0    8199.6618    24.620544    24.728509    22.812084    13888.666     9013.253    7587.5032    7998.2292   -654.65233   -206.58378    -405.6424   -7796.0391 
34195000    89.035299   -9791.6616   -9452.2185   -9791.6616            0    8277.9063    24.662864    24.724749    22.793296    13898.967    8706.2076    8436.0237    7691.4878   -661.36507    123.55544    971.41204   -7774.2688 
34196000    96.238316   -9815.2695   -9448.3652   -9815.2695            0    8426.5454    24.648589    24.688656    22.821996     13888.11    8257.9508    9252.7741    7768.9112    -465.8825   -564.72361   -122.61376   -7741.6204 
34197000     93.96174   -9808.7291   -9450.5041   -9808.7291            0    8829.8686    24.639694    24.728632    22.753064    13863.576    9396.5345    8750.0156    8343.0557    50.972605   -378.10251    360.99296   -7665.2279 
34198000    92.945756   -9806.0621   -9451.7105   -9806.0621            0    7505.8351    24.694667    24.688377    22.858954    13936.447    7487.6753    7872.0564    7157.7736   -190.16183   -515.70782    -63.87181   -7926.1586 
34199000    92.003807   -9790.8669   -9440.1064   -9790.8669            0    8004.3104    24.706395    24.698624    22.786349    13904.548    7656.8797    8116.2787    8239.7728    31.683038    468.07147   -627.04767   -7816.9637 
34200000    92.406799   -9808.5609   -9456.2641   -9808.5609            0    6824.0042    24.646902     24.79228    22.829101    13949.788    7607.2324    6012.7418    6852.0384    229.74453    255.43898   -361.98427   -8067.9658 
34201000    97.787085   -9810.4914   -9437.6824   -9810.4914            0     8095.574    24.616108    24.787003    22.779985    13899.425    8405.2403    7343.2226    8538.2591   -744.59415   -234.66954    160.46121   -7796.6379 
34202000     89.60492   -9793.2227   -9451.6079   -9793.2227            0    8877.6652    24.703986    24.667382    22.736122    13854.998    8171.2355    9661.0261    8800.7339    130.16193    265.09994    688.90786   -7657.7785 
34203000      93.5426   -9819.6983   -9463.0712   -9819.6983            0    8756.2312    24.653255    24.680425    22.766381    13852.269    8600.9038    9069.0822    8598.7077      579.786   -699.25572    564.63696   -7694.1275 
34204000    94.471729   -9804.4078   -9444.2385   -9804.4078            0    8336.4971    24.678932    24.658511    22.817424    13885.446    7995.9578    8468.3902    8545.1432   -17.536468   -2.4837353   -144.52148   -7756.0563 
34205000    87.662583   -9795.1032   -9460.8935   -9795.1032            0    8451.7182     24.69436     24.67462    22.767255    13872.634    8891.7243    8601.1508    7862.2794   -314.61609   -179.19001    441.35711   -7750.9577 
34206000    88.418552   -9823.3598    -9486.268   -9823.3598            0     7661.334    24.660585    24.735411    22.802401     13909.23    8100.2328    7063.5581    7820.2113   -168.29204   -312.40358   -18.848181   -7932.1522 
34207000    90.743138   -9802.6542      -9456.7   -9802.6542            0    8024.6932    24.704694    24.759787    22.734907    13906.555    8726.1544    6911.5565    8436.3688   -177.48302   -584.69497    693.11651   -7829.1891 
34208000    91.067931   -9798.3235    -9451.131   -9798.3235            0    8463.3828       24.684    24.779498    22.702084    13885.892    8391.6774    7800.8148    9197.6561    334.30903    328.64822    796.19656   -7737.1987 
34209000    95.466602   -9801.4113   -9437.4491   -9801.4113            0    7865.6286    24.729669     24.75774    22.704398    13900.784    7370.2428     8018.162    8208.4811    68.986177    -414.7191    308.02085   -7842.8606 
34210000    97.066833   -9819.2433   -9449.1803   -9819.2433            0    8109.5207    24.685863    24.720455     22.76343    13891.287    8013.3737    8559.4695    7755.7189    278.47829   -401.93364   -241.38878   -7806.2711 
34211000    92.759912    -9796.373   -9442.7299    -9796.373            0    8188.8219    24.641543    24.706633    22.824315    13895.662    8508.4869     8225.033    7832.9459   -141.94419   -974.37917     71.48036   -7783.2327 
34212000    94.272229   -9815.8404   -9456.4317   -9815.8404            0    7881.6436    24.674646    24.646416    22.864166     13904.65    7816.9585    8439.3061    7388.6662     -151.875    82.785479    131.23882   -7858.1521 
34213000    91.752923   -9807.6984   -9457.8944   -9807.6984            0    8384.9749    24.675478    24.676913    22.808455    13888.402    8112.9552    8591.5609    8450.4085   -298.25788   -636.15874    233.90518   -7759.5337 
34214000    93.211129   -9796.3589   -9440.9955   -9796.3589            0    8897.6886    24.615266    24.656228    22.833766     13858.26    9606.1627    9213.6356    7873.2674   -56.130143   -862.36229    490.66303   -7642.6969 
34215000    91.567915   -9810.1695   -9461.0709   -9810.1695            0    8197.7456    24.677153    24.641571    22.846178    13892.391    8422.7831    8814.0713    7356.3822    -149.2106   -176.93566   -174.63972   -7800.1563 
34216000     91.53784   -9813.0366   -9464.0526   -9813.0366            0    8739.5871    24.646454     24.70333    22.778397    13868.616    8722.5951    8654.8557    8841.3105   -169.13107   -809.68093    265.80696   -7696.3878 
34217000    93.647248   -9790.1076   -9433.0816   -9790.1076            0    9771.1351    24.574426    24.695066    22.774664    13821.194    10429.022    9482.6861    9401.6969    513.05359   -291.37301   -209.69242   -7463.5341 
34218000     91.51042   -9799.0829   -9450.2034   -9799.0829            0    8416.4826    24.698574    24.673197     22.79259     13889.64     7847.346    8984.3455    8417.7564   -167.10021    234.77187    -23.55405    -7745.309 
34219000    91.351113   -9817.2972   -9469.0251   -9817.2972            0    7491.5337    24.733955    24.684741    22.790502     13914.77    7981.5878     7306.811    7186.2021    190.29147    291.29543     9.863132   -7948.7483 
34220000    95.037975   -9812.4761    -9450.148   -9812.4761            0    8581.5461    24.608029    24.735816    22.785294    13869.401    8874.1825     8912.474     7957.982   -575.98924   -538.94335   -103.80998   -7714.3501 
34221000    93.421819   -9811.6832   -9455.5166   -9811.6832            0    7802.5242     24.72767    24.652694    22.806178     13902.73    7641.4217    8197.0643    7569.0865   -56.948212    83.304402   -261.78765   -7873.4998 
34222000     92.78216   -9815.8914   -9462.1635   -9815.8914            0    8669.0244    24.630969    24.722604    22.761487    13860.419    8475.5121    8958.5949    8572.9664   -649.42936    -306.5851    406.52147    -7709.807 
34223000     94.54628   -9810.5125   -9450.0589   -9810.5125            0    8580.2593    24.626945    24.731027     22.76773    13866.677    9003.3008    8474.3988    8263.0784    357.51414    -292.0567    233.94771   -7714.8622 
34224000    96.786058   -9797.6149   -9428.6223   -9797.6149            0    8184.7428    24.719656    24.651845    22.796277    13891.712    8227.4617    8874.6658    7452.1008   -757.47651   -184.32537    56.263444   -7770.4231 
34225000    91.193446   -9803.4829   -9455.8119   -9803.4829            0    8469.8366    24.573495    24.742948    22.834098    13883.605    9286.2207    8076.0966    8047.1926   -97.889605    -344.1602    807.75744   -7740.8552 
34226000    95.064309   -9819.6687   -9457.2402   -9819.6687            0    7972.9647    24.712611    24.677646    22.815956    13914.289    7826.9403    8698.3586    7393.5951   -231.56273   -226.84143    618.57459   -7839.3212 
34227000    96.918433   -9814.8759   -9445.3786   -9814.8759            0    7513.7841    24.622217    24.768381    22.814868    13913.703    8706.3449    6752.3142    7082.6931   -44.412984   -1089.9792    58.163247   -7920.7034 
34228000    96.145681    -9810.138   -9443.5868    -9810.138            0    7934.1711     24.68037    24.698289    22.811632    13905.124    7747.1543    7498.3715    8556.9876    -193.7192   -450.93766     408.1144   -7834.6006 
34229000    94.893143   -9820.1573   -9458.3813   -9820.1573            0    8143.7947    24.668725    24.698763    22.782321    13880.972     8709.134    7931.2668    7790.9833   -22.996743   -241.95706    130.01652   -7809.7537 
34230000     93.47342   -9806.5348   -9450.1715   -9806.5348            0    8372.6289    24.645861    24.715553    22.788697    13881.418    8981.8797    8343.7424    7792.2646    316.22693    299.41765    737.99855   -7755.1642 
34231000    94.181663   -9798.2955    -9439.232   -9798.2955            0    7436.6448    24.819841    24.598727    22.786769    13912.154     6230.715    8493.2191    7586.0002     256.7251   -521.97632    -508.7932   -7930.3777 
34232000    92.979387   -9801.3988   -9446.9189   -9801.3988            0    7871.6995    24.659415    24.795348    22.730469     13898.29    8036.8153    7277.8986    8300.3845      110.498    160.53321    304.64403    -7851.386 
34233000    93.652292   -9799.4824   -9442.4372   -9799.4824            0    7455.4385     24.76522    24.733092    22.737664    13927.285     7086.056    7464.1079    7816.1515    363.19782   -354.32245   -541.81539   -7928.1245 
34234000    93.173437   -9805.8498   -9450.6302   -9805.8498            0    7033.6097    24.748826    24.751059    22.757419    13940.277    7018.9796    6910.5662    7171.2832   -770.25112   -89.295065   -317.89408   -8020.6647 
34235000    91.243967   -9808.2431   -9460.3795   -9808.2431            0    8372.6123    24.627697    24.760693    22.732874     13862.48    8496.9481    8880.3005    7740.5882   -252.55807    106.22392   -451.92271    -7767.688 
34236000    94.563757   -9804.7305   -9444.2103   -9804.7305            0    8663.6971    24.778892    24.627916    22.726575    13868.949    8116.5025    8721.9257    9152.6631   -110.70082   -216.43663   -490.34953   -7691.8529 
34237000    92.429416   -9812.0565   -9459.6734   -9812.0565            0    7738.0704    24.727124    24.716939    22.753176    13906.259    7552.0607    8233.5479    7428.6025    -68.55948    -1078.455     23.24025   -7890.3267 
34238000    94.052557   -9787.5114   -9428.9401   -9787.5114            0    8427.8546     24.64671    24.778427    22.728476    13880.432    8844.6749    7882.1429     8556.746    187.64871   -1099.5784    575.99805   -7722.8738 
34239000    95.043568   -9810.9649   -9448.6155   -9810.9649            0    7848.1829    24.699178    24.697415    22.779248    13895.475    7598.2209    8193.2213    7753.1065   -618.91904    420.47056    95.681546   -7858.1714 
34240000    96.706037   -9802.0483   -9433.3608   -9802.0483            0    8994.5379    24.612303    24.733392    22.756452    13852.893    9478.0511    8887.6779    8617.8848     310.0565   -692.50616    591.72321   -7616.1921 
34241000    91.252176   -9795.7482   -9447.8533   -9795.7482            0    7633.2274    24.729901    24.674935    22.808091    13917.696    7375.0175    8439.1056     7085.559   -249.71579    589.13162    190.26872   -7898.4965 
34242000    93.970199   -9799.9944   -9441.7371   -9799.9944            0    8016.5867    24.626783    24.735467    22.817844    13899.604    8751.2129    7363.7592    7934.7879   -231.76341    151.70413   -540.99621   -7816.6831 
34243000    94.982293   -9812.7581   -9450.6423   -9812.7581            0    8650.8463    24.675891    24.646088     22.80113    13866.831    8312.7243    9558.8807    8080.9337   -501.62705   -357.72578    57.213766   -7701.1514 
34244000    91.411337    -9807.986   -9459.4843    -9807.986            0    8710.6729    24.629632    24.657708    22.852278    13878.423    9018.6864    8781.7957    8331.5365   -463.19899   -725.50638   -66.477661   -7696.4218 
34245000    94.475312   -9810.6606   -9450.4777   -9810.6606            0    8026.2931    24.676204    24.711517    22.794189    13899.587    8009.1708    8332.0734    7737.6352   -439.35964     582.1996    64.811328    -7823.458 
34246000    91.940555   -9812.7444   -9462.2251   -9812.7444            0      7833.53    24.727519    24.659453    22.805936    13906.309    7758.3951    8216.1796    7526.0151   -11.658285   -166.47696   -235.24824   -7873.5128 
34247000    95.412059   -9795.9062   -9432.1519   -9795.9062            0    8983.7927    24.663094    24.736179    22.730199    13867.029    9159.5902    8701.2246    9090.5633   -813.91711    53.126724   -138.45609   -7615.3021 
34248000    91.180818   -9810.0953   -9462.4724   -9810.0953            0    9033.4828    24.616297    24.756442    22.716377    13843.631    9194.6545    8379.3395    9526.4546      178.525    -111.1264    -280.6371    -7638.656 
34249000    91.317516   -9826.0361   -9477.8921   -9826.0361            0    7674.9242    24.755916    24.685459    22.750385    13903.014    7341.5468    7928.1418    7755.0841    111.43696   -569.81758   -387.30999   -7921.7153 
34250000    94.603468   -9803.7169   -9443.0453   -9803.7169            0    8056.3356     24.62149    24.762653    22.804054    13903.482    8991.0736    7259.9002     7918.033    26.534263   -469.66528    250.41707   -7809.4781 
Loop time of 607.775 on 64 procs for 250000 steps with 1920 atoms

Performance: 71.079 ns/day, 0.338 hours/ns, 411.336 timesteps/s
374.7% CPU use with 16 MPI tasks x 4 OpenMP threads

MPI task timing breakdown:
Section |  min time  |  avg time  |  max time  |%varavg| %total
---------------------------------------------------------------
Pair    | 73.516     | 75.573     | 80.86      |  20.3 | 12.43
Bond    | 1.5612     | 1.7993     | 2.6329     |  19.6 |  0.30
Kspace  | 296.74     | 303.12     | 313.2      |  25.7 | 49.87
Neigh   | 0.17829    | 0.18491    | 0.19567    |   1.1 |  0.03
Comm    | 74.541     | 85.188     | 91.916     |  48.0 | 14.02
Output  | 0.53223    | 0.53253    | 0.53429    |   0.1 |  0.09
Modify  | 94.64      | 107.05     | 115.64     |  51.1 | 17.61
Other   |            | 34.33      |            |       |  5.65

Nlocal:        120.000 ave         123 max         117 min
Histogram: 1 1 0 5 0 4 1 0 3 1
Nghost:        4318.62 ave        4347 max        4272 min
Histogram: 2 0 0 1 2 1 2 3 2 3
Neighs:        43730.3 ave       44693 max       42535 min
Histogram: 1 1 0 3 3 1 1 3 1 2

Total # of neighbors = 699685
Ave neighs/atom = 364.41927
Ave special neighs/atom = 2.0000000
Neighbor list builds = 267
Dangerous builds = 0

unfix		3
unfix		2
unfix		1

write_data	data.final.${pid}
write_data	data.final.0
System init for write_data ...
PPPM initialization ...
  extracting TIP4P info from pair style
  using 12-bit tables for long-range coulomb (../kspace.cpp:340)
  G vector (1/distance) = 0.37521628
  grid = 30 30 30
  stencil order = 5
  estimated absolute RMS force accuracy = 0.0031817559
  estimated relative force accuracy = 9.5817633e-06
  using double precision FFTW3
  3d grid and FFT values/proc = 7920 1800
Last active /omp style is kspace_style pppm/tip4p/omp
WARNING: Not all mixed pair coeffs generated from mixing. Use write_data with 'pair ij' option to store all pair coeffs. (../write_data.cpp:312)

write_restart   restart.lmp.${pid}
write_restart   restart.lmp.0
System init for write_restart ...
PPPM initialization ...
  extracting TIP4P info from pair style
  using 12-bit tables for long-range coulomb (../kspace.cpp:340)
  G vector (1/distance) = 0.37521628
  grid = 30 30 30
  stencil order = 5
  estimated absolute RMS force accuracy = 0.0031817559
  estimated relative force accuracy = 9.5817633e-06
  using double precision FFTW3
  3d grid and FFT values/proc = 7920 1800
Last active /omp style is kspace_style pppm/tip4p/omp
Total wall time: 0:10:07
