#include		in.partitions
include		in.temp
variable        temperature equal 263.45
variable	tempDamp equal 100.0
include		in.pressure
variable        pressure equal 6625.0
variable        pressureDamp equal 1000.0 # This is 1 ps
include		in.seed
variable        seed equal 745823

units		real
atom_style	full

read_restart	restart.lmp.${pid}
read_restart	restart.lmp.0
Reading restart file ...
  restart file = 30 Jul 2021, LAMMPS = 30 Jul 2021
  restoring atom style full from restart
  orthogonal box = (0.057766394 -0.090283071 0.067674710) to (19.942235 20.090284 20.632323)
  2 by 4 by 4 MPI processor grid
  restoring pair style lj/cut/tip4p/long/omp from restart
  restoring bond style harmonic/omp from restart
  restoring angle style harmonic/omp from restart
  972 atoms
  648 bonds
  324 angles
Finding 1-2 1-3 1-4 neighbors ...
  special bond factors lj:    0        0        0       
  special bond factors coul:  0        0        0       
     2 = max # of 1-2 neighbors
     1 = max # of 1-3 neighbors
     1 = max # of 1-4 neighbors
     2 = max # of special neighbors
  special bonds CPU = 0.002 seconds
  read_restart CPU = 0.008 seconds
include 	in.setup
variable	out_freq equal 1000
variable	out_freq2 equal 10000
variable	out_freq3 equal 1000

timestep	2.0

neigh_modify    delay 7 every 1

include		in.tip4p
# This is TIP4P/Ice

# create groups ###
group ox type 2
324 atoms in group ox
group hy type 1
648 atoms in group hy

# set charges - beside manually ###
set group ox charge -1.1794
Setting atom values ...
  324 settings made for charge
set group hy charge 0.5897
Setting atom values ...
  648 settings made for charge

# ### TIP3P Potential Parameters ###
pair_style lj/cut/tip4p/long/omp 2 1 1 1 0.1577 8.5
pair_coeff 1 1*2 0.000 0.000
pair_coeff 2 2 0.21084 3.1668
bond_style  harmonic
bond_coeff  1 450 0.9572
angle_style harmonic
angle_coeff 1 55 104.52
kspace_style pppm/tip4p/omp 1.0e-5
pair_modify tail yes

thermo          ${out_freq}
thermo          1000
thermo_style    custom step temp pe etotal epair emol press lx ly lz vol pxx pyy pzz pxy pxz pyz enthalpy

restart 	${out_freq3} restart.lmp.${pid} restart2.lmp.${pid}
restart 	1000 restart.lmp.${pid} restart2.lmp.${pid}
restart 	1000 restart.lmp.0 restart2.lmp.${pid}
restart 	1000 restart.lmp.0 restart2.lmp.0


include         in.dump
dump            myDump all atom ${out_freq2} dump.water.${pid}
dump            myDump all atom 10000 dump.water.${pid}
dump            myDump all atom 10000 dump.water.0
dump            myDump2 all dcd ${out_freq2} dump.dcd
dump            myDump2 all dcd 10000 dump.dcd
dump_modify     myDump append yes
dump_modify     myDump2 append yes


variable natoms 	equal  "count(all)"                        # NUMBER ATOMS
variable H      	equal  "enthalpy/v_natoms"                 # ENTHALPY-per-atom
variable Vol      	equal  "vol/v_natoms"                 # volume-per-atom
fix AVG all 		ave/time ${out_freq} 1 ${out_freq} v_Vol v_H file vol_enthalpy.dat
fix AVG all 		ave/time 1000 1 ${out_freq} v_Vol v_H file vol_enthalpy.dat
fix AVG all 		ave/time 1000 1 1000 v_Vol v_H file vol_enthalpy.dat


timer           timeout 02:55:00 every 1000
New timer settings: style=normal  mode=nosync  timeout=02:55:00

fix 		1 all shake 1e-6 200 0 b 1 a 1
       0 = # of size 2 clusters
       0 = # of size 3 clusters
       0 = # of size 4 clusters
     324 = # of frozen angles
  find clusters CPU = 0.000 seconds
fix             2 all nph aniso ${pressure} ${pressure} ${pressureDamp}
fix             2 all nph aniso 6625 ${pressure} ${pressureDamp}
fix             2 all nph aniso 6625 6625 ${pressureDamp}
fix             2 all nph aniso 6625 6625 1000
fix             3 all temp/csvr ${temperature} ${temperature} ${tempDamp} ${seed}
fix             3 all temp/csvr 263.45 ${temperature} ${tempDamp} ${seed}
fix             3 all temp/csvr 263.45 263.45 ${tempDamp} ${seed}
fix             3 all temp/csvr 263.45 263.45 100 ${seed}
fix             3 all temp/csvr 263.45 263.45 100 745823


run             250000
PPPM initialization ...
  extracting TIP4P info from pair style
  using 12-bit tables for long-range coulomb (../kspace.cpp:340)
  G vector (1/distance) = 0.37145315
  grid = 24 24 24
  stencil order = 5
  estimated absolute RMS force accuracy = 0.0036013149
  estimated relative force accuracy = 1.0845253e-05
  using double precision FFTW3
  3d grid and FFT values/proc = 3211 432
Last active /omp style is kspace_style pppm/tip4p/omp
Neighbor list info ...
  update every 1 steps, delay 7 steps, check yes
  max neighbors/atom: 2000, page size: 100000
  master list distance cutoff = 10.8154
  ghost atom cutoff = 10.8154
  binsize = 5.4077, bins = 4 4 4
  1 neighbor lists, perpetual/occasional/extra = 1 0 0
  (1) pair lj/cut/tip4p/long/omp, perpetual
      attributes: half, newton on, omp
      pair build: half/bin/newton/omp
      stencil: half/bin/3d
      bin: standard
Per MPI rank memory allocation (min/avg/max) = 10.18 | 10.18 | 10.19 Mbytes
Step Temp PotEng TotEng E_pair E_mol Press Lx Ly Lz Volume Pxx Pyy Pzz Pxy Pxz Pyz Enthalpy 
18500000      281.279   -4685.7431   -4143.2729   -4685.7431            0     6188.979    19.884468    20.180567    20.564649     8252.179    6993.6064    6348.5409    5224.7897    37.056584    548.48462     242.6301    -3398.432 
18501000    259.34728   -4691.3153   -4191.1423   -4691.3153            0    7275.6998    20.313633    19.732846    20.457987    8200.4984    6989.1683    7036.1412    7801.7901   -574.66544    1373.3379    562.47746   -3320.9988 
18502000    265.10152   -4691.7846    -4180.514   -4691.7846            0    7182.0867    19.905816    20.050446    20.491831    8178.7097    5662.1469    6906.2761    8977.8371    575.03961     557.6755    556.75499   -3323.8484 
18503000    253.76754   -4684.3542   -4194.9422   -4684.3542            0    6249.6275    20.009216    20.001116    20.502056    8205.0592    6360.2825    5235.7109    7152.8892   -286.28507    84.695973   -660.25204   -3447.0969 
18504000     245.0776   -4703.9572   -4231.3044   -4703.9572            0    4565.2906    19.981065    20.146614    20.565136    8278.5125    5288.4448    3277.9112    5129.5159   -591.34435   -383.92503    663.93276   -3680.1204 
18505000    246.32457   -4664.9865   -4189.9288   -4664.9865            0    5213.3064    19.991119    20.035452    20.690873    8287.3382    3363.6602    8332.2783    3943.9808   -3.4277673     649.6194   -540.57738   -3559.8365 
18506000    277.87984   -4693.8455   -4157.9309   -4693.8455            0    8617.6766    19.922087    19.879828    20.547779    8137.8998    9203.2581    6439.4398    10210.332    -18.42879   -678.55732   -530.04762   -3135.1599 
18507000    257.50204     -4677.39   -4180.7756     -4677.39            0    6428.8528    19.970515    19.783187    20.770082    8205.8527     7140.022    6050.7296    6095.8067    728.92692    1350.5242    1689.8646   -3411.4095 
18508000      267.044   -4702.0313   -4187.0145   -4702.0313            0    6771.8388     19.77238    20.065083    20.747747     8231.346    6880.2995    6243.2049    7192.0119    263.20204    542.16915    279.17189   -3374.0841 
18509000    276.00428   -4695.6586   -4163.3611   -4695.6586            0    7929.5497    20.129713    19.699801    20.638896    8184.3818    6788.4669     8587.275    8412.9073     203.0848    673.75169    472.69687   -3216.8836 
18510000    264.60635   -4673.4752   -4163.1596   -4673.4752            0    6847.8057    19.977502    20.086668    20.482048    8219.0662     7318.322    5264.9147    7960.1803    69.340034    125.07131   -794.43052   -3342.3361 
18511000    259.99581    -4690.213   -4188.7892    -4690.213            0    6768.5474    19.974187    19.870373    20.670883    8204.1613     6962.943    7111.2836    6231.4156    146.34752    2157.7041   -922.74951   -3378.9374 
18512000    261.75946    -4647.372   -4142.5468    -4647.372            0    7883.1741     19.92487    20.014627    20.693907    8252.4994    8790.8256    7105.7672    7752.9294   -95.784264   -332.86425    996.86909   -3193.7734 
18513000    274.67062   -4667.9836   -4138.2582   -4667.9836            0    7345.8678    19.970009    19.790574     20.61139    8145.9909    7490.9886    8466.9897    6079.6251    711.32361   -265.93029    682.82198   -3265.5623 
18514000    270.98475   -4721.7368     -4199.12   -4721.7368            0    5673.1607    20.105507    19.796151    20.556168    8181.5942    5264.9991    6289.1994    5465.2838   -32.851099    1262.8056     -710.491   -3522.1975 
18515000    264.54912   -4705.6659   -4195.4606   -4705.6659            0    6709.8533    20.107137    19.809097    20.540054    8181.1902      6623.26    6442.4272    7063.8726    193.00944   -273.85677    277.72817   -3394.8794 
18516000    258.71616   -4665.3639    -4166.408   -4665.3639            0     7920.218    20.065908    19.857269    20.490985    8164.7179    5491.2964    9182.1534    9087.2042    307.85136     129.7312    315.92874   -3223.3157 
18517000    263.14864    -4693.983   -4186.4787    -4693.983            0    6215.9558    19.945752    19.969182    20.638835    8220.4553    3736.0965    8573.1069     6338.664    124.23357    682.05339   -264.80224    -3441.267 
18518000    254.16264   -4705.8216   -4215.6476   -4705.8216            0    5502.7348     20.07855    20.038083    20.457542    8230.7986    6728.7109    5543.5203    4235.9731   -568.97263    417.62292    34.558417   -3555.1116 
18519000    268.17776    -4707.165   -4189.9616    -4707.165            0    7893.4968    20.022782    20.038254    20.421769    8193.6548    6551.1079    8051.6575    9077.7251    445.76259   -554.34828    307.29866   -3246.7199 
18520000    265.94486   -4709.5137   -4196.6167   -4709.5137            0     5249.132    20.045241    20.097604    20.448265    8237.8146    3504.3788    6236.6081    6006.4091   -888.81708   -1191.3226     289.9385   -3565.9855 
18521000    266.81596   -4736.0711   -4221.4941   -4736.0711            0    6206.8543    19.932959    19.900548    20.760418    8235.1763    6919.9371    6091.0623    5609.5636    -855.3968    802.84334    1280.1306   -3476.0409 
18522000    260.57698   -4687.1514   -4184.6067   -4687.1514            0    8251.7112    19.851709    19.785541    20.716976    8137.1478    7227.5209    10276.862    7250.7506    652.62938    75.437726    854.65851     -3205.36 
18523000    251.85496   -4702.2924   -4216.5689   -4702.2924            0    7049.6473     19.96254    20.075499    20.490429    8211.7024    8803.9453    3577.7767    8767.2198   -677.49928    -1091.719   -114.13142   -3372.3084 
18524000    277.13343   -4680.2199   -4145.7448   -4680.2199            0    6109.6225    20.056113    19.920422    20.572675    8219.3234    4682.3131    8058.1434    5588.4109   -816.46796   -247.97064    1474.9717   -3413.3819 
18525000     278.7145   -4695.3128   -4157.7885   -4695.3128            0    7497.8444    19.947646    19.826074    20.652462    8167.7081    7077.4154    8100.2595    7315.8584   -54.563058   -869.65948    1755.1571   -3264.6629 
18526000     270.9882   -4672.6172   -4149.9937   -4672.6172            0    7605.2293    19.898434    19.982114    20.618478    8198.1702    8009.8425    7026.7679    7779.0774   -37.726647    748.19804   -4.9727521    -3240.698 
18527000    275.03055   -4682.0836   -4151.6641   -4682.0836            0    7082.9695    19.900366    20.045324    20.634694     8231.371      9567.52     4943.214    6738.1744    196.98612   -291.26635    200.88257   -3301.3812 
18528000    255.41044   -4691.8615    -4199.281   -4691.8615            0    5621.4198    20.226791    19.708268    20.852901    8312.6961    7140.4959    4974.1764    4749.5872    434.63884    1349.9715   -656.00691   -3517.7842 
18529000    276.59513   -4713.2737   -4179.8367   -4713.2737            0    7354.9861    19.981233    20.053907    20.427098    8185.1752    8211.2269    5134.5165    8719.2148   -112.61869    265.28987   -92.297459   -3301.8544 
18530000    276.82924   -4701.5626   -4167.6741   -4701.5626            0    5431.6678    20.058668    19.935906     20.65695    8260.4606    4730.8191    5234.5462    6329.6382   -461.61591    83.151216   -865.49379   -3513.3192 
18531000    271.45114   -4679.5857   -4156.0694   -4679.5857            0     7489.905    19.924097    19.958761    20.761886    8256.1774    8095.7806    6998.8721    7375.0625   -475.02463    1411.7518    144.10362   -3254.2258 
18532000    267.06631   -4686.9066   -4171.8467   -4686.9066            0    4700.0298    20.211395    19.876429    20.510745    8239.7889    3631.5225    4748.5692    5719.9978    38.762438    33.708717     -1443.92   -3607.0495 
18533000    267.19151   -4692.7376   -4177.4363   -4692.7376            0    7425.3766    19.872386    20.067595    20.569829    8203.0627    7891.6674    6190.1866    8194.2757    36.244583    1073.9589    449.73902   -3289.1144 
18534000    254.28442    -4695.704   -4205.2951    -4695.704            0    5830.4488    20.050644    19.772295    20.633179     8179.967    7154.5898    5309.6203    5027.1364    343.10693    28.599646   -376.64167   -3509.7434 
18535000    256.51441   -4735.7932   -4241.0836   -4735.7932            0    5859.7213    19.957388    19.824675    20.687479    8184.9747    5492.9942    7141.8858     4944.284    -483.0894    419.51768    1044.7176   -3541.6118 
18536000     261.9345   -4712.0438   -4206.8811   -4712.0438            0    7655.2139    19.980168    19.946495     20.47873    8161.4766    7384.1041    8224.5563    7356.9812    346.46946     36.79036   -432.43543   -3295.7057 
18537000    260.78461   -4696.9014   -4193.9564   -4696.9014            0    6641.1909     20.10066    20.004726    20.541486    8259.8998    7543.9341    3774.2896    8605.3491   -646.31904    1323.2575    1832.1095   -3393.9441 
18538000    254.24728   -4653.9151   -4163.5779   -4653.9151            0    8065.8825    19.946112    19.929162    20.574284    8178.4692    5806.3566    8667.7091    9723.5818   -385.98513   -834.08498   -436.19937   -3201.5231 
18539000    257.66978   -4703.7197   -4206.7819   -4703.7197            0    6287.1699    19.858182    19.832477    20.741246    8168.6684    6957.3546    5969.9233    5934.2317    211.80477    73.911085    1631.4512    -3457.781 
18540000    260.17132   -4701.9371   -4200.1748   -4701.9371            0    5374.6966    19.966585    20.092369    20.650162    8284.3488    4029.5439    6961.4975    5133.0485    11.492109    419.99724    53.230367   -3550.8108 
18541000    267.82074   -4697.3854   -4180.8706   -4697.3854            0    6532.8574    19.933226    20.022414    20.599713    8221.5782     7146.515    6019.9895    6432.0679    388.65691      917.886   -151.95026   -3397.5595 
18542000    261.45623   -4705.1369   -4200.8966   -4705.1369            0    5565.6006    19.857128    20.022321    20.711078    8234.4306    5379.3129    6357.9571    4959.5319   -1039.5487    1252.4458    348.62475   -3532.5196 
18543000    268.11933    -4687.787   -4170.6963    -4687.787            0    6609.0755    20.181248    19.937756    20.452547    8229.4668    4967.8432    7095.1981    7764.1853   -343.35801   -1693.5555    358.19763   -3377.4861 
18544000    256.44523   -4702.6015   -4208.0253   -4702.6015            0     7595.644    19.898273    19.976415    20.545181    8166.6303    8071.8019    7740.0721     6975.058    135.91113   -166.01287    197.80426   -3303.3695 
18545000    262.78017   -4727.2873   -4220.4936   -4727.2873            0    6145.4326     20.03264    20.214532    20.346661    8239.3897    4613.1094    6329.2169    7493.9716      370.617   -1187.5295    266.26196   -3482.0397 
18546000     256.7656   -4691.7635   -4196.5695   -4691.7635            0    7643.0178    20.128613    20.004291    20.385514     8208.403    8382.3766    6750.4627    7796.2141    -151.1152   -341.31441   -1922.7912   -3281.6151 
18547000    266.87988   -4693.8318   -4179.1315   -4693.8318            0    7663.9649    19.978754    19.959097    20.540144    8190.5442    7730.3814    8709.3977    6552.1156   -240.65171   -845.68142    158.71368   -3263.6657 
18548000    261.53026   -4718.2871    -4213.904   -4718.2871            0    8012.1423    19.929996     19.92814    20.682897    8214.5797    6955.3588    8850.2326    8230.8354   -97.918846   -507.33092   -251.69253   -3254.0396 
18549000    277.18319   -4696.8233   -4162.2522   -4696.8233            0    7495.2583    20.050049    19.613691    20.622495    8109.9086    6746.6393    8689.7169    7049.4185   -23.287475   -398.53494   -414.32368   -3275.7528 
18550000    254.00188    -4701.691    -4211.827    -4701.691            0    6709.8374    20.021163    19.957492    20.552759    8212.3114    3716.2879    8624.0424    7789.1819   -630.54002   -1181.1183   -423.11318   -3408.2023 
18551000    296.12455   -4688.3889   -4117.2878   -4688.3889            0    6062.8293    20.266017    19.926605    20.463194    8263.7112    5348.6159    5327.6178    7512.2543    305.41809   -560.94481    431.02362   -3386.6093 
18552000    262.41711   -4715.2733   -4209.1798   -4715.2733            0    7749.2835    19.971612    19.929178     20.45535    8141.5938    5699.7366    9309.5044    8238.6096   -469.61142     829.2788    401.29829   -3289.0547 
18553000    260.40864   -4732.6402   -4230.4202   -4732.6402            0     5225.548    20.101794    19.625359    20.898403    8244.5228    4703.5792    5787.6804    5185.3844   -467.19564    366.40103    516.42395   -3602.1112 
18554000    263.40205   -4662.7197   -4154.7267   -4662.7197            0    7640.7351    19.760201    20.123576    20.581699    8184.2286    7628.8914    6442.8209    8850.4929    141.80382    -326.7772    193.03289   -3242.7394 
18555000    266.86183   -4703.3985    -4188.733   -4703.3985            0    7663.3478    20.106483    20.005003    20.421461    8214.1295     6969.777    6940.1804    9080.0861    43.846847   -1461.7284    485.63881   -3270.7049 
18556000    269.44094    -4657.651   -4138.0115    -4657.651            0    6293.2325    20.036303    20.165738    20.448358    8262.0944    4917.5578    7211.3238    6750.8158    580.78456    1718.3376    766.11177   -3379.7136 
18557000    254.20439   -4713.1606   -4222.9061   -4713.1606            0    6995.1162    19.979908    19.911837    20.599703    8195.3176    4846.7333    8290.7167    7847.8986     250.5899     1823.782    1497.1166   -3386.8477 
18558000    262.58878    -4694.525   -4188.1005    -4694.525            0    6312.1609    19.775188    19.904891    20.892937    8223.9399    6917.9618    6190.2643    5828.2567   -268.61393    83.513796    234.96733   -3431.0342 
18559000    256.34792   -4688.1739   -4193.7854   -4688.1739            0    6460.3972    19.899706    19.792371    20.788011     8187.615    4781.3724    7810.7668    6789.0525    -596.5831   -1657.0298     1192.807   -3422.3625 
18560000     261.6356   -4699.8121   -4195.2259   -4699.8121            0    6520.0976    20.060608    20.148158    20.448657    8265.0263    9612.2318    2495.7232    7452.3378    540.35373    603.24416    723.45817   -3409.3133 
18561000    269.19541   -4696.4536   -4177.2876   -4696.4536            0    7414.1621    20.037493    19.972096    20.479053    8195.5271    7173.0515    7985.3964    7084.0383    103.76699    746.36717   -374.57295   -3291.1221 
18562000    285.84531   -4698.7039   -4147.4272   -4698.7039            0    6700.7292    20.145278    19.913851    20.658183    8287.4448    5981.7453    7304.4536    6815.9888   -767.53299   -265.56449   -842.73349   -3337.5511 
18563000    270.07187   -4682.5203    -4161.664   -4682.5203            0    4985.5719    19.883558    19.960864    20.765792     8241.797    5270.2607    5494.3222    4192.1329    513.06948    622.35326   -498.18748   -3562.4074 
18564000    257.41736   -4677.5047   -4181.0537   -4677.5047            0    6837.7046    20.150066    19.809756    20.479038    8174.5742    5921.5291    5878.5932    8712.9916   -30.450171   -1283.4755   -612.72749   -3365.8777 
18565000    264.94345   -4705.3427    -4194.377   -4705.3427            0    7945.3416    20.001258    20.107564    20.351798    8185.0163    7055.6437    7754.1097    9026.2715   -724.44091    806.86431   -729.40921    -3245.941 
18566000    274.78036   -4679.7689   -4149.8319   -4679.7689            0    7597.3232    20.001646    19.799784    20.736077    8212.0725    6456.0643    9428.6124     6907.293    851.05315    183.21765   -41.129251   -3239.9411 
18567000    261.27189   -4703.8431   -4199.9583   -4703.8431            0    5939.1283    19.941748    19.970246    20.732048    8256.3643    4712.0269     6618.087    6487.2711   -760.46346   -190.88759   -212.86195   -3484.8243 
18568000    257.42502   -4690.1307   -4193.6649   -4690.1307            0    5527.7064    20.125674    19.961851    20.575611    8266.1636    4505.4373    6527.7507    5549.9311    705.49944   -367.61195   -1630.3033   -3527.2805 
18569000    256.93305   -4719.7044   -4224.1874   -4719.7044            0    8333.7685    19.867857    20.133527     20.32557    8130.4322    10325.987    5948.8679    8726.4503    461.64962    1340.1678   -518.73075    -3236.019 
18570000    259.56955   -4672.7476   -4172.1459   -4672.7476            0    6637.2682     19.88445    19.937102    20.583047     8159.908    6197.3422    5861.4864    7852.9762    4.8292642   -206.04553    776.38751   -3382.2851 
18571000    276.75232   -4696.6558   -4162.9157   -4696.6558            0    7910.2361    19.799979    19.824394    20.699974    8125.2072    7214.6726     8987.312    7528.7237    306.39545    118.96573   -2061.5451     -3225.57 
18572000    282.42341   -4661.8985   -4117.2212   -4661.8985            0    8784.3372    19.811958    19.878812    20.691606    8149.1446    10594.755    8425.5239    7332.7331   -93.079801    1061.4593    718.27336   -3073.2298 
18573000    256.45344   -4703.3721   -4208.7801   -4703.3721            0     7892.464    20.098428    19.604848    20.701173    8156.8135     6569.231    10916.727     6191.434   -289.03664     57.34006    284.44631   -3269.9023 
18574000    251.63845   -4701.5586   -4216.2526   -4701.5586            0    7873.4857    19.874497    20.012598    20.546766    8172.2774    8091.1747     6889.859    8639.4234    27.465401   -844.01948    75.937845   -3277.8569 
18575000    268.77352   -4712.9084    -4194.556   -4712.9084            0     7257.175    20.020778    19.599541    20.771438    8150.6723    6022.3607     9282.616    6466.5484   -317.76899   -209.49605   -869.88892   -3331.9015 
18576000    264.10334   -4709.9546   -4200.6091   -4709.9546            0     4455.731    19.974746    20.043868    20.791998    8324.5164    5145.7977    4561.0916    3660.3036    1078.7842    540.31957    37.935819   -3659.6631 
18577000     247.2344   -4705.8164   -4229.0041   -4705.8164            0    6384.5584    19.907918    19.906069    20.807332    8245.7043    6579.7902    6405.9792    6167.9059    675.45373    129.66222    250.74025   -3461.2281 
18578000    271.88106   -4669.3426   -4144.9971   -4669.3426            0    7408.1549    20.107947     19.70071    20.620375    8168.5724    6290.1357    8632.1065    7302.2224   -592.28333    472.53062   -976.67493   -3262.4617 
18579000    258.39256   -4709.8272   -4211.4954   -4709.8272            0    6338.5611    19.952518    19.995719    20.631488    8231.2407    5395.8578     7518.684    6101.1414   -278.10059    1460.9878    1223.8415   -3450.5879 
18580000    262.35829   -4678.4411   -4172.4611   -4678.4411            0    6369.9723    20.051357    19.974613    20.633514    8264.0957    5530.6783    6193.9664    7385.2723   -423.84489    1182.1424    361.61069   -3404.7306 
18581000    272.36681   -4708.4294   -4183.1471   -4708.4294            0    4767.7106    19.989163    19.937369    20.579078    8201.4071     4846.642    4252.8981    5203.5916    685.46352    967.24748    1385.0698   -3612.8855 
18582000    260.94649   -4721.8733    -4218.616   -4721.8733            0    6795.6352    20.071292    19.813163    20.625366    8202.2083    6907.3564    8784.9559    4694.5933    25.005335   -42.500583     1260.267   -3405.7167 
18583000    268.07534   -4687.2524   -4170.2465   -4687.2524            0    6982.4889    19.813768    20.129027    20.460794    8160.4171    9111.9772    4621.5938    7213.8957   -151.90135   -173.30809   -693.97691   -3339.2513 
18584000    260.37362   -4646.3483   -4144.1959   -4646.3483            0     7392.009     20.15134    19.735032    20.569977    8180.4194    4575.8058    9666.9453    7933.2758   -459.45314   -792.43442   -147.75045   -3262.3069 
18585000    258.61247   -4704.7343   -4205.9784   -4704.7343            0    6856.3508    19.965266    20.007607     20.56457    8214.6655    7641.8069    6502.4335    6424.8121   -195.77997   -91.799064   -565.29253   -3384.5707 
18586000    257.18534   -4699.0499   -4203.0463   -4699.0499            0    6240.9807    20.071943    19.924752    20.532654     8211.593    4109.0302    7521.3833    7092.5286   -32.502098    1528.8498    844.63305   -3455.6411 
18587000    252.29754   -4687.6433   -4201.0663   -4687.6433            0    5730.9891    19.900822    19.986361     20.65414     8215.081    6783.2494    4704.7343    5704.9837    -554.2309    1684.6058   -780.55217   -3514.4449 
18588000    254.75449     -4672.56   -4181.2446     -4672.56            0    6333.5201     20.32485    19.964441    20.302743    8238.3308    6629.9179    4752.8007    7617.8416   -41.727429     839.6332   -603.54747   -3420.2873 
18589000    250.52121   -4713.6511   -4230.4999   -4713.6511            0    6238.3447    19.927902    20.048726    20.513838    8195.8741    6309.6655    6382.3095    6023.0591   -66.350978   -633.36194    210.80377   -3484.8404 
18590000    263.68323     -4714.69   -4206.1547     -4714.69            0    7658.8655    20.059247    19.946202    20.595576    8240.4096    6961.7424    7347.4142    8667.4398    366.36187    373.62919    851.95188   -3285.7282 
18591000    256.80936   -4695.4801   -4200.2016   -4695.4801            0    6687.4981    19.848701    19.850904    20.814537    8201.2325    8160.6993    5983.6002    5918.1949    171.90461   -1651.8207   -104.65275   -3400.3329 
18592000    270.59642   -4709.6238   -4187.7558   -4709.6238            0    7569.4851    20.031077    19.980188    20.457047    8187.4147    7468.1867    7068.4254    8171.8431   -16.589167   -653.75634   -441.52516   -3283.9211 
18593000    264.98521   -4673.6417   -4162.5954   -4673.6417            0    6827.5827    20.133881    19.935774    20.468166    8215.6046      7590.62    6150.9116    6741.2166    239.53442   -262.32401    173.09707   -3344.5406 
18594000    262.62616   -4694.2072   -4187.7106   -4694.2072            0    8024.2207    20.060493    20.009029    20.359828    8172.2512    7740.8266    7411.4416    8920.3939   -666.61531   -1960.7841   -123.63331   -3231.3527 
18595000    255.11489   -4722.7366   -4230.7261   -4722.7366            0     7022.752    19.999356     19.94476    20.532492    8190.0488    6731.4753    8540.4191    5796.3617    613.49617    33.577216    290.11188   -3391.9043 
18596000    268.73671   -4695.4516   -4177.1703   -4695.4516            0    6940.7132    19.972508    19.938344     20.66497    8229.1781    5542.3298    9116.3721    6163.4377    229.18471    1786.6362    -376.3794   -3344.1867 
18597000     254.5543   -4687.1418   -4196.2125   -4687.1418            0    4985.7158    19.994775     19.91617    20.786229    8277.4786    7504.6792    3593.3558    3859.1124    721.52236    510.78135   -264.32323   -3594.3442 
18598000    265.85652   -4697.0976   -4184.3709   -4697.0976            0     6744.287     19.97563    20.022802    20.325605    8129.5938    5776.2686    6732.5885    7724.0039    380.65422   -892.34633    1998.4103   -3384.7562 
18599000    263.75366   -4699.6127   -4190.9416   -4699.6127            0    7144.5527    19.948006    19.866958    20.640544    8179.9757    7328.7515    6854.4813    7250.4254   -494.66861   -282.61573    559.49139   -3338.6211 
18600000    267.35464   -4700.7006   -4185.0847   -4700.7006            0    6556.0905    20.030927    19.601678    20.886582    8200.9033    6005.7367    8670.2684    4992.2664    244.94149    254.41718    328.26627   -3400.9647 
18601000    252.95095   -4722.5587   -4234.7215   -4722.5587            0    6033.1501    20.092739     19.84547    20.715966    8260.4884     6035.579    6461.8515    5602.0198    -231.3904    746.40133   -1323.8479   -3507.9034 
18602000    250.99343   -4672.8935   -4188.8316   -4672.8935            0    6087.4876     20.03754     19.96448     20.56966    8228.6677    6182.7227    5667.6892    6412.0508    333.24696    1776.7127   -701.28057   -3458.2924 
18603000     262.8333   -4687.2126   -4180.3164   -4687.2126            0    6039.6943    19.970472    20.188704    20.410928    8229.2359    7181.3616    2821.5161    8116.2053   -555.08763    139.71373    602.18046   -3455.4627 
18604000    270.62711   -4688.3784   -4166.4513   -4688.3784            0    7056.0661    19.768875    20.091739    20.617168    8188.9547    7594.3822    6456.0537    7117.7624   -928.45987    199.68532   -748.90226   -3323.7629 
18605000    270.70969   -4666.6072   -4144.5208   -4666.6072            0    6257.9195    20.282032    19.798264    20.668036    8299.2298    6114.3498    6212.4492    6446.9594    524.56379    1413.0572    -259.6868   -3387.0888 
18606000    250.95284   -4709.0678   -4225.0841   -4709.0678            0    5132.1811    19.966128    20.129615    20.554434    8261.0423    6892.3245     3464.601    5039.6177    640.01872   -69.616805   -181.53571    -3606.765 
18607000    268.08124   -4718.4371   -4201.4199   -4718.4371            0    4889.2264    20.180315    19.946038    20.679997    8324.0572    2777.3361    6613.1171    5277.2258   -244.26099    113.26359   -132.82522   -3607.8784 
18608000    261.22396   -4666.2674    -4162.475   -4666.2674            0    6665.8101    19.974402    20.298321    20.279341    8222.1943    7496.3985     5254.382    7246.6497    89.702375    595.64441   -246.84497   -3363.1626 
18609000    257.49356   -4679.2966   -4182.6986   -4679.2966            0    8288.4302    19.998525    19.924915    20.481589    8161.2765    8211.7593    8175.3134     8478.218    191.17693   -275.26771   -296.86568   -3196.1777 
18610000    278.04069    -4696.138   -4159.9132    -4696.138            0    5866.7166    19.779662    19.890614    20.913974     8228.177    6917.6573    5481.6976    5200.7949    105.52859    -816.6687   -283.15217     -3455.91 
18611000    272.18592   -4676.0682   -4151.1347   -4676.0682            0    7721.6006       19.977    19.776766    20.809499    8221.4264    6605.1772    9043.1823    7516.4422    48.719089   -168.11355    351.20832   -3225.3065 
18612000    255.69815    -4665.506   -4172.3706    -4665.506            0    7160.3906    20.180294    19.854505    20.549179    8233.4345    6690.2771     7054.442    7736.4528   -12.437752    248.79264    7.2177556   -3312.5781 
18613000    251.91848   -4704.5267   -4218.6807   -4704.5267            0    6096.0469    19.948443     20.14051    20.486657    8230.9614    7990.2213    3443.6258    6854.2935   -395.83216    10.292534   -73.131322   -3486.9105 
18614000     266.7811   -4690.5007    -4175.991   -4690.5007            0    6602.9532    20.344614    19.927592    20.396831     8269.266    4613.6277    7650.3626    7544.8692    509.85272   -246.25143   -147.24503    -3379.683 
18615000    261.79952   -4695.1633   -4190.2609   -4695.1633            0      4467.94    19.795571    20.187996    20.674748    8262.3097    5963.8785    3761.5346    3678.4069    154.38099    796.30946    957.14406   -3651.8861 
18616000    263.33087   -4728.0756   -4220.2199   -4728.0756            0    6489.9948    20.108283    19.822513    20.685149    8245.0324    6502.3223    6723.0839    6244.5781   -4.0267565    417.13348   -619.88584   -3439.8283 
18617000    242.71868   -4687.5057   -4219.4023   -4687.5057            0    5812.3309    20.046965     20.17711    20.424276    8261.4116    4571.2643    6604.8274    6260.9009   -481.84874    1249.3951    256.41296   -3519.1082 
18618000    258.33738   -4704.2776   -4206.0522   -4704.2776            0    5608.6346    19.975142    19.915679    20.591077    8191.5115    5440.0374    5832.7425    5553.1239    698.60431    1348.0736    477.80897   -3536.0178 
18619000    255.63613   -4714.1435   -4221.1277   -4714.1435            0    6087.0485     19.92984    19.838961    20.818148    8231.2315      5772.09    6891.9485    5597.1071     949.4159   -1406.6604   -687.28965   -3490.4137 
18620000    265.14553   -4705.4688   -4194.1134   -4705.4688            0    7312.0561    19.950514    19.944773    20.734432    8250.4062    8486.9705    7102.2935    6346.9043   -204.46853    651.38043    226.88462   -3314.2996 
18621000    261.18107   -4724.5249   -4220.8152   -4724.5249            0    7894.9802    19.991881    19.646365    20.686092    8124.8305    7033.6662     9326.689    7324.5855    747.35615     1399.396   -194.62842   -3285.3207 
18622000    276.82027   -4699.0214   -4165.1503   -4699.0214            0    5281.8672    19.946305    19.852466    20.828743    8247.8351    4943.3537    6843.5116    4058.7362    550.87192    541.53121   -113.59024   -3529.8145 
18623000    269.94033   -4712.1484   -4191.5458   -4712.1484            0    4797.1203     20.20595    19.908755    20.567197    8273.6754    4211.7203     4599.582    5580.0585   -590.07098    258.36009   -2014.8074   -3612.7105 
18624000    260.19096   -4671.7883   -4169.9882   -4671.7883            0     8651.139    19.949785    20.106044     20.40877    8186.1871    7482.6856    8370.2173    10100.514   -1014.6195   -729.95272    887.44654   -3137.1534 
18625000     267.1131   -4671.9608   -4156.8107   -4671.9608            0    8130.8998    20.069268    19.762055    20.750175    8229.7263    10943.821    6594.1392    6854.7393    239.88156   -496.59581    1108.9225   -3180.9229 
18626000    256.59984   -4704.9051   -4210.0308   -4704.9051            0    7168.7642    19.792154    19.965759    20.712456    8184.8455    8492.2777    5787.5138    7226.5011    83.818173   -535.19379   -904.74187   -3354.3128 
18627000    261.10282   -4693.9284   -4190.3697   -4693.9284            0    8566.2412    20.047534    19.729704    20.494533    8106.2421    7251.4373    9576.7308    8870.5554   -219.64886   -838.70754    1322.0682   -3177.6581 
18628000    256.50008   -4707.9873   -4213.3053   -4707.9873            0     6301.154    19.964116    20.160925    20.364567    8196.6375    8677.1953     3760.329    6465.9379     1.523228    672.73557     1195.028   -3460.0682 
18629000    278.49008   -4686.6402   -4149.5487   -4686.6402            0    4680.8122    20.081054    19.990978    20.595259    8267.7587    3214.4553    4963.0816    5864.8999    175.66536   -230.23343    218.27987   -3585.1514 
18630000    256.15648   -4726.9971   -4232.9778   -4726.9971            0    6841.8038    19.913984    19.648013    20.890317    8173.7587    5372.3027    8020.9263    7132.1823    55.065679   -279.94387   -1487.1031   -3417.3945 
18631000    249.29028   -4704.8468   -4224.0696   -4704.8468            0    8113.9866    19.828558    19.820423    20.713981    8140.8097    8708.4438    7346.6442    8286.8717   -120.02344   -28.580932    462.49478   -3260.7336 
18632000    269.09095   -4669.2876   -4150.3231   -4669.2876            0    7071.9908    19.996665     20.11025    20.419414    8211.4207    6326.4711    7388.8252    7500.6761   -763.44595    833.56684   -1611.9076   -3303.4158 
18633000    275.60495   -4690.9059   -4159.3786   -4690.9059            0       5391.2     19.99707     20.07814    20.553683    8252.3854     3795.345    6081.6376    6296.6172   -502.00709   -934.40503   -538.90342   -3510.5338 
18634000    259.90906   -4709.1182   -4207.8617   -4709.1182            0    8214.5173    19.858089    19.847516    20.787875     8193.203    4363.7411    12710.902    7568.9087   -487.56139   -615.23386    1762.1968   -3226.3135 
18635000    271.34389   -4723.3491   -4200.0395   -4723.3491            0    6000.6033    20.017504    19.841611    20.666353    8208.2524    4816.9282    6509.1976    6675.6841   -263.67007   -112.26867   -770.57113   -3481.7137 
18636000    267.49129    -4700.514   -4184.6345    -4700.514            0    6361.6107    20.073879    19.999892    20.458164    8213.4496    5924.8346     6038.025    7121.9725   -1143.1949   -2096.1887    725.96823   -3422.6107 
18637000    262.40608   -4723.5671   -4217.4949   -4723.5671            0    5954.8238     19.92999    20.095552    20.547916    8229.5255    5901.4109    5241.7944     6721.266    178.06831   -797.53538   -391.98051   -3502.8018 
18638000    255.46034   -4704.4245   -4211.7478   -4704.4245            0     7303.291    20.129123    19.880216    20.591991    8240.3243    7170.0272    8189.6913    6550.1544    24.337819    536.65151    1388.9015   -3334.0625 
18639000    259.01741   -4737.1677   -4237.6308   -4737.1677            0    5896.5904     20.07293    19.974544    20.534985    8233.4538    5237.7989    6879.6872    5572.2852    146.84134    1089.8959    -181.5909    -3529.589 
18640000    261.47804   -4677.1903   -4172.9079   -4677.1903            0    4600.9765    20.210951    19.854813    20.568983    8254.0174    4694.1733     4344.115    4764.6411    147.48897    198.54973   -52.373386    -3619.059 
18641000    255.39373   -4692.4737   -4199.9254   -4692.4737            0    6211.6068    19.920496    19.748176    20.814555    8188.3099    6888.8351    6315.4946    5430.4905    436.78177    900.42245   -846.35772   -3458.1471 
18642000    251.27537   -4670.2487    -4185.643   -4670.2487            0    5553.3908    19.910342    19.915995    20.697293     8207.186    4284.1809    5830.7318    6545.2597   -598.32512    1646.6962   -269.95281   -3520.9388 
18643000    262.56162   -4707.4397   -4201.0676   -4707.4397            0    3684.0281    20.050319     20.03232    20.631176    8286.6029    4624.4823     2667.849    3759.7529    881.40764    2524.5759    228.21282   -3755.8469 
18644000    263.88274   -4706.9304   -4198.0103   -4706.9304            0    4045.8377    20.231117    20.098972     20.47981    8327.5956    4722.2861    3368.0599    4047.1673    29.279909    61.018711    275.43533   -3706.6456 
18645000    267.15648   -4697.5429   -4182.3092   -4697.5429            0    7552.3571    19.945278    20.038696    20.429087    8165.0438    7588.2299    6754.6208    8314.2205    247.79371    265.81515   -459.54568   -3282.9837 
18646000    255.00315   -4715.6833   -4223.8882   -4715.6833            0    4900.2614    20.003221    19.965677    20.598856    8226.7264    4207.7923    6067.5028     4425.489   -458.99534   -43.892682    345.07322   -3635.9629 
18647000    260.23027    -4723.711    -4221.835    -4723.711            0    6575.7188    19.971104    19.953799    20.606799    8211.7967    7206.6948    6074.4867     6445.975    594.44969   -498.55711   -430.71127   -3434.3228 
18648000    251.38061   -4702.7617    -4217.953   -4702.7617            0    5554.3696    19.796283     20.13328    20.744269    8267.9209     7001.213    4480.7675    5181.1283   -152.48721   -621.34942    364.75734   -3548.2119 
18649000    262.04445   -4680.7374   -4175.3626   -4680.7374            0    4783.0746    20.109284    19.781562    20.782126    8266.9855    4146.6811    4547.0047     5655.538   -83.026037    420.18614    136.89675   -3598.6888 
18650000    264.84427   -4716.9753   -4206.2008   -4716.9753            0    6787.1441    19.767722    20.098279    20.607029    8187.1148    7929.5236    5254.8763    7177.0325    270.36057    355.18086     260.5825   -3395.8113 
18651000      272.105    -4673.035   -4148.2576    -4673.035            0    7892.0859    20.176697    19.961358    20.375785    8206.4345    7550.9457    7001.4756    9123.8364    976.14584    586.41333   -170.27629   -3203.7136 
18652000    271.91527   -4689.9418   -4165.5303   -4689.9418            0    6835.9031    20.005327    20.104693    20.350486    8184.9848    8194.8417    5434.7842    6878.0832   -1085.1054   -590.28006   -1595.9031   -3349.5312 
18653000    261.34028   -4706.1139   -4202.0972   -4706.1139            0    7903.0797    19.984397    20.032678    20.494558    8204.8115    8896.3731    8204.2682    6608.5978    15.362209    160.82888   -848.78228   -3256.4245 
18654000    265.64988   -4686.3303   -4174.0022   -4686.3303            0    7265.4592    19.931969    19.985887    20.389967    8122.5078    5273.2525    7917.0146    8606.1104     200.8969    125.30489    108.00529   -3313.3472 
18655000    257.69406   -4688.5661   -4191.5814   -4688.5661            0    7634.9409    19.777949     20.03755    20.637233    8178.5692    7284.0823    8456.2775     7164.463    862.82894    1420.1591    333.87626   -3280.9159 
18656000      250.422   -4692.7617   -4209.8018   -4692.7617            0    4535.6773    20.188256     19.84267    20.576255    8242.6196    3455.6916    6628.7283    3522.6121    596.12773    1401.0237    215.29453   -3664.5674 
18657000    266.95293   -4705.2563   -4190.4152   -4705.2563            0    6058.4144    20.052011    20.074739    20.476049    8242.4061    6538.6342    6595.9282    5040.6809   -295.03245   -171.78567    705.30616   -3462.1511 
18658000    254.02682   -4720.5477   -4230.6356   -4720.5477            0     5545.719    19.932462     20.05936    20.663649    8261.9972    6212.1385    4571.9662    5853.0523    575.99204     532.7199    141.21422   -3562.4166 
18659000    267.84438   -4731.2687   -4214.7083   -4731.2687            0    6473.8493     20.01183    19.836193    20.723978    8226.5599    5269.6288    8858.7229    5293.1961   -545.09942    213.66412   -1047.6127   -3438.0022 
18660000    262.15786   -4684.6822   -4179.0887   -4684.6822            0    6705.0346    19.911766    19.934066    20.518075    8144.0853     6595.147    5909.1714    7610.7852   -14.393596   -484.95408   -408.71252   -3382.7107 
18661000    254.00812   -4703.7652   -4213.8892   -4703.7652            0     4979.052    20.108934    19.948615    20.579748    8255.4708     6982.257     2348.519      5606.38    106.93469    1156.5258    1324.9291   -3614.4234 
18662000    267.55458   -4708.0535    -4192.052   -4708.0535            0     5154.428    20.128332     19.94559    20.663793    8295.9229    7819.7358    3518.4054    4125.1429    248.52088   -1945.5454     360.4303   -3568.4305 
18663000    268.70865   -4695.5789   -4177.3516   -4695.5789            0    7214.0649    19.868125    19.953526    20.551074    8147.2505    5673.1054    8477.7312    7491.3582   -64.243077   -790.05005   -417.49741   -3320.1816 
18664000    249.28677   -4685.0525    -4204.282   -4685.0525            0    5928.1465    19.883234    19.973387    20.679801    8212.6836    6632.7062    5470.2051    5681.5281   -71.971728   -1328.2508   -317.25055   -3494.2468 
18665000    254.68219   -4696.0999   -4204.9239   -4696.0999            0    6907.6134    19.982451    20.009201    20.729086    8288.1697    7212.1947    6630.6367    6880.0088   -170.88253    32.398713    403.81392   -3369.9699 
18666000     270.5271   -4696.2529   -4174.5186   -4696.2529            0    4296.7592    20.075821    20.004808    20.662589    8298.3631    4150.6985    4778.7063    3960.8727    71.004351    457.03002   -601.22155   -3654.5115 
18667000    265.57811   -4698.8747    -4186.685   -4698.8747            0    7144.2862    19.937385    20.029155    20.555735    8208.5002    7973.9179    6634.8792    6824.0615    704.71742    768.81996    2119.7126   -3331.4242 
18668000    277.65886   -4694.1874   -4158.6989   -4694.1874            0    6805.4693     19.86898    19.874973    20.929913    8265.1272    8583.7481    6602.5996    5230.0601   -776.84284    1824.5491    222.91137   -3338.3785 
18669000    272.16572   -4682.4191   -4157.5246   -4682.4191            0    8664.3309     20.00039    19.849191    20.599958    8178.0096    8159.0532    10023.957    7809.9825     578.6455   -94.674573     219.2153   -3124.1482 
18670000    271.80675   -4693.1915   -4168.9893   -4693.1915            0    7506.2964     19.86823    20.198818    20.419447    8194.6252    10056.766    6076.4694    6385.6538   -490.46258   -240.95626    512.97476   -3271.9103 
18671000    260.37686   -4672.0033   -4169.8446   -4672.0033            0    7169.4051    20.167101    20.012277    20.305621    8195.1379    5847.8651    7465.0756    8195.2745    68.025989    30.433378   -352.31476    -3312.974 
18672000    261.73966   -4713.1368   -4208.3498   -4713.1368            0    5247.1134    19.955651    20.227343    20.495046     8272.821    4599.7392    5393.0184    5748.5827    402.23868   -661.53356    1410.7208   -3575.2824 
18673000    252.40173   -4710.1883   -4223.4103   -4710.1883            0    5780.3354    20.087996    19.846333    20.783792    8285.9379    5444.0111    7679.5754    4217.4196    1422.2972   -818.99472    -666.2673   -3524.9035 
18674000    257.74267   -4696.5374   -4199.4589   -4696.5374            0    5877.5698    19.968754    20.083342    20.719667    8309.4012      4921.97     7147.439    5563.3004    637.85964    853.47182   -759.99642    -3487.191 
18675000    265.04256   -4704.6206   -4193.4638   -4704.6206            0    8473.3115    19.959795    19.990713    20.362232    8124.7451    9885.8457    5924.6475    9609.4414    18.325086   -109.06621   -651.01983    -3189.452 
18676000    268.40248   -4738.0795   -4220.4427   -4738.0795            0    7011.9796    19.990288    19.967622    20.486561    8177.3854    6920.6993    6984.0898    7131.1496    498.89027   -629.04753   -103.13835   -3384.2026 
18677000    268.05786   -4693.6548   -4176.6827   -4693.6548            0    7792.6331    19.825106    19.756283    20.835919    8160.8131    8048.6239     9198.395    6130.8803    577.16148   -616.62745    -135.2419   -3249.2262 
18678000    266.46944   -4706.7085   -4192.7998   -4706.7085            0    5896.3912    20.102948     19.85821    20.695618    8261.8681    6184.6815    5653.1038    5851.3882    -635.2961      994.875    1809.8159   -3482.3385 
18679000    271.61094   -4684.5801   -4160.7555   -4684.5801            0    7563.9282    20.071847    20.107196    20.422718    8242.3754    7894.7226    6926.8911     7870.171   -68.737629   -350.59065   -220.81371   -3251.5215 
18680000    270.16902   -4702.7024   -4181.6587   -4702.7024            0    4547.1104    20.063135     19.95757     20.73522    8302.6188    5283.3577    4117.5037    4240.4698   -470.00166    -77.48084   -750.01858    -3631.071 
18681000    258.76049   -4700.3135   -4201.2722   -4700.3135            0    6192.3966    20.084604    19.882531    20.775134     8296.192     4314.943    8781.5655    5480.6814    68.325332    419.37912   -576.60562   -3452.0451 
18682000    260.31752   -4702.0337   -4199.9895   -4702.0337            0    7217.4648    19.864841    20.051986    20.655805    8227.8164    7412.2295    7795.1488     6445.016   -315.50549   -256.78403   -429.01033   -3333.9351 
18683000     253.8361   -4718.2526   -4228.7084   -4718.2526            0    4470.2697     20.15898    19.945368    20.569385    8270.5027    4036.1638    3700.3724    5674.2728    47.208201    32.788987    57.225168   -3689.5188 
18684000    247.99488   -4693.5094   -4215.2304   -4693.5094            0    6297.2151    19.778637    19.907772     20.80812    8193.1677    7165.4286    6376.2151    5350.0015   -940.32202    592.38619   -340.97608   -3462.7828 
18685000    274.76192   -4692.7303   -4162.8288   -4692.7303            0    6608.2708    19.979844    19.814354    20.686489    8189.5267    5950.0598    7306.6733    6568.0794    885.36282     1723.034   -1126.1466   -3373.5644 
18686000    260.35862   -4663.1041   -4160.9806   -4663.1041            0    5326.3023    20.010983    20.149956     20.64318     8323.752     6933.664    4509.3944    4535.8486    158.22043    682.39021    1134.7013   -3514.4027 
18687000    255.73898   -4700.1001    -4206.886   -4700.1001            0    6562.5287    20.139538    19.955712     20.44783    8217.9587    6334.9038    5960.8943     7391.788   -162.71312    1296.3768    761.92268   -3420.3637 
18688000    264.21859   -4688.5672   -4178.9995   -4688.5672            0    6291.1922    19.875487    19.994167    20.689362    8221.8242    5730.4904    6926.9006    6216.1855   -362.72988   -613.55771     13.59228   -3424.6423 
18689000    255.94621   -4713.0633   -4219.4495   -4713.0633            0    5185.2489    19.898362    19.903976    20.684796    8192.3483    5060.7528    4892.3048    5602.6892    86.499765    1375.4898    1122.2274   -3599.9316 
18690000    274.95221   -4675.2256   -4144.9571   -4675.2256            0    8308.4304    20.057149    19.859917    20.543783     8183.273    7752.8172    9476.0207    7696.4533    187.89842    1181.9001    87.648903   -3153.3904 
18691000    273.20173    -4716.695   -4189.8025    -4716.695            0    5392.3233    19.855329    20.262925    20.462566    8232.6435    5925.0636    4530.8294     5721.077   -160.95878     1262.077    650.80323   -3542.3751 
18692000    268.35781   -4695.3969   -4177.8463   -4695.3969            0    7198.8595    19.985563    19.879471    20.605259    8186.5197     8781.324    6424.5646      6390.69    107.98833   -699.38893   -191.18243   -3318.3601 
18693000    265.91691   -4700.2966   -4187.4535   -4700.2966            0    6387.6172    19.977021    19.908235     20.75454    8254.2304    6295.4549    5954.5752    6912.8215     704.3197   -1576.7289    271.03801   -3418.5154 
18694000      270.301   -4680.4563   -4159.1581   -4680.4563            0    8143.0092    19.783448    19.725967     20.97614    8185.8892    8223.8957    7890.7629     8314.369    79.143639   -540.42838    2144.1057   -3187.0229 
18695000    252.07814   -4661.6522   -4175.4984   -4661.6522            0    9723.1968     19.94069    19.859712    20.432178    8091.4771    9592.1976    10329.006    9248.3866    109.26967    104.64184   -3114.5073   -3028.1038 
18696000    264.08236   -4709.5258   -4200.2208   -4709.5258            0    6501.7704    20.121801    20.123448    20.399075    8259.9941    5169.0553    5932.5758      8403.68    80.264188    1433.9586   -212.89209   -3416.9945 
18697000    253.31811   -4678.2509   -4189.7056   -4678.2509            0    5878.3162     19.82702    19.918146    20.739549    8190.4104     5767.295    6834.7827    5032.8709    337.40312    517.36645    76.377182   -3487.5482 
18698000    264.05159   -4695.8991   -4186.6534   -4695.8991            0     6253.857    19.991118    19.872042    20.696238     8221.877    6416.5617    6307.6689    6037.3404    521.50393   -718.43587   -2.1650497   -3436.7681 
18699000    270.77706   -4681.8297   -4159.6133   -4681.8297            0    7479.6214    20.102392    19.916775    20.424773    8177.5649    7549.2416    5787.0888    9102.5337     434.0601    767.33027     1902.036   -3267.5833 
18700000    251.08599   -4690.6929   -4206.4524   -4690.6929            0    6885.7935    19.838708     20.03377    20.884459    8300.4051    5796.3654    10081.621    4779.3937    330.56837   -2112.2217    1368.1363   -3372.9072 
18701000     261.4832   -4703.9989   -4199.7066   -4703.9989            0    5727.9926    19.933466    19.930827     20.79392     8261.226    4186.3675    6230.3392     6767.271    473.16509   -168.26188   -27.375667   -3509.5894 
18702000     270.8357   -4707.7748   -4185.4454   -4707.7748            0    5350.7289    19.978367    20.082768    20.508716    8228.5254    4353.7661    6288.2525    5410.1683   -300.16706   -658.45365    -634.5347   -3543.3333 
18703000    256.48324    -4706.273   -4211.6235    -4706.273            0    7658.0252    20.036251    19.997901    20.428991    8185.5485    7417.9658    7536.6915    8019.4184    528.49786     1499.267    412.60784   -3297.4251 
18704000    261.52337   -4725.9752   -4221.6054   -4725.9752            0    5225.6806    20.030567    20.020387    20.641126    8277.4982    4467.0659     5984.283    5225.6928    14.169391   -866.61189   -1297.9178   -3590.7674 
18705000    253.87752   -4721.7344   -4232.1103   -4721.7344            0    6526.9196    19.819347     19.93676    20.796343    8217.3331    8182.3593    5163.4345    6234.9652    134.97586    1105.7688      1068.86   -3449.9153 
18706000     253.8185    -4700.349   -4210.8386    -4700.349            0    7170.2209    20.036926    19.766244    20.647511    8177.5452     7355.991    7316.1613    6838.5104     920.8118   -1598.6189    371.68522   -3355.7101 
18707000    266.40474   -4707.2383   -4193.4543   -4707.2383            0     4882.133    20.025104    20.082422    20.560031    8268.2695    4055.8055    6575.1219    4015.4715    129.61132    962.43105    782.58731   -3604.7461 
18708000    262.71203   -4691.5705   -4184.9082   -4691.5705            0    6388.9768    20.060019    19.989335    20.501588    8220.8587    7137.1977    7455.3623    4574.3703   -188.56359   -465.38998   -1154.4718    -3418.916 
18709000    256.89862   -4692.9018   -4197.4512   -4692.9018            0    7100.0021    20.039318    20.011503    20.399354    8180.4849    5561.8601    6155.9722    9582.1739   -461.92093    1763.5222   -243.59924   -3350.3927 
18710000    272.71311   -4686.1847   -4160.2345   -4686.1847            0     5642.741    20.082977    19.862099    20.574488    8206.9589    5593.4511    5094.0554    6240.7165    223.84089   -395.71965    99.671142   -3484.8544 
18711000    269.18822   -4697.0232    -4177.871   -4697.0232            0    6842.0952    19.805126    19.963848    20.581601     8137.688    6638.5162    7117.6544     6770.115    503.56845    30.184257    -660.8342   -3365.8523 
18712000    262.26064   -4699.7162   -4193.9245   -4699.7162            0    6175.3223      20.0226    19.891963    20.657269    8227.5594    6617.1393    6189.6991    5719.1284    156.20946   -252.73202   -979.51343   -3452.9444 
18713000    280.60173   -4705.7043   -4164.5402   -4705.7043            0    6362.2809    19.785634     20.14811    20.627405    8222.9732    6798.0198    6905.9202    5382.9028   -180.58495    854.99643    57.462044   -3401.5524 
18714000    267.39134   -4694.4539   -4178.7672   -4694.4539            0    7109.6819    20.017017     19.96495    20.473081    8181.8361    5156.7963    8530.0889    7642.1606   -574.84875    536.06426   -80.464988   -3330.4137 
18715000     254.4887   -4734.0934   -4243.2905   -4734.0934            0    5436.0193    19.909857    20.066828    20.551246    8210.7914    5846.8441    5262.5576    5198.6561   -663.99453   -662.34525    407.03894   -3592.3491 
18716000     258.1542   -4704.6511    -4206.779   -4704.6511            0    6595.8223    20.068283     19.75888    20.693672    8205.5951    5563.4472    7610.2001    6613.8197     539.6382    932.70984   -1391.8859   -3417.4557 
18717000    243.53908   -4691.4417   -4221.7561   -4691.4417            0    6309.0543    20.110392    19.928962    20.484736    8209.8567    5067.9578    7002.7189    6856.4864   -247.64194   -231.11563   -1946.2163   -3466.3583 
18718000     270.4262   -4687.9513   -4166.4116   -4687.9513            0    6791.9821    20.109896    20.179288     20.24433    8215.2178    6860.8156    4943.8095    8571.3212   -53.435808   -935.99649   -279.14318   -3352.6607 
18719000    268.74096   -4694.3289   -4176.0393   -4694.3289            0    5514.8969    20.076566    19.891829    20.537721    8201.9361    3506.3394     7691.246    5347.1052    27.096133    2264.9772    -362.7492   -3516.3649 
18720000    258.57405   -4725.3997   -4226.7179   -4725.3997            0    7194.3823    20.009569     19.66324    20.873562    8212.7647    8197.9385    7130.1121    6255.0964    423.06677    1399.5675    27.636144   -3365.0125 
18721000    275.70759   -4719.4958   -4187.7705   -4719.4958            0    6966.2559    19.867934    19.807583    20.687983    8141.4606    8702.9082    5847.6012    6348.2584    165.84362    288.31965    622.97309   -3360.6331 
18722000    261.91978   -4723.6227   -4218.4883   -4723.6227            0    6769.6542    19.998169    20.004649    20.543231    8218.4503    6414.2815    7340.5814    6554.0997    60.226267    29.885615   -221.56888   -3407.0934 
18723000     261.4351   -4708.3338   -4204.1342   -4708.3338            0    6039.1488    20.114195    20.165044    20.199115    8192.8341    5333.2306    5556.7366    7227.4792   -768.72816   -197.03243   -371.11426    -3482.552 
18724000    255.03476   -4683.3358   -4191.4798   -4683.3358            0    6847.1282    19.905707    19.905769    20.602584    8163.5349     7119.592    6040.7138    7381.0789    245.79753    1275.8049     402.5982   -3376.2828 
18725000     262.0506   -4721.9791   -4216.5925   -4721.9791            0    6378.2007    19.727304    20.037008    20.667162     8169.236    7153.2935    6328.2101    5653.0985   -152.26122   -925.89802      383.572   -3456.6941 
18726000    269.17786   -4719.4517   -4200.3195   -4719.4517            0     5749.994    19.827869    20.093825     20.70073     8247.538    6109.4849     4828.192     6312.305    -692.0542   -1575.6543    450.24718   -3508.6994 
18727000    273.63551   -4656.0895   -4128.3604   -4656.0895            0    6297.7269    19.828779    20.079417    20.686304    8236.2585    5942.1311    7329.9625     5621.087   -416.18544    255.06841   -976.68746    -3371.894 
18728000    269.69821   -4682.2852   -4162.1495   -4682.2852            0    6612.0699     20.09588    19.745894    20.683057    8207.2668    6601.5721    7236.7186    5997.9189    431.90864    146.50602   -344.42456   -3370.7207 
18729000    271.49469   -4703.1985   -4179.5982   -4703.1985            0    6736.7405    19.918685    20.098067    20.570931    8235.1004    9232.6116    5119.0525    5858.5575   -185.11033   -662.99002    526.27365   -3370.5123 
18730000    263.53873   -4661.9436    -4153.687   -4661.9436            0    5690.8412    19.933761    19.957595    20.896781    8313.3647    7927.6789    4770.6225    4374.2222   -559.77635   0.19584144   -541.06362   -3463.7186 
18731000    265.37237   -4678.7602   -4166.9673   -4678.7602            0    8135.3293    20.082547     19.82186    20.700004    8240.1222    7941.7147    8304.2882     8159.985    -466.6871    555.08882    638.26599   -3189.3144 
18732000    260.37023    -4689.222   -4187.0761    -4689.222            0    7276.1601    20.032435    19.922674    20.555946    8203.8714    7087.1689    7559.8425    7181.4689    254.43821    -1774.683   -798.45179   -3316.5196 
18733000    261.21746   -4693.8729   -4190.0931   -4693.8729            0    7897.5362    19.958681    19.851394    20.475446    8112.5282    6998.0576     8864.748    7829.8031    202.88522    828.21511   -1677.2137   -3255.7126 
18734000    274.50325   -4695.0484   -4165.6458   -4695.0484            0    6535.8815     19.88049    20.079074    20.529175    8194.8737    7342.6508    4595.7228    7669.2708   -791.44736   -491.23065    -81.38565   -3384.5176 
18735000    256.15702   -4720.7277   -4226.7073   -4720.7277            0    4101.5214     20.20895    19.766238    20.664172    8254.4049    3394.9277    5140.6736    3768.9628   -425.02955    212.51183    84.763021   -3732.9579 
18736000    264.47731   -4725.0053   -4214.9386   -4725.0053            0    6164.6333    19.844208    20.271307    20.472196    8235.3099    8099.5733    2565.5807    7828.7459     40.13066    -2436.857     103.5213   -3474.5443 
18737000    256.53494   -4688.8001   -4194.0509   -4688.8001            0    6951.7803    20.060055    19.927898    20.604237    8236.6414    5144.2274    8880.1345    6830.9789   -296.54756    470.96366   -1643.5534   -3358.9824 
18738000    271.25376   -4686.7652   -4163.6295   -4686.7652            0    7744.7814    19.812446     20.08021    20.582559    8188.5259    10132.084    6133.9026    6968.3575    223.29523    1897.4379   -267.91254    -3238.738 
18739000    256.41861   -4685.4566   -4190.9317   -4685.4566            0     6457.211    20.032461    19.793118    20.608374    8171.3201    6806.0002    7179.0855    5386.5475   -671.80977    989.99538    -850.6036   -3421.4238 
18740000    256.66595   -4667.2678   -4172.2659   -4667.2678            0    6634.3154    19.667388    20.091093    20.896336    8256.9643    7014.9747    6468.9708    6419.0008   -612.27255    1148.7466    2069.7182   -3373.3659 
18741000    246.92282   -4678.2083   -4201.9969   -4678.2083            0    6292.5725    20.010075    20.060125    20.525813    8239.1556    6929.3576    5552.2414    6396.1184    105.81687   -1253.7127   -162.95085   -3445.8837 
18742000    263.49462   -4696.0293   -4187.8577   -4696.0293            0    4982.0073    20.186005     20.17677    20.319518    8275.9031    5747.8275    3022.8072    6175.3871    527.56582    246.11019   -726.08995   -3586.5516 
18743000    272.58832   -4686.0913   -4160.3818   -4686.0913            0    6344.2872    20.105918      19.8667     20.63584     8242.744     6627.562    6839.3068    5565.9929    -473.2518   -1171.2254   -188.60112   -3397.7225 
18744000    268.15182    -4683.611   -4166.4576    -4683.611            0    7680.5054    19.812573    19.870218    20.656787    8132.1668    9145.9342    5924.8388    7970.7433    1037.3717    838.46833   -353.57454    -3255.555 
18745000    272.08089   -4672.3577   -4147.6268   -4672.3577            0    5654.6417     19.94996    19.953407    20.745439    8258.1302    6081.2307     6251.575    4631.1194   -133.75212    609.34905    -892.0715   -3466.6023 
18746000    270.14146   -4685.4965    -4164.506   -4685.4965            0    8184.6806    20.038099    19.829588    20.543486    8162.8973    8882.0207    7755.3212       7916.7    28.608118     373.6476    1293.2737   -3190.1404 
18747000     265.1126   -4708.5268   -4197.2349   -4708.5268            0    6973.6365    19.801286    20.157644    20.510352    8186.6511    6009.2567    6768.6441    8143.0086   -14.580379   -821.51587   -91.229713   -3364.6252 
18748000     271.8297   -4692.8415    -4168.595   -4692.8415            0    4947.7651    20.145803    19.877175    20.610191    8253.1789    5443.0564    5112.1404    4288.0985    123.80432   -151.50975   -570.39827   -3573.0615 
18749000    258.80114   -4711.9101   -4212.7903   -4711.9101            0    5828.0067    20.152825    19.563693    20.683096    8154.5936    4711.7337    7599.3673     5172.919    -233.2486    55.956087    836.70116   -3519.6866 
18750000     267.0601   -4662.5381   -4147.4902   -4662.5381            0    6456.2774     19.99658    20.175664    20.530408    8282.8758    7922.4401    4306.1019    7140.2902    274.71106    951.69209    542.20541   -3367.5897 
Loop time of 527.17 on 64 procs for 250000 steps with 972 atoms

Performance: 81.947 ns/day, 0.293 hours/ns, 474.230 timesteps/s
193.1% CPU use with 32 MPI tasks x 2 OpenMP threads

MPI task timing breakdown:
Section |  min time  |  avg time  |  max time  |%varavg| %total
---------------------------------------------------------------
Pair    | 29.023     | 36.141     | 41.946     |  59.4 |  6.86
Bond    | 0.84356    | 1.155      | 1.4798     |  14.7 |  0.22
Kspace  | 232.43     | 238.76     | 246.43     |  28.3 | 45.29
Neigh   | 2.5764     | 2.9686     | 3.4483     |  12.7 |  0.56
Comm    | 111.96     | 122.99     | 131.3      |  33.4 | 23.33
Output  | 0.58848    | 0.58902    | 0.59435    |   0.1 |  0.11
Modify  | 100.38     | 103.84     | 108.53     |  21.3 | 19.70
Other   |            | 20.72      |            |       |  3.93

Nlocal:        30.3750 ave          35 max          26 min
Histogram: 1 5 3 2 4 6 6 0 4 1
Nghost:        2603.38 ave        2628 max        2580 min
Histogram: 2 1 2 3 8 9 2 4 0 1
Neighs:        9495.50 ave       11501 max        7482 min
Histogram: 1 2 7 5 4 2 1 4 3 3

Total # of neighbors = 303856
Ave neighs/atom = 312.60905
Ave special neighs/atom = 2.0000000
Neighbor list builds = 8072
Dangerous builds = 0

unfix		3
unfix		2
unfix		1

write_data	data.final.${pid}
write_data	data.final.0
System init for write_data ...
PPPM initialization ...
  extracting TIP4P info from pair style
  using 12-bit tables for long-range coulomb (../kspace.cpp:340)
  G vector (1/distance) = 0.37136982
  grid = 24 24 24
  stencil order = 5
  estimated absolute RMS force accuracy = 0.0036107593
  estimated relative force accuracy = 1.0873694e-05
  using double precision FFTW3
  3d grid and FFT values/proc = 3211 432
Last active /omp style is kspace_style pppm/tip4p/omp
WARNING: Not all mixed pair coeffs generated from mixing. Use write_data with 'pair ij' option to store all pair coeffs. (../write_data.cpp:312)

write_restart   restart.lmp.${pid}
write_restart   restart.lmp.0
System init for write_restart ...
PPPM initialization ...
  extracting TIP4P info from pair style
  using 12-bit tables for long-range coulomb (../kspace.cpp:340)
  G vector (1/distance) = 0.37136982
  grid = 24 24 24
  stencil order = 5
  estimated absolute RMS force accuracy = 0.0036107593
  estimated relative force accuracy = 1.0873694e-05
  using double precision FFTW3
  3d grid and FFT values/proc = 3211 432
Last active /omp style is kspace_style pppm/tip4p/omp
Total wall time: 0:08:47
