LAMMPS (30 Jul 2021)
Processor partition = 1
  using 2 OpenMP thread(s) per MPI task
using multi-threaded neighbor list subroutines
variable        pid world 0 1
variable        phase world IceII IceIh

shell cd ${phase}
shell cd IceIh
include Restart.lmp
echo both
log log.lammps
#include		in.partitions
include		in.temp
variable        temperature equal 132.60
variable	tempDamp equal 100.0
include		in.pressure
variable        pressure equal 2054.1
variable        pressureDamp equal 1000.0 # This is 1 ps
include		in.seed
variable        seed equal 745823

units		real
atom_style	full
#include		in.box
read_restart	restart.lmp.${pid}
read_restart	restart.lmp.1
Reading restart file ...
  restart file = 30 Jul 2021, LAMMPS = 30 Jul 2021
  restoring atom style full from restart
  orthogonal box = (0.11206227 0.062785242 0.23864388) to (18.095510 23.566393 21.974552)
  2 by 4 by 4 MPI processor grid
  restoring pair style lj/cut/tip4p/long/omp from restart
  restoring bond style harmonic/omp from restart
  restoring angle style harmonic/omp from restart
  864 atoms
  576 bonds
  288 angles
Finding 1-2 1-3 1-4 neighbors ...
  special bond factors lj:    0        0        0       
  special bond factors coul:  0        0        0       
     2 = max # of 1-2 neighbors
     1 = max # of 1-3 neighbors
     1 = max # of 1-4 neighbors
     2 = max # of special neighbors
  special bonds CPU = 0.002 seconds
  read_restart CPU = 0.007 seconds
include 	in.setup
variable	out_freq equal 1000
variable	out_freq2 equal 10000
variable	out_freq3 equal 1000

timestep	2.0

neigh_modify    delay 7 every 1

include		in.tip4p
# This is TIP4P/Ice

# create groups ###
group ox type 2
288 atoms in group ox
group hy type 1
576 atoms in group hy

# set charges - beside manually ###
set group ox charge -1.1794
Setting atom values ...
  288 settings made for charge
set group hy charge 0.5897
Setting atom values ...
  576 settings made for charge

# ### TIP3P Potential Parameters ###
pair_style lj/cut/tip4p/long/omp 2 1 1 1 0.1577 8.5
pair_coeff 1 1*2 0.000 0.000
pair_coeff 2 2 0.21084 3.1668
bond_style  harmonic
bond_coeff  1 450 0.9572
angle_style harmonic
angle_coeff 1 55 104.52
kspace_style pppm/tip4p/omp 1.0e-5
pair_modify tail yes

thermo          ${out_freq}
thermo          1000
thermo_style    custom step temp pe etotal epair emol press lx ly lz vol pxx pyy pzz pxy pxz pyz enthalpy

restart 	${out_freq3} restart.lmp.${pid} restart2.lmp.${pid}
restart 	1000 restart.lmp.${pid} restart2.lmp.${pid}
restart 	1000 restart.lmp.1 restart2.lmp.${pid}
restart 	1000 restart.lmp.1 restart2.lmp.1


include         in.dump
dump            myDump all atom ${out_freq2} dump.water.${pid}
dump            myDump all atom 10000 dump.water.${pid}
dump            myDump all atom 10000 dump.water.1
dump            myDump2 all dcd ${out_freq2} dump.dcd
dump            myDump2 all dcd 10000 dump.dcd
dump_modify     myDump append yes
dump_modify     myDump2 append yes


variable natoms 	equal  "count(all)"                        # NUMBER ATOMS
variable H      	equal  "enthalpy/v_natoms"                 # ENTHALPY-per-atom
variable Vol      	equal  "vol/v_natoms"                 # volume-per-atom
fix AVG all 		ave/time ${out_freq} 1 ${out_freq} v_Vol v_H file vol_enthalpy.dat
fix AVG all 		ave/time 1000 1 ${out_freq} v_Vol v_H file vol_enthalpy.dat
fix AVG all 		ave/time 1000 1 1000 v_Vol v_H file vol_enthalpy.dat


timer           timeout 23:50:00 every 1000
New timer settings: style=normal  mode=nosync  timeout=23:50:00

fix 		1 all shake 1e-6 200 0 b 1 a 1
Finding SHAKE clusters ...
       0 = # of size 2 clusters
       0 = # of size 3 clusters
       0 = # of size 4 clusters
     288 = # of frozen angles
  find clusters CPU = 0.000 seconds
fix             2 all nph aniso ${pressure} ${pressure} ${pressureDamp}
fix             2 all nph aniso 2054.1 ${pressure} ${pressureDamp}
fix             2 all nph aniso 2054.1 2054.1 ${pressureDamp}
fix             2 all nph aniso 2054.1 2054.1 1000
fix             3 all temp/csvr ${temperature} ${temperature} ${tempDamp} ${seed}
fix             3 all temp/csvr 132.6 ${temperature} ${tempDamp} ${seed}
fix             3 all temp/csvr 132.6 132.6 ${tempDamp} ${seed}
fix             3 all temp/csvr 132.6 132.6 100 ${seed}
fix             3 all temp/csvr 132.6 132.6 100 745823


run             250000
PPPM initialization ...
  extracting TIP4P info from pair style
  using 12-bit tables for long-range coulomb (../kspace.cpp:340)
  G vector (1/distance) = 0.37206739
  grid = 24 27 25
  stencil order = 5
  estimated absolute RMS force accuracy = 0.0031117819
  estimated relative force accuracy = 9.3710388e-06
  using double precision FFTW3
  3d grid and FFT values/proc = 4410 672
Last active /omp style is kspace_style pppm/tip4p/omp
Neighbor list info ...
  update every 1 steps, delay 7 steps, check yes
  max neighbors/atom: 2000, page size: 100000
  master list distance cutoff = 10.8154
  ghost atom cutoff = 10.8154
  binsize = 5.4077, bins = 4 5 5
  1 neighbor lists, perpetual/occasional/extra = 1 0 0
  (1) pair lj/cut/tip4p/long/omp, perpetual
      attributes: half, newton on, omp
      pair build: half/bin/newton/omp
      stencil: half/bin/3d
      bin: standard
Setting up Verlet run ...
  Unit style    : real
  Current step  : 21750000
  Time step     : 2
  Walltime left : 23:49:59.93
Per MPI rank memory allocation (min/avg/max) = 10.21 | 10.22 | 10.23 Mbytes
Step Temp PotEng TotEng E_pair E_mol Press Lx Ly Lz Volume Pxx Pyy Pzz Pxy Pxz Pyz Enthalpy 
21750000     133.7756   -4479.6592   -4250.3724   -4479.6592            0    2210.8417    17.983448    23.503607    21.735908    9187.2444    1872.5764    1779.9713    2979.9773   -497.61936   -199.65131     1116.413   -3954.1494 
21751000    137.68089    -4500.706   -4264.7256    -4500.706            0     2669.007    18.121983    23.058804    21.960096    9176.4928    2287.9606    3169.9983    2549.0621    356.37957    409.17211    777.22212   -3907.5331 
21752000    132.86802   -4500.8227   -4273.0915   -4500.8227            0    1527.4098    17.888697    23.409688    22.023221    9222.6377    2042.5234    2115.0154    424.69066   -447.01068    92.441153    261.47751   -4067.6507 
21753000    132.74489   -4500.6977   -4273.1775   -4500.6977            0    2364.2214    17.995054    23.204274    21.991158    9182.6758     2309.351    2951.7344    1831.5789   -220.08225    -447.3489    461.79133   -3956.5612 
21754000    127.01812   -4513.0933   -4295.3886   -4513.0933            0    767.55681    17.971423    23.346227    22.004007    9232.1094    1037.6558    1308.9534   -43.938869   -310.92529    93.027471    87.328954   -4192.0441 
21755000    130.87887   -4490.8472   -4266.5253   -4490.8472            0    531.03522    17.963667    23.439577     22.03232    9276.9454    1058.4629    1289.8361   -755.19334   -137.08603    30.462762     162.6515    -4194.679 
21756000    136.84769   -4497.0343    -4262.482   -4497.0343            0    2408.8209    18.027214      23.3885    21.847242    9211.4417    3076.9565    1690.2384    2459.2679    401.17611   -113.38511    516.50013   -3938.8824 
21757000    128.01049   -4488.2466    -4268.841   -4488.2466            0    2877.7051    17.993189    23.456757    21.691341     9155.088    2176.2439    3785.8803    2670.9909   -509.38174    18.706425   -472.76967   -3884.6169 
21758000     135.4666   -4496.9725   -4264.7874   -4496.9725            0    2164.0696    17.995461    23.256837    22.027164    9218.7539    2115.3382    2458.5196    1918.3509    120.75511   -101.40582   -78.578579   -3973.8367 
21759000    145.25045   -4499.6382   -4250.6839   -4499.6382            0    2303.1787    17.867375    23.220287    22.147815    9188.8092     2623.953    3996.3608    289.22223    849.85479    142.99169    124.47441   -3942.0364 
21760000    133.06404   -4496.7703   -4268.7031   -4496.7703            0    1990.4136    17.870042    23.406548    22.010823     9206.599    1201.4608    3308.7661    1461.0139   -98.051835   -656.83742    387.94779   -4001.4527 
21761000    132.67404   -4497.9856   -4270.5868   -4497.9856            0    3414.3614    18.121191    23.139651    21.785062    9134.8691    1301.5516     5033.387    3908.1455   -306.72749   -444.11604     465.0511   -3815.7164 
21762000     137.6294   -4482.2563   -4246.3642   -4482.2563            0    2187.5109    17.959071    23.297565    21.980174    9196.5626    1754.9784    2700.8362    2106.7181   -520.77944   -509.87937   -351.83305     -3952.97 
21763000    134.07279   -4488.2244   -4258.4282   -4488.2244            0    1482.7772    17.783735    23.420687    22.103094    9206.0996    1345.0919    1242.1466    1861.0932   -733.58837    69.960099   -440.21842   -4059.3483 
21764000    128.69193   -4503.7738   -4283.2002   -4503.7738            0    2917.3174    18.025424    23.199035    21.925345    9168.5751     1494.774    3039.6989    4217.4794    262.00202   -372.81721   -649.52169   -3893.1133 
21765000    136.37133   -4501.2665   -4267.5307   -4501.2665            0    3389.2858     17.87722    23.345138    21.880686    9131.8207    3311.9213    3199.5511    3656.3849    74.444401    35.040923   -212.80428   -3816.1516 
21766000    138.97407   -4508.3784   -4270.1816   -4508.3784            0    2756.2658     17.85077    23.286577    22.059802    9169.8916    3456.1479    3164.2482    1648.4012    682.48018    450.70114   -89.110156   -3901.5766 
21767000    133.49503   -4496.3321   -4267.5262   -4496.3321            0    1726.4659    18.053925    23.287052     21.91998    9215.6572     892.8042       1060.5    3226.0936    632.02337   -109.74502    210.27403   -4035.4876 
21768000    127.34484   -4503.8674   -4285.6027   -4503.8674            0    2603.7248    17.910342    23.582702    21.691879    9162.0912    3430.1901    2098.3616    2282.6226   -349.42258   -371.59591    294.94522   -3937.6938 
21769000    136.33212   -4507.7514   -4274.0828   -4507.7514            0    1265.9672    18.029132    23.395564    21.918825    9245.3982    726.77273    219.67518    2851.4536   -916.98547   -334.06763    24.160702   -4103.3865 
21770000    126.92363   -4501.1095   -4283.5668   -4501.1095            0    1437.6054    17.970755    23.302888    22.010958    9217.5395    1825.9091    1084.9657    1401.9413   -774.92778   -85.130579    57.013023   -4090.3118 
21771000    131.41328   -4509.3784   -4284.1405   -4509.3784            0    2115.2955    17.815721    23.425954    22.010064    9185.9057    2631.5987    1708.5915    2005.6963   -82.062527   -139.39173   -410.87069   -4000.7607 
21772000    136.80717   -4492.8922   -4258.4094   -4492.8922            0     2867.108    17.872607    23.148936    22.105251    9145.6462    3348.1614    2022.6472    3230.5153    1077.4922    377.73213   -329.04503   -3875.9949 
21773000    131.69559   -4511.0571   -4285.3353   -4511.0571            0    1876.0434    18.036667    23.132187     22.07082    9208.5543    1932.5441    1883.1404    1812.4459    -169.5498   -447.81624    83.288295   -4033.3877 
21774000    138.09816   -4478.2183   -4241.5227   -4478.2183            0    2897.8556    17.818203    23.516751    21.865652     9162.282    3202.1214    1627.7199    3863.7256    -20.61738    139.73717    381.50768   -3854.3041 
21775000    128.54767    -4487.852   -4267.5257    -4487.852            0    2000.4818    17.983413    23.371505    21.821252    9171.4593    1729.3271    2147.0717    2125.0467   -431.27366   -195.98823   -92.880458   -3999.9486 
21776000    135.65388    -4486.875   -4254.3689    -4486.875            0    1782.7057     18.05116    23.347288    21.842418    9205.3916    1926.9709    1683.1285    1738.0177   -629.75263    -15.80102    71.386393   -4015.0385 
21777000     135.0246   -4490.8965   -4259.4689   -4490.8965            0    2448.6079    17.849728    23.504924     21.87329    9177.0811    2902.7522     2199.451    2243.6204    116.53268   -128.75593     256.6142   -3931.7514 
21778000    125.20632   -4495.2651   -4280.6658   -4495.2651            0    1616.4303    17.964654    23.362098    21.995138    9231.1835    1164.4919    2845.7914    839.00758   -407.81372   -128.01891    138.99505   -4063.0501 
21779000    122.92946   -4497.6173   -4286.9204   -4497.6173            0    1418.2426    18.057957    23.086807    22.099348    9213.2306    1771.1272    2890.1876   -406.58687   -315.02397   -263.46391   -8.8990662   -4096.3575 
21780000    133.51233   -4490.3358   -4261.5003   -4490.3358            0    1397.4175    17.896472    23.399632    22.027954    9224.6652    606.35397    1449.2815    2136.6169   -598.84534    657.03758    104.90519   -4073.5025 
21781000     131.3485   -4477.7758    -4252.649   -4477.7758            0    1542.4691    18.063439    23.342209    21.944812    9252.8233    977.87904    2697.3231    952.20527   -851.32297    650.11517   -14.590351   -4044.5036 
21782000    130.06278   -4484.6634   -4261.7402   -4484.6634            0    1521.9255    18.012883    23.288226    22.020053      9237.15     1917.411    1978.6519    669.71364    801.94158    447.99467   -107.96664    -4056.715 
21783000    133.65297   -4496.8151   -4267.7385   -4496.8151            0    2095.0626    17.913666    23.407702    21.896584    9181.6267    1959.4375    1568.9104      2756.84    783.43201   -365.86911   -29.336487      -3987.2 
21784000    127.64714   -4502.1697   -4283.3869   -4502.1697            0    1852.1345      18.0381    23.209808    22.007074    9213.4998     1317.434    2359.4042    1879.5652   -127.23849   -402.51026   -167.66815   -4034.5166 
21785000    125.83091   -4501.7519    -4286.082   -4501.7519            0    2826.2851     17.93738    23.223009    21.981512    9156.6174    2545.8223    2499.7913    3433.2417    160.55458   -118.41015     -109.432   -3908.6603 
21786000    127.25094   -4499.1409   -4281.0371   -4499.1409            0    2407.7079    17.846974     23.38696    21.922702    9150.2393    2315.9544    1675.5941    3231.5753   -60.620876    269.90451    796.90348   -3959.7361 
21787000     133.7031   -4493.8113   -4264.6488   -4493.8113            0    1749.8873     18.10606    23.245811    21.862322    9201.6335    1904.7567    1465.8364    1879.0688   -114.16271    282.94889    108.37977   -4029.8202 
21788000    139.27397    -4506.611   -4267.9002    -4506.611            0    2546.6929    17.977161    23.374415    21.787177    9155.0942    2859.2479    2756.9344    2023.8964    253.79783    460.63942   -35.296358   -3927.8717 
21789000    133.15244   -4494.0493   -4265.8306   -4494.0493            0    2384.9208    17.937534    23.517774    21.733663    9168.3648    2656.9506    1744.8632    2752.9486    -227.6027   -443.96563   -134.90303     -3946.94 
21790000    128.38376    -4494.079   -4274.0336    -4494.079            0    1747.1717    18.076691      23.2595    21.862949    9192.3812    1762.0517    102.68883    3376.7747   -8.6177024    358.44829   -61.129257   -4039.8053 
21791000    126.73283   -4490.4866   -4273.2709   -4490.4866            0    2199.5959     17.88525    23.386757    21.973439    9191.0058    2969.3582    1773.5608    1855.8687   -956.65546    370.99428    329.54932    -3978.434 
21792000    131.57577   -4500.7028   -4275.1865   -4500.7028            0    1669.9074    17.856299    23.362199    22.049173    9198.0865    2871.0976    1578.7314     559.8933    273.99412   -38.679691    47.697014   -4051.1773 
21793000    135.24734   -4497.7227   -4265.9134   -4497.7227            0    2341.8055    18.051868     23.23603     21.86094    9169.6529    1203.2923    2463.6574    3358.4668   -1367.4477   -346.55062   -69.141833   -3952.7438 
21794000    133.84763   -4493.2679   -4263.8577   -4493.2679            0      1846.29    17.802696    23.592706    21.905747    9200.7154    2742.9755    590.88422    2205.0103   -747.74454   -14.132242    284.72478   -4016.1169 
21795000    127.38653   -4514.4688   -4296.1327   -4514.4688            0    1893.5917    17.926288    23.320835    21.953188    9177.6617    1584.2698    1400.1193    2696.3861    92.919848    146.90462    439.68562   -4042.6815 
21796000    133.46913   -4490.4635    -4261.702   -4490.4635            0    1030.3615    17.944097    23.275834    22.131432    9243.4987    566.78028     1655.113    869.19136    116.07473   -462.93506    135.32667   -4122.8021 
21797000    121.68446   -4486.8024   -4278.2394   -4486.8024            0    3360.4383    17.867329    23.337787    21.909628    9135.9628    3236.5735    3516.5137    3328.2278    233.09739   -119.12336    515.53759   -3830.4991 
21798000    131.65529   -4494.4837    -4268.831   -4494.4837            0    1566.0252    18.140354    23.351413    21.885586    9270.7977    886.70459    2053.6022     1757.769     480.9417   -156.69256     97.04873   -4057.0965 
21799000    137.87887   -4495.2297   -4258.9101   -4495.2297            0    2950.4853    17.947655    23.405227    21.791053    9153.7445    2979.2898     3541.054     2331.112    307.59122   -178.36052    23.144741   -3865.0263 
21800000    134.09464    -4510.994   -4281.1604    -4510.994            0    683.07368    18.087287    23.421144    21.875473    9266.9962    858.94394    607.93848    582.33862     160.5429      538.073     266.1726   -4188.8432 
21801000    137.79318   -4491.9878    -4255.815   -4491.9878            0    2568.7522    18.053291    23.156119    21.971913      9185.23    2671.6918    3000.2723    2034.2925   -1451.7474    98.045765   -5.3228926   -3911.7123 
21802000    131.26718   -4498.3314   -4273.3439   -4498.3314            0    2185.3017    17.814399    23.512347    21.924232    9183.1473    2898.5834    1748.1514    1909.1703    -618.9807    168.40644   -961.42273   -3980.6735 
21803000     130.5002   -4502.4616   -4278.7887   -4502.4616            0    2054.4003    17.956968    23.352224      21.9338    9197.6129    1580.7547    2559.9582     2022.488    282.57579    343.96997   -264.83971   -4003.2161 
21804000    131.71101   -4491.4031   -4265.6549   -4491.4031            0    1213.7707    18.019089    23.335063     22.06712    9278.7069    897.19015    284.44182    2459.6801     581.6849   -268.92017    270.95717    -4101.407 
21805000    133.01019   -4498.8704   -4270.8955   -4498.8704            0    1186.7435    17.738037    23.616463    22.081457    9250.1365    736.51229    1034.5998    1789.1185    -404.3318     133.2213   -176.43442   -4110.7993 
21806000    136.28172   -4487.3663   -4253.7841   -4487.3663            0    1219.5021    17.945351    23.239372    22.070138    9204.1015     1457.522    1570.9518    630.03261   -75.488702   -382.25066   -59.258733   -4090.0875 
21807000    136.14179   -4503.2222   -4269.8799   -4503.2222            0    2626.8399    17.964674    23.128816    22.075856    9172.5545    2189.7265    4028.7883    1662.0048   -169.18912    360.74302    465.37541   -3918.4815 
21808000     128.2206   -4491.1355   -4271.3698   -4491.1355            0    1897.6048    17.831524     23.55265    21.924931    9208.0243    1803.2405    1140.4961    2749.0777   -539.22088    13.441241   -544.79211   -4016.5413 
21809000    131.42013   -4496.2638   -4271.0142   -4496.2638            0    1764.8938    18.051625     23.14604     22.08818    9228.9637    2082.9125    1901.0421    1310.7267   -371.12139   -367.48158    653.59652   -4033.4684 
21810000    127.60801    -4509.432   -4290.7162    -4509.432            0    2031.4507      17.8362    23.364691    22.036201    9183.3073     3729.962    1502.4621    861.92797    99.912682    -535.3768   -19.709639   -4018.6458 
21811000    130.86068   -4498.9708     -4274.68   -4498.9708            0    1401.0127    17.920868       23.331    22.086401    9234.5843    676.11152    2236.7508    1290.1758   -248.50815    269.65517    7.5732311   -4085.9959 
21812000    131.14096   -4481.5626   -4256.7915   -4481.5626            0    3230.1815    17.811273    23.343265    22.002919    9148.2259    4868.9851    3175.4358    1646.1235    322.84432    -62.13431     189.4425   -3825.8287 
21813000    135.73859   -4485.3771   -4252.7258   -4485.3771            0    1789.7362    17.869563    23.393094     22.10446    9240.2028    1399.3337    1981.9043    1987.9705   -388.05016    69.879363    242.14191   -4011.5429 
21814000    135.00345   -4503.6638   -4272.2725   -4503.6638            0    2542.7858    17.864838    23.263445    22.111723    9189.5806    3369.9872    2861.8353    1396.5349   -263.42309   -513.73123    714.04661   -3931.4868 
21815000     126.0971   -4502.3156   -4286.1895   -4502.3156            0    2147.8405    18.029933    23.367984    21.879572    9218.3711    2656.0001    1811.5833    1975.9382    41.190334   -369.60841    14.152658   -3997.4327 
21816000    134.41151     -4487.02   -4256.6433     -4487.02            0    2043.6386    17.899129    23.519694    21.823416    9187.2661    1577.0075    1547.1624     3006.746   -125.91362   -369.23478   -33.071466   -3982.8226 
21817000    124.65387   -4508.7326   -4295.0801   -4508.7326            0    1077.2386    18.062037    23.273397    21.980429    9239.8019    1330.7074    1330.1638    570.84453   -1023.8136   -718.08957    49.418177   -4149.9189 
21818000    132.13774   -4501.6313   -4275.1517   -4501.6313            0    2688.7336     17.95687    23.323438    21.889414    9167.6356    2029.5972    2735.6984    3300.9054   -239.79607    29.076756   -42.665333   -3915.6665 
21819000    128.96682   -4513.3263   -4292.2816   -4513.3263            0    2880.1999    17.988142    23.222025    21.921525    9157.0828    2010.1834     3800.324    2830.0922    106.64441    121.14744    462.99435   -3907.6405 
21820000    133.32559   -4501.1312   -4272.6157   -4501.1312            0    1594.5196    17.890212    23.440012    21.938632    9199.8948    1983.4215     964.7179    1835.4193    -262.1398    457.49374   -326.33058   -4058.6774 
21821000     125.3383   -4490.2466    -4275.421   -4490.2466            0    1789.9181    17.898565    23.473273     21.98935    9238.5595     1200.874    2456.5824     1712.298    88.979147    12.001017   -602.24762   -4034.2566 
21822000     137.3705   -4476.0014   -4240.5531   -4476.0014            0    3015.5429    18.098386    23.152515    21.830848    9147.6305    2694.1018    2877.2939    3475.2329   -243.31907      443.019    150.47506   -3838.2531 
21823000    123.59555   -4500.5249   -4288.6864   -4500.5249            0    2270.9696    17.940373     23.42929    21.882012    9197.6705    3109.6272    2549.7568    1153.5249   -235.50773   -284.70175     327.1769   -3984.0617 
21824000    128.71721   -4495.9942   -4275.3773   -4495.9942            0    1518.5581    17.886443    23.417699    22.012391    9220.0956    1319.6312    1316.3685    1919.6745    69.030077    259.55374   -475.75026   -4071.1834 
21825000    134.17345   -4506.2755   -4276.3068   -4506.2755            0    2447.5433    18.039984    23.304546     21.87949    9198.4356    2425.9777    2476.1578    2440.4944   -500.93955    489.10908   -261.17859   -3947.9695 
21826000    134.03553   -4505.6051   -4275.8728   -4505.6051            0    2586.9779      18.0961    23.264756    21.749104    9156.4025    2582.4785    3138.1066    2040.3487    686.77998   -165.98473    86.518863   -3930.4162 
21827000     129.2075   -4502.6299   -4281.1726   -4502.6299            0    2547.2986    17.922864    23.393068    21.926284      9193.05    1673.9878    3309.1418    2658.7664   -341.47148   -210.93667    98.624611   -3939.6533 
21828000    140.64952    -4490.247   -4249.1785    -4490.247            0    2411.2274     18.06573    23.335435    21.778194    9181.0698    2572.4566    1582.0748    3079.1509   -320.73138    494.24643    704.36736   -3926.3236 
21829000     130.3692   -4499.4487   -4276.0003   -4499.4487            0    1402.6529    18.078229    23.387102    21.835322    9231.9171    208.88037    1171.9764    2827.1019   -172.89617     342.1242   -67.371064   -4087.1499 
21830000    136.20932   -4489.1743   -4255.7161   -4489.1743            0     1408.645    18.075624    23.404034    21.813718    9228.1302    1782.9145    28.356747    2414.6636    -522.6602    291.43065    473.78809   -4066.1367 
21831000    133.06621   -4498.6978   -4270.6269   -4498.6978            0    2502.6068     17.85941    23.328779    21.985882    9160.1589    2485.5505    2639.7931    2382.4767    -616.6809   -439.35126   -526.76789   -3936.2998 
21832000     133.1016   -4511.1687   -4283.0371   -4511.1687            0    2508.4666    17.920131    23.206781     22.02476    9159.4056    2173.5985    4276.0749    1075.7266   -238.88873    227.74952   -384.33828   -3947.9548 
21833000    131.73058   -4510.6984   -4284.9167   -4510.6984            0    2494.3234    18.005366    23.222233     21.92622    9167.8968      2713.26    3331.2323     1438.478    296.86769   -433.13794    216.91084   -3951.4147 
21834000    131.23353   -4477.3304   -4252.4006   -4477.3304            0    2584.8698    17.909581    23.483448    21.837142    9184.2371    2676.0182     1734.698    3343.8933    32.305989    390.64932    70.934252   -3906.1762 
21835000    135.13333   -4503.2763   -4271.6624   -4503.2763            0    2613.3073    17.941114    23.132478    22.063555    9156.8699    2363.3503    2143.6589    3332.9127   -231.12313   -783.39037    261.92502   -3922.6721 
21836000    136.71385   -4507.9087   -4273.5858   -4507.9087            0    2332.0264     18.04766     23.16905    22.009459    9203.1925    3117.8473    2425.6221    1452.6098   -842.73021   -462.51729    208.58726   -3960.5833 
21837000    131.08526   -4502.6437   -4277.9681   -4502.6437            0    2572.6817    17.907823    23.591388    21.761383      9193.54    3860.4145    786.91417    3070.7163   -374.37359    97.304235   -89.385302   -3933.0272 
21838000    134.17498   -4487.6046   -4257.6332   -4487.6046            0    2238.9102    18.059597    23.362774    21.789293    9193.3883    893.26974    1866.5162    3956.9447   -388.04026     333.4053     766.5174   -3957.4488 
21839000    124.32224   -4499.9888   -4286.9048   -4499.9888            0    2471.9026    17.882277    23.313389    22.070511    9201.1184    1377.8048    2693.5882    3344.3148   -458.94483      -321.64    112.64668   -3955.2029 
21840000      130.499    -4492.702   -4269.0311    -4492.702            0    2446.9649    17.841999    23.433459    22.017512    9205.5165    3377.0563    2374.1367    1589.7018    -531.4325    300.71404   -273.23846   -3940.5187 
21841000    127.94887   -4504.4141   -4285.1141   -4504.4141            0    1904.8907    18.006073    23.215851    21.978051    9187.4036    1814.9418    1345.3102    2554.4201   -858.69069    613.34814    61.301191     -4029.88 
21842000    141.02887   -4504.8939   -4263.1752   -4504.8939            0    1336.9558    17.775293    23.470342     22.10638    9222.6094    1777.0996    1288.0198    945.74802   -310.51335     267.7042   -385.72715   -4083.3516 
21843000    130.22198   -4504.9162   -4281.7202   -4504.9162            0    2855.2279    17.884312    23.331448    21.940204     9154.921    3732.4289    1735.8962    3097.3587    78.231048   -136.96776     121.2621   -3900.5041 
21844000    128.83332   -4497.7003   -4276.8844   -4497.7003            0    1911.4129    18.239959    23.147838    21.783131    9197.1784    693.49735    1573.8166    3466.9249    89.401401    437.17873   -304.58302   -4020.5038 
21845000     123.8112   -4490.9837   -4278.7756   -4490.9837            0    2054.3847    18.025119    23.369952    21.831592    9196.4743    1687.6946    3238.4575     1237.002    611.06422    909.21872    367.20379   -4003.2391 
21846000    135.93335   -4496.7194   -4263.7343   -4496.7194            0    2656.7268    17.826216    23.398482    21.989064     9171.779    2595.2166     2451.111    2923.8527    692.01841    249.40248    68.238078   -3908.3679 
21847000    133.83927   -4501.9993   -4272.6034   -4501.9993            0    929.86929    18.016465    23.211861    22.108232     9245.567    705.92457    1671.7177    411.96556   -396.19594   -83.447713   -188.93358   -4147.2225 
21848000    124.35197   -4499.8742   -4286.7391   -4499.8742            0    2062.9783    17.911095    23.414873    21.958361    9209.0299    2673.4518    3297.3458    218.13731   -212.86193    44.536853   -97.464537   -4009.6724 
21849000    128.21058   -4489.5955    -4269.847   -4489.5955            0     2463.665    17.974486    23.401891    21.840115    9186.7596    1675.1852    2388.9642    3326.8456    110.94714    125.11453   -106.46423   -3939.7665 
21850000    126.64754   -4501.1601   -4284.0906   -4501.1601            0    1697.9691     17.97687    23.272576    22.017551    9211.4406    1666.6207     2085.296    1341.9907    158.51491    359.41354    55.491327   -4055.9864 
21851000    127.89546   -4505.8222   -4286.6138   -4505.8222            0    1929.3569     17.78297     23.60156    21.935857     9206.607    2544.6275    578.39693    2665.0464    628.88914   -151.20891    1000.1252   -4027.5611 
21852000    137.14099   -4504.6204   -4269.5654   -4504.6204            0    2107.2377    18.003438    23.278686    21.994018    9217.6133    3031.6602    1707.3739    1582.6791   -331.28211    -15.90489   -321.21078   -3986.2906 
21853000    131.33641   -4490.1938   -4265.0877   -4490.1938            0    2229.6301    17.992131    23.170533    22.050363    9192.5156     1844.962     3294.256    1549.6721   -319.87576    184.29866    487.42356   -3966.1759 
21854000    138.17252   -4510.4952   -4273.6723   -4510.4952            0    2828.7881    17.822895    23.255985    22.120838    9168.8431    3192.9591    3291.3566    2002.0487    818.55022    208.99001   -41.250976   -3895.4119 
21855000    134.60756   -4490.8571   -4260.1444   -4490.8571            0    2992.5418    17.967133     23.29684    21.908718    9170.4949    2909.7749     2671.729    3396.1215    875.48613   -301.36566   -242.61007    -3859.915 
21856000     123.5001   -4497.4106   -4285.7356   -4497.4106            0    1892.6564     18.00882    23.434732    21.844033    9218.8785    2388.5878    1163.0896    2126.2919    438.15923     442.9236    583.77553    -4031.272 
21857000    131.26804   -4511.5743   -4286.5853   -4511.5743            0    1403.5067    17.975754     23.39107    21.908098    9211.7444    1498.0156    2334.4056    378.09896   -644.73692    144.89769    813.23004   -4098.0328 
21858000    137.49147   -4505.9867   -4270.3311   -4505.9867            0    2177.2354    17.979776    23.163864    22.011939     9167.556    1920.1432     2462.062    2149.5009   -487.11516   -200.45384    209.45251    -3979.236 
21859000    130.98385   -4500.4369   -4275.9351   -4500.4369            0    2170.2717    17.814672    23.351714    22.106435    9196.3458    2527.2528    2091.6896    1891.8728    -302.4015    603.10347   -541.24973   -3984.8598 
21860000    128.17057   -4492.7644   -4273.0844   -4492.7644            0    2663.8646     17.94584    23.363115    21.874636    9171.3946    2715.4837     2468.569     2807.541    254.16306    59.380274    423.54573   -3916.7782 
21861000    128.27932   -4486.7967   -4266.9303   -4486.7967            0    2316.4922    18.111868    23.523453    21.524876    9170.7527     1827.696     1144.679    3977.1014    156.16689   -284.23201   -661.06248   -3957.1087 
21862000    131.32817   -4494.6752   -4269.5832   -4494.6752            0    2797.7159    17.954655       23.355    21.873491    9172.2322    3354.6528    2696.3467     2342.148   -548.15905     277.6987   -2.1748463   -3895.3395 
21863000    131.96431   -4503.8347   -4277.6524   -4503.8347            0    1164.6811     18.10877    23.232719    21.984964    9249.4258    746.75048    1091.1667     1656.126    481.15211    -24.17641    529.98492   -4120.5446 
21864000     145.5372   -4501.7824   -4252.3366   -4501.7824            0    2111.2839    17.915132      23.4542    21.911101    9206.7182    2786.7189    1767.2432    1779.8896   -429.26851   -42.028971   -359.94655   -3968.8534 
21865000    140.43274   -4500.9679    -4260.271   -4500.9679            0     988.3037    17.923233    23.553974    21.913378    9251.0254    1372.4508   -614.37269     2206.833    169.85526   -245.57865    223.39109   -4126.9323 
21866000    133.21187   -4509.1483   -4280.8277   -4509.1483            0    1151.0888    18.175102    23.121584    21.994871    9243.0616   -401.79279    1688.2588    2166.8004   -539.10361   -434.19786   -48.006169   -4125.6603 
21867000    131.24247   -4515.7928   -4290.8477   -4515.7928            0    2428.7167        17.97    23.329278    21.869439    9168.2617    2818.0875    1231.6567     3236.406    93.591757    -214.4246    262.43258   -3966.1047 
21868000    128.66956   -4501.0093   -4280.4741   -4501.0093            0    2944.1978    17.833977    23.377518    21.954645    9153.2014    4434.7242    2428.7481    1969.1213   -89.120606   -238.46238    704.04709   -3887.4529 
21869000    132.79282   -4495.0684   -4267.4661   -4495.0684            0    2051.1165     17.97718    23.152916     22.10381    9200.1394    2392.3624    2565.6493    1195.3378    629.53142   -46.439733    100.52625   -3992.2584 
21870000     135.1121   -4513.7156    -4282.138   -4513.7156            0    1675.1788    17.882777    23.468437    21.926057    9201.9455    1956.8514    2387.0564    681.62864    438.40387    319.88821    414.35191   -4057.3275 
21871000    125.21674   -4493.7074   -4279.0902   -4493.7074            0    1691.0276    17.972921    23.550512    21.822529    9236.8542    1127.9241    1325.1794    2619.9795   -510.18949     230.6521   -39.392784   -4051.2918 
21872000    139.02757   -4498.1421   -4259.8536   -4498.1421            0    2511.4031    18.131279    23.203376    21.848452    9191.7942    2370.6461    2777.6251    2385.9382   -137.54919   -807.24871   -353.91593   -3923.1928 
21873000    126.45047   -4506.1321   -4289.4003   -4506.1321            0    1964.8797    17.899413    23.419317     21.87945    9171.6912    2063.1955    1997.3568     1834.087        51.06    233.14243    31.589317   -4026.5785 
21874000    128.11045   -4481.9891   -4262.4122   -4481.9891            0    1935.5263    17.970206    23.366862    21.876535    9186.1174    1815.2969    747.33631    3243.9458   -388.77885    -295.7534   -818.64895   -4003.1095 
21875000    139.60154    -4493.446   -4254.1737    -4493.446            0    2431.4158    18.065739    23.268377    21.823609    9173.7817    1508.5839     2460.696    3324.9675    689.81629   -49.746429    270.68743   -3928.8741 
21876000    125.20066   -4486.7662   -4272.1765   -4486.7662            0    2527.3081    17.927908    23.409856    21.889794    9186.9223    2682.0538    2319.6525    2580.2178   -181.54317   -859.66271    396.92968   -3933.5632 
21877000    132.04912   -4492.9361   -4266.6085   -4492.9361            0     2153.014    18.029632    23.179161    21.984289     9187.493    1888.2311    1678.3927    2892.4181   -788.27133    578.77654   -443.28587   -3978.1258 
21878000    135.88958   -4502.8627   -4269.9526   -4502.8627            0    1248.8462    18.009718    23.292527    22.008988    9232.5911    1228.5673    2207.7552    310.21612    356.15946   -88.490114     237.0071   -4101.7981 
21879000    142.88744   -4505.0432    -4260.139   -4505.0432            0    1738.2336    17.840906    23.596619    21.875705    9209.3451    1780.9449    1666.1272    1767.6286    605.71782      309.911    559.71985   -4026.6789 
21880000    133.36786   -4514.2281   -4285.6402   -4514.2281            0    688.28257    18.027639    23.286604    22.024719    9246.0318    866.14403    1633.5671   -434.86348    445.75079   -444.38443   -502.81411   -4192.8295 
21881000    132.12983   -4515.6369   -4289.1709   -4515.6369            0    1360.5341    18.019053    23.319276    21.977646    9234.8152    377.39655    1710.1871    1994.0186   -429.39266   -209.80848    347.06377   -4105.9338 
21882000    139.96962   -4498.3345   -4258.4314   -4498.3345            0    968.12815    17.971516    23.546068    21.898168    9266.3967    1248.2977    1653.4385    2.6482854    315.86664    237.94628    550.62861   -4127.5977 
21883000    132.75096    -4508.559   -4281.0284    -4508.559            0    1911.5445      17.9734    23.322432    21.990685    9218.1301     1675.695    2438.5291    1620.4095   -706.32506   -273.67913   -250.28432   -4024.0461 
21884000    129.12888   -4508.9589   -4287.6364   -4508.9589            0    1518.0356    18.078788    23.321541    21.932643    9247.3548    1332.6359    2407.9381    813.53282    70.542309   -630.71444    27.447125   -4082.9093 
21885000      124.083   -4505.9899   -4293.3158   -4505.9899            0    2313.8857    17.890495    23.489824    21.868219    9190.0003    2225.8569    1573.7592     3142.041   -327.63271    145.85761   -94.456549   -3983.1933 
21886000    134.40314   -4504.9948   -4274.6324   -4504.9948            0    1361.2366    18.082438    23.256737    21.964391    9236.8726    2422.5981    547.76542    1113.3464   -740.34098    28.984889   -166.09148   -4091.2598 
21887000    127.42508   -4501.5376   -4283.1354   -4501.5376            0     1609.639    17.960753    23.296556     22.02319    9215.0242    1519.0444    1660.3071    1649.5656     217.0035    387.34817    721.45641   -4066.8133 
21888000    130.57712    -4496.104   -4272.2993    -4496.104            0    1616.7007     18.03154    23.217468    22.055298    9233.3778     1960.407     1752.743     1136.952    828.77265   -288.49432    2.2530795   -4054.5954 
21889000    126.27069   -4515.3287   -4298.9051   -4515.3287            0    2216.8743    18.117268    23.204834    21.887013      9201.48    1093.2937    3259.6887    2297.6405   -330.99328   -100.49603    272.69589   -4001.4135 
21890000    126.41879   -4492.3495    -4275.672   -4492.3495            0    1969.3131    17.868127    23.509416    21.957302    9223.5872    2625.1216    1908.2032    1374.6144    394.48915   -10.153857    668.59999   -4010.7668 
21891000    126.71273   -4504.6907   -4287.5094   -4504.6907            0    1849.8086    18.058884     23.23732    21.959575    9215.1174    1628.2791    2603.8112    1317.3354   -693.08288    363.81593     473.3406    -4038.908 
21892000    128.01453   -4502.3447   -4282.9322   -4502.3447            0    1889.0508    18.007765    23.310555    21.960404    9218.3406    1373.8684    2412.1221    1881.1619    778.55596   -132.98124   -25.199283   -4028.9682 
21893000    128.01521   -4497.7704   -4278.3567   -4497.7704            0     2898.743    17.754566    23.509867     21.93823    9157.1815    4242.9845    1990.6392    2462.6053    402.96343   -421.45387    85.839935   -3891.2351 
21894000    124.58044   -4492.2618   -4278.7352   -4492.2618            0    2112.3235    18.034359    23.187963    22.076181    9231.8183    1300.5747    3100.8635    1935.5325      677.543     62.10194   -102.35228   -3994.3391 
21895000    139.25111   -4500.6264   -4261.9547   -4500.6264            0    2094.0014    18.000749    23.291015    21.966388    9209.5337    2302.4221     2230.891    1748.6909    45.814065   -676.31979    236.50401    -3980.706 
21896000    133.99556    -4510.183   -4280.5192    -4510.183            0    1790.1277    18.047214    23.359646    21.869983    9219.8712    2382.3802    1440.2725    1547.7304    777.49573    120.77318    277.12953   -4039.8144 
21897000    125.30919    -4505.715   -4290.9393    -4505.715            0    3149.8736    17.778222    23.517712    21.902874    9157.6596    3979.8979    2568.3992    2901.3238    907.39461    330.02871    -417.2633   -3870.2577 
21898000    132.92286   -4521.0285   -4293.2033   -4521.0285            0    1682.1149    17.966669     23.31099    22.046524    9233.5437    2443.9403    1485.7305    1116.6738    239.57468   -369.83404    -578.7313   -4066.6867 
21899000    137.35372   -4487.6767   -4252.2571   -4487.6767            0    2929.6498    17.888889    23.271183    21.994967    9156.4081    2153.8098    3456.1701    3178.9696    21.561534    253.73937    237.39323    -3861.041 
21900000    127.51128   -4497.1151   -4278.5651   -4497.1151            0    2189.7359    17.878809     23.43477    21.973717    9206.6749    1329.8426    2570.2067    2669.1585  -0.22502126    280.90837   -18.716671   -3984.5495 
21901000     127.5808   -4480.7111   -4262.0419   -4480.7111            0    1056.9913    18.044632    23.147403    22.156068    9254.2874    689.44081    2271.2622    210.27091   -603.42393   -586.04123    719.87314   -4119.3859 
21902000    122.80756   -4498.2756   -4287.7877   -4498.2756            0    2196.6496    17.902556    23.354873    21.987721    9193.3286    2051.3985    2251.1105    2287.4397   -391.25139   -189.60347    299.69396   -3993.2713 
21903000    135.14546   -4499.9066   -4268.2719   -4499.9066            0    2488.6921    17.784333    23.448458     21.99714    9173.1415    2829.0374    2020.0954    2616.9436   -927.74655    -403.7323    252.46472   -3935.3326 
21904000    130.17325    -4508.145   -4285.0325    -4508.145            0    1733.8327    18.043625    23.205284    22.002448    9212.5888    1772.7046    2397.4273    1031.3662    128.67498   -2.0413478    366.51379   -4052.0814 
21905000    131.22156   -4500.9303   -4276.0211   -4500.9303            0     3005.492    18.051596    23.272867    21.774032    9147.5404    2787.8323     2872.739    3355.9048    68.031022    6.9981089   -394.39648   -3875.0659 
21906000    120.98935   -4507.5206    -4300.149   -4507.5206            0    1810.1409    17.968893    23.494437    21.828657     9215.383    1375.6928    1819.8464    2234.8835   -955.14393    31.055124   -378.21729   -4056.8716 
21907000    127.49023   -4497.4838     -4278.97   -4497.4838            0    2998.1691    17.987348     23.26031    21.894748    9160.5723    2256.9866    2882.4283    3855.0925   -398.43261   -462.96165    397.30293   -3878.4219 
21908000    127.56532   -4501.9926     -4283.35   -4501.9926            0    1254.6898    17.996984    23.127916    22.170908    9228.2577    2831.5122    1680.7914   -748.23426    133.71082   -174.93344    680.97695    -4114.488 
21909000    127.58024   -4489.5964   -4270.9283   -4489.5964            0    3386.3037    17.729639    23.383965     21.96906     9108.136    4864.0955     3045.632    2249.1835   -46.330199   -65.279625    553.92009    -3821.116 
21910000    138.54195   -4497.7921    -4260.336   -4497.7921            0    2774.3411    18.039141    23.184648    21.924665    9169.5779    2192.4368    3517.9791    2612.6074   -1106.6306   -658.10315     326.7622   -3889.3264 
21911000    125.60309   -4507.7753   -4292.4959   -4507.7753            0     2154.351     17.93623    23.366587    21.899278     9178.173    1686.6938    2173.9346    2602.4246   -64.839444    454.66496    -31.78519   -4004.1269 
21912000    127.20845   -4499.8218   -4281.7908   -4499.8218            0    2882.6326    17.801771    23.441477    21.914438    9144.8903    3423.5821    2952.0432    2272.2725    336.89308    421.38901    558.99274   -3897.3375 
21913000    129.92725   -4495.7455   -4273.0547   -4495.7455            0     239.8781    17.942958     23.36828    22.062702     9250.804    1203.9185   -755.09663     270.8125    344.70154    363.18839   -44.320412   -4240.6919 
21914000    135.66532   -4514.3484   -4281.8227   -4514.3484            0    2545.3164     17.85734    23.228209      22.1077    9170.1417    2301.5014    3985.4501    1348.9976   -366.23021    302.16065    563.97748   -3941.4195 
21915000    127.64083   -4492.3108   -4273.5388   -4492.3108            0    2597.3056    17.796126    23.392735    22.033836    9172.6875    3650.7973    2554.2332    1586.8863   -280.46975    53.872542    473.07748   -3926.0862 
21916000    133.73184   -4498.9021   -4269.6903   -4498.9021            0    2051.6138    18.002621    23.188254    22.092048    9222.3112    947.96574    2727.3003    2479.5753    300.94936     458.1799   -676.09531   -3993.7525 
21917000    129.12856   -4510.9671   -4289.6452   -4510.9671            0    1943.8529    17.939955    23.297191    22.009734    9198.9805    2611.6165    1612.7164    1607.2258   -503.82811    942.22389   -362.88336   -4028.8624 
21918000    135.42291   -4486.7517   -4254.6415   -4486.7517            0    1261.5457    18.007658    23.430813     21.87144    9228.3056    426.01354    2090.1711    1268.4525    543.39368    176.35191    245.32234   -4084.8559 
21919000    133.11101   -4482.5962   -4254.4485   -4482.5962            0    3048.9519    17.992369    23.228354    21.882486    9145.4153    3052.1701    4308.5522    1786.1334   -621.65918    70.780721    304.83163     -3847.79 
21920000    136.28832   -4506.7498   -4273.1562   -4506.7498            0    2372.7432    17.937617    23.288679    21.970087     9177.859    2116.4033    2389.3912    2612.4352   -691.41877    269.90736    210.55883   -3955.5654 
21921000    132.29434   -4505.9144   -4279.1664   -4505.9144            0    713.52252    17.880376    23.413279    22.134435    9266.3207    1077.9802    682.07035    380.51701    -652.5872   -172.77954    183.02329   -4182.7411 
21922000    134.60741   -4508.6218   -4277.9093   -4508.6218            0    1179.7465    17.969287    23.441059    21.931677    9238.0416    108.06092    2731.3128    699.86575   -31.455748   -49.164428   -102.67673   -4118.9652 
21923000    129.41796   -4504.1695   -4282.3515   -4504.1695            0    1189.8354    18.061141    23.428276    21.864063    9251.5899    825.64171    1244.7862    1499.0782    24.430754    448.64981    709.17546    -4121.813 
21924000    126.89147    -4499.435   -4281.9473    -4499.435            0     3117.693    17.869881    23.384492    21.816288     9116.549    3407.9292    3467.2086    2477.9413     880.5781   -641.01426    303.29753   -3867.4328 
21925000     137.9175   -4504.5628   -4268.1769   -4504.5628            0    1679.9619    17.876806    23.489719    21.964068    9223.1771    2287.9414    1650.7996    1101.1448   -328.40185    120.57981   -367.00069   -4042.2043 
21926000     134.6848   -4506.6631    -4275.818   -4506.6631            0    3201.7097    17.939703    23.215805    21.965254    9148.1915    3440.4676    2870.9333    3293.7282   -108.44937     93.12695    70.090169   -3848.6555 
21927000     136.7654   -4493.9903   -4259.5791   -4493.9903            0    2704.7691    17.885361    23.230974    22.054014    9163.3181    2347.7091    4415.2902    1351.3081   -505.10276    7.6317754    99.272486   -3898.1203 
21928000    134.55731   -4493.0334   -4262.4068   -4493.0334            0    2089.7417    17.840748    23.433886    21.959691     9180.865    2552.9598    1284.4451    2431.8201   -662.29869    31.837481   -111.92839   -3982.6039 
21929000    130.67684   -4498.5919   -4274.6163   -4498.5919            0    2133.6672    18.023606    23.135614     22.03564    9188.5795    2082.2938    2760.2844    1558.4234    -141.4838    261.46357    289.74559   -3988.6921 
21930000    132.78064   -4503.0751   -4275.4936   -4503.0751            0    2319.8003    17.970956    23.127831    22.041339    9161.0249    2260.5078    3074.7272    1624.1659     150.9142    -384.4191    742.69795   -3965.5586 
21931000    134.53975   -4500.1197   -4269.5232   -4500.1197            0    1142.0605     17.94021    23.492218    21.898658    9229.3057    1256.1148     491.0691    1678.9977    411.57261   -254.85816   -58.452217   -4115.8019 
21932000    133.56345   -4483.4178   -4254.4946   -4483.4178            0     1646.367    18.012299    23.391351    21.891998    9223.7993    1005.2608    1503.8844    2429.9557    74.491573    332.52462    599.50179   -4033.0259 
21933000    131.12584   -4504.1731   -4279.4279   -4504.1731            0    1963.1812    18.013285    23.435355    21.827987    9214.6354    2863.6525    1253.1347    1772.7565   -59.728466   -480.03117   -182.98514   -4015.6038 
21934000    125.70207    -4501.446    -4285.997    -4501.446            0    1063.2333     18.06297    23.297427    22.015957    9264.7712    1170.4694    1619.4908    399.73967   -1475.5531   -164.39744   -243.03534   -4142.3359 
21935000    140.60116   -4501.8744   -4260.8888   -4501.8744            0    3211.4258    17.979167    23.402751    21.728658    9142.5927    2991.9828    3495.4482    3146.8465   -586.79465   -383.39207     381.9877   -3832.6923 
21936000    135.02784   -4493.3074   -4261.8743   -4493.3074            0    2174.2349    17.981848    23.412473    21.836665    9193.2259    2765.8108    609.21421    3147.6796   -413.94466    235.42965   -61.000346   -3970.3664 
21937000    133.91464   -4508.7208   -4279.1957   -4508.7208            0    3180.9554    18.041254    23.185784    21.886762    9155.2462    1122.5395    4180.6944    4239.6322    481.24267    179.99276    -84.69746   -3854.4749 
21938000    135.50609   -4490.0024   -4257.7496   -4490.0024            0    1869.6581    17.903446    23.473855    21.924155    9213.9087    2491.9082    1338.6765    1778.3896    929.23118    442.11465   -149.91308   -4006.5135 
21939000    125.93029   -4503.2734   -4287.4332   -4503.2734            0    2118.8511    17.883212    23.399164    21.913318    9169.6766    2879.4422     2362.722    1114.3892    302.42358    337.08009   -136.88305   -4004.0786 
21940000    137.16614   -4485.4942   -4250.3961   -4485.4942            0    2033.7858    18.073922    23.205992    21.925535    9196.0803    783.89936    1919.7417    3397.7164    -161.4718   -24.665133   -851.72652   -3977.6341 
21941000    130.87256    -4490.866   -4266.5549    -4490.866            0    3242.1453    18.041848    23.261362    21.844701    9167.7391    2296.9269    4757.0176    2672.4915     -601.781     137.5022   -530.03363   -3833.0733 
21942000    130.62296   -4491.4251   -4267.5418   -4491.4251            0    1934.2574     17.86961    23.596493    21.870898    9222.0857    2665.2439    932.69666    2204.8316    90.121674   -145.12739   -51.029357   -4007.3945 
21943000    131.62596   -4501.5204    -4275.918   -4501.5204            0    1987.6667    17.966684      23.2547    22.031838     9205.119    1574.5735     1287.472    3100.9548    57.415105    71.452766     97.52674   -4009.0792 
21944000    132.13207   -4489.9982   -4263.5283   -4489.9982            0     1741.223    17.929434    23.394834    21.992492    9224.8859    1961.3959    943.51436    2318.7588    -174.5057    34.759987    218.74435    -4029.272 
21945000    129.07824   -4494.7565   -4273.5208   -4494.7565            0    2077.2391    18.084671    23.467526    21.615565    9173.6998    1762.0371    1935.0186    2534.6615    27.719823    432.67674    98.598462   -3995.6091 
21946000    133.07796   -4500.4685   -4272.3774   -4500.4685            0    1838.9084    18.084471    23.325746    21.845217    9215.0503    1511.5506    1928.7316     2076.443   -346.68541    -120.7788   -236.12571   -4025.2427 
21947000     129.5051   -4494.5657   -4272.5983   -4494.5657            0    1118.0448    18.057443    23.317618    21.938581    9237.3833    867.57363    2317.6643    168.89637    80.926818    181.77749    164.18967   -4121.9779 
21948000    131.47015   -4493.2959   -4267.9605   -4493.2959            0    1966.0673     17.87306    23.496635    21.907839    9200.3456    2466.8182    1573.6962    1857.6875    650.11617    145.44052   -574.86443   -4004.1583 
21949000    141.57581   -4502.4049   -4259.7488   -4502.4049            0    1058.2462    17.930111    23.470706    21.987418    9253.0171    1100.7867    859.25907    1214.6929    43.335387    464.82368    150.97287    -4116.943 
21950000    129.68287   -4490.7544   -4268.4824   -4490.7544            0    3575.9344    17.939523    23.099449    21.965824     9102.486    4309.2731    3234.8307    3183.6995   -701.72368    378.05251   -401.90723   -3793.7756 
21951000    137.05141   -4506.0996   -4271.1981   -4506.0996            0    2050.5948    18.006229    23.239924     21.90404     9166.039    1490.0705    2122.3691    2539.3449    -295.7727   -174.12827    80.905885   -3997.0802 
21952000    131.30621   -4497.8683    -4272.814   -4497.8683            0    2655.4725    17.881166     23.43996    21.922677    9188.5352    3404.0853    1675.1867    2887.1454    770.70701    538.09075   -620.33181   -3916.9664 
21953000    127.71608   -4505.2713   -4286.3703   -4505.2713            0    1377.5231    18.040993    23.142428    22.106208    9229.6155    902.22304    2134.0609    1096.2853   -450.03854   -754.16403   -54.321438   -4100.9495 
21954000    127.25024   -4503.8822   -4285.7797   -4503.8822            0    2270.9059    17.931411    23.331735    21.974703     9193.577    2681.1266    2958.9475    1172.6437   -215.13666    542.35939   -428.68301   -3981.2991 
21955000    133.56455   -4521.6969   -4292.7718   -4521.6969            0    1171.3733    17.932142    23.453199    22.006781     9255.306    1534.8308    198.90522    1780.3839   -714.85588   -448.33213    353.84921   -4134.6609 
21956000    130.58198   -4510.4861   -4286.6731   -4510.4861            0    1311.4153    18.045874     23.31528    21.951007    9235.7675    1010.3073    897.96877    2025.9699   -1078.2295    231.16527    52.685933   -4110.0331 
21957000    136.64171   -4513.7779   -4279.5787   -4513.7779            0    1109.7387     18.08453    23.234749    21.989773    9239.8724    88.387432    2046.2156     1194.613   -341.80885   -271.25516    722.81852   -4130.0369 
21958000    138.08061    -4499.042   -4262.3766    -4499.042            0    2055.5614    17.908012    23.552317    21.798746    9194.1698    2017.7741     1028.229     3120.681    207.54642    416.97587    506.17543   -3986.7514 
21959000    135.20512   -4502.1466   -4270.4096   -4502.1466            0    1480.8092    18.108431    23.247491    21.848894    9197.8509    1979.8877    2185.4058    277.13407   -340.92971    345.09565   -586.78427   -4071.7721 
21960000    139.49477   -4497.5732   -4258.4839   -4497.5732            0    2421.4289    17.954527    23.194906    22.018474    9169.6717    2621.0072    3033.2195      1610.06    -380.0046   -307.74551    570.50564   -3934.6656 
21961000    134.32696   -4509.1645   -4278.9327   -4509.1645            0    1409.3412    17.850907    23.390537    22.092605    9224.5968    3164.8127    529.98283    533.22823   -77.700823    245.42419    106.63692   -4089.3322 
21962000    132.75689   -4496.6977    -4269.157   -4496.6977            0    2768.6872    17.950546    23.204401    21.980927     9155.752    2158.4898    3339.4034    2808.1684    -171.2892   -138.83313   -385.29602   -3899.4618 
21963000    138.10223    -4505.388   -4268.6855    -4505.388            0    1275.7767    17.997889    23.414664    21.950247    9250.1534     2481.093    258.37463    1087.8626    117.89781    111.52165    372.08007   -4096.5781 
21964000    132.35756   -4501.5529   -4274.6965   -4501.5529            0     2846.807     17.97618    23.239366    21.991238    9186.9499    3150.9347    4210.5265    1178.9599   -119.79029   -137.58215   -376.29828    -3893.275 
21965000    120.92665   -4511.1753   -4303.9112   -4511.1753            0    1615.8236    17.838647    23.555265    22.001294    9244.8132    2081.9691    877.24449    1888.2572   -288.79922   -711.11717   -367.27085    -4086.056 
21966000    135.77506   -4515.2005   -4282.4867   -4515.2005            0    1208.8938    17.944614    23.440045    22.001856     9254.477    1438.2283    412.93688    1775.5162    377.17801    368.06179    414.56114   -4119.3258 
21967000    128.42356    -4509.682   -4289.5684    -4509.682            0    2256.3353    18.067987    23.269871    21.913639    9213.3641    3557.3642    1363.7592    1847.8825   -72.817666    394.37331    253.36199   -3986.3904 
21968000    134.58758   -4502.3734   -4271.6949   -4502.3734            0    2081.2952     17.90448    23.593667     21.79821    9208.2686    2705.4101    3097.0213    441.45419   -272.06852   -516.26862   -552.28779   -3992.1912 
21969000    130.21634   -4491.7253    -4268.539   -4491.7253            0    1179.6452    18.051186    23.400342    21.965165    9278.1723    1297.0176    1673.8758    568.04211    -49.58647   -703.38732    448.97507   -4108.9181 
21970000     124.5603   -4501.4613   -4287.9692   -4501.4613            0    2291.4229    18.002577    23.254861    21.993791    9207.6443    1948.9948    2924.4553    2000.8186   -552.72086    68.033964    186.98719   -3980.2677 
21971000    134.43798   -4502.4139   -4271.9918   -4502.4139            0    3361.1945    17.744495    23.254446    22.155198    9142.0853    4116.5726    4007.5359    1959.4749    25.460744    107.76833    234.81457   -3823.8507 
21972000     135.2825   -4515.1885   -4283.3189   -4515.1885            0    2657.8905    17.900646    23.332446    21.978732     9179.766     1870.035    2675.2157    3428.4207    52.167035   -14.973287   -30.937116   -3927.4873 
21973000    134.29067   -4513.7674   -4283.5978   -4513.7674            0    669.58177    18.016135    23.231875    22.107221    9252.9465    1052.0169    1543.1576    -586.4292    619.24279   -360.33072    334.33868   -4193.2412 
21974000    126.92169   -4494.7661   -4277.2267   -4494.7661            0     1566.062    17.876894    23.467751    21.989951    9225.4552    2088.2984    977.40889    1632.4788    814.53202   -26.103242    557.10729   -4066.5228 
21975000     132.8969   -4511.3859   -4283.6052   -4511.3859            0    1794.0167    18.042391    23.365315    21.910798    9236.8504    538.34809    2725.0522    2118.6497   -413.79352   -57.962357   -333.34902   -4041.9332 
21976000     134.1347   -4502.1595   -4272.2573   -4502.1595            0    2596.2054    18.110664    23.305322    21.695242     9157.016    2101.8045    1960.2508    3726.5611   -425.53642    211.62029    342.94689   -3925.5452 
21977000    136.46023   -4476.4072    -4242.519   -4476.4072            0    2000.4713    17.933828    23.405194    21.935372     9207.257    2754.5031    1566.9363    1679.9744   -19.562009   -19.878417    579.18764   -3973.8989 
21978000    134.12808   -4490.7782   -4260.8873   -4490.7782            0     1911.446    18.142499    23.302225    21.795927    9214.4594    1304.4006    2452.0305    1977.9069    551.69667   -94.690059    -170.5399   -4004.0206 
21979000    135.61297    -4498.779   -4266.3431    -4498.779            0    3008.2567    17.984091    23.278784    21.889086    9163.8169     3342.608    3380.1361    2302.0262    178.31053    309.78857   -212.52709    -3864.305 
21980000    134.56657   -4486.9792   -4256.3367   -4486.9792            0    1827.6292    17.875653    23.447024    21.960005    9204.1161    1588.6013    1222.6878    2671.5984    96.768182   -112.99097   -100.98692   -4011.0093 
21981000    135.23831   -4494.3038     -4262.51   -4494.3038            0     2480.908    18.013279    23.174206    22.054656    9206.5715     2409.357    2890.4195    2142.9475    258.87709   -38.819121   -257.87438   -3929.4025 
21982000    135.01007   -4502.1602   -4270.7575   -4502.1602            0     1701.585    17.911857    23.222643    22.138073    9208.5677    2559.5758    2401.3948     143.7844   -218.89439   -326.28813    316.78367   -4042.2389 
21983000    129.99048   -4507.0758   -4284.2765   -4507.0758            0    1343.6713    17.941335    23.423148     21.95281    9225.5043     798.2294     846.3432    2386.4414   -720.31359   -26.101105      -200.12   -4103.4929 
21984000    136.05364   -4495.6878   -4262.4965   -4495.6878            0    2348.0061    18.032676    23.400495    21.814098    9204.9724    542.46515    2437.7014    4063.8517   -509.28898   -343.67512    -57.33806   -3947.2883 
21985000    125.47387   -4501.0386   -4285.9807   -4501.0386            0    2190.0801    17.946186    23.463451    21.810912    9184.1269    1494.9893     2973.469    2101.7822   -741.87626   -512.99655   -35.909889    -3992.639 
21986000    127.13516   -4498.4784   -4280.5731   -4498.4784            0    1610.6328    18.090773    23.275586    21.936612    9236.9224     1315.511    2403.4073    1112.9801   -586.35179   -357.74089    188.92973   -4063.6031 
21987000    131.48906    -4502.601   -4277.2332    -4502.601            0    1534.3716    18.042356    23.296549    21.937588    9220.9088    1729.8791    1567.5372    1305.6986   -102.29493   -339.33139    625.76025   -4070.8948 
21988000    134.06631    -4495.644    -4265.859    -4495.644            0    1594.4935     17.89777    23.521908    21.919717    9227.9749    2638.0673    487.49337    1657.9197    440.82078    176.62146    501.12774   -4051.2712 
21989000    131.08741   -4495.5182   -4270.8389   -4495.5182            0    1718.0695    18.063057     23.27984    21.923663    9219.0115    853.28202    1730.3319    2570.5945   -461.24238   -243.16079    535.98021   -4039.8448 
21990000     122.5947   -4480.3158   -4270.1927   -4480.3158            0    2768.1553    17.965998    23.305131    21.898156    9168.7563     2972.065    3171.9304    2160.4706   -15.151075    802.85413    50.142187   -3900.0435 
21991000    129.40974   -4505.3202   -4283.5164   -4505.3202            0    2972.7662    17.728586    23.334463    22.053097    9123.0802    3576.8489     4096.023    1245.4267   -337.16901     230.3053    611.03884   -3887.9875 
21992000     141.4497   -4513.8823   -4271.4424   -4513.8823            0    1422.8613    17.919691    23.279564    22.083064    9212.2279    2861.5244     1597.421   -190.36156    588.21529   -447.92532     15.53268   -4080.2797 
21993000    132.14046   -4489.3603   -4262.8761   -4489.3603            0    2002.9287    18.035015    23.303943    21.953753    9226.8763    1692.9342     1664.199     2651.653    1042.5797   -278.98071    47.928629   -3993.3529 
21994000    135.88401   -4499.5378   -4266.6372   -4499.5378            0    1884.2559    17.780306    23.554246    22.013276    9219.1973    3181.1395    1896.1783    575.44999   -702.56733   -9.3859222     602.5418   -4013.2942 
21995000    138.59586   -4497.8226   -4260.2741   -4497.8226            0     2507.253    17.955365    23.295725      21.9646    9187.4238    3336.2259    1653.1705    2532.3625   -279.54862   -63.278516   -156.43639   -3924.3294 
21996000    136.30457   -4511.4673   -4277.8459   -4511.4673            0     2377.896    18.059298    23.175097    21.970779     9195.342    2276.5092    2550.0019    2307.1768    103.48121     617.1326   -216.56422   -3958.9591 
21997000    129.25468   -4501.9414   -4280.4033   -4501.9414            0    1854.3795    17.973561    23.433354    21.864962    9209.1025    1401.1537    1956.6904    2205.2944    25.109287   -356.40419    224.66252   -4031.3503 
21998000    143.29019   -4500.1357   -4254.5413   -4500.1357            0    2990.1287    18.112711    23.148384    21.834024    9154.5694    2946.7935    3464.0731    2559.5196    255.94327    87.208191    940.96694   -3855.3292 
21999000    127.13663   -4505.8474   -4287.9396   -4505.8474            0     1163.525    17.976723    23.436366    21.915107    9233.0331     777.5732    1096.1255    1616.8762    2.1199741   -6.5173433    4.8864373   -4131.2659 
22000000    136.16463   -4485.2715     -4251.89   -4485.2715            0    1692.6602    18.007205    23.324464      21.8848    9191.8001    1892.1323    1633.5565    1552.2918    139.33405   -576.17626    -161.0037   -4024.9839 
Loop time of 365.06 on 64 procs for 250000 steps with 864 atoms

Performance: 118.337 ns/day, 0.203 hours/ns, 684.819 timesteps/s
194.4% CPU use with 32 MPI tasks x 2 OpenMP threads

MPI task timing breakdown:
Section |  min time  |  avg time  |  max time  |%varavg| %total
---------------------------------------------------------------
Pair    | 17.226     | 24.963     | 35.172     | 109.7 |  6.84
Bond    | 0.86692    | 1.0111     | 1.4187     |  11.7 |  0.28
Kspace  | 182.17     | 193.83     | 203.24     |  44.2 | 53.09
Neigh   | 0.73253    | 0.80396    | 0.88547    |   5.3 |  0.22
Comm    | 53.479     | 58.863     | 63.366     |  31.3 | 16.12
Output  | 0.511      | 0.51129    | 0.51283    |   0.0 |  0.14
Modify  | 65.851     | 67.91      | 71.931     |  17.5 | 18.60
Other   |            | 17.17      |            |       |  4.70

Nlocal:        27.0000 ave          40 max          18 min
Histogram: 7 3 5 1 3 4 1 2 4 2
Nghost:        2140.78 ave        2261 max        2025 min
Histogram: 8 4 4 0 0 0 0 4 7 5
Neighs:        6612.53 ave        9845 max        4241 min
Histogram: 7 2 5 2 2 5 1 3 3 2

Total # of neighbors = 211601
Ave neighs/atom = 244.90856
Ave special neighs/atom = 2.0000000
Neighbor list builds = 2882
Dangerous builds = 0

unfix		3
unfix		2
unfix		1

write_data	data.final.${pid} nocoeff
write_data	data.final.1 nocoeff
System init for write_data ...
PPPM initialization ...
  extracting TIP4P info from pair style
  using 12-bit tables for long-range coulomb (../kspace.cpp:340)
  G vector (1/distance) = 0.37201968
  grid = 24 27 25
  stencil order = 5
  estimated absolute RMS force accuracy = 0.0031190463
  estimated relative force accuracy = 9.3929153e-06
  using double precision FFTW3
  3d grid and FFT values/proc = 4410 672
Last active /omp style is kspace_style pppm/tip4p/omp

write_restart   restart.lmp.${pid}
write_restart   restart.lmp.1
System init for write_restart ...
PPPM initialization ...
  extracting TIP4P info from pair style
  using 12-bit tables for long-range coulomb (../kspace.cpp:340)
  G vector (1/distance) = 0.37201968
  grid = 24 27 25
  stencil order = 5
  estimated absolute RMS force accuracy = 0.0031190463
  estimated relative force accuracy = 9.3929153e-06
  using double precision FFTW3
  3d grid and FFT values/proc = 4410 672
Last active /omp style is kspace_style pppm/tip4p/omp
Total wall time: 0:06:05
