#include		in.partitions
include		in.temp
variable        temperature equal 128.41
variable	tempDamp equal 100.0
include		in.pressure
variable        pressure equal 6293.8
variable        pressureDamp equal 1000.0 # This is 1 ps
include		in.seed
variable        seed equal 745823

units		real
atom_style	full

read_restart	restart.lmp.${pid}
read_restart	restart.lmp.1
Reading restart file ...
  restart file = 30 Jul 2021, LAMMPS = 30 Jul 2021
  restoring atom style full from restart
  orthogonal box = (0.10072280 0.11279803 0.063526814) to (19.899278 19.887203 20.636471)
  4 by 4 by 4 MPI processor grid
  restoring pair style lj/cut/tip4p/long/omp from restart
  restoring bond style harmonic/omp from restart
  restoring angle style harmonic/omp from restart
  972 atoms
  648 bonds
  324 angles
Finding 1-2 1-3 1-4 neighbors ...
  special bond factors lj:    0        0        0       
  special bond factors coul:  0        0        0       
     2 = max # of 1-2 neighbors
     1 = max # of 1-3 neighbors
     1 = max # of 1-4 neighbors
     2 = max # of special neighbors
  special bonds CPU = 0.007 seconds
  read_restart CPU = 0.017 seconds
include 	in.setup
variable	out_freq equal 1000
variable	out_freq2 equal 10000
variable	out_freq3 equal 1000

timestep	2.0

neigh_modify    delay 7 every 1

include		in.tip4p
# This is TIP4P/Ice

# create groups ###
group ox type 2
324 atoms in group ox
group hy type 1
648 atoms in group hy

# set charges - beside manually ###
set group ox charge -1.1794
Setting atom values ...
  324 settings made for charge
set group hy charge 0.5897
Setting atom values ...
  648 settings made for charge

# ### TIP3P Potential Parameters ###
pair_style lj/cut/tip4p/long/omp 2 1 1 1 0.1577 8.5
pair_coeff 1 1*2 0.000 0.000
pair_coeff 2 2 0.21084 3.1668
bond_style  harmonic
bond_coeff  1 450 0.9572
angle_style harmonic
angle_coeff 1 55 104.52
kspace_style pppm/tip4p/omp 1.0e-5
pair_modify tail yes

thermo          ${out_freq}
thermo          1000
thermo_style    custom step temp pe etotal epair emol press lx ly lz vol pxx pyy pzz pxy pxz pyz enthalpy

restart 	${out_freq3} restart.lmp.${pid} restart2.lmp.${pid}
restart 	1000 restart.lmp.${pid} restart2.lmp.${pid}
restart 	1000 restart.lmp.1 restart2.lmp.${pid}
restart 	1000 restart.lmp.1 restart2.lmp.1


include         in.dump
dump            myDump all atom ${out_freq2} dump.water.${pid}
dump            myDump all atom 10000 dump.water.${pid}
dump            myDump all atom 10000 dump.water.1
dump            myDump2 all dcd ${out_freq2} dump.dcd
dump            myDump2 all dcd 10000 dump.dcd
dump_modify     myDump append yes
dump_modify     myDump2 append yes


variable natoms 	equal  "count(all)"                        # NUMBER ATOMS
variable H      	equal  "enthalpy/v_natoms"                 # ENTHALPY-per-atom
variable Vol      	equal  "vol/v_natoms"                 # volume-per-atom
fix AVG all 		ave/time ${out_freq} 1 ${out_freq} v_Vol v_H file vol_enthalpy.dat
fix AVG all 		ave/time 1000 1 ${out_freq} v_Vol v_H file vol_enthalpy.dat
fix AVG all 		ave/time 1000 1 1000 v_Vol v_H file vol_enthalpy.dat


timer           timeout 02:55:00 every 1000
New timer settings: style=normal  mode=nosync  timeout=02:55:00

fix 		1 all shake 1e-6 200 0 b 1 a 1
       0 = # of size 2 clusters
       0 = # of size 3 clusters
       0 = # of size 4 clusters
     324 = # of frozen angles
  find clusters CPU = 0.001 seconds
fix             2 all nph aniso ${pressure} ${pressure} ${pressureDamp}
fix             2 all nph aniso 6293.8 ${pressure} ${pressureDamp}
fix             2 all nph aniso 6293.8 6293.8 ${pressureDamp}
fix             2 all nph aniso 6293.8 6293.8 1000
fix             3 all temp/csvr ${temperature} ${temperature} ${tempDamp} ${seed}
fix             3 all temp/csvr 128.41 ${temperature} ${tempDamp} ${seed}
fix             3 all temp/csvr 128.41 128.41 ${tempDamp} ${seed}
fix             3 all temp/csvr 128.41 128.41 100 ${seed}
fix             3 all temp/csvr 128.41 128.41 100 745823


run             250000
PPPM initialization ...
  extracting TIP4P info from pair style
  using 12-bit tables for long-range coulomb (../kspace.cpp:340)
  G vector (1/distance) = 0.37207952
  grid = 24 24 24
  stencil order = 5
  estimated absolute RMS force accuracy = 0.0035245128
  estimated relative force accuracy = 1.0613966e-05
  using double precision FFTW3
  3d grid and FFT values/proc = 2197 216
Last active /omp style is kspace_style pppm/tip4p/omp
Neighbor list info ...
  update every 1 steps, delay 7 steps, check yes
  max neighbors/atom: 2000, page size: 100000
  master list distance cutoff = 10.8154
  ghost atom cutoff = 10.8154
  binsize = 5.4077, bins = 4 4 4
  1 neighbor lists, perpetual/occasional/extra = 1 0 0
  (1) pair lj/cut/tip4p/long/omp, perpetual
      attributes: half, newton on, omp
      pair build: half/bin/newton/omp
      stencil: half/bin/3d
      bin: standard
Per MPI rank memory allocation (min/avg/max) = 9.225 | 9.228 | 9.231 Mbytes
Step Temp PotEng TotEng E_pair E_mol Press Lx Ly Lz Volume Pxx Pyy Pzz Pxy Pxz Pyz Enthalpy 
17250000    131.99344   -4975.9973   -4721.4368   -4975.9973            0    7365.6985    19.798555    19.774405    20.572944    8054.4034    8279.2661    7119.9695      6697.86    93.379583    -187.1211    77.545537   -3856.2235 
17251000    126.79768   -4987.3504   -4742.8104   -4987.3504            0    6464.5786    19.711731     19.87094    20.623229    8077.9252    9000.2849    5087.8418    5305.6091   -243.81077   -696.38482    765.28138   -3981.2297 
17252000    128.38056   -4987.9992   -4740.4065   -4987.9992            0    6346.8828    19.796471    19.632766    20.732838    8058.0144    5967.8366    7920.9814    5151.8304    197.03413   -595.79426   -947.17977   -3994.5344 
17253000    134.81056    -5005.451   -4745.4575    -5005.451            0    6034.2938    19.900974    19.775497    20.446951    8046.9314    5634.3212    6197.4307    6271.1294    128.58023    465.86918   -302.94693   -4037.2955 
17254000    125.11987    -4999.915   -4758.6108    -4999.915            0    5788.5484    19.926818    19.797544    20.404083    8049.4527    5921.8837    4937.3686    6506.3928   -339.15226   -315.21747   -463.04599   -4079.0757 
17255000    123.75689   -4979.2733   -4740.5977   -4979.2733            0    5601.8847    19.897948    19.838673    20.463447    8077.9228    5220.4585    4897.1966    6687.9989   -513.97068   -430.86162    -715.8243   -4080.6497 
17256000    134.44989   -4988.3159   -4729.0179   -4988.3159            0    5632.5389    19.787385    19.928996    20.430261    8056.5248    6287.8987     4657.057    5952.6611   -192.02223    363.56907    125.18935   -4067.2163 
17257000    131.14574   -4991.9169   -4738.9913   -4991.9169            0    5660.0396    19.625012    19.991882    20.469492    8031.0194    6691.1861    4652.5945    5636.3382   -385.94438    903.35548   -94.411379   -4076.0638 
17258000    135.09545   -4996.8225   -4736.2795   -4996.8225            0    6320.3229    19.723034    19.988509    20.422917    8051.4093    7248.1218    5423.4778    6289.3691   -10.759478    162.28194   -127.79295   -3994.1374 
17259000    133.20988   -4973.3838   -4716.4774   -4973.3838            0    7893.1923    19.957897    19.736593    20.315859    8002.4347    5830.8112    9442.5749    8406.1907   -60.699225   -1079.5764    163.59612   -3795.2842 
17260000     139.0668   -4996.9854   -4728.7833   -4996.9854            0    5233.3222    19.710704    19.882765    20.494908    8032.0217    4436.0913    5096.3228    6167.5526    330.38789    1510.8915    511.03204   -4115.7583 
17261000    126.84588    -4985.449    -4740.816    -4985.449            0    6784.9353    19.660774    19.877572    20.555232    8033.1583    8104.5584     5759.635    6490.6125   -501.24578    957.50366    441.23582   -3945.9244 
17262000     133.9154   -4973.2522   -4714.9851   -4973.2522            0    6050.2527    19.634489    19.830473    20.735304    8073.5227    5854.1615    6359.6062    5936.9903    615.63358   -178.76192   -283.03331   -4002.6038 
17263000     134.4952   -4978.5026   -4719.1173   -4978.5026            0    6516.8164    19.794866     19.92259    20.427305    8055.8142    5897.1752     7401.958     6251.316    -350.5479     25.46217    652.32384    -3953.484 
17264000      128.094   -4991.8316   -4744.7916   -4991.8316            0    6013.6535      19.8534     19.79901    20.555507    8079.9105    6170.7437    6110.3958    5759.8209   -55.954001   -47.859514    614.38861   -4036.1595 
17265000    126.92843   -4988.0479   -4743.2557   -4988.0479            0    5407.6819     19.92141    19.799234    20.474117    8075.5783    4762.0909    5954.4044    5506.5503   -579.22028   -18.811351   -948.18403   -4106.3713 
17266000    127.12041   -4984.8558   -4739.6934   -4984.8558            0    7191.0109    19.845276    19.822126    20.461829    8049.1835    6819.7688    7015.1079     7738.156   -391.78726   -98.417401     1046.459   -3895.5472 
17267000    127.54047   -4982.3101   -4736.3376   -4982.3101            0    7031.9829    19.856099     19.77756     20.43697     8025.704    6281.1383    7824.1172    6990.6933   -162.34486   -304.59947   -105.64411   -3913.2674 
17268000    124.38297   -4990.4219   -4750.5389   -4990.4219            0    6499.3628    19.783856    19.960955    20.371493    8044.7974    7018.5507    5463.7529     7015.785   -227.70735    223.12844    826.43804   -3988.0003 
17269000    126.85838   -4986.3661    -4741.709   -4986.3661            0    5675.0946    19.799779    19.841467    20.441528    8030.5904    6058.6225    4958.2908    6008.3705   -653.80148    302.33592   -252.95228   -4077.0537 
17270000    129.43477   -4991.4316   -4741.8058   -4991.4316            0    6271.0992    19.863652    19.863952    20.399643    8049.1002    4827.3421    6565.9731    7419.9825   -200.52005   -560.35897       784.89   -4005.6548 
17271000    125.52619    -4990.183   -4748.0952    -4990.183            0    6965.1312    20.022467    19.646398    20.363177    8010.2498    5801.1696    8479.1245    6615.0995   -530.80648    429.92377   -284.32749   -3934.4197 
17272000    124.34592   -4979.9804   -4740.1689   -4979.9804            0    5183.1407     20.01524    19.868716    20.367016    8099.4962    4002.4951    4535.5093    7011.4177   -232.30658    1403.9948   -594.34749   -4127.9216 
17273000    130.53358   -5005.5887   -4753.8437   -5005.5887            0    5694.3711    19.912465    19.877271    20.458759    8097.6885     6454.177    4484.6662    6144.2701    296.34154    89.505198   -216.75111   -4081.3585 
17274000    132.99192   -4968.9801    -4712.494   -4968.9801            0    7275.5731    19.839528    19.853719    20.401269    8035.8232    7248.8226    6446.3043    8131.5926    39.655662   -1563.8153    1096.3494   -3859.8388 
17275000    134.35377   -4985.5927   -4726.4801   -4985.5927            0    6003.3308     19.86938    19.895046    20.403658    8065.6114    5962.6617    6953.9391    5093.3915    560.56447   -108.54925    198.66649   -4020.3163 
17276000    131.63914   -4982.1605   -4728.2834   -4982.1605            0    6056.5139    19.819531    19.879865    20.497754    8076.3118    6324.0204    6044.8615    5800.6599    221.69013   -26.659866     2032.383   -4014.9185 
17277000    136.10407   -4984.2271   -4721.7389   -4984.2271            0    6505.8948    19.681396    19.833444    20.640991    8057.2079    5968.4297    7302.4432    6246.8115    239.11567    1688.5595   -439.38911   -3957.2565 
17278000    123.46084   -4985.3838   -4747.2792   -4985.3838            0    7254.9031    19.776615    19.780388    20.546145    8037.4283    5982.6322    8332.2688    7449.8084   -462.05872    545.47795    320.77242   -3896.8766 
17279000    134.87303   -4992.6267   -4732.5127   -4992.6267            0    6799.4247    19.893168    19.710445    20.434126    8012.2864    5800.1505    7596.6185     7001.505    158.23962    708.76636    487.98648   -3937.9932 
17280000     138.3499   -4998.6314    -4731.812   -4998.6314            0    5109.7054    19.843974    20.056105    20.325603    8089.4443    5485.4565    4271.2435    5572.4162    495.34368    313.91759    150.25543   -4128.9881 
17281000    130.84222   -4977.9102   -4725.5699   -4977.9102            0    6171.1683    19.835286    19.972061    20.355353    8063.8045    7323.0459    4637.2082    6553.2508    385.08996   -647.99784   -514.86431   -3999.8263 
17282000    132.56541   -4993.0774   -4737.4138   -4993.0774            0      5256.58    19.805442    19.805001    20.633669    8093.4905      5372.74    5225.3895    5171.6103   -30.179554   -412.65505    688.03403    -4116.952 
17283000    128.26589   -4979.4938   -4732.1222   -4979.4938            0    6649.8829    19.661569    19.823614    20.576292    8019.8845    7870.6231    6666.7651    5412.2603    179.97519    306.34718    167.12915     -3954.34 
17284000    123.84483   -4992.9123   -4754.0671   -4992.9123            0    5358.5986    19.803793    19.893547    20.565325    8102.0735    5358.7419    5129.1355    5587.9183   -294.58876    1400.1279    109.83611   -4120.8928 
17285000    128.02802   -5009.5279   -4762.6151   -5009.5279            0    7200.4219    19.697497     19.82055    20.633742    8055.7273    8268.0949    7375.7661    5957.4048   -256.18987    208.19505    407.42214    -3916.677 
17286000    128.79094   -4998.1845   -4749.8003   -4998.1845            0     6965.251    19.793762    19.763429    20.551527    8039.6053    7062.8601    8205.3884    5627.5046    293.16548    741.10408     1910.187   -3933.1289 
17287000    129.21181   -4991.0604   -4741.8646   -4991.0604            0    6892.6727    19.845575    19.851301     20.48789    8071.4192    6345.6271    6452.0895    7880.3013    308.84377    1236.0385   -347.14831   -3930.5049 
17288000    125.34869   -4972.5884   -4730.8429   -4972.5884            0    5506.9506    19.703981    20.000533    20.453525    8060.5321    6212.5939    4254.6019    6053.6561   -202.87362    102.72003    844.19551   -4083.4755 
17289000    127.90602   -4991.0532   -4744.3757   -4991.0532            0    6976.8916    19.603316    19.840785    20.593395    8009.7016    8557.9358    5823.5919    6549.1471    -418.2249    216.76185    38.998246   -3929.3821 
17290000    128.30363   -4988.1076   -4740.6633   -4988.1076            0    6373.2796    19.810016     19.77716     20.56574    8057.3658    6913.1077    5760.3239    6446.4072   -487.10803    191.63811   -1081.9519   -3991.7493 
17291000    128.38957    -4984.792   -4737.1819    -4984.792            0    5920.2974    19.864261    19.824703    20.471614    8061.7847    5171.8294    6177.3292    6411.7335    428.09344     208.7362    314.71357   -4041.1156 
17292000    129.64327    -4993.695   -4743.6671    -4993.695            0    6858.9476    19.827774    19.890367    20.381044    8037.9109    7232.8338    5850.9324    7493.0765   -530.03328    413.30956    181.62104   -3939.6291 
17293000    129.76671   -4974.9342   -4724.6682   -4974.9342            0    6229.8068    19.770835    19.815559     20.42781    8003.0062    8829.1092    4382.9562     5477.355   -43.063395   -157.79012   -229.63364   -3997.5523 
17294000    127.13029   -4992.4149   -4747.2334   -4992.4149            0    6339.1936    19.798195    19.837556    20.438494    8027.1735    5734.1728    5654.2792    7629.1286   -567.21436    919.74088    733.48317   -4005.1161 
17295000    128.19741   -5006.7184   -4759.4789   -5006.7184            0    5994.6123     19.88232    19.854531    20.429818     8064.755    5614.8238     5646.354    6722.6592    378.84905    253.35637    292.28109   -4054.4155 
17296000    127.82261   -4995.9069   -4749.3903   -4995.9069            0    6590.1801    19.737352    19.883535    20.539863    8060.8349    7495.8733    5720.4189     6554.248    131.01164   -133.94825   -38.777066   -3974.6552 
17297000    125.19666   -4985.6449   -4744.1926   -4985.6449            0    5690.4714     19.69502    19.858004    20.685247    8090.0785    6619.9244    5382.2343    5069.2554    12.063667    50.542416   -140.27517   -4072.7995 
17298000    126.58111    -4998.308   -4754.1857    -4998.308            0    7102.6814    19.852715    19.742285    20.485311    8028.9711    7346.5065    6857.5577    7103.9801   -609.34762    337.38488    501.04153   -3922.5022 
17299000    133.44594     -4990.36   -4732.9983     -4990.36            0     7052.041     19.65938    19.756654    20.701299    8040.4583    7164.5361    6919.1382    7072.4488    198.26009   -71.818049    555.12747    -3906.063 
17300000    123.86694   -4993.7463   -4754.8585   -4993.7463            0    5775.7133     19.89998     19.73921    20.546062    8070.6963    5198.2421    5783.4888     6345.409   -494.96267    465.41022    203.40675   -4075.0407 
17301000    131.76755   -4965.8721   -4711.7473   -4965.8721            0    4437.2036    19.888983    20.090725    20.318099     8118.789    3450.3323    4303.1156     5558.163    202.25494    292.62276   -506.52415   -4186.3637 
17302000    126.03092   -4991.1329   -4748.0717   -4991.1329            0    5250.5714    19.827181    19.886362    20.489533    8078.8286    5487.4568    4456.6017    5807.6559    293.81357    551.97241   -154.83533   -4129.4419 
17303000    121.26387   -4992.8012   -4758.9336   -4992.8012            0    5411.6038     19.90983    19.673353    20.627208    8079.5356    3685.9941    7114.1924    5434.6248    29.193654    593.88976   -403.21027   -4121.2749 
17304000    133.12182   -4982.1285   -4725.3918   -4982.1285            0    7193.1963    19.736025    19.814329    20.510116    8020.6058     7974.557    7210.8336    6394.1984   -166.19487    310.06093   -622.90445   -3883.9871 
17305000    129.88919   -4986.2701   -4735.7679   -4986.2701            0    6048.2095    20.015355    19.777485    20.419177    8083.0002    4776.9031    6656.7935    6710.9318    505.86501   -397.90791   -116.56304   -4022.7912 
17306000    139.48261   -4990.3999    -4721.396   -4990.3999            0    5724.3702    19.827445    19.805853    20.558234    8073.2073    3690.2633    7481.5921    6001.2553    135.88759    1060.8595    1163.0278   -4047.4118 
17307000     124.4045    -4998.514   -4758.5895    -4998.514            0    5609.6617    19.788154    19.821705     20.50807    8043.9816    6320.3684    5035.5333    5473.0833   -397.92329    14.306031    209.75309    -4100.502 
17308000    125.88048   -4986.8499   -4744.0788   -4986.8499            0    6805.3458    19.881788    19.890371    20.499941    8106.8276    6201.4502    6233.0991    7981.4881    95.078933    185.20272      564.015   -3939.4843 
17309000    131.45777   -4997.9503   -4744.4229   -4997.9503            0    6124.5059    19.866618    19.794823    20.470883    8050.3017    5860.0599    6373.9346    6139.5233   -447.66926   -755.55692    35.403711   -4025.3729 
17310000    125.95331   -4987.1707   -4744.2592   -4987.1707            0    5592.3965    19.735438    19.984898    20.430055    8057.8324    6236.9751    4728.2227    5811.9918   -160.27066    89.379714   -441.28682   -4087.0674 
17311000    129.92805   -4985.6214   -4735.0442   -4985.6214            0    5974.2594    19.822206    19.881374    20.461339     8063.664    4901.8117    6698.5288    6322.4378    19.003409    511.96864    980.41419   -4032.4697 
17312000    140.59488   -4995.2617   -4724.1126   -4995.2617            0    5294.6813     19.86135    19.915181    20.534203    8122.1472    6551.7696    3434.6047    5897.6695   -143.02019     282.0786   -9.6793075   -4096.9408 
17313000    135.11662   -4987.7822   -4727.1984   -4987.7822            0    6065.4382    19.838312    19.927095    20.437609    8079.3939    6752.1877    4725.3571    6718.7699     56.27809   -142.47801     455.6727   -4012.5098 
17314000    131.25684   -4994.3988   -4741.2589   -4994.3988            0    5139.8385    19.779105    19.842654    20.567862    8072.2676    5276.8051    4186.7384     5955.972   -416.56193     480.9504   -465.76691   -4136.1676 
17315000     129.3612   -4990.4915   -4741.0075   -4990.4915            0    7802.7824    19.902994    19.643637    20.508756    8018.2508    7733.2307    8447.5061    7227.6105    4.2401354   -969.25429   -461.51633    -3828.566 
17316000    133.48266   -4975.3931   -4717.9606   -4975.3931            0    7647.7735    19.848396    19.768023    20.494106    8041.1403      8344.85    7009.5419    7588.9286    190.79051   -301.78852   -461.53602   -3821.0926 
17317000    126.11954   -4988.8931    -4745.661   -4988.8931            0    6801.7611    19.878565     19.84412    20.416835    8053.8826    4856.4909    7548.0382    8000.7542   -575.39119    255.11582   -10.494698   -3946.7424 
17318000      126.354   -4991.3483    -4747.664   -4991.3483            0    5126.0534    19.954451    19.925564    20.399651    8110.9767    4713.6632    5027.6722    5636.8248   -781.12483    1162.2706   -51.682463   -4141.3018 
17319000    125.17165   -4991.6095   -4750.2054   -4991.6095            0    7510.8009    19.931073    19.693536    20.395416    8005.4722    7054.8696    7906.7651     7570.768    118.79851   -1203.7097   -6.1878951   -3873.3074 
17320000    131.20737   -4983.4241   -4730.3797   -4983.4241            0    7111.1843    19.812203    19.868388    20.414051    8035.7164    7162.5081    6990.2134    7180.8313    226.45374    -642.9794   -156.71305   -3897.0009 
17321000    131.84279   -4985.1505   -4730.8806   -4985.1505            0    6994.5155    19.699938    19.705586    20.565204    7983.3881    7399.5075    7376.6153    6207.4239    204.63806     569.7416   -347.34479   -3916.5124 
17322000      135.397   -4974.1793   -4713.0548   -4974.1793            0     5003.303    19.712341    19.873724    20.687806    8104.6056    5662.1296    4251.7666    5096.0129   -89.085453    540.65457   -865.63869   -4121.6776 
17323000     123.3971   -4998.7537    -4760.772   -4998.7537            0    5339.9864    19.728008    19.771554    20.732336    8086.7175      6723.87     4878.692    4417.3973   -921.54443    214.94423    421.43761   -4130.9928 
17324000    125.76049   -4995.7809   -4753.2412   -4995.7809            0    6592.6881    19.789761    19.858783    20.437883    8032.0997     6813.293    5766.9489    7197.8225    -67.37491    80.512049    744.84667   -3980.9742 
17325000    120.77584   -4980.6303   -4747.7039   -4980.6303            0     5832.971    19.724379    19.796305     20.71316    8087.8643    5892.6196    7029.8804     4576.413   -68.166133   -158.47724   -467.70071   -4059.6863 
17326000    130.89858   -4998.1953   -4745.7464   -4998.1953            0    5308.9328    19.970823    19.849567    20.459275    8110.3063    5024.6899    5003.6336    5898.4747   -212.17001    440.01622     315.5998   -4117.8032 
17327000    122.49919   -5000.4097   -4764.1597   -5000.4097            0    5515.2551    19.703379    19.952487    20.501601    8059.8238     4855.664    6245.5242    5444.5772    454.81682    497.81994   -63.319135   -4115.8731 
17328000    135.07886   -4977.0278   -4716.5169   -4977.0278            0     6202.015    19.792924    19.879557    20.375038     8017.059     6179.595    6822.0815    5604.3685   -20.382554   -393.87015   -65.544634   -3991.3737 
17329000    133.46477   -5002.9012   -4745.5031   -5002.9012            0    7066.2696    19.846617    19.726828    20.440092    8002.5169    7520.2039     7733.505    5945.0999   -132.27026    185.98395    535.78013   -3920.8094 
17330000    133.40105    -4985.476   -4728.2009    -4985.476            0    5614.6078    19.752318    19.883863    20.526136    8061.6887    5920.7056    5145.3676    5777.7502    328.71773    906.67356   -863.78038   -4068.0832 
17331000    127.37649   -4985.3018   -4739.6455   -4985.3018            0    6346.1021    19.752296    19.813875    20.702479    8102.3192    6658.1582    6934.1369    5446.0112   -201.23503   -237.34625   -129.13686   -3989.7646 
17332000     127.1795     -4995.42   -4750.1437     -4995.42            0    6941.1024    19.717429    19.850443    20.539172     8039.026    7113.8062     7074.041    6635.4599   -894.72036   -1240.1776    117.15805   -3936.3623 
17333000    128.19371   -4973.0557   -4725.8233   -4973.0557            0     8080.971    19.812134    19.802994    20.399996    8003.7257    8233.1004    8003.3813    8006.4314     407.0544   -410.74678    1551.4181   -3782.5628 
17334000      129.541    -4966.394   -4716.5633    -4966.394            0     6274.979    19.969429    19.688623    20.470032     8048.214    5420.8896    7264.0723    6139.9752   -243.77556    344.74321    850.09492    -3980.038 
17335000    128.48918   -4994.3953   -4746.5931   -4994.3953            0    6267.1365    19.682051    19.906832    20.450947    8012.8301    6800.6771    5618.9369    6381.7955   -213.77834    580.90438      1137.04   -4014.2224 
17336000    125.75823   -4989.9097   -4747.3744   -4989.9097            0    5808.6534    19.811962    19.872226     20.53949    8086.5572    4733.5097    7051.1922    5641.2583    258.28082   -76.043841   -75.678976   -4062.3358 
17337000     130.9367   -5000.1087   -4747.5863   -5000.1087            0    5704.3147    19.827609    19.999659     20.41633    8096.0019    7026.1875    3645.5911    6441.1655    20.869796    251.19474   -251.57658   -4074.0671 
17338000    135.03766   -4994.4964   -4734.0649   -4994.4964            0     7532.081    19.693763    19.927425    20.354576    7988.0718    8686.5461    6757.4603    7152.2366   -34.068612   -130.09302    987.21309   -3856.5938 
17339000     127.6294   -5008.4077   -4762.2637   -5008.4077            0    6403.3928    19.745778    19.811043    20.513634    8024.6147    5895.2093    6670.7786    6644.1906    83.328431    217.59244   -142.40078   -4012.8697 
17340000    129.27025   -4991.8813   -4742.5727   -4991.8813            0     6521.692     19.77368    19.862895    20.488703    8047.1951    7712.3964    5130.4755    6722.2043   -332.05063    231.82284   -746.25519   -3977.1864 
17341000    126.20469   -4987.0998   -4743.7035   -4987.0998            0    7778.4789     19.89308    19.669622    20.481526    8014.2032    7878.3557    8428.4532     7028.628      -98.482         1096   -308.48439   -3834.5631 
17342000    127.77235   -4990.0995   -4743.6798   -4990.0995            0    6234.1007    19.840947     19.82903    20.446847    8044.3362    5131.6954    8220.7351    5349.8716    77.655168    529.26206   -1606.8284   -4012.3051 
17343000    134.83287   -4987.3299   -4727.2933   -4987.3299            0    5570.1476    19.771891    19.848482     20.48277    8038.2997    5101.1396    5429.4923    6179.8108    72.500634     124.3252    346.47376    -4074.303 
17344000    132.29972   -4998.3562    -4743.205   -4998.3562            0    5093.3815    19.739369    19.900182    20.581365    8084.7105    5109.7713    5077.8134    5092.5597    -456.6241    360.14932    448.51824   -4142.6586 
17345000    120.39855   -4995.3583   -4763.1596   -4995.3583            0    5993.9363    19.783316    19.813607    20.601877    8075.5001    5968.8078    6333.3921    5679.6089    82.633652     717.8445     121.2951   -4057.2364 
17346000    124.15154   -4976.0597    -4736.623   -4976.0597            0    6521.3405    19.906731        19.87    20.452138    8089.7766    6770.6311    6064.3852    6729.0051    238.02147    538.07976     304.1603   -3967.2282 
17347000    130.73593   -4990.9364   -4738.8012   -4990.9364            0    6524.3948      19.9068    19.809688    20.365159    8030.9492    5327.5705    7269.3281    6976.2858   -382.06769    -31.77864   -246.56779   -3974.6435 
17348000    126.24164   -4989.0262   -4745.5585   -4989.0262            0    5565.5529    19.801039     19.91462     20.49389    8081.3591    5408.0332    5504.6662    5783.9592   -638.61322   -223.87288    1105.2678   -4089.6117 
17349000    123.39169   -4983.0907   -4745.1194   -4983.0907            0    5912.1907    19.806645    19.879281    20.499288    8071.4277     9266.659    3198.2122    5271.7008    483.21429    501.99816    86.751716   -4049.1748 
17350000    127.58116   -4992.4566   -4746.4056   -4992.4566            0    5709.1711    19.697617     19.89754    20.604483    8075.5996    5588.0774     4779.307     6760.129    145.96591    939.54387    20.184766   -4074.0118 
17351000    124.07955   -5005.1435   -4765.8457   -5005.1435            0    4813.7707    19.825927    19.806168    20.672822    8117.7136    5001.5537    5139.9108    4299.8475   -599.63352    353.10518   -166.50887   -4195.9505 
17352000    125.60605   -4980.7255   -4738.4837   -4980.7255            0    6589.9398    19.807609    19.779327    20.601712    8071.3634    7341.4141    6015.5155    6412.8898    10.759097    106.12947   -251.91642    -3962.765 
17353000    131.81147   -4983.1998   -4728.9903   -4983.1998            0    5934.1027    19.747832    19.893362    20.467393    8040.6311    5888.4636    5567.3914    6346.4531   -40.864353    454.65952    634.55908   -4033.1315 
17354000    132.52879    -4991.786   -4736.1931    -4991.786            0    5927.0747      19.8747    19.860106    20.498727    8091.1277    5988.6395    5480.3062    6312.2786   -469.62464    523.54579    129.75731   -4036.7936 
17355000    131.38673   -4974.8642   -4721.4738   -4974.8642            0    5299.2656    19.782951    19.879663    20.523686    8071.5226    4808.9383    5988.9968    5099.8619    54.584104   -445.93944    873.77951   -4097.6714 
17356000    127.76723   -4999.1731   -4752.7633   -4999.1731            0    5939.8732    19.845289    19.858728     20.46794      8066.46    6527.1872    5426.6382    5865.7941   -369.20164    439.41221   -503.01403   -4053.9904 
17357000    125.87872    -4979.943   -4737.1753    -4979.943            0    7087.2842     19.73627    19.996853    20.389969     8047.172    7595.0669    7017.9595    6648.8264     334.5834    629.27476   -222.08488   -3905.4134 
17358000    131.09871    -4984.299   -4731.4641    -4984.299            0    6240.5387    19.778286    19.878053    20.488444      8055.11     6298.107    5885.9143    6537.5947    488.71342    235.87271   -224.82597   -3998.3536 
17359000    130.14813   -4991.9591   -4740.9575   -4991.9591            0    6160.8431    19.817868    19.995527    20.409869    8087.7926    5669.7641    5471.4284    7341.3368   -710.88278    191.67657    66.754953   -4014.2728 
17360000    135.57708    -4990.797   -4729.3252    -4990.797            0    5491.3575    19.930464    19.883599    20.381282    8076.8852    6993.1331    3628.2307    5852.7086   -113.32142   -380.43128   -889.37362   -4082.4812 
17361000    134.03802   -4981.7146    -4723.211   -4981.7146            0    6493.8443    19.741672      19.7707    20.655292    8061.8985    6795.9666    6375.4887    6310.0777    87.593209    1266.7405    1687.0854   -3959.7004 
17362000    128.84325   -4978.1831    -4729.698   -4978.1831            0    6177.9407    19.886632    19.847118    20.387862    8046.9327    4910.3865    6017.8723    7605.5632    582.20016   -115.51903   -1789.4966    -4004.678 
17363000    129.91742   -5001.2648   -4750.7081   -5001.2648            0    6422.0553    19.926726    19.751589    20.370256    8017.4172    7173.3616    5706.9362    6385.8681     72.67881   -167.52837    490.82376   -3999.8041 
17364000     133.8292   -4989.9671   -4731.8662   -4989.9671            0     6109.361    19.817901    19.847457     20.48275     8056.581    7196.6719    5563.1317    5568.2794    59.981067    554.32492    615.36017   -4014.0348 
17365000    128.75712   -4983.0937   -4734.7748   -4983.0937            0    6858.7028    19.763621    19.817186    20.460088    8013.3847    6220.9471    7127.4799    7227.6814    352.52753   -131.55334   -633.35268   -3933.2188 
17366000    125.09844   -4994.7498    -4753.487   -4994.7498            0    5684.0565    19.738977    19.872447    20.488184    8036.7315    7062.8285     4230.135    5759.2061   -293.98842   -55.119795    342.48172    -4087.273 
17367000    119.76276   -4981.1972   -4750.2247   -4981.1972            0     6680.128    20.024917    19.571909    20.477506     8025.664    4495.3265    8295.5382    7249.5192   -271.43196    478.61931    146.87702   -3968.3419 
17368000    128.58977   -4995.0778   -4747.0816   -4995.0778            0    6732.1233    19.529698    19.971354    20.601319    8035.2256    7919.5784    5496.9482    6779.8434   -124.99577   -720.70928    553.41682   -3958.1742 
17369000    126.28469    -4996.586   -4753.0353    -4996.586            0    6378.2781    19.829344    19.833062    20.475539    8052.5505    6470.7268    6372.3748    6291.7328   -312.44809   -258.33548    377.77829   -4003.9819 
17370000    130.13772   -4988.4049   -4737.4233   -4988.4049            0    6539.4643    19.827275    19.858893    20.463106    8057.3014    5462.2859    7791.0441     6365.063   -350.76736    1093.0743    259.44723   -3968.9874 
17371000    120.00464   -4989.6401    -4758.201   -4989.6401            0    6114.1656      19.9253     19.74616    20.475351     8055.989    6390.1061    5872.6271    6079.7637   -16.076637   -87.573642   -412.87465   -4039.8579 
17372000    133.89968   -4980.7873   -4722.5505   -4980.7873            0    5258.0611    19.875286    19.854651    20.364372    8036.1248    5572.5029    4315.5323    5886.1483   -456.17061    856.05163   -1115.4865   -4106.3129 
17373000    125.90524   -4982.2184   -4739.3996   -4982.2184            0    6017.5067    19.972571    19.709535     20.44964    8050.0025    6671.4866    6291.6003    5089.4334    -315.2401     -70.1702    1211.4253   -4032.9381 
17374000    124.57462   -4979.7176    -4739.465   -4979.7176            0    6447.8817     19.90119    19.680239    20.576458    8058.9793    7193.8916    6738.2196    5411.5339    -247.5737   -264.10555    49.923473   -3981.6329 
17375000    128.80181   -4976.8755   -4728.4703   -4976.8755            0    6778.9455    19.718589    19.818712    20.630002    8062.1434    6359.3856    8042.1533    5935.2976     151.6367   -763.23827    262.27072   -3931.4149 
17376000    121.62461   -4993.7159   -4759.1526   -4993.7159            0    5979.1819    19.778227    19.843812    20.586382    8079.6491    5066.3399    6643.2663    6227.9394   -190.86874   -15.620946   -223.52924   -4054.6053 
17377000    124.64412   -4986.2414   -4745.8547   -4986.2414            0    5573.8729     19.85745    19.834458    20.468937    8061.9318    6867.6416    4137.3788    5716.5982   -72.378387    787.55437    913.39079   -4090.5066 
17378000     127.5552   -4990.9138   -4744.9128   -4990.9138            0    6025.5493    19.886394    19.732594    20.496061    8042.8624    4686.9503    6789.2691    6600.4286    104.10364    807.57911   -46.551148   -4038.1346 
17379000    132.63152    -4974.814    -4719.023    -4974.814            0    5925.0019    19.706302    19.819851    20.688191    8080.3106     7674.761    4477.3944    5622.8503     507.5119    447.48551    446.14313   -4020.8028 
17380000     122.4611   -4994.1135    -4757.937   -4994.1135            0    6823.4029    19.926459    19.630601    20.496287    8017.4989    6055.2748    7783.3123    6631.6215   -235.08243    98.124884    131.22205    -3960.097 
17381000    125.22223   -5008.0897   -4766.5881   -5008.0897            0    5287.4749    19.829654    19.892134    20.512974    8091.4272    4954.6744    5125.5078    5782.2425   -486.31023    -357.1253    1116.3918   -4142.6387 
17382000    133.03126   -4977.8503   -4721.2883   -4977.8503            0    6127.7038    19.929407    19.778307     20.44195    8057.6021    6142.1205    6548.5817    5692.4092   -66.203351    1124.5446   -558.66041   -4001.2104 
17383000    131.53354   -4967.9757   -4714.3022   -4967.9757            0    6165.9049    19.784246    19.765825    20.350468      7958.09    5342.8131    7132.4735    6022.4281     665.1884    -148.9171    571.90813   -3998.6837 
17384000    125.52116   -4986.5243   -4744.4462   -4986.5243            0    7083.2457     19.80872    19.837952    20.382243    8009.4966     6118.998     8478.497     6652.242    58.135353    623.96693   -444.15099   -3917.0502 
17385000    123.87288   -4979.2214   -4740.3221   -4979.2214            0    6439.2109    19.687902    19.788369    20.557757    8009.1269    7372.5878    6442.8837    5502.1611    10.096772   -171.31767    31.842941   -3988.1907 
17386000    128.55097   -4982.2828   -4734.3614   -4982.2828            0    6968.8441    19.658299    19.668908    20.815211    8048.3526    6217.1182     8944.333    5745.0811    576.28373   -551.47565    106.82198   -3916.3797 
17387000    124.87208    -4990.528   -4749.7017    -4990.528            0    7286.5722    19.784727    19.820566    20.466458    8025.8086    9052.8215    5905.2433    6901.6519    540.63852   -1774.1513    581.10796   -3896.8217 
17388000    123.20382   -4980.7886   -4743.1796   -4980.7886            0    7576.1094    19.749378    19.897983    20.318878    7984.7662     7008.923    7278.5288    8440.8765   -59.702452    1180.9184   -589.65119   -3860.9445 
17389000    123.51836   -4996.9413   -4758.7258   -4996.9413            0    6689.7308    19.838438    19.884846    20.365333    8033.8038    7378.0728    5799.8285    6891.2911   -372.78055    926.99859   -546.65593   -3974.9249 
17390000    130.49726   -4984.1549     -4732.48   -4984.1549            0    6305.9363    19.812892    19.890019    20.400582    8039.4367    7002.6969    4920.6252    6994.4868    223.04514    364.73412   -472.86361   -3993.1282 
17391000     127.7637   -4993.3221   -4746.9191   -4993.3221            0    4870.8519    19.912553    19.764422    20.551571    8088.2783    4883.5065     5505.089    4223.9603    -621.8543    312.56616    -1021.848   -4172.3571 
17392000    124.22158   -4978.6091   -4739.0373   -4978.6091            0     6419.081    19.809216    19.699139    20.571938    8027.6746    5982.9573    8043.7695    5230.5162    584.74767    379.86621   -296.56345   -3987.5208 
17393000    124.88713   -4992.0629   -4751.2075   -4992.0629            0     6249.742    19.875895    19.789504    20.523775    8072.7004    6698.8087     5537.043    6513.3743   -424.06373   -697.96828   -138.65453   -4015.4126 
17394000    129.29308   -4987.7883   -4738.4357   -4987.7883            0    6156.5343    19.891621    19.892996    20.388066    8067.6381    7156.7122    4833.2873    6479.6035    28.542381    197.96754   -230.75084   -4014.0688 
17395000     124.0328   -4985.0932   -4745.8856   -4985.0932            0    5852.2515    19.928012      19.8915    20.387554    8081.5868    4994.9726    6123.5356    6438.2463   -145.88087   -899.66136   -28.664205   -4056.1295 
17396000    126.38003   -4992.1854   -4748.4509   -4992.1854            0    6643.9366    19.619744     19.88307    20.555291    8018.6342    6403.4219    7129.3125    6399.0754   -22.834357     62.29638   -10.642894   -3971.4854 
17397000    127.61452   -5010.1784   -4764.0631   -5010.1784            0    5531.8131    19.746939    19.812167     20.72882    8109.7288    5596.9299    6136.1001    4862.4094    201.61028   -584.53348    78.910577   -4109.8041 
17398000    125.38912   -4991.0302   -4749.2068   -4991.0302            0    6689.6881    19.727304    19.753468    20.666288    8053.2941    7093.4913    7470.2926    5505.2803    117.43841   -1379.6354    1436.8558   -3963.5094 
17399000    130.11123   -4984.2462   -4733.3158   -4984.2462            0    5877.7065    19.696343     19.87153    20.615726    8068.9222    6233.0711    6424.5475    4975.5009    332.92366   -180.85056    482.80784   -4041.6452 
17400000    124.11286    -4988.304    -4748.942    -4988.304            0    6591.1491    19.670574    19.884933    20.596674    8056.3485      7863.66     6067.251    5842.5363    288.18953   -94.993575    901.04297   -3974.5243 
17401000    134.29106   -4981.6413   -4722.6497   -4981.6413            0    6019.2088    19.963105     19.82806    20.459158    8098.3416    5102.4385    5686.7585    7268.4295   -297.12425   -30.502103   -146.87976    -4011.745 
17402000    128.35352   -4978.5446    -4731.004   -4978.5446            0    6208.3018    19.842198    19.946612    20.350442     8054.392    6275.7366    5970.4017    6378.7671    243.20947   -488.85125    211.26387   -4001.7455 
17403000    132.65215   -5001.7358   -4745.9049   -5001.7358            0    5755.1153    19.963614    19.793632    20.419783    8068.9272    5901.4359    4949.3452    6414.5649   -64.993478    667.99774   -572.33597   -4068.6601 
17404000    124.45758    -4984.504   -4744.4771    -4984.504            0    6693.7225    19.977908     19.80224    20.382852    8063.6056    4942.9322    7976.0444    7162.1909   -139.68644   -143.98086    211.99618   -3957.2992 
17405000    125.46135   -4989.4264   -4747.4636   -4989.4264            0    6024.9643    19.710068    19.892949      20.5629    8062.5362    6134.8797     6670.726    5269.2871    -190.4777   -2.1616624   -179.64373   -4039.0253 
17406000    128.95159   -5001.1035   -4752.4095   -5001.1035            0    6223.4755    19.684574    19.950354    20.495306    8048.7979    5559.2208    6543.9552    6567.2504    260.47295   -59.499795    558.74417   -4021.8764 
17407000    132.35885   -4995.6832   -4740.4181   -4995.6832            0    5586.8787      19.8229    19.876884    20.510245    8081.3951    6438.4354     5708.984    4613.2168   -568.85693     1444.386    1229.4857   -4081.9549 
17408000    114.37779   -4974.2608   -4753.6737   -4974.2608            0    6506.9847    20.046278    19.679343    20.384014    8041.4442    3257.5467    9331.0966    6932.3108   -322.85324    316.96267    870.14401   -3990.5591 
17409000    123.95866   -4986.5973   -4747.5326   -4986.5973            0    7841.2847    19.906955    19.814747    20.339502    8022.9429    9231.0694    5855.3716     8437.413    569.16586   -113.55515   -165.09218   -3830.0522 
17410000    127.35537   -4984.7679   -4739.1523   -4984.7679            0    6609.5396    19.865686    19.895887    20.375818    8053.4495    5892.9551    6347.3886     7588.275   -953.14595    302.60285    919.69867   -3962.8533 
17411000    128.02944   -4998.3512   -4751.4357   -4998.3512            0    6583.7034     19.94051    19.697504    20.520441    8059.9832     4710.988    8592.4832     6447.639    -93.62585   -1003.6226   -360.20587   -3977.5438 
17412000    125.02805   -4982.1882   -4741.0611   -4982.1882            0     5955.423    19.892337    19.832648    20.482638    8080.7639    5181.0953    6593.3959    6091.7778    7.4051232    -601.3363   -132.08705   -4039.2166 
17413000    127.47883   -4983.8445   -4737.9909   -4983.8445            0    5443.9287    19.833753    19.880559    20.452919     8064.711    5896.2581    5196.9473    5238.5806    31.570567    843.53873    472.04716   -4097.7003 
17414000    126.57947   -4993.0843   -4748.9651   -4993.0843            0    5848.4896      19.7006    19.856592    20.603145     8059.678    6078.5449    6432.5854    5034.3384   -148.48803   -481.56813    1437.7547   -4061.5212 
17415000    130.25006   -4992.5949   -4741.3968   -4992.5949            0    6799.4311    19.729433    19.813598    20.542997    8030.4846     8182.078    5828.3124     6387.903   -889.51982    632.77831    1111.9841    -3945.072 
17416000    126.13919   -4974.8416   -4731.5716   -4974.8416            0    6008.3069    19.845213    19.686091    20.621878    8056.4453     5117.169    7133.9913    5773.7605   -233.71063   -1315.2376    41.136562   -4025.6256 
17417000    130.35951   -4989.0077   -4737.5984   -4989.0077            0    5930.5967    19.637445    19.905161    20.568841    8040.0822    6495.5432    5962.1946    5334.0523    164.99668    454.28803   -1116.1642   -4042.1983 
17418000    139.68545   -4984.0411    -4714.646   -4984.0411            0    8642.5552    19.774493    19.739871    20.425569     7973.038    10426.527    7154.6846    8346.4541   -285.16316    -685.4189    295.58415   -3709.7019 
17419000    133.54887   -4980.5555   -4722.9953   -4980.5555            0    6851.2507    19.894898    19.783414    20.451466    8049.4721     6036.554    7570.7845    6946.4137   -74.401073   -658.12044    49.146844   -3918.7044 
17420000    128.16459    -4983.109   -4735.9328    -4983.109            0    7218.6875    19.854944    19.768783    20.467926    8033.8267    5970.8024    8358.7082    7326.5519    167.23415    518.23605    -282.6441   -3890.1544 
17421000    130.05187   -4985.2652   -4734.4492   -4985.2652            0    6314.9277    19.827687    19.703851    20.583655    8041.6593    6984.0219    6167.6228    5793.1384    -281.4963    471.44348     769.1594   -3993.8386 
17422000    125.14391   -4985.7359   -4744.3854   -4985.7359            0    6197.2919    19.951672    19.690913    20.475651    8044.1997    4615.9491    7765.4599    6210.4666    165.50956    706.91701    420.86706   -4017.3414 
17423000    122.82989   -4988.5959   -4751.7081   -4988.5959            0    6192.7326    19.865303    19.791351    20.407602     8023.477    5843.0126    6178.5527    6556.6324   -254.04974    308.56067    481.80255   -4027.0706 
17424000    134.01615   -4998.8513   -4740.3899   -4998.8513            0    5319.8525    19.982403    19.725532    20.468958    8068.1166    5394.9567    5132.6707    5431.9301   -186.62596   -42.224697    929.29022   -4114.4284 
17425000     128.0128    -4996.258   -4749.3746    -4996.258            0     5003.623    19.837896    19.908457    20.500205    8096.3903    4942.1684    3979.8763    6088.8243   -238.88292    1109.3619    569.32869   -4158.5591 
17426000    126.93654   -5000.5706   -4755.7628   -5000.5706            0    6293.2077    19.771403    19.868491    20.490322    8049.1707    5772.6767    6444.2247    6662.7217   -724.26758    895.82493   -253.70283   -4017.0101 
17427000    122.77687   -4977.6865    -4740.901   -4977.6865            0    6017.2452    19.872084    19.826544    20.553026    8097.7843    6203.0526    6146.1139    5702.5692   -218.82128   -43.752381   -101.92029   -4030.2771 
17428000    125.56146   -4979.6309   -4737.4751   -4979.6309            0    6506.5979    19.824203    19.847434    20.407897    8029.6821    8337.2096    5445.3843    5737.1999   -65.742934   -834.57456   -242.99356    -3975.522 
17429000    127.28892   -4973.6521   -4728.1647   -4973.6521            0    5809.2915    19.772337      19.8036    20.555646    8048.8397    6236.3021    6131.1511    5060.4214   -348.22461    538.01261   -533.97994   -4046.2464 
17430000    129.49037    -4979.918   -4730.1849    -4979.918            0    6664.9249    19.881117     19.71968    20.497444     8036.008    5870.8063    7818.8214    6305.1469     335.0447    557.62282    1118.8058   -3949.0762 
17431000    128.54078   -4991.0023   -4743.1005   -4991.0023            0     7014.775    19.860519    19.728785    20.489317    8028.2041    6635.2335    8188.4699    6220.6217    143.16688    332.86607    177.74107   -3921.7888 
17432000    128.53219   -4987.0738   -4739.1887   -4987.0738            0    7340.9656    19.873596    19.835087     20.36339    8027.1363    7687.7254    6673.9039    7661.2676   -543.73504    242.60544    734.73367   -3879.7998 
17433000    125.35001   -4997.5715   -4755.8235   -4997.5715            0    6472.9346    19.816916    19.746168    20.572575    8050.2167    6888.0133    5397.4115     7133.379   -184.05866    108.31628    766.19423   -3995.8741 
17434000    130.35545   -5006.3902   -4754.9887   -5006.3902            0    5179.5129    19.784725     19.88651    20.575207    8095.2975    4879.2456    4931.0803    5728.2128   -33.355957    706.28921   -941.34972   -4143.4871 
17435000    128.73984   -4978.5039   -4730.2183   -4978.5039            0    6226.3882    19.764696    19.822549    20.539292    8047.0203    5323.5473    7644.0025    5711.6148   -37.222668    257.26758    798.93988   -3999.5047 
17436000    131.86408   -4985.9017   -4731.5907   -4985.9017            0    5895.8993     19.89053    19.863531    20.520834    8107.7029    6173.2801    5604.1205    5910.2973    210.87162    1291.5341   -172.11946   -4034.4447 
17437000    125.02868   -4987.7958   -4746.6674   -4987.7958            0    6172.6324    19.848217    19.832238    20.410382    8034.2321    4994.1556    6178.7966     7344.945     664.9599    124.17832    752.41446   -4023.4137 
17438000    133.02204   -4989.1469   -4732.6027   -4989.1469            0    7332.9915    19.674794    19.861887    20.538379    8025.9577     8549.565    6495.1671    6954.2425    -206.5334   -300.90982     423.8225   -3874.2734 
17439000    125.00723   -4998.3025   -4757.2155   -4998.3025            0    5904.4755    19.874934     19.81626    20.503546    8075.2575    6837.3304    4581.4862      6294.61    189.01319    335.20231    2.1561487   -4061.8493 
17440000    136.31812   -4987.9455   -4725.0445   -4987.9455            0    5456.6322    19.765324    19.838633    20.595858    8075.9864    5942.0303    5556.4804     4871.386    48.618668   -177.84598   -220.68445   -4082.3625 
17441000    123.95741   -4974.7393    -4735.677   -4974.7393            0    6498.1213    19.911242    19.882272     20.32764    8047.3209    4969.5019    7488.7131    7036.1489    25.455303    564.61107    1225.9459    -3973.045 
17442000     130.1976   -4988.0144   -4736.9174   -4988.0144            0    6781.2137    19.729476     19.84844    20.504463    8029.5336    7390.2811    6758.2324    6195.1275   -491.67107      344.808     49.34171   -3942.8202 
17443000    130.86495   -4988.5464   -4736.1623   -4988.5464            0    7167.3962    19.664717    19.803124    20.635715    8036.0187    7529.6109    7124.0735    6848.5041   -5.9889814    1265.6292    781.54489   -3896.1644 
17444000    131.86017   -4980.1679   -4725.8644   -4980.1679            0    6445.9464    19.758011    19.745228    20.634707    8050.1445    6305.2274    7769.9538     5262.658    249.91262    707.63499   -1043.7343   -3969.0903 
17445000    127.59736   -4987.2336   -4741.1513   -4987.2336            0    6558.7155    19.806104    19.831729    20.544149    8069.5219    6252.9192    7226.5773    6196.6501   -194.71841    137.41764    60.069239   -3969.2843 
17446000     130.7646   -4996.5094   -4744.3189   -4996.5094            0    5918.1591    19.828952      19.8291    20.527134    8071.0692    5356.0943    6525.4565    5872.9266    185.46857   -9.9635119    615.02287   -4047.7026 
17447000    124.31065   -4980.4426   -4740.6991   -4980.4426            0    5175.8054     19.75742    19.880695    20.572087    8080.5352    6889.8479     4561.955    4075.6133   -298.30642   -335.65798    -12.73231   -4130.7495 
17448000    129.63225   -4979.6198   -4729.6131   -4979.6198            0    7221.9333    19.673206    19.821816    20.474538    7984.2238    6538.6905    8448.9801    6678.1293    201.25843    10.599199    345.28794   -3888.6788 
17449000    130.14581    -4979.676   -4728.6788    -4979.676            0    6297.2056    19.882763    19.844258    20.460996    8073.0636    7057.4606    5748.9572    6085.1989    263.95844     765.8044    -488.9257   -3987.2625 
17450000    127.00188    -4990.835   -4745.9012    -4990.835            0    6273.0664    19.562354    19.978964    20.561828    8036.2938    7778.7585    5834.7096    5205.7312   -266.71581   -431.38737    455.06885   -4010.6909 
17451000    125.27798   -4981.9914   -4740.3822   -4981.9914            0    6693.5248    19.788017    19.837317    20.492754    8044.2496    6768.5757    6678.8447     6633.154   -330.88705    1699.4895   -47.779384   -3955.1171 
17452000    129.62482   -4991.1292   -4741.1369   -4991.1292            0     5844.363    19.821464    19.722243    20.695024    8090.1763    6165.0595     5485.542    5882.4875    502.71524    235.34398    815.12016   -4051.5785 
17453000    124.78133   -4995.7992   -4755.1479   -4995.7992            0    6097.2429    19.872608     19.69213    20.613074    8066.5965    6431.9381    6250.6767     5609.114   -515.60929   -106.65283    485.19935   -4037.8497 
17454000      130.678   -5005.1537   -4753.1301   -5005.1537            0     5726.883    19.850006    19.847423    20.446071    8055.1686    5262.2022    5367.6389    6550.8078    117.62823   -208.22885   -966.81369   -4080.3567 
17455000    124.48214   -4995.2212    -4755.147   -4995.2212            0    6345.7274    19.550118    19.790388    20.761049    8032.5414    7285.1691    5965.0776    5786.9354   -271.14752    1361.6754    536.27663    -4011.768 
17456000    124.01281   -4990.7372    -4751.568   -4990.7372            0     6973.833    19.930342    19.609038     20.52847    8022.8306    5510.9264    8681.6664    6728.9062    351.85044   -20.298197     1076.663   -3935.5964 
17457000    126.13756   -4984.9241   -4741.6572   -4984.9241            0    6131.9924    19.624929    19.961132    20.490308    8026.7873    5494.0567    6698.9669    6202.9536   -788.25569    1259.1231   -230.35019   -4023.8311 
17458000    129.04435   -4989.8051   -4740.9323   -4989.8051            0     5068.787    19.785099    19.941405     20.54188    8104.6483    5510.6293    4835.4949    4860.2369    32.759074   -792.66783   -388.73682   -4141.8119 
17459000    132.57841   -4995.9827   -4740.2941   -4995.9827            0    7152.9283     19.89808    19.716727     20.53518    8056.4649    7444.2868    7359.1234    6655.3747   -600.91283    273.61226   -409.91399   -3899.8588 
17460000    135.49364   -4993.5731   -4732.2622   -4993.5731            0    5695.5016    19.820167    19.897207    20.561513    8108.7609    5499.8684    5254.2304    6332.4059    340.06094    792.79857      312.155   -4058.7238 
17461000    130.10166   -4995.4685   -4744.5565   -4995.4685            0    6055.0648     19.91411    19.801076    20.463283    8069.0984    4497.9184    6895.9275    6771.3485   -424.56827    332.65287    305.57712   -4031.9994 
17462000    124.43809   -4980.4152   -4740.4258   -4980.4152            0    5942.9576    19.810219    19.806418     20.46814    8031.0733    5018.3169     7930.588     4879.968    584.22569    1111.5939   -782.39753   -4044.3571 
17463000    134.03621   -4991.2078   -4732.7077   -4991.2078            0    5438.8729    19.885419    19.751891     20.57953    8083.1174    5842.0522    5912.9192    4561.6471   -302.80683    747.69538    191.11311   -4091.5518 
17464000    129.06128   -4985.4748   -4736.5693   -4985.4748            0    6439.7521    19.663301    19.886903    20.594561    8053.3417    6045.4554    6860.7986    6413.0022   -128.60068    282.19782    -654.5136   -3980.2222 
17465000    123.70614   -5004.0099   -4765.4323   -5004.0099            0    6458.6051    19.912924    19.740591    20.471408    8047.1649    5401.1359    7961.5139    6013.1655    497.00628   -394.49259   -371.89984   -4007.4526 
17466000    123.39881   -4981.4595   -4743.4745   -4981.4595            0    6728.6148    19.891511    19.712672    20.402048    7999.9453    6855.7461    7027.2091    6302.8893    66.307814   -1148.4246    518.46755   -3958.4403 
17467000    122.12151   -4995.4829   -4759.9613   -4995.4829            0    5710.2629    19.824777    19.821385    20.442448    8032.9528    6575.6904    4783.2627    5771.8357    -350.2152    861.89264   -728.96112   -4090.9904 
17468000    132.67902   -4995.7491   -4739.8665   -4995.7491            0    6076.1137     19.77372    19.960415    20.505129    8093.2032    7976.6948    4078.3095    6173.3367   -85.436342    599.22448   -494.99493   -4022.6963 
17469000    129.87189   -4986.5612   -4736.0923   -4986.5612            0    5482.2801    19.818839    19.787983     20.58188    8071.6956    6412.4504    5163.1854    4871.2044    211.84779   -730.43547   -245.90551   -4090.7325 
17470000    125.34117   -4989.8373   -4748.1063   -4989.8373            0    6936.8318    19.927854    19.815397    20.264194    8001.8914     6507.506    6077.6142    8225.3752    266.75797   -349.04816   -971.31411   -3938.5823 
17471000    127.10776   -4992.1841   -4747.0461   -4992.1841            0    6322.5387    19.915468    19.852599    20.440642    8081.6943    5955.6845    7318.9548    5692.9769    -97.14913    811.51915    1131.5361   -4001.8513 
17472000    124.01407   -4984.6333   -4745.4617   -4984.6333            0    8390.9614    19.778417    19.676083    20.459872    7962.2002    8561.8478     9329.725    7281.3115   -985.73271   -553.81426    508.71824   -3771.0989 
17473000     125.5023   -4984.2612   -4742.2195   -4984.2612            0    6890.2354    19.898432    19.692213    20.424187     8003.098     5698.043    7720.7151    7251.9483   -164.41138    1030.2822    204.82748    -3938.012 
17474000      125.507   -4984.1332   -4742.0823   -4984.1332            0    6108.8893    19.848899    19.786417    20.472518    8040.3479    6085.3393    6822.6813    5418.6472    24.511232    1032.2771    10.422501   -4025.7526 
17475000    128.23724   -4997.2302   -4749.9139   -4997.2302            0    6497.2491    19.783103    19.872068    20.401881    8020.6155     7726.315    5345.9537    6419.4787    -137.7588    408.13761   -376.78474   -3989.9148 
17476000    126.15714   -4988.2975   -4744.9929   -4988.2975            0    6182.1238    19.886138    19.743122    20.561606    8072.7837    5969.5247    6327.2669      6249.58   -274.81922    880.76728   -1295.8522   -4017.1512 
17477000    135.79163    -4975.014   -4713.1284    -4975.014            0    7103.9845    19.842313    19.755287    20.643185    8091.9346    7252.7994    7558.5182    6500.6361   -211.56907   -690.54474    1885.0467    -3874.769 
17478000    131.62411   -4987.3111   -4733.4629   -4987.3111            0    6070.8844    19.801148    19.773903    20.629532    8077.4102    5966.1168    6123.1358    6123.4006    -95.51428    42.194519    389.87567   -4018.3082 
17479000    134.59066   -4991.8302   -4732.2608   -4991.8302            0    8011.4593    19.744306    19.752708    20.578462    8025.6724    7697.2648    9344.6682    6992.4449   -194.09119    -356.4784    731.17696   -3794.5499 
17480000    130.68771   -4972.7941   -4720.7518   -4972.7941            0    7012.0721    19.763232    19.765062    20.553532    8028.6515    7375.6929    7001.8399    6658.6835   -98.544685   -200.81455    810.95263   -3899.7108 
17481000    128.43394    -4979.071   -4731.3754    -4979.071            0    6007.4429    19.951245     19.79268    20.478185     8086.602    5997.1786    5926.7346    6098.4154    49.935416   -81.687575    799.52469   -4022.8888 
17482000    129.11711   -4988.2705   -4739.2573   -4988.2705            0    6809.2911    19.861462     19.70211     20.50314    8023.1393     7786.721    7247.1365    5394.0157    222.71059   -167.61775    502.09705   -3942.5072 
17483000    128.20245   -4997.6279   -4750.3787   -4997.6279            0    5184.7032    19.905853    19.865592     20.39862     8066.462    4748.9827    5834.0277    4971.0992   -60.061114    564.14325    141.58516   -4140.4447 
17484000    133.96344   -4988.8225   -4730.4627   -4988.8225            0    7018.6779    19.790325    19.860445    20.431434     8030.466    6867.0512    6705.6773    7483.3052   -447.78285   -102.19541    239.81899   -3908.4625 
17485000    127.02423   -4997.0472   -4752.0703   -4997.0472            0    5821.9602    19.780604    19.843615    20.533412    8059.7479    5603.7053    6272.1088    5590.0664     -617.544    88.221149    410.99907   -4067.7387 
17486000    123.34423   -4989.7433   -4751.8636   -4989.7433            0    5764.6208     19.84188      19.7283    20.613645    8069.1407    4562.3716    6395.5429    6335.9479   -325.15806    -510.9689     503.4198   -4073.4822 
17487000    125.71008    -4982.096   -4739.6535    -4982.096            0    6206.3967    19.681871    19.895525    20.522307    8036.1489      7149.87    5167.1516    6302.1686    87.110807    235.64078   -460.54804   -4012.2701 
17488000    130.08196   -4979.1956   -4728.3216   -4979.1956            0    7507.8902    19.809815    19.761083    20.463284    8010.6265    7922.2229    7886.5143    6714.9333    49.114511    -121.3961   -629.24283   -3851.1991 
17489000     124.3311   -4979.7057   -4739.9227   -4979.7057            0    4718.8001    19.812909    19.853457    20.464314    8049.7348    4373.2734     5259.782    4523.3449   -185.42123    567.30645   -447.16063   -4185.9491 
17490000    131.80865   -4981.4297   -4727.2257   -4981.4297            0    7646.8253    19.884194    19.537426    20.593461     8000.271    6445.7052    9050.5484    7444.2222   -183.73852     406.8095    364.09758   -3835.0266 
17491000    124.30675   -4991.4164   -4751.6804   -4991.4164            0     5887.934    19.870566    19.719284    20.522693    8041.4751    5131.5169    6481.7061     6050.579    236.09479    175.76869     689.1087   -4061.1632 
17492000    126.97717   -4988.5852   -4743.6991   -4988.5852            0    6926.9364    19.920561    19.811705    20.426048    8061.3496    8219.8695     5777.684    6783.2557   -243.87082   -239.94005   -123.20891   -3929.3233 
17493000    125.50853   -4973.3749   -4731.3212   -4973.3749            0    5791.8776     19.85036    19.866998    20.396793    8043.8233    6240.4917     4991.034    6144.1073   -386.04328     -52.7593    960.49307   -4051.8707 
17494000    135.59518    -4988.377   -4726.8703    -4988.377            0    8191.8937    19.716764    19.858805    20.460104    8011.1817    9371.7467    7446.4432    7757.4912   -249.98319   -679.78456    1358.7008   -3769.7715 
17495000     134.2695   -4979.6975   -4720.7475   -4979.6975            0    6256.2717     19.86857    19.746465     20.54732    8061.4126    6913.7809    5531.5765    6323.4579   -555.94924    -91.14735    455.63886   -3985.2136 
17496000    132.35168   -4984.2367   -4728.9853   -4984.2367            0     6777.454    19.662188    19.762187    20.630675    8016.4172    6310.4836    8593.5553    5428.3231    162.53787     -445.649    366.84607   -3936.6249 
17497000    124.38209   -4986.9311   -4747.0497   -4986.9311            0    5857.2773     19.97204    19.702962    20.527491     8077.739    6405.2252    4995.7768      6170.83   -427.94698   -450.08598    91.183118     -4057.03 
17498000    126.67003   -4968.5593   -4724.2655   -4968.5593            0    6686.4556    19.733159    19.786632    20.506864    8006.9614    6481.1659    6578.5002    6999.7006   -416.01892    337.30085    117.28527   -3943.4659 
17499000    127.94528   -4997.2553   -4750.5021   -4997.2553            0    6183.4397    19.963144    19.816903    20.317288    8037.6754    5320.5982    6516.1501    6713.5709    193.47486    207.04738   -377.23808   -4025.6715 
17500000     134.6974   -4979.2404   -4719.4652   -4979.2404            0     4752.453    19.979105    19.966406    20.218713    8065.4653    2792.0539    5751.2502     5714.055    325.47126    1026.6723    403.73633   -4160.4506 
Loop time of 355.131 on 64 procs for 250000 steps with 972 atoms

Performance: 121.645 ns/day, 0.197 hours/ns, 703.966 timesteps/s
99.1% CPU use with 64 MPI tasks x 1 OpenMP threads

MPI task timing breakdown:
Section |  min time  |  avg time  |  max time  |%varavg| %total
---------------------------------------------------------------
Pair    | 19.354     | 28.481     | 39.152     |  87.0 |  8.02
Bond    | 0.25992    | 0.2755     | 0.28865    |   1.1 |  0.08
Kspace  | 138.35     | 148.97     | 158.24     |  38.1 | 41.95
Neigh   | 0.9624     | 0.97666    | 0.98806    |   0.7 |  0.28
Comm    | 83.665     | 84.367     | 85.06      |   4.4 | 23.76
Output  | 0.63103    | 0.63206    | 0.63395    |   0.1 |  0.18
Modify  | 85.086     | 86.134     | 86.907     |   4.5 | 24.25
Other   |            | 5.294      |            |       |  1.49

Nlocal:        15.1875 ave          19 max          10 min
Histogram: 1 1 2 14 8 9 9 10 6 4
Nghost:        2270.50 ave        2307 max        2227 min
Histogram: 2 2 5 8 8 11 10 11 5 2
Neighs:        4875.69 ave        6846 max        3082 min
Histogram: 1 5 9 12 7 10 10 7 0 3

Total # of neighbors = 312044
Ave neighs/atom = 321.03292
Ave special neighs/atom = 2.0000000
Neighbor list builds = 2742
Dangerous builds = 0

unfix		3
unfix		2
unfix		1

write_data	data.final.${pid}
write_data	data.final.1
System init for write_data ...
PPPM initialization ...
  extracting TIP4P info from pair style
  using 12-bit tables for long-range coulomb (../kspace.cpp:340)
  G vector (1/distance) = 0.37213071
  grid = 24 24 24
  stencil order = 5
  estimated absolute RMS force accuracy = 0.0035123887
  estimated relative force accuracy = 1.0577454e-05
  using double precision FFTW3
  3d grid and FFT values/proc = 2197 216
Last active /omp style is kspace_style pppm/tip4p/omp
WARNING: Not all mixed pair coeffs generated from mixing. Use write_data with 'pair ij' option to store all pair coeffs. (../write_data.cpp:312)

write_restart   restart.lmp.${pid}
write_restart   restart.lmp.1
System init for write_restart ...
PPPM initialization ...
  extracting TIP4P info from pair style
  using 12-bit tables for long-range coulomb (../kspace.cpp:340)
  G vector (1/distance) = 0.37213071
  grid = 24 24 24
  stencil order = 5
  estimated absolute RMS force accuracy = 0.0035123887
  estimated relative force accuracy = 1.0577454e-05
  using double precision FFTW3
  3d grid and FFT values/proc = 2197 216
Last active /omp style is kspace_style pppm/tip4p/omp
Total wall time: 0:05:55
