#include		in.partitions
include		in.temp
variable        temperature equal 156.47
variable	tempDamp equal 100.0
include		in.pressure
variable        pressure equal 7267.4
variable        pressureDamp equal 1000.0 # This is 1 ps
include		in.seed
variable        seed equal 745823

units		real
atom_style	full
read_restart    restart.lmp.${pid}
read_restart    restart.lmp.0
Reading restart file ...
  restart file = 30 Jul 2021, LAMMPS = 30 Jul 2021
  restoring atom style full from restart
  triclinic box = (-3.1980929 -0.10403178 -0.022641868) to (14.808092 22.684031 19.252640) with tilt (-0.32181376 -6.6578559 0.11421269)
  2 by 4 by 4 MPI processor grid
  restoring pair style lj/cut/tip4p/long/omp from restart
  restoring bond style harmonic/omp from restart
  restoring angle style harmonic/omp from restart
  1008 atoms
  672 bonds
  336 angles
Finding 1-2 1-3 1-4 neighbors ...
  special bond factors lj:    0        0        0       
  special bond factors coul:  0        0        0       
     2 = max # of 1-2 neighbors
     1 = max # of 1-3 neighbors
     1 = max # of 1-4 neighbors
     2 = max # of special neighbors
  special bonds CPU = 0.002 seconds
  read_restart CPU = 0.007 seconds

include 	in.setup
variable	out_freq equal 1000
variable	out_freq2 equal 10000
variable	out_freq3 equal 1000

timestep	2.0

neigh_modify    delay 7 every 1

include		in.tip4p
# This is TIP4P/Ice

# create groups ###
group ox type 2
336 atoms in group ox
group hy type 1
672 atoms in group hy

# set charges - beside manually ###
set group ox charge -1.1794
Setting atom values ...
  336 settings made for charge
set group hy charge 0.5897
Setting atom values ...
  672 settings made for charge

# ### TIP3P Potential Parameters ###
pair_style lj/cut/tip4p/long/omp 2 1 1 1 0.1577 8.5
pair_coeff 1 1*2 0.000 0.000
pair_coeff 2 2 0.21084 3.1668
bond_style  harmonic
bond_coeff  1 450 0.9572
angle_style harmonic
angle_coeff 1 55 104.52
kspace_style pppm/tip4p/omp 1.0e-5
pair_modify tail yes

thermo          ${out_freq}
thermo          1000
thermo_style    custom step temp pe etotal epair emol press lx ly lz vol pxx pyy pzz pxy pxz pyz enthalpy

restart 	${out_freq3} restart.lmp.${pid} restart2.lmp.${pid}
restart 	1000 restart.lmp.${pid} restart2.lmp.${pid}
restart 	1000 restart.lmp.0 restart2.lmp.${pid}
restart 	1000 restart.lmp.0 restart2.lmp.0


include         in.dump
dump            myDump all atom ${out_freq2} dump.water.${pid}
dump            myDump all atom 10000 dump.water.${pid}
dump            myDump all atom 10000 dump.water.0
dump            myDump2 all dcd ${out_freq2} dump.dcd
dump            myDump2 all dcd 10000 dump.dcd
dump_modify     myDump append yes
dump_modify     myDump2 append yes


variable natoms 	equal  "count(all)"                        # NUMBER ATOMS
variable H      	equal  "enthalpy/v_natoms"                 # ENTHALPY-per-atom
variable Vol      	equal  "vol/v_natoms"                 # volume-per-atom
fix AVG all 		ave/time ${out_freq} 1 ${out_freq} v_Vol v_H file vol_enthalpy.dat
fix AVG all 		ave/time 1000 1 ${out_freq} v_Vol v_H file vol_enthalpy.dat
fix AVG all 		ave/time 1000 1 1000 v_Vol v_H file vol_enthalpy.dat



fix 		1 all shake 1e-6 200 0 b 1 a 1
       0 = # of size 2 clusters
       0 = # of size 3 clusters
       0 = # of size 4 clusters
     336 = # of frozen angles
  find clusters CPU = 0.001 seconds
fix             2 all nph tri ${pressure} ${pressure} ${pressureDamp}
fix             2 all nph tri 7267.4 ${pressure} ${pressureDamp}
fix             2 all nph tri 7267.4 7267.4 ${pressureDamp}
fix             2 all nph tri 7267.4 7267.4 1000
fix             3 all temp/csvr ${temperature} ${temperature} ${tempDamp} ${seed}
fix             3 all temp/csvr 156.47 ${temperature} ${tempDamp} ${seed}
fix             3 all temp/csvr 156.47 156.47 ${tempDamp} ${seed}
fix             3 all temp/csvr 156.47 156.47 100 ${seed}
fix             3 all temp/csvr 156.47 156.47 100 745823


run             250000
PPPM initialization ...
  extracting TIP4P info from pair style
  using 12-bit tables for long-range coulomb (../kspace.cpp:340)
  G vector (1/distance) = 0.37976925
  grid = 24 27 32
  stencil order = 5
  estimated absolute RMS force accuracy = 0.0023859088
  estimated relative force accuracy = 7.1850934e-06
  using double precision FFTW3
  3d grid and FFT values/proc = 5355 672
Last active /omp style is kspace_style pppm/tip4p/omp
Neighbor list info ...
  update every 1 steps, delay 7 steps, check yes
  max neighbors/atom: 2000, page size: 100000
  master list distance cutoff = 10.8154
  ghost atom cutoff = 10.8154
  binsize = 5.4077, bins = 5 5 4
  1 neighbor lists, perpetual/occasional/extra = 1 0 0
  (1) pair lj/cut/tip4p/long/omp, perpetual
      attributes: half, newton on, omp
      pair build: half/bin/newton/tri/omp
      stencil: half/bin/3d/tri
      bin: standard
Per MPI rank memory allocation (min/avg/max) = 10.31 | 10.32 | 10.33 Mbytes
Step Temp PotEng TotEng E_pair E_mol Press Lx Ly Lz Volume Pxx Pyy Pzz Pxy Pxz Pyz Enthalpy 
21250000    161.87899   -5061.9922   -4738.2142   -5061.9922            0    4867.2033    18.006185    22.788063    19.275282    7909.1505    4631.1839    4915.9424    5054.4836    1107.2316    117.46493    1267.6051   -4176.7977 
21251000    157.05188   -5064.8601   -4750.7369   -5064.8601            0    8334.7372    17.915561    22.787081    19.106011    7799.9018    9070.1752    7364.7803     8569.256   -257.96126     770.9458    244.84287   -3802.6309 
21252000    151.53204    -5052.888   -4749.8052    -5052.888            0    7056.8003    17.974987    22.658773    19.254587    7842.2229    6149.1435    7552.1908    7469.0666    1935.4634    1537.0097    600.65795   -3942.7135 
21253000    155.81811   -5065.7882   -4754.1327   -5065.7882            0    7187.0659    17.977036    22.667293    19.202653    7824.9031    7270.6845    7936.2453    6354.2678    304.07841    533.57097    950.92186   -3933.9578 
21254000    150.74518   -5075.9657   -4774.4567   -5075.9657            0    6668.4409    17.827917    22.929994    19.183298    7842.0175    6927.1656    6814.3172      6263.84    50.543465    479.09585    431.64583   -4011.8019 
21255000     154.4085    -5058.725    -4749.889    -5058.725            0    7084.9817    17.878591    22.805139    19.203081    7829.5521    8317.1976    7122.6165    5815.1311    518.47448     993.8595     296.0685   -3940.8833 
21256000    161.64429   -5069.9419   -4746.6333   -5069.9419            0    4934.8858    18.050061    22.524536    19.432369    7900.6034    5394.0134    5315.3502    4095.2938    841.70886     674.0172   -1233.5624    -4178.025 
21257000    154.68576   -5067.1951   -4757.8045   -5067.1951            0     6455.083    17.875911    22.869327     19.23487    7863.4083    5862.0697    6704.9082    6798.2713   -175.77683    433.57694   -300.54066   -4017.5372 
21258000    154.18397   -5054.5949   -4746.2079   -5054.5949            0    7499.2363    17.806305    22.836284    19.255365     7829.806    8034.9942    7611.4587    6851.2561   -5.3148769    1191.8649   -550.67505   -3889.8725 
21259000    158.11965    -5050.127   -4733.8681    -5050.127            0    7532.2977    17.965942    22.524954    19.382594    7843.7873    6769.3767    8348.6359    7478.8805    750.97455   -440.01752    895.56199   -3872.2216 
21260000    156.00958   -5054.3187   -4742.2802   -5054.3187            0    8300.0743     17.83444    22.804813    19.212556    7813.9595     9004.388    7800.4519    8095.3829   -327.14097   -236.22257    1438.0009   -3796.4155 
21261000    156.11623    -5063.159   -4750.9072    -5063.159            0    7368.8095    17.813644    22.877518    19.200838    7824.9553    8817.7306     7493.002    5795.6958    389.84111    611.51523   -322.57557   -3909.9864 
21262000    169.06882   -5062.6374   -4724.4789   -5062.6374            0    7145.9739    17.926406    22.719434    19.246605    7838.7147    7811.2863    6354.5534    7272.0821    158.69033    109.75571    1060.8985   -3907.5539 
21263000    160.69385   -5054.2898   -4732.8823   -5054.2898            0    6076.2459    17.966756     22.63629    19.355139    7871.7483    7190.2186    5970.4937    5068.0255    1862.4317   -737.66186    -797.4958   -4035.3209 
21264000    157.13038   -5070.2291   -4755.9489   -5070.2291            0    5886.4543    17.883622    22.955367    19.128416    7852.6954    6076.2963    4959.9802    6623.0863    21.337418    -1295.027    600.72955   -4081.8115 
21265000    157.44959   -5061.0229   -4746.1042   -5061.0229            0    7647.0219    17.951616    22.789393    19.095896     7812.254     7673.043    7615.6808     7652.342    -629.8816   -472.84027   -39.031536   -3874.8506 
21266000    159.14928   -5062.0477   -4743.7295   -5062.0477            0    7133.9345    18.049955    22.505928    19.283961    7833.7426    7141.1844    7375.6557    6884.9633   -501.33532   -709.46536   -1415.9385   -3928.6981 
21267000    153.46556   -5056.9021    -4749.952   -5056.9021            0    7765.5099    17.858273    22.952369    19.082937    7821.8984         8193    6235.0478    8868.4818   -944.05285     657.5753   -1306.4707   -3864.1064 
21268000    155.77854   -5072.3144    -4760.738   -5072.3144            0    7374.9131    17.964505    22.797181    19.124464    7832.2341    7453.3952    7211.9076    7459.4366   -1127.4739     793.5683   -964.91117   -3918.3378 
21269000    153.75079   -5063.1709   -4755.6503   -5063.1709            0    5413.8745    18.086672    22.686276    19.202232    7879.0451     4463.701    5080.2858    6697.6368   -224.35112    343.28853   -430.86389   -4133.5539 
21270000    159.45521   -5068.8728   -4749.9427   -5068.8728            0    6800.3092    17.935348    22.912523    19.052029    7829.3184    4769.8541     7407.827    8223.2465   -223.74849   -15.584566    504.34022   -3973.4659 
21271000     155.5246   -5078.6984     -4767.63   -5078.6984            0    6489.2369    17.847304     22.85032    19.191668     7826.681    6480.3465    6261.8041      6725.56    881.47738   -22.477421   -977.55148   -4026.9218 
21272000    154.92166   -5060.5304    -4750.668   -5060.5304            0    6588.4571    17.995703    22.658282     19.26782    7856.4867    6263.1607     8302.542    5199.6685    198.94785    1123.9644   -1698.9394   -3995.7705 
21273000    150.48815   -5067.4006   -4766.4057   -5067.4006            0    7517.2467    17.951387    22.741417    19.143007     7814.941    7309.4791     7961.425    7280.8358   -301.61764     1451.425     608.0761   -3909.6433 
21274000     164.7826   -5045.8598   -4716.2742   -5045.8598            0    8464.4568    17.963759    22.705743     19.15177    7811.6334    9491.3181    7718.2061    8183.8462   -178.93341   -328.98523    507.04329   -3751.9639 
21275000    161.97089   -5055.5618      -4731.6   -5055.5618            0    6872.5252    18.042716    22.689176    19.140829    7835.7643    5747.8071    7013.8183    7855.9502   -384.50004   -1015.3771   -994.11732   -3946.2313 
21276000    160.21712    -5052.503    -4732.049    -5052.503            0    7933.4521    17.992193    22.810137    19.082808    7831.6684    6804.5343    8369.0548    8626.7673   -41.335124    847.28221    329.09821   -3825.9151 
21277000    157.47203   -5046.2164   -4731.2529   -5046.2164            0       6751.8    18.069006    22.681258     19.18477    7862.4519    5834.0733    7424.3558    6996.9709   -444.45923    753.58782   -235.31801   -3957.0524 
21278000    157.05945   -5070.1687   -4756.0304   -5070.1687            0    7195.5525    17.848964    22.929215    19.091079     7813.267     7212.001    7211.0799    7163.5766   -426.28719    741.80715    455.76073   -3936.1081 
21279000     153.9634    -5054.267   -4746.3212    -5054.267            0    7895.0303     18.00416    22.565569    19.276828    7831.6761     7989.894     8142.418    7552.7788   -256.45588    541.23937    1543.5994   -3844.5748 
21280000    157.34748   -5051.0749   -4736.3605   -5051.0749            0    7159.6654    17.887101    22.816065    19.252468    7857.1874     8353.865    6765.1284    6360.0028    709.74672   -239.66378   -661.02686   -3915.9414 
21281000    161.35128   -5058.3985    -4735.676   -5058.3985            0    7025.7142    17.759589     22.90936    19.305245     7854.548    9227.8994    6032.4952    5816.7481   -226.21539   -474.71369    216.15361   -3930.8767 
21282000    160.95246    -5060.204   -4738.2792    -5060.204            0    7298.0289    17.908778    22.730604    19.249186    7835.9075    5754.5202    8354.7623    7784.8041    -292.4301    97.183937    779.07865   -3904.2701 
21283000    159.77953   -5065.3224   -4745.7436   -5065.3224            0     7266.187    17.913253    22.582933    19.347092    7826.5523    7840.0234    7487.5862    6470.9513    644.10355    270.15388    -51.48498   -3916.3648 
21284000     152.0975   -5066.8723   -4762.6585   -5066.8723            0    6778.9983    17.749473    22.919428    19.234627    7824.7958    6869.5182    7674.0067    5793.4702   -633.26841     787.6669    -480.3069   -3989.0621 
21285000    149.79798   -5070.9806   -4771.3662   -5070.9806            0    5806.4775    17.806547    22.895389    19.297623    7867.4059    6059.1575    5209.4268    6150.8481   -413.49613   -463.70107   -50.816229   -4105.1423 
21286000    155.11953   -5076.6291   -4766.3709   -5076.6291            0    6419.5698    18.039217    22.390714    19.413589     7841.361    6084.7301    7013.0202    6160.9591    16.633959   -769.69207   -474.59412   -4032.2404 
21287000    159.93345   -5068.8211   -4748.9344   -5068.8211            0    5968.5842    17.715077    22.983765    19.270792    7846.2795    5901.3068      6436.04    5568.4059    173.52716    64.925895   -1114.7309   -4065.9497 
21288000    151.16965   -5047.6467   -4745.2887   -5047.6467            0     9507.165    17.813746    22.742911    19.169358    7766.2058    10433.057    8760.4485    9327.9891   -786.96883   -724.53865   -1140.1645   -3668.4868 
21289000    159.30635   -5073.0501   -4754.4177   -5073.0501            0    6540.6408    17.957227    22.544431    19.403947    7855.4059    7301.1553    7145.2647    5175.5023    1122.2941     449.9273    901.61289    -4005.102 
21290000    159.70559   -5061.0713   -4741.6404   -5061.0713            0    7394.3013    17.863508    22.774248    19.172023    7799.7154    9169.6768    6681.2696    6331.9576    1016.3911   -1130.2772    1622.2523   -3900.5324 
21291000    157.01478   -5065.8566   -4751.8077   -5065.8566            0    4930.3388    17.977142    22.901309    19.178685    7895.8662    3867.2997    4881.8634    6041.8532    739.22337   -745.11722     546.2517   -4184.0639 
21292000    154.88754   -5057.2067   -4747.4125   -5057.2067            0    8207.7835    18.017206     22.46107    19.287516    7805.3826    7543.2868    10106.858    6973.2057    122.38048    1149.3071     1616.062   -3813.0918 
21293000    164.26452   -5070.6869   -4742.1376   -5070.6869            0      6022.79    17.943666    22.723928    19.257515     7852.263    5002.7139    6570.3301    6495.3259   -556.57825     740.1666    1119.0918   -4052.4245 
21294000    154.76763   -5080.3673   -4770.8129   -5080.3673            0    5902.2466    17.942879    22.759243    19.242683    7858.0644    5441.9675    5989.7418    6275.0304   -237.90297   -34.547938   -218.72158   -4094.4048 
21295000    155.07962   -5071.4622   -4761.2838   -5071.4622            0     8864.006    17.916428    22.559276    19.230127    7772.4642    8136.5527    9760.7176    8694.7478    259.28351     1309.625    690.63125   -3756.5184 
21296000    156.27916   -5071.1413   -4758.5637   -5071.1413            0    7730.6421    17.906287    22.647921    19.327372    7838.0261    6409.9786    7825.6127    8956.3349    1448.6376    1052.5094    1787.6306   -3874.8773 
21297000      163.301   -5072.6315   -4746.0093   -5072.6315            0    9089.9366    17.777691    22.818345    19.174058    7778.1003    8227.4528    8798.5952    10243.762    141.74525    1044.7845   -40.039304   -3714.8868 
21298000    155.20921    -5068.077   -4757.6394    -5068.077            0    7152.4959    17.865781    22.638467    19.289225    7801.6021    8219.2762    6730.7891    6507.4224   -330.50647   -885.90725   -347.74472   -3943.8401 
21299000    162.15185   -5062.9718   -4738.6481   -5062.9718            0    7249.9116    18.020843    22.549411      19.2772    7833.4714    7757.0708    7514.7231     6477.941    -926.9014   -761.28718   -207.85999   -3910.3954 
21300000    152.61253   -5073.8368   -4768.5929   -5073.8368            0    6140.0869    17.823982    22.934056    19.190602    7844.6615    6429.7863    6387.2613    5603.2132   -586.82392   -454.20688    404.92483    -4066.128 
21301000    160.24721    -5032.945   -4712.4308    -5032.945            0    6670.0224    17.895199    22.828007    19.259912    7867.9002     5526.665    7023.4383    7459.9638    422.97601    144.62032    327.31813   -3947.0774 
21302000    156.14257   -5069.3313   -4757.0269   -5069.3313            0     8308.101      17.8099    22.549719     19.39623    7789.6858    8745.3261    9009.4812    7169.4957    733.91079   -491.02108    2784.2846   -3813.1886 
21303000    150.03363   -5072.3709   -4772.2851   -5072.3709            0    6872.4281     17.81131     22.72274    19.331927    7824.0517    6682.5498    7785.5117    6149.2226     1062.606    -494.3615     59.30769   -3988.1015 
21304000    166.06179   -5057.8621    -4725.718   -5057.8621            0    7161.3636    17.769345    22.805142    19.289209    7816.6131     6498.841    7735.1606    7250.0892    931.41226   -32.411082    29.723491    -3909.342 
21305000    157.33653   -5054.2681   -4739.5756   -5054.2681            0    7222.9916    17.854167    22.737806    19.306654    7837.8181    8955.4546    7368.8181    5344.7021    1171.1414    1280.2329    635.72956   -3913.9404 
21306000    159.24018   -5042.2929   -4723.7929   -5042.2929            0    6750.2296    17.840721    22.887502    19.275839    7870.8944    6815.4234    6262.5348    7172.7307   -1227.9185    599.78205   -394.15907   -3948.9413 
21307000     151.3254   -5070.1151   -4767.4457   -5070.1151            0    8451.7863    17.836112    22.735585    19.240248    7802.1982    7386.3518     9204.388    8764.6189   -366.60614    1525.7329    121.64672   -3805.7418 
21308000    161.57706   -5072.0528   -4748.8787   -5072.0528            0    6942.9883    17.909059    22.667171    19.305012    7836.8251    6500.1765    7719.7066    6609.0819   -146.68048    735.44531    106.08411   -3955.3503 
21309000    156.22276   -5069.0873   -4756.6225   -5069.0873            0    6856.1811     17.85208    22.896398    19.227186    7859.0804    8057.8686    5727.6293    6783.0455    331.26189    235.83096     1579.759   -3970.7901 
21310000    156.79019   -5064.8113   -4751.2115   -5064.8113            0    8056.0858    17.846021    22.757063    19.216654    7804.3257    7317.5054    8655.0659    8195.6862   -374.14066    585.31696   -910.02211   -3834.2833 
21311000    156.94052   -5052.4373   -4738.5369   -5052.4373            0     7323.986    17.959781    22.617107    19.284232     7833.222    6566.0469    8582.6416    6823.2694   -955.04686    757.97001   -1017.3191   -3901.8483 
21312000    170.10641    -5059.312   -4719.0781    -5059.312            0    6909.9246    17.897259     22.78944    19.206235    7833.6182     5744.258    7174.2371    7811.2788   -592.44456   -189.84511    -1315.652   -3929.6518 
21313000    166.74869    -5060.855    -4727.337    -5060.855            0    7340.3881    17.933023    22.769384    19.195756    7838.0858    9348.1704    6378.4855    6294.5084   -971.45154    143.95267    -514.8956    -3888.254 
21314000    156.77981   -5069.6375   -4756.0585   -5069.6375            0    6993.9165    17.899522    22.830978    19.165782    7832.3575    7272.6301    6627.9578    7081.1617    1112.1202    -610.3826   -363.06538   -3957.1651 
21315000    154.01501   -5071.8582   -4763.8092   -5071.8582            0    8314.8612    17.966023     22.68507    19.119621    7792.4023    7245.6816    8708.3165    8990.5855   -388.62247    395.85174    254.29104   -3818.8735 
21316000    157.94303   -5046.9806   -4731.0751   -5046.9806            0    5852.5431    18.144898    22.705269    19.148521    7888.8991    5731.5752     6155.374    5670.6802   -1065.3275   -807.07343    585.11919   -4057.7312 
21317000    156.50352   -5075.2353   -4762.2089   -5075.2353            0    6643.9899    17.928943    22.824781    19.137334      7831.46    6152.4488    5745.0187    8034.5023    332.15115   -976.79288    166.57868   -4003.3735 
21318000    159.26807   -5064.3819    -4745.826   -5064.3819            0     7172.625    17.868309    22.913498    19.086133    7814.3486    6966.5384    6154.6848    8396.6519   -579.66523   -156.79293   -315.66474   -3928.4031 
21319000    149.12253   -5069.9265   -4771.6631   -5069.9265            0    7536.4218    17.928348    22.728201    19.127752    7794.1592    5994.8046    8336.1448    8278.3161   -71.035583    370.05862   -470.23458   -3914.9994 
21320000    157.64556   -5057.3976    -4742.087   -5057.3976            0    7615.7586    17.843669    22.939233    19.124292    7827.9568    7966.3536    6396.3551    8484.5669    367.91617   -473.61343    1004.3177   -3872.6513 
21321000     158.3616   -5063.4602   -4746.7174   -5063.4602            0    7556.2809    17.906795     22.85972    19.117934    7825.8179     7423.207    6905.7525    8339.8831    199.01947   -268.49628   -866.82606   -3884.3075 
21322000    165.55522   -5050.3126   -4719.1817   -5050.3126            0     7353.408    18.082195    22.742447     19.07783    7845.4403    5185.7148    8747.5668    8126.9425   -452.97598    1515.6025   -480.50827   -3877.8217 
21323000    145.57314   -5060.5297   -4769.3654   -5060.5297            0    7959.2457    17.924081    22.781752    19.065215    7785.1274     7880.253    8423.9322    7573.5519   -1113.2426    998.27692    825.81036   -3865.6878 
21324000    148.99001   -5069.9194   -4771.9209   -5069.9194            0    7049.3355    17.926246    22.873178    19.072545    7820.3199    7015.9032    6370.6706    7761.4327    248.22252   -465.41075    1135.4238   -3967.9347 
21325000    158.18821   -5070.7691   -4754.3731   -5070.7691            0    7085.1837    18.003185    22.582245    19.244607    7823.9399    6133.0667    8116.6505    7005.8338    765.25795   -15.696802     161.4155   -3945.9243 
21326000    155.11155   -5055.7588   -4745.5165   -5055.7588            0    7521.6373    17.872581    22.734018    19.275376    7831.8858    6412.5999    8485.3957    7666.9163    1890.9017    416.47972    266.72931    -3886.395 
21327000    153.33165   -5084.4026   -4777.7204   -5084.4026            0    6363.2165    17.824315    22.888734    19.226638     7844.007    5099.8602    7086.6732    6903.1162    409.21446    881.65309    1300.1328   -4049.7888 
21328000    165.26174   -5052.1076   -4721.5637   -5052.1076            0    6339.0916     17.86869    22.527617    19.524714    7859.4588    6969.2642    7026.5791    5021.4316    519.59988   -281.16909   -792.06007   -3994.9634 
21329000    151.38736   -5061.7207   -4758.9273   -5061.7207            0    7480.7123    17.800815    22.715161    19.352432    7825.1245    7889.1464    7864.0281    6688.9625    277.56437   -568.87921   -1001.0622   -3905.2178 
21330000    153.18372   -5037.9073   -4731.5209   -5037.9073            0    6411.0802    17.761578     22.90324    19.314408    7857.0564    8074.6597    6230.3994    4928.1814    522.35792    419.31751    1052.3241   -3996.8937 
21331000    148.54818   -5048.7299   -4751.6152   -5048.7299            0      5023.78     17.91759    22.691679    19.446565    7906.5878    6338.3842    5006.6549    3726.3011   -221.68376   -1044.8076   -1130.7899   -4172.3257 
21332000    152.63267   -5072.4848   -4767.2006   -5072.4848            0     5148.341    17.956555    22.739491    19.311859    7885.4744    3380.9426    5567.3022    6496.7783   -187.39163   -84.904869   -1029.2377   -4175.1334 
21333000    157.61783   -5059.4771   -4744.2219   -5059.4771            0    6200.2481    17.845219    22.759985    19.341965    7855.8724    7309.3365    5721.9286    5569.4792    561.95777   -134.35979   -796.95892   -4033.8605 
21334000    158.89806   -5041.7748    -4723.959   -5041.7748            0    7104.1902    17.702424    22.986846    19.192069    7809.6925    7257.4628    7475.0771    6580.0308    316.28809   -150.28742    12.504359   -3914.8177 
21335000    153.01737   -5063.6732   -4757.6195   -5063.6732            0    7261.5501    17.871332       22.705    19.272105    7820.0151    5811.4412    8017.0553    7956.1537   -48.985221    698.97899   -729.92684   -3929.4623 
21336000    158.48501   -5075.7212   -4758.7316   -5075.7212            0     7180.803    17.915054    22.634121    19.328534    7837.5562    6990.2525    8025.0921    6527.0644   -1177.4928   -835.31166   -323.92795   -3937.9463 
21337000    157.37841   -5070.2573   -4755.4811   -5070.2573            0    6779.4265    17.800912    22.846771    19.221393    7817.2125    8923.7487    6171.3831    5243.1478   -910.68994   -332.69733   -388.60576   -3982.5856 
21338000    159.80776   -5067.1136   -4747.4784   -5067.1136            0     8681.951    17.769643    22.742308    19.294557    7797.3682    8470.8875    9586.7023    7988.2632    671.48675    1713.7792    207.55521   -3760.1963 
21339000    148.84557   -5075.2333   -4777.5238   -5075.2333            0    8420.1417    17.834133    22.757938    19.179091     7784.181    8792.2821    8649.0239    7819.1191   -148.70333   -190.98277    218.21335   -3821.6331 
21340000    153.90544   -5060.1272   -4752.2973   -5060.1272            0    8230.2442    17.830164    22.712018    19.259358    7799.2505    8172.1698    9306.7001    7211.8626   -283.61319    512.98166    3.8142551   -3816.1558 
21341000     159.3707   -5076.6501    -4757.889   -5076.6501            0    8171.1029    17.879611    22.767671     19.15961    7799.4385    9057.6845    7374.5836    8081.0408    514.32271    53.390652    101.47002   -3828.4521 
21342000    157.23856   -5067.3577   -4752.8611   -5067.3577            0    7082.5452    17.895926    22.571177    19.374667    7826.0503    6640.3575    8736.3233    5870.9548    1091.2038    1561.2336    852.19123   -3944.4954 
21343000    160.05084   -5058.0292   -4737.9078   -5058.0292            0    6614.9274    17.899823    22.814076    19.206346    7843.2558     7044.812    6136.6307    6663.3394   -820.77063    641.55393     506.7724   -3981.2538 
21344000    158.44316   -5064.0615   -4747.1556   -5064.0615            0    9370.7392    17.830478     22.78261    19.188616    7794.8924    9709.6436    9215.2728    9187.3013    28.066122    1090.6654   -386.20167   -3681.8852 
21345000    148.78359   -5072.4751   -4774.8895   -5072.4751            0    7601.0063    17.897172    22.650137    19.297471    7822.6814    7839.7462     7710.627    7252.6457    1047.4182   -67.816781   -154.87658   -3907.7227 
21346000    159.38893   -5068.5464   -4749.7488   -5068.5464            0    6216.2613    17.882766    22.804349    19.299433     7870.402    7017.5253    6118.7118    5512.5467    8.0752824    21.233489    373.70637   -4036.2355 
21347000    153.97422   -5059.9346   -4751.9671   -5059.9346            0     7180.818    17.751141    22.950622    19.214807    7828.1072    8213.4274    6883.4189    6445.6078    372.06176    560.77975   -419.52463   -3932.1696 
21348000    159.11125   -5071.0067   -4752.7646   -5071.0067            0    6907.1813     17.88188    22.716956    19.286613     7834.644    7343.8514    7784.5933    5593.0991     350.4102    -459.6757   -335.99282   -3963.5483 
21349000     149.4742   -5053.3942   -4754.4273   -5053.3942            0     7498.038    18.029964    22.648846    19.189057    7836.0028    7036.3452    7455.3177    8002.4509    1322.6134   -317.94127     760.2518    -3897.551 
21350000    155.82428   -5063.5555   -4751.8877   -5063.5555            0    6819.5746    17.992527    22.738869    19.146316    7833.3267    7125.1544    6676.2194    6657.3499    553.84605   -1334.5282    961.64378   -3972.8124 
21351000    154.32322   -5087.9851   -4779.3196   -5087.9851            0    6961.4967    17.932376    22.859084    19.084913    7823.2435    7271.0003    6485.2429     7128.247   -520.74961   -783.84612    1186.2617   -3985.0547 
21352000    151.21781   -5056.3206   -4753.8663   -5056.3206            0    7249.2601    17.896645    22.830618    19.177259    7835.6646     8220.923    6323.5304    7203.3268      17.3174   -816.44694    -870.3453   -3925.4561 
21353000     159.7199    -5049.791   -4730.3315    -5049.791            0    9438.6421    17.990154    22.387804    19.283701    7766.7039    8337.8583     9410.228     10567.84   -850.91214   -821.73966    4.7487637    -3661.222 
21354000    153.47082   -5045.7499   -4738.7893   -5045.7499            0    6849.7628    17.852253    22.889204    19.164496    7831.0704    6013.4217    6583.8021    7952.0646   -233.44888    -375.4161    1939.7724   -3956.4907 
21355000    166.91594    -5052.209   -4718.3565    -5052.209            0    7421.6322    17.733355    22.974639     19.18317    7815.5578    8147.2276    7005.1988    7112.4701    580.07941    -1259.697   -604.40537   -3872.4248 
21356000    144.24657   -5058.5911   -4770.0801   -5058.5911            0    5772.4582    17.965561    22.590018    19.408987     7876.989    7025.9123    6483.1339    3808.3283    235.44927   -501.23076   -2032.0254   -4106.9528 
21357000    162.13585   -5073.4105   -4749.1187   -5073.4105            0    7093.4967    17.909194    22.874073    19.144912    7842.8321    6180.7448    6517.3885    8582.3567   -143.18129    719.28244     103.6344    -3937.767 
21358000    156.08806   -5048.3207   -4736.1253   -5048.3207            0    7687.3715    17.909856    22.864493    19.084297    7815.0156    4745.8708    8492.8213    9823.4225    161.46372    904.98907    188.45384   -3859.9649 
21359000    149.53469   -5061.3398    -4762.252   -5061.3398            0     6359.735    17.997413      22.5743    19.359946    7865.5394    6138.0668    6181.9637    6759.1745   -776.19169   -410.17927   -904.36433   -4032.7215 
21360000    167.55456   -5073.2902   -4738.1604   -5073.2902            0    6251.9955    17.838339    22.779707    19.330061    7854.8114    5445.7481    6735.6559    6574.5823    702.59387   -77.314543    -856.4505    -4021.967 
21361000    158.38292   -5045.0407   -4728.2553   -5045.0407            0    7632.5592    17.824048    22.864118    19.181731     7817.153    9080.2053    7011.9644    6805.5078   -824.08171    244.53099    -270.1567   -3858.1042 
21362000    157.67716   -5065.7181   -4750.3442   -5065.7181            0    5673.3676    17.995657    22.787401    19.267854    7901.2505    4929.2003    5982.2682    6108.6344   -672.19838    457.58463   -824.69557   -4096.5928 
21363000    155.43777   -5074.8968    -4764.002   -5074.8968            0    6286.2159    17.881252    22.770117    19.282477    7851.0188    6722.0022         5856    6280.6454    235.55155    745.51862    122.02851   -4044.2363 
21364000    159.23347   -5055.3996    -4736.913   -5055.3996            0    7193.6133      17.7347    22.875354    19.246363    7808.0101    9174.4551    6542.0494    5864.3355   -308.64869     271.9039   -106.19219   -3917.7631 
21365000    152.05205   -5060.3264   -4756.2035   -5060.3264            0    6236.5674    17.964651    22.529746    19.426025    7862.4708    6582.9181    6821.4784    5305.3056   -1710.8629    953.54323    465.49861   -4041.0808 
21366000     150.0163   -5065.2969   -4765.2458   -5065.2969            0    7677.7294    17.854722    22.775629    19.220024    7815.8712    7302.6721    7959.4593    7771.0568    21.370645    1132.7582    103.30409   -3890.0885 
21367000    152.96609   -5080.2958   -4774.3447   -5080.2958            0    6289.1199    17.914931    22.775799    19.232514    7847.3824    6312.6449    6416.0528     6138.662    103.38057     185.0566   -1450.0464   -4054.5799 
21368000    156.06472   -5074.1901   -4762.0414   -5074.1901            0    7399.7594    17.905301    22.563144     19.31955    7805.0958    7547.5676    7973.1122    6678.5985   -758.74319    659.49646    755.61115   -3919.7318 
21369000    155.76769   -5079.7578   -4768.2032   -5079.7578            0    7601.8925    17.845422    22.793613    19.172209    7798.5188    8542.1997    6677.3077      7586.17   -402.64281    482.30776   -403.57319   -3903.6141 
21370000    154.59791    -5063.093    -4753.878    -5063.093            0    7233.8199    17.833759    22.849143    19.154753    7805.2958    9292.4588    6069.8934    6339.1075     3.325166   -90.128252    -977.9825   -3930.4362 
21371000    156.40385    -5078.526    -4765.699    -5078.526            0    7363.2122    17.968052    22.632968    19.234276    7822.0097    6432.1359    8025.5602    7631.9406    331.20813    576.48327    1411.6101   -3925.7333 
21372000    159.53901   -5045.2349   -4726.1372   -5045.2349            0    8225.3882    17.848571    22.815469     19.15507    7800.3952    8947.5354    7326.6748    8401.9545  -0.57189151   -937.32844   -933.86619   -3790.4108 
21373000    149.34093   -5048.3154   -4749.6151   -5048.3154            0    7157.6182    17.904527    22.762771    19.195615    7823.3004    7574.9601    7473.4986    6424.3959    885.29613    -569.3972   -541.91231    -3932.968 
21374000     159.7482   -5060.5672   -4741.0511   -5060.5672            0    7439.9229    17.969573    22.742853    19.132696    7819.1378    5584.8834    8319.3088    8415.5767   -253.06325   -373.76184    1994.7193   -3892.6461 
21375000    158.46149   -5057.1276    -4740.185   -5057.1276            0    5090.3589    17.939048    22.910401    19.188452    7886.2774    4402.3107     5344.388     5524.378   -905.87945    567.84252    174.08718   -4154.7262 
21376000    155.43518   -5069.2577   -4758.3682   -5069.2577            0    8990.7465    17.921643    22.786865    19.031376    7771.9961     9964.104     7964.332    9043.8034   -245.27756    28.163068    101.77274   -3739.2977 
21377000    152.23907   -5064.2122   -4759.7152   -5064.2122            0    7905.7723     17.93181    22.595992    19.235564     7794.001    8488.0026    8050.4006    7178.9137   -1842.3077   -158.17095   -1995.9725   -3861.0858 
21378000    157.06077   -5076.4102   -4762.2692   -5076.4102            0    8643.0085    17.891401    22.850396    19.076002    7798.7581    8884.0449    7403.2105      9641.77   -940.42711   -619.98254   -1320.4267   -3779.2403 
21379000    161.66793   -5042.1164   -4718.7606   -5042.1164            0    8523.4011     17.91495    22.698664    19.208793     7811.168    7142.7125    8959.4989    9467.9917   -511.32473   -127.23326      246.931   -3747.7929 
21380000    153.39442     -5077.46   -4770.6522     -5077.46            0    7031.4539    18.044365    22.513897    19.266911    7827.1628    7672.5701    7983.0556    5438.7361    -1696.913    185.41151   -283.63295   -3968.0037 
21381000    146.25069    -5068.348   -4775.8286    -5068.348            0     6694.336    17.943411    22.938552    19.072507    7850.1653    7425.8469    5937.1794    6719.9818    857.88382    705.90088    1203.3919   -4009.4168 
21382000    165.71211   -5061.3123   -4729.8676   -5061.3123            0    7380.5837    17.814277    23.022885    19.028167    7804.1371    8298.6162    6890.7993    6952.3355    1250.5435    291.42735    1096.8117    -3889.844 
21383000    165.22664   -5063.9593   -4733.4856   -5063.9593            0    7145.4797    18.013124    22.511777     19.30174     7826.999    5740.0812    8977.0787    6719.2793    390.50543    1100.0726   -419.23878    -3917.838 
21384000    155.88683     -5075.79   -4763.9971     -5075.79            0    7075.5322    17.912209    22.686502    19.238652     7817.922     7035.581    6908.5235    7282.4921   -560.63285    102.56586   -148.38404   -3957.2705 
21385000    156.17268   -5071.6938   -4759.3292   -5071.6938            0    7623.4319    17.723885    22.994597    19.177314    7815.7833    8397.4203    8001.4667    6471.4087    -265.0303    758.21525    293.97842   -3890.3709 
21386000     161.5977   -5056.2704    -4733.055   -5056.2704            0     8262.506    17.853928    22.801297    19.116201    7782.0661    8340.0339    7590.8079    8856.6763   -342.62643   -197.73535    468.49694   -3795.3147 
21387000    157.01709   -5076.7372   -4762.6836   -5076.7372            0    6448.5279    18.106144    22.584839    19.256273    7874.3591    5499.7487    7148.8173    6697.0177    1098.8588   -591.90363    1626.4498   -4022.1382 
21388000    157.95091   -5068.4804   -4752.5591   -5068.4804            0    6600.3696    17.810291    23.003355    19.177806    7857.0786    6170.1865    7158.9524    6471.9699    284.10071    67.475916    615.37828   -3996.2396 
21389000    145.22289   -5063.1092   -4772.6455   -5063.1092            0    6327.6514    17.907056    22.703038     19.29635    7844.8261    5639.8577    6856.4225    6486.6739    1493.7079   -242.65051    827.54208   -4048.7068 
21390000    153.69629   -5055.3867   -4747.9751   -5055.3867            0     5605.493    18.037113     22.63351    19.361633    7904.2546    4531.6703    6961.0475    5323.7611    828.70863    738.15006    361.78722   -4101.7994 
21391000    159.96009   -5075.0999   -4755.1599   -5075.0999            0    7993.2234     17.79007    22.887353    19.165606    7803.6139    9725.7227    6999.1171    7254.8304   -393.00733    -540.6628     1348.219   -3845.4695 
21392000    160.69448   -5070.3652   -4748.9564   -5070.3652            0    8608.9658    17.933279    22.709207    19.151775    7799.5707    7490.4035    8743.6279    9592.8659   -329.32855   -121.66686    308.33429   -3769.6974 
21393000    154.63532   -5071.3718   -4762.0821   -5071.3718            0    7913.5623    17.900232    22.782711    19.172572    7818.8783    8629.2776    7463.7884    7647.6208    233.45824   -193.51936   -1107.2045   -3859.6961 
21394000    159.50582   -5065.2013   -4746.1699   -5065.2013            0    8208.5982    17.729378    22.791414    19.268837    7786.1052    8702.3417    8722.5332    7200.9195    1561.4808    1382.3913   -91.676256   -3814.0642 
21395000    157.28147   -5070.7423   -4756.1599   -5070.7423            0    6080.3999    17.801172    22.836777    19.330423    7858.2304    6808.2313    5984.8737    5448.0948    1056.2674    320.13953    623.65765   -4059.3204 
21396000    160.90879   -5083.4762   -4761.6387   -5083.4762            0    6163.1573    17.892049    22.747848    19.281605    7847.7214    6985.8385    6682.3776    4821.2557    333.29857    112.97713    24.677618   -4056.2594 
21397000    155.92279   -5081.2383   -4769.3735   -5081.2383            0    7423.9089    18.031182    22.486651    19.276689    7815.9436     7339.693    7577.2043    7354.8294    1654.1723   -471.67599   -384.00475   -3923.1405 
21398000     156.3131   -5066.1973   -4753.5517   -5066.1973            0    8994.5733    17.872694    22.872039     19.04142    7783.8458    9053.2569    9009.7072    8920.7559   -155.69265     624.6071    264.02913   -3732.4931 
21399000    158.25327   -5051.1316   -4734.6055   -5051.1316            0    6413.8838    17.871963    22.986917    19.160287    7871.4542     6824.421    6054.3105    6362.9199    -793.3264    1278.6568   -202.75771   -3998.3103 
21400000    157.06645   -5069.1351   -4754.9828   -5069.1351            0    7949.6241    17.998907    22.629924    19.135669    7794.2238     7611.827    7572.4686    8664.5766   -256.12481   -352.61932    176.48411   -3851.3429 
21401000    160.10239   -5042.6522   -4722.4276   -5042.6522            0    8981.8794    17.928203    22.784248    19.118759    7809.6427     8184.141    9596.0143     9165.483   -433.20205    664.08824   -111.76121   -3699.4308 
21402000    154.98048   -5057.2802   -4747.3001   -5057.2802            0    7141.8775    17.941706    22.888227    19.066163     7829.593    6691.9169    7139.5151    7594.2005   -645.23104    100.86683    1198.0389   -3931.7935 
21403000    157.14713   -5056.1776   -4741.8639   -5056.1776            0    6947.2497    17.907571    22.841689    19.153861    7834.6792    6430.2542    6503.9547    7907.5402    1129.7943    3.9512554    675.59861   -3948.0659 
21404000     153.9677   -5061.6871   -4753.7327   -5061.6871            0    8262.7038    18.027193    22.527447    19.186371    7791.7126    7644.3236    8422.8201    8720.9677   -650.76468   -1080.8406   -1687.6731   -3814.8075 
21405000     150.9578   -5066.9386   -4765.0044   -5066.9386            0    6449.0927    17.881231    22.897133    19.165257    7846.8109    5303.1961    6654.9573    7389.1245    -1260.373     402.5582   -149.72271   -4026.9851 
21406000    150.06601   -5071.1416    -4770.991   -5071.1416            0    7370.7961    17.727691     22.94411    19.209121    7813.2352    9054.5438    6815.5829    6242.2615   -1032.5956   -131.18848   -1247.0218   -3931.1034 
21407000    155.71129   -5068.4542   -4757.0124   -5068.4542            0    6771.5705    17.921454    22.688451    19.304673    7849.4737    7103.0067    6793.4017    6418.3032   -15.653373    150.94621   -188.43112   -3981.8266 
21408000    148.44503   -5068.9137   -4772.0053   -5068.9137            0    8082.5681    17.945406    22.665164    19.226523    7820.1111    7034.1689    8921.9648    8291.5708   -1370.8493    11.540357   -146.90384   -3850.2021 
21409000    156.14866   -5075.9145   -4763.5979   -5075.9145            0    7539.8953    17.701507    23.018952    19.159897    7807.0862    8480.2366    7517.8502     6621.599    867.78174   -484.33265    495.31194   -3905.1179 
21410000    162.31015   -5069.8534    -4745.213   -5069.8534            0    7428.6476    17.815458    22.724038    19.294926    7811.3414    6837.3419    8928.4832    6520.1176   -635.32397    104.81707   -1009.4026   -3898.9385 
21411000    155.43055   -5073.7269   -4762.8466   -5073.7269            0    8432.5642    17.917261     22.52135    19.352199     7809.017    7941.5985    8744.7166    8611.3777   -938.62767   -62.256399   -1195.4249   -3802.4913 
21412000    153.50435   -5054.3699   -4747.3422   -5054.3699            0    7525.6883     17.74898    22.942282    19.200152    7818.3422     6266.455    7961.0447    8349.5651    490.51981    459.10312    351.33222   -3889.2444 
21413000    149.08123   -5056.1318   -4757.9509   -5056.1318            0     6939.133    17.769578    22.940492    19.184728    7820.5176    6035.8249    6945.3273    7836.2469    590.22464   -33.353059    1173.2438   -3966.5135 
21414000    153.81531   -5064.5675   -4756.9179   -5064.5675            0    8275.2644    17.964658    22.388965    19.363902    7788.3567    8126.6807    9040.3114    7658.8011    223.70991   -372.52768     232.4849   -3816.9704 
21415000    155.70533   -5067.8591   -4756.4292   -5067.8591            0    8277.9122    17.782375    22.918353    19.146991    7803.2175    8589.7503    8048.0481    8195.9383    875.23445   -1294.4459   -57.759099   -3814.3868 
21416000    160.68134   -5047.5605   -4726.1779   -5047.5605            0    7358.0926    17.818823    22.686322    19.383112    7835.4983    8657.5999    7665.7144    5750.9635    356.29623    642.49054   -472.87736   -3885.3488 
21417000    154.15609   -5064.3299   -4755.9987   -5064.3299            0    6980.9544    17.887219    22.567342    19.420736    7839.5098    6725.3104    7939.1975    6278.3554   -763.17555      641.638    -1223.581   -3957.8577 
21418000    153.23206   -5043.5103   -4737.0273   -5043.5103            0    7833.7155    17.838766    22.732544    19.271482    7814.9816    10168.175    6297.4247    7035.5466   -776.44508   -391.27315    1048.0843   -3844.1914 
21419000    170.77664   -5066.5386   -4724.9642   -5066.5386            0     8471.931    17.846678    22.677625    19.325775    7821.5326    7756.3754     9117.647    8541.7704    474.46034    1556.5501   -1590.0411   -3758.5792 
21420000    153.35101   -5052.0921   -4745.3711   -5052.0921            0    7930.1428    17.889328    22.616587    19.298315    7808.0126    8095.5722    8343.8517    7351.0047   -1790.5995    73.424682   -580.97807   -3842.3511 
21421000    159.21703   -5064.0753   -4745.6216   -5064.0753            0    5753.6002    17.820995    22.913128    19.205039    7842.0848    7127.7303    5150.8637    4982.2065    137.16019    1028.2807   -1297.1812   -4087.5894 
21422000    153.36924   -5074.5454    -4767.788   -5074.5454            0    7055.7259    18.026149    22.721561    19.149521    7843.3037    7714.2921    7069.8535    6383.0321   -1675.4087    7.5398418    1624.9549   -3960.7079 
21423000    151.46566   -5074.9622   -4772.0121   -5074.9622            0    7762.4199    17.912147    22.717708    19.201655    7813.5936    7540.6569    7894.2325    7852.3704    -948.1759    303.42572   -355.10194   -3887.4592 
21424000    156.02493   -5071.0523   -4758.9832   -5071.0523            0    7093.2701    17.873421    22.805407    19.178759     7817.466    7120.6584      7163.77    6995.3819    646.61434     387.2863   -1004.1622   -3950.2814 
21425000    154.08063   -5061.7553    -4753.575   -5061.7553            0    8066.6793    17.945924    22.530119    19.286703    7798.0733    8026.2103    8724.5101    7449.3176   -1006.0963     119.7887    205.58027   -3836.1766 
21426000    156.79718    -5071.827   -4758.2133    -5071.827            0    7696.8714    17.934942    22.923801    19.020736    7820.1291    7976.7319    6446.4359    8667.4464   -1011.7119    -516.2473    700.44846   -3880.3962 
21427000    160.91846   -5058.4187   -4736.5619   -5058.4187            0    8224.8558      17.8499     22.87672    19.112604    7804.5773    8265.1234    7456.4468    8952.9971    207.50477   -73.612147   -1122.7389   -3800.3944 
21428000     159.2062    -5064.276   -4745.8439    -5064.276            0    7224.5341    17.992162     22.58376     19.25692    7824.6771    6692.1913     7417.791      7563.62    376.77741    435.79728    669.27355    -3921.417 
21429000    155.75707   -5054.3146   -4742.7813   -5054.3146            0    6597.5107    18.040691    22.835165    19.071088    7856.5665    7308.9469    5341.0239    7142.5614   -250.95769   -1502.8585    1543.3342   -3986.8387 
21430000    157.12291      -5059.4   -4745.1348      -5059.4            0    8032.2763    17.876778    22.871703    19.090071    7805.4027    7778.3005    7353.1596     8965.369    850.12696   -642.12092    991.77533   -3830.7903 
21431000    155.91589   -5067.2196   -4755.3685   -5067.2196            0    7475.5005    18.144385    22.567179    19.074014    7810.1906    5195.6054    8887.0288    8343.8672    1222.8963   -425.93795    119.81755    -3903.882 
21432000    154.74582   -5059.5015   -4749.9908   -5059.5015            0    7594.3745    17.981474    22.810419    19.106658    7836.8816    5664.6683     8681.008    8437.4474    219.40033    1108.8899    1083.4773   -3882.0078 
21433000    152.49833   -5074.3585    -4769.343   -5074.3585            0    6942.3946    17.916256    22.862857    19.172271    7853.2841    7048.4094    6920.5042    6858.2702    357.10383    495.75023    721.93197    -3974.216 
21434000    151.35308   -5065.8084   -4763.0835   -5065.8084            0    7780.8643    17.833028    22.756736     19.22523    7802.0118    9344.2601     7117.267    6881.0657    1148.1294   -797.27247    650.86157    -3877.743 
21435000    168.23435   -5072.6515   -4736.1621   -5072.6515            0    6571.5724    17.883554    22.733868      19.3057     7848.971    6802.9678    6968.5963     5943.153   -256.82049    319.95061    331.32038   -3983.9195 
21436000    157.33089    -5061.309   -4746.6278    -5061.309            0    6331.2094    17.802771    22.865304    19.270319    7844.2873     8010.532    5262.8853    5720.2109   -596.20461   -69.898985   -320.87088   -4022.3318 
21437000    155.25367   -5074.1524   -4763.6259   -5074.1524            0    5925.0467    17.888226     22.72701    19.294679    7844.1725    6195.0847    5945.8605    5634.1948   -1272.0468   -1224.2487   -19.925851   -4085.8052 
21438000    155.78826    -5050.266   -4738.6702    -5050.266            0    6434.3305    17.942919    22.785439     19.17506    7839.4797    6948.6739    6248.4875    6105.8302   -1779.9119    540.54299   -1861.5038   -4003.0283 
21439000    153.34521   -5075.6926   -4768.9833   -5075.6926            0     7321.912    17.956093    22.675214    19.196989    7816.2124    5607.0883    9163.6289    7195.0187   -138.57553    270.47222   -394.26633    -3934.348 
21440000    158.33867   -5038.2615   -4721.5646   -5038.2615            0     7487.936    17.868397    22.809361    19.204787    7827.2321    8828.7157    6156.4565    7478.6358    452.92664   -418.64769   -2198.5032   -3866.8006 
21441000    156.78967   -5062.1153   -4748.5166   -5062.1153            0    6323.2665     17.83566    22.902799    19.247209     7862.226    7717.0318    6494.2309    4758.5368    -924.3255   -54.406219   -760.22036    -4023.475 
21442000    154.89207   -5054.9404   -4745.1371   -5054.9404            0    5964.7365    17.974837    22.622834    19.308443    7851.6188     5617.831    5712.5855    6563.7931    -871.0123    -217.7064    796.05069   -4062.1282 
21443000    155.42911   -5065.7922   -4754.9148   -5065.7922            0    6657.6454    17.876064    22.876333    19.191854    7848.2937    6265.5519    6503.0316    7204.3528   -714.58505    513.93181   -319.07275   -3992.8852 
21444000    162.13993   -5065.8679   -4741.5681   -5065.8679            0      8576.53    17.799106    22.893421    19.068402    7770.0387    8086.0874    8961.6655     8681.837   -407.45038    535.41715    637.10458   -3769.6924 
21445000     153.1463   -5053.6178   -4747.3063   -5053.6178            0    6817.1973    17.943276    22.728411    19.216114    7836.7566    5379.4756    7302.7167    7769.3997    721.14559    228.68356    1354.0662   -3968.1616 
21446000    152.06876   -5061.8798   -4757.7235   -5061.8798            0    6472.0106    17.847188    22.874418    19.212556    7843.4117    6238.9266    6807.4392     6369.666     1187.905    239.30775    1328.7841   -4017.4024 
21447000     155.9634   -5061.9474   -4750.0014   -5061.9474            0    6694.4428    17.935658    22.771782    19.219072    7849.5858    6303.1564    6741.9026    7038.2695   -302.87206    898.51638      1057.91   -3983.6339 
21448000    157.53057   -5069.2315   -4754.1509   -5069.2315            0    5691.2415    18.001229    22.663715    19.270282    7861.7879      6132.14    5695.5177    5246.0668     -657.444    -619.6187    759.68469   -4101.6152 
21449000    151.61339   -5043.6691   -4740.4236   -5043.6691            0    6521.1259    17.877596    22.932074    19.149023    7850.5319    6286.7006    5828.1572    7448.5198    701.46841   -100.17011    190.65741   -3993.8071 
21450000    156.15389    -5071.329   -4759.0019    -5071.329            0    6709.3435    17.957995    22.659202    19.285196    7847.4133     6192.987    6034.4923    7900.5511   -294.93957   -640.82521   -697.41202   -3991.1412 
21451000    150.46112    -5046.963   -4746.0222    -5046.963            0    7723.2226     17.88156     22.78556    19.200954    7823.2632    6507.8312    8238.2098    8423.6267    2000.4506    513.57553    1707.0087   -3864.8468 
21452000    150.53748   -5059.7747   -4758.6811   -5059.7747            0    7430.6671    17.903054    22.932676    19.134288    7855.8677    6587.2332    8184.1944    7520.5739     615.3765     1089.394    1958.1439   -3907.3513 
21453000    151.41838   -5074.4682   -4771.6127   -5074.4682            0    6525.8971    17.882103    22.797507    19.204601    7829.0893     6015.582    6565.6293    6996.4801   -819.34115    -102.0067    643.22682   -4026.4907 
21454000    147.77242   -5064.6652   -4769.1021   -5064.6652            0    7256.5035    17.810135    22.791568    19.250034    7813.9915    9242.5996    6301.1607    6225.7501     1394.072   -48.511291   -513.94339   -3942.1579 
21455000    157.33968    -5083.895   -4769.1962    -5083.895            0    7145.6831    17.873115    22.731081    19.276941    7831.7436    7510.7255    7360.5489    6565.7748    750.91227    940.61921   -228.80308   -3953.0309 
21456000    154.79636   -5072.8932   -4763.2813   -5072.8932            0    6832.7158    17.927964    22.876466    19.093784    7830.9044    5848.9649    6991.6563    7657.5262   -698.55714    29.130461    121.20233   -3982.9462 
21457000    154.32964   -5061.3296   -4752.6512   -5061.3296            0    8245.5583    17.997019    22.551681    19.243767    7810.3337    7331.1544    8689.6216    8715.8989   -552.92362   -675.82413     541.7178   -3813.4351 
21458000    156.89282   -5054.4912   -4740.6862   -5054.4912            0    7048.8644     17.84058    22.784288    19.288174    7840.3517    6977.2306    7208.8226      6960.54    609.39934   -69.377523    1342.0775   -3934.6945 
21459000    161.21988   -5072.6997   -4750.2401   -5072.6997            0    6489.9414    17.829484    22.746881    19.330365    7839.7221     7298.887    5811.8747    6359.0623   -1792.0716   -386.57699   -474.26614   -4008.2171 
21460000    161.41494   -5070.4528    -4747.603   -5070.4528            0    5996.1731    17.903842    22.688567     19.36928     7868.044    5705.1068     6876.769    5406.6436    394.00817    713.31083    66.376888    -4059.558 
21461000    156.70886    -5063.343   -4749.9059    -5063.343            0    6414.6037    17.974263    22.648025    19.319165    7864.4758      7126.97    6373.7443    5743.0969    224.17514   -5.9444248    -1372.742    -4014.181 
21462000    157.71857   -5068.2711   -4752.8145   -5068.2711            0    8721.5666    17.898238      22.8325     19.13419    7819.4069    7266.1127    8750.5301    10148.057   -447.34979    511.01636   -103.34585   -3758.2242 
21463000    156.45752   -5067.3566   -4754.4222   -5067.3566            0    6651.6872    17.921045    22.833405    19.149371    7835.8936    6620.5629    6899.9772    6434.5215    446.51151    376.50722    719.55185   -3994.2776 
21464000    156.86349   -5065.1141   -4751.3677   -5065.1141            0    7696.3705    18.034762    22.584635    19.188392    7815.5954    5810.8644      8780.19     8498.057    163.75332   -57.880697    72.162059   -3874.1166 
21465000    155.37781   -5089.7994   -4779.0245   -5089.7994            0    7436.0788    17.936377    22.742169    19.127773    7802.4502    7587.3155     7033.413    7687.5079     285.5592   -687.15812    375.83187   -3932.8677 
21466000    160.00297    -5071.569   -4751.5433    -5071.569            0    9010.2592    17.901005    22.758827    19.104336    7783.2189    9019.8094    8333.1882    9677.7801    120.17755    57.310249    1424.6462   -3728.7863 
21467000    149.03039   -5071.2672    -4773.188   -5071.2672            0    7373.0592    17.874553    22.931226    19.058735     7811.898    6368.1744     7500.788    8250.2153   -865.96055    341.37357   -1124.7957   -3933.1863 
21468000    162.70897   -5062.8281     -4737.39   -5062.8281            0     7296.621    17.976587    22.624651    19.248285    7828.5472    8312.3316    6584.7546    6992.7767    317.70089   -154.66943   -317.18773   -3904.3251 
21469000    152.61345    -5063.943   -4758.6973    -5063.943            0    7085.6986    17.888833    22.840031    19.178851    7836.1239    8197.7509    6351.1563    6708.1886    137.07222     635.4434    605.45798   -3948.9307 
21470000    150.21794   -5069.6969   -4769.2425   -5069.6969            0    8350.4174    17.877769    22.872001    19.068873    7797.2687     8436.084    8481.6153    8133.5529    946.32932    769.71581   -272.79919   -3819.6734 
21471000    152.51037   -5063.1002   -4758.0606   -5063.1002            0    7858.2025    17.956581    22.743881    19.148195    7820.1677    8358.3904    7460.3006    7755.9166     153.4631    261.02942    840.60697   -3861.8395 
21472000     153.2539   -5073.7077   -4767.1809   -5073.7077            0    8412.6174    17.950886    22.603355     19.13407    7763.6535     7217.857    9028.7472    8991.2481   -292.30531    202.20877    113.24662    -3814.663 
21473000    152.75749   -5078.4448    -4772.911   -5078.4448            0    7172.6851    17.925025    22.883801     19.08861    7830.0087     8084.336    6035.8486    7397.8706    301.97388    722.52428    436.31542   -3953.8431 
21474000    157.28733   -5062.5894   -4747.9953   -5062.5894            0    8243.0099    17.926684    22.687169    19.201982    7809.5558     8829.427    8526.9376    7372.6649    803.70895     667.2968     106.3135    -3809.163 
21475000    156.63644   -5075.7286   -4762.4364   -5075.7286            0    8770.3569    17.938663    22.578602    19.253724    7798.3346    8439.1383     9017.857    8854.0753    1187.8445    160.57173    1850.6098   -3764.9774 
21476000    156.77686   -5072.6319   -4759.0588   -5072.6319            0    7191.5959    17.878048     22.86392    19.165474    7834.1226    7455.4747    6081.5938    8037.7191   -370.17232    160.87483     799.9069      -3937.4 
21477000    163.79749   -5044.6697   -4717.0545   -5044.6697            0    7372.1324    17.731287    22.810611    19.364633    7832.2486    9247.4372    6344.2546    6524.7055    304.61853   -961.11947   -628.28061   -3874.9704 
21478000    160.36387   -5058.1365   -4737.3889   -5058.1365            0    7185.3992    17.744025    22.853646     19.26925    7813.9829     8067.551    7525.5303    5963.1164   -119.76195    86.646654    1377.0331   -3918.5486 
21479000    155.58709   -5055.3924   -4744.1991   -5055.3924            0    7372.5951    17.870445    22.738177     19.30751    7845.4394    6081.7505    7599.0218     8437.013   -706.42712    196.72916    30.262554   -3900.6438 
21480000    161.92685   -5052.3026   -4728.4289   -5052.3026            0    5595.6754    17.875838      22.7084    19.422128    7884.0573    5293.4714    6472.1955    5021.3592    1162.7459    -358.0639   -1190.3473   -4085.0332 
21481000    157.65653   -5054.9551   -4739.6225   -5054.9551            0    6769.9815    17.823356    22.873629    19.229612    7839.6211     6497.888    7170.8335     6641.223     1308.218    -54.30857   -543.04713   -3965.5914 
21482000    154.39522   -5061.2329   -4752.4234   -5061.2329            0    6916.7283    17.904208    22.675819    19.314134    7841.3953    8915.3288    6813.7606    5021.0954    -135.3618   -1518.0534    297.02786   -3961.4353 
21483000    153.59734   -5072.4817    -4765.268   -5072.4817            0     6468.121    17.803715    22.815991    19.277763    7830.8087    7742.4111    6390.8767    5271.0752   -300.46989   -492.29474    1046.6269   -4026.5807 
21484000    160.08437    -5059.538   -4739.3495    -5059.538            0    7024.0935    17.848223    22.859551    19.204843    7835.6216    6932.4314    7088.1741    7051.6751   -621.53622    1003.2578    -674.1117   -3936.6747 
21485000    155.26708   -5075.7462   -4765.1929   -5075.7462            0    7093.5498    17.978915    22.562427    19.339367    7844.9747     6168.585    8167.4108    6944.6537   -827.87301    22.559028   -1584.5054   -3953.6134 
21486000    158.56521   -5078.9128   -4761.7627   -5078.9128            0    7400.2042    17.959684    22.715473     19.20477    7834.8302    5913.3847    7904.1268    8383.1012    187.00923   -350.82604    55.430104   -3916.1935 
21487000    154.50547   -5064.3228   -4755.2928   -5064.3228            0    6695.4547    17.751036    22.982383    19.172283    7821.5458    6382.6094     6858.759    6844.9957   -466.32241    1086.4731    1493.5106   -3991.5475 
21488000    162.36602   -5068.9999   -4744.2478   -5068.9999            0    6703.9492    17.914869    22.716855    19.270997    7842.7075    6841.2939    7271.9375    5998.6161   -691.52466    144.36022    110.38813   -3977.4645 
21489000    153.22777   -5055.1815    -4748.707   -5055.1815            0    7142.1081    17.915215     22.73634    19.232578    7833.9371    6557.9849    7887.7183    6980.6212    127.38279    1052.1921   -979.69194   -3932.7216 
21490000    161.86282   -5065.4942   -4741.7486   -5065.4942            0    7754.6923    17.831534    22.772924     19.25675    7819.7072    7477.9312    7836.4983    7949.6475   -435.47221    717.82905   -913.16852   -3857.3848 
21491000    154.17731   -5081.0749   -4772.7012   -5081.0749            0    4271.8135    17.842586    22.858094    19.361023     7896.345    4143.1649    4837.1158    3835.1598    -60.52384    102.56855    344.32243   -4280.7588 
21492000    149.51438   -5057.7151   -4758.6678   -5057.7151            0    7156.7948    17.946571    22.528944    19.403535    7845.1847    7454.5752    8507.0147    5508.7945    413.01448    120.12198   -906.28141   -3939.8305 
21493000    159.67509    -5056.711   -4737.3411    -5056.711            0     6566.082    17.973234    22.916527     19.07653    7857.3194    5356.1743    6012.2997     8329.772    -585.2224   -314.48371   -867.68061   -3984.9275 
21494000    158.41206   -5049.7435   -4732.8998   -5049.7435            0     9035.002    17.900891    22.830532    19.019066    7772.8427    9962.3619    8629.5092    8513.1349     1199.103    349.57555    1257.4732   -3708.7016 
21495000    151.80046   -5032.7856    -4729.166   -5032.7856            0    8031.3676    17.915803    22.782694    19.177096    7827.5201     7656.592    8107.6769     8329.834     113.8787    420.21064    512.35784   -3812.3343 
21496000     161.1044   -5082.1628   -4759.9341   -5082.1628            0    6596.5745    17.943026    22.846752    19.155272    7852.5098    6540.2379    6262.7291    6986.7564   -1191.9642   -56.040292    324.55119   -4004.4891 
21497000    153.50528   -5060.4395   -4753.4099   -5060.4395            0    6622.1131    17.900653     22.82198    19.202017    7844.5684    5744.5697     6559.699    7562.0706   -1459.5789   -403.96626   -1076.2793   -3995.8072 
21498000    153.80967   -5039.2541   -4731.6158   -5039.2541            0    7338.8438    17.855429    22.744284    19.253053     7818.837    7313.8648    7446.4855     7256.181    898.39186     30.52708    -444.0634   -3894.7695 
21499000    156.95602    -5072.037   -4758.1056    -5072.037            0    8009.5259    17.785112    22.637311    19.348945    7790.0226    9563.9132    7588.2175    6876.4469   -299.83709   -184.85032    232.22157   -3848.1474 
21500000    166.99939   -5061.5969   -4727.5775   -5061.5969            0    7724.5473    17.886862    22.632257    19.281095    7805.3739    8065.6638    8101.1993    7006.7788    313.34142    249.03517    972.96801   -3848.2662 
Loop time of 416.515 on 64 procs for 250000 steps with 1008 atoms

Performance: 103.718 ns/day, 0.231 hours/ns, 600.219 timesteps/s
195.3% CPU use with 32 MPI tasks x 2 OpenMP threads

MPI task timing breakdown:
Section |  min time  |  avg time  |  max time  |%varavg| %total
---------------------------------------------------------------
Pair    | 36.503     | 40.906     | 48.646     |  40.2 |  9.82
Bond    | 0.98158    | 1.2887     | 2.1129     |  19.7 |  0.31
Kspace  | 198.39     | 207.78     | 217.11     |  27.3 | 49.89
Neigh   | 1.5971     | 1.7247     | 1.906      |   6.4 |  0.41
Comm    | 62.885     | 69.4       | 72.856     |  30.2 | 16.66
Output  | 0.4763     | 0.47673    | 0.47847    |   0.0 |  0.11
Modify  | 80.684     | 82.679     | 85.399     |  12.5 | 19.85
Other   |            | 12.26      |            |       |  2.94

Nlocal:        31.5000 ave          36 max          28 min
Histogram: 1 4 5 6 0 7 5 2 1 1
Nghost:        2955.84 ave        2970 max        2942 min
Histogram: 3 5 2 3 2 7 0 5 2 3
Neighs:        10706.9 ave       12249 max        9491 min
Histogram: 1 4 5 6 4 3 5 2 1 1

Total # of neighbors = 342620
Ave neighs/atom = 339.90079
Ave special neighs/atom = 2.0000000
Neighbor list builds = 4273
Dangerous builds = 0

unfix		3
unfix		2
unfix		1

write_data	data.final.${pid}
write_data	data.final.0
System init for write_data ...
PPPM initialization ...
  extracting TIP4P info from pair style
  using 12-bit tables for long-range coulomb (../kspace.cpp:340)
  G vector (1/distance) = 0.3799085
  grid = 24 27 32
  stencil order = 5
  estimated absolute RMS force accuracy = 0.0023834388
  estimated relative force accuracy = 7.1776551e-06
  using double precision FFTW3
  3d grid and FFT values/proc = 5355 672
Last active /omp style is kspace_style pppm/tip4p/omp
WARNING: Not all mixed pair coeffs generated from mixing. Use write_data with 'pair ij' option to store all pair coeffs. (../write_data.cpp:312)

write_restart   restart.lmp.${pid}
write_restart   restart.lmp.0
System init for write_restart ...
PPPM initialization ...
  extracting TIP4P info from pair style
  using 12-bit tables for long-range coulomb (../kspace.cpp:340)
  G vector (1/distance) = 0.3799085
  grid = 24 27 32
  stencil order = 5
  estimated absolute RMS force accuracy = 0.0023834388
  estimated relative force accuracy = 7.1776551e-06
  using double precision FFTW3
  3d grid and FFT values/proc = 5355 672
Last active /omp style is kspace_style pppm/tip4p/omp
Total wall time: 0:06:56
