LAMMPS (30 Jul 2021)
Processor partition = 0
  using 2 OpenMP thread(s) per MPI task
using multi-threaded neighbor list subroutines
variable        pid world 0 1
variable        phase world IceIh IceIII

shell cd ${phase}
shell cd IceIh
include Restart.lmp
echo both
log log.lammps
#include		in.partitions
include		in.temp
variable        temperature equal 32.72
variable	tempDamp equal 100.0
include		in.pressure
variable        pressure equal 2167.5
variable        pressureDamp equal 1000.0 # This is 1 ps
include		in.seed
variable        seed equal 745823

units		real
atom_style	full
#include		in.box
read_restart	restart.lmp.${pid}
read_restart	restart.lmp.0
Reading restart file ...
  restart file = 30 Jul 2021, LAMMPS = 30 Jul 2021
  restoring atom style full from restart
  orthogonal box = (0.17326339 0.14208918 0.18702772) to (18.034309 23.487089 22.026168)
  2 by 4 by 4 MPI processor grid
  restoring pair style lj/cut/tip4p/long/omp from restart
  restoring bond style harmonic/omp from restart
  restoring angle style harmonic/omp from restart
  864 atoms
  576 bonds
  288 angles
Finding 1-2 1-3 1-4 neighbors ...
  special bond factors lj:    0        0        0       
  special bond factors coul:  0        0        0       
     2 = max # of 1-2 neighbors
     1 = max # of 1-3 neighbors
     1 = max # of 1-4 neighbors
     2 = max # of special neighbors
  special bonds CPU = 0.002 seconds
  read_restart CPU = 0.007 seconds
include 	in.setup
variable	out_freq equal 1000
variable	out_freq2 equal 10000
variable	out_freq3 equal 1000

timestep	2.0

neigh_modify    delay 7 every 1

include		in.tip4p
# This is TIP4P/Ice

# create groups ###
group ox type 2
288 atoms in group ox
group hy type 1
576 atoms in group hy

# set charges - beside manually ###
set group ox charge -1.1794
Setting atom values ...
  288 settings made for charge
set group hy charge 0.5897
Setting atom values ...
  576 settings made for charge

# ### TIP3P Potential Parameters ###
pair_style lj/cut/tip4p/long/omp 2 1 1 1 0.1577 8.5
pair_coeff 1 1*2 0.000 0.000
pair_coeff 2 2 0.21084 3.1668
bond_style  harmonic
bond_coeff  1 450 0.9572
angle_style harmonic
angle_coeff 1 55 104.52
kspace_style pppm/tip4p/omp 1.0e-5
pair_modify tail yes

thermo          ${out_freq}
thermo          1000
thermo_style    custom step temp pe etotal epair emol press lx ly lz vol pxx pyy pzz pxy pxz pyz enthalpy

restart 	${out_freq3} restart.lmp.${pid} restart2.lmp.${pid}
restart 	1000 restart.lmp.${pid} restart2.lmp.${pid}
restart 	1000 restart.lmp.0 restart2.lmp.${pid}
restart 	1000 restart.lmp.0 restart2.lmp.0


include         in.dump
dump            myDump all atom ${out_freq2} dump.water.${pid}
dump            myDump all atom 10000 dump.water.${pid}
dump            myDump all atom 10000 dump.water.0
dump            myDump2 all dcd ${out_freq2} dump.dcd
dump            myDump2 all dcd 10000 dump.dcd
dump_modify     myDump append yes
dump_modify     myDump2 append yes


variable natoms 	equal  "count(all)"                        # NUMBER ATOMS
variable H      	equal  "enthalpy/v_natoms"                 # ENTHALPY-per-atom
variable Vol      	equal  "vol/v_natoms"                 # volume-per-atom
fix AVG all 		ave/time ${out_freq} 1 ${out_freq} v_Vol v_H file vol_enthalpy.dat
fix AVG all 		ave/time 1000 1 ${out_freq} v_Vol v_H file vol_enthalpy.dat
fix AVG all 		ave/time 1000 1 1000 v_Vol v_H file vol_enthalpy.dat


timer           timeout 23:50:00 every 1000
New timer settings: style=normal  mode=nosync  timeout=23:50:00

fix 		1 all shake 1e-6 200 0 b 1 a 1
Finding SHAKE clusters ...
       0 = # of size 2 clusters
       0 = # of size 3 clusters
       0 = # of size 4 clusters
     288 = # of frozen angles
  find clusters CPU = 0.001 seconds
fix             2 all nph aniso ${pressure} ${pressure} ${pressureDamp}
fix             2 all nph aniso 2167.5 ${pressure} ${pressureDamp}
fix             2 all nph aniso 2167.5 2167.5 ${pressureDamp}
fix             2 all nph aniso 2167.5 2167.5 1000
fix             3 all temp/csvr ${temperature} ${temperature} ${tempDamp} ${seed}
fix             3 all temp/csvr 32.72 ${temperature} ${tempDamp} ${seed}
fix             3 all temp/csvr 32.72 32.72 ${tempDamp} ${seed}
fix             3 all temp/csvr 32.72 32.72 100 ${seed}
fix             3 all temp/csvr 32.72 32.72 100 745823


run             250000
PPPM initialization ...
  extracting TIP4P info from pair style
  using 12-bit tables for long-range coulomb (../kspace.cpp:340)
  G vector (1/distance) = 0.3722005
  grid = 24 27 25
  stencil order = 5
  estimated absolute RMS force accuracy = 0.0031032561
  estimated relative force accuracy = 9.3453637e-06
  using double precision FFTW3
  3d grid and FFT values/proc = 4410 672
Last active /omp style is kspace_style pppm/tip4p/omp
Neighbor list info ...
  update every 1 steps, delay 7 steps, check yes
  max neighbors/atom: 2000, page size: 100000
  master list distance cutoff = 10.8154
  ghost atom cutoff = 10.8154
  binsize = 5.4077, bins = 4 5 5
  1 neighbor lists, perpetual/occasional/extra = 1 0 0
  (1) pair lj/cut/tip4p/long/omp, perpetual
      attributes: half, newton on, omp
      pair build: half/bin/newton/omp
      stencil: half/bin/3d
      bin: standard
Setting up Verlet run ...
  Unit style    : real
  Current step  : 44000000
  Time step     : 2
  Walltime left : 23:49:59.94
Per MPI rank memory allocation (min/avg/max) = 10.21 | 10.22 | 10.23 Mbytes
Step Temp PotEng TotEng E_pair E_mol Press Lx Ly Lz Volume Pxx Pyy Pzz Pxy Pxz Pyz Enthalpy 
44000000    36.081668   -4676.0723   -4614.2296   -4676.0723            0     2416.937    17.861046    23.344999     21.83914    9106.1812    2795.8548    1965.8594    2489.0966    271.57668   -50.549364    84.458546   -4293.2499 
44001000    31.947076   -4679.9466   -4625.1904   -4679.9466            0    2168.6448     17.84347     23.19178      22.0107    9108.5081    1938.8123    2644.4737    1922.6483   -20.675724    -4.508839    160.21881   -4337.1114 
44002000    33.759445   -4684.5946   -4626.7321   -4684.5946            0    1860.3397    17.918085    23.212408    21.937054    9124.1012    1766.3495    2164.8985    1649.7711    620.38939   -65.690824   -224.23947   -4379.1848 
44003000    32.634004   -4682.8161   -4626.8825   -4682.8161            0    2692.2072    17.868026    23.277062     21.83797    9082.7424    2950.4474    2835.0421    2291.1321    -86.47441    62.723368    351.33469   -4270.2661 
44004000    31.077534   -4684.2555   -4630.9896   -4684.2555            0    2356.2734    17.883635    23.230541    21.889119    9093.7584    2420.9322    2584.6689    2063.2191    44.897579   -178.39859    259.83531   -4318.4933 
44005000    32.926073   -4680.9323   -4624.4981   -4680.9323            0    1906.8565    17.875538    23.188115    21.974112    9108.2706    2179.3322    2017.2795    1523.9576   -318.01498    248.54095   -11.777198   -4371.2012 
44006000    33.448328   -4680.9957   -4623.6664   -4680.9957            0    2319.7376     17.93361    23.247161    21.812075    9093.5747    1695.4221    2917.7138     2346.077    229.68999     4.546323    115.43804   -4316.0217 
44007000    31.252124   -4679.7742   -4626.2091   -4679.7742            0    1827.1502     17.88351    23.226475    21.955532    9119.6894    2307.9659    2108.1875    1065.2973   -321.27713   -303.65881    260.68234   -4383.1957 
44008000    33.834134   -4682.0976    -4624.107   -4682.0976            0    2400.3901    17.842959    23.217633    21.969211    9101.2129    2863.5275    2685.5475    1652.0953     366.1213   -95.726077   -33.532698   -4305.4988 
44009000    34.369279   -4680.7911   -4621.8834   -4680.7911            0    2371.2473    17.948758    23.193739    21.841906    9092.7593    2575.7534    2983.4698    1554.5186    44.362074   -59.219833    125.06768   -4307.4357 
44010000     31.56837   -4680.9322   -4626.8251   -4680.9322            0    1399.7969    17.924106    23.324666     21.86181    9139.8501    1340.1359     1434.605    1424.6498    58.970278    163.61361    287.32211   -4440.2387 
44011000    32.487191   -4682.6042   -4626.9223   -4682.6042            0    2361.5242    17.885113    23.250513    21.884232    9100.2964    2307.2171    2144.1619    2633.1937   -166.69152   -38.114429    285.08664   -4313.5043 
44012000    34.564541    -4680.996   -4621.7536    -4680.996            0    2113.4069    17.866343    23.276115    21.917178    9114.4569    2396.2528    2222.8131    1721.1546    152.72582    124.50046    201.88046    -4340.829 
44013000    34.808316   -4683.1958   -4623.5355   -4683.1958            0    2322.4228    17.835893     23.29994      21.8945    9098.8122    2516.1217    2380.4527     2070.694   -447.28154   -181.16926   -73.026487   -4315.3574 
44014000     33.12549   -4686.5061   -4629.7302   -4686.5061            0    2093.6944    17.932031    23.183265    21.920888    9113.0178    2012.1117    2094.0181    2174.9533   -327.77234   -106.99144    152.90657   -4351.4698 
44015000    33.564466   -4684.4019   -4626.8735   -4684.4019            0    2048.8818    17.838665    23.361978    21.866057    9112.6026    2302.5889    1845.9332    1998.1231   -227.76015    64.607979    251.87063   -4354.5813 
44016000    32.480305   -4682.3192    -4626.649   -4682.3192            0    2207.4202    17.830525    23.421812    21.799836    9104.1175    2555.1229    1415.5163    2651.6215   -220.43637   0.60043789   -1.2152066   -4333.5605 
44017000    33.039533   -4681.4925   -4624.8639   -4681.4925            0    1983.2478    17.877286    23.218996    21.948629    9110.7143    1906.2521    2314.8994    1728.5918   -64.798387    272.48912    132.16902   -4361.3489 
44018000    31.090517   -4685.0348   -4631.7467   -4685.0348            0    1779.6992    18.019288     23.19676    21.830369    9124.8561    1595.5581    2303.4752    1440.0642   -124.59147   -152.97969    58.279717   -4394.9103 
44019000    31.958402   -4681.5318   -4626.7562   -4681.5318            0     2189.636    17.877096    23.328033    21.852901     9113.479    2288.5328    2041.9843    2238.3909    150.77354   -40.967055   -378.23972     -4335.73 
44020000    32.715912   -4685.0817   -4629.0078   -4685.0817            0    1693.9507    17.951322    23.245255    21.866075    9124.3427    1615.4111    1900.7166    1565.7245   -227.65756   -297.40574    -53.63871   -4403.5951 
44021000    32.414663   -4685.0877   -4629.5301   -4685.0877            0    2003.8484    17.914214    23.147794    21.971741    9111.1215    2249.6406    2661.1327    1100.7718    332.81578    17.710452    163.24417    -4363.266 
44022000    33.427288   -4679.7716   -4622.4784   -4679.7716            0    2228.4318    17.979149    23.172632    21.823227     9092.085    1826.7636    2544.7668    2313.7649    48.943063    -122.8786   -140.69161   -4326.9911 
44023000    32.019334   -4684.3341   -4629.4541   -4684.3341            0    2254.8604    17.866117    23.173705    21.985048    9102.3402    2483.6775    2690.7852    1590.1185   -117.79516    247.78049     30.67081   -4330.1252 
44024000    34.646382   -4678.3975   -4619.0148   -4678.3975            0      2521.57    17.960418    23.230375    21.801359    9096.1206    2438.9711    2559.7942    2565.9448   -324.22188   -113.24591    125.40121   -4284.5094 
44025000    32.775356   -4682.1696   -4625.9937   -4682.1696            0    1712.5336    17.879145    23.390309    21.837877    9132.5727    1799.5032    1686.0388    1652.0588    49.905854    61.106363   -182.77697   -4397.9028 
44026000    33.727831   -4680.8489   -4623.0405   -4680.8489            0     2174.427    17.931421      23.3318    21.749196    9099.2618    2173.2061    1836.7298     2513.345    96.264812     23.28761    297.14516   -4334.4867 
44027000    32.481747   -4679.3128   -4623.6402   -4679.3128            0    2202.5401    17.888125    23.263856    21.880873    9105.6543     2315.085    2401.2467    1891.2886   -181.47568   -76.958909   -108.78126   -4331.1503 
44028000    32.056745   -4683.9359   -4628.9918   -4683.9359            0    2217.9139    17.895759    23.254725    21.870803    9101.7739    2371.5092    2169.5976    2112.6349   -216.75117   -235.80797   -100.93247   -4334.5858 
44029000    31.576683   -4685.0075   -4630.8862   -4685.0075            0    1846.9032    17.855851    23.263021    21.947785    9116.6938    1757.2184    2161.5759    1621.9155   -60.699003    40.182994    142.46658   -4385.3263 
44030000    32.994684   -4681.2084   -4624.6567   -4681.2084            0     1787.981    17.924108    23.339429    21.792549    9116.6612    1371.9256    1209.1254     2782.892   -200.39859   -121.37645   -143.99808   -4386.9318 
44031000    34.549376   -4683.0149   -4623.7985   -4683.0149            0    2152.2024    17.901091    23.324647    21.816793    9109.3099    1900.1233    1929.7271     2626.757   -212.65388    118.21405    484.94763   -4337.8785 
44032000    33.610479   -4682.2278   -4624.6206   -4682.2278            0    2033.0785    17.886513    23.285735    21.898559     9120.763    2242.5021    2162.3859    1694.3475   -55.824583   -59.182631    526.32616   -4354.1867 
44033000    33.063451   -4683.5352   -4626.8656   -4683.5352            0    2063.2084      17.9613    23.196561    21.870483    9112.1268    2084.6727    2229.7119    1875.2405     242.8616   -246.49333    338.96808   -4352.6838 
44034000    31.697601   -4684.8966    -4630.568   -4684.8966            0    2241.8977    17.908095    23.324596    21.805508    9108.1407    2052.5086    2220.1805     2453.004    402.43568   -47.493438   -223.85556   -4332.7702 
44035000      30.8977   -4684.0939   -4631.1363   -4684.0939            0    1892.3965    17.918418    23.249011    21.879263    9114.5838    2000.9577    1599.9123    2076.3194   -659.52555   -53.499677    70.785156   -4379.5859 
44036000    31.744367     -4683.72   -4629.3113     -4683.72            0    2268.1887    17.894606    23.217589    21.898917    9098.3343    2442.4465    2627.4756    1734.6439    232.79511   -196.23057    151.50802   -4328.3456 
44037000    33.478784   -4681.5972   -4624.2157   -4681.5972            0    2614.2278    17.872977    23.223805    21.895837    9088.4918    2949.0505    2872.6514    2020.9815    573.73605   -393.04917   -331.02188   -4277.7094 
44038000     33.19401   -4683.6022   -4626.7088   -4683.6022            0    1818.4401    17.873223    23.241063    21.918358    9104.7257    1900.9389    1665.0318    1889.3497   -124.42408   -13.442469    458.43571   -4385.2507 
44039000    33.108753   -4682.2405   -4625.4932   -4682.2405            0    2243.1298    17.833809    23.379048    21.805711    9091.6177    2292.2974    1912.0955    2524.9966   -186.54356   -320.58407    19.313877   -4328.0723 
44040000    31.942917   -4681.8814   -4627.1324   -4681.8814            0    2115.2721    17.873126    23.373528    21.805835    9109.5621     2450.649    1595.2684    2299.8989   -53.433038    31.097629    -103.3277   -4346.1108 
44041000    31.331586   -4681.0963   -4627.3951   -4681.0963            0    1884.4761    17.929802    23.324546    21.804587    9118.7762     1730.895     1603.595    2318.9382   -252.01599    43.616653    184.92761   -4376.7824 
44042000    32.230197     -4682.75   -4627.5085     -4682.75            0    1880.5737    17.865414    23.350537    21.832541    9107.8158     1529.446    1909.2133    2203.0618    248.48012    16.201744   -94.874996   -4377.7154 
44043000    32.646028    -4680.591   -4624.6368    -4680.591            0    2397.5035    17.959957    23.169945    21.852725     9093.601    2031.5715    2650.5749    2510.3643   -123.44107   -14.979413   -206.16124   -4306.6779 
44044000    32.825381   -4681.5582   -4625.2966   -4681.5582            0    1916.3821    17.965464    23.192368    21.874957     9114.456    2131.8879    1697.3982    1919.8603    134.77522   -93.498015    88.101774   -4370.5615 
44045000     31.72765   -4688.1139   -4633.7338   -4688.1139            0    2067.0087    17.908614    23.193658    21.934162    9110.7111     1875.613    2440.4738    1884.9393   -360.96006   -84.747864   -79.135619   -4359.0895 
44046000    34.766002   -4683.7669   -4624.1792   -4683.7669            0       2383.7    17.886439    23.204094    21.925406      9099.89     2678.614    2113.0403    2359.4459   -392.29567   -191.41251  -0.92736572   -4307.8322 
44047000    33.137541   -4684.9735   -4628.1769   -4684.9735            0    2257.3983    17.876545    23.194644    21.954387    9103.1692    2466.3523    2154.5701    2151.2724   -42.740726   -150.59925    34.290324   -4328.4838 
44048000    33.145953    -4682.524    -4625.713    -4682.524            0    1987.5006    17.972707    23.158004      21.8978    9114.1272    1571.8129    2599.9062    1790.7828   -271.20433   -163.53261   -293.87446    -4361.534 
44049000    32.733675   -4681.7303   -4625.6259   -4681.7303            0    2145.6081    17.874213    23.290225    21.891079    9113.1344    2421.8951    1608.0133    2406.9159   -114.93875   -94.108017    56.005629   -4340.4623 
44050000    30.821198    -4680.449   -4627.6225    -4680.449            0    2347.3037    17.890609    23.246882    21.869442    9095.5199    1781.5159    2496.8492    2763.5461   -347.91001    278.03464    81.493207   -4316.2555 
44051000     33.09728   -4681.3615   -4624.6339   -4681.3615            0    1806.9072    17.876204    23.307173    21.895211    9122.5033    1725.7216    1705.2499      1989.75    189.48817   -117.84052   -2.0306548   -4384.2387 
44052000    33.701698   -4684.7666    -4627.003   -4684.7666            0    2329.9601    17.839848    23.241295    21.938047    9095.9787    2570.8222    2296.8045    2122.2537    -72.88572   -298.61052    165.02156    -4317.921 
44053000    31.062515   -4681.7212   -4628.4811   -4681.7212            0    2032.1009    17.876686    23.316467    21.873985      9117.54    2175.6108    2148.4605    1772.2315   -29.313211   -208.72102   -162.99361   -4358.2727 
44054000    32.288869   -4679.5382   -4624.1962   -4679.5382            0    1922.5347    17.877927    23.257136    21.913208    9111.2788    2118.9453    1747.8409    1900.8178    94.883268   -41.679758    155.71924   -4368.7323 
44055000    33.134563    -4682.947   -4626.1554    -4682.947            0    2106.3119    17.962717    23.220161      21.8233    9102.4371    1912.3034    2332.0851    2074.5473   -256.74974   -59.821092    59.232534   -4346.5432 
44056000    34.633935   -4681.6094    -4622.248   -4681.6094            0    2090.5352    17.958541      23.1656    21.892513    9107.7311    1459.9811    2158.0747    2653.5497   -177.90878    99.372109    75.565046   -4344.5687 
44057000    32.792858   -4682.9743   -4626.7685   -4682.9743            0    2266.1347     17.83006    23.333794    21.876581    9101.5974    2075.3871    2427.8903    2295.1268   -28.618823    75.905314    228.63443   -4325.9675 
44058000    32.917911   -4683.0191   -4626.5989   -4683.0191            0    2091.3637    17.914684    23.334434    21.813393    9118.6312     2315.405    1853.6356    2105.0505    56.500592   -172.78953    146.90244    -4348.477 
44059000    33.902828   -4684.6742   -4626.5659   -4684.6742            0    1977.9405    17.870829    23.291798    21.873549    9104.7279    2556.8936    1611.7488    1765.1791   -4.0354444     68.02177   -206.66181   -4363.9288 
44060000    30.748026   -4684.5994   -4631.8983   -4684.5994            0    2186.0289    17.979815    23.183036    21.836308    9101.9563    1579.9032    2768.3816    2209.8021   -121.04581   -78.017576    293.62056   -4341.7189 
44061000    32.904417   -4682.8346   -4626.4375   -4682.8346            0    2167.5047     17.85936    23.331577    21.837058    9099.2189    1925.0021    1932.2293    2645.2826   -386.13136    -100.1548    8.0654812   -4338.8037 
44062000    32.110084   -4678.3389   -4623.3033   -4678.3389            0    2447.4225    17.852653    23.292914    21.855709    9088.4847    2366.5734    2429.3639      2546.33     212.9387       345.05    181.02935   -4298.9067 
44063000    35.550606   -4681.9965   -4621.0639   -4681.9965            0    1989.3015    17.858736    23.321977    21.860543     9104.939    1672.1213    2401.2352    1894.5481    32.209095    337.02581    204.89687   -4356.9122 
44064000     32.98184   -4684.6041   -4628.0743   -4684.6041            0    1579.6213    17.913101    23.373918    21.779503    9119.0639     2067.507    1339.8762    1331.4807   -17.827577   -79.357504   -231.25897    -4417.997 
44065000     31.85616   -4685.4276   -4630.8272   -4685.4276            0    2196.1598    17.814549    23.380002     21.87004    9108.9632    2645.6402    2086.9691    1855.8702   -489.30551   -321.33503    291.35399   -4339.0786 
44066000    34.356903   -4683.2284   -4624.3419   -4683.2284            0    2256.6599    17.909891    23.256492    21.861525    9105.7891    2312.7514    1837.2262     2620.002   -587.87442    225.74638    -156.1605   -4324.6606 
44067000    31.763665    -4684.335   -4629.8932    -4684.335            0    2429.1947    17.886173    23.231389    21.892065    9096.6052    2485.5874    2321.7894    2480.2072      88.0377   -30.428603    91.469459   -4307.6249 
44068000    33.007956   -4685.2724   -4628.6979   -4685.2724            0    1678.9646    17.889503    23.380383    21.808932    9121.8788    1982.5643    1353.5813    1700.7482   -61.597011    24.891167    26.544749   -4405.3398 
44069000    30.104043   -4682.9808   -4631.3835   -4682.9808            0    2134.4176    17.857017    23.276061    21.923758    9112.4129    2306.3585    2030.0059    2066.8884    -51.91873    130.52412     206.1046   -4347.7297 
44070000    33.631572    -4686.349   -4628.7056    -4686.349            0     1919.676      17.8627    23.318636    21.885904    9116.2189     2219.294     1667.888    1871.8461   -78.343522     23.43891     260.4122   -4373.4833 
44071000    32.001098   -4680.9383   -4626.0895   -4680.9383            0     2534.499    17.812053    23.402809    21.785628    9081.3843    2881.2164    2189.4297     2532.851   -51.796641    275.42621    144.54124   -4290.4136 
44072000    35.251104   -4681.2435   -4620.8243   -4681.2435            0    2147.6418    17.885596    23.263304    21.893396    9109.3618    2222.6066    2196.7063    2023.6123    400.20897    -199.6017   -34.556068   -4335.5086 
44073000    33.255071   -4687.8958   -4630.8977   -4687.8958            0    2483.6839    17.884758    23.257394    21.840339    9084.5515      2443.86    2214.6779    2792.5138   -616.72165   -64.331101    51.436954   -4301.8372 
44074000    32.353756   -4681.0922   -4625.6389   -4681.0922            0    2709.2511    17.904444     23.25875    21.812166    9083.3489    2445.2898    2487.6027    3194.8607    73.870334    99.241607    367.69264   -4266.7409 
44075000    33.781937    -4686.903   -4629.0019    -4686.903            0    1988.5536    17.958241    23.279067     21.77672    9103.7821    1874.2936     2074.393    2016.9741     48.98428   -256.99989   -369.86391    -4364.983 
44076000    32.492499   -4683.2985   -4627.6074   -4683.2985            0    2320.2027    17.832734    23.345376    21.852451    9097.4349    2697.8535    2286.5509    1976.2038      175.256    112.60888    338.84784   -4319.7705 
44077000    33.774641   -4687.8502   -4629.9616   -4687.8502            0    2135.8035    17.935313    23.195525    21.883371    9103.8984    2127.8754    2618.9056    1660.6296   -273.78178   -181.16062    266.49262   -4346.3888 
44078000    33.754076   -4678.1641   -4620.3108   -4678.1641            0    2417.3088    17.871357    23.177638    21.973601    9101.8143    2597.1072    2345.0915    2309.7276    314.71816   -238.95874    29.556115   -4299.4357 
44079000    33.420688    -4685.414   -4628.1321    -4685.414            0    1908.9875    17.931955    23.275539    21.855137    9121.8078    1893.6066    2019.2771    1814.0788   -542.29831   -8.0013956    24.702493   -4374.1753 
44080000    33.950465   -4681.2723   -4623.0824   -4681.2723            0    1873.6211    17.846727    23.265175    21.977347    9125.1532    2084.6437    1870.2953    1665.9243    91.204283   -119.77788   -2.3488117    -4373.739 
44081000    32.355304    -4681.448   -4625.9921    -4681.448            0     2290.373    17.852862     23.25953     21.91955    9102.0755    2326.0132    2344.9339    2200.1718   -25.440385   -88.379244     314.1327   -4321.9579 
44082000    33.527707   -4687.4094   -4629.9441   -4687.4094            0    1787.6903    17.934704    23.280577     21.85183    9123.8004    1535.9744    2132.3507    1694.7457    446.41121    26.612995    353.79006   -4392.0718 
44083000    30.868209   -4682.6891    -4629.782   -4682.6891            0    2492.6816    17.859259    23.279836    21.867186    9091.5147    2487.5439    2678.7087    2311.7922    127.75919   -137.49105   -112.07433   -4299.2763 
44084000    33.395643   -4679.2736   -4622.0346   -4679.2736            0    1890.0067    17.850699    23.351055    21.885117    9122.4312     2379.276    1570.9867    1719.7575    315.88414   -197.09739    63.090574   -4370.5857 
44085000    32.361844   -4683.4547   -4627.9876   -4683.4547            0    2158.9005    17.977204     23.18026    21.861025    9109.8448    1640.8669     2802.668    2033.1666   -164.15303    105.22362   -13.495573   -4341.1609 
44086000    33.950955   -4684.7335   -4626.5427   -4684.7335            0    2374.5888    17.888541    23.248788    21.891877    9104.5449    2641.7606    2374.4465    2107.5595   -366.23203   -313.12248    157.86693   -4311.2438 
44087000    32.809105     -4684.89   -4628.6563     -4684.89            0    1808.7195    17.947123    23.238805    21.874235    9123.0806    1822.9893    1955.4136    1647.7556   -109.53016    253.34477   -16.599316   -4388.0048 
44088000    33.851114   -4680.6492   -4622.6296   -4680.6492            0    2346.5199    17.883066      23.1919    21.942483    9100.4759    2765.8754    2444.6606    1829.0235   -174.04022   -213.66642      65.1186   -4311.1969 
44089000    30.850988   -4683.2857   -4630.4082   -4683.2857            0    2219.8939     17.88418    23.243749    21.894729    9101.5378    2518.0106    2184.8031     1956.868   -4.8338902    282.60093    15.303338    -4335.747 
44090000    32.412804   -4682.4466   -4626.8922   -4682.4466            0    2135.5108    17.939008    23.198223    21.887219    9108.4343    1918.6398    2255.1641    2232.7286   -266.04168   -3.2888402    169.59741    -4343.217 
44091000    31.341312   -4683.1327   -4629.4147   -4683.1327            0    2701.6177    17.828676    23.219348    21.924175    9075.9557    2638.5134    2884.7074    2581.6325   -28.474072   -95.711783   -85.619365   -4271.8191 
44092000    33.209853   -4679.8892   -4622.9686   -4679.8892            0    2377.3985    17.910395    23.287253    21.817504    9099.7295    2886.6048    1693.1634    2552.4273   -225.88021   -15.875584    391.49928   -4307.4635 
44093000    31.045376   -4683.3515   -4630.1408   -4683.3515            0    2123.2508    17.877652    23.260232    21.905463    9109.1315    1993.8288    1996.5423    2379.3813    43.181821    243.57896    85.268654   -4348.0725 
44094000    33.687008   -4684.7218   -4626.9834   -4684.7218            0    2236.2955    17.920583    23.230196    21.870192    9104.5315    2065.0879    2246.8843    2396.9144    78.111584   -222.71737    123.54649   -4330.0475 
44095000    33.019029   -4685.1026   -4628.5091   -4685.1026            0    1863.3501    17.929981    23.172255     21.94249    9116.6243    1746.6482    2575.7974    1267.6048    175.02855   -58.370365    110.67332   -4380.7644 
44096000     33.03418   -4682.0825    -4625.463   -4682.0825            0    2094.4231    17.867884    23.286904    21.887489    9107.1153    2217.5421    1681.0091    2384.7181   -10.632677    63.471226    220.34607   -4347.2861 
44097000    33.993453    -4683.752   -4625.4883    -4683.752            0    2185.2095    17.987503      23.1698    21.854607    9108.2755     1805.177    2563.8765    2186.5749   -32.243711   -227.81229   -51.168048   -4335.2164 
44098000    31.190287   -4684.5512   -4631.0921   -4684.5512            0    1876.7385    17.824469    23.316837    21.951324    9123.1949    1896.4621    1629.5693    2104.1841   -401.81952   -4.3938364   -203.00443   -4381.3875 
44099000    34.165336   -4685.3594   -4626.8012   -4685.3594            0    2242.8429    17.909084    23.252941    21.862631    9104.4493    1793.7142    2681.5642    2253.2501   -166.62577    100.90701    129.51261   -4328.9986 
44100000    32.471838   -4683.5461   -4627.8905   -4683.5461            0    2459.4223    17.871239    23.171315    21.980659    9102.1932    2609.8797    2613.6003    2154.7869    252.95414   -261.08523    370.50176   -4301.4116 
44101000    31.426459   -4684.2317   -4630.3678   -4684.2317            0    2141.1183    17.884773    23.187109    21.960042    9106.7457    2231.0364    2214.0853    1978.2332    70.758961   -74.510945   -64.115243   -4346.0004 
44102000    33.967758   -4682.5174   -4624.2978   -4682.5174            0    2377.4235    17.873579    23.287911    21.856699    9097.5958    2052.4042    2267.4864    2812.3797     88.82896   -69.469074    225.20745   -4308.8634 
44103000    33.569403   -4683.5355   -4625.9987   -4683.5355            0    1657.9987    17.877999    23.420188    21.807562    9130.9589    1791.5197    1231.1022    1951.3741    71.717084   -49.866229    234.17659   -4405.2102 
44104000    32.551051     -4683.36   -4627.5686     -4683.36            0    1999.6205    17.914194    23.249725    21.875509    9111.1517    1440.3383    2303.5562    2254.9669   -329.66091    197.24642    141.83684   -4361.8654 
44105000    33.812723   -4681.8992   -4623.9453   -4681.8992            0    2289.7329    17.826826    23.299432    21.889911    9092.0822    2347.0665    2644.4887    1877.6436   -588.97125    62.768493    335.07932   -4320.3298 
44106000     31.40068   -4684.7321   -4630.9124   -4684.7321            0    2218.0203    17.850007    23.301037     21.88121    9100.9131    2663.6581    2087.4275    1902.9754    196.65727    77.540552    36.914077   -4336.5201 
44107000    31.276532   -4682.9146   -4629.3077   -4682.9146            0    2447.4674    17.894153    23.232189    21.874913    9093.8466    2449.2908    2908.8083    1984.3032    18.164799   -76.912898    26.277335   -4304.7137 
44108000    32.260808   -4681.2709    -4625.977   -4681.2709            0    2464.9344    17.887547    23.297763    21.828226    9096.6909    2460.0836    2380.0379    2554.6816    59.815347   -11.552156   -137.85181   -4298.9642 
44109000    32.291576   -4683.5717   -4628.2251   -4683.5717            0    1946.0585    17.879794    23.337298    21.845072    9115.2074    2354.9104    1563.0483    1920.2168   -220.12247    11.165735    62.811081   -4369.5239 
44110000      32.7492   -4684.4899   -4628.3589   -4684.4899            0    2106.9349    17.904476    23.352137    21.772087    9103.0792    1876.2161    1443.1381    3001.4503     153.2318    186.60871    69.529646   -4348.6442 
44111000    31.708163   -4681.3319   -4626.9852   -4681.3319            0    2005.9524    17.990473    23.205199     21.84892    9121.3237    1488.7466    2506.6217     2022.489   -285.52274   -49.205456   -23.384454   -4360.1431 
44112000    32.826727   -4683.2565   -4626.9926   -4683.2565            0    2100.6305    17.891448    23.250236    21.875996    9099.9855    2387.5639     2429.713    1484.6146    131.15249   -132.23055    86.577701   -4348.2096 
44113000    31.690103    -4682.541   -4628.2252    -4682.541            0    2280.2021    17.886438    23.315916    21.819107    9099.4116    2139.8158    2425.8095    2274.9811    73.253618    275.95922    239.89201   -4325.6297 
44114000    35.595743   -4681.4807   -4620.4708   -4681.4807            0    2701.2987    17.821349    23.257844    21.913287    9082.7543    2919.6143    2580.3892    2603.8926   -23.634667    -67.65375    233.36654   -4262.6496 
44115000    33.019353   -4680.2409   -4623.6469   -4680.2409            0     2054.675    17.866818    23.254459    21.947515    9118.8233    2184.7353    1791.7976    2187.4921   -121.64438    76.342237    141.74799   -4350.3983 
44116000    33.339381    -4686.445   -4629.3024    -4686.445            0    2003.1894     17.90182    23.362232    21.801451     9117.944    1608.2185    2328.4069    2072.9428   -21.573749    286.78121    283.30408   -4362.9266 
44117000    30.346594   -4683.6531   -4631.6401   -4683.6531            0    1986.5258    17.933785    23.220581    21.882628    9112.6466    2392.0483    2192.7086    1374.8205   -170.93343    312.34044   -203.69146   -4367.6336 
44118000    32.402849   -4684.4445   -4628.9071   -4684.4445            0    2613.2101    17.838557     23.34063    21.841397    9093.9531    2863.5023    2027.2512    2948.8769   -71.668028    8.6041071    349.46019   -4282.3275 
44119000    33.798707   -4683.9312   -4626.0014   -4683.9312            0    1651.6136    17.958465    23.267166    21.853847    9131.4683     1603.396    1468.8119     1882.633   -314.98995    177.60265    149.36703   -4406.0509 
44120000     32.37506   -4685.8982   -4630.4085   -4685.8982            0    2058.9838     17.93781    23.281155    21.824835    9114.3332    2283.6975    1723.2014    2170.0525    -293.9566   -19.879731   -150.40209   -4356.7218 
44121000    32.932906   -4684.3891   -4627.9432   -4684.3891            0    2487.2004     17.87858     23.23725    21.892453    9095.1984    2409.0551    2897.7122    2154.8339    47.548765   -137.43231    244.56613   -4298.0307 
44122000    33.660094   -4681.8326   -4624.1404   -4681.8326            0    1948.9756    17.865673    23.330331      21.8903     9124.141    2399.0065    1783.9221    1663.9981   -70.547232    213.22593    74.633167   -4364.7975 
44123000    31.566138   -4686.6196   -4632.5163   -4686.6196            0    2167.7008    17.886793    23.322866    21.834095    9108.5569    2286.1914    2085.1065    2131.8046    -140.2952   -294.34008    309.89436   -4344.5612 
44124000    32.839494   -4680.7777   -4624.4919   -4680.7777            0    2024.4912    17.962321    23.150171    21.926969    9117.9095    1907.4813    2427.5392    1738.4531    118.66501   -62.828166   -244.64945   -4355.2845 
44125000    33.869052   -4680.1745   -4622.1241   -4680.1745            0    2361.7611    17.872343    23.305202    21.854952    9102.9934    2322.4564     2160.258    2602.5688   -101.35991   -172.66213   -325.38496   -4308.5819 
44126000    31.472578   -4679.4181   -4625.4751   -4679.4181            0    2355.6172    17.962835    23.160567    21.895526    9109.1834    2007.2346    2654.3633    2405.2536    54.096831   -376.77138    141.07786   -4312.5359 
44127000    32.513974   -4681.5066   -4625.7787   -4681.5066            0    1744.8493    17.986753      23.1427    21.933862     9130.234     1622.177    1940.5755    1671.7952       462.28    297.92729    -229.4243   -4393.4431 
44128000    31.867501   -4680.6261   -4626.0063   -4680.6261            0    2542.8264    17.857575    23.249358    21.889457    9088.0022    2178.4268    2902.9269    2547.1255    106.31651   -277.53154    308.77436   -4288.9822 
44129000     33.91469   -4681.6368   -4623.5082   -4681.6368            0    2219.4042    17.921171    23.232952    21.887969    9113.3122    2773.2067     2184.078     1700.928    -230.5747    148.12409    217.71688    -4328.531 
44130000    31.320899   -4683.7679    -4630.085   -4683.7679            0    1505.9036    17.798369    23.392365     21.93615    9133.0269    1966.9647    1982.0356    568.71059    409.07617   -77.068735    325.48407   -4429.5049 
44131000    32.650643   -4687.1039   -4631.1419   -4687.1039            0    2370.1235    17.936147    23.271692    21.785917    9093.5395    2200.2808    2237.2288    2672.8609   -230.13813     114.7011    239.34693   -4316.8162 
44132000    34.523878   -4682.3815   -4623.2088   -4682.3815            0    2277.8527    17.938267    23.159396    21.891677    9094.6659    1808.0953    3047.5873    1977.8756   -31.251141   -2.6349798   -156.16957   -4321.0827 
44133000    32.204887   -4682.7095   -4627.5114   -4682.7095            0    2482.4471    17.918513    23.153862    21.919979    9094.2218    2586.6086    2678.3651    2182.3676   -56.761299   -232.11784    215.58367   -4298.2647 
44134000    32.186269   -4685.2858   -4630.1197   -4685.2858            0    2079.7452    17.930992    23.171214    21.915005    9105.3083    2020.5178    1935.2321    2283.4857   -167.29095   -19.866194    77.716373    -4353.947 
44135000    30.832244   -4684.6281   -4631.7827   -4684.6281            0     2087.318      17.9711    23.214531    21.818474    9102.4637    1519.3753    2079.8248    2662.7538    72.501345    322.85465    448.82975    -4354.691 
44136000    31.751939    -4680.648   -4626.2263    -4680.648            0    2325.5519    17.921753    23.256496    21.841827    9103.6119     2629.009    2176.2376    2171.4093    2.1257923   -134.68826    247.19931   -4317.4701 
44137000    32.043595    -4683.651   -4628.7294    -4683.651            0    2060.1125     17.86716     23.21697    21.941248    9101.6976    2339.7189     2539.252    1301.3666   -150.39915    71.839744   -57.984385   -4355.2722 
44138000    31.523805   -4680.5822   -4626.5515   -4680.5822            0    2166.7002    17.840631    23.227381    21.993455    9113.8926    2286.6884    2699.2477    1514.1645   -85.161207    55.844004    154.80186   -4338.5607 
44139000    30.807716   -4685.0832   -4632.2798   -4685.0832            0    2253.3562    17.885601    23.159273    21.956495    9094.7646    2474.2407    2535.6294    1750.1986    125.80695   -374.68082    -113.5975   -4333.3996 
44140000    32.614835   -4683.7231   -4627.8224   -4683.7231            0    1972.1671     17.89348    23.307573    21.862674    9117.9065    2127.0703    1639.2066    2150.2245    91.976779   -17.864346   -223.31981   -4365.5729 
44141000    31.873165   -4685.9632   -4631.3337   -4685.9632            0    1958.4413    17.862321    23.333375    21.866346    9113.6359    2172.9655     1972.815    1729.5436   -202.49501    1.0419656     39.06235   -4371.0314 
44142000    32.102087   -4685.3023   -4630.2804   -4685.3023            0    2448.6916    17.808436    23.369127    21.850558    9093.4943    2651.2966    2348.4887    2346.2896    164.76233    191.94136     -8.59948   -4305.5367 
44143000    32.073203   -4684.0456   -4629.0732   -4684.0456            0    2434.6008    17.910699    23.244909    21.858401    9100.3642    1966.4644    2274.7905    3062.5475   -340.65675    -31.48885    142.98522   -4305.9543 
44144000    31.936328   -4682.6275   -4627.8897   -4682.6275            0    2159.6419     17.92517    23.311876    21.798184    9108.7928     1770.406    2170.1978    2538.3217    158.52553    122.30654    94.650664   -4340.9977 
44145000    32.670966   -4680.8638   -4624.8668   -4680.8638            0    1498.4201    17.890332    23.245046    21.992946    9146.0214    1752.6148    1646.0174    1096.6282   -175.15552    131.74351   -167.95165   -4424.9996 
44146000    32.802115   -4685.1578   -4628.9361   -4685.1578            0    2531.6032    17.882975    23.302546    21.795023    9082.3969    2463.9959    2401.0595    2729.7542    127.51929   -111.24868    103.50051   -4293.6064 
44147000    31.264587   -4684.9559   -4631.3694   -4684.9559            0    1982.5505    17.822511    23.347855    21.904428    9114.8137    2468.2255    2059.1315    1420.2945    270.92816    305.75075    67.695008   -4367.8286 
44148000    30.809135   -4684.4202   -4631.6144   -4684.4202            0    2074.7132    17.888503    23.257744    21.873314    9100.3098    2323.5617    1859.7909     2040.787   -71.823724    83.386406    79.756516   -4356.2612 
44149000    33.248101   -4680.2227   -4623.2366   -4680.2227            0    1923.3457    17.825912    23.353537    21.902314    9117.8918    2077.8111    1837.1264    1855.0998    219.43117   -219.22315   -48.803999   -4367.4795 
44150000    33.707685   -4685.1862   -4627.4123   -4685.1862            0    2751.6642     17.83931    23.352919     21.79309    9079.0008    3013.5216    2210.2314    3031.2397   -185.46415   -88.707606    372.88877   -4263.0702 
44151000    32.508264   -4678.9598   -4623.2417   -4678.9598            0     2160.887    17.844796     23.45782    21.750468    9104.7465    2288.5408    1817.5327    2376.5875   -279.83853    99.346131   -150.88368   -4336.3118 
44152000    30.417042   -4684.7284   -4632.5946   -4684.7284            0    1841.5732    17.876234    23.254979    21.919103    9112.0219    1740.4629     1788.549    1995.7079   -143.35175    66.443105   -50.463044   -4387.8689 
44153000    33.553044   -4684.0606   -4626.5518   -4684.0606            0    2600.9837    17.781491    23.330219    21.912215    9090.1965    2388.0761    2370.0981    3044.7769    122.23917   -140.11788    218.96419   -4281.7363 
44154000    30.096071   -4680.6714   -4629.0877   -4680.6714            0    2323.5491    17.832518    23.292928    21.907523    9099.7625    2613.3044    2087.4944    2269.8485     103.8345   -19.838563    -27.79692   -4320.7279 
44155000    32.679367   -4684.0766   -4628.0653   -4684.0766            0    2075.2035    17.969237    23.160169    21.893178    9111.2965    1846.0598     2369.898    2009.6527   -405.99353    210.02145    168.69572   -4352.3145 
44156000    30.913856   -4687.0717   -4634.0865   -4687.0717            0    2326.3712    17.907269    23.251324    21.854194    9099.3809    1862.4077    2277.0413    2839.6647    439.70093    167.84472   -63.960701    -4325.365 
44157000    31.818975   -4683.1325   -4628.5959   -4683.1325            0    2159.0586    17.858783    23.356374     21.81777    9100.5498     2018.862    1787.1482    2671.1655   -146.69944   -92.572856    20.727925   -4342.0409 
44158000    31.933646   -4685.0392    -4630.306   -4685.0392            0     1738.794    17.820294    23.346909    21.928008    9123.1213    1890.1996    1270.2872    2055.8953    220.15936   -147.19219   -52.628224   -4398.9571 
44159000    32.810906   -4682.6038    -4626.367   -4682.6038            0     2518.263    17.926503    23.198449    21.837595    9081.5366    1686.4499    3147.9208    2720.4181   -334.26236    231.42882    430.15023   -4292.8359 
44160000    34.344743   -4682.2161   -4623.3504   -4682.2161            0     1774.472    17.858301    23.293711    21.911143    9114.7311     2211.226     1557.763    1554.4271   -46.854828   -177.63882   -11.177044   -4387.4716 
44161000    32.377431   -4688.5225   -4633.0287   -4688.5225            0    1811.9837     17.94655    23.244934    21.857639    9118.2719    1089.9132    1924.7915    2421.2463     196.7423     27.08481    317.43634     -4392.07 
44162000    32.645459   -4684.3859   -4628.4327   -4684.3859            0     2581.629    17.871348     23.19004    21.913349     9081.709    2688.9675    2549.5674    2506.3522   -230.84131   -215.42864    2.0147262   -4286.5026 
44163000    32.478473    -4682.199    -4626.532    -4682.199            0    2152.5764    17.915666    23.264503    21.848169    9106.2967    1893.3079     2185.526    2378.8953    73.670114   -220.01972    138.67357   -4340.6569 
44164000    32.750909   -4684.3385   -4628.2045   -4684.3385            0    2217.6751    17.867516     23.28409    21.881282    9103.2447    2498.4384    1956.6749    2197.9119   -174.33423   -106.46856    10.081662   -4333.7827 
44165000    32.510816   -4683.8831   -4628.1607   -4683.8831            0    1876.5664    17.870212    23.326016    21.875032    9118.4068    2005.1538    1796.5756    1827.9698   -112.64885   -109.20603    245.49774     -4378.61 
44166000    32.783731   -4681.2301     -4625.04   -4681.2301            0    2662.5648    17.830159    23.286932    21.892193    9089.8505     2768.744    2320.6534    2898.2971    177.14257   -322.40141    266.55191    -4272.074 
44167000    31.977892   -4685.9351   -4631.1261   -4685.9351            0    1802.2568    17.882232    23.323487    21.866833    9120.1313    1646.9616    1662.7221    2097.0866   -167.46149   -30.377297    44.463614    -4391.412 
44168000     34.94836   -4682.2171   -4622.3168   -4682.2171            0    2649.5519    17.821595    23.310897    21.869371    9085.3541    2486.8686    2496.6372    2965.1498    -89.52423    84.749475    227.59587   -4271.2497 
44169000    33.546867    -4680.666   -4623.1678    -4680.666            0    2073.3471    17.908307    23.295353    21.835372    9109.2879    2501.6138    1453.3488    2265.0788   -301.27959   -115.18453    394.93494   -4347.7244 
44170000    32.974522   -4684.4996   -4627.9824   -4684.4996            0     1656.022    17.892619    23.257522    21.925248    9123.9288    1018.0312    1795.6919    2154.3428    150.05178    227.88672    138.79738   -4407.6269 
44171000    31.507177   -4682.4642    -4628.462   -4682.4642            0     2019.756    17.897878    23.230463    21.916177    9112.2204    1988.7532    1608.0249      2462.49    191.67223   -97.870834    288.97894   -4360.0518 
44172000    31.777417   -4682.5367   -4628.0713   -4682.5367            0    2108.1878    17.823793    23.344012    21.887664    9106.9938    2183.0657    2056.9142    2084.5836    419.84273    49.044235    85.903615   -4348.0699 
44173000    31.665198   -4682.8982   -4628.6252   -4682.8982            0    2681.9126    17.864799    23.344332    21.784891    9085.2101    2714.9306    2467.8739    2862.9334    -484.3825    35.926129    275.11841   -4273.2758 
44174000    30.512191   -4680.7237   -4628.4269   -4680.7237            0    1885.7293    17.824035    23.323714    21.927001    9115.5517    2228.2539    2017.3985    1411.5355    307.79735    -290.5608    93.290894   -4377.7362 
44175000     32.82025   -4682.2621   -4626.0093   -4682.2621            0    1978.0409    17.927357    23.309908    21.793001    9106.9693    1869.0081    1897.3735     2167.741   -355.19747    267.36313    225.54563   -4363.2942 
44176000    30.966705   -4681.6701   -4628.5942   -4681.6701            0    2561.0981    17.809285    23.399116    21.790301    9080.4871    2963.0549    2007.5966    2712.6429   -18.252952    177.24356    207.42454    -4289.429 
44177000    33.743602    -4681.363   -4623.5276    -4681.363            0    2316.2998    17.841205    23.341954     21.86917    9107.3849    2572.8501    2376.0172    2000.0322   -247.74237   -145.90586    125.47161   -4315.8724 
44178000    33.872586   -4682.5604   -4624.5039   -4682.5604            0    2107.5513    17.872169    23.189603    21.970822    9105.7743    2360.8428    2555.7317    1406.0795    121.49861   -59.483874   -24.839773   -4344.6245 
44179000    32.228866   -4681.9004   -4626.6612   -4681.9004            0    2227.6838    17.810611    23.399649    21.816376    9092.2372     2412.995    2015.8552    2254.2011   -56.744726   -99.015514     -153.315   -4331.2682 
44180000    33.027344   -4686.7468    -4630.139   -4686.7468            0    1845.1521    17.923631    23.330174    21.818439    9123.6295    1818.7675    1743.1641    1973.5246    386.97041    276.32351   -252.88168   -4384.6254 
44181000    32.854592   -4683.1113   -4626.7997   -4683.1113            0    2114.8526    17.892425    23.272302    21.887471    9113.8974    1937.1908    2437.6886    1969.6783    -263.4993   -114.71197    532.15974   -4345.7001 
44182000    33.838843   -4679.8217    -4621.823   -4679.8217            0    2418.9489    17.869047    23.233225    21.923265    9101.5661    2788.7864    2648.7259    1819.3345   -453.40954   -184.65026   -126.62133    -4300.739 
44183000    31.179749   -4683.0281   -4629.5871   -4683.0281            0    2172.7447    17.919021    23.190697    21.903561    9102.1254    2216.2283    1822.9829    2479.0229    69.186765   -205.53391     232.7825   -4341.1658 
44184000    31.602729   -4683.4493   -4629.2833   -4683.4493            0    2058.3695    17.813738    23.302373    21.936508    9105.8964    2333.9917    2132.4917    1708.6251    54.802329    64.119403    291.59232   -4355.9315 
44185000     33.50916   -4682.5975    -4625.164   -4682.5975            0    2378.7129    17.939299    23.185761    21.877796    9099.7695     2318.913      2821.55    1995.6756    131.40525   -238.45162   -145.07757   -4309.4831 
44186000    33.226797   -4678.2999   -4621.3503   -4678.2999            0    2714.2686    17.846815    23.309879    21.820874    9077.6384    2671.3768     2483.353     2988.076   -37.583061   -33.898036   -233.82447   -4262.0135 
44187000    31.389737   -4683.3283   -4629.5273   -4683.3283            0    1931.0544    17.919892     23.30759    21.837077    9120.6811    1796.5997     1875.625    2120.9385    -331.6858    188.18651    176.49298   -4372.6666 
44188000    33.224239   -4680.5889   -4623.6437   -4680.5889            0     2359.588    17.912689    23.234595    21.864461    9099.8588    2590.0222    2654.7573    1833.9844    36.810589    29.196218    187.04277   -4310.4978 
44189000     31.43132   -4682.9943   -4629.1221   -4682.9943            0    2437.0707    17.824027    23.223492    21.987036    9101.2288    2498.7012    2516.3382    2296.1728   -391.25747    47.964432   -200.42917   -4305.6446 
44190000    35.100342   -4682.2621   -4622.1013   -4682.2621            0    1831.6799    17.932764    23.274358    21.858972    9123.3573    1951.9656    1645.6912    1897.3827    94.833076    76.951091    40.470537   -4378.3875 
44191000    33.416541   -4684.2297   -4626.9549   -4684.2297            0    1805.3316    17.863578    23.300492    21.917913    9122.8964    2045.6173    1565.0407    1805.3369   -232.33918   -202.62189   -186.83916    -4386.759 
44192000    32.468618   -4681.5469   -4625.8968   -4681.5469            0    2189.9868    17.930183    23.241415    21.848856     9104.917    1911.7386    2172.6299    2485.5918   -524.03512     315.1769    1.0002791   -4335.0975 
44193000    32.555673   -4682.0869   -4626.2876   -4682.0869            0     2066.622    17.859121    23.251941    21.947712      9113.99    2085.8254      2402.45    1711.5907   -163.42728   -86.530715     142.4483   -4351.5959 
44194000     34.12193   -4682.2713   -4623.7875   -4682.2713            0    2368.3203    17.891457    23.271292     21.84521    9095.4127    2029.4527    2233.0079    2842.5002    374.94743   -177.74644     50.47544   -4309.6363 
44195000    33.280135   -4683.7601   -4626.7191   -4683.7601            0    2327.8351    17.778559     23.36807    21.886566     9092.787    2522.4865    1854.7039     2606.315     9.219569   -5.6192407   -17.845111   -4318.0273 
44196000    34.267232    -4686.158   -4627.4251    -4686.158            0    1906.8633    17.916926    23.226317    21.920573    9122.1195    1494.1928    2389.7434    1836.6536     -284.489   -474.45606    81.518015   -4373.7422 
44197000    34.853099   -4686.6846   -4626.9476   -4686.6846            0    1968.6477    17.912684    23.293676    21.844339    9114.5997    2258.3369    1675.7048    1971.9014    27.074862    103.36847    98.486245    -4365.261 
44198000    32.898894   -4682.1722   -4625.7846   -4682.1722            0     2313.497    17.817214    23.314039    21.892332    9093.8822    2369.8822    3002.1443    1568.4645   -161.03784   -211.67097    146.93298   -4318.9572 
44199000    33.435732   -4679.7344   -4622.4267   -4679.7344            0    2471.3118    18.010043    23.197744    21.755872    9089.4372    2723.3624    2446.8607    2243.7122   -3.6138715   -253.22291   -131.04153   -4294.8294 
44200000    32.340059   -4684.0369   -4628.6071   -4684.0369            0    2114.1856    17.852165    23.386751    21.827176    9112.9365    2152.9711    1874.2284    2315.3572   -414.76427    177.34225   -27.829234   -4347.6259 
44201000    32.208807   -4681.1807   -4625.9759   -4681.1807            0    2567.1961    17.971072    23.221111    21.782749    9090.1211    1913.7606    3032.0469    2755.7807   -237.33304    175.15458    169.32139   -4285.6425 
44202000    32.176682    -4681.214   -4626.0642    -4681.214            0    2097.0619    17.856093    23.264144    21.944808    9116.0206    2303.8695    1768.1076    2219.2086   -333.84072    139.39735   -166.64961   -4347.2644 
44203000    32.402906   -4685.1713   -4629.6339   -4685.1713            0    2281.6598    17.901071    23.223726    21.904118    9106.1894    1794.5452    2061.0916    2989.3427    190.09449    25.560707   -56.415281   -4326.6193 
44204000     33.15273   -4686.6167   -4629.7941   -4686.6167            0     2170.504     17.91646    23.282747    21.838971    9110.0047    1857.9402    1892.1409    2761.4308    47.455529    276.62366    186.25475   -4341.4208 
44205000    30.940856   -4685.1504   -4632.1189   -4685.1504            0    1731.9875    17.918926    23.227563    21.923871    9124.9997    1633.0017    2025.8119    1537.1489   -118.01007   -62.042632   -198.95166   -4401.6281 
44206000    32.662329   -4684.4926   -4628.5105   -4684.4926            0    2580.8177    17.952567     23.13819    21.880344    9088.8739    2302.6909     2998.664    2441.0982   -131.31294   -214.68682    29.618092   -4286.4182 
44207000    32.701872    -4683.823   -4627.7731    -4683.823            0    1956.9622    17.874363    23.283369    21.887893    9109.2022    1792.2037    1889.7746    2188.9082   -74.408517   -114.06235   -99.690537   -4367.7939 
44208000    33.379962   -4682.2294   -4625.0173   -4682.2294            0    2166.8872    17.834706    23.349177     21.86045     9103.253    2453.8117     2127.697    1919.1531   -35.206397    9.8352638    159.77077   -4337.3379 
44209000    32.031016   -4681.5969   -4626.6968   -4681.5969            0    2105.8669    17.869774    23.238514    21.926546    9105.3712    2759.2714    1968.2224    1590.1067    383.44179    394.33837    93.020883   -4347.0535 
44210000    32.576363   -4678.6757    -4622.841   -4678.6757            0    2567.0527    17.905478     23.20217    21.870686    9086.0878    2208.1805    3384.1655    2108.8123   -50.823804   -354.10056    69.233033   -4282.6775 
44211000     31.60129   -4682.0235   -4627.8599   -4682.0235            0     2035.513     17.95923    23.200408    21.857558    9107.2024    2257.2746    1799.8013    2049.4632   -150.86939   -132.00635    45.935665   -4357.5047 
44212000    33.393693   -4683.7584   -4626.5227   -4683.7584            0    2028.1122    17.929282    23.184715    21.882935    9096.4139    2086.3633    2082.0136    1915.9598    313.52395    -228.0371   -74.686201   -4357.4696 
44213000    34.795535   -4684.7208   -4625.0825   -4684.7208            0    1861.5582    17.957489    23.239148    21.854142    9120.0995    1604.9522    1779.7501    2199.9723   -303.09988   -157.75506     268.6667   -4377.4816 
44214000    31.643867   -4683.1458   -4628.9093   -4683.1458            0    2260.8141    17.938597    23.220163    21.857757    9104.5676    1883.3353    2517.8874    2381.2195   -282.47056    349.05996   -55.539719   -4328.7167 
44215000    30.011829   -4685.5565   -4634.1172   -4685.5565            0    2232.6298    17.928925    23.192766    21.903974    9108.1405     2181.085    2307.9396    2208.8646   -62.362982   -319.95077    85.086721   -4337.5506 
44216000    32.862643   -4685.5606   -4629.2352   -4685.5606            0    2031.8012    17.941546    23.289377    21.805709    9111.4596    1721.1764    2476.8468    1897.3804    344.75122    283.07998    57.579607   -4359.2468 
44217000    32.808859   -4687.8397   -4631.6064   -4687.8397            0    2157.0501    17.937515    23.187402    21.889716    9104.4664    2280.1745    2595.3426    1595.6334   -178.58352   -109.38655    173.48702   -4345.1948 
44218000    32.369294   -4681.9945   -4626.5146   -4681.9945            0    2452.4421    17.869317    23.291701    21.852945    9095.3441    2169.6285    2418.2571    2769.4408   -343.28169   -17.559039    377.15979   -4301.2074 
44219000    31.935396   -4680.5526   -4625.8165   -4680.5526            0    1985.2664    17.890908    23.294232    21.890653    9123.0381    2046.1846    2026.5578    1883.0567   -16.257565     170.2174    32.682114   -4361.6765 
44220000    30.695163   -4684.1191   -4631.5087   -4684.1191            0    2188.5768    17.912518    23.275295    21.833343    9102.7383    2253.0755    1829.5818    2483.0732   -428.26528   -90.250881    76.665629   -4340.9661 
44221000    33.550508   -4684.4533   -4626.9489   -4684.4533            0     2594.681    17.873347    23.200978    21.904385    9083.2913    2467.8755    2677.1183    2639.0493   -482.78724   -232.17912    47.330054   -4283.2302 
44222000    32.754124   -4685.1268   -4628.9873   -4685.1268            0    2257.6812    17.885322    23.237461    21.901743    9102.5715    2134.8482    2317.8691    2320.3263   -64.372821    15.896906    337.70349   -4329.2764 
44223000    31.676995   -4682.7766   -4628.4833   -4682.7766            0    2163.5226    17.914765    23.249376    21.852746     9101.824     2129.135    2132.8751    2228.5578   -186.48976    23.734512    89.536189   -4341.2957 
44224000    32.380999   -4683.7821   -4628.2822   -4683.7821            0    1869.5838    17.934264    23.368802    21.753397     9116.898    1957.2769    1361.4274    2290.0472    41.334489   -135.55424    48.627715   -4379.7012 
44225000    31.563522   -4683.4668    -4629.368   -4683.4668            0    2204.9301    17.967251    23.252429    21.782407    9100.3027    1693.3899    2172.1709    2749.2296   -19.531322    411.22499    175.23736   -4336.7328 
44226000    30.293867   -4680.9251   -4629.0024   -4680.9251            0    1925.4431    17.937593    23.325136    21.798794    9120.5454    1330.2996         1799    2647.0296    302.74407   -298.05039    80.340529   -4372.8919 
44227000    34.635026   -4679.4948   -4620.1316   -4679.4948            0    2454.3627    17.899298    23.293448    21.823404    9098.9708    2619.9239     2196.645    2546.5191    -363.4231   -79.054687   -103.88266   -4294.4397 
44228000    34.330537   -4681.0272   -4622.1858   -4681.0272            0    2558.9565    17.840232    23.230444    21.935808    9090.9993    2369.2442    2675.5149    2632.1102    597.55863    36.931663   -125.91224    -4282.912 
44229000    33.491839   -4682.8913   -4625.4874   -4682.8913            0    1882.2932    17.863819    23.273467    21.941182    9122.1124    1663.2301    1813.0126     2170.637   -250.32189   -25.513397   -124.93924   -4375.0734 
44230000    34.512177   -4682.9694   -4623.8167   -4682.9694            0    2107.0535     17.94624    23.187955    21.890987    9109.6409    2079.7784    2032.1512    2209.2311   -299.18929   -124.27842    35.077847   -4343.8845 
44231000    32.831558   -4680.7141    -4624.442   -4680.7141            0    2133.9982    17.868127    23.222545    21.959732    9112.0455    2211.8692    2246.0129    1944.1125    74.264285    106.32055    171.57696   -4340.8553 
44232000    32.827561   -4683.1793    -4626.914   -4683.1793            0    2189.2635    17.920609    23.190568    21.909977    9105.5475    1988.9912    2424.6843    2154.1151   -84.903431    216.97041    105.71414   -4336.1906 
44233000    32.369056    -4684.819   -4629.3396    -4684.819            0    2242.8521    17.946138      23.2522    21.798815     9096.366    1628.3964    2219.3998      2880.76    170.92714     -416.749    128.91952   -4331.8002 
44234000    33.437077   -4682.6125   -4625.3025   -4682.6125            0    1763.6756    17.960648    23.249051    21.860023    9128.0465    1751.0266    1893.4893     1646.511    335.13442    251.11097   -28.788048   -4390.5163 
44235000    31.298519   -4683.9404   -4630.2959   -4683.9404            0    2424.7618    17.928558    23.199126    21.845869    9086.2839    1873.8829    2709.7086    2690.6938    -332.0355   -114.82709   -186.96112   -4308.9807 
44236000    32.596184   -4683.0572   -4627.1884   -4683.0572            0    2761.6485    17.837669     23.28419    21.857415     9078.164    3111.1124    2435.0389     2738.794    295.44446    142.12214    392.59037    -4261.558 
44237000    31.829417   -4681.3693   -4626.8148   -4681.3693            0    2158.7583     17.86919    23.304834    21.849991    9099.1772    1901.0126    2280.2562    2295.0061   -320.62188    95.020781    26.409202   -4340.3429 
44238000    32.955148    -4681.561    -4625.077    -4681.561            0    2102.6993    17.915112    23.205529    21.914466     9110.493    2284.3054     2033.489    1990.3034    26.611997   -179.28516    47.455414   -4345.6972 
44239000    31.794896   -4680.2885   -4625.7931   -4680.2885            0    2483.6376    17.952147    23.267325     21.75548    9087.2304    2344.6153    2299.4854    2806.8122    -163.6695    155.20256   -51.413243   -4296.6418 
44240000    32.949257   -4682.8477   -4626.3738   -4682.8477            0    1975.8146    17.924881    23.273899    21.836217    9109.6742    1696.4114    2367.4139    1863.6185   -231.62465    153.25605   -41.268767   -4363.8765 
44241000    32.155045   -4686.0274   -4630.9148   -4686.0274            0    1839.7051    17.847382     23.35295    21.876722    9117.9775     2476.104    1609.1563    1433.8549    34.027868   -414.68141    182.21836   -4386.2775 
44242000    31.494316   -4682.0786   -4628.0984   -4682.0786            0    2245.4771    17.893108    23.288204    21.857129    9107.8295    2266.2938    2292.0356     2178.102   -51.193579   -58.344343    160.59933   -4329.8354 
44243000    33.439181   -4680.7354   -4623.4218   -4680.7354            0    2144.9004    17.824845    23.257958    21.968583    9107.5039    2437.7942    2271.4557    1725.4513    192.55086   -226.21755   -306.93404   -4338.5284 
44244000    33.178015   -4682.0336   -4625.1676   -4682.0336            0    1966.0943     17.85728    23.275117    21.917865    9109.7281    1992.4497    2260.3697    1645.4635   -141.14133   -165.07487    117.99855   -4363.9601 
44245000    34.351012   -4681.9463   -4623.0699   -4681.9463            0     2339.412    17.912812    23.216854     21.86204    9091.9662    1897.0101    2523.2392    2597.9865     46.53164    275.28484   -68.313406   -4312.8709 
44246000    33.571839   -4684.6222   -4627.0812   -4684.6222            0    1822.7146    17.841749    23.363933    21.873662    9118.1112     2051.588    1891.1496    1525.4061    253.45792   -227.90708    443.99007   -4384.6998 
44247000    32.470428   -4684.1348   -4628.4816   -4684.1348            0    2038.5473    17.902704    23.338445    21.819051    9116.4636    2211.5749    1928.7623    1975.3048   -263.88238    157.61416   -100.15017    -4357.448 
44248000    34.010982   -4682.2582   -4623.9645   -4682.2582            0    2336.3033    17.904364    23.355272    21.745748    9093.2301    2156.8742    2131.4268    2720.6091   -130.20427   -137.61375    85.797261   -4314.1346 
44249000    31.901943   -4684.8838    -4630.205   -4684.8838            0    2236.6629    17.890833    23.279393    21.848307     9099.552    2543.7644    1994.3612    2171.8631   -708.55399   -112.05862   -52.013694   -4333.3827 
44250000    34.586516   -4682.7573   -4623.4772   -4682.7573            0    1775.4098    17.866956    23.300695    21.901706     9117.954    1532.0278    1781.2847    2012.9168     58.50027    347.89795    234.04679   -4387.3903 
Loop time of 381.33 on 64 procs for 250000 steps with 864 atoms

Performance: 113.288 ns/day, 0.212 hours/ns, 655.600 timesteps/s
193.5% CPU use with 32 MPI tasks x 2 OpenMP threads

MPI task timing breakdown:
Section |  min time  |  avg time  |  max time  |%varavg| %total
---------------------------------------------------------------
Pair    | 17.251     | 24.989     | 35.639     | 115.6 |  6.55
Bond    | 1.0235     | 1.2311     | 1.7118     |  13.3 |  0.32
Kspace  | 189.64     | 201.73     | 211.26     |  45.3 | 52.90
Neigh   | 0.080307   | 0.087094   | 0.092167   |   1.0 |  0.02
Comm    | 55.091     | 59.74      | 64.225     |  25.7 | 15.67
Output  | 0.51111    | 0.51149    | 0.51334    |   0.0 |  0.13
Modify  | 70.025     | 72.131     | 74.849     |  14.9 | 18.92
Other   |            | 20.91      |            |       |  5.48

Nlocal:        27.0000 ave          38 max          19 min
Histogram: 8 3 5 1 1 4 2 0 5 3
Nghost:        2163.91 ave        2277 max        2053 min
Histogram: 8 5 3 0 0 0 0 1 9 6
Neighs:        6665.19 ave        9166 max        4552 min
Histogram: 6 5 5 0 1 1 5 1 3 5

Total # of neighbors = 213286
Ave neighs/atom = 246.85880
Ave special neighs/atom = 2.0000000
Neighbor list builds = 250
Dangerous builds = 0

unfix		3
unfix		2
unfix		1

write_data	data.final.${pid} nocoeff
write_data	data.final.0 nocoeff
System init for write_data ...
PPPM initialization ...
  extracting TIP4P info from pair style
  using 12-bit tables for long-range coulomb (../kspace.cpp:340)
  G vector (1/distance) = 0.37214108
  grid = 24 27 25
  stencil order = 5
  estimated absolute RMS force accuracy = 0.0031112306
  estimated relative force accuracy = 9.3693785e-06
  using double precision FFTW3
  3d grid and FFT values/proc = 4410 672
Last active /omp style is kspace_style pppm/tip4p/omp

write_restart   restart.lmp.${pid}
write_restart   restart.lmp.0
System init for write_restart ...
PPPM initialization ...
  extracting TIP4P info from pair style
  using 12-bit tables for long-range coulomb (../kspace.cpp:340)
  G vector (1/distance) = 0.37214108
  grid = 24 27 25
  stencil order = 5
  estimated absolute RMS force accuracy = 0.0031112306
  estimated relative force accuracy = 9.3693785e-06
  using double precision FFTW3
  3d grid and FFT values/proc = 4410 672
Last active /omp style is kspace_style pppm/tip4p/omp
Total wall time: 0:06:21
