#include		in.partitions
include		in.temp
variable        temperature equal 276.95
variable	tempDamp equal 100.0
include		in.pressure
variable        pressure equal -2875.0
variable        pressureDamp equal 1000.0 # This is 1 ps
include		in.seed
variable        seed equal 745823

units		real
atom_style	full
#include		in.box
read_restart	restart.lmp.${pid}
read_restart	restart.lmp.0
Reading restart file ...
  restart file = 30 Jul 2021, LAMMPS = 30 Jul 2021
  restoring atom style full from restart
  orthogonal box = (-0.10427471 -0.068539616 -0.091495773) to (18.311847 23.697717 22.304692)
  2 by 4 by 2 MPI processor grid
  restoring pair style lj/cut/tip4p/long/omp from restart
  restoring bond style harmonic/omp from restart
  restoring angle style harmonic/omp from restart
  864 atoms
  576 bonds
  288 angles
Finding 1-2 1-3 1-4 neighbors ...
  special bond factors lj:    0        0        0       
  special bond factors coul:  0        0        0       
     2 = max # of 1-2 neighbors
     1 = max # of 1-3 neighbors
     1 = max # of 1-4 neighbors
     2 = max # of special neighbors
  special bonds CPU = 0.002 seconds
  read_restart CPU = 0.011 seconds
include 	in.setup
variable	out_freq equal 1000
variable	out_freq2 equal 10000
variable	out_freq3 equal 1000

timestep	2.0

neigh_modify    delay 7 every 1

include		in.tip4p
# This is TIP4P/Ice

# create groups ###
group ox type 2
288 atoms in group ox
group hy type 1
576 atoms in group hy

# set charges - beside manually ###
set group ox charge -1.1794
Setting atom values ...
  288 settings made for charge
set group hy charge 0.5897
Setting atom values ...
  576 settings made for charge

# ### TIP3P Potential Parameters ###
pair_style lj/cut/tip4p/long/omp 2 1 1 1 0.1577 8.5
pair_coeff 1 1*2 0.000 0.000
pair_coeff 2 2 0.21084 3.1668
bond_style  harmonic
bond_coeff  1 450 0.9572
angle_style harmonic
angle_coeff 1 55 104.52
kspace_style pppm/tip4p/omp 1.0e-5
pair_modify tail yes

thermo          ${out_freq}
thermo          1000
thermo_style    custom step temp pe etotal epair emol press lx ly lz vol pxx pyy pzz pxy pxz pyz enthalpy

restart 	${out_freq3} restart.lmp.${pid} restart2.lmp.${pid}
restart 	1000 restart.lmp.${pid} restart2.lmp.${pid}
restart 	1000 restart.lmp.0 restart2.lmp.${pid}
restart 	1000 restart.lmp.0 restart2.lmp.0


include         in.dump
dump            myDump all atom ${out_freq2} dump.water.${pid}
dump            myDump all atom 10000 dump.water.${pid}
dump            myDump all atom 10000 dump.water.0
dump            myDump2 all dcd ${out_freq2} dump.dcd
dump            myDump2 all dcd 10000 dump.dcd
dump_modify     myDump append yes
dump_modify     myDump2 append yes


variable natoms 	equal  "count(all)"                        # NUMBER ATOMS
variable H      	equal  "enthalpy/v_natoms"                 # ENTHALPY-per-atom
variable Vol      	equal  "vol/v_natoms"                 # volume-per-atom
fix AVG all 		ave/time ${out_freq} 1 ${out_freq} v_Vol v_H file vol_enthalpy.dat
fix AVG all 		ave/time 1000 1 ${out_freq} v_Vol v_H file vol_enthalpy.dat
fix AVG all 		ave/time 1000 1 1000 v_Vol v_H file vol_enthalpy.dat


timer           timeout 23:50:00 every 1000
New timer settings: style=normal  mode=nosync  timeout=23:50:00

fix 		1 all shake 1e-6 200 0 b 1 a 1
       0 = # of size 2 clusters
       0 = # of size 3 clusters
       0 = # of size 4 clusters
     288 = # of frozen angles
  find clusters CPU = 0.000 seconds
fix             2 all nph aniso ${pressure} ${pressure} ${pressureDamp}
fix             2 all nph aniso -2875 ${pressure} ${pressureDamp}
fix             2 all nph aniso -2875 -2875 ${pressureDamp}
fix             2 all nph aniso -2875 -2875 1000
fix             3 all temp/csvr ${temperature} ${temperature} ${tempDamp} ${seed}
fix             3 all temp/csvr 276.95 ${temperature} ${tempDamp} ${seed}
fix             3 all temp/csvr 276.95 276.95 ${tempDamp} ${seed}
fix             3 all temp/csvr 276.95 276.95 100 ${seed}
fix             3 all temp/csvr 276.95 276.95 100 745823


run             250000
PPPM initialization ...
  extracting TIP4P info from pair style
  using 12-bit tables for long-range coulomb (../kspace.cpp:340)
  G vector (1/distance) = 0.37023181
  grid = 24 27 25
  stencil order = 5
  estimated absolute RMS force accuracy = 0.003325292
  estimated relative force accuracy = 1.0014018e-05
  using double precision FFTW3
  3d grid and FFT values/proc = 6300 1296
Last active /omp style is kspace_style pppm/tip4p/omp
Neighbor list info ...
  update every 1 steps, delay 7 steps, check yes
  max neighbors/atom: 2000, page size: 100000
  master list distance cutoff = 10.8154
  ghost atom cutoff = 10.8154
  binsize = 5.4077, bins = 4 5 5
  1 neighbor lists, perpetual/occasional/extra = 1 0 0
  (1) pair lj/cut/tip4p/long/omp, perpetual
      attributes: half, newton on, omp
      pair build: half/bin/newton/omp
      stencil: half/bin/3d
      bin: standard
Per MPI rank memory allocation (min/avg/max) = 12.24 | 12.27 | 12.29 Mbytes
Step Temp PotEng TotEng E_pair E_mol Press Lx Ly Lz Volume Pxx Pyy Pzz Pxy Pxz Pyz Enthalpy 
11750000    272.39843   -4111.8813   -3644.9997   -4111.8813            0   -1775.0315    18.416122    23.766257    22.396187    9802.4145   -2759.7115   -539.25024   -2026.1329   -736.12528   -310.50947     362.5733    -3898.755 
11751000    266.37795   -4132.5654   -3676.0027   -4132.5654            0   -3952.4191    18.358692    23.981073    22.436097    9877.7416   -4569.9493   -3029.3431    -4257.965    12.351092   -539.03245    530.15935   -4245.3752 
11752000    268.12778   -4139.5308    -3679.969   -4139.5308            0   -3148.1397    18.265293    24.073161     22.37574    9838.6876   -1633.8211   -4243.2356   -3567.3625    202.51843    336.99838    317.77116   -4131.6866 
11753000    273.82706   -4141.5435   -3672.2133   -4141.5435            0   -3798.6016    18.612238    23.450834    22.724121    9918.4537   -5041.8952   -3719.3362   -2634.5733    -627.6366    192.10399   -575.19258   -4221.6828 
11754000    259.71701   -4176.6385   -3731.4925   -4176.6385            0   -2494.7368    18.352772    23.937052      22.2124    9758.1572   -1533.1405   -1976.8207   -3974.2492    164.77146   -359.89046   -1177.9595   -4086.5252 
11755000    267.43757   -4116.9894   -3658.6106   -4116.9894            0    -3695.388    18.155408    23.835591    22.726481    9834.7676    -3060.897   -2757.0871   -5268.1798   -1323.7393    239.96653    318.65653   -4188.6401 
11756000    266.67331   -4123.4544   -3666.3854   -4123.4544            0   -2563.6335    18.406451    23.697055    22.471243    9801.4773   -2213.5689   -2993.3738   -2483.9578     82.44114    134.23092   -601.37695   -4032.8427 
11757000    275.60842   -4157.3169   -3684.9335   -4157.3169            0   -2472.2003    18.626711    23.747455    22.039919    9749.0714   -3070.7576   -2495.5993   -1850.2441   -1366.3865    798.39347   -436.82244   -4036.4315 
11758000    276.42995   -4147.4826   -3673.6911   -4147.4826            0   -3181.2332    18.188002    23.930938    22.524588    9803.9608   -2359.4067    -3973.394   -3210.8991   -226.03754   -3.8834688    243.53493   -4128.5461 
11759000    279.15638    -4121.568   -3643.1035    -4121.568            0   -2873.7744    18.285907     24.11315    22.247481    9809.6003   -3519.6682   -2588.0286   -2513.6263   -661.20346   -1225.9103    -283.1811   -4054.2342 
11760000    278.30935    -4141.972   -3664.9593    -4141.972            0    -3493.257    18.406933     23.72267    22.589771    9864.0859   -2912.5621   -3436.1558   -4131.0532   -212.40289     426.4389    101.99592   -4167.4908 
11761000    286.48207   -4173.9184   -3682.8979   -4173.9184            0   -2759.5934    18.562642    23.740265    22.260049    9809.6039   -2826.0549   -3383.8389   -2068.8865   -676.80991    96.084901   -335.86658   -4077.6937 
11762000    290.09694   -4128.3829   -3631.1667   -4128.3829            0    -3505.406    18.241801    23.990224    22.488282    9841.4318   -3658.8363   -3656.8878   -3200.4938   -858.09546   -993.75862   -370.22268   -4134.2878 
11763000    286.19439   -4135.0649   -3644.5375   -4135.0649            0   -3992.5355    18.263848    24.071014    22.431721    9861.6423   -3059.0166   -5345.8305   -3572.7593    131.71807   -705.15642    540.18274   -4218.7517 
11764000    264.53671    -4165.475   -3712.0682    -4165.475            0   -2969.7827    18.498121     23.72168    22.329115    9798.1608   -4381.1283   -1835.0884   -2693.1314   -125.76782   -215.26555    601.78479   -4136.4386 
11765000    263.83758   -4126.7041   -3674.4955   -4126.7041            0   -3183.2882    18.415051    23.794646    22.555818       9883.5    -2912.015   -3022.0863   -3615.7633   -360.72103   -286.63147   -437.53023   -4133.3369 
11766000    274.45446   -4147.4227   -3677.0171   -4147.4227            0   -2688.3124    18.049469    24.148301    22.409271    9767.3947   -2251.1527   -4244.5958   -1569.1887    32.824294    230.86275   -786.54779   -4059.9603 
11767000    268.50815    -4142.727   -3682.5132    -4142.727            0   -2269.5269    18.396812    23.882837    22.287017    9792.2039   -4548.2841   -2538.0824    277.78577   -848.18975    100.48469    106.80177   -4006.6227 
11768000    267.43986   -4167.5256   -3709.1428   -4167.5256            0   -2588.6403    18.327771    23.505683    22.725659    9790.3677   -2247.7846   -2420.1275   -3098.0088   -185.73084    83.800488   -77.803748   -4078.7553 
11769000    276.76503   -4153.7582   -3679.3924   -4153.7582            0   -3566.8343    18.427105    24.031738    22.288771    9870.2555   -3662.1585   -4445.2762   -2593.0683    459.63954    100.28473   -225.33389   -4192.8295 
11770000    267.42774   -4165.4137   -3707.0517   -4165.4137            0   -3573.0234    18.291946    23.927572    22.559982    9874.0949   -3066.8889   -5456.9096   -2195.2718     18.36814    69.805529    363.96767   -4221.5797 
11771000     278.6874   -4180.7107     -3703.05   -4180.7107            0   -3423.3606    18.485453    23.890865    22.202897    9805.5427   -3702.9753   -3464.9883   -3102.1183    768.27327   -165.56031    3.3251342   -4192.6035 
11772000    289.63373    -4161.412   -3664.9897    -4161.412            0   -3252.9394    18.415909    23.594618    22.606903    9823.0686   -4899.6143   -1732.9899   -3126.2138    136.29127    1040.9689   -683.34788   -4131.0037 
11773000    265.78599   -4169.8268   -3714.2787   -4169.8268            0   -2250.7351    18.246867    24.072928    22.143781    9726.7778   -1571.5134   -2787.0689   -2393.6229   -1431.4536   -57.578011   -36.128326   -4033.5569 
11774000    282.05954   -4103.0398   -3619.5994   -4103.0398            0   -2618.6984    18.222226    23.842339    22.660279     9844.996   -1803.4517   -2471.3525   -3581.2909    335.21484   -586.71573    132.70627   -3995.5899 
11775000    272.13756   -4134.2239   -3667.7894   -4134.2239            0   -4115.3749    18.632696    23.862494    22.367837    9945.2458   -4126.7945   -3795.6722    -4423.658   -857.24993   -261.38567    776.73973   -4264.6884 
11776000     297.6783   -4146.3228   -3636.1123   -4146.3228            0   -4073.8376    18.413768    23.788806    22.620652    9908.7851   -3522.4034   -3887.0199   -4812.0895   -1279.4979    107.22965   -102.69467   -4224.8204 
11777000    285.84452   -4146.3574   -3656.4297   -4146.3574            0   -2648.8744    18.275481    23.921713    22.377896    9783.1862   -1422.0762   -4205.8282   -2318.7187   -740.91493   -510.55107    238.24301    -4034.365 
11778000    281.07954   -4184.3798   -3702.6191   -4184.3798            0   -1521.2234    18.400505    23.498243    22.434102    9700.0464   -2508.8481    241.64343   -2296.4655    414.97629   -37.084453    262.06376   -3917.8193 
11779000    260.59866   -4166.4537   -3719.7965   -4166.4537            0   -2181.7376    18.365873    23.722672    22.338077     9732.423   -502.76402   -3355.2431   -2687.2056    189.01122   -240.62412   -416.28883   -4029.4667 
11780000    294.88173   -4161.7106   -3656.2934   -4161.7106            0   -3275.9639    18.148858    23.967801     22.57022    9817.7796   -3164.9524   -3618.7683   -3044.1709   -79.912684   -462.72219    -487.1498   -4125.3533 
11781000    282.01119   -4128.1042   -3644.7467   -4128.1042            0   -3824.2354    18.375279    23.940032    22.435885    9869.6529   -3025.4548   -3259.8106   -5187.4409    26.369533   -358.50786   -16.991704   -4195.2024 
11782000    269.31842   -4112.7572   -3651.1547   -4112.7572            0   -3106.3788    18.446897    23.776243    22.519978     9877.215   -3177.4799   -3408.6799   -2732.9765    527.50328    376.54327   -159.51265   -4098.6256 
11783000    282.60041   -4157.7342   -3673.3668   -4157.7342            0   -3050.0184    18.314543      23.9095     22.49047    9848.3877   -2562.2191   -4263.0551   -2324.7812   -235.53498    1056.6404    557.15244   -4111.4368 
11784000    265.06264   -4167.7871   -3713.4788   -4167.7871            0   -2346.1139    18.281274    23.872482    22.278953     9722.967   -2392.8884   -2918.3295   -1727.1239    1347.5583    507.65406    644.56043   -4046.1566 
11785000    263.76858   -4187.9328   -3735.8425   -4187.9328            0   -2085.0602    18.250946    23.703744    22.431816    9704.3565   -2992.5339   -2551.2387    -711.4079   -60.042557    433.26242   -484.55083    -4030.937 
11786000    280.06294    -4200.301   -3720.2827    -4200.301            0   -1520.1873    18.473729    23.708197     22.03529    9650.9905   -1768.8006   -2405.4714   -386.28986    469.33051   -8.2638326   -235.45803   -3934.2488 
11787000    291.90802    -4181.545   -3681.2247    -4181.545            0   -2811.6869    18.295966     23.66202    22.457341    9722.2213   -2135.9248   -2106.9361   -4192.1996   -595.58927   -256.16672   -289.25944   -4079.8899 
11788000    271.89895     -4149.75   -3683.7245     -4149.75            0   -2602.1754    18.482743     23.78222    22.225563    9769.4833   -2926.7025   -2852.5573   -2027.2664   -454.77687   -59.591959    138.29361    -4054.477 
11789000    273.46563   -4142.8625   -3674.1518   -4142.8625            0   -3797.7399    18.237069    23.908646    22.584822    9847.5162   -3056.9985   -3643.9817   -4692.2395    602.75355   -421.68564    472.42562   -4219.5677 
11790000    280.25658   -4167.9102     -3687.56   -4167.9102            0   -4193.0346    18.508416    24.171493    22.175909    9920.9701   -3984.9094   -5123.4068   -3470.7877    813.86972   -490.20877   -144.35969   -4294.2383 
11791000    268.33983   -4138.1693    -3678.244   -4138.1693            0   -2872.5556    18.507901    23.618841    22.527059    9847.3701   -2111.6384   -2271.6822   -4234.3463   -979.69122    558.31772   -531.36014   -4090.7826 
11792000    276.87867   -4163.1442   -3688.5836   -4163.1442            0   -3246.7461    18.422804    23.880011    22.379335    9845.4922   -3597.8006   -3031.6439   -3110.7936   -993.73145   -458.05758    2.6011814   -4154.7722 
11793000    277.02881   -4138.7902   -3663.9723   -4138.7902            0   -3434.6608    18.339182    23.874898    22.580663    9886.8556   -3997.5642   -3287.0799   -3019.3382    731.01965   -805.09237    428.70116   -4159.2149 
11794000    282.48999   -4156.2746   -3672.0964   -4156.2746            0   -3352.7399     18.55384     23.83582    22.351768    9884.9796   -4063.5321   -3496.5914   -2498.0963    203.74002    169.58184    726.33734   -4155.4351 
11795000    268.25646   -4196.0045   -3736.2221   -4196.0045            0    -3041.512     18.24248    23.815357    22.527227    9786.9801   -3513.4557   -2340.1237   -3270.9568    240.40735    587.53876   -8.9484353   -4170.3464 
11796000    278.72801   -4138.6298   -3660.8995   -4138.6298            0    -3254.346    18.366936    23.896585    22.447407    9852.3252   -4203.7353   -3034.0779   -2525.2249   -508.52247    777.51568   -444.89187   -4128.5037 
11797000    272.79495   -4173.4687   -3705.9074   -4173.4687            0   -1802.4017    18.442313     23.61796    22.348277    9734.2346   -1611.9365   -680.09667   -3115.1719   -246.21197    73.928102    164.88234   -3961.7833 
11798000    270.89634   -4136.9476   -3672.6405   -4136.9476            0   -1813.4141    18.321488    23.744934    22.548555    9809.5802   -910.77527   -1029.9593   -3499.5078       934.32    279.23439   -142.85205   -3932.0724 
11799000     273.7236   -4127.1816   -3658.0287   -4127.1816            0   -2503.7473    18.415564    23.945949    22.271267    9821.1422   -2794.5606   -2798.8448   -1917.8367    475.52939     704.6091   -140.74545   -4016.6437 
11800000    271.59231   -4163.4831   -3697.9831   -4163.4831            0   -2807.7708    18.401392    23.642184    22.477864    9778.9743   -2532.5738   -2471.3745   -3419.3641    -884.6259   -274.98044   -184.54768    -4098.417 
11801000    281.57235   -4128.7441   -3646.1387   -4128.7441            0    -3933.834     18.62696    23.692127    22.438245    9902.2735   -4952.5934   -3337.8384     -3511.07   -813.73284   -404.11739    605.19866   -4214.2414 
11802000    267.19026   -4146.7434   -3688.7884   -4146.7434            0   -2599.0246    18.208766    23.989477    22.502231    9829.3969   -1544.6333    -3412.558   -2839.8827   -352.50543   -5.7485714   -278.86748    -4061.363 
11803000    268.42749   -4160.9986   -3700.9231   -4160.9986            0   -3333.5612    18.439484    23.891522    22.424877    9879.2202   -3591.2519   -3304.8473   -3104.5845    668.97627    47.765829    56.940624   -4181.2169 
11804000     279.6362    -4132.941   -3653.6541    -4132.941            0   -2632.7718    18.549111    23.620274    22.514736    9864.4953   -2540.2385   -3317.1371   -2040.9397   -70.853063   -392.61125    46.790264    -4032.414 
11805000    281.69342   -4159.0025   -3676.1896   -4159.0025            0   -3133.9301    18.205785    24.031054    22.503283    9845.2807   -3034.9562   -4000.3051   -2366.5288     1118.758   -38.423881    200.61788   -4126.1697 
11806000    293.48488   -4146.3849   -3643.3618   -4146.3849            0   -1844.9037    18.295144    23.844906    22.366584    9757.3327   -1025.9194   -2797.3402   -1711.4515    625.56929    156.63059    299.77591   -3905.8929 
11807000    269.60624   -4156.0304   -3693.9345   -4156.0304            0   -1692.5977    18.523957    23.633204    22.303033    9763.8318   -2516.5031   -1313.3766   -1247.9135   -213.95903    424.47038   -608.23895   -3934.9528 
11808000     278.7256   -4148.7123   -3670.9862   -4148.7123            0   -4067.4378    18.417905    23.863935    22.679335    9968.1046   -2633.5578   -5595.6636    -3973.092   -410.55264   -261.86187   -553.46093   -4262.2883 
11809000    277.65237   -4149.5849   -3673.6982   -4149.5849            0   -3871.0103    18.330277    24.386669     22.15228    9902.3879   -5232.1359   -4148.2953   -2232.5997   -100.22959    691.63537   -46.351373   -4232.7347 
11810000    274.00942   -4192.2506   -3722.6078   -4192.2506            0   -3444.9897    18.352172    23.726482    22.543364    9816.1131    -2530.552   -3959.4756   -3844.9413   -629.11966    86.508336  -0.67993827   -4215.7854 
11811000    276.62016   -4154.4225    -3680.305   -4154.4225            0   -3540.5417    18.456529    23.754305    22.529168    9877.2832    -4649.884   -4578.6488   -1393.0923    265.11107   -16.310295    807.17703   -4190.3202 
11812000    278.26355   -4128.4867   -3651.5525   -4128.4867            0   -2948.5829    18.362737    24.031986    22.465126    9913.7035   -2987.9994   -2466.2133   -3391.5358    1011.1985    219.18655   -104.94025   -4077.8621 
11813000    298.18884   -4150.8502   -3639.7647   -4150.8502            0   -2152.8289    18.241435    23.969974     22.46689    9823.5739   -1352.7289   -2887.7718   -2217.9859    402.96066     399.5888    467.19072   -3948.1935 
11814000    279.35028   -4167.0253   -3688.2285   -4167.0253            0   -2710.2455    18.430574     23.78692    22.396949      9818.97   -2975.2462   -1915.7383   -3239.7521   -187.68821   -89.323487    14.361355   -4076.3346 
11815000    270.88753   -4191.4173   -3727.1254   -4191.4173            0   -1638.3999    18.501373    23.472734    22.400052    9727.8454   -2024.3468   -1616.9576   -1273.8955    28.605466   -32.598443    819.58429   -3959.5662 
11816000    287.51842   -4149.9402   -3657.1434   -4149.9402            0   -3388.7262    18.288298     23.96497    22.426181    9828.9131   -1684.8862   -3767.7246   -4713.5676   -926.55997    204.37601    205.38305   -4142.8991 
11817000    273.85218   -4198.0558   -3728.6826   -4198.0558            0   -3996.3644    18.155469     24.06525    22.543805    9849.7464   -3882.5319   -3720.7174   -4385.8439   -100.87391   -180.27344    172.75558   -4302.7541 
11818000    273.78912   -4151.5176   -3682.2525   -4151.5176            0   -3630.9153    18.610409    23.664454    22.410555    9869.7247   -4262.7179    -3666.098     -2963.93    513.04784    397.47464   -126.23473   -4204.8857 
11819000     253.2802    -4159.028   -3724.9144    -4159.028            0   -4029.3654    18.373576    23.847644    22.481506    9850.6425   -3656.6641   -3579.0968   -4852.3354    542.29075     157.7001    279.43644   -4303.7791 
11820000    287.17531   -4173.1504   -3680.9418   -4173.1504            0   -3497.4226    18.179001    24.103296      22.4548    9839.1063   -2128.0902   -4312.5877   -4051.5899    171.05042   -885.18429    -303.4442   -4182.7984 
11821000     272.8754   -4157.9052   -3690.2061   -4157.9052            0   -3421.7986    18.420259    23.683745    22.530937    9829.3628   -3330.6002   -2708.7998   -4225.9958   -5.9277532    -486.4717    9.9028312   -4180.7249 
11822000    279.83308   -4080.0485   -3600.4242   -4080.0485            0   -3203.0446    18.633134    23.932597    22.315476    9951.3475   -4855.5866   -2779.3769   -1974.1702    25.101385   -146.85735     508.2311   -4065.2827 
11823000    255.49534   -4160.4132   -3722.5029   -4160.4132            0   -1815.4783    18.170776    23.788498    22.584465    9762.2584   -981.90904   -1242.9608    -3221.565     555.8585    638.82417    175.51593   -3980.9771 
11824000    269.72776    -4160.321   -3698.0169    -4160.321            0   -2361.3419    18.338564    24.090924     22.06593    9748.5721   -826.35668   -3368.3551   -2889.3141    539.13173    354.73261    315.00179   -4033.7358 
11825000     280.2736   -4172.2716   -3691.8923   -4172.2716            0   -2513.5568     18.39533    23.597077    22.526292    9778.1229    -3878.627   -965.89216   -2696.1513   -247.83583    68.976214   -248.95686   -4050.3353 
11826000    275.67945   -4156.1226   -3683.6175   -4156.1226            0   -5171.3217    18.558688    23.962619    22.413061    9967.4194   -5219.6457    -5375.668   -4918.6514    1536.7422    387.33364    423.08389   -4435.3445 
11827000    265.11189   -4163.8943   -3709.5016   -4163.8943            0   -2980.7341    18.278807    23.910228    22.451881    9812.6046   -1975.0523   -3410.5779   -3556.5722   -104.67737   -10.220339     -401.677   -4136.0649 
11828000    294.91746   -4133.9219   -3628.4434   -4133.9219            0   -2842.4561    18.329371    23.878237    22.406099    9806.5462   -2346.0559   -2985.0918   -3196.2205   -562.19197   -594.77347    409.30483    -4034.967 
11829000    272.81549   -4162.4884    -3694.892   -4162.4884            0    -2549.438    18.683472    23.582483    22.160215    9763.8498   -3900.8699   -2001.7552   -1745.6888    669.41026   -105.22312    579.94887   -4057.9211 
11830000    290.86725   -4136.9339   -3638.3974   -4136.9339            0   -2592.9111    18.318298    23.820996    22.628632    9874.2326   -2484.1003    -2745.635   -2548.9981    347.62446    244.21199   -100.44438    -4011.791 
11831000    280.21012    -4161.402   -3681.1315    -4161.402            0    -3100.826    18.350863    24.007698    22.295938    9822.7427   -2028.2727   -3789.0524   -3485.1529   -1316.3687   -512.22471   -869.72496   -4125.3391 
11832000    276.61163   -4182.4892   -3708.3863   -4182.4892            0   -3087.9243     18.34712    23.669118    22.660591    9840.5914   -2056.2589    -3131.662   -4075.8521   -90.781432   -705.82026    248.95531   -4151.5496 
11833000    262.00089   -4153.8193   -3704.7588   -4153.8193            0   -3314.5426     18.45649    23.944515    22.205915    9813.4983   -3996.8989   -3711.9725   -2234.7564   -443.22886   -421.13953    414.17871   -4179.1355 
11834000    285.73831   -4126.6927    -3636.947   -4126.6927            0   -2450.2421    18.277929    23.844492    22.549021    9827.4935   -2576.6492   -1584.3656   -3189.7116    219.05271    -647.9249    443.83824   -3988.1253 
11835000    284.07264   -4190.4192   -3703.5284   -4190.4192            0   -1324.2716    18.337714    23.801468    22.105333    9648.1933    -1873.025   -2180.2695    80.479805   -956.15067    250.06261   -49.886437   -3889.8653 
11836000    280.93904   -4167.9042   -3686.3843   -4167.9042            0   -2558.4643    18.310856    23.718606     22.46112    9755.0439   -2929.7637   -1263.6794   -3481.9498   -265.83784   -647.44192   -112.48264   -4050.3701 
11837000    285.81548   -4198.9574   -3709.0794   -4198.9574            0   -1506.9296    18.316294    23.697657    22.376218    9712.4702    -2194.364   -1231.7927   -1094.6322    537.39674    315.50325   -42.793679   -3922.5306 
11838000    278.65356   -4132.3995   -3654.7969   -4132.3995            0   -4091.5633    18.278957    24.015149    22.462097    9860.2289   -4202.5443   -5114.3616    -2957.784    803.77423    266.36919   -794.85167   -4243.1691 
11839000    257.00821   -4159.3082   -3718.8049   -4159.3082            0   -4370.5583    18.402163     23.86377    22.528437      9893.25   -3870.4839   -4060.1407   -5181.0504    189.58336   -646.50666    60.650348   -4349.4018 
11840000    284.72249   -4172.7031   -3684.6985   -4172.7031            0   -2645.7451    18.429726    23.717836    22.379469    9782.3618   -2964.5421    -3152.372   -1820.3213    281.28369     237.6247   -595.85949   -4062.1557 
11841000    261.21359   -4165.4985   -3717.7874   -4165.4985            0   -1819.2684    18.235168    23.852695    22.403663      9744.65   -1930.0977    -1367.868   -2159.8395   -159.14051   -360.86342    233.32705    -3976.334 
11842000    286.59844   -4164.0497   -3672.8297   -4164.0497            0   -2798.4588    18.376254    23.891771    22.216172    9753.8161   -3240.0271   -1977.6119   -3177.7374    63.852388    591.09994   -76.855987   -4070.9088 
11843000    269.97831   -4172.1965    -3709.463   -4172.1965            0   -4094.9695    18.460601    23.526864    22.711474    9864.0489   -3220.3116   -4401.5837   -4663.0134    783.12436    325.09649    562.40441   -4298.5531 
11844000    268.38853   -4150.8813   -3690.8726   -4150.8813            0   -2995.3676    18.461495    23.942607    22.284999    9850.3335   -2469.8589   -3849.3396   -2666.9043    216.22732    170.65265    761.09139   -4121.1781 
11845000    270.36624   -4178.0466   -3714.6481   -4178.0466            0   -2202.0558    18.019149    23.986386    22.648454    9788.9849   -1991.2877   -1693.8284   -2921.0514   -327.01249   0.92820061    728.19728   -4029.0187 
11846000    284.71855   -4148.1669    -3660.169   -4148.1669            0   -2900.4835    18.364997     23.92781    22.281824    9791.3944    -4428.514   -2497.6706    -1775.266   -1224.5958    54.089253    258.60623   -4074.3507 
11847000    286.24822   -4177.0935   -3686.4738   -4177.0935            0   -1762.9072    18.361113    23.302736    22.644554    9688.7935   -2633.0574    96.717811   -2752.3821    475.61652   -294.93046    387.45864   -3935.5746 
11848000    275.83417   -4196.5644   -3723.7941   -4196.5644            0   -3813.4953    18.363495    23.965382    22.233911     9784.881   -4169.4423   -4804.6098   -2466.4338   -433.03764    7.0565529   -364.70811   -4267.9892 
11849000    269.07499    -4140.016   -3678.8307    -4140.016            0    -4411.757    18.215969    23.957144    22.624073    9873.2043   -4014.3876   -3888.3122   -5332.5713   -356.93619    286.23075   -240.38804    -4314.082 
11850000    279.47516   -4182.3684   -3703.3575   -4182.3684            0   -3465.3918    18.535804    23.768503    22.381932    9860.7699   -3740.3257   -2764.8954   -3890.9543    962.66435    365.33411     490.2315   -4201.7128 
11851000    270.23996   -4182.5367   -3719.3547   -4182.5367            0   -1626.9006    18.220483    23.821762    22.435038    9737.7941   -1279.3883   -907.18238   -2694.1313    392.04737    348.63167    192.22155   -3950.4002 
11852000    285.15923    -4161.798   -3673.0449    -4161.798            0   -2193.3142    18.273857    23.874407    22.346093    9749.0974   -1604.5056   -2931.1109   -2044.3261   -2.0828397   -106.27569    976.33198   -3984.8916 
11853000     286.8632   -4165.3227    -3673.649   -4165.3227            0   -2250.6507    18.331657    23.768079    22.459085     9785.609    -1577.653   -2682.3858   -2491.9132    657.00974    -347.3505   -74.196448   -3994.8462 
11854000    263.22864   -4139.6295   -3688.4646   -4139.6295            0   -3063.4874    18.661516     23.53409    22.452033    9860.5241   -4492.8352   -1698.1843   -2999.4427   -61.781517   -127.51181    597.46108   -4129.0114 
11855000    290.71058   -4162.6167   -3664.3487   -4162.6167            0   -3092.7183    18.347471    23.831772    22.379113     9785.329   -4554.9262   -1732.9309   -2990.2978   -171.43315    853.16509   -243.80125   -4105.7074 
11856000    262.35851    -4163.201   -3713.5275    -4163.201            0    -3354.531    18.157787    24.152554    22.406287     9826.432   -2754.5501   -3173.6888   -4135.3543    949.19221   -463.95575   -336.18106   -4194.2601 
11857000    278.94552   -4190.0484   -3711.9454   -4190.0484            0    -3716.213     18.30742    23.663332    22.568469    9776.9892   -3745.3468   -3156.2221     -4247.07    411.16145   -74.086364     93.53913   -4241.8304 
11858000    266.01182   -4124.0976   -3668.1625   -4124.0976            0   -2331.5301    18.728571    23.604326    22.169022    9800.3771   -3854.5492   -1216.6886   -1923.3525     451.3991   -594.24243    623.42779   -4001.4045 
11859000    271.95233   -4160.6237   -3694.5067   -4160.6237            0   -2920.8879    18.245965    23.853333    22.489729     9788.139    -2714.574   -2446.3432   -3601.7466    323.80434    485.48327    -412.7563   -4111.4633 
11860000    266.50594   -4140.7823   -3684.0003   -4140.7823            0   -3388.3463    18.389994    23.911244    22.389432    9845.2514   -2193.4932   -3410.3866   -4561.1593   -404.13516   -542.55866   -291.21542   -4170.5089 
11861000    272.07534   -4134.9034   -3668.5756   -4134.9034            0   -3474.4312    18.571551    23.623384    22.370542    9814.4688   -4573.8827   -2850.0404   -2999.3706    338.29076    161.32988    946.29964   -4165.8847 
11862000     276.5386   -4167.5427    -3693.565   -4167.5427            0   -2637.6144    18.195854    23.660817    22.672975    9761.3682   -1471.4967   -1042.5865   -5398.7599   -462.16717   -69.988893    254.05741   -4069.0545 
11863000    262.41538   -4146.9528   -3697.1818   -4146.9528            0   -2403.4435     18.11537    24.353415    22.062408    9733.2975   -2689.0989    -2946.553   -1574.6785   -654.40266   -523.55527    52.555446    -4038.351 
11864000    285.77209   -4140.9588   -3651.1552   -4140.9588            0   -3687.3113    18.399035    23.832182     22.55547    9890.3285   -3661.2776   -3999.8775   -3400.7788    391.62199    196.98259    37.301441   -4183.0141 
11865000    294.58439   -4165.9684   -3661.0608   -4165.9684            0   -3166.2148    18.501727    23.777993    22.453889    9878.2279    -2830.822   -2970.2499   -3697.5724   -702.26536   -675.20972    252.82316   -4117.1978 
11866000      269.451   -4166.6218    -3704.792   -4166.6218            0   -2497.8036    18.228777    24.128968    22.256119    9789.1665    -2951.395   -2608.7522   -1933.2635    865.92263   -583.78708   -753.25928   -4061.3908 
11867000    271.76791   -4195.5593   -3729.7584   -4195.5593            0   -3280.0466    18.227805     23.93912    22.505187    9820.3095   -3969.1907   -3186.2098   -2684.7393    419.31374    666.88684    283.68722   -4199.5238 
11868000    263.70808   -4163.9027   -3711.9161   -4163.9027            0   -2929.9402    18.627865    23.563749    22.287893    9783.0998   -3734.8354   -2977.5358   -2077.4494    463.68201    814.07334   -447.66987   -4129.9496 
11869000    278.95836   -4151.3304   -3673.2054   -4151.3304            0   -3253.2627    18.234106     23.90112    22.565801    9834.5268   -3087.8384   -3091.0661   -3580.8836    521.17332   -480.19073    213.89575   -4139.8094 
11870000    271.59666   -4166.9353   -3701.4279   -4166.9353            0    -3371.216    18.282038    24.053949    22.356266    9831.2844   -1629.4589   -4246.7506   -4237.4384    66.154346   -297.73064    100.34734   -4184.7902 
11871000    286.79866   -4197.5744   -3706.0113   -4197.5744            0    -2058.413    18.378753    23.437432    22.469185    9678.6183   -1555.8865   -2606.4438   -2012.9086    127.15556   -589.22643   -82.615419   -3996.5619 
11872000    287.01084   -4144.8311   -3652.9043   -4144.8311            0   -3987.0383     18.51437    23.818066    22.308704    9837.6138   -6187.3109   -4401.8285   -1371.9756    271.07357   -27.440752    124.28519   -4224.9307 
11873000    268.21354   -4183.7578    -3724.049   -4183.7578            0   -2588.9406    18.014341    23.786478    22.708582    9730.5759   -2324.1304   -2680.6107   -2762.0809   -207.78955    56.818405   -198.34486   -4091.4468 
11874000    283.96451   -4145.8429   -3659.1375   -4145.8429            0   -2878.1045    18.466459    23.902743    22.224052     9809.675   -3855.4064   -1433.1636   -3345.7434     372.1404     -263.081   -443.61457   -4070.8907 
11875000    286.48867   -4134.0236   -3642.9919   -4134.0236            0   -1591.2557    18.365395    23.433777    22.692139    9766.0287   -2413.0011   -653.70037   -1707.0655    -1289.872    10.489189    465.85807   -3869.6304 
11876000    281.55444    -4165.571   -3682.9963    -4165.571            0   -2601.0935    18.427427    23.890108     22.31143    9822.2328   -2532.7291   -2385.9251   -2884.6264   -341.03601    545.76871    515.00817   -4055.5956 
11877000     277.7491   -4146.9712   -3670.9188   -4146.9712            0   -2536.3084    18.093461     23.83667    22.647381    9767.5404   -1725.1026    -3463.872   -2419.9505    388.75809   -1127.2157    -298.6115   -4032.2148 
11878000    284.07229   -4160.4785   -3673.5883   -4160.4785            0   -2716.3195    18.442871    23.875249    22.266582    9804.6027   -3622.7469   -2419.6388   -2106.5728    374.55855    5.5819133    193.85784    -4061.995 
11879000    276.76158   -4125.9816   -3651.6217   -4125.9816            0   -3392.2947    18.429311    23.740095    22.513247    9849.8518   -2340.7891   -4360.3507   -3475.7444    49.533678    537.10405   -144.83857   -4138.9248 
11880000    268.23614   -4176.3757   -3716.6281   -4176.3757            0   -3785.7318    18.442622    23.660335    22.564744    9846.3205    -3636.075   -2571.3319   -5149.7886   -114.25421    241.98994   -40.837507   -4260.2535 
11881000    276.33887   -4194.9964    -3721.361   -4194.9964            0   -3257.8082    18.247537    23.979026    22.380765    9792.8864   -2372.0441   -3428.1873   -3973.1933    628.94198   -37.298841   -73.286894   -4186.6386 
11882000     282.7833   -4132.6063   -3647.9254   -4132.6063            0    -3351.582    18.233936    23.926671    22.561996    9843.2888   -2796.1058   -4153.6334   -3105.0069   -665.70092    530.38052    513.61626   -4129.0593 
11883000    271.49627   -4165.6942   -3700.3589   -4165.6942            0   -3071.8317    18.483322    23.788431     22.41453    9855.4274   -3709.7068   -2491.0215   -3014.7667    -113.9149   -158.06372   -401.28832   -4141.8773 
11884000    273.33648   -4186.0878   -3717.5984   -4186.0878            0   -3566.6892    18.202892    23.906942    22.573329    9823.3591   -2486.2856   -3634.3029    -4579.479   -368.27281   -361.07628   -415.45083   -4228.5752 
11885000    262.24701   -4190.8746   -3741.3922   -4190.8746            0   -2402.4329    18.179491    23.913922      22.2544    9674.9434   -2250.5429   -2346.7461   -2610.0099   -458.00198    398.05457   -534.36454   -4080.3734 
11886000    275.07207   -4156.1784   -3684.7143   -4156.1784            0   -1918.7392    18.428848    23.472862    22.453748    9712.9933   -2055.7168   -1962.7885   -1737.7123    197.68478   -405.50422    570.44446   -3956.5115 
11887000    260.70813   -4160.6613   -3713.8165   -4160.6613            0   -2723.9031    18.348868    23.758079    22.485936    9802.3811   -3083.9357   -3369.9891   -1717.7845   -432.02104   -243.19942    211.10772   -4103.2193 
11888000    284.58916   -4175.5469   -3687.7708   -4175.5469            0    -2139.878    18.052443     24.10451    22.326195    9715.1388   -1601.2715   -3371.4165   -1446.9462   -427.09815    7.8233034    29.905957   -3990.9602 
11889000     274.2809   -4219.3231   -3749.2151   -4219.3231            0   -3482.7315    18.397278    23.779734    22.402648    9800.7638   -4439.7843   -3515.6111   -2492.7992   -33.077695    570.93823    117.64382   -4247.0161 
11890000    278.17476   -4157.6132   -3680.8312   -4157.6132            0   -3612.9981    18.490068    23.705264    22.539408    9879.2919   -3996.3857   -3974.0549   -2868.5538    416.53589   -1.6653655   -357.79633   -4201.3895 
11891000    273.03002   -4182.3573   -3714.3932   -4182.3573            0   -3456.1435    18.212827    24.228027    22.242232    9814.6266   -2521.6565    -4306.079   -3540.6951   -29.527863    190.19801    760.96723   -4209.0927 
11892000    262.91175   -4146.1781   -3695.5563   -4146.1781            0   -2672.9747     18.28965    23.847646    22.491837    9810.1542   -269.71207    -4434.384   -3314.8279    196.63979    419.20609   -268.52464   -4077.9816 
11893000    267.96369   -4165.2525   -3705.9719   -4165.2525            0   -2824.8512    18.453226    23.669739     22.42043    9792.8636   -3666.6314   -1153.8056   -3654.1167    198.37145   -283.35394   -170.10479   -4109.4139 
11894000    279.04721   -4175.8138   -3697.5364   -4175.8138            0   -3478.8852     18.41557     23.96948    22.348639    9864.9494   -3418.9152   -3836.2341   -3181.5062    550.46879    124.59332   -132.92112   -4198.0442 
11895000    283.59222   -4136.6752   -3650.6079   -4136.6752            0   -2757.6526    18.178467     23.96515    22.629565    9858.5629   -1881.5989    -2234.641   -4156.7177    -1546.068   -1091.4314    460.12278    -4047.095 
11896000    266.92172   -4165.5946   -3708.0999   -4165.5946            0   -3585.3765    18.553904    23.805493    22.219805    9814.1504   -3694.7411   -3037.2071   -4024.1812    677.88863   -829.48348    77.857454   -4221.2723 
11897000    278.93996   -4201.3068   -3723.2133   -4201.3068            0   -2442.7842    18.312774    23.649941     22.61261    9793.4313    -2729.554   -2648.8532   -1949.9455    434.72557   -75.428723    532.94731   -4072.1092 
11898000    261.11049   -4182.0392   -3734.5047   -4182.0392            0   -2023.0422    18.254158    23.979094    22.030478     9643.141   -2412.6647   -2507.9222   -1148.5396    1025.0927    334.37323    48.934951   -4019.0159 
11899000    303.69717   -4169.6816    -3649.155   -4169.6816            0   -2357.0463     18.23134    23.871881    22.435573    9764.3289   -1709.7306   -1626.5114    -3734.897   -872.61939    260.04954   -282.45121   -3984.8048 
11900000    273.05189   -4161.9497   -3693.9481   -4161.9497            0   -3553.1675    18.622627    23.657115    22.301163     9824.948   -3271.1338   -3602.2158   -3786.1529    360.92309    -22.41289     810.5878     -4203.07 
11901000     272.7248   -4137.6706   -3670.2296   -4137.6706            0   -3217.0048    18.403335    23.810149    22.532634    9873.4884   -2904.8485   -1964.2898    -4781.876   -304.42507   -66.477225     67.49111   -4133.4613 
11902000      268.848   -4182.1583   -3721.3621   -4182.1583            0   -3670.6725    18.363341    24.006023    22.381094    9866.2756   -3447.3763   -4140.3688   -3424.2724   -254.58263   -309.76072    18.213095   -4249.5333 
11903000    281.00576   -4156.2192   -3674.5849   -4156.2192            0   -4546.2315    18.407802      24.0302    22.488465    9947.6188   -3653.2527   -4878.0957    -5107.346    507.63813    221.86148   -125.50985   -4334.1332 
11904000    266.26479   -4163.8213   -3707.4526   -4163.8213            0    -2853.519    18.539892    23.607742    22.464306    9832.2898   -4032.0851    -1317.426   -3211.0458   -381.06498   -264.91084   -543.20679   -4116.6297 
11905000    277.31925    -4166.909   -3691.5933    -4166.909            0   -2766.9221    18.207583    23.938398    22.442773    9781.9153   -3240.0546   -3674.9682   -1385.7435   -317.45963    407.29406    380.46589   -4086.3202 
11906000    249.18502   -4167.8844   -3740.7898   -4167.8844            0   -2219.9905    18.256363    23.963258    22.351939    9778.5697   -1597.3251   -2008.5406   -3054.1058    -583.6786     -510.256    201.54903   -4057.3835 
11907000    270.97909   -4169.3491   -3704.9002   -4169.3491            0   -3689.9887    18.613595    23.541718     22.49333    9856.4874   -4035.3884   -3686.7258    -3347.852    137.67441    535.05836    196.74906   -4235.3241 
11908000    283.81933   -4186.9178   -3700.4612   -4186.9178            0   -3625.3089    18.403598    23.949956    22.403153    9874.5335   -4683.0263   -3665.9017   -2526.9987    291.70866    684.14875    419.07133   -4222.5417 
11909000    275.60411   -4167.6144   -3695.2383   -4167.6144            0   -3608.7491    18.216407    24.021677    22.582013    9881.6327   -2811.2986    -4278.175   -3736.7736   -273.80711    648.91167    131.23393   -4215.3077 
11910000     291.3483   -4155.1991   -3655.8381   -4155.1991            0   -1876.7269    18.331275     23.91188    22.349234    9796.4574   -2547.2051   -1402.7051   -1680.2705   -902.45797    513.98198   -428.85407   -3923.9684 
11911000    268.10542   -4183.0412   -3723.5177   -4183.0412            0   -2203.7888    18.543684    23.477423     22.45721    9776.9245   -1968.0911   -1317.0821   -3326.1931   -786.12303   -27.159461    536.48973   -4037.7481 
11912000    270.72727   -4169.7147   -3705.6974   -4169.7147            0   -2941.9238    18.272486    24.160367    22.256061    9825.3825   -2772.8965   -4789.7978    -1263.077   -120.35118    262.34484    882.07947   -4127.2548 
11913000    281.94753    -4165.199   -3681.9506    -4165.199            0   -3057.1401    18.246207    23.944128    22.451417    9808.7884      -3498.4   -2144.9772   -3528.0431    321.25538    382.85003   -264.55827   -4119.2779 
11914000    277.77514   -4170.2678   -3694.1707   -4170.2678            0   -3593.2208    18.637833     23.61937    22.435383    9876.3668   -4477.7346   -3853.1803   -2448.7475    887.09176   -308.66725   -314.87761   -4211.7263 
11915000    260.65842   -4139.2844   -3692.5248   -4139.2844            0   -2932.6633      18.4102    23.811572    22.402125    9820.5497   -1884.8689   -2537.7623   -4375.3587    202.04436    1111.7845   -220.39035   -4112.5486 
11916000    289.79505   -4167.1259   -3670.4271   -4167.1259            0   -2116.6823    18.178272    23.908247    22.428831    9747.8081   -2968.2867   -2118.0959   -1263.6644    360.47914     458.8716    908.81101   -3971.3384 
11917000    260.15539   -4173.6175   -3727.7201   -4173.6175            0   -2686.7748    18.271541    23.738684    22.399304    9715.5267   -3448.9115   -2831.6637   -1779.7491    337.11598    292.74482   -351.67107   -4108.4119 
11918000     301.2412   -4164.0419   -3647.7248   -4164.0419            0   -3224.7037    18.525221    23.650596    22.400755    9814.4995   -4542.8423   -2428.4667   -2702.8021   -281.70515   -1.8956825    118.56702   -4109.2908 
11919000    279.95217   -4132.1601   -3652.3316   -4132.1601            0    -3657.159    18.266229    24.027273    22.538659    9891.9397   -2950.4937   -4201.8722   -3819.1109    -16.56227    1469.9662    293.31343   -4179.9273 
11920000    277.59065   -4155.0959   -3679.3151   -4155.0959            0   -3719.9953    18.410546    23.978931    22.373163    9876.9735   -3759.6023   -3680.2074   -3720.1761   -468.66623    567.97043   -551.00999   -4215.1637 
11921000    265.81123   -4145.7959   -3690.2045   -4145.7959            0   -3485.6352      18.5408    23.568051    22.529044    9844.5276   -4531.3509    -753.6242   -5171.9305    282.03948    350.51066   -142.15804   -4190.6453 
11922000    266.38541   -4152.5623   -3695.9868   -4152.5623            0    -2463.215    18.341414    23.906511    22.326682    9789.7858   -3334.1802   -1853.3391   -2202.1257    60.889072    762.19966    549.68677   -4047.6698 
11923000    271.11338   -4170.6054   -3705.9263   -4170.6054            0   -2185.5258    18.186266     24.12281    22.393305    9824.0293   -2021.8018   -4317.6441   -217.13142   -1179.3177   -621.76905   -10.720753    -4019.054 
11924000    265.07751   -4168.3097   -3713.9759   -4168.3097            0    -3386.258    18.483123    23.641172    22.512014    9836.9103   -3920.3031   -1997.9531   -4240.5176    407.43337   -6.4430638    503.07595   -4199.7727 
11925000    285.54052   -4170.2894   -3680.8827   -4170.2894            0   -2291.1764    18.474835    23.759445    22.186694    9738.8896    -2152.463    -1986.962   -2734.1044    716.47659    316.01528    194.84075   -4006.3024 
11926000    259.41082   -4156.2895   -3711.6682   -4156.2895            0   -1805.6871    18.211696    23.849813    22.388914    9724.5251   -2450.0254    -441.6544   -2525.3815   -757.67469   -496.50075   -150.30814   -3967.7547 
11927000    288.16945   -4159.5955   -3665.6829   -4159.5955            0   -2446.6101     18.28549    23.918678    22.281848    9745.2952   -2993.4673   -2755.8904   -1590.4726   -522.69065   -619.81647    503.72942   -4013.4077 
11928000    284.61627   -4159.9709   -3672.1484   -4159.9709            0   -3498.5579    18.448279     23.60241    22.531881    9810.9185   -3033.7484   -3312.3211   -4149.6044    806.57067   -452.74934    157.76032   -4172.7297 
11929000    279.66068   -4176.5164   -3697.1875   -4176.5164            0   -4070.7319    18.442665    23.908117    22.334185    9847.7986   -4205.4291   -4594.7848   -3411.9818   -336.19956    410.04207    572.97643   -4281.8262 
11930000    280.30899   -4177.1549   -3696.7149   -4177.1549            0   -3169.2353    18.280173    23.993212    22.413174     9830.419   -2580.1298   -3847.0242   -3080.5519    543.93478   -25.904991   -210.97925   -4151.0773 
11931000    285.05434   -4167.1818   -3678.6084   -4167.1818            0   -2511.8165    18.268701    23.640725     22.70324    9805.1966   -2740.5049    -1235.482   -3559.4624    -339.2592    9.0482657     356.8671    -4037.795 
11932000    278.63239   -4124.7776   -3647.2112   -4124.7776            0   -2152.2803    18.501345     23.81807    22.276394    9816.4571   -3285.8603    -2188.167   -982.81358    79.993814   -10.114731     328.4854    -3955.338 
11933000    262.90162   -4150.7177   -3700.1133   -4150.7177            0   -2274.3159    18.130688    23.725642    22.749132    9785.8169   -1372.9333   -2741.1447   -2708.8697    89.582186   -154.72706    99.334101   -4024.6948 
11934000    269.35711    -4172.454   -3710.7851    -4172.454            0   -3321.8774    18.340082    24.067835    22.280222    9834.6255   -2386.4449   -4897.9022   -2681.2851   -803.31452   -696.36946    764.44182   -4187.2351 
11935000    296.47921   -4170.2371   -3662.0819   -4170.2371            0   -3713.0197    18.558803    23.722727    22.505135    9908.2328   -3126.9028   -3476.5966   -4535.5599    226.04975    426.89376    655.61816   -4198.6185 
11936000    276.70348   -4132.0321   -3657.7718   -4132.0321            0   -1880.3476    18.402957    23.821818    22.468937    9850.2001   -2019.1279   -1742.6604   -1879.2546   -527.60315    527.73438    463.58893   -3927.8933 
11937000    268.73393   -4162.2332   -3701.6324   -4162.2332            0   -2418.4551    18.245367    23.885833    22.341472    9736.5424    -2682.911     -2695.29   -1877.1643    515.82547      146.386    316.36909   -4045.0469 
11938000    291.18476   -4161.7821   -3662.7014   -4161.7821            0   -2174.6327    18.312131    23.752633    22.353302    9722.8217   -2277.2855   -2366.2741   -1880.3384   -613.59789     -189.712    432.23474   -3971.0586 
11939000    275.37991   -4202.5407    -3730.549   -4202.5407            0   -2901.2594    18.369137    23.641369    22.419284    9736.0568   -2648.3502   -3410.3723   -2645.0555    780.14628    15.854772    759.43758      -4142.5 
11940000    277.64144   -4116.3288   -3640.4609   -4116.3288            0   -3525.0943    18.282667     23.93011    22.575033    9876.7177   -4056.1401   -2143.3327   -4375.8099   -471.45418    140.03356     365.9479   -4148.2218 
11941000    287.02427   -4162.6938    -3670.744   -4162.6938            0   -3470.7352    18.199364    24.012233    22.503798    9834.3255   -2884.7915   -3229.3592   -4298.0548   -53.768969   -703.68678    485.17329   -4168.5292 
11942000    273.49991   -4142.2151   -3673.4457   -4142.2151            0   -3065.6756    18.604907    23.629541    22.361273    9830.5841   -2857.7619   -3308.6654   -3030.5995    -326.1528    577.80889    547.52986   -4112.9685 
11943000    274.57275   -4155.6727   -3685.0644   -4155.6727            0   -2101.2588    18.342274    23.708739    22.441787    9759.3089   -2835.5791   -1363.7754   -2104.4219    67.882114    -149.6835   -689.89285   -3984.1356 
11944000    288.06836   -4156.2008   -3662.4615   -4156.2008            0   -2110.2492    18.087463    23.906184    22.407571    9689.0835   -2204.4469   -1480.4828   -2645.8179   -63.447299   -189.18734   -22.200552   -3960.6509 
11945000    272.32191   -4164.5959   -3697.8454   -4164.5959            0   -3079.4045    18.409898    23.614602    22.349844    9716.4248   -2208.2028   -3177.3871   -3852.6235   -600.72755    276.41744    386.54069   -4134.2097 
11946000    271.80484   -4151.1673   -3685.3032   -4151.1673            0    -3213.944    18.305961    23.772406    22.426991    9759.7052   -2191.9676   -3680.9167   -3768.9476     -819.729    233.04745   -119.45101   -4142.7608 
11947000     279.3514   -4174.4991   -3695.7004   -4174.4991            0   -2374.1817    18.145474    23.964673    22.316891    9704.5077   -2681.3122   -2039.8817   -2401.3512     728.0929   -737.30499   -615.17353    -4031.719 
11948000    280.11161   -4151.0101   -3670.9084   -4151.0101            0   -3310.2754    18.596457    23.742467    22.452294    9913.2664   -4532.0769   -1574.3534   -3824.3959    1169.3539   -319.61702    642.20079   -4149.4908 
11949000    281.29409     -4146.12   -3663.9915     -4146.12            0   -3157.3966    18.419533    23.796212     22.43763    9834.7527   -2215.4719   -3879.8507   -3376.8673    47.353232    1.9296505    -431.5134   -4116.8562 
11950000    275.16064   -4161.2925   -3689.6766   -4161.2925            0   -4160.5111    18.469693    23.894935    22.450096    9907.9481   -3238.2885   -4773.1372   -4470.1076    177.24368   -615.77159   -530.44324    -4290.859 
11951000     271.8304   -4143.2728   -3677.3648   -4143.2728            0   -3028.2676    18.207044    24.134671     22.43914    9860.2301   -2025.3643   -3125.2614   -3934.1771   -352.68355     -275.791   -324.21879   -4112.8337 
11952000    270.56883   -4129.2278   -3665.4821   -4129.2278            0   -3446.1198    18.441362    23.888151    22.509349    9916.0445   -3062.3694   -2887.4154   -4388.5745   -422.47746    279.58851    186.73998   -4163.8438 
11953000    273.20092   -4173.4523   -3705.1953   -4173.4523            0   -3833.3063    18.522456    23.715584    22.447413    9860.4943   -3627.8192   -2871.5315   -5000.5682    484.86896    313.21957    549.89596   -4256.4446 
11954000    278.74953   -4187.3204   -3709.5533   -4187.3204            0   -3099.6451    18.279124    23.870253    22.430595    9787.0818   -2896.1539   -4342.0114   -2060.7701   -593.39507    2.9382348   -97.876272   -4151.9797 
11955000    272.39175   -4185.5384   -3718.6682   -4185.5384            0   -1968.3434    18.318166    23.769463    22.386319    9747.2937   -1695.2388   -2252.3026   -1957.4889    421.95253    993.99967    318.71272   -3998.4767 
11956000    271.71822   -4185.2708    -3719.555   -4185.2708            0   -2510.5776     18.46105     23.54136    22.361159    9718.1202   -2772.6413    -2127.226   -2631.8653    465.10283    49.777092    402.02897   -4075.3762 
11957000     267.9394   -4159.1348   -3699.8959   -4159.1348            0   -2057.5545    18.178161    23.949959    22.312476    9714.0976    -2288.657   -2041.9316   -1842.0749   -87.953329    327.95198    283.78383   -3991.3899 
11958000    280.34159   -4155.2297   -3674.7338   -4155.2297            0   -3497.4959    18.245129    23.951472    22.400105    9788.7944   -2766.7365   -4006.3162    -3719.435    535.93281   -52.892093    62.098666   -4174.0346 
11959000    280.78469   -4179.6457   -3698.3904   -4179.6457            0   -3107.8814    18.457606    23.616984    22.459876    9790.5514   -3576.9097     -3303.46   -2443.2747   -445.05567    321.39973   -181.82091   -4142.1497 
11960000    286.23253   -4156.7622   -3666.1695   -4156.7622            0   -2534.8508    18.374076    23.885211    22.240161    9760.5101    -4102.797   -2334.9316   -1166.8237    25.761183   -106.81212    840.77793   -4026.9979 
11961000    272.70446   -4173.9932   -3706.5871   -4173.9932            0   -3109.1414    18.156014    23.998996    22.454223     9783.891    -3233.082   -3068.2586   -3026.0837   -138.91689    471.58887   -445.17264   -4150.2243 
11962000    273.35682   -4157.3878   -3688.8636   -4157.3878            0   -3278.5625    18.494131    23.754718    22.361462    9823.9014   -4559.6694   -1734.7292    -3541.289    383.97953   -421.70896   -119.87823   -4158.5882 
11963000    285.92883   -4155.2222     -3665.15   -4155.2222            0   -2602.9746    18.546407    23.492791    22.467045    9789.0454   -3640.0251   -2399.4157    -1769.483   -114.36956   -350.38462    100.57669    -4036.759 
11964000    270.30357   -4164.4165   -3701.1254   -4164.4165            0   -2961.0571    18.331541    23.924753    22.412973    9829.8273    -3816.746   -2638.9827   -2427.4426    97.510219    651.04613    606.86415   -4125.6165 
11965000    258.04725   -4200.8946   -3758.6105   -4200.8946            0   -3056.2532     18.11934     23.95624    22.549929    9788.2759   -2435.2624   -3104.9187   -3628.5786    279.89033   -529.96931   -750.09912   -4194.8966 
11966000    268.36652    -4171.219    -3711.248    -4171.219            0   -3312.8392    18.500235    23.604007    22.393166    9778.6403   -4012.3252   -2339.2888   -3586.9035    26.285024    468.91107    16.253334   -4183.6968 
11967000    282.23533   -4215.3632   -3731.6215   -4215.3632            0   -2755.3988    18.287069    23.695341    22.483182    9742.3748   -2298.6619   -1897.7727   -4069.7619   -999.73819   -487.90898    528.05993   -4123.1155 
11968000    265.54278   -4128.2799   -3673.1486   -4128.2799            0   -3939.2566    18.362467    24.085563    22.421111    9916.1927   -4002.6612    -4227.275   -3587.8337   -280.96895    446.68383    175.72382   -4242.8341 
11969000    283.62372   -4151.9638   -3665.8424   -4151.9638            0   -3905.7438    18.415925    23.859117    22.491932    9882.6783   -3445.0529   -4088.2688   -4183.9098    67.578807   -339.46555   -234.67984   -4228.7723 
11970000     264.4002   -4181.2781   -3728.1052   -4181.2781            0   -1040.4082    18.371564    23.664635    22.451394    9760.8858   -2517.6141   -1159.0545    555.44396   -871.00962   -288.00588    228.55604     -3876.21 
11971000    283.28918   -4172.0989   -3686.5509   -4172.0989            0    -3341.434    18.383055    23.947283    22.426436    9872.6605   -4041.6042   -3522.1348   -2460.5631    584.60374   -66.154969    491.36106   -4167.6594 
11972000    274.96878   -4180.3274   -3709.0403   -4180.3274            0   -2644.1984    18.343583    23.871419    22.585512    9889.9106   -1697.4434   -4240.2526   -1994.8993    325.65853   -1627.6293    1021.9294   -4090.4242 
11973000    258.51519   -4145.5301   -3702.4439   -4145.5301            0   -3232.4075    18.448274     23.75981     22.34645    9795.0634   -3845.7705   -3444.6597   -2406.7923    44.803124   -586.99574   -680.31627   -4164.1964 
11974000    280.73186   -4169.3424   -3688.1776   -4169.3424            0   -2970.6297    18.058285    23.853358    22.665077    9762.9985   -2065.9598   -2930.7595   -3915.1698   -51.357583    252.83016    774.06051   -4111.1458 
11975000    277.76741   -4191.0428    -3714.959   -4191.0428            0    -2619.024    18.317866    23.941131    22.217478    9743.4847   -3230.2081   -2961.9562   -1664.9078     631.2883    691.74449    254.45353    -4087.119 
11976000    279.24359   -4165.3347   -3686.7208   -4165.3347            0   -2484.1749    18.344562    23.477031    22.685047    9769.9019   -1093.1512   -1605.0313   -4754.3423   -835.60514    541.94406   -93.875676    -4040.676 
11977000    281.18615   -4101.8212   -3619.8778   -4101.8212            0   -3389.8165    18.449052    23.960204    22.257774    9838.8943   -3691.7221   -4554.3159   -1923.4117   -666.82237    319.94398    701.74291   -4106.2832 
11978000    293.39072   -4167.0458   -3664.1841   -4167.0458            0    -2237.983    18.119275    23.817581    22.700479    9796.5574   -1643.5851   -773.27219   -4297.0917   -602.65537   -225.36309    285.86994   -3983.9309 
11979000    280.83181   -4151.5241    -3670.188   -4151.5241            0   -1849.5689    18.356458    23.899603    22.333528    9797.9884   -2031.5115   -2734.9607   -782.23441    971.74153    -468.7051    296.25385   -3934.4795 
11980000    262.40829   -4089.5658    -3639.807   -4089.5658            0   -2387.2769    18.424304    23.707149    22.438746     9800.969   -2673.5388   -2406.5151   -2081.7768    59.413409    312.41786    366.58779   -3981.0374 
11981000    284.77237   -4156.2708   -3668.1807   -4156.2708            0   -2872.8625    18.224883    23.838693    22.510164    9779.7068   -2800.0358   -2568.6628   -3249.8889   -463.78698     458.1215    234.64834   -4077.9284 
11982000    276.07101   -4149.4087   -3676.2324   -4149.4087            0   -2995.4335    18.354827    24.100692     22.29588    9862.8952   -2794.2036   -3846.6749   -2345.4219   -968.21867   -51.351457    266.83841   -4107.0962 
11983000    258.07762   -4140.0637   -3697.7275   -4140.0637            0    -2784.291    18.368264    23.672876    22.700659    9870.9193    -2223.996   -3011.7151   -3117.1618   -514.19368    408.89499    290.25528   -4098.5463 
11984000    284.31085   -4141.5504   -3654.2513   -4141.5504            0   -3022.5191    18.494564    23.959791    22.295919    9879.8986   -3639.7113   -2274.4899   -3153.3562    68.402577   -164.57401    85.232889   -4089.7606 
11985000    253.13392   -4143.5048   -3709.6419   -4143.5048            0   -2763.1564    18.221199    23.798477    22.560555    9783.0867    -1966.174   -2701.5874   -3621.7077    550.49833   -356.79589    519.44829   -4103.8788 
11986000    269.47433   -4152.7038    -3690.834   -4152.7038            0   -3072.0389    18.530234    24.070709    22.105948     9860.046   -3212.0035   -3122.0781   -2882.0352    596.85041   -164.36246   -331.23056   -4132.5891 
11987000    278.81863   -4170.0323   -3692.1467   -4170.0323            0   -3634.4592    18.389713    23.766824    22.607706     9881.039    -2255.705   -4798.9918   -3848.6809    -761.5784    -962.8677   -30.568702   -4215.8898 
11988000    276.80817   -4144.7819   -3670.3422   -4144.7819            0   -3690.5269    18.430514    23.890555     22.32526    9830.1514   -2794.1796   -3660.8745   -4616.5267     1217.706    57.325419    487.29821    -4199.426 
11989000    275.49712   -4155.2662   -3683.0735   -4155.2662            0   -3221.6785    18.075076    24.152884    22.505659    9825.1881    -2410.704   -3807.4996   -3446.8318    -264.8823    313.48088    852.36845   -4144.7088 
11990000     276.3552   -4148.0035   -3674.3401   -4148.0035            0   -3537.2006    18.424215    23.873856    22.544782    9916.4816   -3412.8555   -2147.7395   -5051.0066   -44.983268   -40.254667    278.43042   -4185.8961 
11991000    267.53636   -4173.3806   -3714.8324   -4173.3806            0    -4431.019    18.678889    23.704335    22.332426    9888.1426   -5817.1182   -4463.3485   -3012.5902   -270.16942    206.69345   -342.61887   -4353.8227 
11992000    281.93631   -4160.7602    -3677.531   -4160.7602            0   -3783.0346    18.303644    23.859806    22.685077    9907.0588   -3870.4505    -2460.478   -5018.1753   -183.62987     29.44177   -135.40178   -4224.1201 
11993000    273.68788   -4120.3476   -3651.2559   -4120.3476            0   -3579.9494    18.422825    24.006009    22.408601    9910.3945   -3706.3491   -4127.2861    -2906.213    163.08587    80.465183   -483.55461   -4168.6765 
11994000    275.65946   -4142.5546   -3670.0837   -4142.5546            0    -2384.485    18.378769    23.681131    22.478146    9783.1643   -2919.3091   -742.40568     -3491.74    1213.2029   -2.7757804   -486.18085   -4010.2958 
11995000     285.9633   -4136.1993    -3646.068   -4136.1993            0   -2971.9042    18.385648    23.824395    22.505569    9858.0453   -4501.4214   -3233.9074   -1180.3838    111.89529   -360.86716   -279.77778   -4073.3371 
11996000    276.20764   -4158.7945    -3685.384   -4158.7945            0   -3319.9274    18.254803    24.100858    22.332889    9825.4983   -2789.2531   -4893.8349   -2276.6943    -635.3262    61.134723    321.68362   -4161.1124 
11997000    276.08244   -4170.4276   -3697.2317   -4170.4276            0   -2349.0239    18.336615    23.647984    22.541848     9774.686   -1384.2009   -2602.1958    -3060.675    45.129033    263.72013    634.92066   -4032.0939 
11998000    274.13751   -4129.4271   -3659.5647   -4129.4271            0   -2173.9975     18.46249    23.643979    22.366479    9763.5661   -536.94195    -3424.896   -2560.1546   -1564.3829    573.05366     216.0604   -3969.1237 
11999000    266.65664   -4172.4781   -3715.4378   -4172.4781            0   -3175.1605    18.257959    23.746545    22.639968    9815.8625   -3639.7672   -1931.3318   -3954.3825   -86.332653    182.46236    311.94342   -4169.9756 
12000000    286.46226   -4139.2853   -3648.2988   -4139.2853            0   -3551.5642    18.311108    24.174506    22.238979    9844.3507   -4969.4473   -4213.7631   -1471.4823   -1052.9882    317.65347    215.40959    -4158.196 
Loop time of 490.341 on 64 procs for 250000 steps with 864 atoms

Performance: 88.102 ns/day, 0.272 hours/ns, 509.849 timesteps/s
365.3% CPU use with 16 MPI tasks x 4 OpenMP threads

MPI task timing breakdown:
Section |  min time  |  avg time  |  max time  |%varavg| %total
---------------------------------------------------------------
Pair    | 25.008     | 27.522     | 32.18      |  37.4 |  5.61
Bond    | 1.6129     | 1.9782     | 2.5058     |  18.8 |  0.40
Kspace  | 246.26     | 255.28     | 265.17     |  35.9 | 52.06
Neigh   | 2.2051     | 2.4216     | 2.5582     |   8.4 |  0.49
Comm    | 68.66      | 80.166     | 90.31      |  62.6 | 16.35
Output  | 0.48033    | 0.48066    | 0.48199    |   0.1 |  0.10
Modify  | 78.609     | 88.5       | 97.451     |  63.7 | 18.05
Other   |            | 33.99      |            |       |  6.93

Nlocal:        54.0000 ave          62 max          44 min
Histogram: 1 2 2 1 1 1 0 3 3 2
Nghost:        2428.38 ave        2482 max        2374 min
Histogram: 3 1 2 2 0 0 1 2 2 3
Neighs:        12391.6 ave       14442 max       10198 min
Histogram: 2 1 3 0 2 0 1 4 1 2

Total # of neighbors = 198265
Ave neighs/atom = 229.47338
Ave special neighs/atom = 2.0000000
Neighbor list builds = 7718
Dangerous builds = 0

unfix		3
unfix		2
unfix		1

write_data	data.final.${pid} nocoeff
write_data	data.final.0 nocoeff
System init for write_data ...
PPPM initialization ...
  extracting TIP4P info from pair style
  using 12-bit tables for long-range coulomb (../kspace.cpp:340)
  G vector (1/distance) = 0.37007253
  grid = 24 27 25
  stencil order = 5
  estimated absolute RMS force accuracy = 0.0033466689
  estimated relative force accuracy = 1.0078394e-05
  using double precision FFTW3
  3d grid and FFT values/proc = 6300 1296
Last active /omp style is kspace_style pppm/tip4p/omp

write_restart   restart.lmp.${pid}
write_restart   restart.lmp.0
System init for write_restart ...
PPPM initialization ...
  extracting TIP4P info from pair style
  using 12-bit tables for long-range coulomb (../kspace.cpp:340)
  G vector (1/distance) = 0.37007253
  grid = 24 27 25
  stencil order = 5
  estimated absolute RMS force accuracy = 0.0033466689
  estimated relative force accuracy = 1.0078394e-05
  using double precision FFTW3
  3d grid and FFT values/proc = 6300 1296
Last active /omp style is kspace_style pppm/tip4p/omp
Total wall time: 0:08:10
