#include		in.partitions
include		in.temp
variable        temperature equal 167.72
variable	tempDamp equal 100.0
include		in.pressure
variable        pressure equal 1808.1
variable        pressureDamp equal 1000.0 # This is 1 ps
include		in.seed
variable        seed equal 745823

units		real
atom_style	full
#include		in.box
read_restart	restart.lmp.${pid}
read_restart	restart.lmp.0
Reading restart file ...
  restart file = 30 Jul 2021, LAMMPS = 30 Jul 2021
  restoring atom style full from restart
  orthogonal box = (0.060049938 0.15861667 0.11023018) to (18.147522 23.470561 22.102966)
  2 by 4 by 4 MPI processor grid
  restoring pair style lj/cut/tip4p/long/omp from restart
  restoring bond style harmonic/omp from restart
  restoring angle style harmonic/omp from restart
  864 atoms
  576 bonds
  288 angles
Finding 1-2 1-3 1-4 neighbors ...
  special bond factors lj:    0        0        0       
  special bond factors coul:  0        0        0       
     2 = max # of 1-2 neighbors
     1 = max # of 1-3 neighbors
     1 = max # of 1-4 neighbors
     2 = max # of special neighbors
  special bonds CPU = 0.002 seconds
  read_restart CPU = 0.007 seconds
include 	in.setup
variable	out_freq equal 1000
variable	out_freq2 equal 10000
variable	out_freq3 equal 1000

timestep	2.0

neigh_modify    delay 7 every 1

include		in.tip4p
# This is TIP4P/Ice

# create groups ###
group ox type 2
288 atoms in group ox
group hy type 1
576 atoms in group hy

# set charges - beside manually ###
set group ox charge -1.1794
Setting atom values ...
  288 settings made for charge
set group hy charge 0.5897
Setting atom values ...
  576 settings made for charge

# ### TIP3P Potential Parameters ###
pair_style lj/cut/tip4p/long/omp 2 1 1 1 0.1577 8.5
pair_coeff 1 1*2 0.000 0.000
pair_coeff 2 2 0.21084 3.1668
bond_style  harmonic
bond_coeff  1 450 0.9572
angle_style harmonic
angle_coeff 1 55 104.52
kspace_style pppm/tip4p/omp 1.0e-5
pair_modify tail yes

thermo          ${out_freq}
thermo          1000
thermo_style    custom step temp pe etotal epair emol press lx ly lz vol pxx pyy pzz pxy pxz pyz enthalpy

restart 	${out_freq3} restart.lmp.${pid} restart2.lmp.${pid}
restart 	1000 restart.lmp.${pid} restart2.lmp.${pid}
restart 	1000 restart.lmp.0 restart2.lmp.${pid}
restart 	1000 restart.lmp.0 restart2.lmp.0


include         in.dump
dump            myDump all atom ${out_freq2} dump.water.${pid}
dump            myDump all atom 10000 dump.water.${pid}
dump            myDump all atom 10000 dump.water.0
dump            myDump2 all dcd ${out_freq2} dump.dcd
dump            myDump2 all dcd 10000 dump.dcd
dump_modify     myDump append yes
dump_modify     myDump2 append yes


variable natoms 	equal  "count(all)"                        # NUMBER ATOMS
variable H      	equal  "enthalpy/v_natoms"                 # ENTHALPY-per-atom
variable Vol      	equal  "vol/v_natoms"                 # volume-per-atom
fix AVG all 		ave/time ${out_freq} 1 ${out_freq} v_Vol v_H file vol_enthalpy.dat
fix AVG all 		ave/time 1000 1 ${out_freq} v_Vol v_H file vol_enthalpy.dat
fix AVG all 		ave/time 1000 1 1000 v_Vol v_H file vol_enthalpy.dat


timer           timeout 23:50:00 every 1000
New timer settings: style=normal  mode=nosync  timeout=23:50:00

fix 		1 all shake 1e-6 200 0 b 1 a 1
       0 = # of size 2 clusters
       0 = # of size 3 clusters
       0 = # of size 4 clusters
     288 = # of frozen angles
  find clusters CPU = 0.000 seconds
fix             2 all nph aniso ${pressure} ${pressure} ${pressureDamp}
fix             2 all nph aniso 1808.1 ${pressure} ${pressureDamp}
fix             2 all nph aniso 1808.1 1808.1 ${pressureDamp}
fix             2 all nph aniso 1808.1 1808.1 1000
fix             3 all temp/csvr ${temperature} ${temperature} ${tempDamp} ${seed}
fix             3 all temp/csvr 167.72 ${temperature} ${tempDamp} ${seed}
fix             3 all temp/csvr 167.72 167.72 ${tempDamp} ${seed}
fix             3 all temp/csvr 167.72 167.72 100 ${seed}
fix             3 all temp/csvr 167.72 167.72 100 745823


run             250000
PPPM initialization ...
  extracting TIP4P info from pair style
  using 12-bit tables for long-range coulomb (../kspace.cpp:340)
  G vector (1/distance) = 0.37177509
  grid = 24 27 25
  stencil order = 5
  estimated absolute RMS force accuracy = 0.0031465561
  estimated relative force accuracy = 9.4757602e-06
  using double precision FFTW3
  3d grid and FFT values/proc = 4410 672
Last active /omp style is kspace_style pppm/tip4p/omp
Neighbor list info ...
  update every 1 steps, delay 7 steps, check yes
  max neighbors/atom: 2000, page size: 100000
  master list distance cutoff = 10.8154
  ghost atom cutoff = 10.8154
  binsize = 5.4077, bins = 4 5 5
  1 neighbor lists, perpetual/occasional/extra = 1 0 0
  (1) pair lj/cut/tip4p/long/omp, perpetual
      attributes: half, newton on, omp
      pair build: half/bin/newton/omp
      stencil: half/bin/3d
      bin: standard
Per MPI rank memory allocation (min/avg/max) = 10.19 | 10.21 | 10.23 Mbytes
Step Temp PotEng TotEng E_pair E_mol Press Lx Ly Lz Volume Pxx Pyy Pzz Pxy Pxz Pyz Enthalpy 
17250000    172.41989   -4413.7938    -4118.272   -4413.7938            0    1185.0765    18.087473    23.311944    21.992735    9273.3283     1591.448     855.2547    1108.5269   -1145.4097   -127.10619    57.794235   -3957.9999 
17251000    173.30361   -4435.9954   -4138.9589   -4435.9954            0    2174.0933    17.832513    23.692362    21.817443    9217.7465    3008.2089    425.69175    3088.3793   -235.35315   -14.195076    531.90174   -3846.6926 
17252000    163.54926   -4424.2424   -4143.9246   -4424.2424            0    1945.1035    18.087053     23.27943    21.910263    9225.4537    1670.7508     2230.345    1934.2146   -278.22959    275.87244    593.16793    -3882.223 
17253000     167.6999    -4432.831   -4145.3991    -4432.831            0    1036.4078     17.92398    23.492245    22.102227     9306.685    1271.8637    939.77193    897.58777    40.810246    162.09037   -151.62711   -4004.7291 
17254000    160.02428   -4440.3892   -4166.1131   -4440.3892            0    1240.6648    18.101635    23.200849    22.042599    9257.3031    1179.5572    1871.5697    670.86746    75.321642   -876.44336    274.17515   -3998.6131 
17255000    168.15794    -4424.393    -4136.176    -4424.393            0    1547.8191    17.867271     23.64795     21.94829    9273.6866    1500.2019     1777.695    1365.5603     -546.941   -676.12123    187.11931   -3926.8378 
17256000    171.12044   -4424.4144   -4131.1198   -4424.4144            0    1937.0385    18.088709     23.22789    22.071854    9273.7667      1274.95    2354.7767    2181.3886   -705.70046   -148.18867   -148.60481   -3869.1385 
17257000    175.66572   -4439.6069   -4138.5219   -4439.6069            0    2495.4546    17.836395    23.531767    22.005643    9236.2503    2643.3205    1816.8025    3026.2406   -341.66364    282.04533    133.31168   -3802.3811 
17258000    173.47146   -4425.6969   -4128.3728   -4425.6969            0    2613.3751    18.063765    23.218052    21.890886    9181.1565     2469.359    3969.3533    1401.4132    349.74411    527.43317   -52.899509   -3778.4477 
17259000    177.55196   -4422.7511   -4118.4331   -4422.7511            0    2697.4324     17.86409     23.46814    22.017271    9230.4539    3432.0263    2551.2153    2109.0556    627.70325   -380.79787   -57.911807   -3755.3137 
17260000    171.14187   -4426.5754   -4133.2441   -4426.5754            0     2005.165     18.09028    23.296559    22.003106    9273.0173    2107.8324    2449.0597     1458.603    1116.3979   -19.943227    -167.3741   -3862.0707 
17261000    171.43011   -4439.0681   -4145.2427   -4439.0681            0    2355.6512    17.852942    23.647219    21.856649    9227.2746    2812.2003    1380.0838    2874.6695   -551.22931   -571.28592   -90.075566    -3828.242 
17262000    177.17794   -4418.7403   -4115.0634   -4418.7403            0    1224.3852    18.124985    23.205472    22.114093    9301.1619    1668.5115   -254.29544    2258.9394    422.09434   -554.71716   -516.22902   -3948.9781 
17263000     171.5439   -4414.7812   -4120.7608   -4414.7812            0    2709.8724    17.876057    23.438121    21.928938    9187.8126    3400.9654    2204.9887     2523.663    276.29041   -253.82213   -90.917252   -3757.6519 
17264000    165.47232     -4440.55   -4156.9361     -4440.55            0    622.45029    18.209381    23.076391    22.098937    9286.1234     82.49544    1680.1262    104.72928   -274.22756    83.599011    215.94808   -4072.6385 
17265000    171.52239   -4436.3224   -4142.3389   -4436.3224            0    939.55249     17.88735    23.600667    21.947535    9265.2261    871.76485    824.79039    1122.1022    -1177.524   -239.53822    403.63564   -4015.3829 
17266000    168.24517   -4428.1918   -4139.8254   -4428.1918            0    2070.7896    18.080784    23.290139    21.911689    9227.0994   -808.40276    3782.7831    3237.9883   -98.280263   -948.89603    73.458904   -3861.1638 
17267000    173.18641   -4431.8466    -4135.011   -4431.8466            0    2252.4612    17.827941    23.591637     22.01804    9260.5746    2640.0594    664.07418    3453.2499    1106.0679    769.83208   -144.96875   -3830.8027 
17268000    160.53689   -4434.1692   -4159.0145   -4434.1692            0    2236.4835    18.043695     23.17009    22.098785     9238.928    2158.5208    3063.3122    1487.6177   -1044.6609    38.783446    96.367839   -3857.6701 
17269000    164.09391   -4421.9781   -4140.7267   -4421.9781            0    1689.4159    17.999359    23.475713     21.89775    9252.8459     1586.897    2172.4661    1308.8847    483.77355   -333.08311   -134.15568   -3912.7514 
17270000    166.82726    -4440.104   -4154.1678    -4440.104            0    1887.6554    18.037084    23.276226    22.032119    9249.8597    2330.6834    2251.4937    1080.7892    -1054.619    55.232311   -198.26426   -3899.5236 
17271000    167.52051   -4442.8895   -4155.7651   -4442.8895            0    2939.0907      17.8309    23.481846    21.970963     9199.296    2197.0585    2941.7738    3678.4399   -463.00185    346.78379   -387.67602   -3761.4499 
17272000    168.32138   -4414.7046   -4126.2076   -4414.7046            0    2615.1045     18.10262    23.167699    22.045265    9245.6974    4086.8872    1904.2482    1854.1782   -1133.8571   -352.54405    259.37065   -3773.5894 
17273000    157.47503   -4424.2197   -4154.3129   -4424.2197            0    2011.3307     17.91216    23.624613    21.842726    9243.1392    1452.2445    1841.2329    2740.5148   -294.74431    287.94225    11.915308   -3883.1821 
17274000      173.396   -4405.1325   -4107.9377   -4405.1325            0    1414.4043    18.124545    23.239484    22.014887    9272.7818     121.2281    3155.0627    966.92196    629.96271   -126.68505   -349.13357   -3916.6621 
17275000    168.79705    -4429.421   -4140.1087    -4429.421            0    1713.8514    17.932175    23.580068     21.93584    9275.3925    1420.1395     1633.825    2087.5898   -6.2843313    167.92162    79.424968   -3908.2724 
17276000    175.96453   -4421.7089   -4120.1117   -4421.7089            0    2737.1233    18.078197    23.219266    21.913282     9198.373    1998.0191    3041.9696    3171.3813   -402.75229   -9.0019944     593.1523   -3752.9298 
17277000    174.98464   -4426.3127   -4126.3951   -4426.3127            0    3149.4777     17.83627    23.384713    21.992851    9173.1313    3080.8852    3318.4237    3049.1242    249.42848    450.87541    -656.0011   -3705.0557 
17278000    159.00281   -4424.0729   -4151.5475   -4424.0729            0    1487.6371    18.127924    23.213739      22.0443    9276.6139    585.72182     1838.583    2038.6065    -9.867017    -26.83457    339.46935   -3950.2853 
17279000    163.16907   -4445.8341   -4166.1679   -4445.8341            0    2695.6562    18.019932    23.396146    21.863124    9217.4268    2394.6538    2267.4071    3424.9076   -971.59412    384.55645     23.66386   -3803.7997 
17280000    171.71558   -4421.4939   -4127.1793   -4421.4939            0    1037.1631     17.91108    23.394555    22.173895    9291.3442    1792.0647    548.39528    771.02929    521.22571   -209.45647     407.1239   -3986.6388 
17281000    163.92408   -4400.1141   -4119.1538   -4400.1141            0    1227.7547    18.051443    23.320812    22.074304    9292.7148    563.28116    2249.4542    870.52857   -367.62939    195.06232   -56.162503   -3952.7627 
17282000    167.87916   -4423.0644   -4135.3253   -4423.0644            0    700.93126    18.073276    23.573149    21.868519    9316.9518   -298.13048   -401.44556    2802.3698     589.7542    388.23256    223.74566    -4040.084 
17283000    172.61292   -4431.5815   -4135.7288   -4431.5815            0    2842.1005    17.991293    23.358219    21.944724    9222.1506    2922.2801    2304.2083     3299.813    504.67807   -18.349154    156.40116   -3753.4788 
17284000    161.73927   -4435.8665   -4158.6509   -4435.8665            0    1638.2196    17.802704    23.477622    22.140573    9253.9877    2956.0247    740.92511    1217.7089    -603.5564    68.407419    397.52273    -3937.557 
17285000    164.43124   -4448.0147   -4166.1852   -4448.0147            0     2481.502    18.112931    23.315914    21.833858    9220.8652    2179.3518    3770.1432     1495.011    1014.5832    50.973573   -220.03216   -3832.4806 
17286000    161.56518   -4432.3466   -4155.4294   -4432.3466            0    2896.2288    17.927668    23.393597    21.965669    9212.2399    3351.5443    2738.2785    2598.8638   -1250.7117    440.36937   -201.57233    -3766.318 
17287000    169.94341     -4426.19   -4134.9128     -4426.19            0    2453.5695    17.987801    23.344301    21.949279    9216.7799    242.25551    3031.6451    4086.8079    34.950897    136.57157    357.56024   -3805.1107 
17288000    166.42395   -4425.2832   -4140.0382   -4425.2832            0    2596.4921    18.035828    23.307775    21.894081    9203.7248    2773.3022    1793.6964    3222.4776     5.809195   -165.02883   -153.98844   -3791.5192 
17289000    176.62075   -4441.5713   -4138.8494   -4441.5713            0     1519.954    17.988551    23.494213    21.917587    9262.9604    2206.9245    89.145588    2263.7918   -314.90413   -558.73093   -126.85756   -3933.5177 
17290000    163.49579   -4428.8331   -4148.6069   -4428.8331            0    1569.5981    17.861295    23.392507    22.156302    9257.3565     1617.282    3307.5302   -216.01793   -632.55961   -329.81885   -179.04296    -3936.697 
17291000    166.85334   -4431.9824   -4146.0015   -4431.9824            0    2304.7977    18.022158     23.43852    21.838031    9224.6618    2339.4805     3023.332    1551.5807    754.12394    285.35644    390.62599   -3835.9319 
17292000     171.5535   -4443.4596   -4149.4228   -4443.4596            0    2273.7948    17.966964    23.452185    21.893131    9224.9893    3865.8629     737.9449    2217.5766    324.69177    139.75999    380.04659   -3843.5133 
17293000     163.3345   -4412.4165   -4132.4668   -4412.4165            0    2352.7249    17.854984    23.284004    22.205798    9231.7395    3482.1369    2450.5752    1125.4626     8.264829    243.32479   -46.953017   -3815.7066 
17294000    170.78579   -4432.0562   -4139.3352   -4432.0562            0    2481.7667    17.962282    23.399304    21.947304    9224.5598    2840.3331    1727.5183    2877.4487    390.80563   -1123.0143    680.68058   -3805.4613 
17295000    167.50874      -4463.3   -4176.1957      -4463.3            0    1689.1715    18.079617    23.436765    21.821944     9246.563    790.89746     1411.499    2865.1179   -357.66333   -219.73448   -185.44817   -3948.4082 
17296000    180.95297   -4439.8446   -4129.6974   -4439.8446            0    1671.8629    17.906126    23.285917     22.21828    9264.1467    1548.2754     2190.322    1276.9913    346.89991    68.441836    183.92916   -3903.8153 
17297000    164.98053   -4436.9178   -4154.1468   -4436.9178            0    1823.1377    17.935306    23.419215    22.061808    9266.6386    2536.8225    1067.6446    1864.9459    155.84368     913.5597    265.23586     -3907.76 
17298000    163.08798   -4414.9721   -4135.4449   -4414.9721            0    1565.2342     18.08724    23.318029    21.984501    9272.1565     978.4241    1759.9699    1957.3084   -68.657852   -569.60606   -21.615978   -3923.7862 
17299000    169.79236   -4423.3841   -4132.3658   -4423.3841            0    1193.9051    17.805922    23.401208    22.284377    9285.4559    1215.6356    2883.6171   -517.53738   -638.52065   -370.04891    443.79863   -3970.6885 
17300000    168.92774   -4440.8853    -4151.349   -4440.8853            0    1891.4596    18.087436    23.322432    21.929412    9250.7688    1404.4856    3684.6096    585.28353   -409.76919   -518.15923    4.2155724   -3896.1666 
17301000    171.85303   -4419.4418   -4124.8916   -4419.4418            0     587.0698    18.012579    23.646373    21.818739    9293.3029   -48.729002    511.55917    1298.3792    130.37065    74.307254   -557.55867   -4045.3241 
17302000    172.38795   -4439.9441    -4144.477   -4439.9441            0    1416.1201    17.968792    23.257331    22.135567    9250.5894    1560.9985    1170.0139    1517.3479   -784.50127   -99.048054  -0.67234024   -3953.4277 
17303000    169.91965   -4446.2476   -4155.0111   -4446.2476            0    2132.7159    17.902266    23.453928    21.969977    9224.7203     2230.677     900.2684    3267.2022    6.6020667   -311.46899   -74.155946   -3868.0903 
17304000    170.24191   -4419.3249   -4127.5361   -4419.3249            0    2125.8757    18.082799    23.339158    21.933995    9256.9646    1924.3495    2835.4629    1617.8145   -194.32158   -26.717036    625.78809   -3840.5358 
17305000    172.32177   -4434.8448   -4139.4912   -4434.8448            0    2620.8009    17.848106    23.362724    22.052558    9195.4838    2990.1015    4122.1459    750.15523   -587.01095   -43.796077    451.52431   -3788.0243 
17306000    163.09869   -4396.6786    -4117.133   -4396.6786            0    965.38253    18.195514    23.278617    22.035777    9333.6148    133.24115    2163.5531    599.35338    891.97501   -618.02899    639.49782    -3985.724 
17307000    169.79113   -4433.4804   -4142.4642   -4433.4804            0    2063.4884    17.922666    23.475089    22.017894    9263.7244    3043.3415    1164.1921    1982.9314   -867.19179   -131.07358    60.593171   -3863.6829 
17308000    170.77954   -4436.7295   -4144.0193   -4436.7295            0    1231.2233    18.136671    23.190592    22.062311    9279.4105    1198.2113    1170.9614    1324.4972   -443.50519   -612.95332    246.40229    -3977.397 
17309000    175.02332   -4437.4439   -4137.4599   -4437.4439            0    1971.6578    17.921385    23.604466    21.846415    9241.5733    1906.5106    1213.4247    2795.0383     478.8374   -240.28546   -145.76969   -3871.7221 
17310000    160.49866   -4440.2108   -4165.1216   -4440.2108            0    2218.0738    18.092565    23.218105    21.992862    9238.6533    2438.6179    2653.2222    1562.3813    515.87951   -297.56214      171.355   -3866.2666 
17311000    171.93584    -4435.937   -4141.2449    -4435.937            0    1991.1159    17.711517     23.55772     22.12108    9229.8653    2547.5297    1373.9426    2051.8754     235.5851    -169.9413   -99.532492   -3873.2245 
17312000    163.36524   -4409.9949   -4129.9925   -4409.9949            0    2068.9231    18.088324     23.27177    21.987182    9255.4451    1588.9608    1469.7345    3148.0739    606.83465   -27.182375   -99.565882   -3850.7268 
17313000    175.62471   -4419.0309   -4118.0162   -4419.0309            0    2679.7343    17.954572    23.612612    21.754459    9222.8972    2327.4664    2744.4411    2967.2955   -774.36124   -200.85044   -599.33747   -3757.5745 
17314000    162.06839   -4421.3702   -4143.5905   -4421.3702            0    2208.3742    17.987868    23.326541    21.992649    9227.9997    2833.2213    2442.0536    1349.8477    555.96232     276.0403   -174.33626   -3846.3855 
17315000    163.19762   -4442.2647   -4162.5496   -4442.2647            0    1841.5292    17.971711    23.537509    21.860021    9246.9923    595.04072    2751.0857    2178.4613    674.26817   -701.81776    64.751311   -3914.2048 
17316000    182.86326   -4436.6713   -4123.2499   -4436.6713            0    1666.8443    18.135953    23.156006    22.040704    9256.1312    1094.6921    2976.0673    929.77355   -59.323194   -702.59694   -58.213977   -3898.2406 
17317000    161.32651   -4443.0573   -4166.5492   -4443.0573            0    2501.1229    17.846794    23.412253    22.082245    9226.7054    3178.8791     2536.793    1787.6967   -221.17549    140.16624   -438.74493    -3829.993 
17318000    164.05973   -4425.1321   -4143.9394   -4425.1321            0    2296.5663    17.989875    23.361703    21.930245    9216.7144    2520.3541    1833.9215    2535.4235   -246.85398    816.18832   -106.25737   -3835.2434 
17319000    171.96939   -4465.7142   -4170.9646   -4465.7142            0    1241.0153    18.028217    23.364294    21.979916    9258.3046    754.33547    1019.4423    1949.2683    314.88141    660.29551    273.00144   -4003.3991 
17320000     167.3286   -4428.6672   -4141.8717   -4428.6672            0    2393.7358    17.969308    23.225308    22.011798    9186.4639    3001.3022    844.23862    3335.6665    359.16273    263.73991   -49.910756   -3821.1706 
17321000    171.84468   -4438.0386   -4143.5027   -4438.0386            0    1972.7818    18.003718    23.273323    21.970631    9205.8333    1317.5055     3018.166     1582.674    921.48687    159.41565   -116.19082   -3878.6417 
17322000    184.42242   -4421.2699   -4105.1762   -4421.2699            0    3103.2644    17.997466    23.269992    21.975168      9203.22    4012.5211    2581.3927    2715.8794    625.75348   -343.87843    386.99681   -3688.6575 
17323000    157.41184   -4438.9435    -4169.145   -4438.9435            0    397.83599    17.971468    23.518269    22.086339    9334.9637    1566.3966    487.86542     -860.754    884.43207   -463.32882    494.87173   -4114.9832 
17324000    167.73544   -4432.5716   -4145.0788   -4432.5716            0    2729.6523    17.950268    23.214778    22.090136    9205.2131    2238.7452    2819.3448     3130.867    285.62193     530.8516    783.19711   -3778.6268 
17325000    159.72649    -4417.785   -4144.0193    -4417.785            0    3309.0865     17.90522     23.41245    21.921726     9189.699    4154.8756    2930.8164    2841.5676    407.65451   -334.42197    470.30944   -3700.5278 
17326000     171.6032   -4442.5068   -4148.3847   -4442.5068            0    2815.1802    17.908679    23.384283     21.94589    9190.5354    3762.2799    2421.7289    2261.5317    945.07204   -421.94815    86.838794   -3771.0534 
17327000     162.1781   -4433.2219   -4155.2542   -4433.2219            0    984.92005    18.117142    23.262607     22.02653    9283.1239    848.92158      596.959    1508.8796    102.58087    36.207686    1112.6888   -4021.9109 
17328000    178.86705   -4422.4214   -4115.8494   -4422.4214            0    1193.2944    17.919875    23.561398    21.974832    9278.1539    1079.9777    1621.1572    878.74838    41.669187    30.753566   -405.28703   -3954.3819 
17329000    164.91528   -4428.6116   -4145.9524   -4428.6116            0    1725.0446    18.047446    23.368285    21.962617    9262.4669    1727.6985    986.31306    2461.1224    529.15778   -338.60167   -360.98238   -3912.9272 
17330000    180.91933   -4425.4562   -4115.3666   -4425.4562            0      3077.87    17.970706    23.524024    21.805543    9218.1478    3071.5702     2052.766    4109.2739    3.5573703    96.397581   -303.70073   -3701.5863 
17331000     168.0126   -4431.9328    -4143.965   -4431.9328            0    1999.8197    18.026398    23.380804    21.920687    9238.9491    2536.9039    1234.6147    2227.9406    22.146989   -530.92609    275.99092   -3874.5081 
17332000    173.99697   -4452.1091   -4153.8842   -4452.1091            0    3422.1507    17.871854    23.469074    21.777533    9134.2782    3098.7333    3318.4128     3849.306   -554.43653   -426.70595   -229.99352   -3698.0056 
17333000    168.98468   -4445.7589   -4156.1249   -4445.7589            0    1515.8458     18.32247    23.010981    21.949426    9254.2733    1043.9532    1893.8901     1609.694   -165.16839    7.1114658   -455.58773   -3951.5401 
17334000    178.95957   -4420.1902   -4113.4596   -4420.1902            0    2418.9219    17.886612     23.37903    22.071626    9229.7281    1931.6701    1420.8436     3904.252   -8.9569691    110.13516    800.01628   -3787.8579 
17335000    175.05671    -4444.826   -4144.7847    -4444.826            0     2212.458    17.996578    23.293122    22.020421    9230.8833    3105.2493    2886.6375    645.48736   -401.91236   -767.53247    473.07481   -3846.9371 
17336000    167.56868   -4429.9287   -4142.7217   -4429.9287            0    2671.1232     18.04358    23.570487    21.701668    9229.6321      2150.72    2531.1644    3331.4852    -195.1464    567.26874   -381.54643    -3783.176 
17337000     161.0728   -4428.5868   -4152.5135   -4428.5868            0     2824.291    17.954436    23.318538    22.022207    9220.0641    3191.4359    3631.1588    1650.2784   -292.40228   -3.4280221    365.51368   -3772.7447 
17338000    172.90242   -4421.4042   -4125.0553   -4421.4042            0    1716.1766    18.051582    23.320157    22.083196    9296.2685    1726.7723    1944.3052    1477.4522   -323.69516    123.41627    197.77505    -3892.382 
17339000    160.02761   -4437.2728    -4162.991   -4437.2728            0    2260.4471     17.98055     23.41577    21.889075    9215.9228    2587.4395    2277.0105    1916.8912   -621.48456   -237.48785     607.5714   -3859.1761 
17340000    170.77134   -4431.6266   -4138.9303   -4431.6266            0    2098.3766    18.200537    23.067196     22.04968    9257.2352     490.9383     3562.234    2241.9574    84.973061   -309.44159   -47.261581   -3855.6342 
17341000    163.21733   -4441.4414   -4161.6924   -4441.4414            0     2481.888    17.886227    23.466256    21.976558    9224.0621    2301.5616     2709.671    2434.4315    -312.7554   -179.89166     -171.943   -3827.8202 
17342000    168.23028   -4418.5109     -4130.17   -4418.5109            0    942.67674    18.086735     23.38274    21.947604    9282.0239    1211.9788    182.58687    1433.4646   -336.16135    351.65777     74.15021    -4002.561 
17343000    162.97192   -4438.3926   -4159.0643   -4438.3926            0    2017.1913    17.928325    23.479927    21.973408    9249.8323    2501.6496    757.27143    2792.6529   -229.96419   -168.97858   -215.22307   -3886.9465 
17344000    168.04346   -4433.2613   -4145.2405   -4433.2613            0    2096.3999    18.049151    23.209719    22.018526    9223.9064    881.95723     2366.932    3040.3106   -244.93228   -25.954052   -344.97642   -3863.2303 
17345000     162.5281   -4429.6855   -4151.1179   -4429.6855            0    3325.2308    17.905934    23.449649    21.851376    9175.1278    3911.4108    3613.0567    2451.2249    568.92132   -2.7999061    644.56517   -3706.1694 
17346000    173.14168   -4433.5676   -4136.8087   -4433.5676            0    1082.2073    18.097894    23.530342    21.792957    9280.5226   -924.54364    1535.0092    2636.1564   -908.29085    221.29999   -359.14768   -3990.3353 
17347000    164.52373   -4420.0123   -4138.0243   -4420.0123            0    2040.1134    17.817496    23.292583    22.175339    9203.1097    3200.9421    2460.1574    459.24068   -1589.8806    771.94265    -685.0508   -3864.2045 
17348000    169.52297   -4455.0226    -4164.466   -4455.0226            0    2116.2913    17.937679    23.370351    22.034845    9237.2239    2456.3058    2942.9865    949.58146    1064.2414    610.69267   -272.30124   -3879.3689 
17349000      177.435   -4440.8442   -4136.7266   -4440.8442            0    1817.5242    18.118062    23.398853    21.806937    9244.8734    879.94361    2290.1431    2282.4858   -394.21794   -6.1439135   -134.91286   -3891.6753 
17350000    163.45377   -4431.4078   -4151.2536   -4431.4078            0    3108.9959    17.961324    23.295298    21.943191    9181.3469    2407.2347    4207.5755    2712.1775    11.488945    52.076372     292.5239   -3734.9574 
17351000    163.13909   -4448.2487   -4168.6339   -4448.2487            0    1785.9567    17.923559    23.322871    22.121232    9247.3132    1831.4719    2029.1498    1497.2485    18.598712   -677.25793    234.91624   -3927.7752 
17352000     178.9281   -4442.9188   -4136.2422   -4442.9188            0    1244.0447    18.019229    23.384672    22.022879    9279.8632    1617.6709    1220.3236    894.13959    491.47082    -416.6006    867.47709   -3967.8765 
17353000    177.98059   -4437.5311   -4132.4785   -4437.5311            0    638.52918    18.133844    23.418271     21.87277    9288.5623    730.04613    238.48108    947.06033   -126.89734   -330.03961    138.53854   -4045.9807 
17354000    164.48832    -4428.649   -4146.7217    -4428.649            0    75.635216     18.01156    23.346585    22.217801    9342.7726   -191.00609    191.28635    226.62538    355.72608    336.92614   -228.01964    -4136.416 
17355000    171.47619   -4425.9617   -4132.0573   -4425.9617            0    1841.2508    17.920496    23.645547    21.870333    9267.3339    3370.6481     1519.133    633.97121    155.99607    76.976727    405.92339   -3883.2039 
17356000    159.99904   -4434.9857   -4160.7528   -4434.9857            0    2670.8545     18.19202    23.168572    21.847387    9208.3047    1340.1398    3484.4911    3187.9325   -882.67674   -698.72445    333.03876   -3802.0739 
17357000    164.97101    -4440.552   -4157.7974    -4440.552            0    1366.5691    17.871211     23.48942    22.082332     9269.818    2344.6331    567.67747    1187.3967    437.25635   -26.522837     861.3645   -3973.0498 
17358000     163.2604   -4418.1182   -4138.2954   -4418.1182            0     2528.996    17.997125    23.039455    22.145607    9182.5416    2728.1341    2613.9203    2244.9336     325.2167   -740.19325    15.578569   -3799.6175 
17359000    168.33345   -4441.6176   -4153.0998   -4441.6176            0    863.31312    17.964317    23.550453    21.955201    9288.5387     453.7522    1323.6852    812.50198   -302.11159   -303.53183    388.74137   -4036.1522 
17360000    161.71989   -4424.6067   -4147.4243   -4424.6067            0    1654.6199     18.19312    23.302993    21.772709    9230.6303    2308.7976    1204.5055    1450.5565    641.88888     -381.794   -42.305257   -3924.6806 
17361000    173.26089   -4434.1181   -4137.1549   -4434.1181            0    2124.7973    17.863129    23.396008    22.040496    9211.2946    3545.0001    2552.1582    277.23373   -81.325511   -387.86477    252.12158   -3851.7154 
17362000     173.0051    -4437.642   -4141.1172    -4437.642            0    2752.7983    18.033803    23.152187     22.10504    9229.3399    3721.7709    3678.0779    858.54628     1035.183    358.20049    382.77775   -3770.5892 
17363000    167.92249   -4433.5266   -4145.7132   -4433.5266            0    1960.1879    17.922746    23.611561    21.767693    9211.7398    1747.9985    1607.5629    2525.0023    372.44705   -329.89162    26.435662   -3882.3742 
17364000    176.16359   -4414.8185   -4112.8802   -4414.8185            0    2916.5404    18.098085    23.172156    21.935331     9199.056    2082.3553    2686.9313    3980.3344    582.65455    -234.2996    19.184029   -3721.6006 
17365000    173.35634   -4427.5764   -4130.4496   -4427.5764            0    1657.8305    17.913267    23.468117     22.10514    9292.7944    3256.2912    986.96735    730.23299   -346.90835   -956.13503     664.4526   -3905.7706 
17366000    158.90022   -4429.9749   -4157.6254   -4429.9749            0    1320.9533    18.302664    23.269714     21.81492    9290.9253   -92.530633    2076.7463    1978.6442    6.9601239    116.13203    74.005411    -3978.638 
17367000    158.85129   -4441.2326    -4168.967   -4441.2326            0    885.71638    17.948984    23.436352    22.057363    9278.6217    852.64656    1599.3658    205.13675    813.04321    -388.2797    455.89202   -4049.1126 
17368000    163.96393    -4437.356   -4156.3274    -4437.356            0    1523.5961    17.940208    23.285659    22.127424    9243.7215    1979.2216    1540.3223    1051.2444   -673.27333   -159.73886   -485.88838   -3950.9311 
17369000    172.86585   -4434.4709   -4138.1848   -4434.4709            0    2167.7946    17.951473    23.480889    21.856334    9212.8063    2543.1086    1617.2228    2343.0525   -1034.5931   -336.80568    415.54169   -3846.9213 
17370000    163.96181   -4431.4634   -4150.4384   -4431.4634            0    2343.3645    18.008918    23.158484    22.082585    9209.7461    607.24488    3401.2699    3021.5788   -44.923421   -1.0851185    219.42814   -3835.6901 
17371000    170.26306   -4443.4105   -4151.5854   -4443.4105            0    2939.5291    17.848961     23.57177    21.846368    9191.4577     3594.538      2425.04    2799.0092    -154.9153   -543.37473    735.80784   -3757.5475 
17372000    172.61228   -4420.6725    -4124.821   -4420.6725            0    1880.4045    17.987478    23.300491     22.09716     9261.297    1776.0157    1966.2467     1898.951    545.55737    382.46814     203.8393   -3870.8413 
17373000    160.30475   -4439.3583   -4164.6014   -4439.3583            0    1352.0793    18.015947     23.33335    22.097332    9289.1083    2083.9748    1712.5857    259.67744   -1085.1062     368.5077    442.52884   -3981.4324 
17374000    170.98434   -4421.7938   -4128.7325   -4421.7938            0    1116.6928    17.939869    23.479441    21.943869    9243.1547    1515.6558    529.29577    1305.1268    443.28368   -56.002552   -266.16245   -3978.2002 
17375000    178.64446    -4426.307   -4120.1165    -4426.307            0    902.45232     18.17204    23.088989     22.12073    9281.2841     1127.743    787.30745    792.30655    55.256981   -68.488159    535.72918   -3997.9623 
17376000    163.11372      -4418.6   -4139.0287      -4418.6            0    1503.9799    17.916703    23.789791    21.725383    9260.1107     1464.118     765.6343    2282.1873    941.00007    134.39289   -392.93698   -3935.9174 
17377000    170.17233   -4425.8467   -4134.1772   -4425.8467            0    2496.4599    17.989854    23.209489    22.046334    9205.1229    2642.3317    2624.0833    2222.9648    1339.6031    -17.86581    74.031854   -3799.0342 
17378000     158.4701   -4409.9257   -4138.3134   -4409.9257            0     1994.702    17.919906    23.363079    22.096969    9251.2092    1934.2587    2339.6283    1710.2191   -378.88905    978.09209   -39.509379   -3869.1894 
17379000    167.66177   -4414.9678   -4127.6012   -4414.9678            0    1335.6572    18.175767    23.420733    21.808477     9283.646     741.9099    2450.4713    814.59043     582.1886     168.6841   -470.16244   -3946.7633 
17380000     165.9501   -4452.8908    -4168.458   -4452.8908            0    1305.1642    17.968469    23.530509    21.920644    9268.2066    1935.8011    679.42234    1300.2692    646.52234   -385.82971    76.175416   -3992.0425 
17381000    162.75942   -4443.9152   -4164.9511   -4443.9152            0    664.90725    17.999891    23.225271    22.250084    9301.6995    397.70386    1662.8598   -65.841885   -183.06336   -300.59007    422.95696   -4074.7526 
17382000    167.66262   -4414.3402   -4126.9722   -4414.3402            0    1258.7682    17.943866    23.501378    21.984269    9270.8892    2023.2798    1787.3949   -34.369979   -766.91904    762.85134    508.42973   -3956.7786 
17383000    166.68402   -4437.3778   -4151.6871   -4437.3778            0    2451.0441    18.187744    23.182499    21.862868    9218.2022    2324.2532    1879.5354    3149.3436    -1077.201   -737.57409     791.6118   -3822.1735 
17384000    163.71818    -4443.093   -4162.4857    -4443.093            0    1648.1528    17.869759    23.494464    22.089727    9274.1599    2184.9286    873.97294     1885.557    248.74168   -78.550609    146.50668   -3939.5662 
17385000    160.09508   -4440.1242   -4165.7267   -4440.1242            0    2589.2122     18.09064    23.168746    22.024638    9231.3502    2167.0732    3330.5546    2270.0087    293.11626    580.39809     274.4314   -3817.1416 
17386000    167.40628   -4431.8047   -4144.8761   -4431.8047            0    1122.4851    17.977833    23.529151    21.959448    9288.9156    998.68847    1646.4334    722.33333    26.613067    173.83054   -180.81693   -3992.8138 
17387000    165.71876   -4442.8842   -4158.8479   -4442.8842            0    1826.4511    18.014116    23.231139    22.037665    9222.5077    175.89524    2486.6134    2816.8447    610.52667   -136.09341    191.05669   -3913.1888 
17388000    172.12049     -4436.68   -4141.6714     -4436.68            0    2411.8508    17.833933    23.529959      22.0041    9233.6181    4429.1331    788.25845    2018.1608    108.88937    1238.4617   -326.70187   -3816.8847 
17389000    152.16635   -4439.2069    -4178.399   -4439.2069            0    1282.3244    18.285939    23.189462    21.894454    9284.1482    500.69875    1708.1644    1638.1099   -575.21652   -198.20514    278.29629   -4004.7726 
17390000     165.0767   -4427.4951   -4144.5593   -4427.4951            0    2810.4166    17.807756    23.476231    21.992531    9194.1752    2911.4938     2472.401    3047.3551     275.0765     23.65151    655.92441   -3767.7172 
17391000    161.36076   -4434.8608    -4158.294   -4434.8608            0    1735.8879    18.048052    23.176057     22.08798    9239.0196    1339.5082    2123.5184     1744.637    488.82223   -142.79142    412.11451   -3924.3976 
17392000    160.49581   -4426.9092   -4151.8249   -4426.9092            0    1865.6608    17.842636    23.629847     21.82579    9202.1621    1407.1054    1938.2803    2251.5966   -268.17542     207.8703    146.65991   -3901.4456 
17393000    160.76982   -4434.6633   -4159.1093   -4434.6633            0    1990.0831    18.040362    23.295243     21.99645    9244.1096     1835.128    1779.2655    2355.8558    -595.8693   -614.57677   -802.60779   -3890.8145 
17394000    167.66762   -4435.0237   -4147.6471   -4435.0237            0     1458.605    17.875197    23.558257    22.010741    9268.9098    1392.9882    1272.2861    1710.5406   -206.45799    829.45299   -232.08407   -3950.4765 
17395000    166.14954   -4411.9822   -4127.2076   -4411.9822            0    1493.2099    18.180423    23.242877    21.889788    9249.8659    1592.2164     1425.024    1462.3893    649.64413   -789.76431    324.17808   -3925.7739 
17396000    169.01106   -4446.4985   -4156.8194   -4446.4985            0    1028.0034      17.8718    23.537474    22.008452    9258.0101    1385.7518    968.15796     730.1005    270.77343   -38.161056    329.12226   -4018.0198 
17397000    161.35238   -4440.4877   -4163.9353   -4440.4877            0    3032.9709    18.072304    23.322555    21.852223    9210.5436    1543.5885    2661.5611     4893.763   -1528.5191    392.37396    830.54194   -3756.5274 
17398000    164.69505   -4451.2168   -4168.9351   -4451.2168            0    1655.5415    17.996574    23.544963    21.849639    9258.3184    2239.9417     1552.855    1173.8278    374.96407   -297.94071    316.28887   -3945.3988 
17399000    173.45538   -4418.7078   -4121.4112   -4418.7078            0    1111.8572    18.035922    23.278948    22.129361    9291.1737    918.66261    1778.8206     638.0885    163.79418   -6.2114946    727.83049   -3970.7521 
17400000    158.23171   -4422.7704   -4151.5667   -4422.7704            0    2232.8277    17.890965    23.605134     21.87771    9239.3644    2498.9931    1901.6342     2297.856    -22.91571    514.82655    372.79291   -3850.7006 
17401000    169.75921   -4422.3336   -4131.3721   -4422.3336            0    1946.5711    18.126741      23.2055    22.049097    9274.7343    1695.2149     2859.632    1284.8666    548.52423       173.34    22.007188    -3868.074 
17402000    164.03593   -4445.2992   -4164.1473   -4445.2992            0     1261.151      17.8829    23.443038    22.143984    9283.4118    2884.6496    1200.9876   -302.18409   -854.96692    28.794292   -367.54045   -3993.4012 
17403000    167.83244   -4426.6177   -4138.9586   -4426.6177            0    1318.5526    18.127022    23.302168     21.94129    9267.9769    1611.8405    789.81978    1553.9976    -210.0639    195.91182    11.832775   -3960.7379 
17404000    163.96538   -4442.7306   -4161.6996   -4442.7306            0     1436.247    17.773199    23.516247    22.164187    9263.7203    2502.8644    1192.9497    612.92689   -470.06167   -493.47365    1111.3987   -3967.6599 
17405000    160.53292   -4423.7452   -4148.5973   -4423.7452            0    1227.5652    18.087847    23.392188    21.945106    9285.2885    2121.6293    692.35372    868.71261   -332.72733    669.78642   -466.33513   -3982.3648 
17406000    155.45355   -4441.1574   -4174.7153   -4441.1574            0    1598.3211    17.885287    23.512328    21.947697    9229.5491     2131.836    2378.2959    284.83145    294.89133   -388.88341   -352.51599   -3959.5757 
17407000    164.17284   -4435.2728   -4153.8862   -4435.2728            0    2060.8048    17.953938    23.199965     22.10702    9208.2535    2922.3065    1879.8706    1380.2373    -901.2115   -715.70862    529.11558   -3877.1347 
17408000    168.82063   -4444.5915   -4155.2387   -4444.5915            0    1673.2462    17.881363    23.405587    22.069555    9236.6339    1767.4461    2061.8053    1190.4871    73.686923     130.8314    -237.3684    -3929.841 
17409000    166.38141    -4431.398   -4146.2259    -4431.398            0    1856.3105    18.084039    23.439066    21.773967    9229.3963    2232.2102    2832.7382    503.98321    -232.6325   -387.82071    54.806623   -3896.3642 
17410000     174.5089   -4426.2141   -4127.1119   -4426.2141            0    1922.5761    17.944768    23.327921    22.082605    9244.0911    2789.2259    1603.8931    1374.6094    962.30509    -99.33256    71.754886   -3867.9186 
17411000    164.36849   -4449.6812   -4167.9592   -4449.6812            0    989.10263    18.173739    23.345007     21.91373    9297.2522    775.42029    571.88289    1620.0047    1171.1881   -144.07887    185.06803   -4033.8459 
17412000    164.54936   -4438.8897   -4156.8577   -4438.8897            0    1847.2187    17.994188    23.457985    21.907253    9247.2131    1552.5495    678.88355    3310.2232    876.64535   -180.67054    220.17649   -3907.7397 
17413000    165.33774   -4427.3522   -4143.9689   -4427.3522            0    1892.8747    17.975628    23.331752    22.048465    9247.1904    1615.4784    3067.4264    995.71926    339.32771    752.25543   0.67525798   -3888.6944 
17414000     166.2301   -4440.2249   -4155.3122   -4440.2249            0    2274.5492    17.975799    23.495751    21.830695    9220.3007    3512.2598    1600.6592    1710.7287   -713.13045    547.95894   -82.740133   -3849.4566 
17415000    165.35978   -4429.1575   -4145.7365   -4429.1575            0    1901.8555    17.988807    23.368583    21.918338    9213.8763    2493.7371    1493.3107    1718.5189   -41.408372    254.92576    59.118556   -3890.1748 
17416000    163.47582   -4415.7066   -4135.5146   -4415.7066            0    1671.7309    17.973178     23.28838     22.16887    9279.1394    1748.5142    1708.7276    1557.9508   -182.55021    678.58702    139.28804   -3909.2847 
17417000    160.68932   -4439.5244   -4164.1084   -4439.5244            0    950.76176    18.037586    23.429203    21.926916    9266.4521   -719.44447    1586.1951    1985.5346   -199.32749    413.38618    257.67692   -4035.6208 
17418000    168.72994   -4411.3197   -4122.1224   -4411.3197            0    1222.5161    18.102827    23.451989    21.964321    9324.8933    90.506622    730.86161    2846.1802   -456.42976    165.20278   -26.119209   -3955.8675 
17419000    171.71588    -4421.128   -4126.8129    -4421.128            0    1592.3437    17.953385    23.439927    22.025279    9268.8108    1038.1823     2468.735     1270.114     -486.573    349.57693     215.4869   -3911.5661 
17420000    171.71036   -4439.6954   -4145.3897   -4439.6954            0    1745.2136    17.950186    23.415362    21.967023    9232.9617    1912.6047    2147.0279    1176.0082   -166.84126   -88.771178    295.52716    -3910.391 
17421000    169.09342   -4435.1169   -4145.2966   -4435.1169            0    1626.4375    18.167229    23.377964    21.746165    9235.8748   -638.14876    1974.6389    3542.8224    469.12285     477.4274    -129.6233   -3926.2224 
17422000    166.18915   -4434.5921   -4149.7496   -4434.5921            0    1617.3611     17.86444    23.317249    22.144494    9224.2797    2721.0585     2294.964   -163.93915    395.49958    123.56098   -478.98689   -3932.1714 
17423000    164.73185   -4432.6357   -4150.2909   -4432.6357            0    1943.2166    17.984884    23.306021    22.017133    9228.6148    1035.4808    1272.0634    3522.1057    -24.03574   -152.16363    350.52708   -3888.7536 
17424000     165.6867   -4439.2554    -4155.274   -4439.2554            0    2068.7816    17.975709     23.26268    22.090856     9237.582     1397.746     3465.247    1343.3518   -267.48099    112.56558    391.59453   -3876.5664 
17425000    166.96742     -4424.53   -4138.3536     -4424.53            0    1245.7637    18.008436    23.554159    21.976454    9321.8306    1383.0648    980.87102    1373.3552   -1.9641845    423.71163   -577.87101   -3968.9929 
17426000    168.64959   -4437.4319   -4148.3722   -4437.4319            0    2062.0986     17.99985    23.438583    21.834712    9211.8681    788.43076    3471.6449      1926.22   -158.84943    58.717422    278.02556   -3871.3383 
17427000    167.40306   -4410.5182   -4123.5951   -4410.5182            0    2553.1164    17.862953    23.282292    22.172973    9221.5285    3582.0911    2891.4409    1185.8172    522.37431   -382.75925      398.129   -3780.2353 
17428000     162.9159   -4413.7537   -4134.5214   -4413.7537            0    1094.3852    17.957229    23.411131    22.088769    9286.0974     1435.705    2366.1655   -518.71478    154.28309   -510.76635    495.73549   -3986.3108 
17429000    163.83853   -4425.3455   -4144.5319   -4425.3455            0    2150.4708    18.145164    23.443545    21.688705    9226.0924    1219.5465    2159.2423    3072.6238    4.6245906   -185.89782    87.110027   -3855.1793 
17430000    163.49366   -4428.8687   -4148.6462   -4428.8687            0    2525.0259    17.919499    23.361274    22.014876    9215.9188    2308.5037    2038.9682    3227.6058   -338.61348   -327.63367   -309.51934   -3809.2708 
17431000    173.83741   -4441.5705   -4143.6191   -4441.5705            0    2234.6519    17.999832    23.270557    22.028375    9226.9398    1501.2134     2550.349    2652.3934    410.89721   -606.91043    234.73025   -3842.9122 
17432000    170.80195   -4411.0899   -4118.3412   -4411.0899            0    2187.8163    17.845597     23.68078    21.846473    9232.2682    2808.8117    1215.2375    2539.3998    428.49597   -522.98249    247.70925   -3823.7667 
17433000    163.11693   -4436.5783   -4157.0015   -4436.5783            0    2020.9918    18.124379    23.066356    22.076618    9229.4256    464.87681    2927.7564    2670.3423    26.483663    111.13949    104.71666   -3884.9725 
17434000    164.42975    -4443.866   -4162.0391    -4443.866            0    1583.8158    17.929047    23.526903     21.90293    9238.9831     1879.949    1316.4904    1555.0079    130.02879   -280.16876   -161.17244    -3948.634 
17435000    174.71295   -4428.1193   -4128.6673   -4428.1193            0    1589.8238    18.207992    23.313978    21.803232     9255.488    1525.4461    1533.5389    1710.4863    864.89293   -385.88227   -283.22812   -3914.0701 
17436000    163.33145   -4408.4695    -4128.525   -4408.4695            0    1562.8802    17.866972    23.420795    22.137518    9263.6368    1939.8708    1829.2182    919.55152    339.00152   -881.58427    95.721452   -3917.3788 
17437000    167.94145   -4442.9814   -4155.1355   -4442.9814            0    2186.0599    18.032772    23.203174    22.023303    9214.9362    2394.4761    2237.2067    1926.4969   -67.005747    160.29522    386.55218     -3861.35 
17438000    176.71645   -4426.4854   -4123.5995   -4426.4854            0    1433.0749    17.895658    23.736324    21.890383    9298.5339    2810.4833    312.41266    1176.3287   -762.25743   -287.40833    47.627017   -3929.2608 
17439000     157.8369   -4436.0528   -4165.5257   -4436.0528            0    2144.3063    18.102799    23.303051    21.860352    9221.7991      2010.53    1482.3204    2940.0684    -723.8362    484.63327   -59.227179   -3877.1369 
17440000    177.24367   -4421.5847   -4117.7951   -4421.5847            0     1319.183    18.002613    23.606268    21.829557    9277.0052    1897.6177    751.82848    1308.1027    1347.2142   -660.03127   -545.14713   -3939.3155 
17441000    168.93514   -4428.4073   -4138.8583   -4428.4073            0    1945.3969    18.015428    23.216128    22.110377    9247.6318      2798.61    266.69814    2770.8826    69.376964   -62.205343    663.89681    -3876.488 
17442000    169.68273   -4430.1225   -4139.2921   -4430.1225            0    1729.6302    17.912402    23.548053    21.955288    9260.7882    2626.6371   -567.40011    3129.6536   -51.496003    152.53304   -25.442812   -3905.6898 
17443000    174.05482   -4439.3214   -4140.9974   -4439.3214            0    2036.3204    18.133992    23.117783    21.996394    9221.2777    2712.4298    2252.0417    1144.4897    208.87772    813.85048    221.27474   -3867.1471 
17444000    169.56256   -4417.1848   -4126.5603   -4417.1848            0    1786.7086    17.998493    23.481934    21.870733    9243.4342    1769.2752    447.24839    3143.6021    757.74645   -450.03915     91.74741   -3885.7013 
17445000    179.07306   -4450.2962   -4143.3711   -4450.2962            0    2291.3576    18.050806    23.405026     21.82518    9220.6929    2126.1406    1707.2122      3040.72   -639.32908   -305.30889   -300.78628   -3835.2423 
17446000    167.06989   -4433.3257   -4146.9736   -4433.3257            0    175.78025    18.021381    23.392927    22.037565    9290.4394   -705.65107    767.49595    465.49588     36.16173    626.22395    113.78848   -4123.1569 
17447000    163.35604   -4419.4692   -4139.4825   -4419.4692            0    831.83595    18.090131     23.18836    22.173754     9301.457    805.72261    1438.6994    251.08581   -600.84362    478.58055   -11.923543   -4026.6421 
17448000    166.42298    -4422.949   -4137.7057    -4422.949            0    2174.1429    17.899298    23.541284    21.898228    9227.3102     3397.077     1527.426    1597.9258    153.14539   -32.352814   -669.09579   -3845.1294 
17449000     172.3289   -4427.3098    -4131.944   -4427.3098            0    1065.9234    18.115877    23.298423    22.013467     9291.254    152.31499    1124.9378    1920.5175    763.27158   -217.48134      510.216   -3987.5077 
17450000    173.64752   -4443.8682   -4146.2423   -4443.8682            0    2193.1718    17.876596     23.48584    22.049833    9257.5532    2112.3877     2767.404    1699.7238   -695.40434    151.34521    9.0954672   -3850.1379 
17451000    165.73112   -4427.6068   -4143.5494   -4427.6068            0    2210.7833    18.135793    23.306802    21.873335    9245.5818    1335.6947    3173.7364    2122.9187   -328.23983    -560.2612    111.83714   -3845.4533 
17452000    165.98233    -4420.882    -4136.394    -4420.882            0    2413.2213    17.969775    23.405725    21.928725    9223.1255    1849.4104    1748.4104    3641.8431    655.89685    376.94899    380.02547    -3811.792 
17453000    168.79388   -4446.1401   -4156.8332   -4446.1401            0    3089.5216    18.051939    23.269187    21.810607    9161.6311     2744.713    3039.3706    3484.4811   -65.919985   -469.95356   -355.01504   -3744.0329 
17454000    163.07641   -4439.2783   -4159.7709   -4439.2783            0    921.06989    17.920836    23.686316    21.902971    9297.3421     2140.235   -789.33637     1412.311    659.35305    165.91305    209.94628    -4034.881 
17455000    161.46686   -4441.9568   -4165.2082   -4441.9568            0    968.66247     18.11945    23.193865    22.157347    9311.8487    1299.9634    1714.2545   -108.23043    673.07848   -80.851464   -38.967159   -4033.6602 
17456000    168.63753   -4446.9135   -4157.8746   -4446.9135            0    1206.9067    17.730241    23.840033    21.915526    9263.4633    2112.5568   -121.01618    1629.1794    121.29825   -20.216872    90.918789   -3994.8238 
17457000    166.65371   -4434.4682   -4148.8295   -4434.4682            0    2253.6054    18.130464    23.135884    21.991256    9224.5474    1321.9817    3852.3103    1586.5242    1035.2814   -300.06708     166.5784   -3845.6507 
17458000    171.47346   -4429.3994   -4135.4997   -4429.3994            0    2774.2714    17.771011    23.641411    21.938758    9217.1694    3346.1277    2188.1264    2788.5602    27.454034    29.740705   -574.35103   -3762.5739 
17459000    172.88185   -4444.6037   -4148.2901   -4444.6037            0    2609.7122    18.007231    23.322534     21.91426     9203.425    2553.1792    3016.3269    2259.6305   -376.33031    401.25065   -56.932766    -3798.008 
17460000    175.88123   -4426.2257   -4124.7713   -4426.2257            0     3140.033    17.937878    23.510887    21.753192    9174.0914    2338.2106    2365.5345    4716.3539    651.25653   -377.77913    276.34033   -3704.6515 
17461000    173.03338   -4448.9201   -4152.3468   -4448.9201            0    1117.1384     17.94039    23.293026    22.146766    9254.8232    1444.3308    1421.8977    485.18685   -377.57269     185.7785    492.06161   -4001.5643 
17462000    169.33887   -4436.3341   -4146.0931   -4436.3341            0    1882.8155    18.039747    23.300825    21.979991    9239.0909    1074.0217    2612.5621    1961.8626   -543.55817   -241.84099   -439.20827   -3892.3975 
17463000    178.80185   -4440.1093   -4133.6491   -4440.1093            0    1821.8609    17.968668    23.421276    21.981975    9251.0953    909.86412    2517.8378    2037.8808    426.47939    30.976369   -382.37981   -3887.8477 
17464000    158.52155   -4424.4795    -4152.779   -4424.4795            0    325.70032     18.04749    23.390667    22.072341    9317.6807    215.81929     256.0353    505.24638   -254.48176    476.94159   -109.75195   -4108.5199 
17465000    160.34816   -4455.7055   -4180.8743   -4455.7055            0    1995.5071    17.956808    23.418446    21.884041    9202.6888    1721.8704    2052.3154    2212.3356    -895.8072    -141.9045    33.020935   -3913.0537 
17466000    169.88999   -4448.0435   -4156.8578   -4448.0435            0    2926.6408     18.02357      23.1928    21.946287    9173.9223    2677.0632    3224.3018    2878.5575    119.16531   -321.75305    -232.8023    -3765.296 
17467000    161.25788   -4440.1498   -4163.7593   -4440.1498            0    1468.6588    17.826338    23.461204    22.179549     9276.094    2307.5823    1547.4516    550.94247    168.47914   -579.07266   -579.58618   -3965.0758 
17468000    168.25458   -4425.9016    -4137.519   -4425.9016            0      1466.64    18.186043     23.37115    21.832867    9279.5961    817.65568      1077.92    2504.3442   -754.68265    122.59859    155.75789   -3939.0336 
17469000    171.87057   -4431.9321   -4137.3518   -4431.9321            0    1409.2566    17.938726    23.517445    22.025053    9291.7753    1296.1263    719.55882    2212.0846    389.63761   -19.017086    -31.98099    -3946.382 
17470000    159.14547   -4434.9386   -4162.1687   -4434.9386            0    2490.9837    18.080376     23.31372    21.850881    9210.6012    2173.5492    399.96946    4899.4325   -402.66733   -564.56326    317.58218   -3827.5619 
17471000    163.13089   -4428.1517    -4148.551   -4428.1517            0     1237.839     17.85616    23.518014    22.091782    9277.2546    1705.6235    114.76476    1893.1287   -611.71868    105.66812   -83.620447   -3981.0723 
17472000    170.71009   -4453.5421   -4160.9508   -4453.5421            0    1037.9762     18.05996    23.170196    22.155629    9271.0856   -786.99972    2087.4771    1813.4511    363.81036    338.93083   -590.40563   -4020.6068 
17473000    168.73182    -4442.771   -4153.5705    -4442.771            0    1895.2615    17.934683    23.458124    21.909727    9217.7294    2472.3305     673.7844    2539.6697    293.47143    126.60093   -493.13276   -3898.7883 
17474000    161.38604   -4420.4663   -4143.8561   -4420.4663            0    3017.5252    18.107366    23.103431    21.952155    9183.5147     2444.985     3353.226    3254.3646    3.2203988   -414.63515    10.770963   -3739.7125 
17475000    161.19471   -4433.5548   -4157.2726   -4433.5548            0    2186.7871    17.883556    23.397984    22.024597    9215.9537    2254.7564    1621.5044    2684.1005    202.29073   -205.39926    108.18813    -3863.357 
17476000    176.57924   -4444.8866   -4142.2358   -4444.8866            0    1428.6629    18.091715    23.235682     21.96173    9232.1257    947.33282    2314.5682    1024.0877     -175.119    -388.3549    374.88606   -3949.8791 
17477000    172.20116   -4400.8142   -4105.6673   -4400.8142            0     2647.915     17.91936    23.450714    21.875337    9192.4932    3227.0888    3207.3857    1509.2705   -10.293917   -666.07463    563.67851   -3750.6796 
17478000      168.587   -4413.3959   -4124.4436   -4413.3959            0    3085.4645    17.939659    23.177213    21.995425    9145.5065     2631.487    3707.3943     2917.512   -722.85389    238.29548    159.17455    -3712.911 
17479000    167.76922   -4421.2134   -4133.6627   -4421.2134            0    1967.1993    17.967508    23.459719    21.897799    9230.1998    2065.1495    859.17382    2977.2746   -279.14398   -417.81746   -322.69098   -3868.8521 
17480000    174.78664   -4422.6631   -4123.0848   -4422.6631            0    1362.6674    18.097166    23.411002    21.894361    9276.0452    1872.5065    872.44007    1343.0557   -510.43277    115.08737   -458.59931   -3938.7409 
17481000    169.73009      -4423.6   -4132.6884      -4423.6            0    1711.3628    17.878053    23.410598    22.159961    9274.7392    1942.9936    2423.9673    767.12751    953.62392    334.86559     401.4142   -3901.2051 
17482000     165.5408   -4425.4657   -4141.7344   -4425.4657            0     1864.958    17.968824    23.359017    22.033751    9248.3155    2620.2298     978.2503    1996.3938    160.62414    196.01932    51.171865   -3890.1941 
17483000    159.15538   -4427.1451   -4154.3582   -4427.1451            0     2662.561    17.912523    23.419294    22.028668    9240.9965    3983.4183     2293.204    1711.0608    223.50846    308.65411    -137.1215   -3795.5236 
17484000    177.79011   -4434.4335   -4129.7073   -4434.4335            0    1486.3577    18.067085    23.250282    22.065164    9268.7993    1630.2726    725.07798    2103.7225    687.32402    510.34611    546.86852   -3928.7875 
17485000    164.86826   -4439.9515    -4157.373   -4439.9515            0    1023.8308    18.006749    23.661934    21.762494    9272.4435    172.78088    497.15624    2401.5554    710.91357    323.74937    640.74717   -4018.9213 
17486000    165.37409   -4435.7552   -4152.3096   -4435.7552            0     1405.713    17.999456    23.335219    22.002661    9241.5852    889.92509    1710.9738    1616.2401    -254.6972    321.01423    923.38565    -3962.849 
17487000     174.3659   -4447.3823   -4148.5251   -4447.3823            0    1533.1259     17.99133    23.367827    22.046835    9268.8924    1228.6163    2488.0489    882.71241   -94.948136    236.27809    213.98517   -3941.2813 
17488000    165.80594   -4421.1829   -4136.9972   -4421.1829            0    1896.5873    18.079787    23.485103    21.825444    9267.2072    1532.6756    1887.8938    2269.1924     -677.119    416.33452    605.96211   -3880.6683 
17489000    171.29018    -4435.976   -4142.3905    -4435.976            0    779.78343      18.0056    23.264599    22.190775    9295.5621     2.532855    1994.0533    342.76417    84.961781   -577.55278    663.28206   -4036.6782 
17490000    169.20015    -4432.822   -4142.8188    -4432.822            0    3065.2997    17.985109    23.237835    22.062773    9220.8055    1233.2075    5633.7276    2328.9641    741.68793   -29.173793    76.065451   -3730.6096 
17491000     161.0709   -4435.7876   -4159.7176   -4435.7876            0    1219.6672    18.064939    23.600045    21.792898    9291.0398    1370.8125    225.03896      2063.15   -574.09685   -155.77913    635.29824   -3994.4524 
17492000    164.45603   -4427.4847   -4145.6127   -4427.4847            0     2061.153    17.963853    23.375464    22.015742     9244.705    2244.3972    1901.2203    2037.8416   -63.946151   -791.94097   -412.88701   -3867.7187 
17493000    168.95975   -4415.6617   -4126.0705   -4415.6617            0    1598.5695    17.981234    23.314818     22.08768    9259.8009    2773.3685    1663.1473    359.19271   -164.16218   -515.48547   -85.043464   -3910.1922 
17494000    171.87284   -4432.7349   -4138.1507   -4432.7349            0    448.21428    18.105343    23.415483    21.883041    9277.2134    136.23189     1008.049    200.36197   -470.96162    783.03985     791.4401   -4077.5079 
17495000    173.00877   -4423.7188   -4127.1877   -4423.7188            0    2488.8806    17.944865    23.323722    22.016727    9214.9037    3788.4941     1457.634    2220.5137    -382.3539    183.92544    604.97584   -3792.7073 
17496000    166.18088   -4433.7713    -4148.943   -4433.7713            0     1186.277    17.913644    23.330684     22.13211    9249.8401    1845.6864    1452.3827    260.76199   -190.57711   -697.39471    740.91174   -3988.9149 
17497000    168.14288   -4436.2574   -4148.0662   -4436.2574            0    1144.2406    18.110697    23.439396    21.853023     9276.691    1179.4354    1615.2843    638.00214    391.12818    504.38927    226.36074   -3993.2607 
17498000    174.44585   -4426.6408   -4127.6466   -4426.6408            0    2356.9561    17.979028    23.347564    22.058974    9259.6185    2592.4268     2499.136    1979.3055     173.4611   -368.28925    100.36436   -3809.3584 
17499000    160.39357    -4431.329   -4156.4199    -4431.329            0    1994.3871     17.86848    23.324968    22.113082    9216.3287    2657.4983    2084.6493    1241.0137    361.61215    732.16813    245.34518   -3888.3529 
17500000    174.50827   -4415.0817   -4115.9805   -4415.0817            0    1695.5104    18.002137    23.412105    21.918795    9238.0691    657.69193    3155.8778    1272.9615    982.21061   -379.34599   -425.67596   -3887.5481 
Loop time of 354.154 on 64 procs for 250000 steps with 864 atoms

Performance: 121.981 ns/day, 0.197 hours/ns, 705.908 timesteps/s
196.0% CPU use with 32 MPI tasks x 2 OpenMP threads

MPI task timing breakdown:
Section |  min time  |  avg time  |  max time  |%varavg| %total
---------------------------------------------------------------
Pair    | 17.76      | 24.986     | 33.648     | 108.1 |  7.06
Bond    | 0.98742    | 1.2101     | 1.6151     |  10.1 |  0.34
Kspace  | 177.18     | 188.1      | 198.59     |  44.1 | 53.11
Neigh   | 0.85925    | 1.024      | 1.1021     |   7.5 |  0.29
Comm    | 51.633     | 56.993     | 64.029     |  40.4 | 16.09
Output  | 0.49254    | 0.49371    | 0.49552    |   0.1 |  0.14
Modify  | 64.08      | 67.458     | 70.896     |  20.6 | 19.05
Other   |            | 13.89      |            |       |  3.92

Nlocal:        27.0000 ave          38 max          17 min
Histogram: 5 4 3 3 1 3 4 1 3 5
Nghost:        2128.00 ave        2242 max        2014 min
Histogram: 7 6 3 0 0 0 0 4 5 7
Neighs:        6578.03 ave        9116 max        4146 min
Histogram: 4 5 0 5 3 2 4 1 2 6

Total # of neighbors = 210497
Ave neighs/atom = 243.63079
Ave special neighs/atom = 2.0000000
Neighbor list builds = 3587
Dangerous builds = 0

unfix		3
unfix		2
unfix		1

write_data	data.final.${pid} nocoeff
write_data	data.final.0 nocoeff
System init for write_data ...
PPPM initialization ...
  extracting TIP4P info from pair style
  using 12-bit tables for long-range coulomb (../kspace.cpp:340)
  G vector (1/distance) = 0.37185583
  grid = 24 27 25
  stencil order = 5
  estimated absolute RMS force accuracy = 0.0031388647
  estimated relative force accuracy = 9.4525979e-06
  using double precision FFTW3
  3d grid and FFT values/proc = 4410 672
Last active /omp style is kspace_style pppm/tip4p/omp

write_restart   restart.lmp.${pid}
write_restart   restart.lmp.0
System init for write_restart ...
PPPM initialization ...
  extracting TIP4P info from pair style
  using 12-bit tables for long-range coulomb (../kspace.cpp:340)
  G vector (1/distance) = 0.37185583
  grid = 24 27 25
  stencil order = 5
  estimated absolute RMS force accuracy = 0.0031388647
  estimated relative force accuracy = 9.4525979e-06
  using double precision FFTW3
  3d grid and FFT values/proc = 4410 672
Last active /omp style is kspace_style pppm/tip4p/omp
Total wall time: 0:05:54
