LAMMPS (30 Jul 2021)
  using 1 OpenMP thread(s) per MPI task
package omp 0
using multi-threaded neighbor list subroutines
echo both

include		in.partitions
variable        pid world 0
include		in.temp
variable        temperature equal 250.88
variable	tempDamp equal 100.0
include		in.pressure
variable        pressure equal 5500.0
variable        pressureDamp equal 1000.0 # This is 1 ps
include		in.seed
variable        seed world 745823

units		real
atom_style	full
read_restart    restart.lmp.${pid}
read_restart    restart.lmp.0
Reading restart file ...
  restart file = 30 Jul 2021, LAMMPS = 30 Jul 2021
  restoring atom style full from restart
  triclinic box = (-3.2612282 -0.15355950 -0.12002747) to (14.871227 22.733559 19.350025) with tilt (0.32263449 -6.4187752 -0.14322248)
  4 by 4 by 4 MPI processor grid
  restoring pair style lj/cut/tip4p/long/omp from restart
  restoring bond style harmonic/omp from restart
  restoring angle style harmonic/omp from restart
  1008 atoms
  672 bonds
  336 angles
Finding 1-2 1-3 1-4 neighbors ...
  special bond factors lj:    0        0        0       
  special bond factors coul:  0        0        0       
     2 = max # of 1-2 neighbors
     1 = max # of 1-3 neighbors
     1 = max # of 1-4 neighbors
     2 = max # of special neighbors
  special bonds CPU = 0.520 seconds
  read_restart CPU = 0.709 seconds

include 	in.setup
variable	out_freq equal 1000
variable	out_freq2 equal 10000
variable	out_freq3 equal 1000

timestep	2.0

neigh_modify    delay 7 every 1

include		in.tip4p
# This is TIP4P/Ice

# create groups ###
group ox type 2
336 atoms in group ox
group hy type 1
672 atoms in group hy

# set charges - beside manually ###
set group ox charge -1.1794
Setting atom values ...
  336 settings made for charge
set group hy charge 0.5897
Setting atom values ...
  672 settings made for charge

# ### TIP3P Potential Parameters ###
pair_style lj/cut/tip4p/long/omp 2 1 1 1 0.1577 8.5
pair_coeff 1 1*2 0.000 0.000
pair_coeff 2 2 0.21084 3.1668
bond_style  harmonic
bond_coeff  1 450 0.9572
angle_style harmonic
angle_coeff 1 55 104.52
kspace_style pppm/tip4p/omp 1.0e-5
pair_modify tail yes

thermo          ${out_freq}
thermo          1000
thermo_style    custom step temp pe etotal epair emol press lx ly lz vol pxx pyy pzz pxy pxz pyz enthalpy

restart 	${out_freq3} restart.lmp.${pid} restart2.lmp.${pid}
restart 	1000 restart.lmp.${pid} restart2.lmp.${pid}
restart 	1000 restart.lmp.0 restart2.lmp.${pid}
restart 	1000 restart.lmp.0 restart2.lmp.0


include         in.dump
dump            myDump all atom ${out_freq2} dump.water.${pid}
dump            myDump all atom 10000 dump.water.${pid}
dump            myDump all atom 10000 dump.water.0
dump            myDump2 all dcd ${out_freq2} dump.dcd
dump            myDump2 all dcd 10000 dump.dcd
dump_modify     myDump append yes
dump_modify     myDump2 append yes


variable natoms 	equal  "count(all)"                        # NUMBER ATOMS
variable H      	equal  "enthalpy/v_natoms"                 # ENTHALPY-per-atom
variable Vol      	equal  "vol/v_natoms"                 # volume-per-atom
fix AVG all 		ave/time ${out_freq} 1 ${out_freq} v_Vol v_H file vol_enthalpy.dat
fix AVG all 		ave/time 1000 1 ${out_freq} v_Vol v_H file vol_enthalpy.dat
fix AVG all 		ave/time 1000 1 1000 v_Vol v_H file vol_enthalpy.dat



fix 		1 all shake 1e-6 200 0 b 1 a 1
       0 = # of size 2 clusters
       0 = # of size 3 clusters
       0 = # of size 4 clusters
     336 = # of frozen angles
  find clusters CPU = 0.799 seconds
fix             2 all nph tri ${pressure} ${pressure} ${pressureDamp}
fix             2 all nph tri 5500 ${pressure} ${pressureDamp}
fix             2 all nph tri 5500 5500 ${pressureDamp}
fix             2 all nph tri 5500 5500 1000
fix             3 all temp/csvr ${temperature} ${temperature} ${tempDamp} ${seed}
fix             3 all temp/csvr 250.88 ${temperature} ${tempDamp} ${seed}
fix             3 all temp/csvr 250.88 250.88 ${tempDamp} ${seed}
fix             3 all temp/csvr 250.88 250.88 100 ${seed}
fix             3 all temp/csvr 250.88 250.88 100 745823


run             250000
PPPM initialization ...
  extracting TIP4P info from pair style
  using 12-bit tables for long-range coulomb (../kspace.cpp:340)
  G vector (1/distance) = 0.3774996
  grid = 24 27 32
  stencil order = 5
  estimated absolute RMS force accuracy = 0.00266606
  estimated relative force accuracy = 8.0287604e-06
  using double precision FFTW3
  3d grid and FFT values/proc = 3825 384
Last active /omp style is kspace_style pppm/tip4p/omp
Neighbor list info ...
  update every 1 steps, delay 7 steps, check yes
  max neighbors/atom: 2000, page size: 100000
  master list distance cutoff = 10.8154
  ghost atom cutoff = 10.8154
  binsize = 5.4077, bins = 5 5 4
  1 neighbor lists, perpetual/occasional/extra = 1 0 0
  (1) pair lj/cut/tip4p/long/omp, perpetual
      attributes: half, newton on, omp
      pair build: half/bin/newton/tri/omp
      stencil: half/bin/3d/tri
      bin: standard
Per MPI rank memory allocation (min/avg/max) = 9.311 | 9.325 | 9.336 Mbytes
Step Temp PotEng TotEng E_pair E_mol Press Lx Ly Lz Volume Pxx Pyy Pzz Pxy Pxz Pyz Enthalpy 
 6250000    267.26017   -4844.9276   -4310.3743   -4844.9276            0    4662.3232    18.132455    22.887118    19.470053    8080.0651    3437.0738    3511.8327    7038.0629   -91.315432   -971.06641    742.40787   -3760.9686 
 6251000    246.23661    -4838.446   -4345.9424    -4838.446            0    6151.7285    18.230176    22.722654     19.35245    8016.5202    5120.2352    6329.3757    7005.5746   -1678.0666   -87.870285   -408.33458   -3626.7271 
 6252000    249.90696   -4839.9042   -4340.0595   -4839.9042            0     4266.978    18.170265    23.015231    19.376077    8102.9365    4441.7228    4267.2444    4091.9666    1342.3813    1706.8913    521.64584   -3835.8178 
 6253000    245.33161   -4840.4153   -4349.7218   -4840.4153            0     4392.798    17.997199    22.948638    19.501379    8054.2879    4444.2932    4617.3136     4116.787   -1366.6307   -356.60921   -871.61472   -3833.7283 
 6254000    245.65378    -4876.626   -4385.2881    -4876.626            0    3242.6652    18.317691    22.891485    19.386664    8129.1992    2138.2006    3534.0653    4055.7298    -528.5675   -873.96073   -262.62114   -4000.8505 
 6255000    251.00846   -4838.0684   -4336.0204   -4838.0684            0    6830.0644     17.87897    22.934257    19.538177    8011.4515     7488.155    6930.9349    6071.1033     1418.642   -1444.1911    1004.2507   -3538.0039 
 6256000    251.62361    -4821.775   -4318.4967    -4821.775            0    6533.9462    18.084135     23.01101    19.257288     8013.616    5117.8329    7954.0129    6529.9928    547.53371    1439.4507    1690.5115    -3554.872 
 6257000    255.36838    -4854.681   -4343.9127    -4854.681            0    5480.9954    17.924484    23.156477    19.330229    8023.3574     6018.999    5637.1627    4786.8245    251.96713    1102.8075    111.64472    -3702.568 
 6258000    253.30411   -4832.8262   -4326.1867   -4832.8262            0    7562.4589    17.964578    23.167298    19.235415    8005.6015    7797.3707    6263.8548    8626.1513    1034.5198   -74.051348    195.69443   -3443.2432 
 6259000    259.09221   -4821.1962   -4302.9798   -4821.1962            0      5217.61    17.892397    23.414912    19.263926    8070.6006    5767.8527    5260.4275    4624.5498   -876.24808    725.00901   -1037.4902   -3688.8596 
 6260000    264.71503   -4846.4901   -4317.0273   -4846.4901            0    7320.9783    17.986091    23.173191    19.125184    7971.2833    7015.6911    6916.6383    8030.6055   -1342.8552     899.2019    -2051.719   -3465.9417 
 6261000     252.8184    -4854.831   -4349.1629    -4854.831            0    5632.4054    17.896376    23.189791    19.299058    8009.3643    5785.2717     5477.822    5634.1227   -113.71051    253.56866    1055.4417   -3691.2509 
 6262000    254.25464    -4803.425   -4294.8843    -4803.425            0    5338.4578    18.000339    23.058306    19.423487    8061.8606    5742.3896    5333.6621    4939.3217    23.899748   -521.71214    509.68375   -3667.2206 
 6263000    260.41864   -4826.5864   -4305.7169   -4826.5864            0    6209.6105    18.226216    22.796713     19.34977     8039.787    5375.9629    6307.6361    6945.2324    160.07997   -211.31211    1549.2405   -3577.6274 
 6264000    261.61031   -4859.7111   -4336.4581   -4859.7111            0    5967.3765    18.048449    22.760872    19.538759     8026.492    4873.4547    6687.3513    6341.3234   -117.18598    640.72176   -657.09382    -3637.928 
 6265000     256.4042    -4857.241   -4344.4009    -4857.241            0    4351.1429    18.286772    22.951222    19.237651    8074.1147    2027.5684    4380.3806    6645.4797    89.058257   -373.40167    713.56528   -3832.0422 
 6266000    246.55572   -4818.6547   -4325.5128   -4818.6547            0    7241.9735    17.939106    22.914472    19.530988    8028.5082    7931.3469    7675.9991    6118.5746    1848.4968    722.74398    92.032591   -3477.5678 
 6267000    256.37255   -4844.4132   -4331.6364   -4844.4132            0    5635.2411    18.178166    23.089731    19.170806    8046.5429    5165.2221    4986.2435    6754.2577   -1179.9275    157.37711   -1253.6592   -3670.3376 
 6268000    243.52742   -4854.9374   -4367.8525   -4854.9374            0    5459.4643      17.9541    23.017264    19.514951    8064.6368    4490.5902    5288.1531    6599.6498    1642.1272    484.47769    1922.8729   -3725.7405 
 6269000    260.20574    -4864.454   -4344.0104    -4864.454            0    4560.9486    18.168206    22.969855    19.321435    8063.2417    4986.6374    4319.6778    4376.5305   -1115.4123   -500.67873   -932.23897   -3807.6697 
 6270000    252.39679   -4850.4655   -4345.6407   -4850.4655            0    5884.9477    17.946822    22.928128    19.493433    8021.2946    5221.5645    5263.0535    7170.2252    423.30829   -388.67555    958.70714   -3657.2057 
 6271000    241.71481   -4844.7109   -4361.2515   -4844.7109            0    4976.1275    18.171687    23.040294    19.162533    8022.9888    4437.3803    3501.0661    6989.9362   -270.82197   -2104.4468   -1304.4317   -3779.0094 
 6272000    258.99179   -4857.6327   -4339.6171   -4857.6327            0    4754.3164     18.02308    23.049362    19.445547    8078.0788     3732.081     5438.819    5092.0493    1481.3218   -983.06525   -2277.5953   -3779.5087 
 6273000    241.56441   -4844.9942   -4361.8356   -4844.9942            0    6157.3735    17.975737    22.928242    19.368381     7982.718    6761.8589    6221.6265     5488.635   -1161.8372    222.40652    695.62409   -3644.9957 
 6274000    256.25259   -4803.0905   -4290.5537   -4803.0905            0    5319.4117    18.284133    22.882876    19.428302    8128.6765    4398.7441    4920.2847    6639.2064    1619.9123   -28.578848    3.7750249   -3659.9459 
 6275000    269.34066   -4845.7997   -4307.0851   -4845.7997            0    6383.9108    18.034926    22.693894    19.549676     8001.344    4531.8585    7670.2059    6949.6681   -90.982126    1050.4819   -1250.0119   -3562.1376 
 6276000    248.03955   -4813.7726   -4317.6628   -4813.7726            0    4503.5921    18.441926    22.736815    19.360903     8118.233    3269.2102    4749.4548    5492.1114    183.75335    317.36098    572.57943   -3784.4551 
 6277000    263.78891   -4825.6876   -4298.0772   -4825.6876            0    7653.2771    17.899518    22.783744     19.59492    7991.1619    9586.5972    6805.7844    6567.4498    815.03026   -1149.8606    -1153.194   -3406.1421 
 6278000    250.20183   -4854.0133   -4353.5787   -4854.0133            0    3622.7523    18.316002    22.782058    19.424197    8105.2551    2214.7325    4854.2133    3799.3111   -568.25413   -553.15243   -2225.7098   -3925.3447 
 6279000    253.11906   -4843.7781   -4337.5087   -4843.7781            0    6207.8318    18.045018    22.853179    19.407853    8003.5275    5905.5548    7152.1057    5565.8349    129.29913    375.64417    1016.7308   -3612.9105 
 6280000    260.45374   -4831.5933   -4310.6537   -4831.5933            0    6035.5694    18.154068    22.989471    19.245301    8032.0733     6252.988    5498.0975    6355.6225    2374.6798   -177.74941   -277.09051   -3603.6498 
 6281000    258.10461   -4832.0763   -4315.8352   -4832.0763            0    5016.1467     18.09797    23.052387    19.387797    8088.6163    4881.4323    5431.0929    4735.9148    195.52044    -145.7039    -50.64082   -3724.1096 
 6282000     253.4651   -4827.1783   -4320.2168   -4827.1783            0    6258.3281     18.13634    22.838103    19.331769     8007.211    4943.0779    7025.7497    6806.1567    1101.5838    114.31582    710.52304   -3589.3883 
 6283000    261.56417   -4853.1027    -4329.942   -4853.1027            0    5283.6222    18.141434    22.833604    19.442145     8053.604    4496.5807    6173.6102    5180.6756   -9.0287589   -251.66557   -1744.8224   -3709.3618 
 6284000    242.28594   -4854.8216   -4370.2198   -4854.8216            0    4863.6473    18.076999    22.742541    19.558794    8040.9507    6938.8834    4698.6432    2953.4153   -1612.5889   -296.81965   -1067.1193   -3799.8647 
 6285000    249.74947   -4867.6567   -4368.1269   -4867.6567            0    3627.5401    18.309826    22.604524    19.498859    8070.2832    2206.4352    4990.6327    3685.5526    389.98034   -32.638933   -1052.7386    -3941.177 
 6286000     263.3806   -4900.0759   -4373.2822   -4900.0759            0     7048.539    18.036325      22.6589    19.445635     7947.106    6632.0871    7982.6986    6530.8312    417.09721    839.42723   -470.28239   -3556.3537 
 6287000    257.52693   -4840.2413   -4325.1556   -4840.2413            0    5955.4376     18.19478    22.674375    19.483711    8038.1075    5464.1401    5870.2911    6531.8816    859.15654    92.266579    12.693566   -3627.0143 
 6288000    246.21992   -4842.7682    -4350.298   -4842.7682            0    5318.6611    18.178402    22.771223    19.474762      8061.47    4513.9553    5444.9233    5997.1047    718.18958   -648.31992    287.93449   -3724.9922 
 6289000    249.05583    -4841.294   -4343.1516    -4841.294            0    5981.4796     18.19155    22.703916    19.482384     8046.603    5484.4047    7077.6047    5382.4294    325.77403   -123.57675   -447.09979   -3641.2163 
 6290000    243.77023   -4808.6692   -4321.0986   -4808.6692            0    6089.0732    18.174688    22.606068    19.602821    8053.9805    6811.3632    6155.9952    5299.8612    429.81672   -442.18892   -594.77956   -3605.8819 
 6291000     251.4708   -4832.9931   -4330.0204   -4832.9931            0    5197.5642    18.131026    22.948451    19.400211    8072.0197    5284.6468    6149.7855    4158.2603    1043.0097   -100.37758    992.13563   -3718.1521 
 6292000    262.62438   -4862.9431   -4337.6619   -4862.9431            0    4990.7473    18.054578    22.927062    19.430461    8043.0144    5114.8324    5341.6041    4515.8055     995.2448   -1263.6485    799.60202   -3752.2516 
 6293000    252.75996   -4820.2151   -4314.6639   -4820.2151            0    5973.6596    17.898338    23.013167    19.449305    8011.1189    6268.9214    5983.9747    5668.0827   -985.55396    562.09887   -1445.9334   -3616.7377 
 6294000    243.24327   -4856.6152   -4370.0986   -4856.6152            0    4865.7456    18.158495    22.999268    19.252176    8040.3264    3693.1541    5388.0569    5516.0259   -811.85763   -580.86044   -2.1868044   -3799.5417 
 6295000    243.07185    -4859.229   -4373.0552    -4859.229            0    4937.1081    17.983317    22.965421    19.508916    8057.0739     6708.463    3448.7399    4654.1215    442.09105   -1018.0099   -26.065194   -3792.9245 
 6296000    249.59665   -4860.7613   -4361.5372   -4860.7613            0    4633.0328    18.081328    22.944091    19.412079    8053.2881    4516.7712    4644.2202     4738.107   -1644.0201    1065.6966   -2199.4467   -3817.3924 
 6297000    254.89959    -4851.076   -4341.2454    -4851.076            0    3888.3578    18.135575    22.926138    19.417756    8073.4894    2880.2287    4011.8263    4773.0184   -255.61667    170.74769   -155.59335   -3883.4163 
 6298000    241.07223   -4848.9485   -4366.7742   -4848.9485            0    5320.9347    18.177231    22.932272    19.249113    8023.9009    4736.0727    5278.8032    5947.9284   -548.61817   -157.67884   -1760.1417   -3744.1165 
 6299000    251.48756   -4817.8622    -4314.856   -4817.8622            0    8029.8453    17.983348    22.962152    19.350892    7990.6871     8301.388    7648.6878    8139.4601    772.83217    774.27422    71.893172   -3379.0901 
 6300000    244.27167   -4852.2179   -4363.6444   -4852.2179            0     5437.932    17.991717     23.18798    19.311313    8056.5173    4323.8636    5298.7057    6691.2266    31.167891    583.66662     995.0232   -3724.7089 
 6301000    260.02708   -4792.7538   -4272.6675   -4792.7538            0    5722.1196    17.837215    23.243457    19.434108    8057.3528    6238.1011     5373.529    5554.7288    105.71737   -1432.7084   -716.71686   -3600.2714 
 6302000    252.99853   -4864.9248   -4358.8964   -4864.9248            0    4620.3693    17.926814    23.161234    19.343304    8031.4774    4959.2401    4139.1917    4762.6763   -659.43693   -768.91911    100.44191   -3817.7086 
 6303000     248.4786   -4869.7115   -4372.7236   -4869.7115            0    6466.1964    18.145034    22.850655    19.289739    7998.0258    5546.4614     7084.734    6767.3939   -603.39896     339.1968   -255.73286    -3618.487 
 6304000    252.39765   -4810.1337   -4305.3072   -4810.1337            0    4386.5728    17.981211    22.750344    19.749989    8079.3007    5886.2367    4463.1076     2810.374    196.07546    28.252688   -198.46481   -3788.4447 
 6305000    252.48958   -4828.5307   -4323.5204   -4828.5307            0    4609.8635    18.410435     22.70075    19.355399    8089.2153    2972.5465    5511.9015    5345.1423   -646.95088    990.08936    330.89251   -3779.6814 
 6306000    259.77858   -4806.2421   -4286.6528   -4806.2421            0    7604.9609    18.001877    22.897952    19.449641    8017.2608    7243.2587    8131.3701     7440.254   -197.99603    1999.9246   -1348.8335    -3397.454 
 6307000    241.45181   -4855.2409   -4372.3074   -4855.2409            0    5713.1643    18.063815    22.972931    19.356866    8032.6883    5900.9865    5698.0608    5540.4456     237.0453    88.465425    891.12414   -3703.0187 
 6308000    242.89769   -4822.7662   -4336.9409   -4822.7662            0    5332.1918    18.060826    23.025458    19.364302    8052.8154    4118.2439    5574.1251    6304.2065    68.442533    184.63791    1701.0011   -3710.7173 
 6309000    247.01981   -4841.7875   -4347.7173   -4841.7875            0    4339.7231    17.945206    23.103772    19.442753    8061.0031    4712.0491    3374.0594    4933.0608    97.256281   -1329.8231   -1085.7886   -3837.5332 
 6310000     245.5562   -4833.9228     -4342.78   -4833.9228            0    5755.1333    18.044491     23.02567    19.335652    8033.7023    4444.1385    6937.6823    5883.5792   -142.99231    229.11458    2273.0346   -3668.4896 
 6311000    251.85651   -4809.8952    -4306.151   -4809.8952            0    6328.2182    18.034256    23.186162    19.241674    8045.8133    7328.0611    5130.9108    6525.6829    106.56177    190.92603     -1230.82   -3563.5983 
 6312000    272.77116   -4832.0529   -4286.4769   -4832.0529            0    5773.3208    18.016127    23.128758    19.354202    8064.7147    6364.5756    4890.6367    6064.7502   -368.39205    660.62921    1262.9669   -3607.4443 
 6313000    264.77838   -4837.3448   -4307.7553   -4837.3448            0    5426.6627    18.087427    22.987057    19.347498    8044.2392    5294.8306    5219.4224     5765.735   -24.069334   -558.05152   -332.41397   -3671.1156 
 6314000     246.8869   -4830.9101   -4337.1058   -4830.9101            0    4145.4465    18.140615    22.722149    19.539076    8053.8848    4253.2649    3852.2898    4330.7847   -989.99905   -1081.2483    857.92293   -3850.1914 
 6315000    253.67203   -4860.1083   -4352.7329   -4860.1083            0    5940.4132    18.129085    22.474687    19.658441    8009.7439    4888.6449    7670.8744    5261.7202   -141.66423   -79.508678    124.33017   -3658.8101 
 6316000    243.08713   -4783.4346   -4297.2303   -4783.4346            0    6875.9399    18.357053    22.609331    19.462833    8077.8678    6896.9027    7372.6226    6358.2944   -557.23588    -1060.626   -1142.0638   -3487.1936 
 6317000    249.75726   -4849.5928   -4350.0475   -4849.5928            0     4590.602    18.333576    22.592618    19.512913    8082.3167    2679.9318    5812.9233    5278.9509   -1038.4446    74.041537    27.882758   -3808.9427 
 6318000    243.17343    -4808.379   -4322.0021    -4808.379            0    6851.4015    18.146452    22.626129    19.538023     8021.999    6823.8162    7823.2353     5907.153   -865.67482   -727.30392    409.22799   -3520.4386 
 6319000    242.93944   -4850.8511   -4364.9422   -4850.8511            0    6030.7228    18.190028    22.582281    19.499029    8009.6614    5179.0942    6636.0126    6277.0617    269.84875    -515.0255    907.51016   -3660.4772 
 6320000    241.50121   -4806.4943   -4323.4621   -4806.4943            0    4034.4784    18.270147    22.557908    19.701011    8119.5018    2459.1439    5655.2021    3989.0893   -1382.4146   -71.031338    -1329.879   -3845.7209 
 6321000    247.46334   -4827.7589   -4332.8016   -4827.7589            0     5032.747    18.171117    22.765898     19.51592    8073.3809    4369.4955    6093.0219    4635.7235    676.50461   -149.11047    1521.4412    -3740.236 
 6322000     269.7795   -4806.9557   -4267.3634   -4806.9557            0    6462.9629    18.115407     22.88797    19.392671    8040.6839    4958.3874    7672.5289    6757.9723    117.72875    1248.5078     193.1658   -3509.4832 
 6323000    237.79828   -4847.0872   -4371.4613   -4847.0872            0    4282.6391    18.165036    22.814174     19.42584    8050.4623     3792.033    4588.6265    4467.2577   -1548.3531   -300.11744    69.631819   -3868.6463 
 6324000    237.19788   -4843.6691   -4369.2441   -4843.6691            0    4418.9173    18.196498    22.902911    19.419588    8093.1667    5452.9721    4001.8725    3801.9073   -1147.0808    809.53271    2072.7228   -3847.6769 
 6325000    251.50901   -4842.9708   -4339.9217   -4842.9708            0    8500.4546    17.977636    22.889042    19.356132    7964.8713    8921.6397     8884.041    7695.6832   -1269.6446   -103.73111    1096.0207   -3352.5134 
 6326000    252.52319   -4822.8965   -4317.8189   -4822.8965            0    4449.8712    18.319233    22.750175    19.470092    8114.4678    2702.8361    6121.1522    4525.6255    -129.5496    498.55193   -846.82406   -3791.2158 
 6327000     236.3716   -4847.9008   -4375.1284   -4847.9008            0    4730.8886     18.11583    22.765116      19.4985    8041.3564    4382.2697    5483.0457    4327.3503   -1353.9567    -455.7693   -988.81241   -3820.3137 
 6328000    266.29286   -4819.4809   -4286.8622   -4819.4809            0    3955.0825    17.989729    23.114907    19.536584    8123.9157    3420.6199    3826.7844    4617.8434     103.6584   -13.829859     1425.481   -3818.2681 
 6329000    253.43879   -4860.8979    -4353.989   -4860.8979            0    6101.3662    17.899494    23.127426    19.313333    7995.1254    6993.3209    5009.5021    6301.2757    996.48537   -687.17397     906.0475   -3642.5654 
 6330000    258.48048     -4822.94   -4305.9471     -4822.94            0    4614.7612    17.796752     23.50563    19.280219    8065.3759     5476.726    3322.9279    5044.6299    692.07365    838.77066    603.74621   -3763.1347 
 6331000    240.90221   -4809.5019   -4327.6677   -4809.5019            0    5837.7045    18.039004    23.268452    19.220304    8067.5244    6919.7382    4484.2894     6109.086    142.70837     537.4573    811.25235   -3640.8234 
 6332000    240.21793   -4843.5944   -4363.1288   -4843.5944            0      5622.43    17.993601    23.102407    19.330312    8035.5235    5547.2992    5658.1967     5661.794   -186.30819    1900.0221    1122.7613    -3704.237 
 6333000    253.74469   -4812.9548    -4305.434   -4812.9548            0    5239.8283     17.92108    23.104392    19.390445    8028.7237    5660.6535    4662.3597    5396.4717    427.05441    -666.9153    1369.4448   -3691.8989 
 6334000    258.85286   -4816.3196   -4298.5819   -4816.3196            0    3178.1119    18.041779    23.134567    19.424936    8107.7501     2876.677    3576.0111    3081.6475    212.98047   -206.02818    1368.8964   -3922.7917 
 6335000    245.59824   -4843.5624   -4352.3356   -4843.5624            0    4767.7706    17.980529    23.065322    19.461501    8071.2037    6538.8982    3445.8275    4318.5862   -987.39815   -332.35853   -562.50432   -3791.1202 
 6336000     257.2852   -4864.1264   -4349.5242   -4864.1264            0    5605.6847    18.153549    22.915944    19.251957     8008.924    4885.4538    5694.7264     6236.874   -480.86772    667.88391   -404.17531   -3694.7693 
 6337000     245.4356   -4837.0339   -4346.1324   -4837.0339            0    3202.6428    18.117487    23.065748    19.426067     8118.025    1879.6693    4167.6267    3560.6324    1499.5443    2117.6233    1548.6024   -3966.9617 
 6338000    258.91727   -4851.9119   -4334.0454   -4851.9119            0    3618.2829    17.987451    23.194008    19.390099    8089.5706    3884.3392    3381.1202    3589.3893   -130.98245    648.00646   -1082.7448   -3907.1673 
 6339000    238.57507   -4858.9873   -4381.8077   -4858.9873            0    5924.3336    17.972986    23.111897    19.272204    8005.4772    5195.9343    5704.0868    6872.9796    1077.5787   -235.80375    309.86152   -3690.1318 
 6340000    251.23324   -4849.7815    -4347.284   -4849.7815            0    5996.4122    17.776198     23.25643    19.330412    7991.4027    5211.7928    5199.8823    7577.5616   -1193.4377    471.30577    1059.7018   -3648.4237 
 6341000    249.06853   -4850.6833   -4352.5155   -4850.6833            0    5128.9326    17.894135    23.171563     19.37661    8034.2222    7478.9466     3753.943    4153.9084   -1214.6376    926.83787   -1782.8428   -3751.5539 
 6342000    255.49087   -4856.7082   -4345.6949   -4856.7082            0    6205.8066    18.071296    23.047079    19.225219     8007.123    5385.1164    5065.5749    8166.7285    1114.6391   -66.127468    1924.9232   -3621.0077 
 6343000    251.66481   -4811.1969   -4307.8362   -4811.1969            0    5831.6632    17.828076    22.915788    19.684444    8041.9696    7135.4989     5534.522    4824.9688    -905.8182    304.31923    2697.9754   -3623.8761 
 6344000    249.81219   -4835.5166   -4335.8614   -4835.5166            0    4896.4244    17.971239    22.866954    19.572635    8043.3253    4691.7216    5048.3862    4949.1655   -298.51982   -964.92725   -383.37967   -3761.4929 
 6345000    248.47546   -4874.5703   -4377.5887   -4874.5703            0    5218.3212    18.273663    22.710156    19.360368    8034.5093      3648.45    6286.1167     5720.397   -107.00687   -913.93366    2369.9032   -3766.1315 
 6346000    260.21647   -4841.9376   -4321.4725   -4841.9376            0    5613.1141    18.047879    22.806657    19.526843    8037.4788    4140.5977    6479.8785     6218.866   -325.43126    -186.6604    487.53559   -3663.5124 
 6347000    249.36017   -4834.4552    -4335.704   -4834.4552            0    7099.0253    18.159615    22.819096    19.364323    8024.3044    7012.7539    6922.5709     7361.751    38.359483   -86.391909    392.94207   -3504.9317 
 6348000    243.50079   -4833.0497    -4346.018   -4833.0497            0    3587.3936    18.074462    22.924195    19.585184    8114.9737    4580.3126    3975.1872    2206.6809   -722.15341    90.762678   -2201.0068   -3921.4551 
 6349000    249.92224   -4839.6777   -4339.8023   -4839.6777            0     6036.022    18.065217    22.981552     19.29712    8011.5222     4293.755    5849.9217    7964.3894    -1063.585    365.90389   -1337.9357   -3634.5545 
 6350000    250.07163   -4839.3581    -4339.184   -4839.3581            0    4058.4135    18.113803    23.002176    19.354323    8064.1123    2479.2079    4875.7438    4820.2887   -944.64627    636.77423   -720.68291   -3861.8869 
 6351000     233.6212   -4843.4394   -4376.1682   -4843.4394            0    4323.7779     18.04304    22.890513    19.534006    8067.8267     4444.349    4655.2198    3871.7649    1257.0718    479.47239   -503.11009   -3867.4282 
 6352000    245.95337   -4822.8167   -4330.8796   -4822.8167            0     5678.351    18.150897    22.834993    19.386142    8035.0829    5119.5092    5752.4374    6163.1064    1356.6362   -51.493292   -777.85813   -3665.4709 
 6353000    255.27934   -4828.2062    -4317.616   -4828.2062            0    5091.1335    18.174455    22.656953     19.57522    8060.6404     4508.643    5266.5675      5498.19    631.57972   -104.77717   -1687.0532   -3719.1218 
 6354000    256.72912   -4830.9379   -4317.4479   -4830.9379            0    2832.5761    18.329988    22.735929    19.512194    8131.6933    2406.6219    3583.6042    2507.5021    364.83248   -900.59004    339.52322   -3981.5259 
 6355000    257.89788   -4804.6251   -4288.7975   -4804.6251            0    5509.1753    18.053941    22.783041    19.539397    8037.0164    4827.1458    6295.6116    5404.7684    631.62817   -118.49703    1440.3927    -3643.058 
 6356000    245.74948   -4860.6406   -4369.1113   -4860.6406            0    3049.9899     18.26472    22.844598    19.453763    8117.0861    3191.1986    3655.5864    2303.1846   -66.109801    697.23523   -1832.7416   -4008.0554 
 6357000    249.55942   -4820.1238   -4320.9742   -4820.1238            0    8124.7356    18.094512     22.63832     19.49692    7986.5108    8443.8586    8184.0191    7746.3292    1014.2053    1483.4301   -524.68093   -3374.6451 
 6358000     253.4155   -4819.4431   -4312.5808   -4819.4431            0    4971.0411    18.229182    22.848734    19.391906     8076.995    4863.8235    5025.6973    5023.6026    -1115.061   -518.42358   -1030.9008   -3727.0186 
 6359000    249.50796   -4836.2476   -4337.2009   -4836.2476            0     7150.792    17.942254    22.903254     19.38483    7965.9247    6609.5686    7286.7705    7556.0369   -1250.3739   -1138.5005    -61.72306   -3506.4587 
 6360000    253.12998   -4815.7253   -4309.4341   -4815.7253            0     5482.278    18.036249    23.182288    19.282055    8062.2423    3515.5309    5978.2935    6953.0096   -44.840189    468.09255   -1493.7904   -3664.8304 
 6361000    258.89083   -4813.3885   -4295.5749   -4813.3885            0    7664.3207    18.085484    22.930107    19.275948    7993.7758    6190.5866    8353.3056    8449.0698   -1199.3682    24.656855   -220.69949   -3402.0606 
 6362000     253.8829   -4831.8946   -4324.0974   -4831.8946            0    5836.1259    17.939414    23.001531    19.494217    8043.9766    5754.7957    6852.9872    4900.5949    184.98901    1260.8632    666.92911   -3639.4431 
 6363000    253.07306   -4860.5632   -4354.3858   -4860.5632            0    5077.5534     18.03566    23.074338    19.293206    8029.0782    5379.5902    4323.6832    5529.3868   -1645.3624   -438.76429     -1487.36   -3759.8253 
 6364000    252.13523   -4824.9945   -4320.6929   -4824.9945            0    4538.8911    18.111744    22.735271    19.686536    8106.4314    5160.6049    5670.3436    2785.7248    1410.9007    291.39565    2369.9764   -3784.0871 
 6365000    244.12669   -4827.5717   -4339.2882   -4827.5717            0    5172.8496    18.342176    22.737325    19.368877    8077.8292    5421.8125     4752.526    5344.2103   -202.82372    48.248445    645.21482   -3729.8911 
 6366000    247.12729   -4859.9045   -4365.6193   -4859.9045            0    4580.2385    18.111008    22.884149    19.456263    8063.7454    4010.5714    5297.6335    4432.5104   -1077.2038   -360.97759    458.14331   -3826.9766 
 6367000     244.7144   -4859.9865   -4370.5274   -4859.9865            0    4814.1991    18.192843    22.721554    19.463512    8045.6255    2175.0328    6337.3456    5930.2191    697.51452   -740.23624   -19.224995   -3805.6428 
 6368000    251.68115   -4852.0645   -4348.6711   -4852.0645            0    7227.5658    17.993347    22.909883    19.304151    7957.6628    5030.8356    8010.6055    8641.2563   -1461.2505    980.41971   -1504.0744   -3509.8806 
 6369000     236.0619    -4832.357    -4360.204    -4832.357            0     4196.374    18.024968    23.058427    19.480449    8096.6086    4321.3331    3682.9618     4584.827    1973.3787   -35.614572    2008.6718   -3864.6931 
 6370000    245.98043   -4837.8163   -4345.8251   -4837.8163            0    6300.2665    18.020529    23.027373    19.299343    8008.5604    3949.7042    6094.3785    8856.7168   -516.54872   -895.66589   -1268.5588   -3609.9751 
 6371000    246.30498   -4849.7416   -4357.1013   -4849.7416            0    4964.2138    18.012789     22.98417    19.454244    8054.2325    5849.4266     4536.143    4507.0719   -82.088883   -528.88619     591.7082   -3773.9912 
 6372000    253.84327   -4818.4347   -4310.7168   -4818.4347            0    5624.0522    18.261349    22.989204    19.274538    8091.7185    4743.8379    5903.3844    6224.9343    844.77816    1728.7771   -1550.1039   -3647.0257 
 6373000    248.10422    -4832.248   -4336.0089    -4832.248            0    5723.0763    17.849335    23.047531     19.52679    8032.9913    6174.2293    5645.7691    5349.2305   -548.02509    238.10427   -1353.9154   -3665.5337 
 6374000    257.44862   -4827.8549   -4312.9259   -4827.8549            0    6799.0879    17.980426    23.168198    19.240057    8014.9089    6785.3098     7178.549    6433.4049    876.51492   -141.78534    874.68758   -3518.1858 
 6375000    253.18263   -4815.6573   -4309.2608   -4815.6573            0    2751.4414    17.990146    23.282051    19.419325    8133.7357    4050.4325     1126.587    3077.3046   -597.93074   -384.88226    781.65893   -3982.8787 
 6376000    254.73274   -4859.5756   -4350.0787   -4859.5756            0     4114.563    17.952574    23.462567    19.205596    8089.6561     6250.318    2132.1787    3961.1922   -153.07531    803.27851    179.43014   -3864.6452 
 6377000    251.35983   -4848.9157    -4346.165   -4848.9157            0    7140.4887    17.969228    23.045415     19.29291    7989.3544    7853.5024    6402.6636    7165.3002    919.56791   -556.18677   -271.85295     -3514.18 
 6378000    243.15204   -4843.8386   -4357.5045   -4843.8386            0    4720.0766    18.008281    23.226133    19.318036    8080.0143    4919.3056    4443.8946    4797.0297    1542.2752    1128.7958    1938.7885   -3801.2967 
 6379000    251.74566   -4787.4597   -4283.9373   -4787.4597            0    5241.7364    17.903727    23.106042    19.512119    8071.8564    5575.9026    4473.2917    5676.0149    1446.7752   -420.92106    1501.1085   -3666.8814 
 6380000    236.94783   -4843.2587   -4369.3338   -4843.2587            0    4722.9876    18.123546    23.030036     19.33835    8071.5549     4230.682    4913.2002    5025.0806     1141.697    164.44602    718.17038   -3813.3656 
 6381000    242.12022   -4855.7151   -4371.4448   -4855.7151            0    6044.7907    17.829306    22.988424    19.571522    8021.7337    6630.9307    6585.3347    4918.1068    1248.0242    99.552147     352.5687   -3664.2722 
 6382000    251.31147   -4806.0173   -4303.3633   -4806.0173            0    5665.2273    18.149449    23.156248    19.200851    8069.6021    5253.1357    5568.3453    6174.2009    199.93741    1031.8718    869.47882   -3636.6405 
 6383000    248.26311   -4809.3203   -4312.7634   -4809.3203            0    6316.4085    17.769532    23.251836    19.430499    8028.1822    7726.9333    5734.8165    5487.4757   -163.94912   -21.575781   -32.655375   -3573.2206 
 6384000    240.94028   -4847.7415   -4365.8312   -4847.7415            0    6087.0715     18.05391    23.191074    19.160681    8022.3773    5625.3184    5147.4446    7488.4515    1543.0491   -675.37056    2308.3786   -3653.6551 
 6385000    247.20584   -4845.8117   -4351.3695   -4845.8117            0      6212.76    17.816023     23.05062    19.498348    8007.3937    8090.0896    6383.9507    4164.2397    1805.3321   -733.73507   -358.09478   -3625.8457 
 6386000    249.95217    -4817.129   -4317.1938    -4817.129            0    5015.2913    18.131395    23.088777    19.260029    8062.8595    3785.0368    4801.1016    6459.7356    238.79556   -69.909575    1478.2373    -3727.453 
 6387000    248.06091   -4842.3125     -4346.16   -4842.3125            0    5995.3157    17.908141    22.871107    19.551609    8007.9289    6223.7923    6084.0818    5678.0731   -380.47659   -135.75835   -417.46645   -3645.9825 
 6388000    246.65374   -4832.1015   -4338.7635   -4832.1015            0      5030.73    18.190389    23.000744    19.215467    8039.6067    3771.1431      5537.45     5783.597    118.18579   -346.64232    379.76725   -3748.9134 
 6389000     240.7622    -4855.835   -4374.2808    -4855.835            0    5486.6284    17.915896    22.904872    19.536827    8017.1578     6469.974    4919.8056    5070.1057   -406.23019     -1018.88    106.17969   -3732.7732 
 6390000    252.29347   -4823.2162   -4318.5981   -4823.2162            0    4598.7149      18.2918    22.964088    19.239514    8081.6446    3587.1629    4306.1042    5902.8775   -1829.2068    572.79615   -1414.2799   -3776.5821 
 6391000    243.93462   -4826.7688   -4338.8695   -4826.7688            0    7007.3295     18.02291    22.724695    19.511673     7991.301    6472.7997     8639.244    5909.9447     1062.794    219.97096    1233.7975   -3522.2008 
 6392000    243.39699   -4822.6737   -4335.8497   -4822.6737            0    4765.4729    18.167072    22.959857    19.399272    8091.6961     4217.873     4716.772    5361.7738    447.88021   -59.184425    301.45614   -3773.4806 
 6393000     242.7882   -4829.8662   -4344.2598   -4829.8662            0    4727.3359    18.200893    22.780584     19.46031    8068.7697    2671.5659    6400.5962    5109.8457    1260.6607    578.94643    1073.5558   -3787.9719 
 6394000    252.78589   -4837.2667   -4331.6637   -4837.2667            0    5284.4821    18.140952    22.976001    19.296179    8042.7734    4381.7416     4139.594    7332.1107   -454.64569    123.82431   -1965.6965   -3711.8172 
 6395000    254.57861   -4854.1991   -4345.0104   -4854.1991            0    4129.1005    18.079347    22.992222    19.456046    8087.5737    3392.0325    4798.8509     4196.418   -1.3379341   -188.25744   -689.48451   -3857.9873 
 6396000    253.68456   -4851.5043   -4344.1038   -4851.5043            0    6141.4241    18.091947    22.795148    19.415699    8007.2016    5673.8147    7126.3202    5624.1375   -881.69166   -656.30124   -649.22947   -3626.9279 
 6397000    243.23988    -4848.888   -4362.3781    -4848.888            0    5757.1708    18.148004    22.794561    19.399292     8025.017    5100.2169     6892.634    5278.6615     190.7874    72.270647    1870.1828   -3688.5782 
 6398000    243.17725   -4843.4841   -4357.0995   -4843.4841            0    5831.4391    18.095631    22.899883    19.466823    8066.8146    4712.4344    6860.2602    5921.6226    864.15888     2250.305   -583.02947   -3671.0528 
 6399000    252.95837   -4806.7858   -4300.8378   -4806.7858            0    6638.3678    17.996704    23.017021    19.394806    8033.9205    7073.6131     6136.371    6705.1193   -74.132315    108.99633     467.1654   -3523.0436 
 6400000    246.61957   -4844.2306    -4350.961   -4844.2306            0    5019.9391    18.094976    22.865967    19.509653    8072.2968    4445.3696    6093.0516    4521.3961   -545.17072    307.42507   -468.87754   -3759.9828 
 6401000    258.81477    -4804.209   -4286.5474    -4804.209            0    4653.5401    18.119834    22.937598    19.461825    8088.8303    5229.5709    5334.1836    3396.8658    1538.5218    64.712095    1042.5164   -3737.5819 
 6402000    250.17296   -4824.5668     -4324.19   -4824.5668            0    6499.4218    17.973166    22.963847    19.364736    7992.4662    7434.5175    5936.1279    6127.6199    -1534.986    47.961865   -1897.9799   -3566.6049 
 6403000    248.65395    -4824.774   -4327.4354    -4824.774            0    5212.7343    17.975238    23.108347    19.403532    8059.8011    5245.8386    4351.6598    6040.7045   -152.20866   -1609.3349   -450.42561   -3714.7101 
 6404000    247.73035   -4838.8318   -4343.3405   -4838.8318            0    7339.6307    17.877722    23.079005    19.342564    7980.7428    7984.9995    6868.8508    7165.0419    658.30146    160.25602    280.45814   -3489.0739 
 6405000    247.05697   -4844.4034    -4350.259   -4844.4034            0    4788.7072    17.958363    23.167594    19.317304    8037.0042    6022.5869    3502.4339    4841.1008   -468.34884   -746.84228   -1504.4172   -3788.9676 
 6406000    241.41397   -4843.5365   -4360.6787   -4843.5365            0    5944.5069    18.030231      23.1251    19.260031    8030.4869    4904.0573    5724.0986    7205.3647    1112.4269    653.93894    1842.7772   -3664.4794 
 6407000     254.2212   -4848.2868    -4339.813   -4848.2868            0    5136.1427    17.903617    23.125188    19.368771    8019.1457    5063.0528    5394.9757    4950.3996   -1240.4723    46.002166    1065.0186   -3739.1358 
 6408000     253.6601   -4874.6935    -4367.342   -4874.6935            0     6469.569    17.977083     23.01989    19.322524    7996.2492    6469.0651    5579.9159    7359.7261   -11.178028   -82.187676   -984.05026   -3612.8797 
 6409000    241.32337   -4842.0804   -4359.4039   -4842.0804            0    5873.9963    18.086773    22.967701    19.316144    8024.1501    4057.0584    6532.8965     7032.034   -687.41922    112.39208   -569.39459   -3672.0053 
 6410000    253.75245   -4844.2075   -4336.6713   -4844.2075            0    3837.0242    18.155469    23.104424    19.302317    8096.7747    3978.5741       3439.8    4092.6985    817.12602    143.97319    1377.1861   -3883.5833 
 6411000    244.71315   -4849.0236   -4359.5671   -4849.0236            0    5020.2435    17.858858    23.268388    19.463584    8088.0305    6570.4283    4601.6082    3888.6939     370.3859   -335.28611    1315.7423   -3767.4011 
 6412000    239.90339   -4810.1306   -4330.2942   -4810.1306            0    4719.5581    17.899829    23.473188    19.138954    8041.5385    4112.3369    3886.6702    6159.6673    323.61308   -1666.2614    599.01776   -3776.7958 
 6413000     243.1558   -4826.5439   -4340.2023   -4826.5439            0    4871.5512    17.995282    23.144904    19.278726    8029.5713    5021.5463    5022.8383     4570.269    264.36807     1398.281    46.703349   -3769.7287 
 6414000     255.9989   -4864.4657   -4352.4363   -4864.4657            0    4440.2519    17.872835    23.340394    19.287002    8045.7469    4392.7016     4751.873     4176.181   -1186.4513    1023.4959    205.09344   -3831.4217 
 6415000    249.30384   -4848.1899   -4349.5514   -4848.1899            0    6279.5346    18.023883    23.078612    19.305595    8030.4748    6953.4971    5374.5372    6510.5693   -326.38796    780.76477    63.041413    -3614.116 
 6416000    257.77794   -4809.8879   -4294.3001   -4809.8879            0    4690.7619    18.088177    23.082994    19.341585    8075.6782    4232.1187    4613.7049     5226.462    433.02501     301.5385     869.1822   -3741.8434 
 6417000    249.19741   -4842.6524   -4344.2268   -4842.6524            0    5518.1284    18.140929    22.797803    19.410108     8027.503    5217.1727     6175.983    5161.2294   -1854.8331   -549.95211   -350.12857   -3698.2035 
 6418000    249.15919   -4813.4103   -4315.0611   -4813.4103            0    5034.4179    18.159578    23.001997    19.384551    8097.0544     6722.138    3605.0286    4776.0871   -472.45144   -705.89419    238.12396   -3720.5606 
 6419000    260.10972   -4823.0408   -4302.7893   -4823.0408            0    4385.5306    18.167097    22.976929    19.424347    8108.1903    4562.3799    4294.2597    4299.9521   -739.53873   -1262.1919    360.11091   -3784.2019 
 6420000    254.48252   -4831.9008   -4322.9043   -4831.9008            0    6183.7065    17.944485    22.823911    19.557956    8010.2216    4372.9667    7280.1204    6898.0323    415.23098    552.49453    2193.2105   -3600.5184 
 6421000    252.47015   -4831.0243   -4326.0528   -4831.0243            0    4993.2518    18.207038    22.906943    19.429912    8103.5865    4435.8789    5236.4434    5307.4332   -727.25802    835.80632   -828.89942   -3735.9379 
 6422000    246.63301   -4837.6858   -4344.3893   -4837.6858            0    6935.1116    18.002325    22.731053    19.521228    7988.3172     7449.743    6603.8893    6751.7027    501.67155    58.727238    2077.6277    -3536.439 
 6423000    254.37773   -4867.0263   -4358.2394   -4867.0263            0      4975.66    18.334773    22.701521    19.289645    8028.8758     4303.195    5284.7426    5339.0423   -960.89613   -49.181628    -954.8576   -3775.6248 
 6424000    250.44521     -4843.79   -4342.8687     -4843.79            0    4687.3755    17.994182    22.850841    19.601409    8059.7507    5124.7496    5152.1402    3785.2368    387.30683   -699.36009    786.22595   -3791.8996 
 6425000    242.53736   -4827.2894   -4342.1848   -4827.2894            0    4872.1025    18.204846     22.85912    19.330784    8044.4435    2667.7386    5673.6849     6274.884   -528.07749   -586.80474   -1452.7009   -3770.5899 
 6426000    254.37219   -4852.3803   -4343.6045   -4852.3803            0    5832.5732    18.124503    22.776997    19.460581     8033.751    6250.2013     5642.697    5604.8213    2461.3904     -476.625    1265.8292   -3660.2368 
 6427000    261.10782   -4828.0084   -4305.7605   -4828.0084            0    5511.9213    18.093338    22.829248    19.405256    8015.4827    5367.4082     4854.318    6314.0378   -1561.9223     -320.182    -1898.491   -3661.4301 
 6428000    260.39633   -4849.0574   -4328.2326   -4849.0574            0     6572.002    18.105198    22.705192    19.488049    8011.1861    7436.2176    6692.0146    5587.7737   -305.04571   -169.45922    218.90491   -3560.3932 
 6429000    253.35663   -4827.5624   -4320.8179   -4827.5624            0    4113.7187    18.135216     22.99481    19.414915     8096.327    5599.0129    2925.0238    3817.1194   -351.80533   -1592.0566   -702.33801   -3835.0838 
 6430000    243.62762   -4814.3228   -4327.0375   -4814.3228            0    4858.0897    17.987479    23.093228    19.429376    8070.7483    5491.8488    4133.9221    4948.4981   -679.42557    477.29093   -333.15881   -3755.2229 
 6431000    244.35983   -4841.7331   -4352.9832   -4841.7331            0    6798.8748    17.996469    23.043114    19.323845    8013.4963    6181.5718    7900.0094    6315.0433    1687.5225    1063.8551     893.2937   -3558.4081 
 6432000    251.07056   -4825.6351    -4323.463   -4825.6351            0    6150.3887    17.892703    23.210466    19.295657    8013.4471    9485.0211    4083.3842    4882.7609    386.32595   -956.18997    -68.78616     -3604.68 
 6433000    246.91828    -4856.521   -4362.6539    -4856.521            0    6108.5195    18.025783    23.177953    19.161464    8005.6743    5045.2255    6293.4081    6986.9249    58.664907   -264.84643    15.676669   -3649.4565 
 6434000    241.37939   -4849.1387   -4366.3501   -4849.1387            0    5735.9301    18.024021    23.020005    19.360667    8032.9932    4739.7367    6111.1246    6356.9289    688.72331   -67.952571    2094.9122   -3694.3689 
 6435000    260.51553   -4834.8157   -4313.7525   -4834.8157            0     4852.034    18.191162    22.870624    19.448474     8091.406    5837.0778    5260.2821    3458.7422   -945.22201   -172.55609   -82.562943   -3741.1889 
 6436000    259.60767   -4833.6994   -4314.4519   -4833.6994            0    5382.5145    18.034076    22.789812    19.544127     8032.503    5647.1305    5431.0036    5069.4093   -100.07354   -1217.4408   -162.05349   -3683.9129 
 6437000    247.02857   -4839.5383   -4345.4507   -4839.5383            0    4129.8184    18.000384     22.69425    19.731425      8060.39    4362.6497    5178.1251    2848.6805    366.66308   -263.78978   -163.79713   -3859.9801 
 6438000    252.99865   -4817.3246   -4311.2961   -4817.3246            0    7544.7967    18.086882    22.799493    19.413718    8005.6685    8032.0161    8973.4303    5628.9436    1024.4204    1820.4707    1653.5578   -3430.4074 
 6439000     249.8918   -4868.2427   -4368.4282   -4868.2427            0    4124.1355     18.08775    22.957566    19.468058    8084.1248    4413.8043    4301.4968    3657.1055    693.91397    571.81432    764.75465   -3882.1981 
 6440000    265.84083   -4827.1903   -4295.4758   -4827.1903            0    4034.1785    18.143743    23.194598    19.274327    8111.3463    3147.3271    4300.6123    4654.5962   -1612.2857    217.23368    497.07629   -3818.2499 
 6441000    254.04777   -4834.6705   -4326.5435   -4834.6705            0    7397.3129    17.880327     23.17989    19.350672    8020.1574    9040.9625    6108.5118    7042.4644    415.63033   -1468.3809    324.16842   -3461.3111 
 6442000    247.90966   -4810.5693   -4314.7193   -4810.5693            0     6199.047    17.905272    23.224598    19.324386    8035.9059    5903.5676    5754.9705     6938.603   -886.94202    -845.0764    627.14874   -3588.2193 
 6443000    253.89555   -4840.4112   -4332.5888   -4840.4112            0    6048.0596    17.928271    23.252503     19.20072    8004.3421    4949.2531    6649.9557    6544.9701    386.90566    142.18613    590.11091   -3626.5678 
 6444000     255.2415   -4834.8439   -4324.3293   -4834.8439            0    6127.0883    17.993968    22.990154     19.41963    8033.5918    7100.9955    6708.5641    4571.7054   -140.97879    -347.1997   -1252.5981   -3606.4693 
 6445000     237.8193   -4810.1887   -4334.5208   -4810.1887            0    6293.2102    17.973163    23.182836    19.338892    8057.9147    6483.8094    6340.1211    6055.7002    898.83384    146.43462    42.714307   -3594.9652 
 6446000     249.2665    -4844.768   -4346.2042    -4844.768            0    2916.3009    17.928352    23.343253    19.387121    8113.6277    4332.5905     2003.296    2413.0161    170.67087   -1673.2481   -895.85134   -4001.1214 
 6447000    243.98452   -4828.5101   -4340.5109   -4828.5101            0    6322.6134    17.964475     23.11252    19.391415    8051.3987    5924.4685    5423.5842    7619.7874    282.48366   -271.94087   -774.87617   -3598.1009 
 6448000    244.88203   -4826.3902   -4336.5959   -4826.3902            0     3927.491    18.208662    22.972731    19.307771    8076.4927    3905.6647    4176.1794     3700.629   -304.38571   -1586.8839   -1049.5068   -3873.9871 
 6449000     237.2785   -4785.7847   -4311.1984   -4785.7847            0    6175.3713    18.061917    22.899753    19.527921    8077.0105    7263.9014    5477.8297    5784.3829    108.33918    715.46759   -956.35774    -3583.771 
 6450000    255.88939   -4850.8705   -4339.0601   -4850.8705            0    6367.9473    18.103049    22.841391    19.268693    7967.5818    5551.0453    6029.7819    7523.0148    1314.9586   -634.39762    55.074454    -3599.111 
 6451000    262.02624   -4864.0653   -4339.9805   -4864.0653            0    4959.9555    18.051125    22.799865    19.575435     8056.529    5469.0609    4989.0108    4421.7948    550.92217   -1355.8959    357.66333   -3757.2045 
 6452000    246.45204   -4836.5751   -4343.6405   -4836.5751            0    5589.9395    18.231414    22.603597    19.513365    8041.3709    6811.1124    6135.1855    3823.5206    1488.2964    190.43727     2023.575   -3688.0796 
 6453000    244.12654   -4853.7667   -4365.4834   -4853.7667            0     6148.566    18.162408    22.792419    19.388391    8026.1194     5027.923    6819.8074    6597.9677   -1990.9264   -617.26851   -2635.0813   -3645.7771 
 6454000    237.10918   -4849.8889   -4375.6412   -4849.8889            0    5725.3542    18.151898    22.717006    19.466001     8026.937    6578.1672     5362.685    5235.2102    1165.7133    -241.3599    2119.0013   -3705.4047 
 6455000    244.22225   -4865.3343   -4376.8597   -4865.3343            0    6473.0027    18.269536    22.532272    19.449381    8006.4181    5348.1846    7090.7689    6980.0548   -328.02042   -237.56552   -492.46229   -3621.0369 
 6456000    239.76785   -4834.7683   -4355.2029   -4834.7683            0    6474.9587    18.042772    22.885139    19.395709    8008.7086    6488.2462    6881.6067    6055.0234    1566.0918    1179.3107   -454.88343   -3598.9355 
 6457000    249.65007   -4844.7648   -4345.4339   -4844.7648            0    5185.1465    18.061331    23.091281    19.343404    8067.3461    4102.9163    6008.1779    5444.3451     1118.997   -781.31714    1034.9421   -3735.3808 
 6458000    255.46232   -4829.1926   -4318.2364   -4829.1926            0    7914.5089     17.85498    22.991575    19.399959    7963.9567    11182.083    6095.3814    6466.0622   -849.39797   -1480.3704    827.78347   -3398.9968 
 6459000    243.73941   -4836.6023   -4349.0933   -4836.6023            0    4339.4134    18.254138    22.977594    19.207954    8056.5108    2975.8533    3615.8926    6426.4944    939.51136   -487.95677    765.62237   -3839.2298 
 6460000    255.47954   -4835.0457    -4324.055   -4835.0457            0     6431.803    17.884077    23.078656    19.409429    8011.0567    7436.5397    5504.5452     6354.324   -399.59246    554.51232    108.98659   -3572.6079 
 6461000    255.85241   -4852.9065     -4341.17   -4852.9065            0    5981.1569     18.15554    23.128048    19.144505    8038.8199    7072.8534    4251.3508    6619.2663    601.81785   -169.16127   -380.96795   -3639.9515 
 6462000     249.1858   -4836.8257   -4338.4233   -4836.8257            0    6812.9621    17.997998    23.058722    19.305992    8012.1958    8307.3033    4664.8707    7466.7123      1292.92   -822.02393   -942.20442    -3542.331 
 6463000    247.57707   -4839.1444   -4343.9597   -4839.1444            0    6132.7724    18.014803    23.035786    19.324521    8019.3888    5970.1553    6393.3842    6034.7775    1599.1827    1047.9233      2372.83    -3626.704 
 6464000    252.06805    -4843.853   -4339.6858    -4843.853            0    4665.0926    18.188331    23.061505     19.26849    8082.1735    3947.2285    4291.3763     5756.673    318.58012   -347.58344   -651.56339   -3789.8103 
 6465000    240.05415   -4878.5673   -4398.4294   -4878.5673            0    4590.2493    18.063865     22.86216    19.498673    8052.5419    5570.1192    4676.0343    3524.5944    841.61961    262.12532   -163.00288   -3859.3594 
 6466000     247.1448   -4840.1841    -4345.864   -4840.1841            0    6417.9467     18.23305    22.681975    19.390632    8019.2202    6644.7543    6198.7724    6410.3135    515.44274    1128.7923   -987.28706   -3595.2716 
 6467000    247.41329   -4870.3376   -4375.4805   -4870.3376            0    6380.0148    18.034773    22.791247    19.481682    8007.6525    4918.1364    7589.1978    6632.7101     2508.021     1418.045    1824.7956   -3630.4007 
 6468000    243.51963   -4807.2346   -4320.1653   -4807.2346            0    5091.7286    18.135758    22.939707    19.386003    8065.1391    4581.6925    5520.9589    5172.5344       387.63   -231.89094    613.16947   -3721.2671 
 6469000    258.86837   -4865.6209   -4347.8522   -4865.6209            0    4719.3561    17.987722    23.025491    19.416909    8042.0207    5065.8397    4574.7139    4517.5146   -722.71817   -542.03841   -774.63832   -3794.3443 
 6470000    254.42483   -4880.9882   -4372.1071   -4880.9882            0    6428.0012    17.889653    23.038872     19.32232    7963.8378    6714.0482    7011.7625    5558.1928    1420.9728    443.44831    2443.6244   -3625.5308 
 6471000     249.7341   -4855.6661    -4356.167   -4855.6661            0    4230.6323    18.041077    23.150864    19.344071    8079.3707    3150.3433    4311.0052    5230.5483   -307.53907   -220.80562   -143.71967   -3857.6744 
 6472000     240.6902   -4870.0969   -4388.6867   -4870.0969            0    4352.3981    18.122571    22.986429    19.330338    8052.5007    5419.4541    4310.4737    3327.2665    523.23143    795.82609    781.65796   -3877.5521 
 6473000    237.14024   -4847.7938    -4373.484   -4847.7938            0    5617.2481    17.938935    22.991648    19.442673    8019.0464    7000.4264     5327.014    4524.3038    81.262391    267.21456    408.22869   -3716.5493 
 6474000    250.25358   -4841.7765   -4341.2385   -4841.7765            0    4166.4916    18.088939    22.977652     19.39275    8060.4286    4048.9447    3986.1074    4464.4226     967.4762   -110.76233   -916.14194   -3851.4545 
 6475000     248.5375   -4865.4035   -4368.2978   -4865.4035            0     6527.969    18.116143    22.711983    19.426285    7993.0136    6517.7228    6589.7506    6476.4335   -215.69278    49.711487    56.546128   -3607.3331 
 6476000    249.04094   -4843.0571   -4344.9445   -4843.0571            0     5841.728    18.215258    22.676406    19.487082    8049.2676    5422.4911    6812.9963    5289.6964   -97.058513   -316.41782    718.78734   -3659.1822 
 6477000    265.51324   -4813.6452   -4282.5859   -4813.6452            0    5195.2545    18.249599    22.984893    19.313102    8101.1716    3943.5089     5432.307    6209.9476   -1827.0938   -455.38121   -412.47379   -3668.7807 
 6478000    261.53337   -4842.9199   -4319.8208   -4842.9199            0    5722.0875    17.995695    22.883599    19.547762    8049.8911    7098.2488    5195.0972    4872.9166   -199.34535    823.99399    1.6324847   -3648.0512 
 6479000    258.91347   -4847.2856   -4329.4267   -4847.2856            0    2768.9567    18.435846    23.041937    19.156165    8137.4928    2587.5072    2565.0468    3154.3162   -1236.7613    -500.9266   -1870.3694   -4000.8153 
 6480000    263.77946   -4824.8518   -4297.2603   -4824.8518            0    5144.0193    17.910903    23.147558    19.423713    8052.9487    6106.3056    4831.9184    4493.8338    667.88725    411.14355    1297.3623   -3693.1261 
 6481000    252.00222   -4821.6306    -4317.595   -4821.6306            0     5661.898    18.004883    23.165045    19.307414    8052.8119    4135.8703    6311.6902    6538.1334   -793.21575    106.33469    565.96231   -3652.6504 
 6482000    256.07457   -4852.9687   -4340.7879   -4852.9687            0    5281.8657    17.949643    23.169345    19.366341    8054.1023    6752.1095    4785.7127    4307.7749     317.3352   -1056.2515    1290.6188   -3720.3756 
 6483000    251.64744   -4861.5265   -4358.2005   -4861.5265            0    4392.4797     18.08572    23.144117    19.283581    8071.6832    4920.6022    4413.0604    3843.7765    294.39827    1490.9335    2329.0441     -3841.13 
 6484000    262.54707   -4836.7487   -4311.6222   -4836.7487            0    6764.2048    17.984486     23.02058     19.35353    8012.6189    6370.3966    6152.9635    7769.2543    94.229574   -361.56873    311.87128   -3521.1854 
 6485000    249.08432   -4869.2441   -4371.0447   -4869.2441            0     4555.995    18.104292     23.10429    19.266718    8059.0138    4054.6229    3654.4514    5958.9106   -168.68253   -707.50464   -729.42182   -3835.5675 
 6486000    246.08518    -4841.238   -4349.0373    -4841.238            0    5057.9313    17.943928    22.934882    19.480624    8017.0926    7118.5413    4795.7071    3259.5455     631.3079    108.60824    2752.2483   -3757.6585 
 6487000    245.79369   -4845.9335   -4354.3157   -4845.9335            0    5912.7574    18.177095    22.813772    19.381558    8037.3016    4711.3541    6398.4577    6628.4603   -278.94153   -1184.6159     760.4952   -3661.2471 
 6488000    257.05612   -4835.6419   -4321.4979   -4835.6419            0    6262.4116     18.06078    22.872321     19.39128    8010.3818    6810.0463    5080.2086    6896.9798    281.55331   -1182.8476    89.987282   -3589.9029 
 6489000    254.24083   -4853.3436   -4344.8305   -4853.3436            0    5198.8316    18.161739    22.901914    19.366354    8055.2137    5820.7191    6161.1766    3614.5992    -135.1431    32.580937    123.02472   -3734.0872 
 6490000    251.39934   -4827.0092   -4324.1795   -4827.0092            0    5546.1905    18.089892    22.887289    19.442187    8049.6212    5028.6363    4811.3291    6798.6062    -1628.484   -837.19614    1813.4177   -3673.0818 
 6491000    254.88117   -4869.6908    -4359.897   -4869.6908            0    6536.5213    18.029607    22.947178    19.327699    7996.4221    5860.6894    6728.9107    7019.9637    242.98274   -711.18466    1234.2246   -3597.6104 
 6492000    243.23511   -4840.3617   -4353.8615   -4840.3617            0    4607.6447     18.06984    22.996654    19.455129    8084.4986    4060.9985    4463.1141    5298.8215   -1220.1725    -122.5332   -938.17631   -3810.6012 
 6493000    251.06863   -4812.5932   -4310.4249   -4812.5932            0    4828.9503    18.199667    23.017188    19.222102    8052.2376    3409.9097    4260.1926    6816.7486   -224.28439    419.51635    1166.7298   -3743.3437 
 6494000      247.284   -4817.4319   -4322.8333   -4817.4319            0    3552.9616    17.953024    22.945926    19.600792    8074.5223    3599.5404    4391.0198    2668.3245    151.77892      578.433    2139.3696   -3904.4414 
 6495000    265.93359    -4832.911    -4301.011    -4832.911            0    5698.3309     18.14456    22.893381    19.341454     8034.253    4884.6719    6353.9061    5856.4145    72.331307   -214.04055    485.55164   -3633.3299 
 6496000    238.49325   -4827.6936   -4350.6776   -4827.6936            0    4340.7111    18.059784    22.867961      19.5562    8076.5232     5341.474    3821.1923    3859.4671    -939.7564   -741.55621    1218.2922   -3839.3948 
 6497000    245.68088    -4830.938   -4339.5459    -4830.938            0    5784.2817    18.130806    22.923372    19.262729    8005.9603    4928.3052    5760.7982    6663.7416   -196.59397    254.99749   -187.29883   -3664.1806 
 6498000    253.48745   -4822.4936   -4315.4874   -4822.4936            0    4361.2065    18.041634    22.976655    19.432883    8055.6376    4740.6136    4069.5083    4273.4976   -1377.4399    365.25976   -2424.1229   -3803.1189 
 6499000    252.04872   -4860.7303   -4356.6017   -4860.7303            0    4264.2615     18.05816    22.988869    19.480954    8087.2587    4324.4899    4944.2947    3523.9997    874.61685    942.71235    1390.1129   -3853.6561 
 6500000    251.42159   -4808.8071   -4305.9328   -4808.8071            0    5789.6801    17.997914    23.152572    19.330508     8054.984    6948.6157    4347.5688    6072.8559   -2001.6322    308.55711   -1162.2527   -3625.7978 
Loop time of 529.663 on 64 procs for 250000 steps with 1008 atoms

Performance: 81.561 ns/day, 0.294 hours/ns, 471.998 timesteps/s
99.1% CPU use with 64 MPI tasks x 1 OpenMP threads

MPI task timing breakdown:
Section |  min time  |  avg time  |  max time  |%varavg| %total
---------------------------------------------------------------
Pair    | 28.485     | 32.248     | 36.414     |  31.6 |  6.09
Bond    | 0.28513    | 0.29844    | 0.30824    |   0.7 |  0.06
Kspace  | 243.17     | 251.96     | 260.4      |  24.0 | 47.57
Neigh   | 4.5683     | 5.0107     | 5.4174     |  11.5 |  0.95
Comm    | 101.23     | 110.29     | 121.7      |  42.7 | 20.82
Output  | 1.1004     | 1.1017     | 1.1031     |   0.1 |  0.21
Modify  | 115.78     | 120.52     | 125.73     |  27.6 | 22.75
Other   |            | 8.23       |            |       |  1.55

Nlocal:        15.7500 ave          20 max          11 min
Histogram: 1 0 8 9 8 15 13 6 2 2
Nghost:        2475.05 ave        2511 max        2452 min
Histogram: 4 6 13 16 7 8 6 3 0 1
Neighs:        5190.36 ave        6630 max        3569 min
Histogram: 1 0 8 9 8 15 13 6 2 2

Total # of neighbors = 332183
Ave neighs/atom = 329.54663
Ave special neighs/atom = 2.0000000
Neighbor list builds = 9026
Dangerous builds = 0

unfix		3
unfix		2
unfix		1

write_data	data.final.${pid}
write_data	data.final.0
System init for write_data ...
PPPM initialization ...
  extracting TIP4P info from pair style
  using 12-bit tables for long-range coulomb (../kspace.cpp:340)
  G vector (1/distance) = 0.38255638
  grid = 24 30 32
  stencil order = 5
  estimated absolute RMS force accuracy = 0.0020278146
  estimated relative force accuracy = 6.1067036e-06
  using double precision FFTW3
  3d grid and FFT values/proc = 4080 384
Last active /omp style is kspace_style pppm/tip4p/omp
WARNING: Not all mixed pair coeffs generated from mixing. Use write_data with 'pair ij' option to store all pair coeffs. (../write_data.cpp:312)

write_restart   restart.lmp.${pid}
write_restart   restart.lmp.0
System init for write_restart ...
PPPM initialization ...
  extracting TIP4P info from pair style
  using 12-bit tables for long-range coulomb (../kspace.cpp:340)
  G vector (1/distance) = 0.38255638
  grid = 24 30 32
  stencil order = 5
  estimated absolute RMS force accuracy = 0.0020278146
  estimated relative force accuracy = 6.1067036e-06
  using double precision FFTW3
  3d grid and FFT values/proc = 4080 384
Last active /omp style is kspace_style pppm/tip4p/omp
Total wall time: 0:08:52
