LAMMPS (30 Jul 2021)
  using 1 OpenMP thread(s) per MPI task
package omp 0
using multi-threaded neighbor list subroutines
echo both

include		in.partitions
variable        pid world 0
include		in.temp
variable        temperature equal 262.76
variable	tempDamp equal 100.0
include		in.pressure
variable        pressure equal 7000.0
variable        pressureDamp equal 1000.0 # This is 1 ps
include		in.seed
variable        seed world 745823

units		real
atom_style	full

read_restart	restart.lmp.${pid}
read_restart	restart.lmp.0
Reading restart file ...
  restart file = 30 Jul 2021, LAMMPS = 30 Jul 2021
  restoring atom style full from restart
  orthogonal box = (-0.035153271 -0.0095752123 0.14745841) to (20.035154 20.009576 20.552540)
  4 by 4 by 4 MPI processor grid
  restoring pair style lj/cut/tip4p/long/omp from restart
  restoring bond style harmonic/omp from restart
  restoring angle style harmonic/omp from restart
  972 atoms
  648 bonds
  324 angles
Finding 1-2 1-3 1-4 neighbors ...
  special bond factors lj:    0        0        0       
  special bond factors coul:  0        0        0       
     2 = max # of 1-2 neighbors
     1 = max # of 1-3 neighbors
     1 = max # of 1-4 neighbors
     2 = max # of special neighbors
  special bonds CPU = 2.094 seconds
  read_restart CPU = 2.422 seconds
include 	in.setup
variable	out_freq equal 1000
variable	out_freq2 equal 10000
variable	out_freq3 equal 1000

timestep	2.0

neigh_modify    delay 7 every 1

include		in.tip4p
# This is TIP4P/Ice

# create groups ###
group ox type 2
324 atoms in group ox
group hy type 1
648 atoms in group hy

# set charges - beside manually ###
set group ox charge -1.1794
Setting atom values ...
  324 settings made for charge
set group hy charge 0.5897
Setting atom values ...
  648 settings made for charge

# ### TIP3P Potential Parameters ###
pair_style lj/cut/tip4p/long/omp 2 1 1 1 0.1577 8.5
pair_coeff 1 1*2 0.000 0.000
pair_coeff 2 2 0.21084 3.1668
bond_style  harmonic
bond_coeff  1 450 0.9572
angle_style harmonic
angle_coeff 1 55 104.52
kspace_style pppm/tip4p/omp 1.0e-5
pair_modify tail yes

thermo          ${out_freq}
thermo          1000
thermo_style    custom step temp pe etotal epair emol press lx ly lz vol pxx pyy pzz pxy pxz pyz enthalpy

restart 	${out_freq3} restart.lmp.${pid} restart2.lmp.${pid}
restart 	1000 restart.lmp.${pid} restart2.lmp.${pid}
restart 	1000 restart.lmp.0 restart2.lmp.${pid}
restart 	1000 restart.lmp.0 restart2.lmp.0


include         in.dump
dump            myDump all atom ${out_freq2} dump.water.${pid}
dump            myDump all atom 10000 dump.water.${pid}
dump            myDump all atom 10000 dump.water.0
dump            myDump2 all dcd ${out_freq2} dump.dcd
dump            myDump2 all dcd 10000 dump.dcd
dump_modify     myDump append yes
dump_modify     myDump2 append yes


variable natoms 	equal  "count(all)"                        # NUMBER ATOMS
variable H      	equal  "enthalpy/v_natoms"                 # ENTHALPY-per-atom
variable Vol      	equal  "vol/v_natoms"                 # volume-per-atom
fix AVG all 		ave/time ${out_freq} 1 ${out_freq} v_Vol v_H file vol_enthalpy.dat
fix AVG all 		ave/time 1000 1 ${out_freq} v_Vol v_H file vol_enthalpy.dat
fix AVG all 		ave/time 1000 1 1000 v_Vol v_H file vol_enthalpy.dat


timer           timeout 02:55:00 every 1000
New timer settings: style=normal  mode=nosync  timeout=02:55:00

fix 		1 all shake 1e-6 200 0 b 1 a 1
       0 = # of size 2 clusters
       0 = # of size 3 clusters
       0 = # of size 4 clusters
     324 = # of frozen angles
  find clusters CPU = 2.549 seconds
fix             2 all nph aniso ${pressure} ${pressure} ${pressureDamp}
fix             2 all nph aniso 7000 ${pressure} ${pressureDamp}
fix             2 all nph aniso 7000 7000 ${pressureDamp}
fix             2 all nph aniso 7000 7000 1000
fix             3 all temp/csvr ${temperature} ${temperature} ${tempDamp} ${seed}
fix             3 all temp/csvr 262.76 ${temperature} ${tempDamp} ${seed}
fix             3 all temp/csvr 262.76 262.76 ${tempDamp} ${seed}
fix             3 all temp/csvr 262.76 262.76 100 ${seed}
fix             3 all temp/csvr 262.76 262.76 100 745823


run             250000
PPPM initialization ...
  extracting TIP4P info from pair style
  using 12-bit tables for long-range coulomb (../kspace.cpp:340)
  G vector (1/distance) = 0.37166691
  grid = 24 24 24
  stencil order = 5
  estimated absolute RMS force accuracy = 0.0035717919
  estimated relative force accuracy = 1.0756345e-05
  using double precision FFTW3
  3d grid and FFT values/proc = 2197 216
Last active /omp style is kspace_style pppm/tip4p/omp
Neighbor list info ...
  update every 1 steps, delay 7 steps, check yes
  max neighbors/atom: 2000, page size: 100000
  master list distance cutoff = 10.8154
  ghost atom cutoff = 10.8154
  binsize = 5.4077, bins = 4 4 4
  1 neighbor lists, perpetual/occasional/extra = 1 0 0
  (1) pair lj/cut/tip4p/long/omp, perpetual
      attributes: half, newton on, omp
      pair build: half/bin/newton/omp
      stencil: half/bin/3d
      bin: standard
Per MPI rank memory allocation (min/avg/max) = 9.221 | 9.224 | 9.227 Mbytes
Step Temp PotEng TotEng E_pair E_mol Press Lx Ly Lz Volume Pxx Pyy Pzz Pxy Pxz Pyz Enthalpy 
12000000    265.57514   -4655.8274   -4143.6435   -4655.8274            0    6455.5925    20.070308    20.019151    20.405081    8198.5683    6833.1173      6618.58    5915.0802   -93.443352    1093.7126    1456.5038   -3371.7631 
12001000    263.39108   -4701.1118   -4193.1399   -4701.1118            0    6431.7018    19.705428     20.28062    20.424426    8162.3828    6811.2871    5770.0931    6713.7253    238.11139    369.80087   -658.89186   -3427.5103 
12002000    260.60502   -4687.1203   -4184.5216   -4687.1203            0    7209.0287      19.8962    19.985462     20.54071    8167.6997    7430.7554    7234.1609    6962.1699    292.53806    66.860684   -1285.0143      -3325.8 
12003000    258.55419   -4691.5345    -4192.891   -4691.5345            0    7530.0956    20.070694    19.643082     20.69727    8159.9045    7442.6817    8865.9362    6281.6689    717.32403    173.61874   -1024.7915   -3296.7808 
12004000    257.17699   -4720.1666   -4224.1791   -4720.1666            0     6532.239    19.971148    19.989674     20.38645    8138.6117    6510.1929    6121.9499     6964.574    296.50726   -25.162649    1021.8268   -3448.8461 
12005000    253.59066   -4672.1086   -4183.0377   -4672.1086            0    8034.3973    20.044159    19.963001     20.36642     8149.451     8499.444    7358.8736    8244.8743   -235.83183   -1023.8367    210.33653   -3228.1385 
12006000    265.27999   -4676.5853   -4164.9705   -4676.5853            0    7611.8819    19.693909    19.941355    20.836646    8183.0352    10442.996    5149.0453    7243.6044   -60.631562    475.44272    756.03224   -3256.5596 
12007000    257.21887    -4689.193   -4193.1248    -4689.193            0    6518.3157    20.078549    19.882481    20.641832     8240.454    5620.6444    7387.2719    6547.0308   -357.06117    375.35731    1567.8081   -3409.7629 
12008000    266.79013   -4692.8038   -4178.2765   -4692.8038            0    7101.7515    20.079459     19.94867     20.39438    8169.1419    7030.0586     7403.586      6871.61   -228.73374    92.316253    2078.0567   -3332.1841 
12009000    282.90082   -4699.6656   -4154.0676   -4699.6656            0    7335.4664    19.842794     20.07112    20.504249    8166.1678    7360.4271    7028.7874    7617.1848    83.591449   -138.03851    633.33203   -3280.4489 
12010000    272.85788   -4687.9818   -4161.7525   -4687.9818            0    7638.8313    19.964053    19.758476    20.579718    8117.8603    8199.7948    8775.5569    5941.1421    903.35454    1021.3292    621.38367   -3257.3862 
12011000    264.97542   -4699.3947   -4188.3673   -4699.3947            0     8600.151    19.810915    20.035342    20.444877    8114.9491    8319.5648    10011.322    7469.5665    467.85331    552.69076    776.41513   -3170.5549 
12012000    272.61805   -4672.2846   -4146.5178   -4672.2846            0    6054.1192    20.047106    19.872775     20.66374    8232.2613    5065.0282    7263.4698    5833.8595   -1.1739763    105.75808    567.26002   -3419.6658 
12013000    261.67159   -4654.8656   -4150.2099   -4654.8656            0    8218.1472    19.916078    19.949739    20.631355    8197.2618    6535.7088    10229.078    7889.6545    1477.6045     228.6754   -34.122789   -3167.7415 
12014000    256.58152   -4697.1552   -4202.3161   -4697.1552            0    5431.0223    20.074709     19.92401    20.534745    8213.2553    6876.6992    3745.6061    5670.7617   -114.99999    -645.9194    1481.2752    -3551.778 
12015000     260.8955   -4700.4319    -4197.273   -4700.4319            0    5032.0992    19.966354    20.100173    20.495103    8225.2421    5764.4954    3014.9643    6316.8378    986.09751   -221.73214   -165.34098   -3593.6389 
12016000    264.40029   -4687.9572   -4178.0391   -4687.9572            0    9405.9288    19.849373    19.519941    20.929664    8109.3781    8692.3739    10486.577    9038.8358    354.59169    1058.1527    193.74958   -3065.6284 
12017000    269.63223   -4709.1489   -4189.1405   -4709.1489            0    6159.2467    19.757498     20.06236    20.727324    8215.9387    6428.5684     5536.848    6512.3237     -1357.94   -915.60556    73.134037   -3451.1331 
12018000    252.18631   -4698.2064   -4211.8439   -4698.2064            0    7663.6213    19.974445    20.012367    20.362902    8139.7836    7679.1708    6894.2408    8417.4523   -37.557852   -149.69822    1314.9637   -3302.0924 
12019000    252.96858   -4693.6506   -4205.7795   -4693.6506            0    5040.9543    20.176723    20.166761    20.379744     8292.501     4978.361    3461.6634    6682.8385    655.35102     1046.866     524.7294   -3596.1384 
12020000    259.22395   -4700.4861   -4200.5509   -4700.4861            0    6163.8199    20.001076    19.968197    20.633547    8240.7381    6941.4873    5382.6907    6167.2816   -345.36057   -910.60085    -178.3568   -3459.7663 
12021000    251.75094   -4686.6382   -4201.1153   -4686.6382            0    8166.9333    19.755813    19.832958    20.673187    8100.0896    8181.0631    8987.1354    7332.6013   -216.07491    1183.0803    -301.0069   -3236.3433 
12022000    266.31334   -4701.6043   -4187.9966   -4701.6043            0    5679.9815    20.133287     20.07188    20.355593    8225.9584    4709.6173    6015.4144    6314.9129    897.18955    1354.8647    -469.0856   -3506.5853 
12023000    265.32794   -4731.9164   -4220.2092   -4731.9164            0    9226.0718    19.871346     20.00971    20.640625    8207.1226    11511.237    7401.4251    8765.5534    1150.0847    971.59078   -318.85943   -3115.9179 
12024000    285.17546   -4687.0877   -4137.1029   -4687.0877            0    6369.8474    20.228614      19.6869    20.640113    8219.6917    4598.4486    8689.1439    5821.9499   -894.07952    1977.9182   -921.88573   -3373.5125 
12025000    269.33414   -4681.9643   -4162.5308   -4681.9643            0    5596.7924    20.066431    20.021714    20.717635    8323.6071    5479.5745    6552.9272    4757.8755     186.1098    2043.0016    1327.4959    -3483.129 
12026000     275.2855   -4680.9629   -4150.0517   -4680.9629            0    5102.2347    19.737172    20.096754    20.643288     8188.224    4667.9969    5883.4273    4755.2799   -204.79851     77.50104    1501.1381   -3540.7589 
12027000    276.70656    -4685.753   -4152.1011    -4685.753            0      7990.83    20.022749    19.721262    20.803379    8214.7112    8366.2785    8749.5685    6856.6429   -249.88487   -816.31155    497.59965   -3194.7746 
12028000    256.88458   -4708.0792   -4212.6557   -4708.0792            0    4084.9556    20.113816    20.110963     20.46293    8277.4231    1826.5531    5234.3725    5193.9411   -883.28506   -1667.1437    54.047609   -3719.5291 
12029000    275.58505   -4721.6936   -4190.2046   -4721.6936            0    4761.1743    20.064529    19.968108    20.640614    8269.6765    3879.8925    6002.7437    4400.8866   -592.47139     996.9127    496.38053   -3615.9844 
12030000    278.60873   -4695.2247   -4157.9043   -4695.2247            0    6636.4013    19.724967    19.966615    20.850749    8211.8762    8492.8247    6304.5967    5111.7824    73.348938    2235.9073    651.54717    -3363.117 
12031000     256.1932   -4649.5358   -4155.4457   -4649.5358            0     6058.785    20.086173    19.704989    20.765724    8219.0282    4346.2377    7645.8282    6184.2892   -14.256068    111.39922     550.5095   -3429.2027 
12032000    269.42386   -4692.5587   -4172.9522   -4692.5587            0    6430.4993    19.767425     20.00874    20.733293    8200.4583    6035.8254    7217.5305    6038.1422    301.93985   -824.33641    338.95493   -3403.8948 
12033000    271.85395   -4706.3584   -4182.0652   -4706.3584            0    7453.9154    19.793778    19.900813    20.793069     8190.645    8630.5383     7680.477    6050.7307    127.72777    401.31373    361.43712   -3291.6789 
12034000    261.92272   -4716.7073   -4211.5673   -4716.7073            0     6855.991    19.861204    19.774085    20.833423     8182.059    8169.9945    6710.5293    5687.4493    676.86584   -310.50346    -57.01894   -3393.4629 
12035000    250.27603   -4721.1754    -4238.497   -4721.1754            0    7295.4529    19.936129    20.016979    20.468261    8168.0864    6237.1115    8104.7211    7544.5263   -32.753982    119.03042   -4.5087225   -3369.4396 
12036000    256.72711   -4712.3983   -4217.2785   -4712.3983            0    5594.0923    20.002139    19.862325    20.666328    8210.5045    6318.7002    5041.8321    5421.7445    111.02103    1332.4637    1437.8542   -3547.4319 
12037000    268.89738   -4712.4863   -4193.8951   -4712.4863            0    7910.0936     19.97521    20.128324    20.380514    8194.3421    6973.3812    7611.0684    9145.8312   -279.72499     492.8049     268.0663   -3248.5909 
12038000    270.92025   -4691.4326   -4168.9402   -4691.4326            0    6639.9145    20.084846    20.011157    20.394675    8197.0485    6655.2891    6228.2771    7036.1772   -14.192144    18.804582   -929.90024    -3375.168 
12039000    249.41132   -4677.3885   -4196.3778   -4677.3885            0    6735.3454    19.950608    19.813098    20.623769    8152.2326    6473.3963    7185.8502    6546.7897    823.62052   -390.41526    482.00735   -3395.5994 
12040000    264.74964   -4704.8882   -4194.2963   -4704.8882            0    6708.0567    19.839175    19.910827    20.611931    8142.0089    4387.5652     8353.679     7382.926    218.21024    60.043201   -1157.9137   -3397.7625 
12041000    257.75133   -4677.6102    -4180.515   -4677.6102            0    6761.6534    20.011965     19.91315    20.572276    8198.0782    8022.0533    6511.3637    5751.5431    21.094992   -697.53714   -1217.5654    -3372.088 
12042000    273.85053   -4731.6135   -4203.4697   -4731.6135            0    7402.0224    19.932457    19.958276    20.739065    8250.3625    5233.1437    8528.6729    8444.2506   -337.46361     960.9666    -1765.633   -3312.8356 
12043000    267.09299   -4679.3522   -4164.2409   -4679.3522            0    8994.4845    19.874738    20.015773    20.419657    8123.1079    9064.3912    8374.3055    9544.7567   -169.63149   -414.13084    6.4635648   -3098.6895 
12044000    253.33335   -4708.4205   -4219.8458   -4708.4205            0    7217.7458    19.838835    19.797446    20.826101    8179.6233     9584.102    7207.9017    4861.2337    5.1611825    393.06128   -696.58551   -3358.8307 
12045000     259.3559   -4730.2916   -4230.1019   -4730.2916            0    6003.1492    20.096599    19.987366    20.538045    8249.6826      6623.91    5674.0302    5711.5072    -9.441167   -73.403145    346.99998   -3507.8441 
12046000    252.36738   -4692.7318   -4206.0201   -4692.7318            0     7038.699    19.825899    20.133105    20.461949    8167.5282    8805.6419    5887.2463    6423.2089     276.5978   -348.38695   -1217.2848   -3367.6053 
12047000    258.74705   -4696.7379   -4197.7225   -4696.7379            0    7004.9754    20.093438    19.849733    20.612995    8221.4801    7988.1926    7195.3045    5831.4292   -578.68995    556.97283   -953.81845    -3357.813 
12048000    254.13362   -4709.7192   -4219.6011   -4709.7192            0    6063.3563    19.758839    20.034478    20.610398    8158.7919     6304.491    5331.1861    6554.3918   -220.37743    375.84057    -186.3235   -3498.1368 
12049000    264.10087   -4691.6259   -4182.2851   -4691.6259            0    5915.4569    20.281223    19.904224    20.488705    8270.9218     3734.512    7461.2309    6550.6278    704.34626    256.01996     1090.156   -3468.7455 
12050000    247.87919   -4705.1959   -4227.1401   -4705.1959            0    6661.0209    19.964164    20.068977    20.760361    8317.8533    6291.4557    7110.7784    6580.8287   -237.12873    1283.7543    1742.8605   -3419.1092 
12051000    267.61534   -4636.9014   -4120.7828   -4636.9014            0    7428.7485    19.736001     20.03138    20.704697    8185.3814    7786.8888    5789.6124    8709.7444    634.74483    302.37392    1000.7694    -3233.973 
12052000    260.10326   -4720.5022   -4218.8711   -4720.5022            0    6278.4036    20.120656    19.893814    20.430283    8177.7639    5272.8011    7157.2505    6405.1593   -389.41234    396.09034   -110.74391   -3470.0817 
12053000    256.36919   -4718.3652   -4223.9356   -4718.3652            0    6450.1011    19.909845    19.992811    20.445406    8138.3708    9014.8973    4421.4216    5913.9843   -267.91551    1104.5666    495.66464   -3458.3745 
12054000     269.2287   -4687.2482    -4168.018   -4687.2482            0    6447.0743    19.976495    19.865823    20.696254    8213.2984    4820.8085    8317.9817    6202.4326   -31.345703   -248.12622   -553.84739   -3395.7711 
12055000    258.62537   -4682.8287   -4184.0479   -4682.8287            0    7661.0647     20.04957    20.002672    20.452395    8202.3301     6893.133    8236.3456    7853.7154   -175.83928    752.74227   -521.12675   -3267.6116 
12056000    277.86975   -4681.7048   -4145.8096   -4681.7048            0    7882.8253    19.773541    20.015679     20.73058    8204.7666    8291.3659    7959.3338    7397.7762    270.17611    164.34367   -60.780019   -3202.5656 
12057000    258.36558   -4722.8306   -4224.5508   -4722.8306            0    6330.1858    20.047032    19.816205    20.649664     8203.205    6683.7228    5702.6516    6604.1829   -107.84414   -466.35846     1165.356    -3467.237 
12058000    261.28008    -4682.581   -4178.6804    -4682.581            0    8635.1985    19.944155    20.069201    20.314833    8131.2811    6817.5072    9443.1002    9644.9882    -822.9974    715.73794   -337.63736   -3154.6634 
12059000    254.69019   -4685.6662   -4194.4748   -4685.6662            0    7903.0065    20.110682    19.917114    20.377905     8162.304    5958.2087    9591.9751    8158.8356    390.62151   -554.99906   -928.90078   -3253.7101 
12060000     268.2091   -4707.6448    -4190.381   -4707.6448            0    6844.4076      19.9797    19.822468     20.71554    8204.3267    6148.9655    7052.0289    7332.2283   -296.71267    1660.2745   -804.80277    -3371.436 
12061000    267.50989   -4704.8564   -4188.9411   -4704.8564            0    7399.3903    19.828272    19.937529    20.709866    8187.1638    8824.0152     6937.876    6436.2798    206.62058    -790.0087    514.84434   -3305.4436 
12062000    274.87811   -4681.7566    -4151.631   -4681.7566            0    7219.3793    20.156903    19.978165    20.457073    8238.0209    7742.0478    7321.6004    6594.4898   -50.452325    294.05198   -56.080816   -3284.2725 
12063000    261.96135   -4661.8549   -4156.6404   -4661.8549            0    7934.0091    19.899957    19.892048    20.528048    8126.0464    6912.4287    8524.0555    8365.5433    1501.2166    480.52452   -425.38801   -3216.3806 
12064000    266.29767   -4700.6899   -4187.1125   -4700.6899            0    6684.2608    19.943279    20.004563    20.592174    8215.3834      5859.94    7512.9128    6679.9297    122.55774   -230.33879   -279.11737   -3386.2515 
12065000    270.81232   -4709.1335   -4186.8491   -4709.1335            0    8202.1762    20.095288    20.014067    20.194921    8122.1639    5829.4772    9755.1727    9021.8787    427.98338    538.63319    2366.3241   -3215.2732 
12066000    253.88375   -4644.3075   -4154.6713   -4644.3075            0    7508.6247    20.142075    19.834942    20.702939    8271.1739      9412.22    6021.0967    7092.5575    199.17571     92.87908    494.98024   -3248.9316 
12067000    264.09908   -4726.8079   -4217.4706   -4726.8079            0    5437.2478    20.046538    20.038004     20.58625    8269.3445    6136.8306    5147.7159    5027.1968   -91.684138    1195.9938     451.4413    -3561.739 
12068000    264.77621   -4696.8559   -4186.2127   -4696.8559            0    6426.7699    19.752645    19.924437    20.765408     8172.441     8135.478    4478.8946    6665.9371   -327.30982   -658.23764   -1186.1884   -3420.2274 
12069000      259.676   -4726.5486   -4225.7416   -4726.5486            0     8215.391    19.982671    19.937733    20.415655    8133.7841     8141.731    8429.0816    8075.3604   -66.062462    591.02864   -683.95539   -3251.2081 
12070000    268.79827   -4707.5991    -4189.199   -4707.5991            0    6668.6014    19.977897     20.14948    20.598375    8291.7573    6026.9004    6654.2669    7324.6368    73.429073   -477.24956    1126.9018   -3382.7866 
12071000    269.50089   -4709.7121   -4189.9569   -4709.7121            0    5550.1161    20.025648    19.956562     20.67383    8262.1533    5014.8504    6219.4877    5416.0103   -345.02529   -459.78259    432.56769   -3521.1955 
12072000    278.97919   -4662.5514   -4124.5165   -4662.5514            0    8352.5552    19.845913    19.900289    20.597522    8134.7731    8903.1994    6614.3408    9540.1254    140.26162    1765.3476    880.57449   -3133.5918 
12073000     246.2109   -4702.2769   -4227.4385   -4702.2769            0    7075.5618    19.786143    20.078275    20.590113    8179.8675    7349.6152    8048.2087    5828.8616   -510.59459    612.52595   -1223.4069   -3383.3595 
12074000    259.59148   -4710.5739   -4209.9299   -4710.5739            0    8024.1209    20.007641    19.875597    20.473129    8141.4225    7715.6933    8548.2728    7808.3965    453.29945   -102.69798    394.33342   -3257.1915 
12075000    262.45944   -4698.0292   -4191.8541   -4698.0292            0    7350.5202    19.854466    20.104229    20.438798    8158.3247    8146.1632    6905.5127    6999.8847    165.91803    223.33965   -843.41531   -3317.2833 
12076000    261.85055   -4697.1351   -4192.1343   -4697.1351            0    6841.6403    19.934279    19.849262    20.689334    8186.3708    7804.3023    6203.6634    6516.9553    15.752057    1093.4867   -179.68627    -3375.312 
12077000    259.78588   -4733.5169    -4232.498   -4733.5169            0    6014.7325     20.14598    19.834634    20.402875     8152.747    2896.6249    8570.0009    6577.5716    -357.1251   -508.49106   -247.98078   -3517.3496 
12078000    281.39944   -4690.8638   -4148.1613   -4690.8638            0    6143.9244    20.068082    20.068582     20.39725    8214.7467    7040.1379    5479.8301    5911.8051   -564.00855    7.8349456    383.26558   -3412.0967 
12079000    265.60019   -4721.2399   -4209.0076   -4721.2399            0    6346.1959    19.967565    19.832815    20.702843    8198.5955    4251.8673    9401.1121    5385.6082   -205.51837    1529.5326   -295.30571    -3450.205 
12080000    261.52052   -4663.0015   -4158.6372   -4663.0015            0    7620.9311    19.903726    19.756784    20.734943    8153.6768    6579.5839     9125.069    7158.1403    582.02729    360.00106    902.81872   -3252.4093 
12081000    278.80233   -4722.1744   -4184.4807   -4722.1744            0    6108.5422    19.949162    19.928968    20.576754     8180.622    6908.8288    4554.5775    6862.2202    614.41597    948.34311    -2.222764   -3455.6951 
12082000    248.80379   -4695.8644   -4216.0254   -4695.8644            0    6273.8308    19.909185    20.055537    20.509525    8189.2358    4163.9207    8437.2604    6220.3114   -605.76494    667.08796   -457.19775   -3466.7317 
12083000    263.80382    -4689.404   -4180.6361    -4689.404            0    6535.3222    20.011177    19.796087    20.801797    8240.4861     6196.597    7600.4613    5808.9081    597.25296   -1311.5998    1487.5095   -3395.2274 
12084000    275.75882   -4685.5591   -4153.7351   -4685.5591            0    8733.1868    19.815488    19.972789    20.641456    8169.2803    8213.2507    9689.3415     8296.968   -626.45546    2230.9103   -987.17735   -3113.2582 
12085000    255.51682   -4699.4089   -4206.6232   -4699.4089            0    5858.1233    19.907225    19.852546     20.71361    8186.2072    5617.5408    6785.5297    5171.2994   -806.91257    945.92924   -836.34003   -3507.2369 
12086000     261.1298     -4702.59   -4198.9792     -4702.59            0    6279.0604    19.870713    20.025147    20.686393    8231.4044    5891.0566    6311.2242    6634.9002    105.76778    179.78572    1051.2632   -3445.1994 
12087000    266.86547   -4723.5618   -4208.8893   -4723.5618            0    5553.5796    19.987179    20.113399    20.546832    8260.0342    7109.0472    2963.0217      6588.67     897.3156    1074.8235    367.09594   -3539.8822 
12088000    271.15892   -4704.0191   -4181.0663   -4704.0191            0    7275.2439    19.719081    19.844528    20.773896    8129.1547    10347.359    4291.4965    7186.8765    392.48054    -1698.492   -635.61113    -3318.547 
12089000    257.45957   -4742.5973   -4246.0649   -4742.5973            0    6165.6269    19.969154    20.004483    20.545219    8207.2519     5722.668    6674.0883    6100.1244     1143.714    410.82531    1176.4354   -3508.0742 
12090000    271.33462   -4722.7643   -4199.4727   -4722.7643            0     9136.192    20.045888    19.812441    20.462892    8127.0009    8638.1012    9592.3619    9178.1128    327.50302    -2047.381     74.86565   -3116.6149 
12091000    258.71425   -4706.4972    -4207.545   -4706.4972            0    5737.4944    20.017552    19.943281    20.592515    8220.8545    5209.5347    5723.7412    6279.2075   -115.98694   -195.05053    1094.7054   -3519.6612 
12092000    243.11933    -4669.019    -4200.143    -4669.019            0    8243.2913    19.855772    19.896784    20.666414    8164.5977    8808.8488    8951.1455    6969.8797    1406.1527   -357.49572    1321.7989   -3218.5954 
12093000     269.7352   -4686.6052   -4166.3982   -4686.6052            0    5551.7959    20.008731    19.989356    20.669963    8267.1923    4495.6715    6561.2893    5598.4267    753.36305   -273.28018    613.17078   -3497.0264 
12094000    262.05387   -4692.5073   -4187.1144   -4692.5073            0    7752.9238    20.005877    19.984828    20.387532    8151.2207    8295.0511    7377.3853    7586.3351   -591.29269   -150.59313   -1550.1205   -3265.4685 
12095000     250.0062   -4706.8702   -4224.7122   -4706.8702            0    6854.9678    20.262754    19.805773    20.271644    8135.4059    5461.5157    5784.5186    9318.8692   -460.32337   -318.57556    209.61805    -3411.394 
12096000    260.27268   -4680.0559   -4178.0982   -4680.0559            0     6222.324    19.839276    20.004919    20.724167    8225.0721    5852.2403    7615.0943    5199.6374   -231.03871    304.26058    715.29599    -3431.704 
12097000    266.25168   -4690.5423   -4177.0535   -4690.5423            0    7394.6046    20.073804    19.747211    20.525096    8136.1819    7833.3377    6709.7017    7640.7743    1171.8145     892.0686    302.71464   -3299.6255 
12098000    261.87072   -4709.3538   -4204.3141   -4709.3538            0    5688.8951    20.020051    19.972589     20.68818    8272.2152    5498.0743    6613.6569    4954.9542   -364.56331   -531.91654    -233.8575   -3517.9957 
12099000    271.52731   -4715.4438   -4191.7806   -4715.4438            0    6707.3103    20.018309     19.99067    20.265717    8109.9224    4930.4504    8009.5371    7181.9433    219.08771   -844.46791    806.84195   -3398.4741 
12100000    257.56348   -4688.7961   -4192.0633   -4688.7961            0    4880.9506    20.127908     20.01172    20.489332    8252.9812    4175.3151    5172.7553    5294.7814    567.56458    1534.8087   -614.09012   -3604.5859 
12101000    251.52148   -4697.9717   -4212.8914   -4697.9717            0    8586.6018    19.583446    19.899104     20.78771    8100.8253    11705.869    7641.1097    6412.8267    -774.7388   -287.12612   -227.28694   -3198.4511 
12102000    247.60647   -4667.6133   -4190.0834   -4667.6133            0    5951.0029    20.067752    19.856149    20.668674     8235.811    5286.6791    7299.5156    5266.8139   -135.31666    205.82026    1251.0579   -3475.3033 
12103000    261.99439   -4681.9152    -4176.637   -4681.9152            0     6145.871    19.982299    20.022026    20.470821    8190.0915    7673.3017    4130.6525    6633.6589   -281.12645    291.71485    -319.4623    -3442.549 
12104000    248.59156   -4658.5866   -4179.1568   -4658.5866            0    7015.5804    19.876978    20.011858    20.585755    8188.5041    5800.5741    7230.3408    8015.8263    180.81441    923.27418    1052.0736   -3341.3497 
12105000    269.25252   -4662.2448   -4142.9687   -4662.2448            0    6259.9329    20.066577    19.854313    20.583868    8200.7798    7068.1104    5247.3641    6464.3241    1149.3978   -231.18233   -60.213134    -3394.281 
12106000    248.69861   -4693.5534   -4213.9172   -4693.5534            0     6423.616    19.773468    20.126396    20.498821    8157.8882    7074.2643    5535.7558    6660.8278   -448.71815   -620.25396    375.15083   -3449.6712 
12107000    253.78968   -4669.9787   -4180.5239   -4669.9787            0     7243.246    19.807868    19.883133    20.691072     8149.023    9162.7612    6206.3594    6360.6176    598.18779   -289.19878   -1854.1479   -3319.6993 
12108000    259.18927   -4668.5257   -4168.6574   -4668.5257            0    7007.7936    19.745472    19.893946    20.843149    8187.5093    8217.8515     5644.235    7161.2942    582.70807    -820.0586   -543.47833   -3331.8818 
12109000    263.45782   -4703.3013   -4195.2008   -4703.3013            0    7520.0095    19.940712     19.89511    20.617233    8179.3232    9090.3805    6999.2499     6470.398   -308.80311   -1199.7856   -373.15138   -3298.1611 
12110000    276.01404   -4683.7168   -4151.4005   -4683.7168            0    7443.1236    19.935105    19.857725    20.527112    8125.9821    6793.7669    8112.3612    7423.2427    20.690332    632.85834    257.00997   -3269.3225 
12111000     274.7129   -4676.6647   -4146.8578   -4676.6647            0    8265.5654    19.811907    19.864549    20.669572    8134.6051    6495.5274     8818.052    9483.1168    278.13787   -731.43677     254.0934   -3166.2735 
12112000    261.70344   -4681.4308   -4176.7137   -4681.4308            0    8253.2952    20.036173    19.927048    20.482864    8178.0245    7742.6347    7940.7338    9076.5171    702.88008   -1466.9757    1299.2634   -3192.3589 
12113000    259.02613   -4719.2582   -4219.7045   -4719.2582            0    5808.2197    19.852294    19.964759    20.658378    8187.8709    5460.2338    6517.3369    5447.0884     364.5969    751.96001    453.90897   -3526.1351 
12114000    274.83299   -4716.1802   -4186.1417   -4716.1802            0    6318.4135    19.916359    20.061482    20.585235    8224.8653     7551.715    4929.6121    6473.9135   -3.4679931    1993.8532    90.785251   -3428.2402 
12115000    257.66244   -4680.2369   -4183.3132   -4680.2369            0    7491.7742    19.951705    19.990426    20.412151    8141.2452    9151.4087    5700.1736    7623.7403   -574.64604    199.78192   -356.20513    -3293.802 
12116000    261.22441   -4725.6578   -4221.8645   -4725.6578            0    7719.8745    19.734703    19.909724    20.789347    8168.3943    8265.2652     7607.095    7287.2634    489.79588    277.99848    851.12652    -3302.214 
12117000    261.30341   -4733.3367   -4229.3911   -4733.3367            0    6824.0484    19.903254    19.967544     20.53239    8159.9639    7918.5572    5644.4428     6909.145   -757.53573   -923.93016    373.47052   -3417.2972 
12118000    256.64974   -4709.1359   -4214.1653   -4709.1359            0    4162.9358    20.201911    20.086035    20.314198    8243.0199    1518.2631     5841.293    5129.2514    798.87429    495.03633    230.12814   -3713.7139 
12119000    259.55464   -4728.2312   -4227.6582   -4728.2312            0    4821.4555    20.151199    19.861888    20.761937    8309.7756     4790.541    5606.3981    4067.4272    176.40386   -360.07271    887.46856   -3643.3482 
12120000    266.98937   -4695.8089   -4180.8974   -4695.8089            0     8361.925     19.72398    19.959443    20.796492    8187.1555    8434.0223    9340.0394    7311.7132   -710.75592     1874.429   -135.08243    -3182.473 
12121000     260.9384   -4722.2657   -4219.0241   -4722.2657            0    7741.7323    19.833191     19.97265    20.414963    8086.8034    9715.5537    7226.9195    6282.7237   -161.91033   -674.32446    439.12657   -3305.9818 
12122000    259.22638   -4668.9481   -4169.0082   -4668.9481            0    6508.5727    19.972808    19.956154    20.587868    8205.9217    7050.3734    6023.3115    6452.0333   -116.15557   -1917.6801    165.00106   -3390.0951 
12123000    262.14487    -4697.252   -4191.6835    -4697.252            0    4578.3655    19.945634    20.241547    20.500074     8276.505    4027.6991    5211.0406    4496.3569     -38.4132   -1017.2009    -463.6478    -3639.055 
12124000    262.76465   -4690.3195   -4183.5558   -4690.3195            0    7870.6156     20.04467    19.896244    20.430147    8147.8215    8913.0536    8046.8473     6651.946    504.58865   -36.338268   -58.084097   -3248.3093 
12125000    272.37356   -4680.1242   -4154.8288   -4680.1242            0    7788.0946    19.890161      19.9322    20.587205    8161.8934    9700.4265    6119.1465    7544.7109    186.06619   -691.56212   -53.837238   -3227.7898 
12126000    246.36958   -4701.8369   -4226.6924   -4701.8369            0    8094.2509    20.056795     19.94341    20.487575    8195.0482    7620.0028    8620.1624    8042.5875    -186.4608    113.58848    530.65555   -3259.2969 
12127000    256.41875   -4703.4274   -4208.9023   -4703.4274            0    6764.8993    20.049489    20.119905    20.450467    8249.5918    5756.2211     8063.083    6475.3939    425.46427   -179.03633    305.46911   -3395.0048 
12128000    264.64527   -4721.4582   -4211.0676   -4721.4582            0    6434.8729    19.962966    19.942991    20.630053    8213.2626    8024.2719    4177.1372    7103.2096    559.14814   -571.06359   -912.84282   -3440.2856 
12129000    279.28871   -4685.2932   -4146.6614   -4685.2932            0    7232.9635    19.865873    19.836268    20.783198    8189.9263    7056.6392    7259.7242    7382.5272    504.57012   -535.82469   -339.85218   -3282.7441 
12130000    247.77307   -4708.0344   -4230.1832   -4708.0344            0    6785.6271    19.773795    19.911627    20.708599    8153.5643    6309.0299    7290.0794    6757.7721   -688.84885    1180.3462    387.86304    -3423.295 
12131000    248.84881   -4711.8994   -4231.9735   -4711.8994            0    7615.9248    20.081201     19.88949    20.353636     8129.341    9424.6379     5615.735    7807.4015    404.36886   -429.06453    586.86366    -3329.044 
12132000    259.82989   -4647.1724   -4146.0686   -4647.1724            0    7336.1309    19.998963    20.035782    20.352567    8155.1693    5279.8138    8061.2056    8667.3733   -489.63502    999.82036   -535.86089   -3273.5475 
12133000    266.89921   -4669.2072   -4154.4697   -4669.2072            0    7907.3884    19.874866     19.86348    20.804795    8213.4005       7199.5    9038.9937    7483.6715    0.5611971   -425.21067    1310.2071   -3207.2909 
12134000    259.03602    -4724.378   -4224.8052    -4724.378            0    6865.1695     19.97107    19.889125    20.814918    8267.8337    6168.4078    8038.6195    6388.4812   -89.066645    1045.5137   -1246.1516   -3397.0177 
12135000     271.7228   -4723.1448   -4199.1046   -4723.1448            0    7180.5101    19.778465    20.033816     20.60096    8162.8857     7199.114    7337.6934    7004.7228    132.63386    309.63212    882.43664   -3344.2841 
12136000    278.47756   -4723.6621   -4186.5947   -4723.6621            0    7486.9577    19.801868    20.088053    20.508929     8158.062    9001.1133    5761.4037    7698.3561   -376.55525    1525.4386    1365.7325   -3295.8192 
12137000    260.97872   -4710.0305   -4206.7111   -4710.0305            0    6485.0761    19.965725    19.948277    20.503931    8166.3428    4994.7289    7726.2798    6734.2197    342.31115    562.95588    232.75212   -3434.3533 
12138000    259.09973   -4700.1153   -4200.4196   -4700.1153            0    7334.9731    20.107275    20.080992    20.254239    8178.1359    5357.5608    6615.3859    10031.973   -55.905285    1183.1814    309.10822   -3325.5794 
12139000    255.36712   -4731.9728   -4239.4758   -4731.9728            0    7429.8645    19.816591     20.02196    20.601561    8174.0194    8190.0659    5805.6028    8293.9248   -505.25749    823.57308    821.35602    -3353.764 
12140000    254.05615   -4672.1344   -4182.1658   -4672.1344            0    5331.2894    20.139783    19.982621    20.468692    8237.5358     2431.191    6976.8227    6585.8546   -123.62876    1090.7275    573.77593   -3541.6859 
12141000    259.71035   -4695.5919   -4194.7187   -4695.5919            0    7988.4023    19.762984     19.66757    20.921259    8131.8814    8685.3521    8686.4233    6593.4314    46.444945    649.39066   -707.72801   -3247.3329 
12142000    270.56397   -4713.6718   -4191.8665   -4713.6718            0    5354.5727    20.031024    19.818606    20.700825    8217.9578    5922.5792    4474.5723    5666.5665     550.1635   -687.61125   -376.23899   -3550.1183 
12143000    265.48454   -4694.0709   -4182.0616   -4694.0709            0    8147.0796    20.074313    19.895098    20.341361    8123.9414    8250.9198    8028.8017    8161.5172    277.15808    553.09135    174.55985   -3216.8009 
12144000    266.56625   -4699.1853   -4185.0899   -4699.1853            0    8889.9594    19.763997    20.076336    20.514409    8139.8847    10058.966    8161.7939    8449.1184    334.81794    368.51761    651.03115   -3129.7462 
12145000    247.51842   -4667.6786   -4190.3186   -4667.6786            0    6595.7523    20.250061    19.747697    20.478445    8189.1676    3981.6716    7538.2504     8267.335   -176.86301    111.13985   -1384.9201   -3402.5838 
12146000    243.18677   -4682.6651    -4213.659   -4682.6651            0    7698.0744    19.852585    19.871101    20.622279    8135.3392    7145.0554    7815.4372    8133.7307     317.4992      184.349    1551.4951   -3300.3165 
12147000     256.7789   -4718.7735   -4223.5538   -4718.7735            0    8080.0056    20.046662    19.922851    20.369642    8135.3631    6537.5559    7664.2842    10038.177     115.2101    236.30122    -74.69969   -3264.8941 
12148000    257.15956   -4723.7903   -4227.8365   -4723.7903            0    4719.1993    20.202528     19.86616    20.730433    8320.0899    3737.6452    5190.5247     5229.428    344.59498   -1892.9709   -213.71633   -3655.2089 
12149000    274.32855    -4703.418   -4174.3523    -4703.418            0    6699.8026    19.904615    19.935273    20.641228    8190.5202    6556.5767    7519.8682     6022.963   -397.38899   -535.63366   -1269.1331   -3374.0586 
12150000    259.57727   -4686.1484   -4185.5318   -4686.1484            0    9534.1113    20.070367    19.990827    20.240135    8120.8122    7007.2702    9897.7072    11697.356   -74.492567   -785.14704   -1859.7622   -3056.3715 
12151000    263.60501    -4665.771   -4157.3866    -4665.771            0    7128.8405    20.077312    19.961374    20.481064    8208.2109    8796.2971    4554.8133    8035.4112    823.16774   -744.73764   -2266.9531   -3304.0049 
12152000    267.49903   -4688.6885   -4172.7941   -4688.6885            0     7777.428     19.91476    19.786557    20.745734    8174.7433    8595.4473    6718.3747    8018.4619   -296.61003    1659.3738   -667.56749   -3245.5673 
12153000    269.05245   -4718.9806   -4200.0903   -4718.9806            0    6380.1554    20.077509    19.865039    20.564632    8202.0079    3446.1493    8558.4332    7135.8837   -809.76308    664.88346    119.72154   -3436.9097 
12154000    257.50849   -4684.0337   -4187.4069   -4684.0337            0    8252.9701    19.901705    19.993169    20.489933    8152.9062    7036.6891     9807.988    7914.2331   -272.03652   -1078.5341   -505.38026   -3206.1141 
12155000    265.58675   -4714.9903    -4202.784   -4714.9903            0    6657.0777    20.024362    20.105423      20.3103    8176.8917    3789.9695    7523.6643    8657.5995    690.11923    583.34219    1677.8719   -3408.9169 
12156000    244.68668   -4695.2211   -4223.3223   -4695.2211            0     5365.992    19.905826    20.030758    20.741145    8270.0912    7776.3407    4146.0064    4175.6291    299.24678    878.97661   -373.84759   -3576.1257 
12157000    273.14926   -4725.1561   -4198.3648   -4725.1561            0    6118.6497    19.888076    20.140936    20.594567    8249.4517    7084.6451    5144.1177    6127.1862    45.506745    414.38773    111.24041   -3462.2313 
12158000    240.12181   -4692.2648   -4229.1697   -4692.2648            0    6555.1904    20.015073    19.821632    20.704602    8214.1659    4797.6862    8035.0853    6832.7996    544.54215    312.68872    511.43418   -3443.8895 
12159000    248.62062   -4699.0332   -4219.5475   -4699.0332            0    6854.8009    19.946252    19.960818    20.606655    8204.4059    4986.3221    8595.2711    6982.8095    975.99613    1266.8551   -493.17767    -3399.351 
12160000    264.80968   -4690.6655   -4179.9578   -4690.6655            0     7605.445    19.785814    19.854858    20.850611    8191.0487    9184.7513    6727.8252    6903.7584     460.8267    201.98514     -376.857   -3271.4262 
12161000    255.77033   -4705.2417   -4211.9671   -4705.2417            0    7192.5087    19.936488    19.889601    20.643112    8185.5885    6875.4192    8994.5884    5707.5184    50.555259    326.98076    920.51741   -3353.3369 
12162000    264.33745   -4703.2689   -4193.4719   -4703.2689            0    6263.2803    19.858955    20.225188    20.418672    8201.1818    8027.1898    3647.0573    7115.5938    338.27667     1883.055     633.3394   -3444.3471 
12163000    262.00375   -4697.0916   -4191.7954   -4697.0916            0     6443.433    20.063279    19.977813    20.572052    8245.6988    6089.5943    7487.3162    5753.3886    212.18613    369.42003    1009.7975     -3416.94 
12164000    259.80636   -4707.3979   -4206.3395   -4707.3979            0    8338.5887    19.955515    20.027314    20.468294    8180.2635    9971.9062    7211.0943    7832.7657   -622.63412    100.01895    41.326811   -3211.5396 
12165000    273.79772   -4717.0556   -4189.0137   -4717.0556            0    9099.5642    19.749812    19.745239    20.839971    8126.8544    10792.346    9488.8393    7017.5075    88.316984    438.85272   -1465.8874   -3110.5166 
12166000    263.88905   -4676.5287   -4167.5965   -4676.5287            0    6789.3114    19.740877    20.035393    20.624437    8157.2994    7858.0814     6173.517    6336.3357   -236.92208   -170.68815   -134.70876   -3359.9004 
12167000    267.31024   -4706.8322   -4191.3019   -4706.8322            0    8469.5439    19.946608    19.927431    20.373938    8098.3278    8549.0417    8772.2968    8087.2932   -741.73983    1017.8828    722.16774   -3190.9996 
12168000    272.35132   -4686.7919   -4161.5394   -4686.7919            0    7683.8157    19.850481    20.142516    20.517427    8203.6597    8614.8808    7498.9744    6937.5918   -482.57691   -672.58317    1022.2716   -3242.2327 
12169000    272.63373   -4688.0741    -4162.277   -4688.0741            0    5737.3054    19.980471    19.860465    20.845344    8271.8796    4873.3082    7655.1666    4683.4413   -761.65124    218.46892   -862.82485   -3470.1464 
12170000    269.68298    -4712.784   -4192.6777    -4712.784            0    6804.4658    20.115326    20.068275    20.500166    8275.5047    7886.5839    4852.2969    7674.5166   -441.59917   -273.36413    260.05208   -3371.4484 
12171000    270.05547   -4692.1525   -4171.3278   -4692.1525            0    6593.5715    19.809986    20.127704    20.533555    8187.3348    6526.0657    5688.5727     7566.076    543.28109    649.36852   -763.30248   -3384.0298 
12172000    269.33722   -4730.6819   -4211.2424   -4730.6819            0    6956.3672    19.949031    19.866461    20.677991    8195.0325     5609.004    8906.9971    6353.1007    92.341936    334.04424   -145.74988   -3379.8442 
12173000    255.28302   -4698.8894   -4206.5546   -4698.8894            0    8753.1773    19.980862     19.80392     20.46661    8098.6254    7995.8562    9582.0013    8681.6744    299.80173   -956.69056   -207.93461   -3172.7156 
12174000    265.29545   -4689.8738   -4178.2292   -4689.8738            0    8459.8362    20.110409    19.752524    20.479836     8135.233     6995.287    10400.117    7984.1051    583.95158    30.502073    502.80316   -3174.5201 
12175000    261.23255   -4701.9492   -4198.1402   -4701.9492            0    7457.4801     19.81364    19.962198    20.647917    8166.7428    6403.7981    8056.7873     7911.855   -174.65815    -500.9456    350.69225   -3309.9278 
12176000    248.17841   -4693.2961   -4214.6632   -4693.2961            0    8627.9703    19.854429    19.851441    20.483007    8073.1524    8199.6115    8730.1734     8954.126   -368.07092   -119.09233   -594.57663   -3198.8176 
12177000    267.39609   -4710.4442   -4194.7484   -4710.4442            0    5762.3495    19.796677    20.019894    20.751636    8224.4416    6143.5247    6216.0653    4927.4584   -544.80221    689.00446   -448.10693   -3503.5831 
12178000    267.24946   -4704.4691   -4189.0561   -4704.4691            0    7104.4844    20.232922    19.833952    20.264126    8131.9696    4843.2179    7726.1512    8744.0841    -212.8721    319.11111   -1556.7049   -3346.4896 
12179000    276.80775   -4698.0325   -4164.1855   -4698.0325            0    5445.6814    20.103753    19.943624    20.497417    8218.2687    5211.1634    5760.9974    5364.8832    10.015308    505.06132   -249.38876   -3511.4932 
12180000    269.75842   -4693.5708    -4173.319   -4693.5708            0    6843.2619    19.796795    19.911372    20.811767    8203.6108    8173.2593    5139.5767    7216.9497    152.11109   -576.69506   -724.59874   -3354.5826 
12181000    262.54934   -4702.7341   -4196.3856   -4702.7341            0    6124.4932    20.031737    19.894195    20.626556    8219.9976    4944.1953    6683.1967    6746.0877   -30.493595    109.26173     -1671.99   -3462.1799 
12182000    260.03592   -4687.9805   -4186.4794   -4687.9805            0    7889.4203    19.748792      20.0111    20.591915    8137.8228    8015.5058    7152.4548    8500.3003    794.32166   -652.53528   -1559.9249   -3250.1488 
12183000    263.15669   -4725.3916   -4217.8718   -4725.3916            0    7778.9357    19.970492    19.970758    20.430849    8148.3507    7849.3372    8365.8088     7121.661    395.44236    1399.7121    244.48014   -3293.4594 
12184000    253.59732   -4702.3773   -4213.2935   -4702.3773            0    7037.9679    20.062403    19.844721    20.449378    8141.5679    5826.3123    7866.1953    7421.3963   -1039.6061    542.70984   -1423.8043   -3377.6304 
12185000    266.22984   -4681.6124   -4168.1657   -4681.6124            0    6341.7508    19.887484    20.244727    20.421544    8222.0544    6206.0088    6303.3148    6515.9289   -316.12543   -1222.9306   -317.04712   -3407.7249 
12186000    264.17657   -4657.7005   -4148.2138   -4657.7005            0     10113.71    19.821259    19.528659     20.88493    8084.1931    10136.965    11749.803    8454.3617    368.51759    482.40503   -1006.2525   -2955.8108 
12187000    258.41407    -4699.821   -4201.4478    -4699.821            0    6955.3993    20.146154    19.712966    20.553243    8162.5242    5063.5091    8723.2612    7079.4275    99.145968    950.96646   -1021.2294   -3373.4628 
12188000    269.07268   -4687.8196   -4168.8903   -4687.8196            0    7980.9934    19.802004    20.076548    20.479996    8141.9431    9410.8696    7447.0828    7085.0279   -47.203409    1161.6361   -534.06191   -3221.2121 
12189000    249.52405    -4700.753   -4219.5249    -4700.753            0    7587.0584    19.973557    19.740821    20.657194    8145.0161    8697.7499    8010.3547    6053.0706    223.41583   -142.40146   -778.88342   -3318.2832 
12190000    272.04428   -4662.2914   -4137.6311   -4662.2914            0    8733.4047    19.941974    19.856231    20.577701    8148.2027    7885.4496    9685.1581    8629.6063   -393.94925    535.73993   -529.85342   -3099.8129 
12191000    263.87648   -4709.6254   -4200.7174   -4709.6254            0    6352.5776     19.97018    19.996901    20.601354    8226.9799    5587.7546    6847.0564    6622.9217   -685.23743    953.76468    125.22862   -3438.5221 
12192000    260.42178   -4674.8685   -4172.6232   -4674.8685            0    7008.5471    19.873923    19.991361    20.635841    8198.7592    8814.9473    5138.6897    7072.0043   -680.17827   -1074.8551   -559.01308   -3334.6078 
12193000    263.28591   -4702.7658   -4194.9968   -4702.7658            0     7019.302    20.171973    19.935877    20.448148    8223.1404    7516.3064    6639.8985    6901.7013   -374.66651   -636.56069   -78.068227   -3353.1995 
12194000    274.35594   -4697.5837   -4168.4652   -4697.5837            0    6979.8276    19.981664    19.948921    20.548751    8190.9918    6118.7238    8535.1501    6285.6089   -194.46029   -625.23754   -770.04439   -3334.6745 
12195000    261.65292   -4678.0478   -4173.4281   -4678.0478            0    7674.6604    19.694063      19.7871    20.882424     8137.638    9206.0264    6442.6156    7375.3392    495.56491    38.573047    462.20201   -3262.6063 
12196000    257.05886   -4701.4452   -4205.6856   -4701.4452            0    5275.5833    19.934012    20.075835    20.587869    8239.0993    5054.9878     5252.755     5519.007    801.78631    504.31888   -86.611551   -3571.7777 
12197000     259.9357   -4693.0482   -4191.7403   -4693.0482            0    6113.4539    20.136469    19.752432    20.512211    8158.6137    3923.9257     8977.334    5439.1019    222.69014    682.48197   -472.90093   -3464.3309 
12198000    259.47711   -4675.4559   -4175.0324   -4675.4559            0    9976.9565    19.788462    19.949214    20.516272    8099.0905    9126.8648    10067.604    10736.401    507.34904    237.11641   -88.096006    -2996.585 
12199000    280.54828   -4705.0106   -4163.9496   -4705.0106            0    5796.7775    19.871496    20.260492    20.365693    8199.3559    6244.7613    4379.9376    6765.6337   -216.87388    833.56085   -510.97499   -3470.7756 
12200000    256.51437   -4708.1439   -4213.4344   -4708.1439            0    5748.5812    20.063594    19.839778    20.691089     8236.238    5360.5709    5746.2921    6138.8804    617.05697    -538.7244    23.385103   -3522.9316 
12201000    251.79843   -4687.8635   -4202.2491   -4687.8635            0    6223.4865    19.904053     19.96771    20.688386    8222.3583    5451.4463    6604.8378    6614.1753   -113.77784   -3.4610406    1267.9856   -3455.9618 
12202000     265.0452   -4698.5422   -4187.3803   -4698.5422            0    5775.9845    20.190283      19.9659     20.47456    8253.6466    5406.6356    5614.5896    6306.7282   -249.35589   -129.69314   -626.59479   -3492.1194 
12203000    261.99272   -4722.8808   -4217.6058   -4722.8808            0    8654.5873    19.853021    20.003937     20.63776    8196.0509     9819.751    8072.9467    8071.0643   -301.56563   -865.00518    792.99376   -3183.1144 
12204000    260.90363   -4725.9502   -4222.7756   -4725.9502            0    6322.1238    20.167684     19.95345    20.305902    8171.3969    8074.5112    4458.3009    6433.5593   -566.70344   -1125.6936    711.26207   -3469.3589 
12205000     256.7551   -4733.3503   -4238.1765   -4733.3503            0    5461.3293    19.974379    20.097061    20.499723    8229.1286    5280.4805    5436.8863    5666.6211    69.450161    1220.3264    541.25369   -3582.7438 
12206000     260.5041   -4720.4664   -4218.0623   -4720.4664            0    6818.3288    19.924925    19.824347    20.596205    8135.4728    6472.6132    6812.2717    7170.1014    480.90733    1.8323434   -328.40639   -3409.0845 
12207000    259.84642    -4698.296   -4197.1603    -4698.296            0    7108.8691    19.983543    19.841941    20.663197    8193.2109      8068.17    6409.3853     6849.052    217.92696    -1074.417   -603.09671   -3347.7246 
12208000    266.46047   -4694.2937   -4180.4023   -4694.2937            0    7098.6302    20.084664    20.077431    20.321915    8194.7809    9322.5607    3841.6232    8131.7067      976.259    59.017088    456.36098   -3332.0274 
12209000     262.4004   -4702.6443    -4196.583   -4702.6443            0    6911.9792    20.186046    19.754315    20.474136    8164.2974    7535.9823    6803.8828    6396.0725   -801.88059    -1141.474   -78.730538   -3373.5881 
12210000    260.78478   -4666.8802   -4163.9348   -4666.8802            0    7003.6155    19.965905    19.993282     20.78777    8298.1443    6772.4066    7296.4399    6941.9999    16.539376    1219.5314   -962.21636   -3316.3578 
12211000    263.20306   -4703.4328   -4195.8236   -4703.4328            0    6324.9583    19.978223    20.055904    20.465644    8200.2012    4877.8108    6998.7228    7098.3414     110.2372    1342.9231   -464.34164   -3439.4122 
12212000    257.29618   -4692.3427   -4196.1254   -4692.3427            0    6429.2654    19.888942    19.952036    20.727809    8225.3102    5948.8615    6128.3097    7210.6251    194.53264   -694.68888    -999.9964   -3424.8854 
12213000    266.79222   -4690.0762   -4175.5449   -4690.0762            0    5859.2037    20.037733    19.918324    20.644931    8239.7647    5536.4223    6462.9788    5578.2099    430.64406    418.27687   -1156.3467   -3471.4531 
12214000    276.57365   -4706.7461   -4173.3505   -4706.7461            0    5834.8479    20.031824    20.129236    20.262539    8170.3688    7279.9649    5008.5004    5216.0784    423.87054    500.55006   -902.94625   -3478.0908 
12215000     268.9798   -4761.0156   -4242.2654   -4761.0156            0    7341.5304    20.072674    19.880875    20.452513    8161.8275    7266.7059    8658.1031    6099.7822    588.47404    1088.6243   -944.41248   -3368.3892 
12216000    250.32334   -4698.0614   -4215.2918   -4698.0614            0     7845.843    19.777083    19.965914    20.759738    8197.3463     7812.917     8244.656    7479.9558   -614.84681    1382.6534    715.89085   -3277.3221 
12217000     251.2162   -4695.9617   -4211.4701   -4695.9617            0      8298.79    19.693267    19.991422    20.491916    8067.5937    8851.1607    6974.2421    9070.9673    199.94952    77.041821   -295.96244   -3235.0546 
12218000    268.42575   -4693.0762   -4175.3946   -4693.0762            0    6645.5334    19.856643    20.081631    20.564053    8199.9935    6016.0452    7509.2492    6411.3059    357.42773    826.20574    31.192717   -3380.6653 
12219000    260.12918   -4691.7128   -4190.0318   -4691.7128            0    7273.1049    19.916902    19.750624    20.871408    8210.2122    7506.6312    8663.1874    5649.4963   -270.90741   -1007.8161    644.81143   -3319.1682 
12220000    250.91626   -4696.8578   -4212.9447   -4696.8578            0    9030.4142    20.035939    19.814485    20.452041    8119.4973    9544.1741    8072.2822    9474.7863    644.58304   -315.37843   -1178.4511   -3143.6124 
12221000    269.96565   -4713.2368   -4192.5853   -4713.2368            0    8341.7755    19.931279    19.922778    20.466009    8126.7747    6703.9611    10337.195    7984.1707   -880.50946   -935.27091      685.865   -3203.9125 
12222000    258.36855   -4715.1822   -4216.8968   -4715.1822            0    6365.1908     20.13262    20.227825    20.149134    8205.5156    4398.4264    7070.2501     7626.896   -46.314403     186.5296   -122.32687   -3455.1805 
12223000    266.04919   -4721.1062    -4208.008   -4721.1062            0    7968.7906    19.845427    20.117144    20.498445    8183.6623    9341.1701    6547.3395     8017.862    497.84144    561.53957    766.74818   -3256.9303 
12224000    257.86983   -4684.7528   -4187.4292   -4684.7528            0    7209.8427    20.016122    19.827032      20.6158    8181.5921    8379.1328    7070.5511    6179.8443    105.12173   -1098.1668    250.41571   -3327.1498 
12225000    261.68282   -4725.8814   -4221.2041   -4725.8814            0    6784.7659    19.936017    20.151239    20.480098    8227.5813     6933.785    6486.8767    6933.6359   -23.084761    4.9630481    927.16107   -3407.0944 
12226000    264.65898    -4716.272   -4205.8549    -4716.272            0    5437.6982     20.05071    19.988902    20.706066     8298.819    5871.7978    5811.4852    4629.8117    762.23433   -255.49929    651.09431   -3547.7315 
12227000     269.2074   -4640.6018   -4121.4127   -4640.6018            0    6650.7051    20.076948    20.152496    20.295863    8211.7187    4416.7554    8275.4574    7259.9027   -300.59449    2016.5157   -2616.5385   -3324.9276 
12228000    277.16284   -4700.0114   -4165.4796   -4700.0114            0    8805.9191    20.010143    20.018889    20.365317    8157.9555    7923.4697    8639.3456     9854.942   -5.4263148    1166.7265    735.01007   -3117.7917 
12229000    270.00083    -4698.353   -4177.6337    -4698.353            0    7151.1977    20.024639    19.815415    20.671022    8202.1902    6618.2607    7421.9982    7413.3342   -21.064538    679.67277   -1561.6104   -3322.2036 
12230000    262.90498   -4673.6452   -4166.6109   -4673.6452            0    3818.0111    19.831729    19.918047    21.010854    8299.4829     5604.836    3216.4362    2632.7612    838.44204    354.73259   -599.72165   -3704.4809 
12231000    273.92378   -4696.3658   -4168.0808   -4696.3658            0    8915.9018    20.084447    19.813505    20.410118    8122.0694    8619.3963    8508.8365    9619.4725    -227.8894   -421.19626    399.60522   -3111.9739 
12232000    264.55612   -4688.4923   -4178.2736   -4688.4923            0    8551.6627    19.733053    20.047145    20.585695    8143.5234     9565.027    8925.8566    7164.1045   -264.73088    284.73455   -125.09888   -3162.6359 
12233000    267.76726   -4719.5118   -4203.1001   -4719.5118            0    5677.5082    20.427539     19.68841    20.511419    8249.4012    3561.6863    7153.9239    6316.9145   -360.74705    1826.2355    695.32035   -3520.0445 
12234000    263.06822   -4683.6137   -4176.2645   -4683.6137            0    8366.3116    19.716786    19.837944      20.8145    8141.3939    10664.291    8068.6923    6365.9517   -228.53004   -363.72552    172.82469   -3182.8998 
12235000    254.28032   -4695.8802   -4205.4792   -4695.8802            0    10157.245     20.03128    19.895459    20.312639    8095.2265    10208.735    9059.0626    11203.937    587.27738   -209.51703    1313.3913   -3006.3091 
12236000    271.37574   -4731.9366   -4208.5657   -4731.9366            0    6604.8337    19.888316    19.908836    20.622837    8165.6789    7498.4995    6478.4933    5837.5082    306.64089   -435.30209   -1203.3336   -3422.0089 
12237000    260.69737   -4701.5026   -4198.7258   -4701.5026            0    6913.0217    20.040223     19.76836    20.773095    8229.5178    6051.7589    8031.5429    6655.7632   -592.85122   -456.38043    200.61839   -3369.0313 
12238000    262.21529   -4683.9177   -4178.2135   -4683.9177            0    6615.9407    20.030851    20.089859    20.512067    8254.4041    6542.6793     6570.819     6734.324    656.04463   -947.56389   -592.62779   -3381.7732 
12239000     263.7048   -4709.0098   -4200.4329   -4709.0098            0    6711.9671    20.134808    19.799521     20.55432    8194.1761    7640.1464    6519.1657    5976.5892    257.09208   -328.14245    183.40529   -3398.3283 
12240000    260.33486   -4686.0233   -4183.9456   -4686.0233            0    7018.2924    19.801036    20.035554    20.670743    8200.5946    6506.4516    6752.9722    7795.4534   -188.85757    639.48016     1155.879    -3344.577 
12241000    250.27647   -4694.1358   -4211.4566   -4694.1358            0     6939.824    20.030074    19.692539    20.735363    8178.9191    6688.3871    7538.2777    6592.8073    554.32962   -413.23035    61.802236   -3383.6664 
12242000    254.24736   -4679.7366   -4189.3992   -4679.7366            0    8058.0487    19.843342    20.018188    20.616326    8189.3772    8753.1354    8114.9883    7306.0223    204.85399    125.27355    1439.0686   -3226.9969 
12243000     272.1313   -4688.2929   -4163.4648   -4688.2929            0    8646.4132    19.918259    19.903869    20.533365    8140.4607    8278.6004    9789.2194    7871.4199   -312.22139   -2143.4753   -978.74403   -3136.9603 
12244000    268.76465   -4693.8176   -4175.4823   -4693.8176            0     7319.205    19.802651    19.823007    20.748761    8144.8868    10444.789    5876.7974    5636.0284   -364.94701   -512.46935   -18.027394   -3306.0719 
12245000    271.94528   -4669.9424   -4145.4731   -4669.9424            0    6812.4095    20.110194    19.889152    20.646344    8258.0149    5241.4067    7624.1681    7571.6539   -20.400283   -444.37852   -677.47603   -3325.0227 
12246000    261.16657   -4682.7463   -4179.0646   -4682.7463            0    5435.6221    20.014165    19.998911    20.726027    8295.8307    4250.7442    7094.7898    4961.3323   -489.38855    689.63212   -695.44735   -3521.4294 
12247000    267.66383   -4716.7557   -4200.5435   -4716.7557            0    5357.3798    19.967638    20.049419    20.596404    8245.5552    7248.6086    3252.7049     5570.826   -511.71214    194.00638    1103.6258   -3556.3027 
12248000    274.38205   -4683.0579   -4153.8891   -4683.0579            0    6615.7954    19.880417    19.698011    20.804675    8147.2079    6053.0383    7802.2819    5992.0659   -624.10365    41.623368    496.08916    -3367.809 
12249000    256.38116     -4712.57   -4218.1173     -4712.57            0    7285.4097    19.969922    20.058467    20.584843     8245.589     7025.845    6873.1816    7957.2024   -251.24905   -425.32805    794.12779   -3342.0216 
12250000    272.69072   -4675.2351   -4149.3281   -4675.2351            0    6754.5607    20.096485    19.927208    20.456021     8191.958    6125.1332    6976.7575    7161.7914    43.679268   -573.27717    452.65835    -3342.352 
Loop time of 482.925 on 64 procs for 250000 steps with 972 atoms

Performance: 89.455 ns/day, 0.268 hours/ns, 517.679 timesteps/s
99.0% CPU use with 64 MPI tasks x 1 OpenMP threads

MPI task timing breakdown:
Section |  min time  |  avg time  |  max time  |%varavg| %total
---------------------------------------------------------------
Pair    | 20.813     | 28.6       | 37.58      |  76.9 |  5.92
Bond    | 0.27013    | 0.28012    | 0.30057    |   1.0 |  0.06
Kspace  | 204.83     | 216.36     | 228.74     |  33.4 | 44.80
Neigh   | 3.2159     | 3.71       | 4.0221     |  11.8 |  0.77
Comm    | 97.661     | 105.95     | 117.47     |  42.0 | 21.94
Output  | 0.97142    | 0.97188    | 0.9729     |   0.0 |  0.20
Modify  | 116.52     | 120.49     | 124.7      |  24.4 | 24.95
Other   |            | 6.568      |            |       |  1.36

Nlocal:        15.1875 ave          18 max          11 min
Histogram: 1 1 8 0 13 15 0 10 10 6
Nghost:        2244.55 ave        2278 max        2210 min
Histogram: 4 3 6 9 9 12 4 9 3 5
Neighs:        4799.09 ave        6340 max        3575 min
Histogram: 4 5 8 13 9 8 9 3 4 1

Total # of neighbors = 307142
Ave neighs/atom = 315.98971
Ave special neighs/atom = 2.0000000
Neighbor list builds = 8041
Dangerous builds = 0

unfix		3
unfix		2
unfix		1

write_data	data.final.${pid}
write_data	data.final.0
System init for write_data ...
PPPM initialization ...
  extracting TIP4P info from pair style
  using 12-bit tables for long-range coulomb (../kspace.cpp:340)
  G vector (1/distance) = 0.37167575
  grid = 24 24 24
  stencil order = 5
  estimated absolute RMS force accuracy = 0.0035715364
  estimated relative force accuracy = 1.0755576e-05
  using double precision FFTW3
  3d grid and FFT values/proc = 2197 216
Last active /omp style is kspace_style pppm/tip4p/omp
WARNING: Not all mixed pair coeffs generated from mixing. Use write_data with 'pair ij' option to store all pair coeffs. (../write_data.cpp:312)

write_restart   restart.lmp.${pid}
write_restart   restart.lmp.0
System init for write_restart ...
PPPM initialization ...
  extracting TIP4P info from pair style
  using 12-bit tables for long-range coulomb (../kspace.cpp:340)
  G vector (1/distance) = 0.37167575
  grid = 24 24 24
  stencil order = 5
  estimated absolute RMS force accuracy = 0.0035715364
  estimated relative force accuracy = 1.0755576e-05
  using double precision FFTW3
  3d grid and FFT values/proc = 2197 216
Last active /omp style is kspace_style pppm/tip4p/omp
Total wall time: 0:08:10
