LAMMPS (30 Jul 2021)
  using 1 OpenMP thread(s) per MPI task
package omp 0
using multi-threaded neighbor list subroutines
echo both

include		in.partitions
variable        pid world 0
include		in.temp
variable        temperature equal 248.22
variable	tempDamp equal 100.0
include		in.pressure
variable        pressure equal 4250.0
variable        pressureDamp equal 1000.0 # This is 1 ps
include		in.seed
variable        seed world 745823

units		real
atom_style	full
box tilt large
read_restart	restart.lmp.${pid}
read_restart	restart.lmp.0
Reading restart file ...
  restart file = 30 Jul 2021, LAMMPS = 30 Jul 2021
  restoring atom style full from restart
  triclinic box = (-10.703871 -9.3020549 -0.042138395) to (12.683871 12.292053 21.902137) with tilt (-9.1420328 1.9632931 2.7587968)
  4 by 4 by 4 MPI processor grid
  restoring pair style lj/cut/tip4p/long/omp from restart
  restoring bond style harmonic/omp from restart
  restoring angle style harmonic/omp from restart
  1296 atoms
  864 bonds
  432 angles
Finding 1-2 1-3 1-4 neighbors ...
  special bond factors lj:    0        0        0       
  special bond factors coul:  0        0        0       
     2 = max # of 1-2 neighbors
     1 = max # of 1-3 neighbors
     1 = max # of 1-4 neighbors
     2 = max # of special neighbors
  special bonds CPU = 1.255 seconds
  read_restart CPU = 1.664 seconds
include 	in.setup
variable	out_freq equal 1000
variable	out_freq2 equal 10000
variable	out_freq3 equal 1000

timestep	2.0

neigh_modify    delay 7 every 1

include		in.tip4p
# This is TIP4P/Ice

# create groups ###
group ox type 2
432 atoms in group ox
group hy type 1
864 atoms in group hy

# set charges - beside manually ###
set group ox charge -1.1794
Setting atom values ...
  432 settings made for charge
set group hy charge 0.5897
Setting atom values ...
  864 settings made for charge

# ### TIP3P Potential Parameters ###
pair_style lj/cut/tip4p/long/omp 2 1 1 1 0.1577 8.5
pair_coeff 1 1*2 0.000 0.000
pair_coeff 2 2 0.21084 3.1668
bond_style  harmonic
bond_coeff  1 450 0.9572
angle_style harmonic
angle_coeff 1 55 104.52
kspace_style pppm/tip4p/omp 1.0e-5
pair_modify tail yes

thermo          ${out_freq}
thermo          1000
thermo_style    custom step temp pe etotal epair emol press lx ly lz vol pxx pyy pzz pxy pxz pyz enthalpy

restart 	${out_freq3} restart.lmp.${pid} restart2.lmp.${pid}
restart 	1000 restart.lmp.${pid} restart2.lmp.${pid}
restart 	1000 restart.lmp.0 restart2.lmp.${pid}
restart 	1000 restart.lmp.0 restart2.lmp.0


include         in.dump
dump            myDump all atom ${out_freq2} dump.water.${pid}
dump            myDump all atom 10000 dump.water.${pid}
dump            myDump all atom 10000 dump.water.0
dump            myDump2 all dcd ${out_freq2} dump.dcd
dump            myDump2 all dcd 10000 dump.dcd
dump_modify     myDump append yes
dump_modify     myDump2 append yes


variable natoms 	equal  "count(all)"                        # NUMBER ATOMS
variable H      	equal  "enthalpy/v_natoms"                 # ENTHALPY-per-atom
variable Vol      	equal  "vol/v_natoms"                 # volume-per-atom
fix AVG all 		ave/time ${out_freq} 1 ${out_freq} v_Vol v_H file vol_enthalpy.dat
fix AVG all 		ave/time 1000 1 ${out_freq} v_Vol v_H file vol_enthalpy.dat
fix AVG all 		ave/time 1000 1 1000 v_Vol v_H file vol_enthalpy.dat


timer           timeout 10:00:00 every 1000
New timer settings: style=normal  mode=nosync  timeout=10:00:00

fix 		1 all shake 1e-6 200 0 b 1 a 1
       0 = # of size 2 clusters
       0 = # of size 3 clusters
       0 = # of size 4 clusters
     432 = # of frozen angles
  find clusters CPU = 0.002 seconds
fix             2 all nph tri ${pressure} ${pressure} ${pressureDamp}
fix             2 all nph tri 4250 ${pressure} ${pressureDamp}
fix             2 all nph tri 4250 4250 ${pressureDamp}
fix             2 all nph tri 4250 4250 1000
fix             3 all temp/csvr ${temperature} ${temperature} ${tempDamp} ${seed}
fix             3 all temp/csvr 248.22 ${temperature} ${tempDamp} ${seed}
fix             3 all temp/csvr 248.22 248.22 ${tempDamp} ${seed}
fix             3 all temp/csvr 248.22 248.22 100 ${seed}
fix             3 all temp/csvr 248.22 248.22 100 745823


run             250000
PPPM initialization ...
  extracting TIP4P info from pair style
  using 12-bit tables for long-range coulomb (../kspace.cpp:340)
  G vector (1/distance) = 0.3673923
  grid = 30 40 32
  stencil order = 5
  estimated absolute RMS force accuracy = 0.0044546326
  estimated relative force accuracy = 1.3414994e-05
  using double precision FFTW3
  3d grid and FFT values/proc = 5168 640
Last active /omp style is kspace_style pppm/tip4p/omp
Neighbor list info ...
  update every 1 steps, delay 7 steps, check yes
  max neighbors/atom: 2000, page size: 100000
  master list distance cutoff = 10.8154
  ghost atom cutoff = 10.8154
  binsize = 5.4077, bins = 7 5 5
  1 neighbor lists, perpetual/occasional/extra = 1 0 0
  (1) pair lj/cut/tip4p/long/omp, perpetual
      attributes: half, newton on, omp
      pair build: half/bin/newton/tri/omp
      stencil: half/bin/3d/tri
      bin: standard
Per MPI rank memory allocation (min/avg/max) = 9.432 | 9.439 | 9.443 Mbytes
Step Temp PotEng TotEng E_pair E_mol Press Lx Ly Lz Volume Pxx Pyy Pzz Pxy Pxz Pyz Enthalpy 
13250000    253.23459   -6293.5282   -5642.0976   -6293.5282            0    2830.9881    23.387742    21.594108    21.944276    11082.681    3654.1947    1970.3556    2868.4141    206.61028   -1893.5776    930.56594   -5184.5264 
13251000    258.68287   -6369.6458   -5704.1999   -6369.6458            0    3176.7982    23.534148    21.413334    21.805993    10989.012    2227.6143    3498.8044     3803.976    -1023.545    610.06115    157.09573   -5195.0752 
13252000    245.67385   -6314.9484   -5682.9674   -6314.9484            0    4652.9025    23.327215    21.673276    21.686923    10964.413    4925.1615     3657.895    5375.6511   -379.98779    95.451409    64.182093   -4938.9463 
13253000    246.15506   -6321.6339    -5688.415   -6321.6339            0    4864.5205    23.353615    21.417036    21.903569    10955.403    5747.6828    6233.7592    2612.1196   -931.00789   -726.62828   -828.31659   -4911.1944 
13254000    243.23265   -6341.1986   -5715.4974   -6341.1986            0      5213.38    23.295609    21.371579    21.914296    10910.338    6224.5597    5230.4875    4185.0929   -538.68788   -882.20059   -257.51365   -4885.9648 
13255000    260.96583   -6363.7142   -5692.3955   -6363.7142            0       3530.6    23.408467    21.596477    21.721707    10981.201    2807.1517    3804.2132    3980.4352    721.44284    589.25081    608.04651   -5126.9715 
13256000    244.56371   -6302.1522    -5673.027   -6302.1522            0    4845.4168    23.421699    21.388665    21.892045    10967.014    4985.4245    4421.3765    5129.4494    194.32579   -27.117442    499.85034   -4898.0382 
13257000    252.08664   -6348.8781   -5700.4006   -6348.8781            0    3644.7038    23.070848    21.622495    21.982317    10965.863    5041.4598    4363.7508    1528.9006   -26.343272   -315.95013   -1561.3743   -5117.5182 
13258000    252.35387   -6327.4397   -5678.2748   -6327.4397            0    5226.3554    23.642204    21.427233    21.598158    10941.346    4959.8484    5771.0272    4948.1905   -129.16421     676.6681   -178.55763   -4844.3141 
13259000    264.14425   -6323.0736   -5643.5786   -6323.0736            0    4029.5462    23.342925     21.55123    21.770315    10951.965    4993.0802    3496.7971    3598.7613   -455.60461    1189.2563    575.10177   -4999.9666 
13260000     251.6094   -6310.4834   -5663.2336   -6310.4834            0     4353.049    23.227721    21.429291    22.018575    10959.825    5507.2722    4673.3232    2878.5516    260.81203   -214.45128      703.772   -4967.4518 
13261000    243.63706   -6311.7048   -5684.9633   -6311.7048            0    4574.2731    23.397442    21.321622    21.981191    10965.788    4251.6501    4952.5951     4518.574    823.04821    1461.0358    747.80698   -4953.4237 
13262000    250.84175   -6295.6312   -5650.3561   -6295.6312            0    3039.2121    23.374854    21.695784    21.760527    11035.542    4036.0416    1893.8561    3187.7386   -461.55635   -159.96121    733.86023    -5161.219 
13263000    249.46677    -6302.861    -5661.123    -6302.861            0    3669.6532      23.5065    21.466589    21.775756    10988.142    3505.8215    3608.0981    3895.0399   -450.92334   -252.98531   -351.46977   -5073.0582 
13264000    240.96296   -6335.3157   -5715.4532   -6335.3157            0    4132.9949    23.250524     21.59297    21.910318    11000.028    4747.6989    3436.1876    4215.0983    274.53024   -241.93804   -140.90018    -5052.421 
13265000    255.93928   -6339.8084   -5681.4202   -6339.8084            0    3459.8101    23.419951    21.495696    21.858728    11004.299    3270.7832    3902.3011     3206.346    703.23269    403.36288    182.59672   -5126.1677 
13266000    248.16787   -6327.0068   -5688.6101   -6327.0068            0    3818.3804    23.470843    21.459643    21.811699    10986.027     3778.394    4139.3803    3537.3671   -17.586384   -370.72698    332.40778   -5076.8294 
13267000    256.68269     -6345.92   -5685.6194     -6345.92            0    4986.4978    23.293728    21.633854    21.699647    10935.171    5679.3994    4480.5138      4799.58   -351.00784    587.24343    92.302595   -4890.3815 
13268000    235.20887   -6330.8625    -5725.802   -6330.8625            0    3844.0124    23.666299    21.362058    21.804862    11023.685    2399.5721    4670.2577    4462.2075    727.23073   -332.99435   -1407.2637   -5107.8035 
13269000    244.71723   -6318.1264   -5688.6063   -6318.1264            0    3390.3493    23.327858    21.709891    21.681338    10980.411    3790.4235    2187.3265     4193.298    89.213834   -1074.5532    357.05806   -5145.6824 
13270000    241.16134   -6328.6758   -5708.3029   -6328.6758            0    4554.3321    23.428152    21.433835    21.792352    10943.142    4387.3904    4576.3627    4699.2431    633.16347   -29.061248    423.78899   -4981.4566 
13271000    248.22224   -6360.1189   -5721.5823   -6360.1189            0    3674.4966     23.41272    21.434816    21.867178    10973.986    2649.4547    4433.9034    3940.1316     787.7831   -392.00844   -282.15756      -5133.5 
13272000    250.14478   -6324.0549   -5680.5727   -6324.0549            0    3175.9752    23.498231    21.585154    21.729145    11021.304    3259.5304    3397.9606    2870.4346    1187.6348   -962.44027   -670.94053   -5170.0842 
13273000    251.62047   -6350.4726   -5703.1942   -6350.4726            0    4056.9982    23.534347    21.528744    21.651332     10969.97    3231.7181    4647.2648    4292.0119   -344.31268    26.942343   -512.95158   -5054.1323 
13274000    262.90121   -6292.3326   -5616.0353   -6292.3326            0    3884.8989    23.381428    21.599223    21.741616    10979.966    4070.8248    3257.0993    4326.7726   -53.690598   -360.88036    1047.9067   -4993.9404 
13275000    252.08207   -6305.8826   -5657.4168   -6305.8826            0    2815.7805    23.345245    21.444324     22.11462    11071.087    2306.7427    4162.9203    1977.6784    586.42498    116.36177     570.0743   -5202.7796 
13276000     252.0895   -6306.3574   -5657.8725   -6306.3574            0     4846.105     23.46522    21.598662    21.640451    10967.756    4966.4723     4310.427    5261.4156    -528.5399    567.05457   -678.18759   -4882.7211 
13277000    250.07684   -6310.9253   -5667.6179   -6310.9253            0    3964.7606    23.485429    21.605976    21.653429    10987.505    4163.3097    3473.4548    4257.5174    41.449918    -842.4861   -255.20545   -5032.2988 
13278000    244.84919   -6350.2419   -5720.3822   -6350.2419            0    4451.2558    23.420819    21.443995    21.759821    10928.564    4043.4676    4243.1088    5067.1909   -450.56514    121.56684   -251.84135   -5010.9327 
13279000    235.68171    -6317.781   -5711.5042    -6317.781            0    4044.3513    23.315406    21.416981    21.960776    10966.017    2873.5229    5201.5516    4057.9795    364.69431   -532.44841    897.74672   -5064.6987 
13280000    267.02473   -6330.5649     -5643.66   -6330.5649            0    4764.8525    23.362873    21.408762    21.933059    10970.262    5745.6156    4137.0085    4411.9333   -315.43099    187.22743    496.39192   -4881.3312 
13281000    248.42936    -6290.442   -5651.3726    -6290.442            0    3440.1407    23.520751    21.721281     21.64515    11058.525    4188.0563    1867.0842    4265.2815    363.17308    52.459336    -345.5957   -5096.5562 
13282000    245.96539   -6309.2158   -5676.4848   -6309.2158            0    3648.2329     23.48044    21.470995    21.834228    11007.692    3677.2055    4371.6247    2895.8685   -269.32209    792.42322   -476.90548   -5090.8125 
13283000    255.31378   -6344.8495   -5688.0703   -6344.8495            0    4254.0109    23.353878    21.426292    21.913208    10965.085     4132.771    4678.5251    3950.7368    262.48573     1353.032   -14.269849   -5007.7922 
13284000     241.4585   -6315.9628   -5694.8256   -6315.9628            0    4648.4866    23.178491    21.663585    21.727119    10909.821     5568.258    3953.9657     4423.236    596.58203   -217.58947    783.80398   -4955.2116 
13285000    245.92249   -6342.9878   -5710.3671   -6342.9878            0    3936.5968    23.482836    21.335066    21.883813    10963.962     2774.045    5583.3105    3452.4349   -292.02107    476.59415    492.36936   -5080.9126 
13286000    241.97556   -6335.9051   -5713.4377   -6335.9051            0    5091.0743    23.294344    21.564698    21.786981    10944.373    5880.1595    3638.1198    5754.9437   -364.28958   -261.26858     1076.865   -4900.8388 
13287000    254.34138   -6333.0113   -5678.7336   -6333.0113            0    5695.6162    23.310214    21.464995    21.773888    10894.644    5316.5695    5928.0013    5842.2778    46.823432    297.77602   -339.85402   -4773.7731 
13288000    243.16892    -6307.583   -5682.0458    -6307.583            0    4496.2894    23.487066    21.399606    21.830315    10972.221    3782.0525    3777.1605    5929.6552     223.9849    645.60992   -260.00295   -4962.5559 
13289000    247.07126   -6325.1921   -5689.6163   -6325.1921            0    3436.2178    23.399029    21.540384    21.832189    11003.949    4349.9665    2724.8975    3233.7893   -863.30513    746.22127    -314.1623   -5138.1676 
13290000    241.38755    -6333.046   -5712.0913    -6333.046            0    2980.7602    23.403396    21.531547    21.918332    11044.896    4613.0827     2897.703    1431.4949    145.51785    981.83536   -386.17952    -5231.955 
13291000    249.90524   -6351.3595   -5708.4935   -6351.3595            0    4372.7743    23.624173    21.471349    21.611245     10962.15    4258.4723    3905.2894     4954.561    873.76427    155.54184   -1667.9998   -5009.4106 
13292000    247.77342    -6336.182   -5698.7999    -6336.182            0    4102.7616    23.300394    21.584673    21.830201    10979.093    5537.3568    2930.3169     3840.611    -477.6021   -131.33768   -426.89063   -5041.8706 
13293000      253.811   -6323.0034   -5670.0901   -6323.0034            0    4784.7309    23.387566    21.438024    21.826175    10943.277     4688.791    4846.3487     4819.053   -864.58554   -223.40913   -250.20321   -4906.4639 
13294000    250.32348   -6319.6035   -5675.6617   -6319.6035            0    5543.1585    23.286736    21.562552    21.737383    10914.806    5969.4412    5310.8024    5349.2319   -483.77592   -1057.9022    513.83399   -4793.2948 
13295000    240.16468   -6368.9824   -5751.1734   -6368.9824            0    4248.6448    23.559694    21.484497      21.6163    10941.483     3670.236    4027.4977    5048.2007   -707.48207   -327.40775    469.32713   -5073.2158 
13296000    251.94126   -6322.8001   -5674.6965   -6322.8001            0     3904.558    23.370678    21.436709    21.949098    10996.288     4855.837    4228.3289    2629.5082   -303.17223   -517.62862   -434.66647   -5048.5242 
13297000    250.65139   -6355.6994   -5710.9139   -6355.6994            0    3501.5536    23.382105     21.52213    21.820035    10980.555    4016.8026    3127.5671    3360.2911    344.01483    1072.6655   -482.87594   -5150.1747 
13298000    252.59801   -6319.4524   -5669.6594   -6319.4524            0    4164.7755    23.529328    21.341024    21.865564    10979.573    4003.5663    4967.7536    3523.0066    263.96459    -261.9476   -675.61839   -5002.7714 
13299000     252.4982   -6310.6715   -5661.1353   -6310.6715            0    4519.7161    23.362592    21.641609    21.689778     10966.44    5348.7574    3946.4292    4263.9617   -730.95753     245.4225   -840.30431   -4938.2778 
13300000    243.79766   -6306.8276   -5679.6729   -6306.8276            0     5193.214    23.366727    21.509133    21.769848    10941.483     6377.859    4390.0043    4811.7789   -406.14902    359.99373    -370.3189   -4850.9902 
13301000     245.9539   -6292.0531   -5659.3516   -6292.0531            0    4125.5763    23.453111    21.370993    21.969118     11011.28    4205.2177    4028.8575    4142.6536    1454.2551    172.26315    2859.3978   -4996.8327 
13302000    240.72003   -6339.8458   -5720.6081   -6339.8458            0     3151.381    23.430552    21.665294     21.70191    11016.536    3478.4195    2563.9805     3411.743    158.17848    528.01374    420.40859   -5214.2919 
13303000    245.35638   -6340.8103   -5709.6459   -6340.8103            0    4209.2191    23.557536    21.422577    21.740518    10971.638    4058.0423    4829.2095    3740.4054   -219.19381   -1305.2451    481.25282   -5036.1285 
13304000    248.89457   -6311.9325   -5671.6664   -6311.9325            0    4487.2556    23.197638    21.567104    21.999138    11006.298    6442.5049    3460.6721    3558.5899   -872.15998   -1218.6822   -136.53847    -4951.392 
13305000    252.18484   -6326.0258   -5677.2957   -6326.0258            0     4002.883    23.472247     21.51879    21.743247    10982.391    3472.2204    4064.2629    4472.1658   -654.59081    8.1619536    475.33589   -5036.1663 
13306000    261.06426   -6315.0888   -5643.5169   -6315.0888            0    3711.2351    23.385471     21.70702    21.656534    10993.482    4187.5922    2560.3452    4385.7679    -993.0558   -639.35061   -529.19402   -5048.4995 
13307000    250.67681   -6332.1659   -5687.3151   -6332.1659            0    5435.0789    23.341511    21.367404    21.923988    10934.534    5805.9018    6748.8961    3750.4388    1372.4223    -577.6426   -943.78513   -4820.5887 
13308000     251.1179   -6335.0628   -5689.0772   -6335.0628            0    6114.0356    23.368439     21.36905    21.852193     10912.14    4721.5391    6523.9902    7096.5773    1517.0007   -313.57298    35.709105   -4716.0751 
13309000    249.80114   -6316.0823   -5673.4841   -6316.0823            0    6024.7404    23.380954    21.553332    21.652119    10911.314    5158.4509    6254.0367    6661.7336    2606.4706    88.414981    20.972877   -4714.7652 
13310000    248.87841   -6360.7067   -5720.4822   -6360.7067            0    2566.8256    23.556487    21.510523    21.747945    11019.952    1930.0916    2359.5882     3410.797   -405.54067   -1.2146649    -61.47369   -5307.9556 
13311000    244.35999   -6319.0302    -5690.429   -6319.0302            0    1908.2192    23.248129    21.680442    22.002486    11089.907    3701.8852    197.82827    1824.9442   -612.65312   -489.84813    1006.8018   -5381.8033 
13312000    249.47776   -6317.6869   -5675.9205   -6317.6869            0    4295.1303     23.50725    21.385985    21.819634    10969.291    3084.1245    5380.1789    4421.0875   -126.13544    535.63071    1056.8034   -4988.8034 
13313000    262.03549   -6324.1151   -5650.0447   -6324.1151            0     2919.154     23.34989    21.620933     21.87684    11044.444    3001.4583    3472.7928     2283.211   -156.15943     717.1962    721.09006   -5179.8511 
13314000    242.39602   -6328.5512   -5705.0022   -6328.5512            0    4156.1802    23.333073    21.580702    21.762024    10958.138     4721.658    2965.1165    4781.7661    976.43976   -56.213545    123.29785   -5040.7897 
13315000    234.81465   -6340.9167   -5736.8703   -6340.9167            0    3897.5433    23.562632    21.294633    21.825197    10950.959    3636.0057    4134.0367    3922.5873   -524.41417   -190.12736    333.43876   -5114.3995 
13316000    256.00034   -6313.8505   -5655.3052   -6313.8505            0    4146.0752    23.159471    21.687729    21.903677    11001.699    4740.1779     4610.176    3087.8717    859.09882   -410.51656    114.75322   -4990.0737 
13317000    235.06355   -6332.7051   -5728.0184   -6332.7051            0    4461.8607    23.590914    21.345689    21.722243    10938.546    3153.9893    4937.8824    5293.7105    865.42775    7.7335105    237.27819    -5016.229 
13318000    245.92873   -6350.2167     -5717.58   -6350.2167            0    2731.2303    23.227313    21.728941    21.846646    11026.109    2619.6942    2209.1323    3364.8643    973.26936    165.42557    547.75679   -5278.3859 
13319000    236.29691   -6346.6294     -5738.77   -6346.6294            0    3043.2568    23.437321    21.366192    22.035961    11034.867      3898.38    3316.8357    1914.5547   -1299.9049   -511.56793    908.98838    -5249.012 
13320000    245.39964   -6325.8832   -5694.6076   -6325.8832            0    4784.9955    23.423071    21.455689    21.760393    10935.862    5110.1034    3913.8735    5331.0095    1047.5504   -790.47518    223.17283   -4931.4566 
13321000    246.53797   -6308.8907   -5674.6868   -6308.8907            0    4145.4366    23.505206    21.646681    21.569828    10974.938    2153.2421    4875.9556    5407.1121    1922.2297    777.74119    671.64178   -5011.1757 
13322000    268.35987   -6325.0399   -5634.7005   -6325.0399            0    2322.6919    23.590229    21.370103    21.963589    11072.408    1815.7381    4118.0311    1034.3065   -47.566456    293.33503   -1745.4625   -5259.6329 
13323000    229.96052   -6314.3118   -5722.7524   -6314.3118            0    4953.1186    23.303334    21.595261    21.756775    10948.913    4584.5212    6129.0305    4145.8039   -752.09395    1413.8276   -811.87731    -4931.845 
13324000    241.33246    -6317.127    -5696.314    -6317.127            0    5749.6751    23.541477     21.22799    21.835839    10912.204    4728.5512    6637.1108    5883.3633    744.35371   -401.15537   -134.75533   -4781.2917 
13325000    248.60492   -6330.4192   -5690.8982   -6330.4192            0     4909.287    23.307136    21.632456    21.644506    10912.956    3014.0872    6020.6166    5693.1572    214.09395    274.89031    440.42032   -4909.5642 
13326000    253.21161   -6343.4062   -5692.0348   -6343.4062            0    4684.8369    23.464273    21.484484    21.670123    10924.295    5005.1115    4140.6007    4908.7985   -978.78273   -139.46004    357.23268   -4945.6483 
13327000    245.85038   -6346.8075   -5714.3724   -6346.8075            0    2740.8862     23.35513    21.492136    21.956375    11021.038    3547.5913    2939.9687    1735.0985   -5.7391012   -853.56617    492.67089   -5273.8283 
13328000    247.95304   -6296.0183   -5658.1742   -6296.0183            0    3815.1122    23.431642    21.604027    21.740982    11005.673    3148.6292    3232.8062    5063.9012    1852.3558   -688.16311    1092.8585   -5045.8241 
13329000    237.76879   -6319.2124   -5707.5666   -6319.2124            0    6113.2114    23.487871    21.451644    21.602358    10884.422    4620.0681    6455.6432    7263.9229    638.41785    170.47024   -394.08538   -4737.1669 
13330000    256.90984   -6313.9349   -5653.0499   -6313.9349            0     5070.777    23.323681    21.491247    21.809748    10932.245    5634.6416     5303.794    4273.8954    881.81551   -281.00062   -438.01369   -4844.5877 
13331000    248.42238   -6347.9417   -5708.8903   -6347.9417            0    4176.8973    23.392222    21.475167    21.835709     10969.21    3667.5279    3785.3401    5077.8239    135.01842    131.71983    357.88633   -5040.6925 
13332000    244.55973   -6332.2676   -5703.1526   -6332.2676            0    4298.8749    23.458364    21.536654     21.67907    10952.584    4012.6285    4040.7308    4843.2654    726.54502   -637.60652    -1223.689   -5016.4838 
13333000    240.33475   -6307.3558   -5689.1093   -6307.3558            0     4436.826    23.543058    21.472415    21.705356    10972.628    3747.0145    4068.0257    5495.4379     591.9809   -453.85747    1240.5842   -4979.1083 
13334000    259.30282   -6307.7716   -5640.7309   -6307.7716            0    3075.4099    23.375627    21.516267    21.959732    11044.784     3051.223    3056.9439    3118.0627   -1329.1493    419.73187    822.73164   -5145.3536 
13335000    247.34317    -6338.349   -5702.0738    -6338.349            0    4235.3426     23.45938    21.465862    21.808865    10982.417    3181.1672    3749.8387    5775.0218     475.9098    456.65548    1053.0963   -5023.7105 
13336000    249.22297   -6352.1247   -5711.0138   -6352.1247            0    3623.7277    23.386132    21.609286    21.712494    10972.574     4477.796    2747.8437    3645.5433    495.95894    -66.65968   -1056.6166   -5131.1314 
13337000     238.3185   -6331.0512   -5717.9914   -6331.0512            0    5010.7603    23.362605    21.466119    21.775347    10920.434    4313.8725    5294.9556    5423.4527     438.2007    1411.4465   -503.49555    -4919.961 
13338000    255.19681   -6333.9897   -5677.5114   -6333.9897            0    2673.0161    23.437256    21.451524    21.978992    11050.265    2430.1546    3803.2177    1785.6761   -252.78304    843.13637   -223.86359   -5246.7367 
13339000    238.81773   -6358.8484   -5744.5043   -6358.8484            0    4564.3625    23.362609    21.524877    21.737964    10931.528    4210.7723    5338.5957    4143.7196    372.54677    1495.2033    450.51291   -5016.8303 
13340000    251.81858   -6355.1823   -5707.3943   -6355.1823            0     3998.344    23.459977    21.477703    21.781529    10974.981    4447.0467    3701.9911    3845.9942   -632.41679   -1343.6874    783.15823    -5067.424 
13341000    245.38541   -6352.9628   -5721.7238   -6352.9628            0    4639.6454     23.31925    21.510376    21.802828    10936.425    5000.4657    5837.4759    3080.9948   -1071.2818    -486.5826   -1734.1587   -4981.7163 
13342000    246.79642   -6323.7702   -5688.9014   -6323.7702            0    4026.5097    23.418134    21.509942     21.76475    10963.398    3996.7161     3418.296    4664.5168   -1328.8546    107.24547     1391.041   -5045.1031 
13343000    238.26812   -6304.4897   -5691.5594   -6304.4897            0    4527.9405    23.369195    21.521497    21.756587    10942.259    5691.0248    3526.5001    4366.2966     1445.151   -1213.3335   -375.45999   -4968.9833 
13344000    250.35863   -6328.5541   -5684.5217   -6328.5541            0    5475.6988    23.272284    21.488272    21.889834    10946.694    6346.1654    5939.8072    4141.1238    392.86746    175.22337    136.54758   -4810.3467 
13345000    239.45295   -6349.1702   -5733.1921   -6349.1702            0    5131.8715    23.371423    21.382091    21.811859    10900.038    5889.2085    3143.2267    6363.1795    1522.5195   -465.83468    1094.0078   -4917.3996 
13346000    248.46129    -6298.347   -5659.1955    -6298.347            0     4746.579    23.451235    21.522969    21.708962    10957.386    4777.9481    5194.7114    4267.0775    1173.9192    203.23141    -1581.776   -4900.6816 
13347000    247.78856   -6329.0286   -5691.6076   -6329.0286            0    4725.8955    23.422589    21.393323    21.839336    10943.408    4388.5267    4907.3588    4881.8011    1773.8714    58.191447   -689.15768   -4937.3624 
13348000    237.55349   -6348.8532   -5737.7613   -6348.8532            0    4349.8401    23.276561    21.519249    21.943079    10991.159    5134.2301    5305.9885    2609.3018    542.72809    -404.9618   -1015.2499   -5040.5046 
13349000    244.93357   -6320.4456   -5690.3689   -6320.4456            0     3962.131    23.448967    21.463875    21.850906    10997.686    3639.9211     4545.495    3700.9768   -772.01031    99.640727    590.60076   -5054.8828 
13350000    238.49167   -6321.6206   -5708.1153   -6321.6206            0    5669.2387    23.473435    21.519482    21.599665    10910.772    6338.4679    4215.9018    6453.3465   -343.77406   -346.05905    1526.4684   -4806.0123 
13351000    245.80786   -6353.5412   -5721.2154   -6353.5412            0    4246.4424    23.292442      21.5049    21.878739    10959.096    5263.6115    4235.6399    3240.0757    681.65222   -191.84428    1384.4327   -5042.5186 
13352000    247.92097   -6333.2046    -5695.443   -6333.2046            0    3427.5408     23.33848    21.515355    21.964632    11029.226    4212.4144    3572.9271    2497.2808    353.51092   -529.06154   -779.37038   -5144.1233 
13353000    249.67896   -6299.5903   -5657.3064   -6299.5903            0    2026.9423    23.547686     21.68291    21.724874    11092.337    1060.1025    2566.1664    2454.5579   -266.74926    842.81582   -289.28633   -5329.4072 
13354000     244.3173   -6315.0326   -5686.5412   -6315.0326            0    3638.4104    23.494002    21.709396    21.572612    11002.908    2787.9486    2461.0613    5666.2213   -606.66931    679.33083   -370.68418   -5102.6996 
13355000    254.62454   -6329.5825   -5674.5764   -6329.5825            0    4655.7141    23.459642    21.291993    21.923238    10950.713    4660.6551    5648.4209    3658.0664   -677.14053    1035.2871   -348.32182    -4931.036 
13356000    247.57438   -6343.3932   -5706.5232   -6343.3932            0    4733.2545     23.28089    21.515225    21.830837    10934.926    6137.0499    3779.0524    4283.6613   -10.376153    1496.1886   -832.71931   -4951.6889 
13357000    250.37439   -6347.2109   -5703.1381   -6347.2109            0    3765.2615    23.411558    21.459264    21.827713     10966.13    3723.7592    3478.0641    4093.9612   -140.70278    555.70297    706.20114   -5100.9607 
13358000    250.41744   -6337.7012   -5693.5176   -6337.7012            0    4455.6358    23.419707    21.530641    21.718902    10951.568     4381.515    4948.3407    4037.0515    -303.7927   -1089.0543    357.91465   -4981.8751 
13359000     238.9424   -6323.3416   -5708.6768   -6323.3416            0    3225.4868    23.321441    21.617239    21.867896    11024.594    2728.5501    3516.3407    3431.5697      255.204   -1117.9442    47.175614   -5190.0753 
13360000    238.29119   -6326.1764   -5713.1868   -6326.1764            0    3473.7047    23.530927    21.512383    21.724353    10997.004    2264.6228    4840.6471    3315.8444   -416.50995    199.23813   -163.20822   -5156.0739 
13361000    245.11925   -6318.0553    -5687.501   -6318.0553            0    3499.8476    23.436283    21.567672    21.735179    10986.396    4603.3314    1376.0283    4520.1831   -665.26773    959.50217    666.70752   -5126.7368 
13362000    249.73817   -6334.2611   -5691.8248   -6334.2611            0    4528.0775    23.341117    21.419479    21.953431    10975.718    5092.5487    5631.8703    2859.8136    85.194074    546.50208   -1072.2548   -4967.0173 
13363000    250.50492   -6333.1234   -5688.7147   -6333.1234            0    3746.8738    23.426669    21.538085    21.729922    10964.171    3359.3246    3274.5352    4606.7615    412.25363   -310.33447   -712.65035   -5089.5852 
13364000    258.88346   -6338.1294   -5672.1674   -6338.1294            0    3905.9395    23.435479    21.671297    21.610772    10975.619    4130.3034    2800.8955    4786.6197    26.724652   -336.24441    70.638796   -5046.9509 
13365000    249.31522   -6319.0206   -5677.6724   -6319.0206            0    3544.9424    23.459958    21.535011    21.847236    11037.452    4014.4862      3003.53    3616.8111    155.10553     -313.999     56.17076   -5107.0434 
13366000    240.85301   -6350.7926   -5731.2129   -6350.7926            0    4392.9948    23.262044    21.491094    21.933496    10965.142    3972.0536    4970.6272    4236.3036   -28.735764   -161.80438    677.06192   -5028.7056 
13367000    233.23123    -6352.579   -5752.6059    -6352.579            0    3835.6284     23.26506    21.599838    21.843367    10976.762    4055.4325    3696.3929    3755.0599    185.34917    -309.7889    680.17127     -5138.58 
13368000    247.68212   -6363.5881   -5726.4409   -6363.5881            0    3582.3203    23.611251    21.362348    21.753045    10972.057    2713.4064    4585.2235    3448.3309    328.62554    9.7840753    461.83721   -5153.2117 
13369000    249.38452   -6342.5731   -5701.0466   -6342.5731            0    5193.2013    23.313754    21.555482    21.742728    10926.573    5242.1365    4425.4951    5911.9724    1127.2363    956.31659   -980.65964   -4873.4951 
13370000    244.97599   -6330.9937   -5700.8078   -6330.9937            0    4216.4469    23.395894    21.410288    21.954191    10997.136    3996.3865    5110.9343    3542.0199    941.29878   -366.97695    217.60499   -5024.5659 
13371000     239.8272   -6322.2892   -5705.3483   -6322.2892            0    3094.9328    23.525158    21.576654    21.710989    11020.372    2494.0577    3188.1445    3602.5962    1214.9439   -403.18587    244.51335   -5207.9282 
13372000    255.88321   -6306.6268   -5648.3829   -6306.6268            0    4427.2035    23.436333     21.54307    21.735013    10973.803    3952.3396    5001.3861    4327.8848   -683.76993   -319.56145   -1219.0071   -4939.8458 
13373000    244.50223   -6340.2968   -5711.3297   -6340.2968            0     3482.275    23.465046    21.356865    21.959424    11004.742    3308.9469    3525.3729    3612.5053   -418.95445   -883.87951    782.87726   -5152.4494 
13374000    249.77555   -6323.6306   -5681.0983   -6323.6306            0    4905.1175    23.223264    21.683662    21.632723    10893.491    6032.7006     3424.314     5258.338    1382.5175   -605.42814    -1198.223   -4901.8203 
13375000    254.31239   -6311.7367   -5657.5336   -6311.7367            0    5907.5073    23.503975    21.425926    21.654268    10904.969    4759.0962    5150.1083    7813.3173   -676.42994   -157.28582    429.84445   -4718.0167 
13376000    250.97992   -6330.4765   -5684.8459   -6330.4765            0    4971.4822    23.193299    21.541148    21.948586     10965.74    5094.6107    6170.0225    3649.8133    1635.7946   -536.98542   -1127.9848   -4889.7863 
13377000    250.23882   -6335.3835   -5691.6593   -6335.3835            0    4060.2198    23.442718    21.589217    21.661254    10962.976    3123.2223    4153.4061    4904.0309   -263.19064    90.359961    73.630412   -5042.4961 
13378000    246.40235   -6330.2358   -5696.3808   -6330.2358            0    4345.7428    23.569032    21.400466    21.753783    10972.353    3562.9284    5074.9324    4399.3675   -1024.9649    700.34116   -1209.1084   -5000.9728 
13379000    254.16065   -6306.2966   -5652.4839   -6306.2966            0    3202.5084    23.237054    21.675464    21.909886    11035.438    3787.4002    3202.2826    2617.8426    1079.4368    466.55393   -564.76228   -5137.0704 
13380000    231.89566   -6341.5833   -5745.0459   -6341.5833            0    2962.5869    23.752033    21.428652    21.637934    11013.147    2202.5936    2445.2663    4239.9009    591.23784    391.94655   -118.70161   -5269.2087 
13381000    245.27876   -6362.1901   -5731.2255   -6362.1901            0    4342.5585    23.323617    21.635386    21.684441    10942.304     5023.235    2974.9266    5029.5137    464.87156   -483.69796    746.50069   -5038.2301 
13382000    249.07632    -6300.788   -5660.0543    -6300.788            0    3111.4099    23.487293    21.416964    21.979604    11056.323    3692.0548    3786.9081    1855.2667   0.61349501   -823.25388   -587.95751   -5158.3546 
13383000    259.28735   -6351.3354   -5684.3345   -6351.3354            0    4116.8999    23.491067    21.615909    21.613047     10974.69    3801.7376    4517.1274    4031.8347    639.89107    425.24698   -1283.3544   -5025.4057 
13384000     240.5994   -6354.5919   -5735.6646   -6354.5919            0    3319.1601    23.465386    21.375108    21.879521    10974.224    2202.0805    5482.6481    2272.7517    63.934941    594.24511   -308.85264   -5204.4403 
13385000    238.34397   -6340.6111   -5727.4858   -6340.6111            0     5241.305    23.243966    21.364698    21.925407    10888.164    4719.9548    6259.2813    4744.6788   -879.87068   -226.55722   -767.79399   -4895.2048 
13386000     249.8204   -6306.9211   -5664.2733   -6306.9211            0    5490.7452    23.156226    21.642073    21.840167    10945.172    7249.4939    3857.2326    5365.5092    1096.4354   -1613.5133   -326.49811    -4787.818 
13387000    256.11856   -6354.9952   -5696.1458   -6354.9952            0    4819.2493    23.600539    21.454167    21.524089     10898.29    4144.8813    4456.7402    5856.1265    -576.1608    422.76968   -870.19598   -4930.1724 
13388000    242.18983   -6341.8125   -5718.7939   -6341.8125            0    4677.9313    23.349918    21.532114    21.760653    10940.671     4511.359    3922.9076    5599.5272    557.27943     432.6136    313.81862   -4972.3904 
13389000    248.59887   -6346.7666   -5707.2611   -6346.7666            0    4995.3049    23.307784    21.227682    22.078945    10924.005    5232.0389    6397.6472    3356.2286   -601.98475   -71.311692   -795.26274   -4911.4321 
13390000    257.65371   -6356.0427   -5693.2442   -6356.0427            0    4652.1044    23.297749    21.523378    21.740923    10901.905    3812.0881     4864.028     5280.197   -411.32319   -305.90412    996.79493   -4953.5917 
13391000    249.03597   -6352.6442   -5712.0144   -6352.6442            0     3456.542    23.547332    21.520422       21.639    10965.532    2839.1108    3340.5391    4189.9761   -313.89173     254.5417    172.37384   -5159.2406 
13392000     247.0714   -6330.8379   -5695.2618   -6330.8379            0    3239.3055    23.397684    21.381893    21.955586    10984.089     3419.197    4200.7554    2097.9642   -388.47895   -687.58102   -1489.9417    -5176.352 
13393000    241.51128   -6312.6468   -5691.3737   -6312.6468            0    3277.9143    23.285465    21.767458    21.701678    10999.829    2469.3278    3889.0963    3475.3189    463.94331    144.42577    169.57586   -5165.5267 
13394000    242.07207   -6320.7976    -5698.082   -6320.7976            0    5283.6334    23.662943    21.264202    21.689845    10913.757    4563.6441    6167.0298    5120.2263    115.75079   -422.70525   -91.921211   -4857.1075 
13395000    255.59316   -6307.5151   -5650.0173   -6307.5151            0    4106.7776    23.286487    21.741004    21.714591    10993.481    3742.4107    4653.1902    3924.7319    463.27187    454.03357   -1300.5536   -4991.5832 
13396000    244.48913   -6334.9232   -5705.9898   -6334.9232            0    4366.8578    23.635397    21.247681    21.851908    10973.971    3208.7316    5415.8265    4476.0152    351.84027   -36.738453     515.1718   -5007.0999 
13397000    249.63405    -6368.195   -5726.0266    -6368.195            0     2511.226     23.22929    21.690587    21.872303    11020.512    2570.7906     3160.161    1802.7263    1186.3372    1102.3409    631.51046   -5322.4152 
13398000    240.82034    -6345.407   -5725.9113    -6345.407            0    3902.1355    23.489617    21.383678    21.810675     10955.38    3629.3772    5267.9755    2809.0537     1022.989   -267.26215    396.24278   -5102.4555 
13399000    250.56704   -6310.1024    -5665.534   -6310.1024            0    3676.0919    23.472319    21.474067    21.876514    11026.773    3118.6777    3770.4985    4139.0994    294.13681   -189.19632    30.684211   -5074.3663 
13400000    244.16689   -6336.3048   -5708.2003   -6336.3048            0    4803.8467    23.230281    21.712456    21.732682    10961.671    5583.6377    4114.6696    4713.2328   -927.14003   -155.38852   -282.98452   -4940.2347 
13401000    249.35616   -6310.5047   -5669.0511   -6310.5047            0    4209.7355    23.522022    21.361501    21.884018    10995.968    4551.4167    4552.5117    3525.2781   -322.72459   -165.07556    163.80671   -4993.9572 
13402000    243.29334   -6352.2152   -5726.3579   -6352.2152            0    4287.9393    23.296824     21.63655    21.707537    10941.964    3545.7866    4299.7989    5018.2326    356.28491   -163.85446    1039.7879      -5042.1 
13403000    260.93429    -6330.653   -5659.4155    -6330.653            0    3778.1824    23.522212    21.378474    21.824313     10974.77    3543.4886    4210.3857     3580.673   -472.10263    769.38175    423.60891   -5054.6956 
13404000    240.80005   -6316.8897   -5697.4463   -6316.8897            0    4852.4031    23.288061    21.513498    21.873158     10958.62    5987.3861    4000.2093    4569.6139   -1499.7962    -87.65589   -1030.6452   -4921.9341 
13405000    239.72404   -6342.3628   -5725.6873   -6342.3628            0    4271.7013    23.378661    21.533184    21.781914    10965.386    5237.5269     3495.662    4081.9149   -471.88376   -1420.3253   -1314.0811   -5042.5615 
13406000    228.48979   -6334.0212   -5746.2451   -6334.0212            0    5160.8415    23.556964    21.478809    21.611619     10934.95    4478.4406    4988.7947    6015.2894    885.61361   -69.538444    605.23244   -4923.2197 
13407000    246.20684   -6342.6323   -5709.2802   -6342.6323            0    3978.5532    23.320673     21.58447    21.792167    10969.401     4889.425    3708.2916     3337.943    775.17133    295.66731    109.93232   -5072.8014 
13408000    245.22651    -6348.344   -5717.5138    -6348.344            0    3974.8408     23.40368    21.201828    22.084476    10958.334    3171.1356    6275.5879     2477.799    531.99502    -208.0829     294.6985   -5082.2704 
13409000    252.81296   -6346.4793   -5696.1333   -6346.4793            0    4582.0456    23.365689    21.556011    21.721737     10940.61    4518.2991    4724.8578      4502.98   -395.60934    679.50382   -396.38605   -4965.0333 
13410000    247.30057   -6346.7793   -5710.6137   -6346.7793            0    3627.8204    23.478789    21.610451    21.650435    10985.154    4403.9984    2322.1809    4157.2818   -740.08707    208.93467    282.29687   -5129.4107 
13411000    240.47769   -6349.2815   -5730.6673   -6349.2815            0    3596.0445    23.393767    21.379923    21.930082    10968.483    3784.6329    4111.2454    2892.2552    67.199842    -537.9766   -770.09282   -5155.4294 
13412000     235.9934   -6303.8338   -5696.7551   -6303.8338            0    2468.6042    23.303443    21.745387    21.843969    11069.265    2832.8462    2122.8216    2450.1448   -339.49894    1288.0051    435.86636   -5298.2388 
13413000    244.95974   -6322.7299   -5692.5858   -6322.7299            0     5895.228    23.590516    21.296022    21.694755    10899.101    4487.1222     6983.486    6215.0757    83.081625    1315.5209    5.8035358   -4755.5263 
13414000    248.61121   -6354.4591   -5714.9219   -6354.4591            0    4033.7956    23.111637    21.617151    21.981129    10981.942    4966.7138    4349.4453    2785.2278    444.08067   -57.009814   -575.56866   -5068.8677 
13415000    254.00252   -6347.7404   -5694.3344   -6347.7404            0    4360.8951    23.477067     21.48175    21.713117    10950.543    4027.0017    3671.1327    5384.5509    202.06424     153.4816    711.13595   -4997.8889 
13416000    257.67136   -6320.8869    -5658.043   -6320.8869            0    4313.1305    23.648806    21.570563    21.474215    10954.385    1738.6491    4446.6028    6754.1398    593.14196    963.10064    1289.6386   -4968.9839 
13417000    236.74499   -6316.8236   -5707.8116   -6316.8236            0    3585.2416    23.412262    21.538703    21.840049    11013.276    3036.1866    3836.4341    3883.1041    1236.9774   -1007.7913   -365.33702   -5131.9596 
13418000     253.9895   -6317.8258   -5664.4533   -6317.8258            0     4897.192    23.365783    21.473253    21.844171     10960.08    4500.0782    5034.3729    5157.1248   -1078.7308   -781.16247    592.65379   -4881.6787 
13419000    262.66096   -6311.1478   -5635.4685   -6311.1478            0    5408.1524    23.347502    21.647593    21.646597    10940.563    5309.9688    4585.8312    6328.6573    218.16218   -1008.4254    577.39676   -4772.5605 
13420000    250.96066   -6331.6317   -5686.0507   -6331.6317            0    6716.6711    23.396264    21.265872    21.821704    10857.213     7035.189    7962.0046    5152.8198   -1420.3301    60.058691   -714.33203   -4622.5241 
13421000    248.53596   -6330.5583   -5691.2147   -6330.5583            0    3721.0005    23.313541    21.550708    21.830375    10968.089     4782.117    3671.8671    2709.0175    1009.0372    149.46055   -414.10573   -5096.0096 
13422000    253.69741   -6340.7596   -5688.1384   -6340.7596            0     3561.459     23.53885    21.441707    21.774977    10990.117    1998.0491    4315.3589    4370.9688    101.43311    482.90659    -1051.294   -5117.3093 
13423000    252.37739   -6362.7556   -5713.5302   -6362.7556            0    4691.0351    23.303535    21.528724    21.774495    10924.164    5118.0738    4455.8449    4499.1868    152.88114     543.7661    499.20059   -4966.1652 
13424000    247.49357   -6350.4529   -5713.7908   -6350.4529            0    4955.0436     23.36705     21.35255    21.876884    10915.386    4577.3277    5154.6967    5133.1065    -166.8391   -155.78929    1607.6296   -4924.9989 
13425000    247.94628   -6325.8353   -5688.0086   -6325.8353            0    4516.7781    23.301274    21.473119    21.969408    10992.416    5151.9679    4371.2147    4027.1517   -825.38678    183.90514    12.444451   -4963.9098 
13426000    246.28547   -6349.5217   -5715.9674   -6349.5217            0     4767.564    23.374559    21.631544    21.598896    10921.002    4946.9578    4604.3729    4751.3615   -1021.2994    1535.1573   -1139.4124   -4956.6298 
13427000    249.19705   -6287.0707   -5646.0265   -6287.0707            0    5065.2149    23.500979    21.435439    21.716251    10939.644    4234.9696     5144.137    5816.5382   -373.15031     69.60796   -410.61067   -4837.9045 
13428000      254.847   -6333.0084     -5677.43   -6333.0084            0    4433.0931    23.336303    21.491529    21.852417    10959.705    5753.5747    3432.0474    4113.6573    846.38834    528.00047   -370.78317   -4968.8619 
13429000    240.97832   -6307.0291    -5687.127   -6307.0291            0    3543.9583    23.392632    21.512811    21.851626     10996.64    3610.9186    3173.9499    3847.0066    1230.8917    494.52536    154.17859   -5118.7657 
13430000    250.25289   -6331.5638   -5687.8035   -6331.5638            0    3195.5951    23.615508    21.439817     21.71611    10995.131    2776.1772    3986.0058    2824.6023    573.14289   -150.55746   -487.03214   -5175.3812 
13431000     250.5773   -6349.6103   -5705.0154   -6349.6103            0    5191.1819    23.223054    21.623597    21.786739    10940.559    6269.5989    4842.4817    4461.4652    -965.7307   -917.88667   -844.86085   -4876.7269 
13432000     250.7409   -6320.2888   -5675.2731   -6320.2888            0     4652.532     23.42963    21.462217    21.793516    10958.908    4458.5746      5349.34    4149.6815    450.14426   -266.77828    313.55778   -4931.6848 
13433000     240.8483   -6333.7915   -5714.2239   -6333.7915            0    4893.5396    23.485931    21.555719    21.600824    10935.549    5092.6417    3435.0241    6152.9531    281.24382   -11.179855     502.5475   -4933.7838 
13434000    242.67195    -6335.669   -5711.4102    -6335.669            0    4161.1935    23.400944    21.467326    21.870094    10986.566    4008.6471    4369.0452     4105.888    905.50423   -1081.4315   -1229.4314   -5044.6713 
13435000    252.44846   -6322.4567   -5673.0484   -6322.4567            0    4311.7871    23.377971    21.586261    21.734533     10968.18    5021.6485    3244.9009    4668.8118    784.03766   -1286.9934     73.82283   -4983.3365 
13436000    257.17283    -6332.379   -5670.8176    -6332.379            0    4532.3489    23.450744    21.492405    21.705539    10939.871     3651.616    5254.2646    4691.1663    1417.2972   -613.56708     627.2285   -4947.6958 
13437000    246.35032   -6360.5288   -5726.8076   -6360.5288            0    5225.7772    23.293073    21.439091    21.818634     10895.84    5696.8201    4405.1847    5575.3268   -139.85204   -225.29896     1140.391   -4896.4073 
13438000    249.86272   -6299.7181   -5656.9614   -6299.7181            0    4915.9953    23.382093    21.439887    21.786092    10921.573    5671.9504    4570.0809    4505.9544    510.25454   -1316.7162       407.63    -4873.942 
13439000    238.34072   -6350.3438   -5737.2268   -6350.3438            0    3835.9483    23.489198    21.423098    21.781024    10960.459    2870.6252    4846.3436    3790.8759    604.09939    140.70711   -1074.3114   -5124.0618 
13440000    253.22071   -6282.2124   -5630.8176   -6282.2124            0    4540.5874    23.373458    21.574183    21.725534    10955.388    5192.3068    3180.7652    5248.6902     1101.939    71.616457    634.15505   -4905.3538 
13441000    265.65101   -6355.0367   -5671.6657   -6355.0367            0    4652.7008    23.458475    21.396127    21.828599    10956.222    5130.3342    4313.9553    4513.8128   -213.71689     1159.135    322.88736   -4928.2327 
13442000    250.35231   -6322.5107   -5678.4946   -6322.5107            0    4972.0724    23.281632    21.538716    21.796835    10930.164     5331.372    3829.2692    5755.5762    1087.0127   -821.96819    505.35948   -4885.9202 
13443000    251.35018   -6348.7395   -5702.1565   -6348.7395            0    3733.3369    23.365453     21.45436      21.9073    10981.929    4247.3441    4823.4865    2129.1799    -288.5929   -1675.2576   -393.95564   -5104.2247 
13444000    244.83072   -6322.0357   -5692.2236   -6322.0357            0    4070.3556    23.493158    21.487578    21.797164     11003.45    3397.5388    4223.8624    4589.6658   -1017.1902    262.22981   -58.317442   -5039.0372 
13445000     244.8038   -6305.1698   -5675.4269   -6305.1698            0     4111.813    23.311332    21.628845    21.800034    10991.516    3868.5859    4805.5209    3661.3322   -676.91656   -88.042232   -564.52628   -5016.3034 
13446000    242.08575   -6332.7495   -5709.9987   -6332.7495            0    2488.7525    23.400765    21.531584    21.936539    11052.847    2951.1594    2179.4249    2335.6731   -904.11996    35.351382    977.33404   -5308.8257 
13447000    252.05602   -6341.3039   -5692.9051   -6341.3039            0    2086.5976    23.495013    21.510116    21.928492    11082.231     2708.431    2071.3998    1479.9619    212.29368   -6.4841664   -315.64245    -5355.663 
13448000    247.81601   -6317.6664   -5680.1748   -6317.6664            0    4034.6675    23.359701     21.57874    21.783447    10980.446    3916.1913    3595.2524    4592.5588   -328.01418    313.82825    64.435058   -5034.0691 
13449000    255.64366   -6329.9298   -5672.3021   -6329.9298            0    5309.3318    23.445995    21.316058    21.829575    10909.902    5188.0756    6050.2918     4689.628    1191.5268    1075.1628    177.57974   -4827.5357 
13450000    245.09514   -6339.2357   -5708.7433   -6339.2357            0    6441.0323    23.161887    21.616761    21.730078    10879.924    6758.2753    5571.0034    6993.8181   -958.63758    216.51947   -804.30982   -4686.7284 
13451000    252.30349   -6330.3836   -5681.3482   -6330.3836            0    4860.5589    23.450469    21.457307    21.743486    10940.972    4999.1045    4865.7924    4716.7798    81.328911   -698.28058    139.89893   -4905.7835 
13452000    255.26794   -6347.9334   -5691.2721   -6347.9334            0    4676.4038     23.38759    21.487373    21.754557    10932.488    5135.5064    4219.5363    4674.1687   -527.83909   -721.42559    620.75397   -4945.6704 
13453000    236.12372   -6358.1859    -5750.772   -6358.1859            0    4041.3261    23.334021    21.589151    21.747846    10955.732    4184.7084     3925.784    4013.4857    -526.5123    1291.9523    -143.3911   -5105.0565 
13454000    242.64252   -6334.3212   -5710.1381   -6334.3212            0    2911.9843    23.538408    21.400924    21.913238    11038.655    2968.8146    3651.5795    2115.5587    642.32555    566.21396    249.98147   -5241.3451 
13455000    251.26949    -6363.344   -5716.9686    -6363.344            0    5145.6367     23.18546    21.609456    21.764527    10904.576    5109.0477    5233.8906     5093.972    139.35188     1004.361    310.77513   -4898.6474 
13456000    239.53534   -6343.5142   -5727.3241   -6343.5142            0    4727.2231    23.374108    21.301665    21.909148    10908.727    4854.5555    5180.4592    4146.6546   -1720.9259    636.79541    -1574.711   -4975.2579 
13457000     239.3591    -6338.544   -5722.8073    -6338.544            0    5149.9857    23.175847    21.568073    21.875748    10934.776    7197.7122    4387.1459     3865.099   -639.30469   -661.45047   -445.88989   -4901.5262 
13458000    248.18828   -6325.5726   -5687.1233   -6325.5726            0    4063.4962    23.538623    21.495572    21.679628    10969.375     3634.325    3744.9351    4811.2286   -811.53458    355.85698    92.907241   -5037.0571 
13459000    252.13532   -6325.8053   -5677.2025   -6325.8053            0    4588.8831    23.406089    21.528353    21.747369    10958.381     4103.935    3854.7616    5807.9527   -1008.5292    456.24132    87.472959   -4943.8222 
13460000    244.58042   -6329.7977   -5700.6294   -6329.7977            0    3179.0571    23.181262    21.592123    22.010971     11017.21     3986.251    3633.6111    1917.3092   -586.56486    100.32512    -757.1789   -5189.8354 
13461000    252.76903   -6327.6857   -5677.4528   -6327.6857            0    4191.9842    23.609336    21.316164    21.790071    10966.082    4249.7846    3562.1092    4764.0587   -859.29743    328.82721    534.06846   -5007.0327 
13462000    245.08983   -6346.5771   -5716.0984   -6346.5771            0    4070.0645    23.243537    21.657632    21.750509    10949.206    4615.0253    1902.3355    5692.8329    1223.4228   -736.53671    1225.2548   -5066.1786 
13463000    243.85497   -6328.7971   -5701.4951   -6328.7971            0    3717.9812    23.587371    21.305486    21.884666    10997.929    3805.6956    4390.3332    2957.9148    1147.9591   -313.26543   -602.30115    -5105.155 
13464000     255.2526    -6350.935   -5694.3132    -6350.935            0    3488.3434    23.284411    21.659293    21.762812    10975.506    3780.7469    2994.4409    3689.8425   -34.415474    500.38793   -1050.6745   -5135.9463 
13465000    241.37591    -6360.765   -5739.8401    -6360.765            0    4394.4798    23.449857    21.482531     21.75689    10960.301    3849.5936    4387.9285    4945.9173   -1059.7793    1010.5273   -339.83412   -5037.4056 
13466000    254.81135    -6361.374   -5705.8873    -6361.374            0    4163.6029    23.373932    21.495396    21.810952    10958.518    5100.9756    3141.9706    4247.8626    63.574075    112.61238    625.00726   -5040.4655 
13467000    248.73904   -6342.5124   -5702.6463   -6342.5124            0    5229.5077    23.158712    21.573635    21.848154    10915.722    5357.1238    6186.7105    4144.6888   -194.59527    447.34487   -615.91278   -4870.1369 
13468000    257.55173   -6327.6342   -5665.0981   -6327.6342            0    3903.1518    23.776054    21.215497    21.756545    10974.454    2716.6835    5777.2827    3215.4893   -666.85302    74.732594    -103.3115   -5040.3941 
13469000    249.37253   -6337.5589   -5696.0633   -6337.5589            0    4578.4917    23.167984    21.624964    21.812722    10928.323    5256.0728    5140.1868    3339.2154     233.5858    277.74865   -1266.0213   -4966.3507 
13470000    241.26466   -6362.4746    -5741.836   -6362.4746            0    5060.4731    23.331181    21.368268    21.930359    10933.313    4910.0214    5520.2395    4751.1584   -92.017761   -496.38859    496.28914   -4934.9377 
13471000    238.96219   -6321.4521   -5706.7364   -6321.4521            0    4720.7856    23.316415    21.496695     21.84217    10947.861    4165.2454    5337.6925     4659.419    627.38452   -565.72687     211.5584   -4953.0001 
13472000    251.07314    -6354.423   -5708.5526    -6354.423            0    3990.5195     23.45448    21.599595      21.6684    10977.369    3721.8809    3450.2446    4799.4329    554.15474    568.25222   -73.473491   -5069.6957 
13473000     256.6775   -6373.5814   -5713.2942   -6373.5814            0    3623.9842    23.548607    21.314413    21.835944        10960    3184.0211    3412.7815      4275.15   -11.151468     792.1188    543.83435   -5134.0353 
13474000    251.06325    -6307.698    -5661.853    -6307.698            0    4596.7414    23.150619     21.68873    21.856148    10974.136     5353.156    3710.4378    4726.6304    168.35964    988.37067   -260.61099   -4926.1606 
13475000     245.8715   -6346.0591   -5713.5696   -6346.0591            0    3812.3785    23.501822     21.34411     21.86781    10969.451    3121.0736    5352.9442    2963.1177   -795.75985    635.24323   -497.67747   -5103.6722 
13476000    245.38983   -6334.2759   -5703.0255   -6334.2759            0    3903.8745    23.372178    21.558666    21.820265    10994.642    3296.0324    4548.3682    3867.2228    791.14853    605.25757   -773.84159   -5077.0565 
13477000    254.48156   -6291.9651   -5637.3268   -6291.9651            0    4874.5113    23.356871    21.568192    21.844857    11004.685    5424.6022    3939.4645    5259.4673   -1917.3607    421.22454    992.01168   -4855.0065 
13478000    252.19587   -6305.4709   -5656.7124   -6305.4709            0    4478.0463    23.510193     21.32914    21.913846    10988.746      4028.03    5098.1358    4307.9731   -2325.4808    1648.3996   -150.09783   -4939.0625 
13479000    248.16454   -6322.0737   -5683.6855   -6322.0737            0    4497.2149    23.266777    21.721655    21.707002    10970.565     3926.769    3822.0659    5742.8099   -378.05212    1262.6013    361.53689   -4964.1561 
13480000    248.04351   -6293.6396   -5655.5628   -6293.6396            0    3514.1361    23.718047    21.299474    21.823552    11024.864    2389.1957    3096.5098    5056.7028   -22.466814    161.07861    763.35522   -5090.5377 
13481000    257.43626    -6324.078    -5661.839    -6324.078            0    5102.0794    23.215019    21.570622    21.842566    10937.936    4780.5688    5235.7761    5289.8932    211.75861    841.80108    316.54883   -4847.9625 
13482000    246.96096   -6318.9677   -5683.6757   -6318.9677            0    5146.9754    23.414403    21.377741    21.834366    10929.127    5173.6992    5893.0645    4374.1624   -69.716347    167.81255    257.08211   -4863.2987 
13483000    236.45163   -6315.5514    -5707.294   -6315.5514            0     5148.827    23.452186    21.467007    21.671404    10910.431    5967.2783    5233.9651    4245.2378   -523.46983    -440.5792   -499.16753   -4888.0258 
13484000      239.489   -6305.6719   -5689.6011   -6305.6719            0    5425.8296    23.245231    21.463624    21.906866    10929.924    7593.5132    5367.5512    3316.4243   -1082.8504   -404.89838   -1071.5608   -4824.7144 
13485000    252.38595   -6350.8494   -5701.6019   -6350.8494            0      5173.33    23.321558    21.413408    21.793569    10883.578    4198.5761    5601.3934    5720.0204    -563.6764    1486.0069   -185.69523   -4880.4608 
13486000    249.90339   -6344.0737   -5701.2125   -6344.0737            0    3480.4157    23.374603    21.589735    21.767456    10984.979    3698.3387    2892.1836    3850.7247   -480.70797    882.94191    748.92089   -5143.6337 
13487000    242.74763   -6341.1227   -5716.6692   -6341.1227            0    1855.2129    23.547366    21.418978    21.952985    11072.218    2020.2887    1733.4584    1811.8916    413.59479    816.46446    731.37894    -5417.095 
13488000    244.42867   -6296.4893   -5667.7114   -6296.4893            0    4286.6024     23.36309     21.49468    21.894157    10994.855    4257.9536    4441.4358     4160.418    -291.0785    1561.8404   -378.60699   -4980.3604 
13489000    243.00248   -6329.8745   -5704.7654   -6329.8745            0    3926.0527    23.326145    21.518614    21.825571    10955.265    5657.0626    2796.7412    3324.3544   -1754.8031   -178.36694  -0.95825889   -5077.4948 
13490000     252.7264   -6328.5597   -5678.4365   -6328.5597            0    4820.5222    23.456799    21.364431    21.778769    10914.237    4189.7917    4732.2785    5539.4965    -676.8857    1670.8254   -53.843672   -4911.1397 
13491000    246.65979   -6338.1364   -5703.6191   -6338.1364            0    4751.6774    23.257063     21.67115    21.706794    10940.383    4008.4552     4823.769    5422.8079   -722.86856    1597.9978   -117.13213   -4945.4688 
13492000     250.3828   -6349.2946   -5705.2001   -6349.2946            0    3716.6723    23.644171    21.375191    21.752943    10993.909     3323.126    2658.2652    5168.6256   -661.61768    119.60909     659.8296   -5109.2879 
13493000     237.6325    -6289.541   -5678.2459    -6289.541            0     3605.302    23.388162    21.622043    21.816321     11032.51    4251.8751    2665.4181    3898.6128   -345.00682   -114.01323   -317.42912   -5098.1606 
13494000    252.58063   -6349.5594   -5699.8112   -6349.5594            0    2948.9218    23.383555     21.55247    21.794093    10983.643    2787.0761    3390.0049    2669.6842    8.9124848    578.27631   -370.88683   -5227.4376 
13495000    261.83321   -6324.2907   -5650.7407   -6324.2907            0    3216.4092    23.558821    21.437689    21.877351    11049.083    3445.1675    3062.1812    3141.8788   -707.29162    278.60464    774.58032     -5132.45 
13496000    234.15129   -6311.9679    -5709.628   -6311.9679            0    4108.4153    23.032573    21.880735    21.786413     10979.69    5184.5271    2910.1424    4230.5763   -725.78854    1309.2527    820.65541   -5051.7576 
13497000    252.42854   -6338.0599   -5688.7029   -6338.0599            0     5593.007    23.422341    21.319025    21.804681    10887.981    6736.5885    5676.6904    4365.7421   -734.98425   -252.15645    1004.8735   -4800.5891 
13498000    249.00547   -6318.2175   -5677.6661   -6318.2175            0    4707.4355    23.401714    21.475423    21.772145    10941.847    4367.3335    4741.9207    5013.0523    220.10602    260.11291    236.49703   -4926.4742 
13499000    238.54142   -6326.5068   -5712.8736   -6326.5068            0    3332.7301    23.252705    21.518164    22.015519    11015.586    4154.8307    3464.8457    2378.5139    844.35457    233.10204    -251.6875    -5177.467 
13500000    253.57656   -6293.7333    -5641.423   -6293.7333            0    3572.1794    23.543054    21.457984    21.826504    11026.455    3226.1802    3631.9241     3858.434   -659.56151    716.54552   -762.75385   -5066.9825 
Loop time of 584.525 on 64 procs for 250000 steps with 1296 atoms

Performance: 73.906 ns/day, 0.325 hours/ns, 427.698 timesteps/s
99.2% CPU use with 64 MPI tasks x 1 OpenMP threads

MPI task timing breakdown:
Section |  min time  |  avg time  |  max time  |%varavg| %total
---------------------------------------------------------------
Pair    | 29.636     | 38.492     | 47.037     |  94.3 |  6.59
Bond    | 0.27019    | 0.2762     | 0.28605    |   0.7 |  0.05
Kspace  | 297.74     | 311.29     | 330.4      |  41.8 | 53.26
Neigh   | 4.4378     | 4.9508     | 5.9889     |  16.2 |  0.85
Comm    | 90.635     | 104.72     | 113.13     |  48.5 | 17.92
Output  | 1.1359     | 1.1396     | 1.1521     |   0.5 |  0.19
Modify  | 112.83     | 116.59     | 118.92     |  15.1 | 19.95
Other   |            | 7.065      |            |       |  1.21

Nlocal:        20.2500 ave          29 max          14 min
Histogram: 6 5 14 5 7 8 12 3 3 1
Nghost:        2545.59 ave        2585 max        2511 min
Histogram: 5 3 8 8 11 12 5 5 6 1
Neighs:        6328.41 ave        9038 max        4383 min
Histogram: 6 6 13 6 6 10 10 6 0 1

Total # of neighbors = 405018
Ave neighs/atom = 312.51389
Ave special neighs/atom = 2.0000000
Neighbor list builds = 9277
Dangerous builds = 0

unfix		3
unfix		2
unfix		1

write_data	data.final.${pid}
write_data	data.final.0
System init for write_data ...
PPPM initialization ...
  extracting TIP4P info from pair style
  using 12-bit tables for long-range coulomb (../kspace.cpp:340)
  G vector (1/distance) = 0.36609891
  grid = 30 40 32
  stencil order = 5
  estimated absolute RMS force accuracy = 0.0047853054
  estimated relative force accuracy = 1.4410805e-05
  using double precision FFTW3
  3d grid and FFT values/proc = 5168 640
Last active /omp style is kspace_style pppm/tip4p/omp
WARNING: Not all mixed pair coeffs generated from mixing. Use write_data with 'pair ij' option to store all pair coeffs. (../write_data.cpp:312)

write_restart   restart.lmp.${pid}
write_restart   restart.lmp.0
System init for write_restart ...
PPPM initialization ...
  extracting TIP4P info from pair style
  using 12-bit tables for long-range coulomb (../kspace.cpp:340)
  G vector (1/distance) = 0.36609891
  grid = 30 40 32
  stencil order = 5
  estimated absolute RMS force accuracy = 0.0047853054
  estimated relative force accuracy = 1.4410805e-05
  using double precision FFTW3
  3d grid and FFT values/proc = 5168 640
Last active /omp style is kspace_style pppm/tip4p/omp
Total wall time: 0:09:47
