LAMMPS (30 Jul 2021)
  using 1 OpenMP thread(s) per MPI task
package omp 0
using multi-threaded neighbor list subroutines
echo both

include		in.partitions
variable        pid world 0
include		in.temp
variable        temperature equal 268.41
variable	tempDamp equal 100.0
include		in.pressure
variable        pressure equal 10625.0
variable        pressureDamp equal 1000.0 # This is 1 ps
include		in.seed
variable        seed world 745823

units		real
atom_style	full
read_restart	restart.lmp.${pid}
read_restart	restart.lmp.0
Reading restart file ...
  restart file = 30 Jul 2021, LAMMPS = 30 Jul 2021
  restoring atom style full from restart
  orthogonal box = (0.66798643 1.8783311 0.81494189) to (17.539586 21.750847 21.398254)
  4 by 4 by 4 MPI processor grid
  restoring pair style lj/cut/tip4p/long/omp from restart
  restoring bond style harmonic/omp from restart
  restoring angle style harmonic/omp from restart
  864 atoms
  576 bonds
  288 angles
Finding 1-2 1-3 1-4 neighbors ...
  special bond factors lj:    0        0        0       
  special bond factors coul:  0        0        0       
     2 = max # of 1-2 neighbors
     1 = max # of 1-3 neighbors
     1 = max # of 1-4 neighbors
     2 = max # of special neighbors
  special bonds CPU = 1.662 seconds
  read_restart CPU = 2.031 seconds
include 	in.setup
variable	out_freq equal 1000
variable	out_freq2 equal 10000
variable	out_freq3 equal 1000

timestep	2.0

neigh_modify    delay 7 every 1

include		in.tip4p
# This is TIP4P/Ice

# create groups ###
group ox type 2
288 atoms in group ox
group hy type 1
576 atoms in group hy

# set charges - beside manually ###
set group ox charge -1.1794
Setting atom values ...
  288 settings made for charge
set group hy charge 0.5897
Setting atom values ...
  576 settings made for charge

# ### TIP3P Potential Parameters ###
pair_style lj/cut/tip4p/long/omp 2 1 1 1 0.1577 8.5
pair_coeff 1 1*2 0.000 0.000
pair_coeff 2 2 0.21084 3.1668
bond_style  harmonic
bond_coeff  1 450 0.9572
angle_style harmonic
angle_coeff 1 55 104.52
kspace_style pppm/tip4p/omp 1.0e-5
pair_modify tail yes

thermo          ${out_freq}
thermo          1000
thermo_style    custom step temp pe etotal epair emol press lx ly lz vol pxx pyy pzz pxy pxz pyz enthalpy

restart 	${out_freq3} restart.lmp.${pid} restart2.lmp.${pid}
restart 	1000 restart.lmp.${pid} restart2.lmp.${pid}
restart 	1000 restart.lmp.0 restart2.lmp.${pid}
restart 	1000 restart.lmp.0 restart2.lmp.0


include         in.dump
dump            myDump all atom ${out_freq2} dump.water.${pid}
dump            myDump all atom 10000 dump.water.${pid}
dump            myDump all atom 10000 dump.water.0
dump            myDump2 all dcd ${out_freq2} dump.dcd
dump            myDump2 all dcd 10000 dump.dcd
dump_modify     myDump append yes
dump_modify     myDump2 append yes


variable natoms 	equal  "count(all)"                        # NUMBER ATOMS
variable H      	equal  "enthalpy/v_natoms"                 # ENTHALPY-per-atom
variable Vol      	equal  "vol/v_natoms"                 # volume-per-atom
fix AVG all 		ave/time ${out_freq} 1 ${out_freq} v_Vol v_H file vol_enthalpy.dat
fix AVG all 		ave/time 1000 1 ${out_freq} v_Vol v_H file vol_enthalpy.dat
fix AVG all 		ave/time 1000 1 1000 v_Vol v_H file vol_enthalpy.dat


timer           timeout 23:50:00 every 1000
New timer settings: style=normal  mode=nosync  timeout=23:50:00

fix 		1 all shake 1e-6 200 0 b 1 a 1
       0 = # of size 2 clusters
       0 = # of size 3 clusters
       0 = # of size 4 clusters
     288 = # of frozen angles
  find clusters CPU = 0.840 seconds
fix             2 all nph iso ${pressure} ${pressure} ${pressureDamp}
fix             2 all nph iso 10625 ${pressure} ${pressureDamp}
fix             2 all nph iso 10625 10625 ${pressureDamp}
fix             2 all nph iso 10625 10625 1000
fix             3 all temp/csvr ${temperature} ${temperature} ${tempDamp} ${seed}
fix             3 all temp/csvr 268.41 ${temperature} ${tempDamp} ${seed}
fix             3 all temp/csvr 268.41 268.41 ${tempDamp} ${seed}
fix             3 all temp/csvr 268.41 268.41 100 ${seed}
fix             3 all temp/csvr 268.41 268.41 100 745823

run             250000
PPPM initialization ...
  extracting TIP4P info from pair style
  using 12-bit tables for long-range coulomb (../kspace.cpp:340)
  G vector (1/distance) = 0.37476482
  grid = 24 24 24
  stencil order = 5
  estimated absolute RMS force accuracy = 0.0031040601
  estimated relative force accuracy = 9.3477849e-06
  using double precision FFTW3
  3d grid and FFT values/proc = 2535 216
Last active /omp style is kspace_style pppm/tip4p/omp
Neighbor list info ...
  update every 1 steps, delay 7 steps, check yes
  max neighbors/atom: 2000, page size: 100000
  master list distance cutoff = 10.8154
  ghost atom cutoff = 10.8154
  binsize = 5.4077, bins = 4 4 4
  1 neighbor lists, perpetual/occasional/extra = 1 0 0
  (1) pair lj/cut/tip4p/long/omp, perpetual
      attributes: half, newton on, omp
      pair build: half/bin/newton/omp
      stencil: half/bin/3d
      bin: standard
Per MPI rank memory allocation (min/avg/max) = 9.237 | 9.241 | 9.243 Mbytes
Step Temp PotEng TotEng E_pair E_mol Press Lx Ly Lz Volume Pxx Pyy Pzz Pxy Pxz Pyz Enthalpy 
14500000    285.91185   -3825.3863   -3335.3432   -3825.3863            0     10551.84      16.8716    19.872516    20.583312     6901.196    11034.166    9840.2546    10781.101    986.47514    153.99353    392.55246   -2273.3336 
14501000    266.45224   -3830.4314   -3373.7414   -3830.4314            0    11488.982    16.859817    19.858638    20.568938    6886.7481    11114.079     11226.42    12126.447    63.819418     105.6865   -629.79403   -2219.8322 
14502000    274.27568   -3864.9328   -3394.8337   -3864.9328            0    9202.5163    16.917815    19.926951    20.639694    6958.0634    10006.865    8278.1064    9322.5776    811.29363    252.79999   -1395.2229   -2460.9971 
14503000    274.54636   -3851.6194   -3381.0563   -3851.6194            0    10849.203    16.908466     19.91594    20.628289    6946.5348    12106.119    9768.6854    10672.803    -462.3376    1501.0238   -368.84658   -2281.9444 
14504000    260.28683    -3872.088   -3425.9653    -3872.088            0    11451.889    16.857398    19.855788    20.565986    6883.7832    9374.8838     12253.15    12727.634    456.01593    1227.6611   -993.56345   -2276.2767 
14505000    270.61141   -3831.4181   -3367.5994   -3831.4181            0    9423.3327    16.892795    19.897481    20.609171    6927.2386    9935.6928     10644.19    7690.1151    374.38156    1221.4981   -1412.3956   -2415.5915 
14506000    275.77184   -3817.9573   -3345.2938   -3817.9573            0     13137.01    16.781627     19.76654    20.473546    6791.3764    13136.808    14303.112     11971.11   -99.624893    565.56693    135.54747   -2044.1352 
14507000    268.64062   -3838.8612   -3378.4203   -3838.8612            0     10926.73    16.899283    19.905124    20.617086    6935.2234     9619.245    11606.241    11554.703    1041.2191   -336.15947    411.90558   -2273.2568 
14508000    281.90534    -3822.254   -3339.0779    -3822.254            0    11136.943    16.843924    19.839917    20.549548    6867.2899    12509.815    11382.694     9518.321    685.20765    15.480393    -408.3674   -2223.6865 
14509000    272.33209   -3818.7325   -3351.9646   -3818.7325            0    11002.485    16.879079    19.881326    20.592437    6910.3788    10700.482    12065.092    10241.882   -318.42777   -2807.9873   -1005.3702   -2243.1255 
14510000    264.65929   -3850.4393   -3396.8223   -3850.4393            0    8804.9792    16.967883    19.985925    20.700778    7020.0242      8624.38    9528.0204    8262.5372    510.62308    78.658299   -515.55569   -2495.3699 
14511000    266.98479    -3820.137   -3362.5342    -3820.137            0    12553.947    16.843183    19.839045    20.548644     6866.384     10997.25    15316.182     11348.41    373.74306    291.59862    1729.6805   -2105.3924 
14512000    265.76426   -3803.6368   -3348.1259   -3803.6368            0    8048.0439    16.967282    19.985217    20.700045    7019.2779    7520.3457    8200.4016    8423.3844    533.99263   -218.16275    866.63602    -2524.256 
14513000    272.98798   -3801.9715   -3334.0795   -3801.9715            0    10232.518    16.917351    19.926405    20.639129    6957.4914    10197.473    10833.646    9666.4355     -653.851    2382.8273    876.92749   -2295.8076 
14514000    256.33973   -3836.5139   -3397.1564   -3836.5139            0    11183.917    16.881554     19.88424    20.595456    6913.4182     12505.25    10486.494    10560.008    679.44758    1695.7592   -518.24197   -2269.5366 
14515000    262.34343   -3804.7295   -3355.0819   -3804.7295            0    12182.839    16.794579    19.781796    20.489347    6807.1128    11965.794     10632.01    13950.713    328.72536    1097.7596    44.303627   -2145.6335 
14516000    263.79462   -3803.4822   -3351.3473   -3803.4822            0    11936.173    16.836031     19.83062    20.539918    6857.6404    12417.141    12938.931    10452.447      1054.61   -1225.4655    562.69555   -2157.5909 
14517000    271.97358   -3826.7573   -3360.6039   -3826.7573            0    13316.003    16.830774    19.824428    20.533505    6851.2188    13355.683    11969.893    14622.431    1058.7116   -1326.6442   -66.551241   -2030.0956 
14518000    258.84126   -3821.7184   -3378.0734   -3821.7184            0    11906.165    16.833781    19.827971    20.537174    6854.8919    13526.789    11717.228    10474.478    227.90351   -621.61187    963.71378   -2187.7954 
14519000    280.82086   -3827.2203    -3345.903   -3827.2203            0    12822.702    16.818974     19.81053    20.519109    6836.8195    12025.297    12774.487    13668.322   -2293.0088     1434.054   -510.82497    -2067.377 
14520000    258.97452   -3846.5764   -3402.7029   -3846.5764            0    8976.2439    16.891535    19.895997    20.607633    6925.6884      8621.91    8055.2448    10251.577    690.54757    110.41449   -1315.0224   -2496.0658 
14521000    260.21659   -3837.3564   -3391.3541   -3837.3564            0      11638.5    16.817104    19.808328    20.516828    6834.5395    10974.333    9421.4998    14519.667    91.892535   -756.58355   -787.16005   -2231.2895 
14522000    284.69849   -3853.6105    -3365.647   -3853.6105            0    9557.8938       16.822    19.814094    20.522801      6840.51    9526.5592    9439.3761     9707.746    595.79168   -881.76422   -1319.6728   -2412.1342 
14523000    253.47142   -3847.4241   -3412.9827   -3847.4241            0    10222.046    16.806373    19.795688    20.503736    6821.4641    10534.791    10068.021    10063.327    744.70174   -204.33756    136.70267   -2396.0521 
14524000    293.75618   -3824.3317   -3320.8437   -3824.3317            0    11405.561      16.8048    19.793835    20.501817    6819.5493    10332.297    12095.659    11788.728   -450.77337   -1424.5348   -759.53832   -2186.4907 
14525000    269.12333    -3826.095   -3364.8268    -3826.095            0    13136.823    16.783235    19.768434    20.475507    6793.3284    12858.059    13534.955    13017.453   -450.57957   -612.82396    1916.1529   -2063.3129 
14526000    273.45158   -3808.7615   -3340.0748   -3808.7615            0    9259.2287    16.928165    19.939143    20.652322    6970.8423    10024.671    8549.3338    9203.6817    11.776972   -565.95956    1389.4029   -2398.7577 
14527000    284.51739   -3855.9841    -3368.331   -3855.9841            0    11943.662    16.839316     19.83449    20.543926    6861.6555    14056.629    11361.389     10412.97    1283.5637    1693.7012    1153.3655   -2173.1262 
14528000    258.22172   -3850.5962    -3408.013   -3850.5962            0    9764.9313    16.893166    19.897918    20.609623    6927.6947    12084.999    8765.4619    8444.3327   -972.31748    453.81869    716.78509   -2421.4295 
14529000    258.91865   -3869.2168   -3425.4391   -3869.2168            0    8424.8286    16.885384    19.888751    20.600128    6918.1246    9200.7202    8945.5922    7128.1734   -1178.7663   -1050.4892    610.03505   -2575.4266 
14530000    297.57841   -3872.7353   -3362.6961   -3872.7353            0    11788.896    16.808841    19.798594    20.506747    6824.4694    12400.217    10542.708    12423.765    595.04245   -765.32604    1347.0953   -2189.3721 
14531000    284.66688   -3841.7091   -3353.7998   -3841.7091            0    10246.727    16.820915    19.812816    20.521477    6839.1859    9299.9125     8420.868    13019.399    1856.8704   -410.72859    420.95737   -2331.7655 
14532000    275.15406   -3840.0576   -3368.4529   -3840.0576            0    9477.2985    16.831409    19.825176    20.534279    6851.9943    9551.2335     8601.347    10279.315    456.87428   -705.02262   -1969.3218    -2421.393 
14533000     277.8929   -3860.3016   -3384.0027   -3860.3016            0    9686.4487    16.813502    19.804084    20.512433    6830.1478    8998.5882    9293.8629    10766.895    710.73854     1680.864   -1609.7118   -2419.1287 
14534000    250.28086   -3842.0755   -3413.1026   -3842.0755            0    9248.0487    16.851974    19.849399    20.559369    6877.1407    6599.8551    11075.417    10068.874    38.693993    3237.2671   -383.03803   -2485.5599 
14535000    259.40352   -3861.0691   -3416.4603   -3861.0691            0    8750.3322    16.858412    19.856982    20.567223    6885.0255    9557.0585    8258.5856    8435.3524   -1274.2669   -303.23438   -2608.1285   -2537.8304 
14536000    265.04646   -3837.5703   -3383.2897   -3837.5703            0     10841.09    16.823795    19.816208     20.52499    6842.6997    13703.642    7573.9717    11245.657   -763.18404   -2019.8234   -735.99008   -2301.4166 
14537000    270.34492   -3827.9508   -3364.5889   -3827.9508            0    9577.9886    16.869406    19.869932    20.580636    6898.5044    8592.7638    8720.7558    11420.446   -38.115479    -235.2502    497.56728   -2400.9704 
14538000    262.32675   -3833.4899   -3383.8708   -3833.4899            0    10458.497    16.956188     19.97215     20.68651    7005.5187    8493.0806    11506.683    11375.726    721.97596   -1454.8507   -1719.7244    -2315.344 
14539000    262.43836    -3832.593   -3382.7827    -3832.593            0    10946.365    16.910921    19.918832    20.631285    6949.5615    11957.196    9899.3209    10982.579   -1341.1035   -936.81944    695.55642   -2273.3442 
14540000    267.57653   -3831.2815   -3372.6644   -3831.2815            0      8140.69     16.91935    19.928759    20.641567    6959.9574     8881.856    7240.3449    8299.8691    18.213982    432.82013    181.55008   -2546.3532 
14541000    260.67945   -3814.2936   -3367.4979   -3814.2936            0    9388.1107    16.849264    19.846207    20.556062    6873.8234    7727.0126    10635.355    9801.9642   -856.43424   -10.439688    -582.3923   -2426.3618 
14542000    262.76613     -3826.06   -3375.6878     -3826.06            0    10603.978    16.831297    19.825045    20.534143    6851.8582     7387.775    12809.674    11614.486    728.39839    1092.0772   -158.59271   -2316.0607 
14543000    263.16461   -3834.5441   -3383.4889   -3834.5441            0    10428.442    16.837373    19.832201    20.541555    6859.2805    9826.3842    9515.6899    11943.252   -165.47999    1702.1896   -1202.2661   -2340.2738 
14544000     271.6229   -3863.9087   -3398.3563   -3863.9087            0    10451.637    16.855998    19.854139    20.564278    6882.0689    8822.9899    10263.632     12268.29    721.71085    876.70155   -1604.2073   -2349.3473 
14545000    244.31053   -3859.8393   -3441.0994   -3859.8393            0    9354.6065    16.850714    19.847915    20.557832    6875.5985    9741.5909    10142.528    8179.7005   -374.30488   -270.68997   -154.64386   -2503.0798 
14546000     278.3462    -3863.979   -3386.9032    -3863.979            0    7126.9115    16.965677    19.983326    20.698086    7017.2857    7031.1445    6110.7112    8238.8788   -213.28203    1417.0821    1285.6994   -2657.5357 
14547000    273.83575   -3848.4743   -3379.1292   -3848.4743            0     8767.326    16.865773    19.865653    20.576204    6894.0488    8852.1942    8624.7433    8825.0406   -193.31656     1200.372     1366.189   -2497.6392 
14548000    259.82079    -3800.459    -3355.135    -3800.459            0    11429.993    16.889444    19.893534    20.605082    6923.1163    11104.759    11573.971    11611.249   -324.81585    141.20322    444.89475   -2201.0881 
14549000    268.24614   -3816.9273   -3357.1626   -3816.9273            0    12154.528    16.869652    19.870221    20.580936     6898.806     13620.32    11929.744     10913.52   -641.59261    1181.7592   -407.24604   -2134.2711 
14550000     274.1818   -3849.4214   -3379.4832   -3849.4214            0    13158.729    16.799308    19.787366    20.495117    6812.8652    11551.279    13229.809    14695.098    1062.2065     377.0134   -622.93445   -2072.0497 
14551000     269.8101   -3814.0852     -3351.64   -3814.0852            0    10131.611    16.894288     19.89924    20.610992    6929.0753    9682.7721    10673.962    10038.098   -219.10841    1110.2642   -301.62042   -2327.8057 
14552000    266.47091   -3860.0256   -3403.3036   -3860.0256            0    9347.9199    16.880242    19.882695    20.593856    6911.8067    9121.3139    10822.626    8099.8196   -688.81599    756.12479    -1182.004   -2461.0182 
14553000    257.18766   -3840.0832   -3399.2724   -3840.0832            0    12898.156    16.822431    19.814602    20.523327    6841.0359    13176.885    13772.699    11744.885   -2047.1734   -1161.3988    1128.8844   -2112.4299 
14554000    259.31015   -3834.2535   -3389.8047   -3834.2535            0    9338.7008    16.944976    19.958944    20.672831    6991.6307    10291.279    9365.8034    8359.0204    1097.6124    863.69446    1341.0209    -2437.577 
14555000    251.35211   -3801.6242   -3370.8152   -3801.6242            0    9358.1059    16.924476    19.934797    20.647821    6966.2855    7471.4268    9750.0798    10852.811    1370.9266    336.61954    345.81388   -2420.0679 
14556000    278.46432   -3815.1379   -3337.8596   -3815.1379            0    11782.165     16.87376     19.87506    20.585947    6903.8471    10750.522    10943.889    13652.083   -114.98685   -599.84992    414.05572   -2151.5661 
14557000    274.36858   -3863.6238   -3393.3655   -3863.6238            0    8979.0355    16.887003    19.890659    20.602105    6920.1158    7796.3039    8833.6559    10307.147    361.27697     292.3779    1266.7965   -2487.1761 
14558000    268.73673   -3847.0067   -3386.4012   -3847.0067            0    10269.517    16.829887    19.823384    20.532423    6850.1363    9446.9974    11555.677     9805.876    965.80794    1221.6839   -260.23782   -2360.4537 
14559000    269.76952   -3819.5923   -3357.2166   -3819.5923            0    10556.218    16.846303     19.84272     20.55245    6870.2004    11313.665    11027.395    9327.5934    437.09624   -2108.6705   -1125.8592   -2299.5382 
14560000    271.93909   -3860.5167   -3394.4224   -3860.5167            0    10904.745    16.828085    19.821261    20.530224    6847.9354    12600.752    9969.8227    10143.661     1126.599   -857.90161   -1262.1282   -2305.3643 
14561000    264.25771   -3807.6376   -3354.7089   -3807.6376            0    8850.0527    16.850241    19.847358    20.557254    6875.0191     9583.343    8868.9625    8097.8525    904.34891   -353.78756    227.59848   -2467.3575 
14562000    262.29178   -3794.2906   -3344.7315   -3794.2906            0    9329.7592    16.877113     19.87901    20.590039    6907.9643    10658.214    8824.7262    8506.3378   -89.352519   -406.24215   -3565.7104   -2404.7995 
14563000    282.68058     -3801.63   -3317.1251     -3801.63            0    11268.497    16.804746    19.793771    20.501751    6819.4832    10692.767    11344.495    11768.228    881.91443    802.85351   -266.64038   -2196.4149 
14564000    265.66024   -3842.0641   -3386.7316   -3842.0641            0    11787.251    16.866994    19.867091    20.577694    6895.5463    11383.593    11519.865    12458.293   -1130.6663   -1507.1585   -1054.0461    -2201.353 
14565000    258.66911   -3860.1013   -3416.7513   -3860.1013            0    8101.1247    16.916637    19.925564    20.638257    6956.6101    8289.2698    7217.4256    8796.6787    848.50825   -854.79683    1497.8319   -2594.8516 
14566000    278.59953   -3814.5604   -3337.0503   -3814.5604            0    8558.5441    16.892384    19.896998     20.60867    6926.7332    7918.8863    10568.834    7187.9119    922.69279   -419.64983    1129.4052   -2472.4722 
14567000     264.7907    -3854.648   -3400.8058    -3854.648            0    10283.922    16.882664    19.885549    20.596811     6914.783    9089.2352    11097.133    10665.397    -662.4178     966.9066    180.10551   -2363.7236 
14568000    270.22137    -3819.092   -3355.9418    -3819.092            0    9244.2198    16.878209    19.880301    20.591376    6909.3101    8951.7481    9082.7014    9698.2099    2544.5596   -457.40481   -1124.2127   -2424.4461 
14569000    245.53084   -3820.0742   -3399.2427   -3820.0742            0    11774.467    16.840306    19.835656    20.545134    6862.8661     11057.42    13707.512    10558.469    998.53369   -1013.3903   -321.93017   -2220.7615 
14570000    272.44448   -3822.5879   -3355.6274   -3822.5879            0    9651.3744    16.843037    19.838873    20.548466    6866.2056    8830.6859    10992.127    9131.3102    1982.9631   -256.14582   -1393.8552   -2389.1719 
14571000    251.93876   -3825.3648   -3393.5504   -3825.3648            0    11635.191    16.840748    19.836176    20.545673    6863.4059    11393.471    10467.878    13044.224    2254.2405   -109.73561   -271.44717   -2228.9174 
14572000    280.26017   -3795.3269   -3314.9706   -3795.3269            0    9724.4737    16.939171    19.952106    20.665749    6984.4472    10301.335    9449.1309    9422.9554    471.36963    240.39462   -1099.6971    -2324.426 
14573000    271.35767   -3848.2583   -3383.1606   -3848.2583            0    12696.083    16.771114    19.754156    20.460719    6778.6199     12815.48    13843.684    11429.084   -687.48485    1644.8949    569.12557   -2128.0357 
14574000    285.03092   -3862.5291   -3373.9959   -3862.5291            0    12156.232     16.84493    19.841103    20.550775    6868.5209    11507.164    12053.005    12908.527    -983.3517    240.73907    311.67439   -2156.3021 
14575000    275.30776   -3840.4523   -3368.5842   -3840.4523            0    10850.276    16.842972    19.838796    20.548386    6866.1259    12017.504    8607.1225    11926.202    60.219971   -1342.3516    716.47011   -2282.0874 
14576000    256.80992    -3815.552   -3375.3886    -3815.552            0    10889.169     16.81726    19.808511    20.517018    6834.7289    10498.592    10240.153    11928.763    -1670.233   -920.09812    502.72273   -2289.9833 
14577000    260.31153   -3846.6022   -3400.4371   -3846.6022            0    10238.022    16.863784    19.863311    20.573778    6891.6104    10407.227    9899.5711    10407.268    570.86371    1072.8178   -1556.8729   -2371.4435 
14578000    287.67925   -3822.7906   -3329.7182   -3822.7906            0     10503.98    16.837396    19.832229    20.541584    6859.3093    11340.214     10211.71    9960.0176    780.20081    464.83102  -0.76523464   -2278.9422 
14579000    261.34141    -3830.593   -3382.6628    -3830.593            0    12369.222    16.822647    19.814856     20.52359    6841.2995    11772.105    13342.692    11992.868    730.73102    1239.0812    306.92309   -2148.5442 
14580000    278.36967   -3821.9962   -3344.8801   -3821.9962            0    10468.511    16.884014    19.887139    20.598458    6916.4419    9027.6925    11391.831     10986.01    814.09474     1018.081   -216.25566   -2288.9296 
14581000    270.90097   -3830.3985   -3366.0835   -3830.3985            0    10761.288    16.835427     19.82991    20.539182    6856.9034    10214.351    12936.426    9133.0869    52.434292    28.998942    294.84757    -2289.945 
14582000    267.78579   -3887.2677   -3428.2921   -3887.2677            0    9766.1526    16.878532    19.880681    20.591769     6909.706    10953.367    10995.388    7349.7026    10.514011    564.36648   -986.08901   -2444.1473 
14583000    268.07033   -3880.6679   -3421.2045   -3880.6679            0     10254.36    16.834598    19.828933    20.538171    6855.8904    10086.524    11261.192    9415.3638   -1312.4155    1377.3865    511.97348   -2395.9107 
14584000     278.6278   -3827.2819   -3349.7234   -3827.2819            0    11043.628    16.861083    19.860128    20.570482    6888.2987    10202.071    11476.976    11451.837    170.00595   -181.95949    664.25869   -2240.2941 
14585000    269.39871   -3842.5903   -3380.8501   -3842.5903            0    12301.699    16.763373    19.745039    20.451276    6769.2387    13404.458    9858.4852    13642.155      554.648    1621.4242   -792.53201   -2166.3968 
14586000    280.42612   -3875.5225   -3394.8817   -3875.5225            0    12656.872    16.773514    19.756984    20.463648    6781.5313     12372.49    13011.053    12587.072   -2388.1128    1215.5125    -1610.739   -2143.0958 
14587000    263.16856   -3886.4103   -3435.3484   -3886.4103            0    8425.8458    16.863813    19.863345    20.573813    6891.6458    6885.1568    8991.9616    9400.4189    354.45937    754.32383    -486.2139    -2588.487 
14588000    274.47475     -3840.31   -3369.8697     -3840.31            0    11525.375    16.809749    19.799664    20.507854    6825.5754    10495.807    14198.453     9881.865   -193.43186   -1191.9148   -787.02733   -2222.5876 
14589000    254.71737   -3864.2019    -3427.625   -3864.2019            0    10314.183     16.82137    19.813352    20.522032    6839.7417    10762.068    9000.3388    11180.141    1067.7333   -728.10688   -803.82915    -2398.779 
14590000    268.97679   -3841.7216   -3380.7046   -3841.7216            0    12629.922    16.736638    19.713549     20.41866    6736.9029    11807.296    14950.015    11132.454   -579.10187    334.17796    296.95633   -2139.8045 
14591000    251.28675   -3853.9035   -3423.2066   -3853.9035            0    10640.101     16.83719    19.831986    20.541333    6859.0577    8958.3633    11080.522    11881.419   -438.79331   -194.61561    2414.9904   -2358.8526 
14592000    283.41632   -3870.6957   -3384.9298   -3870.6957            0    9848.4954    16.867156    19.867282    20.577891    6895.7444    9081.4989     9914.946    10549.041    75.426424   -96.006088   -886.56749   -2394.4926 
14593000    255.10075   -3851.9731   -3414.7391   -3851.9731            0    11084.735    16.841458    19.837013     20.54654    6864.2749    7774.4493    12563.826    12915.929   -1906.1189   -1128.8089    654.60718    -2305.064 
14594000    266.82263   -3835.7282   -3378.4033   -3835.7282            0    11356.106    16.795134    19.782449    20.490024    6807.7874    12389.237    9824.0647    11855.016   -691.55562     883.5112   -413.86842    -2250.917 
14595000    258.92627   -3836.1211   -3392.3303   -3836.1211            0    11312.064    16.804113    19.793025    20.500978    6818.7119    10427.721    11525.407    11983.064    5.8671315   -705.24823    113.96443   -2267.4144 
14596000    266.89995   -3805.8557   -3348.3983   -3805.8557            0    10700.083      16.8143    19.805025    20.513407    6831.1212    12754.667    8995.4348    10350.146   -231.63951   -760.26644    849.81114   -2282.4037 
14597000    267.13686   -3832.3217   -3374.4583   -3832.3217            0    10714.938    16.892738    19.897414      20.6091    6927.1676    13355.471    9798.2122     8991.131    659.16493     2127.936   -1437.4965   -2291.9749 
14598000    263.27535    -3856.952   -3405.7071    -3856.952            0    9433.3111     16.90832    19.915768    20.628111    6946.3549     8235.692    11297.365    8766.8763    1521.8913    501.67733    179.42539   -2450.0611 
14599000    275.75241   -3837.8419   -3365.2117   -3837.8419            0    10030.035    16.869222    19.869716    20.580412    6898.2794    10261.804    10613.178    9215.1239   -1190.0371   -167.31723   -2199.4361   -2356.1468 
14600000    264.88176   -3845.2004   -3391.2021   -3845.2004            0    11951.238    16.819624    19.811295    20.519902    6837.6118    14879.122    10762.578    10212.013   -140.87272    135.22511    127.27862     -2199.43 
14601000    264.32743   -3877.5351   -3424.4869   -3877.5351            0    10982.561    16.846065     19.84244     20.55216    6869.9095    11051.066    12070.197    9826.4186   -220.44873   -34.847285    1193.9393   -2324.1378 
14602000    286.64964   -3866.5872   -3375.2795   -3866.5872            0    9092.7498    16.939861    19.952919    20.666591    6985.3007    7667.1691    9902.6933     9708.387    234.63864   -380.81741   -72.288674   -2448.9698 
14603000    251.29377   -3820.6134   -3389.9045   -3820.6134            0    9392.5084    16.932251    19.943955    20.657307    6975.8913     7695.022    10183.364    10299.139   -756.27549    221.20482    1704.9185   -2434.3462 
14604000    275.65543   -3839.0664   -3366.6024   -3839.0664            0    11914.646    16.860776    19.859767    20.570108    6887.9229    11581.088    11906.978    12255.872    139.03901    -696.1633   -621.27209    -2169.737 
14605000    283.80638   -3843.2563   -3356.8219   -3843.2563            0    7612.9079     16.89132    19.895743     20.60737    6925.4233    7809.0214    8355.3721    6674.3303    59.071634    1180.8304   -413.62788   -2587.9167 
14606000    253.41395   -3842.7924   -3408.4496   -3842.7924            0    10200.886    16.863907    19.863455    20.573927    6891.7605    11533.176    9241.2286    9828.2534    336.12235   -1927.8278   -961.79181   -2383.1661 
14607000    267.79079   -3835.7148   -3376.7306   -3835.7148            0    12489.788    16.760301     19.74142    20.447527    6765.5171    13714.623    11227.469     12527.27    48.378064    657.46894   -662.53553   -2144.3866 
14608000    268.24287   -3835.7682   -3376.0091   -3835.7682            0    10479.553    16.887578    19.891336    20.602805     6920.822    10504.343    10440.949    10493.368   -1683.6602   -383.17022    772.50957   -2318.2754 
14609000    266.46094   -3833.4302   -3376.7253   -3833.4302            0    10273.673    16.901885    19.908188     20.62026    6938.4268    9015.4729    11807.268    9998.2791   -2913.6504     465.1255   -1551.5941   -2337.1339 
14610000    271.02457   -3857.6408    -3393.114   -3857.6408            0    9668.4652    16.881578    19.884269    20.595485    6913.4479    7941.5975    10636.256    10427.542   -598.65957     857.7662    616.14608   -2418.2857 
14611000    275.29567   -3843.2256   -3371.3782   -3843.2256            0    10760.702    16.858244    19.856785    20.567019    6884.8204    12657.187    8968.2006    10656.719   -410.19907   -1534.4052   -2243.0678   -2290.9172 
14612000    281.31695   -3891.1668   -3408.9992   -3891.1668            0    6428.2038    16.911846    19.919921    20.632413    6950.7019    7594.4051    5288.9864    6401.2198   -151.82196    67.209347    106.87084   -2757.3795 
14613000      279.574   -3868.0335   -3388.8532   -3868.0335            0    9578.9182    16.830937    19.824621    20.533704    6851.4185     8490.313    11044.265    9202.1765   -639.20483    261.95697    528.97232    -2431.719 
14614000    280.88388   -3830.2936   -3348.8682   -3830.2936            0    10480.248    16.835165      19.8296    20.538862    6856.5825     11178.87    10584.601    9677.2721   -1901.1781   -292.90824    219.42462   -2300.8831 
14615000    282.59281   -3852.7048   -3368.3504   -3852.7048            0    10605.155    16.847752    19.844426    20.554218    6871.9734    11102.209     7962.993    12750.264    498.27548    671.34843    592.84647   -2305.4945 
14616000    268.28127   -3861.0128   -3401.1879   -3861.0128            0    12774.351     16.79352    19.780548    20.488055    6805.8254    12355.275    13395.055    12572.721    1084.0548    239.91253     823.7487   -2133.2571 
14617000    248.71294   -3858.8827   -3432.5973   -3858.8827            0     9456.672    16.841122    19.836617    20.546129    6863.8633     10799.07    8007.8116    9563.1339   -866.58873   -674.37614   -1005.4559   -2485.9617 
14618000    261.51094   -3882.0465   -3433.8256   -3882.0465            0     9074.548    16.817116    19.808341    20.516842    6834.5529    10622.469     9924.532    6676.6436   -345.07983   -409.84498    -1004.789   -2529.3206 
14619000    278.12463   -3825.9089   -3349.2128   -3825.9089            0    9971.5602    16.859499    19.858262    20.568549    6886.3574    9979.8032    9910.1276     10024.75    39.864561   -194.40011    1475.3672   -2347.7644 
14620000    265.58641   -3866.0446   -3410.8385   -3866.0446            0    10555.381    16.863033    19.862426    20.572861    6890.6893    11080.419    9968.3235    10617.401    1675.7074   -824.60843    1641.0497   -2350.0899 
14621000    275.77648   -3862.9283   -3390.2568   -3862.9283            0    10885.665    16.882031    19.884803    20.596039    6914.0053    9503.4929    12519.019    10634.484   -1265.5604     1259.381   -739.09765   -2292.6152 
14622000    288.03862   -3862.1932   -3368.5048   -3862.1932            0    9349.2617    16.900336    19.906363     20.61837    6936.5193    9863.7858    7823.5542    10360.445   -1224.2084    849.66494    278.74263   -2422.7146 
14623000    242.00888   -3837.8115   -3423.0166   -3837.8115            0    10985.655    16.858009    19.856507    20.566731    6884.5318     12161.14     10638.21    10157.616    525.72286    794.90001    1845.2596   -2320.0147 
14624000    272.79744   -3851.5597   -3383.9942   -3851.5597            0    10817.099    16.858663    19.857278     20.56753    6885.3337    10124.226     9833.331     12493.74    1224.2254    303.57849    460.74152   -2297.7895 
14625000    267.76265   -3812.8869   -3353.9508   -3812.8869            0    10767.277    16.895419    19.900572    20.612372    6930.4668    11618.222    11038.212    9645.3972   -438.74483    592.08173    1972.9984   -2265.6618 
14626000      265.351   -3847.2166   -3392.4141   -3847.2166            0     10125.24    16.892599     19.89725    20.608931     6926.997    9574.1372    11121.282    9680.2997   -1447.5419   -100.79786    -378.7074   -2369.5305 
14627000    267.66321    -3828.208   -3369.4424    -3828.208            0    11925.482    16.878673    19.880847    20.591942    6909.8797    11678.814    11452.323     12645.31   -757.23275    1089.8255    2364.1008   -2167.6697 
14628000    285.87627   -3856.0565   -3366.0744   -3856.0565            0    10780.364    16.854084    19.851885    20.561944    6879.7251    10790.863    11013.209     10537.02    1068.7144    837.42624    1014.3275   -2284.4402 
14629000    270.70957   -3797.7029    -3333.716   -3797.7029            0    11268.409    16.857411    19.855803    20.566002    6883.7992    10801.497    9150.6157    13853.115    -2042.422   -1681.4051   -632.24032   -2202.4449 
14630000    263.82343   -3852.5153    -3400.331   -3852.5153            0    9304.8684    16.903898    19.910559    20.622716     6940.906    9123.4565    9958.6361    8832.5125    390.75424   -592.13655    -935.2556   -2458.4364 
14631000    255.82532   -3845.2018    -3406.726   -3845.2018            0    9324.6159    16.878928    19.881148    20.592253    6910.1933    9142.5327    8371.1653     10460.15    96.356167    88.825253   -374.47956   -2467.0091 
14632000     268.9636   -3785.9727   -3324.9783   -3785.9727            0    9412.3517    16.891783    19.896289    20.607936    6925.9934     9051.261    9324.2602    9861.5338    869.82783    1131.3563    470.21334   -2374.2506 
14633000    265.41247   -3825.8841   -3370.9762   -3825.8841            0    10016.981    16.886341    19.889879    20.601296    6919.3012    10629.664    9971.0927    9450.1867     828.2942   -1765.4805    1294.5424   -2360.1535 
14634000    263.12276   -3840.3792   -3389.3958   -3840.3792            0     13149.29    16.810539    19.800594    20.508818    6826.5379    13628.504    13431.039    12388.327   -1124.5004    916.62317   -793.16848   -2080.2781 
14635000      256.717   -3862.7532   -3422.7491   -3862.7532            0    12662.273    16.797279    19.784975    20.492641    6810.3959    12538.608    13350.029    12098.182   -199.35731   -356.23859   -679.64762   -2165.0987 
14636000    267.99587    -3825.091   -3365.7553    -3825.091            0    11240.411    16.851583    19.848938    20.558891    6876.6618    10143.934    12941.451    10635.847    938.30332   -421.97438   -153.03056   -2238.4651 
14637000    267.49173   -3865.8256   -3407.3539   -3865.8256            0    9696.5383    16.934433    19.946525    20.659969    6978.5881    11505.766    8482.2724    9101.5767    885.32154    208.63934   -1530.4685   -2420.4834 
14638000     280.4282   -3872.7093   -3392.0649   -3872.7093            0    12128.717    16.808456    19.798141    20.506278     6824.001    14165.479    9902.7034    12317.969    -632.6651    461.36875    114.82319   -2185.0022 
14639000      267.224     -3884.61   -3426.5972     -3884.61            0    10837.245    16.822998    19.815269    20.524018    6841.7269    11958.978    9447.7827    11104.974    2151.9539   -588.50422    580.71996   -2345.2615 
14640000    258.95956   -3845.5287   -3401.6809   -3845.5287            0    9090.0819    16.888149    19.892009    20.603502     6921.524    9386.4247    9810.8712    8072.9497   -550.68642    1332.5651    998.61363   -2484.0978 
14641000     259.3709   -3847.0524   -3402.4995   -3847.0524            0    10093.634    16.834434    19.828739     20.53797     6855.689    11163.445    8761.6253    10355.832    530.16177    216.92894    1908.0676   -2393.3058 
14642000    269.80807   -3872.9565   -3410.5147   -3872.9565            0     11237.86    16.828125    19.821308    20.530273    6847.9844     11284.07    10237.635    12191.875   -452.59599    287.48635   -360.44961   -2288.1803 
14643000    261.56971   -3846.1688   -3397.8473   -3846.1688            0    9637.3571    16.838955    19.834065    20.543486    6861.2146    9581.2607    10564.079    8766.7318   -615.47826   -453.13891   -2342.9269   -2433.4969 
14644000    263.21114    -3830.613   -3379.4781    -3830.613            0    10208.737    16.868531    19.868902    20.579569    6897.4314    9247.1738    11311.693    10067.345   -209.13786    1889.2443    1043.4143   -2352.5612 
14645000     267.8039   -3797.2566   -3338.2499   -3797.2566            0    9984.3719    16.780145    19.764794    20.471737    6789.5767    9717.8704     10991.27    9243.9756   -985.75823    1018.3301    1282.0807   -2349.6072 
14646000    264.85117   -3840.6079   -3386.6621   -3840.6079            0    11057.611    16.769725    19.752521    20.459025    6776.9366    12756.379     8579.902    11836.551   -652.79452   -1310.6498   -191.70738   -2293.7868 
14647000    267.66973   -3867.6817   -3408.9049   -3867.6817            0    11960.075    16.801698    19.790181    20.498032    6815.7728    12231.994    11322.535    12325.695    222.38524   -421.24029   -242.16574   -2220.0609 
14648000    259.09443   -3852.2702   -3408.1912   -3852.2702            0    11414.712    16.854877    19.852818     20.56291    6880.6953    11231.274    11918.801    11094.061   -1387.7972     688.7946   -762.71234    -2262.749 
14649000    282.92762   -3825.6574   -3340.7291   -3825.6574            0    11223.271    16.837386    19.832217    20.541572    6859.2972    9910.1791    10569.198    13190.435    576.30925    959.92207    1243.7069   -2218.0001 
14650000     267.5158   -3857.8663   -3399.3534   -3857.8663            0    11796.479    16.851205    19.848493    20.558431    6876.1994    12587.224    12677.651    10124.563    427.16801   -887.60353   -249.66268   -2216.3751 
14651000    264.96225   -3799.0085   -3344.8722   -3799.0085            0    10113.128    16.908627    19.916129    20.628485     6946.733    10442.083    9493.8857    10403.414    2255.5185    -1329.004    1634.5851   -2320.3014 
14652000     251.5897   -3831.4442   -3400.2281   -3831.4442            0    11005.568    16.820791     19.81267    20.521325    6839.0347     11184.75    9662.5618    12169.392   -451.98022   -1671.3444    1031.8381   -2302.5293 
14653000    266.28589   -3821.1427   -3364.7378   -3821.1427            0    11614.829    16.824078    19.816542    20.525336    6843.0458    8819.7771    12929.433    13095.277    675.72072    -229.2196    986.39627   -2205.5918 
14654000    259.65846   -3857.7705   -3412.7248   -3857.7705            0    10356.731     16.87134     19.87221    20.582995    6900.8775    11064.761    9739.8985    10265.534    406.09498     2762.971    1082.8691   -2370.4003 
14655000    268.04198   -3865.7679   -3406.3531   -3865.7679            0    9302.1396    16.876032    19.877737     20.58872    6906.6366    9642.3449    9330.5917    8933.4823    -569.9732    344.38515   -41.790535   -2469.3839 
14656000    259.14167   -3901.6849    -3457.525   -3901.6849            0    9224.8524    16.905012    19.911871    20.624075    6942.2784    10112.783     8245.353    9316.4214    -531.0608    2099.9677   -558.03298   -2523.5455 
14657000    269.40558   -3876.0662   -3414.3142   -3876.0662            0    12076.264    16.799296    19.787352    20.495102      6812.85    12378.829    12507.523    11342.439   -2435.0747    238.07592    208.65307   -2214.4356 
14658000     258.9498   -3855.7778   -3411.9467   -3855.7778            0     10151.62    16.845596    19.841887    20.551588    6869.3358    9520.2643     10499.95    10434.646     777.6297   -2130.6272   -1175.9068   -2394.9349 
14659000    277.69416   -3870.5012   -3394.5429   -3870.5012            0    12124.833    16.820909    19.812809     20.52147    6839.1789    12344.485    12826.774    11203.241   -23.153513    582.25904   -546.40456   -2185.1828 
14660000    282.06093   -3837.7885   -3354.3457   -3837.7885            0    10849.508    16.873668    19.874952    20.585836    6903.7348    13929.311    9076.3639    9542.8493    2867.1229   -967.50535   -673.92966    -2261.975 
14661000     263.9462   -3865.7431   -3413.3484   -3865.7431            0    11133.068    16.801159    19.789546    20.497375    6815.1173     10823.69    12048.262    10527.253    279.57989   -134.22982    1499.9026    -2306.816 
14662000    266.85535   -3855.5214   -3398.1405   -3855.5214            0    12235.623    16.799511    19.787605    20.495364    6813.1113    10194.343    13039.662    13472.864   -1267.2599   -841.68874     -113.516   -2182.3816 
14663000    276.38777   -3880.8341   -3407.1149   -3880.8341            0    10027.438    16.866048    19.865977    20.576539     6894.386    10286.442    9086.7657    10709.107    362.30918    1366.4313     102.2894   -2398.8806 
14664000    257.44984   -3832.2171   -3390.9569   -3832.2171            0    12875.137    16.836677    19.831381    20.540706    6858.4297    12905.362    13141.986    12578.063   -1743.0114   -423.15628    1677.5339   -2103.1449 
14665000     263.8399   -3840.2635   -3388.0509   -3840.2635            0    11426.345    16.802315    19.790908    20.498785    6816.5241     10485.87    11870.217    11922.947   -2297.4846   -40.183569    1833.6396    -2252.135 
14666000    268.04474   -3817.6497   -3358.2302   -3817.6497            0      12716.5    16.849249     19.84619    20.556044    6873.8054     12046.75     14132.22    11970.528   -1086.8491   -820.08846   -1472.5613   -2083.4342 
14667000    263.74614   -3867.7231   -3415.6713   -3867.7231            0    11430.849    16.782372    19.767418    20.474455    6792.2811    11444.452    12126.543    10721.554   -19.384557    1547.0292    164.48978    -2283.349 
14668000    271.22772   -3838.2741   -3373.3991   -3838.2741            0    11496.201    16.840542    19.835934    20.545422    6863.1544    11727.317    11244.881    11516.405   -845.03457    261.47713     860.5983   -2222.7206 
14669000    268.36473    -3823.208     -3363.24    -3823.208            0    11168.257    16.859795    19.858611     20.56891      6886.72    11995.575    11131.063    10378.132    520.47601   -258.59334   -973.10841   -2241.5478 
14670000    271.52658    -3863.261   -3397.8738    -3863.261            0    9622.9003    16.914706     19.92329    20.635902    6954.2288      10082.8    9314.8309    9471.0705   -334.75702   -433.45769   -439.57127   -2421.9164 
14671000    256.32805   -3817.9126   -3378.5751   -3817.9126            0    10822.701    16.886534    19.890107    20.601533    6919.5393    7925.9522    10519.153    14022.999   -8.6025762    1636.6544     -207.444   -2286.4089 
14672000    268.74791    -3848.486   -3387.8613    -3848.486            0    11575.782    16.866869    19.866944    20.577541    6895.3926    11680.845    9788.4219    13258.078   -485.30005     1333.763    561.10161   -2223.7749 
14673000    265.30298   -3840.7334   -3386.0131   -3840.7334            0    10021.715    16.844047    19.840063    20.549698    6867.4412    9688.9979    10738.477    9637.6708    -854.1697     1347.299   -1543.6236   -2382.2924 
14674000    257.13771   -3856.5443   -3415.8191   -3856.5443            0     9940.063    16.933553    19.945488    20.658895       6977.5    7134.4832    11354.408    11331.298    267.73843   -904.48811     670.4905   -2404.3215 
14675000    259.47324   -3822.8251   -3378.0968   -3822.8251            0    10352.854    16.863535    19.863017    20.573474    6891.3051    11075.562    9832.7465    10150.254   -736.24444    210.94959    702.89786   -2337.6079 
14676000    268.45168   -3846.5517   -3386.4347   -3846.5517            0    9980.2781    16.881595     19.88429    20.595507    6913.4696     8527.156    10474.695    10938.984   -497.27334   -1631.4642   -718.39304   -2380.1645 
14677000    266.97624   -3819.4553   -3361.8671   -3819.4553            0    10821.458    16.866379    19.866366    20.576943    6894.7913     12797.74    9769.9305    9896.7041   -1961.2406   -1147.8386    185.61722   -2273.7321 
14678000    262.71906   -3819.8644   -3369.5729   -3819.8644            0    10679.742    16.869561    19.870114    20.580825    6898.6945    10694.674    9534.2121    11810.341    106.39539   -483.20107     957.9265   -2295.0799 
14679000    262.21661   -3841.2931   -3391.8628   -3841.2931            0    9836.5446    16.862777    19.862124    20.572548     6890.375     7953.584    10250.115    11305.935   -1342.9353    379.14531   -138.10052   -2403.3977 
14680000    265.53997   -3865.0658   -3409.9394   -3865.0658            0    10633.848    16.869265    19.869767    20.580465    6898.3323    11025.764    8960.0677    11915.713   -949.62029    1048.6695    2527.8885     -2340.12 
14681000    286.03418   -3875.3956   -3385.1428   -3875.3956            0    9104.2668    16.886036     19.88952    20.600925    6918.9267    9073.8385    8467.0406    9771.9211     559.4773   -271.29379    1267.1307   -2466.4727 
14682000    272.22123   -3823.3898   -3356.8119   -3823.3898            0    10901.531    16.856343    19.854545    20.564699    6882.4912    9012.8019     12894.18     10797.61   -272.83724   -360.09388   -645.28025   -2262.5809 
14683000    250.88019   -3859.8817   -3429.8817   -3859.8817            0    11137.033    16.844358    19.840429    20.550078    6867.8214    9460.1743    12260.485    11690.441   -953.75965   -561.13931   -553.97119    -2314.395 
14684000    265.20161   -3872.8015    -3418.255   -3872.8015            0    8947.7731    16.836315    19.830956    20.540265    6857.9883    8004.6896    9181.3011    9657.3285    278.99266   -838.70227    395.92105   -2523.3281 
14685000     275.5416   -3829.9361   -3357.6672   -3829.9361            0    9153.9867    16.881082    19.883685    20.594881    6912.8387    9695.8699    9778.9342     7987.156   -1445.0982   -236.55262    239.54375   -2434.7929 
14686000    266.58968    -3797.081   -3340.1554    -3797.081            0    11077.582    16.804477    19.793454    20.501422     6819.155    10691.603     11769.97    10771.173    259.29009    -1402.497   -796.95532   -2238.4857 
14687000    253.93745   -3851.5655   -3416.3254   -3851.5655            0    9480.3251    16.885385    19.888753     20.60013    6918.1262    7138.7324     10876.44    10425.803    13.679287    61.487704   -932.37459   -2459.8196 
14688000     266.3682   -3807.2262   -3350.6803   -3807.2262            0     11720.08     16.80954    19.799418      20.5076    6825.3212    12244.896    11093.451    11821.893    -146.9938    1066.6355    56.020637   -2184.0599 
14689000    259.83552    -3859.472   -3414.1228    -3859.472            0    9113.8023    16.885527     19.88892    20.600303    6918.3009    9294.3822    11209.044    6837.9802   -1105.4521    566.96208   -1014.2837   -2494.5737 
14690000    281.50191   -3795.8118   -3313.3271   -3795.8118            0    10199.166    16.826454     19.81934    20.528234    6845.9447    9409.6684    10551.635    10636.196   -352.61473   -224.99657    624.80468   -2295.0313 
14691000    265.74544   -3798.5769   -3343.0983   -3798.5769            0    12448.306    16.757867    19.738553    20.444558    6762.5701    12343.185    12816.286    12185.448   -1356.1582   -1632.3984    582.50319   -2115.3823 
14692000    271.55087   -3808.0746   -3342.6457   -3808.0746            0    10492.237    16.774093    19.757666    20.464354    6782.2333    10879.028    10381.882    10215.801   -766.19962   -870.90831    69.082525   -2304.8384 
14693000    272.56103   -3813.4024   -3346.2421   -3813.4024            0    11204.166    16.796847    19.784467    20.492114    6809.8706    12605.734    10712.395    10294.369   -1047.2361   -382.11985    -75.20008   -2233.5006 
14694000    277.01992    -3831.003   -3356.2004    -3831.003            0    10302.051    16.880341    19.882812    20.593976    6911.9281    10252.535    10322.754    10330.865    -1298.604      -822.38   -2030.9672   -2317.7188 
14695000    265.54908   -3840.3954   -3385.2534   -3840.3954            0    9332.0483    16.841742    19.837347    20.546885    6864.6213    9002.1269     10056.03    8937.9884   -1291.0689    1360.6082   -53.077802   -2450.9897 
14696000    276.80507   -3848.5751   -3374.1407   -3848.5751            0    9339.4509    16.826217    19.819061    20.527945    6845.6556    8188.1556    9338.2779    10491.919     123.8272    574.78649      1799.92   -2441.7192 
14697000    264.62964   -3839.4627   -3385.8966   -3839.4627            0    10379.835    16.841929    19.837568    20.547114    6864.8508      10366.5    10063.214     10709.79   -711.98045   -850.39515   -578.95092   -2346.7007 
14698000    265.75336   -3842.7841   -3387.2919   -3842.7841            0    9547.2573    16.848196     19.84495     20.55476    6872.5172    8395.3324    9689.7402    10556.699    673.88326    118.28601   -564.98937   -2430.3836 
14699000    300.41263   -3886.4911   -3371.5941   -3886.4911            0    11718.817    16.771193     19.75425    20.460816    6778.7159     12440.59     11234.54    11481.322   -203.03558   -614.71293   -428.06997   -2213.0646 
14700000    268.36192   -3867.6503   -3407.6872   -3867.6503            0    10757.497    16.811734    19.802002    20.510276     6827.994    8936.1917    10624.787    12711.512   -383.28507    2313.8095    117.57549   -2336.4633 
14701000     267.6516   -3844.1529   -3385.4072   -3844.1529            0    11174.923     16.81141     19.80162    20.509881    6827.5988    10884.296    10285.617    12354.854   -1382.7667   -1992.0231      45.4785   -2272.6808 
14702000    272.22713   -3859.5362   -3392.9482   -3859.5362            0    8537.7999    16.890508    19.894787     20.60638    6924.4247    6676.8354    8426.1595    10510.405    1989.5471    651.71669    269.54487   -2530.7531 
14703000    254.19566   -3858.8692   -3423.1866   -3858.8692            0    11416.442    16.853195    19.850837    20.560858    6878.6358    11473.722    11690.556     11085.05    241.33189    308.44679    2733.5082   -2277.9136 
14704000     265.8355   -3867.7527   -3412.1198   -3867.7527            0    10954.574    16.828485    19.821733    20.530713    6848.4243    11990.737     11971.39    8901.5951   -1444.1161   -848.86688    368.80466   -2318.0071 
14705000    255.31541   -3857.0566   -3419.4548   -3857.0566            0    9668.1472    16.815793    19.806783    20.515228    6832.9409    8759.5351    9172.5714    11072.335     859.8649    183.82979    1102.3672     -2456.01 
14706000    248.54049   -3831.7138   -3405.7239   -3831.7138            0    10742.895    16.856653    19.854911    20.565077    6882.8712    10387.959    9812.7793    12027.948   -210.12995   -1718.5259    2281.7054   -2327.3562 
14707000     267.8513   -3843.8071   -3384.7192   -3843.8071            0    9520.4783    16.872943    19.874098    20.584951    6902.8451    10746.416    7892.7886    9922.2305    37.565069   -836.83549     1950.599   -2426.2839 
14708000    273.54875   -3794.6732     -3325.82   -3794.6732            0    11460.848    16.784923    19.770422    20.477566    6795.3781    11017.816    11763.326    11601.401    486.75545    189.49836   -333.36123   -2190.0085 
14709000    254.10874   -3818.1292   -3382.5955   -3818.1292            0    12022.695    16.829772    19.823248    20.532282    6849.9949    12852.081    10356.043    12859.962    1333.6402   -895.18701     1181.987   -2181.5265 
14710000     270.8659    -3802.674   -3338.4192    -3802.674            0    11649.497    16.816646    19.807787    20.516269    6833.9802    11283.022    12585.174    11080.294    360.75169   -114.74015   -1185.6527   -2177.3535 
14711000    266.90755   -3832.5188   -3375.0484   -3832.5188            0    10767.481     16.85095    19.848193     20.55812    6875.8873     11287.11    8786.4101    12228.922    43.887466   -437.90113    1345.7461   -2295.3095 
14712000    278.82386   -3838.9671   -3361.0726   -3838.9671            0    10181.982    16.843016    19.838848     20.54844    6866.1799    12800.062    9061.5091    8684.3752    270.04064   -1012.3539   -806.24827   -2341.4877 
14713000    279.23894   -3829.6832   -3351.0772   -3829.6832            0    10953.397    16.810138    19.800122    20.508329    6826.0496    9529.0246    10813.475     12517.69    1919.7807    450.44009    561.40495   -2260.6563 
14714000    275.98953   -3845.6812   -3372.6446   -3845.6812            0     11533.53    16.816682    19.807831    20.516313    6834.0248    12799.461    12094.952    9706.1765   -451.63712   -1123.1496   -1513.6084   -2223.1295 
14715000    246.59452   -3857.6071   -3434.9525   -3857.6071            0    12066.703    16.766323    19.748514    20.454875    6772.8132    11777.418    11877.294    12545.399    511.42136   -264.91359    651.46353   -2243.0695 
14716000    267.46328   -3841.2943   -3382.8714   -3841.2943            0    9678.5841    16.818499     19.80997     20.51853    6836.2401    11360.929     8865.815    8809.0083     791.0308    -859.9467    1879.7365    -2417.921 
14717000    258.33792   -3843.2105   -3400.4281   -3843.2105            0     13925.64      16.7538    19.733764    20.439597    6757.6485    12173.148    16081.116    13522.655   -388.17564   -153.78507   -20.240802   -2028.0094 
14718000    281.42439   -3858.5805   -3376.2287   -3858.5805            0    11044.281    16.879603    19.881943    20.593076    6911.0219    10713.625    10863.525    11555.693   -713.04422    130.74763    604.00238   -2263.0738 
14719000    275.70261   -3818.6062   -3346.0613   -3818.6062            0    11500.159    16.901739    19.908016    20.620082    6938.2473    9437.4388     13054.46    12008.579   -23.685787    139.94428    1627.6603   -2182.3922 
14720000    268.19696   -3831.6483   -3371.9679   -3831.6483            0    13494.872    16.798524    19.786442     20.49416    6811.9111     15390.92    12656.143    12437.553   -362.94004     37.57658    46.278048   -2031.3233 
14721000    269.33324   -3832.7504   -3371.1225   -3832.7504            0    11370.369    16.846255    19.842663    20.552392    6870.1421    9430.8641    12600.658    12079.585    377.04335   -593.75078    1340.4041     -2231.88 
14722000    263.54314   -3856.7323   -3405.0284   -3856.7323            0    10404.081    16.838693    19.833756    20.543166    6860.8937     8261.819    12670.155    10280.268    190.23403   -2070.4749   -841.61271   -2364.0055 
14723000    266.92554   -3873.0007   -3415.4994   -3873.0007            0     9497.153    16.953773    19.969306    20.683564    7002.5257    11533.752     7883.251    9074.4563   -1072.6751   -1177.7979    303.78288    -2445.606 
14724000    265.84046   -3847.2782   -3391.6368   -3847.2782            0    10845.194    16.920038     19.92957    20.642407    6960.8069    8373.7258    11797.072    12364.785    918.77001   -585.03796    756.72668   -2290.6735 
14725000    258.72095   -3823.0037   -3379.5648   -3823.0037            0    11660.146     16.79655    19.784118    20.491752    6809.5102    14630.057    10124.603    10225.779    2011.8744    556.03913    901.46847   -2221.5989 
14726000    257.01387   -3810.0909   -3369.5779   -3810.0909            0    10726.813    16.851233    19.848527    20.558465    6876.2343    9462.4304    13124.872    9593.1374    893.80815    411.37395    1735.6201   -2293.8628 
14727000    284.56348   -3812.6437   -3324.9116   -3812.6437            0    9989.5645    16.834546    19.828872    20.538107    6855.8265    8966.4757    10547.127     10455.09     1119.756   -581.62155    1124.6156   -2326.1031 
14728000    274.29791    -3809.887   -3339.7498    -3809.887            0    11428.036    16.788024    19.774075     20.48135    6799.1459    13611.354    12029.904    8642.8492   -671.61334   -1243.4016    646.16361   -2206.5621 
14729000    267.47336   -3827.6049   -3369.1647   -3827.6049            0    10726.866     16.89026    19.894496    20.606078    6924.1205    9280.4546    10680.156    12219.987   -1346.4825   -1596.3548   -453.97807    -2285.953 
14730000    271.88746   -3806.6797   -3340.6739   -3806.6797            0    8647.9295    16.889753    19.893899     20.60546    6923.4972    8185.4028    9184.9869    8573.3987    1575.1906    445.70463    2338.1257   -2467.4743 
14731000    276.09746   -3822.1476    -3348.926   -3822.1476            0    10015.129    16.817892    19.809256    20.517789    6835.5002    7577.9188    11252.208    11215.259    344.72516   -328.63012      153.289   -2350.5303 
14732000      274.754   -3838.7503   -3367.8313   -3838.7503            0    7135.9985    16.891657    19.896141    20.607782    6925.8383    7568.2492    5253.9599    8585.7863   -342.95048    -1025.432    2269.7854   -2647.0509 
14733000    258.27063   -3834.3852   -3391.7182   -3834.3852            0    11680.341    16.809612    19.799502    20.507687    6825.4081    12001.106    11818.125    11221.793    526.82276   -406.81701   -542.48452   -2229.0386 
14734000    273.86332   -3839.2164   -3369.8241   -3839.2164            0    10096.915    16.836655    19.831355    20.540679     6858.403    10740.649    9728.9074    9821.1905   -719.18719   -619.19255     37.36954   -2359.9026 
14735000    252.19566   -3859.0395   -3426.7848   -3859.0395            0    11620.603    16.793302    19.780292    20.487789    6805.5605    10902.238    13779.354    10180.216   -324.15445   -776.19582    520.33927   -2273.4153 
14736000    265.42201   -3870.4468   -3415.5226   -3870.4468            0    11863.909    16.828854    19.822167    20.531163    6848.8749    12527.067    10036.961    13027.699    336.46668   -288.79846   -99.817648   -2230.5101 
14737000    272.47513   -3863.8434   -3396.8304   -3863.8434            0    11341.591    16.784691    19.770149    20.477284    6795.0966    10659.238    12126.438    11239.097    2054.5784     202.1543    1379.1627   -2272.8842 
14738000      270.944   -3849.2417   -3384.8529   -3849.2417            0    8883.9572    16.880918    19.883491     20.59468    6912.6368    9836.2083    9127.9096    7687.7537   -580.38691    -658.7776    327.70102   -2489.2282 
14739000    267.07597   -3849.3518   -3391.5927   -3849.3518            0     10539.26     16.83044    19.824035    20.533098    6850.8114     8880.259    9242.6223    13494.899    877.02882    1166.6066    158.88516   -2338.5936 
14740000    259.16001    -3816.288   -3372.0966    -3816.288            0    8479.2164    16.854068    19.851865    20.561923    6879.7045    8040.9573    8725.2686    8671.4231     928.8785   -825.43431    25.064986   -2521.3477 
14741000    256.55794   -3866.6265   -3426.8949   -3866.6265            0    11531.224    16.806939    19.796354    20.504426    6822.1525    11632.788    12990.623    9970.2604   -230.36944   -169.21987   -369.00528   -2279.6062 
14742000    274.25934   -3841.6092   -3371.5381   -3841.6092            0    10419.432    16.824469    19.817002    20.525812    6843.5217    10752.895    10108.099    10397.302   -712.38932    -887.8091    339.06307   -2331.6189 
14743000    272.04074   -3787.4618   -3321.1933   -3787.4618            0    12297.289    16.785614    19.771236    20.478409    6796.2172    11140.049    13246.881    12504.936   -801.27388    1041.5405    714.70205    -2102.337 
14744000    263.51812   -3838.7458   -3387.0847   -3838.7458            0    11766.317    16.850745    19.847952    20.557869    6875.6364    14595.761    11142.175     9561.014    1707.4511    833.76135    413.63295   -2207.2278 
14745000    276.66953   -3798.8374   -3324.6353   -3798.8374            0    11609.938    16.809608    19.799498    20.507683     6825.404    12117.916    11261.356    11450.541   -715.30363    124.99083   -650.98375   -2168.9645 
14746000    276.24104   -3866.6424   -3393.1747   -3866.6424            0     10228.94    16.815993    19.807018    20.515472    6833.1838    8842.6137    11492.218    10351.989    27.887293    -804.3526   -637.80273   -2373.8099 
14747000    272.34797   -3857.2878   -3390.4927   -3857.2878            0    11013.009    16.817969    19.809347    20.517883    6835.5942    12117.205    10225.796    10696.027   -1603.8778    -1377.301   -317.45532   -2292.6044 
14748000    276.00047   -3818.5662   -3345.5108   -3818.5662            0    13358.242    16.825186    19.817846    20.526687    6844.3969      12832.4    12854.267     14388.06   -369.61945    338.40177    23.816118    -2012.111 
14749000    263.40892   -3862.6498   -3411.1759   -3862.6498            0    10405.747     16.84677     19.84327     20.55302    6870.7721    12080.916    9682.2616    9454.0632    609.35205    -1866.655   -1169.3833   -2368.4872 
14750000    277.66455   -3826.6278   -3350.7203   -3826.6278            0    9793.9435    16.855929    19.854058    20.564194    6881.9839    10313.011    9609.4281    9459.3917   -1629.5079      842.617   -16.036046   -2367.7347 
Loop time of 541.197 on 64 procs for 250000 steps with 864 atoms

Performance: 79.823 ns/day, 0.301 hours/ns, 461.939 timesteps/s
99.1% CPU use with 64 MPI tasks x 1 OpenMP threads

MPI task timing breakdown:
Section |  min time  |  avg time  |  max time  |%varavg| %total
---------------------------------------------------------------
Pair    | 21.54      | 27.537     | 32.645     |  49.4 |  5.09
Bond    | 0.28166    | 0.29552    | 0.31206    |   1.1 |  0.05
Kspace  | 224.37     | 236.16     | 247.13     |  30.4 | 43.64
Neigh   | 5.7946     | 6.8564     | 8.3985     |  25.5 |  1.27
Comm    | 125.26     | 138.09     | 148.79     |  42.8 | 25.52
Output  | 1.684      | 1.6861     | 1.6986     |   0.2 |  0.31
Modify  | 122.71     | 125.85     | 128.84     |  13.5 | 23.25
Other   |            | 4.724      |            |       |  0.87

Nlocal:        13.5000 ave          18 max           8 min
Histogram: 1 2 2 6 11 11 8 12 4 7
Nghost:        2296.66 ave        2353 max        2237 min
Histogram: 5 2 3 8 11 11 10 9 2 3
Neighs:        4479.36 ave        6989 max        2503 min
Histogram: 2 8 4 8 17 12 9 3 0 1

Total # of neighbors = 286679
Ave neighs/atom = 331.80440
Ave special neighs/atom = 2.0000000
Neighbor list builds = 14743
Dangerous builds = 0

unfix		3
unfix		2
unfix		1

write_data	data.final.${pid}
write_data	data.final.0
System init for write_data ...
PPPM initialization ...
  extracting TIP4P info from pair style
  using 12-bit tables for long-range coulomb (../kspace.cpp:340)
  G vector (1/distance) = 0.37484125
  grid = 24 24 24
  stencil order = 5
  estimated absolute RMS force accuracy = 0.0030954931
  estimated relative force accuracy = 9.3219856e-06
  using double precision FFTW3
  3d grid and FFT values/proc = 2535 216
Last active /omp style is kspace_style pppm/tip4p/omp
WARNING: Not all mixed pair coeffs generated from mixing. Use write_data with 'pair ij' option to store all pair coeffs. (../write_data.cpp:312)

write_restart   restart.lmp.${pid}
write_restart   restart.lmp.0
System init for write_restart ...
PPPM initialization ...
  extracting TIP4P info from pair style
  using 12-bit tables for long-range coulomb (../kspace.cpp:340)
  G vector (1/distance) = 0.37484125
  grid = 24 24 24
  stencil order = 5
  estimated absolute RMS force accuracy = 0.0030954931
  estimated relative force accuracy = 9.3219856e-06
  using double precision FFTW3
  3d grid and FFT values/proc = 2535 216
Last active /omp style is kspace_style pppm/tip4p/omp
Total wall time: 0:09:05
