#include		in.partitions
include		in.temp
variable        temperature equal 145.10
variable	tempDamp equal 100.0
include		in.pressure
variable        pressure equal 2058.1
variable        pressureDamp equal 1000.0 # This is 1 ps
include		in.seed
variable        seed equal 745823

units		real
atom_style	full
#include		in.box
read_restart	restart.lmp.${pid}
read_restart	restart.lmp.1
Reading restart file ...
  restart file = 30 Jul 2021, LAMMPS = 30 Jul 2021
  restoring atom style full from restart
  orthogonal box = (0.18870468 0.15772716 0.037510470) to (18.018868 23.471451 22.175685)
  2 by 4 by 4 MPI processor grid
  restoring pair style lj/cut/tip4p/long/omp from restart
  restoring bond style harmonic/omp from restart
  restoring angle style harmonic/omp from restart
  864 atoms
  576 bonds
  288 angles
Finding 1-2 1-3 1-4 neighbors ...
  special bond factors lj:    0        0        0       
  special bond factors coul:  0        0        0       
     2 = max # of 1-2 neighbors
     1 = max # of 1-3 neighbors
     1 = max # of 1-4 neighbors
     2 = max # of special neighbors
  special bonds CPU = 0.002 seconds
  read_restart CPU = 0.009 seconds
include 	in.setup
variable	out_freq equal 1000
variable	out_freq2 equal 10000
variable	out_freq3 equal 1000

timestep	2.0

neigh_modify    delay 7 every 1

include		in.tip4p
# This is TIP4P/Ice

# create groups ###
group ox type 2
288 atoms in group ox
group hy type 1
576 atoms in group hy

# set charges - beside manually ###
set group ox charge -1.1794
Setting atom values ...
  288 settings made for charge
set group hy charge 0.5897
Setting atom values ...
  576 settings made for charge

# ### TIP3P Potential Parameters ###
pair_style lj/cut/tip4p/long/omp 2 1 1 1 0.1577 8.5
pair_coeff 1 1*2 0.000 0.000
pair_coeff 2 2 0.21084 3.1668
bond_style  harmonic
bond_coeff  1 450 0.9572
angle_style harmonic
angle_coeff 1 55 104.52
kspace_style pppm/tip4p/omp 1.0e-5
pair_modify tail yes

thermo          ${out_freq}
thermo          1000
thermo_style    custom step temp pe etotal epair emol press lx ly lz vol pxx pyy pzz pxy pxz pyz enthalpy

restart 	${out_freq3} restart.lmp.${pid} restart2.lmp.${pid}
restart 	1000 restart.lmp.${pid} restart2.lmp.${pid}
restart 	1000 restart.lmp.1 restart2.lmp.${pid}
restart 	1000 restart.lmp.1 restart2.lmp.1


include         in.dump
dump            myDump all atom ${out_freq2} dump.water.${pid}
dump            myDump all atom 10000 dump.water.${pid}
dump            myDump all atom 10000 dump.water.1
dump            myDump2 all dcd ${out_freq2} dump.dcd
dump            myDump2 all dcd 10000 dump.dcd
dump_modify     myDump append yes
dump_modify     myDump2 append yes


variable natoms 	equal  "count(all)"                        # NUMBER ATOMS
variable H      	equal  "enthalpy/v_natoms"                 # ENTHALPY-per-atom
variable Vol      	equal  "vol/v_natoms"                 # volume-per-atom
fix AVG all 		ave/time ${out_freq} 1 ${out_freq} v_Vol v_H file vol_enthalpy.dat
fix AVG all 		ave/time 1000 1 ${out_freq} v_Vol v_H file vol_enthalpy.dat
fix AVG all 		ave/time 1000 1 1000 v_Vol v_H file vol_enthalpy.dat


timer           timeout 23:50:00 every 1000
New timer settings: style=normal  mode=nosync  timeout=23:50:00

fix 		1 all shake 1e-6 200 0 b 1 a 1
       0 = # of size 2 clusters
       0 = # of size 3 clusters
       0 = # of size 4 clusters
     288 = # of frozen angles
  find clusters CPU = 0.002 seconds
fix             2 all nph aniso ${pressure} ${pressure} ${pressureDamp}
fix             2 all nph aniso 2058.1 ${pressure} ${pressureDamp}
fix             2 all nph aniso 2058.1 2058.1 ${pressureDamp}
fix             2 all nph aniso 2058.1 2058.1 1000
fix             3 all temp/csvr ${temperature} ${temperature} ${tempDamp} ${seed}
fix             3 all temp/csvr 145.1 ${temperature} ${tempDamp} ${seed}
fix             3 all temp/csvr 145.1 145.1 ${tempDamp} ${seed}
fix             3 all temp/csvr 145.1 145.1 100 ${seed}
fix             3 all temp/csvr 145.1 145.1 100 745823


run             250000
PPPM initialization ...
  extracting TIP4P info from pair style
  using 12-bit tables for long-range coulomb (../kspace.cpp:340)
  G vector (1/distance) = 0.37173189
  grid = 24 27 25
  stencil order = 5
  estimated absolute RMS force accuracy = 0.0031660854
  estimated relative force accuracy = 9.534572e-06
  using double precision FFTW3
  3d grid and FFT values/proc = 4410 672
Last active /omp style is kspace_style pppm/tip4p/omp
Neighbor list info ...
  update every 1 steps, delay 7 steps, check yes
  max neighbors/atom: 2000, page size: 100000
  master list distance cutoff = 10.8154
  ghost atom cutoff = 10.8154
  binsize = 5.4077, bins = 4 5 5
  1 neighbor lists, perpetual/occasional/extra = 1 0 0
  (1) pair lj/cut/tip4p/long/omp, perpetual
      attributes: half, newton on, omp
      pair build: half/bin/newton/omp
      stencil: half/bin/3d
      bin: standard
Per MPI rank memory allocation (min/avg/max) = 10.19 | 10.22 | 10.23 Mbytes
Step Temp PotEng TotEng E_pair E_mol Press Lx Ly Lz Volume Pxx Pyy Pzz Pxy Pxz Pyz Enthalpy 
19250000    143.17231   -4450.3626   -4204.9702   -4450.3626            0    2384.7727    17.830163    23.313723    22.138175    9202.5624    2701.2757    1784.0035    2669.0389   -344.81502   -249.56741   -766.47046     -3884.91 
19251000    153.72851   -4485.9792   -4222.4938   -4485.9792            0    1615.0592    17.984752    23.330668    21.987502    9225.8738    762.07663    2180.7564    1902.3444   -252.62898    494.89744   -309.64149   -4005.1878 
19252000    148.25819   -4479.7949   -4225.6854   -4479.7949            0    2313.7797    18.071461    23.348192    21.770456    9185.7378    2281.0556    2379.6662    2280.6173   -1192.0393    69.661798   -15.218338   -3915.7209 
19253000    147.29641   -4479.9493   -4227.4883   -4479.9493            0    2350.5688     17.95242    23.372566    21.909771    9193.2111    1839.5255    2036.1221     3176.059   -910.99213    32.935958    140.29718   -3912.3392 
19254000    138.09267   -4485.4656   -4248.7794   -4485.4656            0    2833.3732    18.089501    23.328556    21.745993    9176.8514    2047.8921    3598.4425     2853.785    128.05526   -516.33926     79.79408    -3869.575 
19255000    146.57636   -4472.1025   -4220.8756   -4472.1025            0    1549.8022    17.970454    23.528782    21.872098     9248.024    1822.9325    1023.5446    1802.9295   -406.86971     113.5905    22.857224   -4011.8492 
19256000     149.6566   -4473.6281   -4217.1218   -4473.6281            0    720.48997    18.136206    23.265075    22.062465    9309.0409   -181.72413    1562.6913    780.50273    82.262351    14.933507    40.459865    -4119.306 
19257000    145.14741   -4474.0011   -4225.2234   -4474.0011            0    1872.1448    17.866694     23.38445     22.10375     9235.009    2410.2137    976.19409    2230.0266    353.96611    3.9059752    270.87951   -3973.0771 
19258000    151.37726   -4473.3341   -4213.8786   -4473.3341            0    2477.1253    17.845588    23.323751    22.059024    9181.5401    2762.3969    1762.1438    2906.8352   -563.25002    342.07914    287.89173   -3882.1833 
19259000     145.9278   -4458.9477   -4208.8325   -4458.9477            0    2162.4566    17.977208    23.277693    22.022524    9215.7199    1940.2324    1943.9723    2603.1651   -183.81057    363.62027   -312.16216   -3918.1943 
19260000    144.58953   -4468.6976   -4220.8761   -4468.6976            0    551.75612    17.993099    23.438198    22.051406    9299.6474    552.77563    1509.5811   -407.08835   -211.29072    422.79631   -191.97823   -4146.0437 
19261000    146.11291   -4479.8895    -4229.457   -4479.8895            0    1357.4395    17.969279     23.53772    21.859757    9245.7119    2434.1534    599.49929    1038.6657     125.9224   -544.75263   -10.979301   -4046.4209 
19262000    152.80293   -4457.6277   -4195.7287   -4457.6277            0    2164.5557    18.057492    23.351565    21.860635    9217.9892    2810.7248    2722.7375     960.2049   -254.75608   -336.36309     227.6491   -3904.7368 
19263000    147.83024   -4467.2951   -4213.9191   -4467.2951            0    1546.0224    17.862724    23.508729    21.997539     9237.425    2287.9475    805.34535    1544.7743   -75.646384   -428.72756   -295.68623   -4005.6415 
19264000    139.61461   -4476.6097   -4237.3151   -4476.6097            0    1480.7052    17.943381    23.317529    22.093579    9243.8498    1051.8424    2439.6119    950.66113   -142.63429    249.34472    619.21214   -4037.6981 
19265000    144.71042   -4471.0633   -4223.0346   -4471.0633            0    2418.4973      17.9885    23.198174    22.030783    9193.4532    2795.1174    2034.8021    2425.5724    578.83553   -174.27446   -209.88088   -3898.7695 
19266000    147.80946   -4478.7636   -4225.4232   -4478.7636            0    892.77905     17.97145    23.513414     21.95043    9275.5961    1255.2871   -229.40457    1652.4547    833.22922    -448.9987   -212.10553   -4104.6525 
19267000     144.7681    -4469.352   -4221.2244    -4469.352            0    3135.3716    17.989549    23.349048    21.834041    9171.1452    3002.4517    3109.3611     3294.302    410.33792   -121.07267    318.50609    -3801.863 
19268000    138.68843   -4481.3922    -4243.685   -4481.3922            0    1480.5209    18.066444    23.342316    21.895465    9233.5943    1981.5344    2033.9449    426.08332   -1340.2642    116.21324   -178.35061   -4044.3143 
19269000     152.0261    -4486.545   -4225.9774    -4486.545            0    2597.8659    17.899461    23.466466    21.889063    9194.2183    2603.1859    3022.8698     2167.542   -488.79396   -100.00931   -52.209638   -3877.6342 
19270000    142.27159   -4477.3458   -4233.4971   -4477.3458            0    2663.2488    18.143205    23.062085     21.95354    9185.8033    1978.9118    3456.1469    2554.6878    121.29049    6.1958351    163.53005   -3876.7136 
19271000    144.88613   -4486.8075   -4238.4777   -4486.8075            0    2036.7046    17.910238     23.36348    22.020278    9214.2863    2091.8077    2719.0483     1299.258    186.61285   -404.16715    137.64992   -3964.7834 
19272000    147.30508   -4466.0493   -4213.5734   -4466.0493            0    2512.7769    17.949806    23.227945    22.054168    9195.2009    2255.3115    2538.3843    2744.6351   -563.41552    659.97144     39.74084   -3876.6036 
19273000    142.31636   -4483.8939   -4239.9685   -4483.8939            0    2821.1709    17.852885    23.380952    21.949429    9162.0742    2597.5126    3068.8263    2797.1738    761.22311   -302.78301   -81.490699   -3863.0052 
19274000    152.62123   -4457.6334   -4196.0458   -4457.6334            0    2417.0956    17.992389    23.418291    21.788997    9180.8158    2776.6689     1353.545    3121.0727   -86.658984   -162.37709   -169.12065   -3872.4141 
19275000    141.82189   -4467.7906   -4224.7127   -4467.7906            0    1270.4313    17.986952    23.409054    21.993376    9260.4767    2119.3111    306.63881     1385.344   -397.75136    32.450607   -694.98287   -4053.1352 
19276000    151.98591   -4467.0193   -4206.5206   -4467.0193            0    2433.3686    17.854713    23.391082    21.965216    9173.5762     2344.815    1801.6285    3153.6625   -41.963994    157.23409    35.306064   -3880.9671 
19277000    150.25926   -4473.0154   -4215.4762   -4473.0154            0     1697.968    17.984029    23.375091    21.929067    9218.5042     2133.453    1221.2485    1739.2026   -487.36214    40.920511   -202.85783   -3987.1973 
19278000    147.03345   -4488.1363    -4236.126   -4488.1363            0    1956.7645    18.123116    23.207501    21.873472    9199.8124    991.95014    2992.6861    1885.6573   -870.43629   -64.656944   -250.40592   -3973.5873 
19279000    141.60148   -4487.4602   -4244.7601   -4487.4602            0    2311.4396    17.903892    23.393591    21.965537    9199.9646    2309.3732     1426.842    3198.1036    512.00094    129.75189   -310.63504   -3934.6295 
19280000    146.28861   -4464.8744   -4214.1408   -4464.8744            0    1706.3411     18.15044    23.130822    21.997165    9235.1713    1114.9313    2456.7272    1547.3647   -235.52767   -173.40772   -677.66585   -3984.3214 
19281000    148.02821   -4460.9792   -4207.2639   -4460.9792            0    2077.5652    17.904325     23.49542     21.90445    9214.5371    2424.7017    1041.4527    2766.5412    211.83964    86.574441   -60.002594   -3928.0712 
19282000       147.25   -4468.8423   -4216.4608   -4468.8423            0     1665.438    18.028954    23.341738    21.972719    9246.7161    1612.2607    1695.3611    1688.6922    414.11879   -81.823127     741.9105     -3991.87 
19283000     148.8927   -4475.2497   -4220.0527   -4475.2497            0    2334.1918    17.966817    23.337542    21.964166    9209.6043    2670.8968     2291.986    2039.6926   -831.59362   -363.10768    376.32098   -3906.5413 
19284000    137.83877    -4475.763    -4239.512    -4475.763            0    2696.6064    17.846301     23.55069    21.837419    9178.1078    3083.6879    2466.6591    2539.4723    764.99698     318.4724   -368.44951   -3878.5624 
19285000    139.32377   -4478.4021   -4239.6059   -4478.4021            0    3447.5295    18.071484     23.07403    21.934134    9146.1385     5133.504    3670.7156     1538.369     502.6848    89.755302    264.66727   -3779.7501 
19286000    141.83864   -4478.2858   -4235.1792   -4478.2858            0     1855.135    17.879391    23.450335    21.995977    9222.4228    1866.7265     1416.566    2282.1126    86.136231    202.25071   -227.32326   -3985.6643 
19287000    146.81497   -4468.8101   -4217.1743   -4468.8101            0    1881.9721    17.911979    23.339177     22.09405    9236.4366    2072.3657    937.35224    2636.1984    551.75393    32.857164    793.58509   -3963.6652 
19288000    146.44571   -4476.6459   -4225.6429   -4476.6459            0    1699.7596    18.049282    23.334709    21.911564    9228.5973    1844.0166    1979.9486    1275.3136    18.357645    372.92959     634.3546   -3996.8729 
19289000    149.52111   -4482.1938   -4225.9197   -4482.1938            0    2876.5444    17.963631    23.460303    21.719612    9153.3441    2911.5023    2273.3432    3444.7876    281.27701    46.900581   -233.31118   -3841.9237 
19290000    144.94913   -4477.8922   -4229.4544   -4477.8922            0    1918.3699    18.098346    23.156351     21.98939    9215.5695    1543.8089    3670.0861    541.21474    593.62618   -288.82382    88.156677   -3971.6261 
19291000    145.21641    -4476.852    -4227.956    -4476.852            0     1994.506    17.835667    23.482251    22.006324    9216.7241    1869.5067    1323.3523     2790.659    347.27831    111.01687    332.87638   -3959.8616 
19292000    149.67509   -4490.2549    -4233.717   -4490.2549            0    2090.8822    17.978512    23.297724    22.015251    9221.2733    2300.0632      1080.46    2892.1235    81.859562    473.37819    101.41981   -3952.5292 
19293000    142.84497   -4465.1624    -4220.331   -4465.1624            0    1977.9427    18.099848    23.300829    21.903897     9237.782    1654.3217     2179.391    2100.1154    571.73079    707.65282    3.1677367   -3953.8555 
19294000    145.66423   -4473.5295    -4223.866   -4473.5295            0    3089.4527     17.84658    23.490809    21.861773    9165.1244    2816.2643    2217.9756    4234.1182   -216.58295   -838.66096   -409.69766   -3810.9175 
19295000     136.2899   -4485.5924   -4251.9962   -4485.5924            0     1603.507    17.911328      23.2022    22.143318     9202.369    2474.2681    1788.7464    547.50661    171.15139   -366.98843    55.510987   -4036.7942 
19296000    150.79182   -4474.6669   -4216.2149   -4474.6669            0    1359.4034    17.917773    23.332871    22.198163    9280.4546    1477.9425    2500.3066     99.96093    34.253279    -155.5783    194.48868   -4032.2252 
19297000    139.41323   -4474.8545    -4235.905   -4474.8545            0    2892.7258     17.85152    23.366101    21.950514    9156.0076     3245.116    1334.5146    4098.5467    420.29015     170.7523    7.2495248   -3849.6365 
19298000    144.55989   -4470.4335   -4222.6628   -4470.4335            0    2060.7495    17.961023    23.388132    21.924364    9209.8727    1738.9361    1890.6249    2552.6876    332.22584   -273.27774   -222.79646     -3945.87 
19299000    150.10164   -4474.5236   -4217.2545   -4474.5236            0    2362.4026    18.126063      23.2834    21.905582    9244.9522    1935.8446     2863.172    2288.1912    443.22877    659.80382   -638.51214   -3898.7362 
19300000    143.06124   -4479.1502   -4233.9481   -4479.1502            0    1877.2622    17.918646    23.418051    22.035352     9246.469    1190.0112    2213.7319    2228.0436    479.56527    350.75772    455.14879   -3980.7988 
19301000     145.7945   -4462.2745   -4212.3877   -4462.2745            0    3016.6249     17.78511    23.500777    21.944106    9171.8441    4008.7419     2888.594    2152.5389   -351.87529    276.01649   -249.69998   -3808.8781 
19302000    141.90635   -4471.9593   -4228.7367   -4471.9593            0    1974.7272     18.08732     23.14488    22.065515    9237.2608    1388.2918    2051.7404    2484.1495   -380.95023    142.76323    83.238943   -3962.7094 
19303000    145.63974   -4486.1873   -4236.5658   -4486.1873            0    1911.4374      17.9728    23.515259    21.858989    9238.3748    1370.4412     2091.537     2272.334    728.51152   -68.252531   -430.73013   -3979.0336 
19304000    145.76623   -4462.9319   -4213.0936   -4462.9319            0    2586.9744    18.004478    23.317214    21.903521    9195.4102    2107.8735    2047.1855     3605.864   -39.062423   -469.56484     278.1952   -3866.1658 
19305000    140.44796   -4468.4001   -4227.6771   -4468.4001            0    1098.6921    18.072053    23.191892    22.152312    9284.5897    2002.7995    1828.3131   -535.03626   -224.24552   -580.81123   -19.285808   -4078.9074 
19306000    149.29552   -4460.6027   -4204.7152   -4460.6027            0    2029.5641    17.839797    23.442779    22.078556    9233.5706    3118.8832     2006.314    963.49498   -200.85125   -555.56289   -455.87298   -3931.4098 
19307000    141.80378   -4470.0815   -4227.0346   -4470.0815            0    2240.8666    18.015852    23.238562    22.009811    9214.6823    2282.7455    2643.3956    1796.4586   -12.784307    799.97231    28.820408    -3925.892 
19308000    141.46141   -4472.3678   -4229.9078   -4472.3678            0    1164.7049    18.064758    23.390381    21.969985    9283.2319    833.84374    604.02595    2056.2449   -1042.3873    109.61985    636.76567   -4072.2226 
19309000    144.41754   -4470.1934   -4222.6667   -4470.1934            0    2174.0248    17.930945    23.444651    21.918459    9214.1861    1154.0835    530.84654    4837.1443   -1076.7509     192.3369    70.603441   -3930.5224 
19310000    138.93491   -4484.7944   -4246.6648   -4484.7944            0     2219.238    18.058629    23.173696    21.931351    9177.9447    2228.1676    2571.5519    1857.9946    300.30898    785.65026   -910.98499   -3949.6177 
19311000    144.73055   -4476.6679   -4228.6047   -4476.6679            0    1610.5781    17.933164    23.460096    21.926683    9224.8568    1393.2526     1007.151    2431.3306    163.96342    823.42796    50.154424   -4011.9255 
19312000    147.83699   -4469.2544   -4215.8668   -4469.2544            0    1308.0179    18.131178     23.36488    21.843542    9253.6407   -569.05467    1739.6345    2753.4738    117.35882    358.93552    494.08967   -4039.3435 
19313000    149.75777   -4457.7624   -4201.0827   -4457.7624            0    2355.6186    17.942615    23.243575    22.063378    9201.5431    2249.8061    3166.0696      1650.98    808.44142    83.297274   -292.46158   -3884.9703 
19314000    140.89293   -4467.7286   -4226.2429   -4467.7286            0    2308.2259    17.862081    23.406651    21.974579    9187.3849    2603.4362    1647.3819    2673.8596    326.18184    755.34296   -185.45684    -3916.967 
19315000    143.43245   -4491.7761   -4245.9378   -4491.7761            0    1965.2618    18.084521    23.259755    21.891215    9208.3543    1992.2489     2040.635    1862.9017   -199.53992    95.862592   -502.32968   -3982.0142 
19316000    155.46648   -4479.1427   -4212.6785   -4479.1427            0    2525.8273    17.838392     23.54051     21.91038    9200.7129    2885.0742    1664.5057    3027.9019   -27.885896   -187.74838    178.37536   -3873.7555 
19317000     138.1281   -4485.5369   -4248.7901   -4485.5369            0    2148.9928    17.951627    23.287975    22.028968    9209.3651    1777.2506    2400.4723    2269.2554     365.1318    298.68645   -282.82126   -3960.1607 
19318000     146.4518    -4478.258   -4227.2446    -4478.258            0    2345.7676    18.012659    23.276439    21.957754    9206.2396    1444.4268    2918.5399    2674.3363   -611.78676   -21.931539    590.70627   -3912.2935 
19319000    144.37159   -4496.5904   -4249.1424   -4496.5904            0    1737.7744    17.917985    23.508591    21.922206    9234.2159    1846.8974    1742.7927     1623.633   -35.586085    109.93209     99.74055   -4015.1136 
19320000    150.84733   -4482.8818   -4224.3346   -4482.8818            0     2017.618    18.097312    23.137695    22.010667    9216.5283    2697.8628    2069.1852     1285.806    284.36376   -1070.0129   -108.55996   -3953.1393 
19321000    144.06378   -4474.5858   -4227.6655   -4474.5858            0    1926.3791    17.888012    23.524879    21.883875    9209.0258    1498.8509    1708.1002    2572.1863   -179.07449    -94.03544    321.93635   -3968.9447 
19322000    154.50558   -4456.8394   -4192.0221   -4456.8394            0     2353.161    17.926917    23.343252    21.931407    9177.6916    2876.0157    1635.1572    2548.3101    422.09397   -165.39468   -82.840132    -3877.058 
19323000    132.28385   -4471.0154   -4244.2854   -4471.0154            0    1378.9177    18.071987    23.192201     22.01743    9228.1469    518.18783    2487.4724    1131.0929    -648.9026   -633.53006    48.327602   -4058.7065 
19324000    146.40827   -4481.1642   -4230.2255   -4481.1642            0     1775.239    17.889701    23.421361     22.02305    9227.6832    2489.1331    1995.4753     841.1086   -297.76199    89.749597    244.66717   -3991.3204 
19325000    141.03035   -4471.5317   -4229.8105   -4471.5317            0    2425.9078    17.965492    23.430323    21.889678    9214.1815    1671.8607    1535.7173    4070.1453   -267.95698   -186.19399   -2.2019772   -3903.8185 
19326000    142.66812   -4476.3278   -4231.7995   -4476.3278            0    1419.3053    18.119155    23.306073    21.855286    9229.1885    1063.2023    908.50926    2286.2043    68.721227    181.80734    291.86001   -4040.7635 
19327000    142.68454    -4480.866   -4236.3095    -4480.866            0    2680.3286     17.84885    23.539333    21.799761    9159.1699    2842.9358    1884.4897    3313.5602    269.13449    19.279857    -474.6567    -3878.279 
19328000    153.83916   -4464.7299   -4201.0549   -4464.7299            0    2134.2761     17.96955    23.141885    22.169843    9219.3128    1914.7764    2850.5524    1637.4995    770.71449   -181.26798     66.12764   -3914.0924 
19329000    144.40697   -4479.3803   -4231.8717   -4479.3803            0    1265.5586    18.020668    23.271717     22.09509    9266.0595    1045.1081    1634.6276    1116.9402    291.67416   -298.44255    334.26094   -4060.8492 
19330000    153.63202   -4468.5215   -4205.2015   -4468.5215            0    1620.3808    17.851538    23.610479    21.881876    9222.8464    1814.2889    1745.4664    1301.3872    126.32652   -402.06693    553.54609   -3987.2509 
19331000    143.30616   -4468.4388    -4222.817   -4468.4388            0    2661.6134    18.186038    23.098028    21.841422    9174.7428    3157.7803    2377.1523    2449.9076   -279.14428   -249.63595    753.18778   -3866.6819 
19332000    139.61428   -4477.2369   -4237.9428   -4477.2369            0    2481.4423    17.763226    23.538051    21.951485     9178.173    3924.5588    1383.3368    2136.4312   -332.75091     956.5733    188.97982   -3905.7912 
19333000    139.47837     -4480.47   -4241.4089     -4480.47            0    2028.1346     18.02765    23.195796    22.045916    9218.8461    784.75813    1952.3729    3347.2728   -63.919777    148.72272    126.45244   -3968.7314 
19334000    147.57891   -4453.3819   -4200.4367   -4453.3819            0      2576.62    17.922363    23.280964    22.020861    9188.2015    3799.5975    2094.8199    1835.4426   -413.66348   -340.30076   -180.47289   -3855.1684 
19335000    145.85484   -4475.7575   -4225.7673   -4475.7575            0    2640.4551    17.754844    23.459953    21.974634    9153.0458    3603.3252    2386.8779    1931.1621   -537.15851    185.62726    680.02086   -3873.2989 
19336000    147.83818   -4479.5668   -4226.1772   -4479.5668            0    2618.1244    18.000315    23.251394    21.930582    9178.6595    2172.1508    2913.6708    2768.5516   -262.55684    -115.2072   -198.83685   -3875.7115 
19337000    140.98943   -4475.4275   -4233.7765   -4475.4275            0    2071.5066    18.031524    23.376774    21.762302     9173.221    466.29871      1903.28    3844.9412    1035.2784    5.7102438     190.0728   -3956.6461 
19338000    146.86191   -4459.9961   -4208.2798   -4459.9961            0    2140.8133    17.954641    23.440469     21.86851    9203.6948    2230.2231    2770.2236    1421.9932   -504.74529   -20.914758   -286.00316    -3920.926 
19339000    133.33585   -4473.2921    -4244.759   -4473.2921            0     1905.543    18.035088    23.266247    21.983504     9224.472    1593.9412    2055.9357     2066.752   -130.66674   -329.83885    474.64376   -3988.4073 
19340000    156.13844   -4491.5512   -4223.9353   -4491.5512            0    2103.6683     17.82838    23.470226    21.984144      9198.96     2568.816     832.0945    2910.0943   -1395.8138   -189.80911    672.26606   -3941.7126 
19341000    135.58346   -4475.8088   -4243.4234   -4475.8088            0    2604.2161    17.952483    23.323842    21.991465    9208.2854    2799.9374    1947.2586    3065.4525    -525.6244   -372.02791    284.86785   -3893.6944 
19342000    145.98365    -4468.344    -4218.133    -4468.344            0    2358.3764    17.926913     23.38202    22.013218     9227.224    4004.3769    1666.3556    1404.3967   -521.66644   -266.66911   -191.53887   -3900.7673 
19343000    140.31442   -4482.3102   -4241.8161   -4482.3102            0    2097.0352     17.94574    23.433411    21.872125    9197.8824    2017.9289    2722.4518     1550.725   -234.32851   -699.56922     1131.678   -3960.5163 
19344000    143.32695   -4476.9785   -4231.3211   -4476.9785            0    1936.5125    18.173462    23.166824    21.901743    9221.1018     1468.502    1653.0458    2687.9898    254.30861   -448.80042    114.25128   -3970.8982 
19345000    138.76178   -4474.9324   -4237.0995   -4474.9324            0    2643.8479     17.82877    23.595422    21.816588    9177.7442    1796.9374     2833.302    3301.3043    133.24334    -180.7551   -94.087949   -3883.2257 
19346000    148.13512    -4470.769   -4216.8704    -4470.769            0     2938.674    18.025303    23.227646     21.86221    9153.3874    1989.7246    4080.7353     2745.562     175.1625   -225.13538   -292.21681   -3824.5787 
19347000     147.5808   -4480.6975    -4227.749   -4480.6975            0    1057.1523    17.946344    23.386951    22.089478    9271.1805    1739.0281    1017.2873    415.14143   -500.11982   -271.32278   -126.46496   -4084.8108 
19348000    147.01771    -4497.504   -4245.5206    -4497.504            0    709.02844    17.831543    23.347992    22.283918    9277.4797     1477.946  -0.50404531    649.64341   -708.91933    341.58448   -383.63013   -4149.5873 
19349000    150.45984   -4480.1275   -4222.2445   -4480.1275            0    1605.5558    17.973553    23.307438    22.008561    9219.7704    2378.8835    1552.5027    885.28132   -167.39913     -537.598    108.34179     -4006.36 
19350000    147.49975   -4492.1415    -4239.332   -4492.1415            0    1963.4599    17.915733     23.48233    21.904656    9215.3577    1609.5421    962.41165     3318.426   -101.35132   -157.32215   -17.145032   -3975.4498 
19351000    139.68976    -4484.354   -4244.9305    -4484.354            0    2689.4767     18.05138    23.235024     21.89688    9184.0821    2595.8123    3126.6594    2345.9583     101.8417   -299.93901     74.95352   -3884.7009 
19352000    153.31141   -4478.9711   -4216.2006   -4478.9711            0    1308.3218    17.946727    23.450055    21.866217    9202.4354    1806.2036    1737.9945    380.76742    192.26108    547.85516   -112.35439   -4040.6132 
19353000    142.78438   -4466.1859   -4221.4583   -4466.1859            0    1114.3713    17.944457    23.543426    21.883289      9245.12    723.99041    1266.7772    1352.3463    304.36263   -233.51673    369.43943    -4071.207 
19354000    145.30242   -4473.1453   -4224.1019   -4473.1453            0    1382.1323    18.089878    23.166651    22.066822    9247.8055    1111.2071    3061.4853   -26.295339   -255.02751   -230.15031    57.752175    -4037.694 
19355000    146.75535   -4467.1363   -4215.6026   -4467.1363            0    2768.7957    17.871928    23.332136    21.942994    9150.0147    2293.3593    3069.8265    2943.2012    78.230943    356.61597   -470.98898   -3846.1246 
19356000    137.55691   -4478.4167   -4242.6489   -4478.4167            0    2575.4696    17.868116     23.25349    22.073405    9171.4126    2443.3637    2733.8445    2549.2006   -184.66515   -187.60155   -442.94227   -3898.1653 
19357000    142.56233   -4481.1475   -4236.8005   -4481.1475            0    899.92871     17.90507    23.381085    22.084305    9245.3725    1664.9606    622.60077    412.22482   -145.93321     389.0468    105.54295   -4115.4593 
19358000    147.38508   -4476.9971   -4224.3841   -4476.9971            0    2337.6538     18.02209    23.315376    21.823213    9169.9353    2155.3127    1850.9696    3006.6792    82.479766   -281.97792    243.78593   -3911.7601 
19359000    146.48724   -4484.8921   -4233.8179   -4484.8921            0    1995.0946    17.919412    23.418441    21.971434     9220.196    2056.0292    1800.8875    2128.3672    696.70179   -568.04385    535.56935   -3965.5433 
19360000    141.21569   -4470.6931   -4228.6542   -4470.6931            0    2218.9046    17.748595    23.391565    22.124721    9185.4632    884.98015    2645.3566     3126.377   -572.60575    -136.1193    767.54312   -3931.4085 
19361000    150.34236   -4476.2532   -4218.5715   -4476.2532            0    3057.3443     18.00678    23.197574    21.868883    9134.9301    2570.2528    3850.0913    2751.6886    1037.9309   -12.251581    136.84342   -3811.2611 
19362000    141.15959   -4469.2897    -4227.347   -4469.2897            0    1794.5194    18.018382    23.312332    21.946408    9218.5992    1496.6452    1005.0725    2881.8405   -281.79044     -922.248    220.17163    -3986.085 
19363000    143.82311   -4477.0032   -4230.4953   -4477.0032            0    1189.7696    17.825664    23.339232    22.215036    9242.2835    1907.6248    1342.7509     318.9331   -151.31612   -598.97061    257.43944   -4070.1272 
19364000     152.0128   -4464.1977    -4203.653   -4464.1977            0    1581.7087    18.015205    23.373938    21.970427    9251.4456    255.94826    1623.4121    2865.7656   -231.36332    48.756304   -108.55625   -3990.2444 
19365000    156.17062   -4479.9951    -4212.324   -4479.9951            0    2313.5734    18.019933    23.381949    21.818225     9192.916    3559.0135    2191.3208     1190.386    506.01625    182.77474    249.35924   -3902.1449 
19366000    141.95518   -4478.9568   -4235.6505   -4478.9568            0    2119.3037    17.899556    23.500369    21.919331    9220.2829     1555.976    1092.6466    3709.2885    562.90462   -49.236384    142.98542   -3950.6711 
19367000    136.94402   -4484.7876   -4250.0703   -4484.7876            0    968.71234    18.184819    23.142783    21.991169     9254.925    723.39657     986.3811    1196.3593   -582.91008   -165.07051    518.62255   -4119.3197 
19368000     141.3339    -4480.182   -4237.9405    -4480.182            0     2601.454     17.84444    23.490175    21.868311    9166.5188    2577.7691    1765.8282    3460.7649    234.44438    77.266628     296.7907    -3890.167 
19369000    146.82297    -4473.025   -4221.3755    -4473.025            0    1425.1025    18.047339    23.358613     21.95795    9256.6109     795.0709    2002.5917     1477.645     315.5145   -274.30048   -357.80099   -4028.9892 
19370000     143.8751   -4482.0053   -4235.4083   -4482.0053            0     2421.726    17.922023    23.321279    22.006205    9197.8127    2176.1252     4229.399    859.65396    66.943151    252.26894   -17.200349   -3910.5564 
19371000    141.95993   -4477.3696   -4234.0551   -4477.3696            0    1807.5399    17.888795    23.443482    22.005824    9228.7065    1414.5797    397.22748    3610.8124   -29.924335    485.21634    833.38495   -3990.7761 
19372000    148.71634   -4465.9748   -4211.0801   -4465.9748            0    1829.3436      18.1301    23.191747    21.905844    9210.7219    918.48398    2482.6474    2086.8993    543.32285    332.66986    397.98493   -3965.3463 
19373000    138.09627   -4483.5914   -4246.8992   -4483.5914            0    1935.7333    17.948174     23.35579    21.990872    9218.4366    1244.6476    2639.4786    1923.0737    959.90091     237.6095    63.557537   -3986.6564 
19374000    145.11589   -4461.6337     -4212.91   -4461.6337            0    3101.3662    17.923329    23.116601    22.157353    9180.3774    3765.1831    3198.2554    2340.6601   -251.36311   -292.38428   -2.3704354   -3797.6793 
19375000    143.53327   -4449.9077   -4203.8966   -4449.9077            0    1019.4998     18.08879    23.343304    21.959446    9272.4227     90.63887    980.90586    1986.9548   -296.04554   -420.34531    133.71748   -4066.0309 
19376000    140.99374   -4468.0843   -4226.4258   -4468.0843            0    1730.7366    17.855303    23.646554    21.848334    9224.7246    2026.9985      1578.52    1586.6915   -243.39545     592.8531    18.737856   -3993.5844 
19377000    151.11049   -4482.4782     -4223.48   -4482.4782            0    1270.0237    18.039799    23.302985    21.964985     9233.666    636.97553    1913.6475     1259.448   -82.301131   -196.73971   -244.90083   -4052.4541 
19378000    144.30007   -4472.9618   -4225.6364   -4472.9618            0    1238.8659    18.010381    23.365789    21.980783    9250.1018    724.69761    980.87635    2011.0239   -420.83317    120.02273    14.022404   -4058.5094 
19379000    153.88393   -4476.3351   -4212.5833   -4476.3351            0    1872.7792    17.988711    23.403743    21.927901    9231.7156    1618.5764    1556.8854    2442.8759   -77.301001    110.63791   -127.19601   -3960.4415 
19380000    137.84423   -4473.0098   -4236.7495   -4473.0098            0    2831.5203    18.054312    23.295797    21.815447    9175.3496    2741.8524    2779.4984    2973.2102    340.44791    34.130084    335.10611   -3857.8551 
19381000    140.85734   -4489.8884   -4248.4637   -4489.8884            0    1198.2733    18.016927    23.373451    21.915608    9229.0517    1415.3266    1738.3073    441.18599   -127.91726    419.76064   -357.18405   -4087.1806 
19382000    149.42947   -4468.6413   -4212.5243   -4468.6413            0    1627.6052    18.045824    23.368878    21.841153    9210.6473     1163.152    564.46689    3155.1966     146.9279    66.751667   -39.958735   -3993.8916 
19383000    141.65438   -4476.1518    -4233.361   -4476.1518            0    2138.1207    17.823782    23.397099     21.98136    9166.7723    2778.9598    1512.5155    2122.8868    54.510485   -35.788603   -382.24811     -3947.52 
19384000    135.67988    -4474.712   -4242.1614    -4474.712            0    2852.9434    18.012437    23.090164    22.029916     9162.465    2159.7307    2218.2426    4180.8569   -969.28201     111.2506    303.59987   -3860.9364 
19385000    143.19795   -4490.3927   -4244.9563   -4490.3927            0    2388.8096     17.78035    23.491119    21.923592    9157.0532    2930.0237    2203.6134    2032.7919    515.74577    393.35295    386.85028   -3925.9398 
19386000    141.59876   -4473.8751   -4231.1797   -4473.8751            0    1426.9461    18.029188    23.401863    21.887377    9234.6474    1319.7917    1410.6024    1550.4442   -791.28804    106.37345    -472.4788   -4039.0016 
19387000    146.13625   -4488.4557   -4237.9832   -4488.4557            0    2420.4663    18.047549    23.299622    21.853096    9189.2506    2268.5623    2646.9377     2345.899   -75.190527   -453.52795    391.14063   -3913.6025 
19388000    137.78901   -4463.2567   -4227.0911   -4463.2567            0    1864.6361    17.809072    23.473636    22.067002    9224.9704    2149.4212    1267.7227    2176.7645   -1171.3395   -459.59843   -200.77525   -3976.2291 
19389000    134.25125   -4484.7007   -4254.5987   -4484.7007            0    1723.8506    17.996364    23.213403    22.072617    9220.9874    1567.5997    932.34304     2671.609    656.72379    587.20309    621.66304   -4022.7776 
19390000    145.09153   -4475.4389    -4226.757   -4475.4389            0    1330.1433    18.020532    23.386453    21.920024    9237.8943    1169.6656    1158.4426    1662.3216     564.1389   -295.86159     657.1709   -4047.5531 
19391000     141.7604   -4486.5017   -4243.5293   -4486.5017            0    2645.7314    18.017426    23.432774    21.765656    9189.4225    3000.1696    1567.4128    3369.6119    609.66468   -50.426025    -90.89442   -3888.9528 
19392000    146.23059   -4486.0044   -4235.3702   -4486.0044            0    1833.0555    18.133404    23.210282    21.920976    9226.1315    789.16626    2098.1571    2611.8432    336.13748   -239.97425    20.471625   -3988.7259 
19393000     133.0572   -4466.3877   -4238.3322   -4466.3877            0     2929.745    17.858632    23.347321    22.039229    9189.2835    2828.9106    3312.7318    2647.5926    524.83055   -353.81631    439.65274   -3845.6987 
19394000    137.33104   -4466.4811   -4231.1004   -4466.4811            0    1894.4949    17.946917    23.375794    21.992099    9226.2005    2657.4301    1990.8611    1035.1934    112.23109    417.09887     159.1111   -3976.1873 
19395000    148.86396   -4470.3494   -4215.2017   -4470.3494            0    1360.6931    18.064998    23.374303    21.886607    9241.7671    978.07409    1504.9911     1599.014    683.07511   -4.8614537    123.13495   -4031.8052 
19396000    145.16436   -4486.2999   -4237.4932   -4486.2999            0    2124.7215    17.906744    23.574056    21.817931     9210.103     2713.542    1221.6133    2439.0091    132.22332    235.73386    401.55374   -3952.1008 
19397000    141.12503   -4489.7686   -4247.8852   -4489.7686            0     1095.315    18.184358    23.213774    21.927735    9256.3015    727.30715    1530.3858     1028.252   -181.47173    377.56325   -21.262479   -4100.0246 
19398000    141.84576   -4490.0832   -4246.9645   -4490.0832            0    1904.7258    17.835404    23.484382    21.962833    9199.2083    2428.7945    200.28038    3085.1024   -731.16703    150.51056    299.29933   -3991.4245 
19399000    150.32106   -4464.1186   -4206.4734   -4464.1186            0    1803.1082    17.999279    23.400583    21.903514    9225.6207    1480.5759    1936.9782    1991.7703    239.03007     610.6709    130.12056   -3963.8721 
19400000    143.11374   -4481.8001    -4236.508   -4481.8001            0    1194.3536    18.020423    23.239032    22.042848    9231.0419    1987.5286     1681.227   -85.694628     240.3129     7.171345    343.19417   -4075.7178 
19401000     148.6019   -4472.4522   -4217.7536   -4472.4522            0     1956.711    17.818098    23.590921    21.926756    9216.8099    1099.4804    1399.1812    3371.4715   -14.931383    323.92413   -107.59521    -3954.737 
19402000    140.09678   -4484.2596   -4244.1385   -4484.2596            0    2093.9674    18.120243    23.156764    21.947401    9209.2652    1490.0613    4199.8302     592.0107    49.657769    163.67142   -178.31901   -3962.9026 
19403000    144.31338   -4471.1906   -4223.8424   -4471.1906            0    2120.1894    17.962065    23.320613    21.956766    9197.3901    976.67161    2373.0917    3010.8049   -755.42238   -114.88966     202.1614   -3939.4519 
19404000     135.2065   -4474.0905   -4242.3512   -4474.0905            0    1925.9939    17.839953    23.517388    22.008683    9233.7233    883.10962    2584.2594    2310.6125    126.29996   -430.94437    261.93218   -3982.9884 
19405000    139.36447   -4473.1599    -4234.294   -4473.1599            0    1993.0255    18.061546    23.143148    22.076004    9227.7924    1782.3739    2220.5133    1976.1894    125.05843     52.23055    498.12778   -3966.0768 
19406000    138.85697   -4492.9813   -4254.9852   -4492.9813            0    2379.5064    17.761095    23.498159    21.991344    9178.1539    3627.1707    1478.8964    2032.4521    329.81822    276.78549    618.30029   -3936.4789 
19407000    144.44956   -4485.5175   -4237.9359   -4485.5175            0    2105.7468    17.984704    23.399305    21.909939    9220.3503    1857.5748    1890.5358    2569.1299   -121.23175    404.87799    312.95657   -3954.7775 
19408000    144.02047    -4484.172   -4237.3258    -4484.172            0    2365.8479    18.084922    23.202916     21.97747    9222.2503    1110.2253    3358.8959    2628.4226   -591.10469   -1059.1333   -628.69134   -3919.1262 
19409000    137.63639   -4464.8745   -4228.9704   -4464.8745            0    2854.7534    17.731205    23.466813    22.118602    9203.4368    4116.7388    1858.4037    2589.1177    747.74422   -385.59439   -69.577418   -3845.7977 
19410000    147.75783   -4464.1074   -4210.8555   -4464.1074            0    2155.3917    17.987177    23.180528    22.120651    9223.2554    956.18806    3138.6292    2371.3579    527.12607   -165.83697   -75.393554   -3920.9301 
19411000    141.22559   -4491.5031   -4249.4473   -4491.5031            0    1205.8205    18.007653    23.516088    21.857049    9255.7949    662.54368     1119.303    1835.6147    424.59772    480.73679    555.40264   -4086.6781 
19412000    142.74537   -4480.4014   -4235.7407   -4480.4014            0    2836.5459     17.98861    23.331045    21.874469    9180.5628    2697.4463    2870.0258    2942.1657     254.0114    166.49632    -2.548274   -3855.9581 
19413000    142.29929   -4471.1467   -4227.2506   -4471.1467            0    1145.7719    18.093951    23.439807    21.832699    9259.6566    1951.4661    557.65147    928.19828   -340.97515   -473.23928    -768.5531   -4072.5226 
19414000    146.48365   -4484.5476   -4233.4796   -4484.5476            0    2841.2449    17.930469    23.464593    21.811797    9176.9025    3702.4256    1924.8603    2896.4487    179.69297    499.29795    416.30606   -3853.2196 
19415000    148.04539   -4484.8561   -4231.1113   -4484.8561            0    1309.1174    18.038499    23.276567    22.067974    9265.7762    725.11708      2018.82     1183.415     479.0583    245.41513   -5.3424417   -4054.2079 
19416000    146.40995   -4472.7998   -4221.8582   -4472.7998            0    1676.6757     17.91291    23.323504    22.034376    9205.7826    1217.5796    2187.8435    1624.6039    706.44973    260.29198     -2.37711   -3996.7529 
19417000    141.44074   -4484.2419   -4241.8173   -4484.2419            0    3158.0964    17.834482    23.389668    22.032148    9190.5479    3291.2468    3660.3072    2522.7351   -152.61999   -171.34833    70.590509   -3818.5227 
19418000    149.46064   -4463.7576   -4207.5872   -4463.7576            0    1269.4434    18.089791    23.306451     21.98431    9268.7792    1894.7284    1764.9413    148.66042   -1014.8572    197.54198   -568.77192   -4035.9893 
19419000    150.18032   -4468.0821   -4210.6781   -4468.0821            0    2667.0413    17.888012    23.494753    21.872928    9192.6321    3236.2886    1185.8824    3578.9529     78.32522   -216.93125   -75.345675    -3853.121 
19420000     144.7329   -4475.7899   -4227.7227   -4475.7899            0    2079.0171    17.902256    23.359232     22.03272     9213.708    1742.6045    2496.8598    1997.5872     929.7814    250.08924   -281.33386     -3948.36 
19421000    149.87627   -4484.8335   -4227.9507   -4484.8335            0    2515.2064    17.930141    23.222406    22.035824    9175.2988    2470.4275    2526.7453    2548.4464    97.360976    66.202228   -104.43275   -3891.3851 
19422000    142.25054   -4476.3971   -4232.5846   -4476.3971            0     1512.665    17.951313    23.402531    22.003316    9243.7288    2583.6097    1397.7055     556.6798   -359.31649    112.22461    436.47089   -4028.6617 
19423000    140.04871   -4477.3559   -4237.3172   -4477.3559            0    1326.4654    18.180397    23.202727     21.95223    9260.2147     1216.299    599.17585    2163.9212    69.290384   -111.40897    -1010.917   -4058.1771 
19424000    141.53251   -4483.3592   -4240.7773   -4483.3592            0    1225.5299    17.948644    23.484557     21.92658    9242.4034    1426.8652    1425.9034    823.82105    -1063.258   -611.68107    264.91497   -4075.5869 
19425000    148.33387   -4476.7845   -4222.5454   -4476.7845            0    1925.7693    18.055147    23.409234    21.810839     9218.507    909.31311    2476.8209    2391.1739   -554.13971   -152.62206   -257.38599   -3963.6402 
19426000    140.62304   -4476.7254   -4235.7023   -4476.7254            0    3013.3058    18.016058    23.291054    21.831006    9160.5732    4393.3337    1993.5174    2653.0662   -168.45191   -313.06076    412.95585    -3833.132 
19427000     149.9571   -4467.4665   -4210.4452   -4467.4665            0    1489.1051    17.845108    23.577472    21.928918    9226.4285    1650.7944    1065.3312    1751.1896   -396.74739   -158.41985    464.37926   -4010.0742 
19428000    153.95997   -4483.1474   -4219.2653   -4483.1474            0    2959.2208    17.960532    23.243084    21.969129    9171.1915    3077.9432    2703.0048    3096.7143    -605.2569    646.68914    397.07521   -3823.4623 
19429000    145.10597   -4480.1895   -4231.4829   -4480.1895            0    1451.4836     17.97366    23.359329    21.980692    9228.6517    1400.8376    2169.2176    784.39545   -392.80353   -110.76497    45.175428   -4036.1271 
19430000    145.95611   -4480.6487   -4230.4849   -4480.6487            0    2241.0947    17.905817    23.440074    21.896439    9190.2349    1899.8279    1424.2825    3399.1735    88.021506    303.82986   -47.282666   -3930.1107 
19431000    146.38161   -4473.7547   -4222.8616   -4473.7547            0    2363.3826    18.088914    23.084837    21.972145    9175.1203    2196.4809    3884.1703    1009.4966   -505.73025   -632.87436   -26.936691    -3906.618 
19432000    150.65237   -4468.0014   -4209.7884   -4468.0014            0    1567.1082    17.895718    23.547392     21.90941    9232.5704    1655.2975    946.61495    2099.4123    484.17501    451.13229   -21.345004   -3998.7811 
19433000    139.27952   -4478.3914   -4239.6711   -4478.3914            0    2385.2001    18.128431    23.156534    21.870305    9180.9712    2046.5439    3765.4435    1343.6129     533.7579    267.12569    256.71679   -3920.3046 
19434000    147.16217   -4493.4916   -4241.2607   -4493.4916            0    1014.8536    18.105881     23.36903    21.864325    9251.1649    531.32273    1883.8421    629.39591    -211.4594    350.21575    233.08143   -4104.3379 
19435000    154.55278   -4478.6401   -4213.7419   -4478.6401            0    2450.5422    17.952508    23.477946    21.792435    9185.2506    1462.3861    2950.1624    2939.0782   -636.05883    603.18904   -145.63407   -3885.4735 
19436000    152.41864   -4477.6703     -4216.43   -4477.6703            0    2144.5821    17.948606    23.291814    21.999545    9197.0328    2536.1241    1964.1152     1933.507    327.52254    293.09139    192.47278   -3928.7787 
19437000    143.80968   -4481.5197   -4235.0349   -4481.5197            0    1916.9086    17.906887    23.473075    21.949909    9226.1986    2600.5633    1016.4329    2133.7297    562.15351   -160.41786   -176.97578   -3977.1059 
19438000     153.0428   -4468.5613   -4206.2512   -4468.5613            0    2400.2442      17.9877    23.247996    22.027055    9211.2294    1593.2541     2497.698    3109.7806   -151.82676   -19.601097    101.89233   -3883.8112 
19439000    137.20327   -4479.3752   -4244.2135   -4479.3752            0     1367.143     18.03479    23.207377     22.05445    9230.6733    2835.5548    1163.6465    102.22774    556.88509   -238.76129    684.23594   -4060.1688 
19440000    148.11905   -4457.7322   -4203.8613   -4457.7322            0    2278.7834    17.881688    23.463484    21.948396    9208.8166    3097.4906    1341.6704    2397.1891    176.39064    22.703865    952.91012    -3897.818 
19441000    140.71972   -4462.9546   -4221.7658   -4462.9546            0    2816.0535    18.066646    23.155855    21.927129    9173.1842    2451.1622    3766.9769    2230.0214    578.68161    475.88752    263.11349     -3845.03 
19442000    142.66215   -4467.1145   -4222.5965   -4467.1145            0    2410.2588    17.913883    23.443346     21.91977    9205.4561    2185.3167    2133.6575    2911.8023    634.82285    625.84442     256.3613   -3899.0141 
19443000     149.2325   -4479.4253   -4223.6459   -4479.4253            0    3094.6708    17.968058    23.314512    21.915954    9180.9549    3296.4226    2916.2836    3071.3062   -672.90392   -17.555584   -248.12623   -3809.2855 
19444000    150.60205   -4471.6487   -4213.5219   -4471.6487            0    847.07381     18.12094    23.364892     21.95358    9295.0095     467.9454    605.51933    1467.7567   -138.83778    25.638379    644.49873   -4098.6941 
19445000    147.14718   -4486.1836   -4233.9784   -4486.1836            0    1180.4643    17.840894    23.570803    22.037633    9267.3578    1861.3752    971.19951     708.8181    392.93409   -343.70174   -151.14567   -4074.4328 
19446000     147.6191   -4483.5214   -4230.5073   -4483.5214            0    2734.9574    17.997206    23.261126    21.984051    9203.2992    2003.2858    2552.8312    3648.7553   -140.43137    425.01785    720.45957   -3863.4194 
19447000    145.98443   -4476.0287   -4225.8164   -4476.0287            0    1826.0323    17.870489     23.41558    22.071495    9235.7702    1700.7518    1483.9511    2293.3941    1024.2936    207.74553    54.141151   -3979.8603 
19448000    146.36707   -4471.5017   -4220.6335   -4471.5017            0    3579.7886    17.989419    23.223261    21.902747    9150.3762    3505.2098    4164.8639    3069.2921    21.781729   -492.20365    321.83047   -3742.9148 
19449000    149.04413   -4468.7116   -4213.2551   -4468.7116            0     2096.673    18.050191    23.521816    21.717114    9220.5061    2141.1279    1979.5682    2169.3229   -65.518535   -390.65397   -182.24957    -3931.312 
19450000    143.85882   -4479.1158   -4232.5467   -4479.1158            0    2209.5469    17.937158    23.403576    21.941996    9211.1103    1792.8928     1407.499    3428.2489    122.67553   -366.94742   -110.19937   -3935.7281 
19451000    145.00958   -4472.6762   -4224.1348   -4472.6762            0    640.51999     18.07893     23.10161    22.213794    9277.6443    476.62611    1001.6344    443.29949     132.3934   -340.23364   -296.34739   -4137.4693 
19452000     144.0941   -4471.3234    -4224.351   -4471.3234            0    2017.6334    17.864877     23.48198    21.996213    9227.4702    2627.6001    1349.9949    2075.3053    466.62701   -439.88739   -119.30091   -3952.8317 
19453000    141.28258    -4481.549   -4239.3955    -4481.549            0    753.07875    18.081074    23.273355    22.029657    9270.2396    602.11984    422.59039     1234.526    -276.6753    268.35176   -66.040509   -4137.5816 
19454000    137.33848    -4475.991   -4240.5976    -4475.991            0    2089.5472    17.987758    23.308516    21.987077    9218.4767    1809.1155    1349.5082     3110.018   -135.33761   -256.05962   -683.71932   -3959.6746 
19455000    140.02133   -4482.3524   -4242.3607   -4482.3524            0    2126.4746    17.892108    23.438958    21.922362    9193.6328     3684.798     791.0226    1903.6031    422.01564   -251.45947   -606.25141   -3957.2436 
19456000    143.37206   -4485.7837   -4240.0489   -4485.7837            0    2005.1225    18.124335    23.191429    21.868325    9191.8962    1515.6912    2064.4781    2435.1982    711.01339    150.16465   -481.43703   -3971.2535 
19457000    146.04655   -4483.6491   -4233.3303   -4483.6491            0    2441.0643    17.834014    23.453656    21.956153    9183.6623    2852.8207    1535.1703    2935.2021   -64.354757    268.39002    778.74886   -3906.3881 
19458000    148.96474    -4473.965   -4218.6445    -4473.965            0    1281.5282    17.912513    23.445612    22.015993    9246.0529    1551.6843    885.20641    1407.6938     225.8189   -44.232592    31.706027   -4045.8379 
19459000    142.16445   -4473.7701   -4230.1051   -4473.7701            0    1275.8764    18.142144    23.256714    21.911886    9245.2088    2192.3446   -341.08345    1976.3679    587.04775    40.523428    125.24296   -4058.0763 
19460000    154.08689   -4475.4334   -4211.3338   -4475.4334            0    2746.7084    17.900653    23.548625    21.779656    9180.9041    1987.6237    3781.4462    2471.0553    125.06435   -788.54668    397.78929   -3843.5658 
19461000    142.19927   -4476.8185   -4233.0938   -4476.8185            0    1380.4568    17.957924    23.269659     22.10502      9237.13     2202.312    1270.3504    668.70804    390.43984    210.95366    -259.0838   -4047.1268 
19462000    145.82526   -4477.1443   -4227.2047   -4477.1443            0    1944.3749    17.991728    23.230579    22.100223    9236.9706    2397.1274    1938.0585    1497.9388    244.40679   -851.61408    -148.4254   -3965.2746 
19463000    144.23259   -4466.6695   -4219.4597   -4466.6695            0    2546.4872     17.80824    23.425266    22.052929    9199.6604    2348.5786    2432.0139     2858.869    140.80842   -83.841478   -77.086143   -3877.8036 
19464000    143.76655   -4479.7318   -4233.3209   -4479.7318            0    1403.0082    17.961632     23.27358    22.069156    9225.6019    1812.1563    1124.8404     1272.028   -370.30692   -392.80105    424.96244   -4044.5518 
19465000    138.59697    -4496.535   -4258.9846    -4496.535            0    1334.4319    17.927796    23.197051    22.206688    9235.1399     2162.113    1282.5604    558.62227    197.71917   -47.701357    342.83253   -4079.2565 
19466000    142.08065   -4479.4773   -4235.9559   -4479.4773            0    1887.7985    17.998304      23.4606    21.859383     9230.147    1675.5279    2126.7784    1861.0891    -656.3664   -424.96587   -419.09832   -3981.8352 
19467000      139.513   -4482.0055    -4242.885   -4482.0055            0    1770.1698    18.005129    23.720472    21.610574    9229.6635    987.40653    16.552982    4306.5499   -581.25633    58.888019   -277.38023    -4004.611 
19468000    148.44796   -4479.5367    -4225.102   -4479.5367            0    3489.0415    17.971803    23.341315    21.865158     9172.117    2810.0903    2774.3704    4882.6636   -1141.3512    325.94066   -34.698408   -3758.3872 
19469000     142.4458   -4465.0584   -4220.9112   -4465.0584            0    1923.5764    18.009708    23.303359    22.021859    9242.2815    2431.9939    1529.6241    1809.1113    590.13905    112.13155   -320.85588   -3961.6339 
19470000    138.58586   -4480.5923   -4243.0609   -4480.5923            0    1227.3853    17.824118    23.596544    22.045715     9272.154    2215.5498    559.52547    907.08074    624.29571   -19.708767    465.66725   -4077.0879 
19471000    151.32349   -4489.7082   -4230.3449   -4489.7082            0    1857.4935     18.02869    23.224213    22.057724    9235.6162    2784.5297    2128.2747    659.67607    798.59048   -594.78074   -182.26502   -3980.1554 
19472000    145.87215   -4488.4934   -4238.4735   -4488.4934            0    2348.9198    17.939093    23.369996    21.935832    9196.3022    1669.3835    2479.3002    2898.0756   -628.82001   -7.6716295   -216.23522   -3923.4396 
19473000     142.2461   -4482.2732   -4238.4682   -4482.2732            0    1947.6733    17.926996    23.515779    21.915344     9238.792    2191.9497    1257.5184     2393.552   -191.80817   -137.60209   -368.14283    -3976.042 
19474000    138.33092   -4469.0419   -4231.9474   -4469.0419            0    1931.1947    18.156735    23.165803    21.933467    9225.5528    463.12624    2484.5241    2845.9337    18.895667    361.99237    214.27144   -3972.1144 
19475000    144.00657   -4485.3749   -4238.5525   -4485.3749            0    997.00675    17.950987    23.512379    21.968751    9272.3596    423.07481     200.0767    2367.8687    150.96471   -580.39206    332.72328   -4103.7294 
19476000    142.30116   -4472.7127   -4228.8134   -4472.7127            0    1979.6463    18.081372    23.116511    22.075728    9227.1735    1859.2384    2395.5344    1684.1662    -86.96689    15.155544   0.64207307   -3962.4147 
19477000     156.0976   -4463.3307   -4195.7848   -4463.3307            0    1460.5622     17.95775    23.326412    22.083123    9250.3968    2002.0489     1326.038    1053.5997    16.179831    -229.9566    40.429983   -3998.7439 
19478000    147.23758    -4469.707   -4217.3468    -4469.707            0    1796.2903    17.877025    23.380993    22.070339    9225.0177    1865.4158     2454.033    1069.4222   -330.30269   -70.412219   -184.07816   -3975.6786 
19479000    145.62878   -4464.8574   -4215.2546   -4464.8574            0    2686.0101    17.865735    23.121018    22.188213    9165.3736    2568.1891    3020.5982     2469.243   -808.09789   -791.94226   -401.09576   -3856.2222 
19480000    147.61392   -4458.5933    -4205.588   -4458.5933            0    2907.0464    17.843463     23.43021     21.94763    9175.7791    4137.0109     2272.506    2311.6222   -106.91757   -154.64181   -825.70642   -3816.5691 
19481000     139.9558   -4457.4143   -4217.5348   -4457.4143            0    1831.3921     18.17155    23.394445    21.692853    9221.9208    1200.2781    1584.1125    2709.7856    28.976516   -34.609522    152.96409   -3971.2268 
19482000    147.23725   -4478.2326    -4225.873   -4478.2326            0    1841.8934    17.949675     23.40002    21.944613    9217.2366    1436.3793    828.19134    3261.1094   -39.183112    402.38401    94.258363   -3978.2784 
19483000    142.55712   -4483.2777   -4238.9397   -4483.2777            0     1471.046     18.04222    23.136697    22.101824     9226.127     1650.716    1444.8008    1317.6211   -397.60775   -597.47815   -102.25882   -4041.0052 
19484000    147.42421   -4466.5857   -4213.9056   -4466.5857            0    2412.7213    17.982544     23.41516    21.834803    9193.8524    2387.2417    1371.4578    3479.4644   -476.81558    3.9959171   -405.44281   -3890.4009 
19485000      138.769   -4476.4995   -4238.6542   -4476.4995            0    1606.0679    17.940382    23.558012    21.802907    9214.7745    2056.3865    1518.9783    1242.8388   -1034.4473   -98.610042    589.22227   -4022.8179 
19486000    145.61856   -4481.9461   -4232.3609   -4481.9461            0     2503.503    18.035399    23.195003    21.982957    9196.1552    2123.4229    2549.2377    2837.8484    -181.5609    115.09416   -685.52919   -3896.5998 
19487000    140.25185   -4471.1277   -4230.7408   -4471.1277            0    2691.9342    17.909066    23.435005    21.931318    9204.5535    4079.4668    2698.8376    1297.4984   -593.82132    56.237589    24.795698   -3869.3783 
19488000    148.82129   -4474.2394   -4219.1648   -4474.2394            0     1760.168    17.977809    23.589056    21.746166    9222.1041    1901.2757     1570.265    1808.9633    179.60883   -124.72228   -495.57743   -3982.4311 
19489000    145.74875   -4475.0654    -4225.257   -4475.0654            0    1140.0327    18.054829     23.23192    21.996899     9226.563    875.26213    1098.5132    1446.3227   -11.106165   -48.814881    732.98566   -4071.8543 
19490000    143.05127   -4468.9505   -4223.7655   -4468.9505            0    2933.1073    17.697107    23.469289    22.039085    9153.6807    3576.0785    1973.8765    3249.3668    50.850279   -104.45688   -193.88564   -3832.2044 
19491000    135.87591   -4474.3046   -4241.4179   -4474.3046            0    1986.4213    17.973985    23.345164    21.889521    9184.9663    2115.9612    1932.1592    1911.1436   -1271.5231   -81.843751   -5.6459601   -3975.3302 
19492000    143.87807   -4474.4141    -4227.812   -4474.4141            0    2743.7247    17.884647     23.26901    22.025346    9166.0241    3082.8701    2301.2175    2847.0864   -528.78257   -48.841517    341.91485   -3861.0389 
19493000    149.69554   -4472.2363   -4215.6633   -4472.2363            0    1250.8444    17.976879    23.355642    21.998971    9236.5222    1286.8613    1620.3896    845.28246   -740.67654    709.66528   -115.48112    -4047.168 
19494000    141.89682   -4460.7983    -4217.592   -4460.7983            0    3038.3876    17.856235    23.288902      21.9745    9138.1422      3557.21    2966.7337    2591.2192    1011.6869   -138.17032    531.50053   -3812.6647 
19495000    142.27564   -4454.3138   -4210.4582   -4454.3138            0    2208.9836    17.956466    23.326464    21.982295    9207.5229    2077.4552    2291.1611    2258.3346   -210.56863   -434.38666   -1173.5913   -3913.8309 
19496000    142.59413   -4477.5067   -4233.1053   -4477.5067            0    1784.3375    18.002988     23.35108    21.978053    9239.3362    1318.2915    2103.9154    1930.8057   -712.74574   -152.89291    246.24387   -3992.6725 
19497000    138.93529   -4470.6694   -4232.5391   -4470.6694            0    2708.1217      17.9578    23.472365    21.794207    9186.5205    2914.0702     2290.892    2919.4029     349.4873    98.278673     102.1611   -3869.7159 
19498000    148.34442   -4463.5836   -4209.3263   -4463.5836            0    2429.0551     17.98895    23.354696    21.895442    9198.8545    2245.8023    1909.2691    3132.0938   -597.05505   -227.07307    299.15591   -3883.4543 
19499000    136.88366   -4476.4215   -4241.8076   -4476.4215            0    1916.6496    18.027326    23.225479    21.995289    9209.2796    1204.5292    888.44394    3656.9758    315.57338   -105.67433    542.27286   -3984.3864 
19500000    149.82547   -4463.0836   -4206.2879   -4463.0836            0    2158.6368    17.962127    23.373088    21.900987    9194.6994    2782.3159    1448.7667    2244.8277   -428.27611   -40.356456   -238.09226   -3916.8249 
Loop time of 364.966 on 64 procs for 250000 steps with 864 atoms

Performance: 118.367 ns/day, 0.203 hours/ns, 684.995 timesteps/s
195.4% CPU use with 32 MPI tasks x 2 OpenMP threads

MPI task timing breakdown:
Section |  min time  |  avg time  |  max time  |%varavg| %total
---------------------------------------------------------------
Pair    | 17.901     | 25.686     | 39.174     | 116.4 |  7.04
Bond    | 0.8229     | 1.1145     | 1.9265     |  22.8 |  0.31
Kspace  | 181.23     | 194.76     | 203.52     |  44.7 | 53.36
Neigh   | 0.82537    | 0.86402    | 0.92056    |   2.9 |  0.24
Comm    | 55.208     | 58.416     | 62.558     |  21.8 | 16.01
Output  | 0.66402    | 0.66522    | 0.66895    |   0.1 |  0.18
Modify  | 65.122     | 67.675     | 71.737     |  19.8 | 18.54
Other   |            | 15.78      |            |       |  4.32

Nlocal:        27.0000 ave          39 max          18 min
Histogram: 2 10 3 2 4 2 0 3 2 4
Nghost:        2136.12 ave        2252 max        2029 min
Histogram: 7 6 3 0 0 0 0 6 5 5
Neighs:        6610.59 ave        9546 max        4324 min
Histogram: 1 9 3 4 4 2 2 1 2 4

Total # of neighbors = 211539
Ave neighs/atom = 244.83681
Ave special neighs/atom = 2.0000000
Neighbor list builds = 3118
Dangerous builds = 0

unfix		3
unfix		2
unfix		1

write_data	data.final.${pid} nocoeff
write_data	data.final.1 nocoeff
System init for write_data ...
PPPM initialization ...
  extracting TIP4P info from pair style
  using 12-bit tables for long-range coulomb (../kspace.cpp:340)
  G vector (1/distance) = 0.37197027
  grid = 24 27 25
  stencil order = 5
  estimated absolute RMS force accuracy = 0.0031268966
  estimated relative force accuracy = 9.4165563e-06
  using double precision FFTW3
  3d grid and FFT values/proc = 4410 672
Last active /omp style is kspace_style pppm/tip4p/omp

write_restart   restart.lmp.${pid}
write_restart   restart.lmp.1
System init for write_restart ...
PPPM initialization ...
  extracting TIP4P info from pair style
  using 12-bit tables for long-range coulomb (../kspace.cpp:340)
  G vector (1/distance) = 0.37197027
  grid = 24 27 25
  stencil order = 5
  estimated absolute RMS force accuracy = 0.0031268966
  estimated relative force accuracy = 9.4165563e-06
  using double precision FFTW3
  3d grid and FFT values/proc = 4410 672
Last active /omp style is kspace_style pppm/tip4p/omp
Total wall time: 0:06:05
