#include		in.partitions
include		in.temp
variable        temperature equal 222.00
variable	tempDamp equal 100.0
include		in.pressure
variable        pressure equal 2930.0
variable        pressureDamp equal 1000.0 # This is 1 ps
include		in.seed
variable        seed equal 745823

units		real
atom_style	full
#include		in.box
read_restart	restart.lmp.${pid}
read_restart	restart.lmp.0
Reading restart file ...
  restart file = 30 Jul 2021, LAMMPS = 30 Jul 2021
  restoring atom style full from restart
  orthogonal box = (0.12130541 0.23399736 0.079034349) to (18.086267 23.395180 22.134161)
  2 by 4 by 4 MPI processor grid
  restoring pair style lj/cut/tip4p/long/omp from restart
  restoring bond style harmonic/omp from restart
  restoring angle style harmonic/omp from restart
  864 atoms
  576 bonds
  288 angles
Finding 1-2 1-3 1-4 neighbors ...
  special bond factors lj:    0        0        0       
  special bond factors coul:  0        0        0       
     2 = max # of 1-2 neighbors
     1 = max # of 1-3 neighbors
     1 = max # of 1-4 neighbors
     2 = max # of special neighbors
  special bonds CPU = 0.002 seconds
  read_restart CPU = 0.007 seconds
include 	in.setup
variable	out_freq equal 1000
variable	out_freq2 equal 10000
variable	out_freq3 equal 1000

timestep	2.0

neigh_modify    delay 7 every 1

include		in.tip4p
# This is TIP4P/Ice

# create groups ###
group ox type 2
288 atoms in group ox
group hy type 1
576 atoms in group hy

# set charges - beside manually ###
set group ox charge -1.1794
Setting atom values ...
  288 settings made for charge
set group hy charge 0.5897
Setting atom values ...
  576 settings made for charge

# ### TIP3P Potential Parameters ###
pair_style lj/cut/tip4p/long/omp 2 1 1 1 0.1577 8.5
pair_coeff 1 1*2 0.000 0.000
pair_coeff 2 2 0.21084 3.1668
bond_style  harmonic
bond_coeff  1 450 0.9572
angle_style harmonic
angle_coeff 1 55 104.52
kspace_style pppm/tip4p/omp 1.0e-5
pair_modify tail yes

thermo          ${out_freq}
thermo          1000
thermo_style    custom step temp pe etotal epair emol press lx ly lz vol pxx pyy pzz pxy pxz pyz enthalpy

restart 	${out_freq3} restart.lmp.${pid} restart2.lmp.${pid}
restart 	1000 restart.lmp.${pid} restart2.lmp.${pid}
restart 	1000 restart.lmp.0 restart2.lmp.${pid}
restart 	1000 restart.lmp.0 restart2.lmp.0


include         in.dump
dump            myDump all atom ${out_freq2} dump.water.${pid}
dump            myDump all atom 10000 dump.water.${pid}
dump            myDump all atom 10000 dump.water.0
dump            myDump2 all dcd ${out_freq2} dump.dcd
dump            myDump2 all dcd 10000 dump.dcd
dump_modify     myDump append yes
dump_modify     myDump2 append yes


variable natoms 	equal  "count(all)"                        # NUMBER ATOMS
variable H      	equal  "enthalpy/v_natoms"                 # ENTHALPY-per-atom
variable Vol      	equal  "vol/v_natoms"                 # volume-per-atom
fix AVG all 		ave/time ${out_freq} 1 ${out_freq} v_Vol v_H file vol_enthalpy.dat
fix AVG all 		ave/time 1000 1 ${out_freq} v_Vol v_H file vol_enthalpy.dat
fix AVG all 		ave/time 1000 1 1000 v_Vol v_H file vol_enthalpy.dat


timer           timeout 23:50:00 every 1000
New timer settings: style=normal  mode=nosync  timeout=23:50:00

fix 		1 all shake 1e-6 200 0 b 1 a 1
       0 = # of size 2 clusters
       0 = # of size 3 clusters
       0 = # of size 4 clusters
     288 = # of frozen angles
  find clusters CPU = 0.001 seconds
fix             2 all nph aniso ${pressure} ${pressure} ${pressureDamp}
fix             2 all nph aniso 2930 ${pressure} ${pressureDamp}
fix             2 all nph aniso 2930 2930 ${pressureDamp}
fix             2 all nph aniso 2930 2930 1000
fix             3 all temp/csvr ${temperature} ${temperature} ${tempDamp} ${seed}
fix             3 all temp/csvr 222 ${temperature} ${tempDamp} ${seed}
fix             3 all temp/csvr 222 222 ${tempDamp} ${seed}
fix             3 all temp/csvr 222 222 100 ${seed}
fix             3 all temp/csvr 222 222 100 745823


run             250000
PPPM initialization ...
  extracting TIP4P info from pair style
  using 12-bit tables for long-range coulomb (../kspace.cpp:340)
  G vector (1/distance) = 0.37195048
  grid = 24 27 25
  stencil order = 5
  estimated absolute RMS force accuracy = 0.0031332972
  estimated relative force accuracy = 9.4358313e-06
  using double precision FFTW3
  3d grid and FFT values/proc = 4410 672
Last active /omp style is kspace_style pppm/tip4p/omp
Neighbor list info ...
  update every 1 steps, delay 7 steps, check yes
  max neighbors/atom: 2000, page size: 100000
  master list distance cutoff = 10.8154
  ghost atom cutoff = 10.8154
  binsize = 5.4077, bins = 4 5 5
  1 neighbor lists, perpetual/occasional/extra = 1 0 0
  (1) pair lj/cut/tip4p/long/omp, perpetual
      attributes: half, newton on, omp
      pair build: half/bin/newton/omp
      stencil: half/bin/3d
      bin: standard
Per MPI rank memory allocation (min/avg/max) = 10.19 | 10.20 | 10.23 Mbytes
Step Temp PotEng TotEng E_pair E_mol Press Lx Ly Lz Volume Pxx Pyy Pzz Pxy Pxz Pyz Enthalpy 
 9750000    225.67339   -4290.4359   -3903.6395   -4290.4359            0    3560.4867    17.964962    23.161183    22.055127    9176.9126    1846.9489    3721.2115    5113.2996    5.0563097    666.55885     826.2331   -3427.1187 
 9751000     217.2236   -4311.1762   -3938.8624   -4311.1762            0    1939.2066    18.172439    23.530804    21.753501    9302.0607   -229.67803    2934.6087    3112.6891   -413.62544   -181.09535    258.90902   -3675.7876 
 9752000    214.72967   -4302.4955   -3934.4562   -4302.4955            0     3659.935    17.871008    23.358363    21.924344    9152.0431    3825.8092    3730.7639     3423.232    817.54118    521.70925    236.24157   -3445.9531 
 9753000    220.19905   -4319.0643   -3941.6507   -4319.0643            0    2569.8388    17.912788    23.302618    22.066339    9210.8176     2312.372    1834.8506    3562.2937    -202.1834     220.9594    249.78967   -3596.4434 
 9754000    205.27478   -4324.9822   -3973.1483   -4324.9822            0    2189.2101    18.202874    23.276913    21.840407    9253.9273     1586.552    1745.3907    3235.6877    141.42013    -310.7567    508.42334   -3677.6946 
 9755000    236.79409   -4332.7099   -3926.8529   -4332.7099            0    1956.1805    17.830674     23.40358    22.144216    9240.8171    2759.2788    2642.1013    467.16126    335.14466    1037.9465    63.331086   -3663.2227 
 9756000    219.51092   -4302.1244   -3925.8902   -4302.1244            0    2520.2846     17.85935    23.706797     21.80523    9232.0725    2687.7059    2160.6867    2712.4612    814.07872   -836.23025    155.09135   -3586.5583 
 9757000    226.26259    -4326.057   -3938.2507    -4326.057            0    2002.0396    17.963523    23.355449    22.031223    9243.1148    2215.3761     2142.404    1648.3387    142.00602    428.20243   -373.95427    -3668.373 
 9758000    225.62024   -4308.8273   -3922.1219   -4308.8273            0    3147.6668    18.180621      23.0208    22.042205     9225.378     1811.954    3868.8401    3762.2062     543.8413    727.70724   -801.62946   -3498.6264 
 9759000      234.266    -4307.239   -3905.7151    -4307.239            0    3519.4177    17.922841    23.490081    21.906344    9222.7678     3480.052    3314.1488    3764.0523   -930.03206     -586.048   -574.35162   -3432.3372 
 9760000    222.47093   -4316.0383   -3934.7308   -4316.0383            0    1786.5651    17.762107    23.537835    22.194392    9279.0654    2767.7865     1334.377    1257.5319    536.84256    2.5692681    -285.1775   -3692.9627 
 9761000     230.7105   -4336.8877   -3941.4578   -4336.8877            0    2987.4986    18.074259    23.275058    21.860089    9196.0898     2190.628    4308.3904    2463.4775   -6.6262382    321.32339    10.880756   -3540.7878 
 9762000    229.78569   -4295.6262   -3901.7814   -4295.6262            0    816.36251    18.056124    23.400166    22.056359     9319.171   -79.350545    1116.4784    1411.9596    734.56764      593.507   -118.19771   -3790.8291 
 9763000    233.86535   -4311.3566   -3910.5194   -4311.3566            0     2188.151    17.859808    23.576166    21.892835     9218.324     2566.586    2319.7224    1678.1446    -1420.791    74.224127   -364.76844   -3616.3448 
 9764000    203.39557   -4303.6332   -3955.0202   -4303.6332            0    4427.9714    18.012262    23.305936    21.803436    9152.9216    2607.4725    5603.2301    5073.2116    331.10911    406.22029    340.66922   -3363.9481 
 9765000    209.97458   -4296.0832    -3936.194   -4296.0832            0    2378.4277    18.173938     23.15526    22.075356    9289.8015    792.01254     4132.191    2211.0795   -971.57268    518.02314    93.050956   -3613.9593 
 9766000     225.5879   -4319.7799     -3933.13   -4319.7799            0     3080.081    17.827231    23.694454    21.916505    9257.6744     3749.439    2080.3683    3410.4355    365.08709    -469.9211    156.46201   -3517.2769 
 9767000    223.32262   -4312.8347   -3930.0674   -4312.8347            0    4753.1681    17.895945    23.495899     21.81094    9171.0927     4867.447    4036.2259    5355.8312   -553.95468   -428.99392   -132.18096   -3294.3265 
 9768000      212.385   -4327.2223   -3963.2017   -4327.2223            0    3482.3984    18.029189    23.190338    22.030724    9211.1117    3788.0669    4227.4512    2431.6771    86.232565    803.88897      365.216    -3495.395 
 9769000     228.4633   -4325.8104   -3934.2322   -4325.8104            0    2955.5018    18.072509    23.364485    21.808057    9208.5583    2204.5763    2912.9473    3748.9817    72.028141    752.11399    509.51269    -3537.316 
 9770000    213.07574   -4314.0748   -3948.8702   -4314.0748            0    2368.0783    17.794668    23.504674    22.073783    9232.5335    3403.1544    1268.1702    2432.9104   -579.56921   -472.74334    352.20515   -3630.0155 
 9771000    227.93093   -4347.4658      -3956.8   -4347.4658            0    3045.1165    18.004978    23.316087    21.974602    9225.0619    3257.3256    3108.3052    2769.7189    830.51546   -633.38704   -124.29585   -3547.1159 
 9772000    229.94762   -4317.0647   -3922.9423   -4317.0647            0    2017.7889    18.158982    23.233329    22.065394    9309.2484    1813.7178    1293.9917    2945.6573    238.41525   -245.64378   -512.17218   -3648.9955 
 9773000      216.946   -4334.0411   -3962.2031   -4334.0411            0    3414.1633    17.875664     23.38149    22.070503    9224.5801    3329.9113    3020.9427    3891.6357   -569.18772   -689.01962    355.01479   -3502.8922 
 9774000    226.40702   -4271.4682   -3883.4143   -4271.4682            0    4749.4853    18.146235    23.415737    21.581528     9170.152    4654.9454     3974.298    5619.2124   -176.34407   -152.08654   -595.44491   -3248.2312 
 9775000    224.41541    -4315.231   -3930.5907    -4315.231            0    2284.7398    18.082835    23.075765    22.184902    9257.2107    3534.5912     3124.239    195.38908   -22.884664    53.157158    62.842419    -3622.135 
 9776000     240.1961   -4318.9834   -3907.2955   -4318.9834            0    2451.7104    18.011705    23.552857    21.900404     9290.745    3483.0846    1935.4404    1936.6063   -560.67901    277.21803    291.26248   -3575.0986 
 9777000    228.21776   -4311.0677   -3919.9103   -4311.0677            0    3436.1688    17.885478    23.519268     21.94532    9231.3719    3328.8787    2596.0888     4383.539    556.25926    526.16196   -321.74681   -3457.2986 
 9778000    229.01173   -4348.7059   -3956.1876   -4348.7059            0    1739.7661    18.049417    23.275366    22.019985     9250.745     448.3277     2341.322    2429.6487    73.221026   -1.5206057   -260.14362   -3721.4712 
 9779000    213.85347   -4332.5244   -3965.9868   -4332.5244            0    3158.3321    18.125824    23.176775    21.845831    9177.3929    3812.5333    3278.4329    2384.0301    672.20093    334.96185   -110.23808   -3543.2666 
 9780000    228.34724   -4302.8381   -3911.4588   -4302.8381            0    3942.1915    17.726332    23.533235    21.952793    9157.7821    5210.4485     3093.008    3523.1179   -481.53845   -473.44881    -617.8566   -3384.9521 
 9781000    229.87071   -4300.2468   -3906.2563   -4300.2468            0    2083.9806    17.899157     23.55325    21.905625    9235.0457    2229.3017    85.441263    3937.1988    71.630554    -692.6785   -85.142276   -3625.5781 
 9782000    222.57333   -4309.2995   -3927.8164   -4309.2995            0    2428.5351    18.097153    23.219519    22.069825    9273.8995    1596.6303    1748.7599     3940.215    473.67486     8.201407    668.11056   -3599.3563 
 9783000    219.41737   -4302.9977   -3926.9239   -4302.9977            0    3471.0533    18.038624    23.140885    21.921496    9150.6842    3889.7535    3378.1351    3145.2712   -378.35823    276.78349   -68.500005   -3463.7002 
 9784000    213.51162   -4327.4799   -3961.5283   -4327.4799            0    2978.9369    17.905072    23.422296     21.99352    9223.5961    1971.2305    3249.4324    3716.1479   -372.25978    126.14303   -188.62343   -3560.8116 
 9785000    222.77145   -4350.8865   -3969.0639   -4350.8865            0    1945.5264    17.882667    23.644223     21.90612    9262.3841    1844.0491    1348.0086    2644.5215   -292.45549   -5.3220792   -325.30881   -3706.2575 
 9786000    224.02925   -4340.7937   -3956.8152   -4340.7937            0    2188.5633    18.056929    23.230488    22.100528    9270.5363    2320.5906    3210.3168    1034.7825   -1040.5282    -27.59357    285.24514   -3660.9187 
 9787000    218.54894   -4303.2934    -3928.708   -4303.2934            0    2950.9636    18.223124    23.069129    21.873066     9195.253    1087.1174    3756.6822    4009.0912     104.2746   -171.12685   -21.771623    -3532.974 
 9788000    219.14037   -4307.5513   -3931.9522   -4307.5513            0    3777.0565     17.94562    23.312823     21.91283    9167.5187    3120.0328    3185.5609    5025.5758   -93.918459   -581.27092   -711.70321   -3426.9641 
 9789000    220.25594   -4305.4173   -3927.9061   -4305.4173            0    3551.0037    17.653435    23.674329    22.006676     9197.321     5633.973    1458.8044    3560.2338    99.693156   -387.21035    176.72548   -3451.5976 
 9790000    220.73306   -4318.4433   -3940.1144   -4318.4433            0    4165.0059    17.950382    23.235265    21.906096    9136.6356    5583.3076    3512.0715    3399.6386   -260.78834    447.46106    317.08003   -3385.1337 
 9791000     217.6863    -4314.645   -3941.5381    -4314.645            0    2618.8098    18.059488    23.243479    22.028089    9246.6284    3008.8542    4581.4109    266.16439   -25.612298   -1295.2331    702.29691   -3588.3848 
 9792000    222.96516   -4327.2623   -3945.1077   -4327.2623            0    3373.9687    18.005321    23.524512    21.735645    9206.4887    3414.0592    2077.5777    4630.2691   -170.00343    468.44509    26.178587   -3492.0944 
 9793000    224.03018   -4313.8095   -3929.8295   -4313.8095            0    2569.0334    17.822945    23.467468    22.053195    9223.9559    3568.7766     1678.309    2460.0146   -781.54268   -402.87029   -434.25059   -3584.2381 
 9794000    215.66932   -4302.7654   -3933.1156   -4302.7654            0      3609.73    17.962342    23.283235    21.983517     9193.978    4405.1661    5049.3472    1374.6768   -834.95186    49.913416   -57.475901   -3449.1059 
 9795000    220.08331   -4356.6569   -3979.4417   -4356.6569            0    2631.1677     18.03745    23.433234    21.831336    9227.5766    2512.5476    3261.3866    2119.5687    36.508298   -480.36729   -822.24162    -3625.353 
 9796000    231.21965   -4316.6575   -3920.3549   -4316.6575            0    4468.1918    17.820284    23.219217    22.106908    9147.2425    3777.9996    7460.8902    2165.6856    1053.1597      668.451    360.29334    -3324.284 
 9797000    216.70781   -4325.7206   -3954.2909   -4325.7206            0    3549.3044    18.114335    23.351724    21.755016    9202.3925     4039.385    4212.1987    2396.3296    134.54604   -375.28024    85.550536   -3477.9477 
 9798000    224.49477   -4312.9604   -3928.1841   -4312.9604            0    3264.0029    17.911203    23.087059    22.294766    9219.2646    2400.3287     4279.542    3112.1379    32.524168   -767.26884   -839.83505   -3489.3274 
 9799000    231.97691    -4324.304   -3926.7035    -4324.304            0    3408.8896    17.978363    23.412785    21.920286    9226.7646    3793.1395    3809.1195    2624.4098   -652.72203   -871.72793   -299.69539   -3467.9935 
 9800000     229.7906   -4339.8746   -3946.0213   -4339.8746            0    3577.9186    17.872149    23.354038    22.032994    9196.2816    4500.2176    4720.7623    1512.7758   -134.99667   -293.50276    258.13253   -3466.1568 
 9801000    231.57261    -4315.438   -3918.5304    -4315.438            0     1829.107    18.100408    23.495687    21.752881    9251.0982    875.79742    1977.1678    2634.3557    363.08603    223.91968    478.53495   -3671.7514 
 9802000    220.72625   -4320.1465   -3941.8292   -4320.1465            0    2700.0946    18.013801    23.322933    22.019076    9250.9773    2520.4138    3562.6889     2017.181   -573.27125   -730.97494    375.37582   -3577.5432 
 9803000    224.17366   -4331.6696   -3947.4437   -4331.6696            0    2402.8181    17.961737    23.293968    22.019039    9212.7685    3079.4985    1558.2226    2570.7332    655.55992    464.40691   -792.01217    -3624.604 
 9804000    232.22646   -4311.7944   -3913.7662   -4311.7944            0    2484.7712    18.103744    23.401331    21.765911    9221.1654    1762.5454    2300.8158    3390.9524    280.19417   -556.50521    300.36424   -3579.6111 
 9805000    225.92187   -4327.4868   -3940.2644   -4327.4868            0    3087.8185    17.963194     23.21642    22.086811    9211.1075    2510.1948    4182.0312    2571.2295   -29.013883     160.3883    320.49025   -3525.4637 
 9806000    236.85721   -4311.2435   -3905.2783   -4311.2435            0     3507.031     17.87557    23.508651    21.756127    9142.5886    3048.6873    3266.1609    4206.2447    299.01307    878.41925    520.52904   -3437.6674 
 9807000     223.1241   -4320.8105   -3938.3835   -4320.8105            0    2736.5408    17.844439    23.407084    22.059847    9214.0954    1412.0717    3001.7397    3795.8111   -495.85174    394.46212    165.98762   -3570.6522 
 9808000     228.9439   -4326.5048   -3934.1028   -4326.5048            0    2420.5867    17.992266    23.422793    21.933068    9243.2338    2668.3686     2555.192    2038.1994   -266.64766   -284.74998    872.89818   -3607.8002 
 9809000    226.64006   -4322.5945   -3934.1412   -4322.5945            0    2187.1382    18.185964    23.318532    21.827253    9256.2828    1481.9046    2978.2242    2101.2857    1199.0581   -205.77222   -205.84094    -3638.892 
 9810000    207.21736    -4319.404   -3964.2405    -4319.404            0    2596.1316    17.878173    23.257851    22.070354    9177.0272    2001.0266    3152.4594    2634.9089    722.50991   -1108.9018    484.02812   -3616.7806 
 9811000    219.49502   -4317.0731   -3940.8662   -4317.0731            0    3662.5259     18.00107    23.642449    21.705989    9237.8383    4059.9643    2149.9296    4777.6839    2301.4471    201.20744    -5.385663   -3447.4346 
 9812000    226.36482   -4306.3205   -3918.3389   -4306.3205            0     3604.435     17.89785    23.191611    22.140892    9190.2409    3836.3146    4164.7018    2812.2885    78.179635    434.01493    1364.3222   -3435.2357 
 9813000    232.43284   -4294.5738   -3896.1919   -4294.5738            0     4339.408    18.139847    23.137691     21.82511     9160.308    3345.7858    3585.9998    6086.4384   -490.72202    868.79986   -272.45357   -3316.4743 
 9814000    221.00899   -4313.3027   -3934.5009   -4313.3027            0    2776.2676    17.829144    23.461054    21.990047    9198.2279     2416.163    2336.3777    3576.2619   -964.22844   -235.45751   -11.924469   -3562.0737 
 9815000    224.92837   -4344.9385    -3959.419   -4344.9385            0    3257.2358    17.895063    23.427124    21.941702    9198.6168    1776.4494    4619.0236    3376.2344    1254.2641    -257.1238    219.40149    -3522.453 
 9816000    234.09022   -4314.3408   -3913.1182   -4314.3408            0    4301.4752    18.036637    23.180917    21.981998    9190.8003    5568.3887    3401.0239     3935.013    360.55679      247.462    432.73505   -3336.5554 
 9817000    213.29099   -4341.6528   -3976.0793   -4341.6528            0    2557.8392    18.143921    23.339791    21.873653    9262.9519    1959.5287    3484.6066    2229.3824    161.26642   -262.56036   -485.68156   -3630.5392 
 9818000    215.21103   -4310.2232   -3941.3588   -4310.2232            0    2116.4281     17.72207     23.72199    22.081663    9283.1922    2677.0435    956.13455    2716.1064    975.47511    -103.8085   -123.88617   -3654.8245 
 9819000    218.31792    -4345.133   -3970.9436    -4345.133            0    3569.1141    17.828878    23.437896    21.882668    9144.1407    2996.7182    2287.6006    5423.0234   -420.32741   -381.60234     419.3985    -3494.974 
 9820000    219.30959   -4316.0261   -3940.1369   -4316.0261            0    2147.1329    18.042621    23.258963    21.977856    9223.0656    2217.5461     1819.793    2404.0597   -132.28754   -292.97237    708.81373   -3651.3283 
 9821000    217.00598   -4311.2498    -3939.309   -4311.2498            0    3645.0931    18.097519    23.025013    22.049793    9188.0518    2705.7277    4572.8994    3656.6523     69.19735   -1216.8972    679.70515   -3450.8727 
 9822000    227.57869   -4276.5907   -3886.5286   -4276.5907            0    3904.8667    17.913696    23.247712    22.097369    9202.5034    2749.9066    3450.2429    5514.4506   -578.55198     459.4243   -141.70994   -3362.4601 
 9823000    216.27091   -4338.0265   -3967.3456   -4338.0265            0    2360.3306    17.875281    23.540162    21.984198    9250.6648    3055.6746    2797.6604    1227.6569    -1167.794   -271.32717   -868.10999   -3648.9099 
 9824000     226.8495   -4334.4879   -3945.6756   -4334.4879            0    3376.6638    17.952587    23.337102    21.924904    9185.6876     2338.638    4403.5461    3387.8073   -584.21625   -1045.5706   -225.80349   -3493.3248 
 9825000    222.66363   -4327.2518   -3945.6139   -4327.2518            0    2262.3015     18.09884    23.130235    22.028955    9221.9906    1394.0589    3095.2061    2297.6396    118.18061   -515.64926    545.88201   -3641.3496 
 9826000    218.93935   -4319.8202   -3944.5657   -4319.8202            0    2863.7694     17.98155    23.335566    21.888082    9184.4501    5463.6166    2712.4118    415.27992    656.40166    230.25128     129.0467   -3560.9758 
 9827000     209.1798   -4312.8061   -3954.2791   -4312.8061            0    2057.5686    17.820993    23.408498     22.22507    9271.4695    3023.6719    1807.5757    1341.4581    566.31443   -116.54028    563.94091   -3676.0652 
 9828000    229.04621    -4289.509   -3896.9316    -4289.509            0    2343.6928    18.172902    23.312266    21.766615    9221.4598     1925.836     2434.429    2670.8133   -5.9915558    11.775194    214.44315   -3581.7388 
 9829000    208.94929   -4306.5922   -3948.4603   -4306.5922            0    2273.7838    17.997541    23.292912    22.133808    9278.8271    3625.8714    1566.4702    1629.0099   -963.86124   -118.93438    395.38794   -3640.7669 
 9830000    236.52672    -4308.662   -3903.2633    -4308.662            0    2280.6517    17.982744    23.516849    21.871698     9249.486    1346.9113    3668.0552    1826.9885   -681.06592   -826.96433    1003.8445   -3595.6164 
 9831000    217.10021   -4312.0899   -3939.9876   -4312.0899            0    2955.4112    17.908277    23.443652    21.985744    9230.3942    3081.3621     4023.082    1761.7894    336.76128    99.625064    126.36517   -3542.1425 
 9832000     210.3476   -4316.6882   -3956.1596   -4316.6882            0    3669.3511    17.928616    23.191745    22.048091    9167.5054     3787.248    4152.5565    3068.2489    565.41165    588.04661   -533.27874   -3465.5722 
 9833000    217.22971   -4331.9681   -3959.6439   -4331.9681            0    3420.9207    18.099571    23.346937    21.752432    9191.9152    4093.1041    2852.5277    3317.1301   -336.75969    -330.2643    8.9522885   -3501.0535 
 9834000    231.04833   -4291.7242   -3895.7152   -4291.7242            0    3804.0015    17.826724    23.117681    22.224096    9158.8279    3694.2508    5450.7059    2267.0477    478.32514    702.31365     315.1287   -3387.6067 
 9835000    228.47907   -4334.8172   -3943.2119   -4334.8172            0    2768.0105    18.025057    23.404684    21.815644    9203.3825    2476.4199    3137.1303    2690.4812   -584.39893    -27.14429     631.9399   -3571.6842 
 9836000    235.18674   -4334.0137   -3930.9117   -4334.0137            0     4792.291    17.745713    23.413332    21.953806     9121.505    5526.0317    6441.9847    2408.8567   -297.66148    423.18728   -439.79147   -3293.4038 
 9837000     221.1857   -4336.0408   -3956.9361   -4336.0408            0    3034.9609    17.862246    23.480639     22.03598    9242.2635    2759.5991    2716.4542    3628.8294     323.4007    195.27342   -633.28887   -3547.8569 
 9838000    231.64098    -4308.059   -3911.0342    -4308.059            0    2679.6643    18.042715    23.285038    21.986513    9237.0906    2866.8669    2589.6062    2582.5198    516.81735    178.65635    156.51554   -3550.0473 
 9839000    209.67629     -4327.74   -3968.3621     -4327.74            0    3203.9709    18.219934    23.083537    21.935248    9225.5377    1927.6305    4814.9821    2869.3002   -62.742354   -233.95596    438.30697   -3537.2838 
 9840000    231.38904   -4329.7386   -3933.1457   -4329.7386            0    3572.2416    17.850188    23.546331    21.869235    9191.7802    3698.1655    3620.8153    3397.7439   -596.05983    354.45832    784.74397   -3454.2771 
 9841000    216.46589   -4337.3981    -3966.383   -4337.3981            0    2209.8167       17.822    23.687912    21.892288    9242.1788    1786.2389    1732.4182    3110.7929   -125.69175   -281.73604    246.46947   -3668.5269 
 9842000    226.36162   -4306.9399   -3918.9639   -4306.9399            0    2825.1099    18.066071    23.288977    21.959319    9239.1711    2320.2197    2462.0842     3693.026   -653.38273    640.57077   -324.47266   -3538.2977 
 9843000    217.68355   -4330.4021   -3957.2999   -4330.4021            0    4235.1788    17.968586    23.335179     21.77957    9132.1772     5285.187     4219.233    3201.1163   -473.68229    925.32179   -296.65809   -3393.2443 
 9844000    223.10626   -4333.4592   -3951.0627   -4333.4592            0    2062.0828    18.000467    23.270612    22.185545    9293.1226    2438.9215    1983.6676    1763.6594    742.50838    560.60455    106.38699   -3671.5873 
 9845000    216.27016   -4330.2812   -3959.6015   -4330.2812            0    3940.8251    18.043873    23.068624    21.966511    9143.5012     4183.377    3548.7599    4090.3385    467.22804    547.49881   -527.19246   -3434.0981 
 9846000    224.06142   -4300.7532   -3916.7196   -4300.7532            0    4400.5264     18.04529    23.434034    21.571127    9121.8679    4799.0914    1750.3377    6652.1502    66.661227   -347.96549    304.29415    -3331.304 
 9847000    226.29673   -4324.6852   -3936.8204   -4324.6852            0    2610.0938    17.815084    23.604404    21.983741    9244.4808    2295.2214    2730.0463    2805.0137    1037.7642    389.41083   -515.19791   -3584.9242 
 9848000      220.881   -4336.6096   -3958.0271   -4336.6096            0    4546.1835    18.006397    23.125992    21.844327    9096.3232    3655.0435    5408.9656    4574.5413   -486.64257   -516.73275   -457.19435   -3354.9279 
 9849000    229.88478   -4330.6905   -3936.6759   -4330.6905            0    2549.6909    18.013444    23.326492    22.001028    9244.6221    2358.6408    2796.2746    2494.1572   -84.392432    125.08802    267.84205    -3592.918 
 9850000     215.4452   -4324.9918   -3955.7261   -4324.9918            0     2362.569    18.027132    23.186561    22.156395    9261.0889    1438.6977    4156.4573    1492.5521    25.374143    -1137.379    1046.9161   -3636.6293 
 9851000     227.3868   -4361.3321   -3971.5989   -4361.3321            0    2773.0656    18.021344     23.45655    21.786144    9209.4073    3674.2832    1104.7667     3540.147   -141.39164    179.50307   -10.979685   -3599.1491 
 9852000    221.92963   -4302.5885   -3922.2087   -4302.5885            0    3474.1557      17.7557    23.477706    22.016285     9177.777    4074.3203    4185.4864    2162.6605   -1.3408168    54.278407    150.20524   -3457.1983 
 9853000    222.15675   -4309.3917   -3928.6226   -4309.3917            0    2521.3749    18.103851    23.419388    21.813473    9248.5005    3527.8746    1507.6437    2528.6065    23.150884   -21.239914      558.244   -3588.5398 
 9854000    216.50494   -4311.8667   -3940.7846   -4311.8667            0    3358.9454    18.028233    23.153577     22.01128    9187.9061      3944.36    2394.4746    3738.0014    313.44778   -301.47501   -340.94674   -3490.6987 
 9855000    222.07145   -4294.5244   -3913.9015   -4294.5244            0    3027.2635    18.071061    23.330726    21.800261    9191.2295     2106.687    4698.2794    2276.8242   -848.76002    486.35833   -400.83114    -3508.113 
 9856000     216.1331   -4332.8561   -3962.4113   -4332.8561            0    3924.8925    17.786732    23.466944    21.983871    9176.0728    4110.0488    4179.0209    3485.6078   -260.45519    563.17005   -359.58116   -3437.1681 
 9857000     219.5066   -4334.3336   -3958.1068   -4334.3336            0    4498.8105    17.751959    23.444235     21.97345    9144.9346    4032.7721    3989.6894      5473.97   -384.18311   -235.66586    -171.0349   -3358.1027 
 9858000     218.8498   -4310.5609   -3935.4599   -4310.5609            0     2813.953    18.190591    23.389869    21.742342    9250.8348    173.76529    3920.2744    4347.8193   -567.19824   -245.29093   -54.429178   -3555.8184 
 9859000    220.17072   -4325.2256   -3947.8605   -4325.2256            0    3241.2225     18.00691    23.134096    22.067983    9192.9391    2609.4715    3933.2707    3180.9253   -716.68927    172.31304    303.02455   -3513.3111 
 9860000    214.47118   -4315.9515   -3948.3552   -4315.9515            0     2811.329    17.957693    23.403707    21.906825    9206.9254    2892.2246    1837.6236    3704.1389   -971.93292   -96.898489   -739.48332    -3570.868 
 9861000    223.46882   -4312.8631   -3929.8452   -4312.8631            0    2411.0742    17.968739    23.673857    21.794452    9271.1284    2382.3028    2389.9354    2460.9843    588.01578    53.938186   -753.76337   -3603.8441 
 9862000    213.97639   -4303.8384   -3937.0901   -4303.8384            0    3450.7271    17.800609    23.398691    22.095883    9203.1772    4418.0991    3501.8141    2432.2682    -811.8767     264.2092    189.03753   -3473.9373 
 9863000    216.70135   -4313.6723   -3942.2536   -4313.6723            0    3270.1032    18.255626     23.32264    21.546855     9173.991    3117.7653    1650.5965    5041.9478    63.449413   -647.05349     29.35595   -3504.7358 
 9864000    224.34432   -4295.5621   -3911.0436   -4295.5621            0    2688.4673    18.044395    23.216489    22.117193    9265.5008     1486.611    3402.8478    3175.9432   -521.27094   -296.16856    -917.7691   -3547.7569 
 9865000     230.7352   -4300.1769   -3904.7047   -4300.1769            0    3655.7619    17.947385    23.293376    21.881496     9147.673    2987.2009    4719.8722    3260.2126   -685.00721   -331.19889    358.09361   -3416.9916 
 9866000    222.47916   -4339.1516     -3957.83   -4339.1516            0    4596.7579    17.832169     23.39395    21.837021     9109.638    4564.1826    3985.4551     5240.636   -413.58909   -112.81332    -134.4705    -3347.129 
 9867000    214.92908   -4338.9125   -3970.5314   -4338.9125            0     1251.616    17.799695     23.67193    22.133108    9325.8547     1956.075    906.69112    892.08193    42.804128   -369.91884   -66.621021   -3800.3016 
 9868000    218.06533    -4335.774   -3962.0175    -4335.774            0    2552.0229    18.091316    23.355215    21.905113    9255.4925    3482.8976    2240.4774    1932.6938    -425.1945   -898.63915    824.65568   -3617.5407 
 9869000    227.97817   -4314.8627   -3924.1159   -4314.8627            0    4599.2022    18.137858    22.855042     22.02737    9131.2595    3683.0066     5435.366     4679.234    333.10678    1271.9781   -685.07462   -3311.6399 
 9870000    208.91416   -4311.2177    -3953.146   -4311.2177            0    3298.9296    18.036388    23.435801    21.844604    9233.6526    2589.7286    3270.2308    4036.8294    182.72975    104.49234    1001.0349   -3508.9011 
 9871000    218.67874   -4328.4942   -3953.6863   -4328.4942            0    1962.7818    17.831656    23.555097    22.044791    9259.3938    1509.3185    2449.9791    1929.0476    264.16879    357.01528    12.786859   -3688.6347 
 9872000    230.96048   -4313.0073   -3917.1489   -4313.0073            0    2565.6503    18.016139    23.236345    21.990212    9205.7451    1111.0097    3557.3323     3028.609    350.59863   -833.53585    766.54095   -3572.6941 
 9873000     215.6292   -4339.7751    -3970.194   -4339.7751            0    2624.0996    18.091258    23.239761    21.955597     9230.935     2468.919    3608.1958     1795.184     327.5081   -492.01956    586.07275    -3616.928 
 9874000     229.8916   -4310.5215   -3916.4952   -4310.5215            0    3242.6513    18.119071    23.274656    21.787856    9188.2685    1767.5687    3416.1067    4544.2786    410.50985   -112.02262     -805.831   -3481.9752 
 9875000    233.95266   -4309.8392   -3908.8524   -4309.8392            0    3681.9563    17.859299    23.542419     21.93332    9221.8881    5639.6725    2411.7059    2994.4906    345.21017    33.885895   -106.84915   -3413.6595 
 9876000    215.39721   -4308.5482   -3939.3647   -4308.5482            0    2816.8107    17.921406    23.345936    21.967886    9191.1876     1891.288    2615.9077    3943.2363    36.091926   -993.99495    -490.6949   -3561.7881 
 9877000    227.92481   -4329.9065   -3939.2512   -4329.9065            0    2181.0025    17.876196    23.516462    21.997458    9247.3987    2298.4815    2075.3357    2169.1902   -1434.9233   -534.83369    93.297411   -3645.1128 
 9878000    221.58096   -4310.9693   -3931.1871   -4310.9693            0    3076.1634    17.998747    23.459363      21.7922      9201.52    2354.8075    3311.7538     3561.929    -740.8528    9.4571869   -70.509196   -3518.3822 
 9879000    225.81389   -4304.8754   -3917.8381   -4304.8754            0    2699.2302    18.013468     23.24664    22.044877    9231.3498    3055.6136    3826.9112    1215.1657    -1076.184   -97.645458    219.70666   -3554.4413 
 9880000    221.48385   -4341.2468   -3961.6311   -4341.2468            0    1902.6061    18.183012    23.174787    21.969799    9257.7968   -393.73012    2227.5606    3873.9878   -1029.7861   -692.76712    196.72608   -3704.7498 
 9881000    218.41914    -4342.871   -3968.5081    -4342.871            0    2902.4567    17.915285    23.433093    21.920607    9202.5019    3240.1937    2469.9388    2997.2376    228.35279   -378.24516   -117.02887   -3578.9722 
 9882000    221.44991   -4285.7484   -3906.1908   -4285.7484            0    2112.3397    17.719083    23.717248    22.035566    9260.4005    3790.7179    244.42683    2301.8742   -53.762879    -759.4573    594.78707   -3620.9121 
 9883000    224.21551   -4335.3205   -3951.0228   -4335.3205            0    2623.8925    18.143779    23.240103    21.855641    9215.7215    2464.7145    1957.9203    3449.0427     520.6404    549.99211    16.315712   -3598.3668 
 9884000    217.77392   -4336.6474   -3963.3903   -4336.6474            0    4222.0313    18.167388    22.917701    22.022885    9169.3333    4524.2052    4972.8398    3169.0488    258.79403    258.63264    105.94425   -3398.7978 
 9885000    220.40754   -4351.5088   -3973.7378   -4351.5088            0    2228.3674    17.977541    23.374113    21.956236    9226.2096    3029.5376    1098.6832    2556.8815    542.81156   -1004.7571   -578.47947   -3673.9003 
 9886000    213.94721   -4304.1178   -3937.4196   -4304.1178            0    2416.0591    17.821328     23.51207    22.049402    9239.0596    3474.3503    1782.1093    1991.7177    932.47044    515.71776     28.23364   -3611.8744 
 9887000    207.04587   -4311.9509   -3957.0814   -4311.9509            0     2889.781    17.849273    23.549304    21.817297    9170.6381    4651.3991    109.68279     3908.261    771.20387   -39.178612    463.95421   -3570.5895 
 9888000    221.21917   -4321.4214   -3942.2593   -4321.4214            0     3963.796    17.989377    23.289618    21.986431    9211.5612    3681.7393    5036.0843    3173.5642   -875.95224   -138.02529   -311.17883   -3409.7583 
 9889000     200.7436   -4329.9383   -3985.8707   -4329.9383            0     1737.817    18.130228    23.103607    22.128705    9269.1315    4.1675107    2958.5796    2250.7038    -342.2947   -379.73967    446.43394   -3750.9512 
 9890000    220.28211   -4321.7644   -3944.2084   -4321.7644            0    2709.3398    18.142986    23.261044    21.894754    9240.1291    3238.0664    1977.5652    2912.3877    258.97168   -263.54498   -751.58954   -3579.1037 
 9891000    213.91099   -4338.7811    -3972.145   -4338.7811            0    2148.4301    17.870114    23.295395    22.176706    9231.9712    2508.6162    2236.3405    1700.3338   -1265.9175   -301.09945    153.48327   -3682.8828 
 9892000    216.00921   -4327.3822   -3957.1498   -4327.3822            0    2110.9832    17.916451    23.617254    21.849971    9245.5392    2141.1976    382.53821    3809.2137    104.78845    229.33404    914.92753   -3672.5117 
 9893000    210.82403   -4319.0094   -3957.6642   -4319.0094            0    3076.1544    17.910819    23.401825    22.012903    9226.6171    2070.4228    2694.2587    4463.7817    773.01725    949.60943    199.29363   -3543.7346 
 9894000    214.68424   -4314.2887   -3946.3273   -4314.2887            0    3511.2394    18.114354    23.135576    21.951802    9199.6935    2701.2642    3896.1849    3936.2692   -500.57877   -469.62602    93.003707    -3475.231 
 9895000    228.02515   -4306.1703    -3915.343   -4306.1703            0    2965.0831    18.020822    23.296073    21.992789    9232.8892    2006.1919    4206.1648    2682.8927     1239.696   -454.28152   -40.043747   -3516.0879 
 9896000    223.33109    -4333.685   -3950.9031    -4333.685            0    2641.8882    18.051179    23.354008    21.875494    9221.9947    2067.8054    3956.1372    1901.7221   -849.57538   -108.94067   -177.53725   -3595.5868 
 9897000    208.85169   -4332.3472   -3974.3826   -4332.3472            0    3075.7512    17.807389    23.567767    21.964122    9217.9115    3360.1289    2669.9282    3197.1966  -0.88230909   -326.43912   -227.45858   -3560.8977 
 9898000    217.08727    -4347.481   -3975.4009    -4347.481            0    3575.3162    17.838403    23.306614    22.038437    9162.5417    3308.5018    5105.3342    2312.1126    875.76269    295.79293   -79.617316   -3497.6447 
 9899000    236.17733    -4312.868   -3908.0681    -4312.868            0    3861.6873    18.220083    23.253091    21.780929    9227.9967    4165.6905    3483.2905    3936.0809   -657.74589   -738.67914     -353.513   -3388.3589 
 9900000    213.26866   -4314.9992    -3949.464   -4314.9992            0    3104.8529    18.032319    23.123572    22.099879    9215.0222    3660.3465    3166.1352    2488.0772    293.73925   -377.76206   -308.90271   -3532.1977 
 9901000    231.40065   -4316.4987   -3919.8859   -4316.4987            0    3412.6841    17.987797     23.38672    21.844828    9189.5855    3329.3789    3027.2484    3881.4249    -1533.296    156.43742   -108.44607   -3462.5156 
 9902000    217.82046   -4338.1157   -3964.7789   -4338.1157            0    1380.3324    18.052174    23.314256    22.040216     9276.132    453.75681    2596.4244    1090.8161   -361.64915    688.69568    382.26573   -3778.0435 
 9903000    217.10675   -4300.3326   -3928.2191   -4300.3326            0    3139.6421    17.886899    23.372141    22.039776    9213.8414    4499.9479    3674.8882    1244.0901   -598.48742   -1165.6219    49.130269   -3506.3315 
 9904000     213.8532   -4328.6258   -3962.0887   -4328.6258            0    3549.8694    17.959443    23.492303    21.900157    9239.8663    4113.6063    2694.8354    3841.1666   -111.21428   -815.34998    434.93501   -3483.7297 
 9905000    215.19991   -4315.9838   -3947.1385   -4315.9838            0    2341.1143    17.987938    23.016762    22.267595    9219.3206    2033.9595    2420.4471    2568.9363    -48.12377   -633.97549   -116.11964   -3632.3656 
 9906000    204.32543   -4330.7646   -3980.5578   -4330.7646            0    3842.9255    18.111893    23.256774    21.729238    9152.8808    2352.0127    2963.3778    6213.3859   -98.119054    525.61255    224.21932   -3467.5834 
 9907000     220.8128   -4332.2479   -3953.7823   -4332.2479            0    2205.2631    17.882647    23.265855    22.156963    9218.5169    2259.0227    2103.4599    2253.3067    521.68526    253.84462    424.92099    -3657.301 
 9908000    221.76006    -4338.842   -3958.7529    -4338.842            0    3541.8116    17.981658    23.396828    21.820732     9180.282    3842.6064    3984.3167    2798.5117   -921.40276    327.75813    -335.2861   -3484.5574 
 9909000    213.25827   -4308.7101   -3943.1927   -4308.7101            0    2929.0985    17.948045    23.483507    21.853944    9211.0667    1909.0301    2143.8276    4734.4376   -908.96708   -560.45976    858.58448   -3549.7153 
 9910000    234.85059   -4318.5898   -3916.0639   -4318.5898            0    2508.0162    17.952475    23.157974    22.169446     9216.791    1438.7864    2825.1437    3260.1183   -584.79787    98.504032      728.983   -3578.9428 
 9911000    209.49989   -4331.2159   -3972.1403   -4331.2159            0    2395.8949    18.153588    23.371883    21.745441    9226.2327    2317.8292    2167.0599    2702.7955    548.62973    65.854546   -800.76002   -3649.7603 
 9912000    217.67363    -4325.668   -3952.5829    -4325.668            0    2403.1379    17.882737    23.145228    22.255745    9211.6534    3282.9316    2745.5572    1180.9249    335.46494   -761.07223   -146.35821   -3629.7393 
 9913000    218.00989   -4310.8613   -3937.1998   -4310.8613            0    2596.3274    18.201994    23.363813    21.701116    9228.7902    1661.9004    2070.5842    4056.4977   -12.414629   -556.75555   -224.45734   -3587.7537 
 9914000     217.7794   -4320.0878   -3946.8213   -4320.0878            0    4700.9746    17.926952    23.280861    21.948571    9160.3433    5207.3842    5546.0104     3349.529    89.167172    288.48853   -365.63211   -3318.7983 
 9915000    213.77465   -4308.8997   -3942.4972   -4308.8997            0    2348.5914    17.936075     23.43516    21.998824     9246.871    2022.6358    2543.0705    2480.0678    772.19559    48.012496   -1308.4012   -3625.7753 
 9916000    217.17497   -4299.7425    -3927.512   -4299.7425            0     929.2923    18.096553    23.390098    21.970727    9299.7725    70.309659    1264.2463    1453.3209   -726.42449    442.66376   -158.10852   -3801.4743 
 9917000    211.86034   -4331.3042   -3968.1829   -4331.3042            0    3679.3668     18.00861    23.070972     22.09134    9178.4245    3820.9238     3757.872    3459.3046   -411.42158    361.07484    -199.2166   -3475.6705 
 9918000    226.91366    -4292.268   -3903.3457    -4292.268            0    2888.9549    18.188114    23.217961    21.734405    9178.2416    2081.3957     3101.881    3483.5881    369.14334   -188.43688    368.08774    -3516.644 
 9919000    229.75539   -4307.4038   -3913.6109   -4307.4038            0    2449.7779    17.813221    23.317245    22.066837     9165.576    2493.0026    2809.7202    2046.6109   -884.92769    506.45451   -458.90352   -3586.1478 
 9920000    224.89032   -4324.6276   -3939.1732   -4324.6276            0    2139.4314    17.853243    23.672673    21.860016    9238.7856    2764.7421      827.909    2825.6431    420.28453    389.47988   -124.48196   -3650.9101 
 9921000    213.29634   -4302.5126     -3936.93   -4302.5126            0     3370.718    17.901568    23.258393    22.030791    9172.7778    3240.4525    4119.2469    2752.4545   -792.55383    679.45793    385.83941   -3486.0103 
 9922000    218.42183    -4319.521   -3945.1535    -4319.521            0    3238.3939    18.030158     23.19418    21.969322    9187.4544    2934.2674    4616.3738    2164.5406   -421.68945   -674.67225   -266.33872   -3511.2424 
 9923000    205.23787    -4298.224   -3946.4533    -4298.224            0    4509.1835    18.076805    23.364264    21.657153    9146.9255    3483.6571    4184.0111    5859.8821    104.42173    36.708478   -385.09552   -3344.9349 
 9924000     207.5506   -4312.6284   -3956.8938   -4312.6284            0    2113.4908    17.907409     23.39918    22.072048    9248.6001     1378.016    3320.6354    1641.8209   -167.42159   -230.28775    1289.6845   -3671.8233 
 9925000    232.99552   -4326.0873    -3926.741   -4326.0873            0    3536.5674    17.973194    23.516244    21.687617    9166.5319    3294.2799    3692.1973    3623.2251    402.13876    258.64082   -93.868781   -3453.9568 
 9926000    207.94263   -4309.3326   -3952.9261   -4309.3326            0    1755.8443    18.002251    23.294768     22.16432    9294.7908    1064.5468    2592.3469    1610.6392    56.714476   -348.20936   -853.93448   -3714.9126 
 9927000    224.77913   -4299.5889   -3914.3251   -4299.5889            0    2750.6205    17.988211    23.194268    22.076779    9210.9487    2205.8724    2788.0555    3257.9337    392.95001    1.3933225    278.08427   -3544.8281 
 9928000    231.22836   -4318.3596   -3922.0421   -4318.3596            0    3725.9955    18.212534    23.261809    21.638034     9167.093    2394.9358    4419.1265    4363.9243     423.7178   -115.69456    306.75718   -3423.9039 
 9929000    213.36867   -4309.7367   -3944.0301   -4309.7367            0    3670.5334    17.882314    23.273444    22.113617     9203.312    5387.9298    2571.4372    3052.2332   -98.060364    1061.6509    338.23049   -3451.3679 
 9930000    215.08382   -4308.6333    -3939.987   -4308.6333            0     3270.393    17.889233    23.566993    21.752053    9170.5665    2392.1953    3280.9976    4137.9861    1760.9189    371.12698    69.898229   -3502.5938 
 9931000    223.35492   -4322.6412   -3939.8185   -4322.6412            0    2861.7711    17.903467    23.378295    22.108881    9253.7283    3244.1941    2594.8549    2746.2644   -185.62603    267.06925    827.75041    -3553.605 
 9932000    239.51249    -4322.942   -3912.4258    -4322.942            0    3182.1352    18.197025    23.271828    21.673821    9178.3871    2665.2406    3946.4867    2934.6783   -430.40791    -256.9371   -48.311818   -3486.4736 
 9933000    211.18414   -4316.3392   -3954.3768   -4316.3392            0    3100.1602    17.974352    23.238959    22.032561    9203.1157    3468.7686    1671.6733    4160.0386    640.02342   -712.54695    169.07741   -3538.2795 
 9934000    226.87974   -4352.5024   -3963.6383   -4352.5024            0    2795.2829    18.045901    23.563285    21.745078    9246.4571    1494.5228    2805.2135    4086.1125   -207.40198   -632.41583   -50.281278   -3586.6942 
 9935000    222.35607    -4302.813   -3921.7023    -4302.813            0    2663.5194    17.706835    23.401505    22.288578    9235.6422    3211.6715    4031.9196    746.96703   -55.372603    23.351358    62.829149   -3562.9465 
 9936000    225.99505    -4312.841   -3925.4932    -4312.841            0    2271.4847    18.064682    23.498958    21.843138    9272.4381    1830.5364    1602.3795    3381.5382   -379.49273   -267.85076    169.56406   -3618.3226 
 9937000    220.65245   -4327.3626   -3949.1719   -4327.3626            0    3245.2398    17.866205    23.446873    22.058925    9240.6298    4092.0085    1910.9827    3732.7281    623.12272    667.47271    -500.6441   -3511.8268 
 9938000    228.03176   -4307.2827   -3916.4441   -4307.2827            0    2211.1015    18.040333    23.317087    22.033629     9268.402    1816.0877    2091.9208    2725.2962   -1099.5737   -119.62239   -471.20278   -3617.5692 
 9939000    204.21923    -4318.869   -3968.8442    -4318.869            0    3004.2844    18.032623    23.323027    21.901349    9211.1673    3221.2908    2387.5699    3403.9925    80.079183   -144.50009    841.34549   -3565.2624 
 9940000    228.86644   -4297.5541   -3905.2848   -4297.5541            0    2918.3606    18.020344    23.174578    22.139417    9245.7272    2255.9082    2996.5736    3502.5999   -63.779043   -955.21462    267.61468   -3511.7747 
 9941000      220.573   -4307.3328   -3929.2783   -4307.3328            0    2160.5291     17.88244    23.556764    21.872213    9213.7224    1358.5955    1879.4162    3243.5755    733.84952    89.185247    126.35324   -3638.9622 
 9942000    215.19644   -4305.6186   -3936.7793   -4305.6186            0    2450.4588    17.944848    23.445477    22.114701    9304.2189     2737.095    2130.9202    2483.3613    1714.9039    1085.8911    281.75765   -3604.2704 
 9943000    222.37387   -4316.6698   -3935.5286   -4316.6698            0    2695.6318    18.108915    23.141287    22.024462    9229.6502    2524.8219    3875.0509    1687.0226    12.801773    152.23712   -974.76401   -3572.6832 
 9944000    230.44959   -4320.5384   -3925.5556   -4320.5384            0     996.9566    18.124098    23.402092    21.937282    9304.5184     742.1615   -513.77199    2762.4803   -756.90568   -628.54032    419.13791   -3790.2718 
 9945000    225.27817   -4331.8546   -3945.7355   -4331.8546            0     2743.223    17.840705    23.448191    22.053628    9225.7436    3759.5385    2000.0625     2470.068    650.62026    88.637029    158.83203   -3576.6403 
 9946000    208.36005   -4300.2041   -3943.0822   -4300.2041            0    2239.9046    18.039407      23.5309    21.811243    9258.5126     1385.295    2117.6165    3216.8021    761.99316   -50.891441   -84.074478    -3640.637 
 9947000     219.0852   -4313.8864   -3938.3819   -4313.8864            0    2077.1651    18.180823    23.068726    22.062758    9253.3067    1161.6285     2554.363    2515.5039    1022.6711    1025.5706     585.5676   -3658.0685 
 9948000    218.70507   -4309.0154   -3934.1624   -4309.0154            0    3870.9805    17.944293    23.217971    22.015224    9172.2046    4202.4207    3417.7506    3992.7703    492.45783     -67.2515    1509.9591   -3416.3521 
 9949000     227.6485   -4312.7755   -3922.5938   -4312.7755            0    2634.9407    17.888541    23.495686    22.008307    9250.1693    3600.4188    1687.1491    2617.2543   -1.3146436    470.19341     509.3597   -3567.1291 
 9950000    210.18356   -4299.1613   -3938.9139   -4299.1613            0    3368.6401    17.790178    23.433001    21.942466     9147.315    3244.6829    1341.7592    5519.4783   -110.07352   -190.39015    509.73377   -3489.5231 
 9951000    223.77646   -4314.2915   -3930.7463   -4314.2915            0    3867.3107    18.038686    23.187291    21.868305    9146.8182     3259.512    4122.5303    4219.8896   -1452.4087    92.310529   -159.23539   -3414.8588 
 9952000      220.583    -4309.809   -3931.7373    -4309.809            0    3367.2916    17.964111    23.049512    22.210443    9196.5448    3437.1294     4007.559    2657.1865    -312.6256   -505.55713    -583.3283   -3480.1088 
 9953000    210.36174   -4319.4525   -3958.8997   -4319.4525            0    2245.8558     17.92143    23.638585     21.90972    9281.7734    1239.4429    1436.0672    4062.0575    324.06681   -115.39843    247.94097   -3654.8891 
 9954000    218.94397   -4336.8306   -3961.5682   -4336.8306            0    2070.8559    17.751421    23.600269    22.054687    9239.5536    2778.6256    1288.1208    2145.8212    258.81036    124.88149    1316.6927   -3682.5216 
 9955000    217.69822   -4333.7894   -3960.6621   -4333.7894            0    3320.5776    18.165975    23.197587    21.846671    9206.3353    3140.7948    3431.3391     3389.599   -696.20218    121.69458   -213.12187   -3514.8249 
 9956000    211.24532   -4319.3827   -3957.3155   -4319.3827            0    3931.5287     17.96961    23.293647     21.91844    9174.5711    3008.5919    3929.8596    4856.1347   -214.08104    164.59594   -417.40857   -3431.2702 
 9957000    226.22238   -4328.8589   -3941.1215   -4328.8589            0    2845.3216    17.769306    23.590204    22.011337    9226.7463    3005.7231    2061.2984    3468.9434    356.44673   -242.33397   -516.39283   -3558.2475 
 9958000    232.85782   -4328.4524   -3929.3421   -4328.4524            0    3571.1602    18.078903    23.409608    21.785367     9220.004    3004.9191    3300.8743    4407.6871    980.00977   -37.304126   -637.13434   -3449.1485 
 9959000     225.8613   -4330.2237   -3943.1051   -4330.2237            0    2474.2775      17.9453    23.303871    22.105703    9244.4934    2947.0999    2816.4995    1659.2329   -235.99126   -367.07221    913.05346   -3609.5194 
 9960000    227.35475   -4305.7205   -3916.0423   -4305.7205            0    4268.9013    18.153322    23.355782    21.705601    9202.8503    3113.3628    3655.3319     6038.009   -662.50501    774.09358   -682.73062   -3343.0954 
 9961000    218.50411   -4323.5223   -3949.0138   -4323.5223            0     3929.263     17.87532    23.135522    22.228581    9192.7379    4572.2981    4284.3201    2931.1709    -898.9387    264.73069    176.97581   -3422.2306 
 9962000    215.18155   -4307.2023   -3938.3885   -4307.2023            0    3627.5146    17.986441    23.274292    21.939855    9184.4987    3643.0499    3631.6534    3607.8404    258.79728    117.30758     631.6702   -3452.4956 
 9963000    229.76166   -4321.5803   -3927.7766   -4321.5803            0    2468.5899    17.970256    23.592885    21.873708    9273.7997    2418.4203    2301.5315     2685.818    355.17382   -143.74836   -127.41748   -3593.9027 
 9964000    221.48692   -4332.7333   -3953.1123   -4332.7333            0    4009.2654    17.925589    23.226905    22.070703    9189.2684    4191.4643    5020.2404    2816.0915    93.682484    448.79484    17.048495   -3415.8063 
 9965000    205.60206   -4341.0173   -3988.6225   -4341.0173            0    3279.7167    18.071946    23.550155    21.696687    9234.0477    1830.9236    4248.6344    3759.5922   -594.04346   -27.689996   -300.76673   -3546.9459 
 9966000    210.21816   -4312.8214   -3952.5147   -4312.8214            0    2247.3474    17.829748    23.421992    22.159505    9253.9914       3113.2    744.99712     2883.845    -447.1683    149.57969    959.03004   -3649.2127 
 9967000     215.2168   -4334.7936   -3965.9194   -4334.7936            0    3069.3914    18.010352    23.354563    21.922105    9220.9616    3938.9952    1592.6802    3676.4989    2132.6585   -370.70271   -21.531209    -3553.153 
 9968000     226.8701   -4324.3331   -3935.4855   -4324.3331            0    3614.6497    17.976387    23.323016    21.926606    9193.0269    3677.9878    2821.9373    4344.0239    640.05169    508.88891   -686.77739   -3450.8663 
 9969000    230.51381   -4323.0323   -3927.9396   -4323.0323            0     3616.439    17.933129    23.266474    22.164869     9248.085    4158.4438    3407.9157    3282.9574   -1407.8807    30.800579    37.777924   -3440.1766 
 9970000    229.38153   -4363.2087   -3970.0567   -4363.2087            0    3474.5524    18.016926    23.501602    21.732948    9202.3086    4143.8949    2374.3448    3905.4175     84.02362   -64.574188    917.56574   -3503.7501 
 9971000    227.52296   -4328.9342   -3938.9676   -4328.9342            0    3396.0983    17.810082    23.133622    22.312194    9192.8853    3557.0635    3759.5563    2871.6752    243.95381    118.09732    792.73432   -3483.6568 
 9972000     218.8419   -4337.3351   -3962.2476   -4337.3351            0    2842.4436     18.06957    23.387117    21.835529    9227.5887    4051.4332    2584.6677    1891.2299   -1847.5162   -889.70032    395.85075    -3579.726 
 9973000    215.71847   -4323.5252   -3953.7912   -4323.5252            0    3410.6032    17.841751    23.301011    22.116817     9194.643    4036.4085    3144.5288    3050.8725    285.94058   -387.08327   -340.05508   -3496.4482 
 9974000    227.72756   -4334.1155   -3943.7982   -4334.1155            0    2392.4412    18.030541    23.472912     21.85675    9250.4174    3065.0847    2957.6615    1154.5773    452.47371    792.28446    236.51798   -3621.0391 
 9975000    221.94077    -4335.075   -3954.6761    -4335.075            0     4431.919    17.935267    23.310122    21.880712    9147.7407    3550.6011     4920.633     4824.523    425.33074    38.627891   -283.42994    -3363.412 
 9976000    219.39255   -4311.8679   -3935.8366   -4311.8679            0    3464.0258    17.817511    23.339172    22.075755     9180.113    2743.2772    3740.7985    3908.0017    193.59471   -494.22815    63.231508   -3472.0641 
 9977000    234.36578   -4289.2346   -3887.5397   -4289.2346            0    2252.2392    18.160876    23.362979    21.735137    9222.0486    1010.7699    2324.4393    3421.5083   -755.77612   -293.49555   -303.10633   -3584.6268 
 9978000    219.91948   -4303.2791   -3926.3447   -4303.2791            0    2552.6188    18.113342    23.208845    22.064591    9275.7281    2496.5641    2318.0373    2843.2551    541.14733   -277.86336   -89.949695   -3581.0341 
 9979000    226.42587   -4325.5198   -3937.4336   -4325.5198            0    997.58173    17.961717    23.579192    22.132933     9373.801    1173.5001    1042.0551    777.18998    848.56156    206.71245   -147.29318    -3801.057 
 9980000    223.32348   -4297.3344   -3914.5656   -4297.3344            0    425.90622    18.035185    23.579323     21.98914    9351.0454    924.87547    635.22145   -282.37826   -750.43838   -158.38314    938.42452   -3856.4824 
 9981000    217.19394   -4288.1403   -3915.8773   -4288.1403            0    2647.4594       17.956    23.245336    22.094016    9221.8933    3928.4139    3521.5778    492.38648    1.0791391    209.12333   -460.60215   -3559.8156 
 9982000    217.97592   -4307.1156   -3933.5123   -4307.1156            0    3316.5511    18.175818    23.382792    21.619842    9188.4622    2635.8238    3434.6467    3879.1827    -956.8518   -486.23353    315.55018   -3489.0802 
 9983000    209.20313    -4307.348    -3948.781    -4307.348            0    3807.6044     17.92795    23.146985    22.130818    9183.8024    4521.1172     3644.006      3257.69    271.87199    570.06084   -162.80101   -3438.8044 
 9984000    229.07389   -4313.6873   -3921.0625   -4313.6873            0    2725.5992    18.023138    23.397261    21.912631    9240.3829     2871.083    2116.5049    3189.2097    1309.4037   -556.05222    195.14977   -3553.7566 
 9985000    206.36813   -4311.9262   -3958.2183   -4311.9262            0    2610.2951    17.576793    23.860722    21.962784    9211.0809    3974.0641    1267.5409    2589.2802    388.18043   -98.418072   -916.51202   -3607.5665 
 9986000     215.5501   -4309.8325    -3940.387   -4309.8325            0    4110.4629    17.909393    23.388138    21.868131    9159.8461    2454.1734      4896.35    4980.8654    40.577363   -29.838957   -427.71248   -3391.2828 
 9987000    224.11785   -4324.8218   -3940.6914   -4324.8218            0    1906.8907    18.236308    23.200182    21.930179    9278.3444      920.004     3439.617    1361.0512    419.33921   -305.29707    264.42039   -3682.6603 
 9988000    222.26438     -4304.86   -3923.9065     -4304.86            0    2652.3321    18.088891    23.227789    21.975929    9233.5151    2022.2591     3181.709    2753.0281   -232.05492   -68.268767    412.50724   -3566.7399 
 9989000    228.92679   -4325.2696    -3932.897   -4325.2696            0    2256.4293    17.734426    23.665733    22.009025     9237.148    2783.8574    2142.6442    1842.7863    56.333024    -123.0307    528.50665   -3628.9236 
 9990000    220.84308   -4313.7497   -3935.2322   -4313.7497            0     2337.403    17.813184    23.453923     22.02883     9203.404    2667.8514    2043.0421    2301.3154    777.81278    173.61563    233.52852   -3621.5008 
 9991000    217.58753   -4332.9502   -3960.0126   -4332.9502            0    3519.9733     18.00761    23.383724    21.752571    9159.6813    3082.8532    3239.1647    4237.9021    829.22043   -341.40277    898.08823   -3489.7985 
 9992000    220.29989   -4310.7495   -3933.1631   -4310.7495            0    4166.2447    18.142349    23.162062    21.809507    9164.6647    2991.2816    5851.5146    3655.9378   -394.77545    340.01385   -318.24978   -3376.3143 
 9993000     228.8786   -4306.3974   -3914.1073   -4306.3974            0    2066.1203    18.014829    23.287471    22.103943    9273.0421    2914.2209    3396.9826   -112.84246    33.966294    302.30437    7.2135502   -3634.6897 
 9994000    228.43311   -4318.5546    -3927.028   -4318.5546            0    2767.6899     17.88281     23.53615    21.899437    9217.3088    3728.3715    3922.6254    652.07283     581.1388   -268.35508   -474.93025   -3554.9813 
 9995000    228.73116   -4305.0612   -3913.0238   -4305.0612            0    2986.3518    18.028994    23.590937    21.909104    9318.3991    3533.4903    2239.8379    3185.7273   -924.68312   -339.88037    522.13473   -3507.1807 
 9996000     222.2942   -4326.2736   -3945.2689   -4326.2736            0    1389.6021    17.939214    23.302708    22.240459    9297.2295    1184.5169    2359.8897    624.39977   -8.1796743   -410.89013    418.91253    -3756.852 
 9997000    210.15503   -4303.4034   -3943.2049   -4303.4034            0    1569.1832    18.189736     23.42413    21.818437    9296.3719    517.00233    2146.4787    2044.0686   -261.83927   -233.16036    280.08947   -3730.4581 
 9998000    230.17607   -4311.3904   -3916.8765   -4311.3904            0    1502.4402    18.125268    23.193834    22.088595    9285.9232    1391.8711    2096.4312    1019.0182   -947.88505   -579.38459    155.04912   -3713.4075 
 9999000    210.07415   -4319.2297   -3959.1698   -4319.2297            0    3339.7047    17.946639    23.437501    21.862346    9195.8356    3965.9201    3880.1535    2173.0407   -822.68212   -13.064596    840.81881   -3511.2759 
10000000    231.85446   -4306.1323   -3908.7417   -4306.1323            0    1725.8718      18.0965    23.471924    21.898901      9301.77    2714.5157    1195.5406    1267.5591    189.55526    581.41509     36.44165   -3674.6155 
Loop time of 369.258 on 64 procs for 250000 steps with 864 atoms

Performance: 116.991 ns/day, 0.205 hours/ns, 677.033 timesteps/s
193.3% CPU use with 32 MPI tasks x 2 OpenMP threads

MPI task timing breakdown:
Section |  min time  |  avg time  |  max time  |%varavg| %total
---------------------------------------------------------------
Pair    | 17.473     | 24.935     | 33.269     | 100.0 |  6.75
Bond    | 0.90678    | 1.0275     | 1.22       |   7.0 |  0.28
Kspace  | 183.01     | 193.8      | 203.42     |  39.9 | 52.48
Neigh   | 1.1829     | 1.2936     | 1.4284     |   5.5 |  0.35
Comm    | 55.767     | 60.442     | 64.143     |  23.6 | 16.37
Output  | 1.0103     | 1.0106     | 1.0121     |   0.0 |  0.27
Modify  | 67.028     | 68.343     | 71.795     |  13.6 | 18.51
Other   |            | 18.41      |            |       |  4.98

Nlocal:        27.0000 ave          40 max          15 min
Histogram: 1 3 7 3 5 3 2 1 5 2
Nghost:        2124.41 ave        2237 max        2025 min
Histogram: 9 7 0 0 0 0 0 4 8 4
Neighs:        6542.75 ave        9608 max        3707 min
Histogram: 2 4 4 5 3 3 3 3 3 2

Total # of neighbors = 209368
Ave neighs/atom = 242.32407
Ave special neighs/atom = 2.0000000
Neighbor list builds = 4832
Dangerous builds = 0

unfix		3
unfix		2
unfix		1

write_data	data.final.${pid} nocoeff
write_data	data.final.0 nocoeff
System init for write_data ...
PPPM initialization ...
  extracting TIP4P info from pair style
  using 12-bit tables for long-range coulomb (../kspace.cpp:340)
  G vector (1/distance) = 0.37173251
  grid = 24 27 25
  stencil order = 5
  estimated absolute RMS force accuracy = 0.0031489506
  estimated relative force accuracy = 9.4829711e-06
  using double precision FFTW3
  3d grid and FFT values/proc = 4410 672
Last active /omp style is kspace_style pppm/tip4p/omp

write_restart   restart.lmp.${pid}
write_restart   restart.lmp.0
System init for write_restart ...
PPPM initialization ...
  extracting TIP4P info from pair style
  using 12-bit tables for long-range coulomb (../kspace.cpp:340)
  G vector (1/distance) = 0.37173251
  grid = 24 27 25
  stencil order = 5
  estimated absolute RMS force accuracy = 0.0031489506
  estimated relative force accuracy = 9.4829711e-06
  using double precision FFTW3
  3d grid and FFT values/proc = 4410 672
Last active /omp style is kspace_style pppm/tip4p/omp
Total wall time: 0:06:09
