LAMMPS (30 Jul 2021)
Processor partition = 1
  using 4 OpenMP thread(s) per MPI task
using multi-threaded neighbor list subroutines
variable        pid world 0 1
variable        phase world IceII IceIh

shell cd ${phase}
shell cd IceIh
include Restart.lmp
echo both
log log.lammps
#include		in.partitions
include		in.temp
variable        temperature equal 32.60
variable	tempDamp equal 100.0
include		in.pressure
variable        pressure equal 2000.3
variable        pressureDamp equal 1000.0 # This is 1 ps
include		in.seed
variable        seed equal 745823

units		real
atom_style	full
#include		in.box
read_restart	restart.lmp.${pid}
read_restart	restart.lmp.1
Reading restart file ...
  restart file = 30 Jul 2021, LAMMPS = 30 Jul 2021
  restoring atom style full from restart
  orthogonal box = (0.13033285 0.15687069 0.20512672) to (18.077240 23.472307 22.008069)
  2 by 4 by 2 MPI processor grid
  restoring pair style lj/cut/tip4p/long/omp from restart
  restoring bond style harmonic/omp from restart
  restoring angle style harmonic/omp from restart
  864 atoms
  576 bonds
  288 angles
Finding 1-2 1-3 1-4 neighbors ...
  special bond factors lj:    0        0        0       
  special bond factors coul:  0        0        0       
     2 = max # of 1-2 neighbors
     1 = max # of 1-3 neighbors
     1 = max # of 1-4 neighbors
     2 = max # of special neighbors
  special bonds CPU = 0.001 seconds
  read_restart CPU = 0.006 seconds
include 	in.setup
variable	out_freq equal 1000
variable	out_freq2 equal 10000
variable	out_freq3 equal 1000

timestep	2.0

neigh_modify    delay 7 every 1

include		in.tip4p
# This is TIP4P/Ice

# create groups ###
group ox type 2
288 atoms in group ox
group hy type 1
576 atoms in group hy

# set charges - beside manually ###
set group ox charge -1.1794
Setting atom values ...
  288 settings made for charge
set group hy charge 0.5897
Setting atom values ...
  576 settings made for charge

# ### TIP3P Potential Parameters ###
pair_style lj/cut/tip4p/long/omp 2 1 1 1 0.1577 8.5
pair_coeff 1 1*2 0.000 0.000
pair_coeff 2 2 0.21084 3.1668
bond_style  harmonic
bond_coeff  1 450 0.9572
angle_style harmonic
angle_coeff 1 55 104.52
kspace_style pppm/tip4p/omp 1.0e-5
pair_modify tail yes

thermo          ${out_freq}
thermo          1000
thermo_style    custom step temp pe etotal epair emol press lx ly lz vol pxx pyy pzz pxy pxz pyz enthalpy

restart 	${out_freq3} restart.lmp.${pid} restart2.lmp.${pid}
restart 	1000 restart.lmp.${pid} restart2.lmp.${pid}
restart 	1000 restart.lmp.1 restart2.lmp.${pid}
restart 	1000 restart.lmp.1 restart2.lmp.1


include         in.dump
dump            myDump all atom ${out_freq2} dump.water.${pid}
dump            myDump all atom 10000 dump.water.${pid}
dump            myDump all atom 10000 dump.water.1
dump            myDump2 all dcd ${out_freq2} dump.dcd
dump            myDump2 all dcd 10000 dump.dcd
dump_modify     myDump append yes
dump_modify     myDump2 append yes


variable natoms 	equal  "count(all)"                        # NUMBER ATOMS
variable H      	equal  "enthalpy/v_natoms"                 # ENTHALPY-per-atom
variable Vol      	equal  "vol/v_natoms"                 # volume-per-atom
fix AVG all 		ave/time ${out_freq} 1 ${out_freq} v_Vol v_H file vol_enthalpy.dat
fix AVG all 		ave/time 1000 1 ${out_freq} v_Vol v_H file vol_enthalpy.dat
fix AVG all 		ave/time 1000 1 1000 v_Vol v_H file vol_enthalpy.dat


timer           timeout 23:50:00 every 1000
New timer settings: style=normal  mode=nosync  timeout=23:50:00

fix 		1 all shake 1e-6 200 0 b 1 a 1
Finding SHAKE clusters ...
       0 = # of size 2 clusters
       0 = # of size 3 clusters
       0 = # of size 4 clusters
     288 = # of frozen angles
  find clusters CPU = 0.000 seconds
fix             2 all nph aniso ${pressure} ${pressure} ${pressureDamp}
fix             2 all nph aniso 2000.3 ${pressure} ${pressureDamp}
fix             2 all nph aniso 2000.3 2000.3 ${pressureDamp}
fix             2 all nph aniso 2000.3 2000.3 1000
fix             3 all temp/csvr ${temperature} ${temperature} ${tempDamp} ${seed}
fix             3 all temp/csvr 32.6 ${temperature} ${tempDamp} ${seed}
fix             3 all temp/csvr 32.6 32.6 ${tempDamp} ${seed}
fix             3 all temp/csvr 32.6 32.6 100 ${seed}
fix             3 all temp/csvr 32.6 32.6 100 745823


run             250000
PPPM initialization ...
  extracting TIP4P info from pair style
  using 12-bit tables for long-range coulomb (../kspace.cpp:340)
  G vector (1/distance) = 0.37222613
  grid = 24 27 25
  stencil order = 5
  estimated absolute RMS force accuracy = 0.0030960375
  estimated relative force accuracy = 9.323625e-06
  using double precision FFTW3
  3d grid and FFT values/proc = 6300 1296
Last active /omp style is kspace_style pppm/tip4p/omp
Neighbor list info ...
  update every 1 steps, delay 7 steps, check yes
  max neighbors/atom: 2000, page size: 100000
  master list distance cutoff = 10.8154
  ghost atom cutoff = 10.8154
  binsize = 5.4077, bins = 4 5 5
  1 neighbor lists, perpetual/occasional/extra = 1 0 0
  (1) pair lj/cut/tip4p/long/omp, perpetual
      attributes: half, newton on, omp
      pair build: half/bin/newton/omp
      stencil: half/bin/3d
      bin: standard
Setting up Verlet run ...
  Unit style    : real
  Current step  : 41750000
  Time step     : 2
  Walltime left : 23:49:59.95
Per MPI rank memory allocation (min/avg/max) = 12.26 | 12.29 | 12.31 Mbytes
Step Temp PotEng TotEng E_pair E_mol Press Lx Ly Lz Volume Pxx Pyy Pzz Pxy Pxz Pyz Enthalpy 
41750000    33.000798   -4679.7033   -4623.1411   -4679.7033            0    1776.2941    17.946907    23.315436    21.802942    9123.2224    1844.0725    1757.8603    1726.9495    108.13181   -277.51433    26.697803   -4386.8001 
41751000    33.572585   -4685.6206   -4628.0784   -4685.6206            0    1516.6822    17.956721    23.399567    21.732226    9131.4359     1546.779    1355.0203    1648.2471   -350.01007    110.79954   -254.41713   -4426.0978 
41752000    34.389651    -4687.261   -4628.3183    -4687.261            0     1754.542     17.92478    23.264655    21.866599    9118.6741    1633.0047    1945.9733    1684.6482    70.866236   -244.99541     -7.89182   -4394.9879 
41753000    32.971281    -4685.444   -4628.9324    -4685.444            0    1876.1555    17.915379    23.140264    21.992647    9117.4173    2083.3583    1751.6332    1793.4748   -110.07989   -303.59296   -64.372005   -4379.4634 
41754000    30.703648   -4684.5924   -4631.9674   -4684.5924            0    1798.8486    17.895693    23.157343    21.996408    9115.6788    1662.7536    2413.3028    1320.4894    75.059803    264.13139    71.944436   -4392.8234 
41755000    32.353318   -4680.2522   -4624.7997   -4680.2522            0    2198.0428    18.030682    23.080669    21.882106    9106.4614    2284.9101    2317.1646    1992.0537   -322.37404    -171.0044    1.8090204   -4332.8812 
41756000     32.06482   -4680.4723   -4625.5143   -4680.4723            0    2060.3609    17.854726    23.355407    21.857468    9114.6603    2279.1219    1691.6658    2210.2949    461.50249    -313.9493    156.25959   -4351.6347 
41757000    32.598998   -4682.6962   -4626.8226   -4682.6962            0    1774.0593    17.913892    23.330933    21.834347    9125.6181    1522.6583    1567.6456    2231.8741   -76.763167   -34.801418   -16.747666    -4390.717 
41758000    33.396633   -4680.5132   -4623.2725   -4680.5132            0     2300.485    17.994818    23.169392    21.828062    9100.7516    2183.4921    2546.4371    2171.5257    85.525388    166.11159  -0.77437349   -4317.9404 
41759000     34.17494   -4681.7345   -4623.1598   -4681.7345            0    2007.4618    17.913809    23.287446    21.840865     9111.285    2261.2125    1860.4173    1900.7558   -277.98418   -138.67255      22.7442   -4356.4108 
41760000    33.759869   -4684.4088   -4626.5456   -4684.4088            0    1627.9291    17.891805    23.331927    21.872214    9130.5621    1776.4902    1084.3003    2022.9967    120.51423    50.944364    178.84772   -4409.7707 
41761000     32.70021   -4683.7713   -4627.7243   -4683.7713            0    1756.5391    17.924677    23.330556    21.819444    9124.7319     1493.581    1574.2946    2201.7416   -159.63595   -369.78226   -121.66867   -4393.9731 
41762000    34.385355   -4679.2489   -4620.3136   -4679.2489            0    2009.9436    17.824445    23.280981     21.94331    9105.8278    2154.5812    1975.9723    1899.2774    101.19839   -48.589896   -241.69356   -4353.3948 
41763000    33.136785   -4680.5389   -4623.7436   -4680.5389            0    2098.8133    17.893832    23.232313    21.909132    9107.9573    2364.4964    1947.0356    1984.9079    25.889609    119.16344    147.13701   -4344.9577 
41764000    31.546119   -4683.0944   -4629.0255   -4683.0944            0    2225.4446    17.866242    23.197544     21.96541    9103.6288    2258.0299    2416.0973    2002.2065    207.99337   -276.99988    114.99662   -4333.5597 
41765000    32.812245   -4683.7171    -4627.478   -4683.7171            0    2284.2109    17.898386    23.265548    21.856539    9101.4072    2238.4479    2165.3612    2448.8235   -65.675018    88.200136   -54.705446    -4324.284 
41766000    33.394068   -4684.9601   -4627.7238   -4684.9601            0    2015.6181    17.869462    23.359056    21.834406    9113.9816     1580.976    1707.8504    2758.0279   -284.16912    421.12907    2.6645902   -4359.8118 
41767000    31.560233   -4681.3735   -4627.2803   -4681.3735            0    2042.4513    17.914936    23.324772    21.828924    9121.4736    2139.0922    1993.2186    1995.0432   -231.87553   -275.96552    65.047451   -4355.5785 
41768000    31.918937   -4685.5397   -4630.8317   -4685.5397            0    1889.8189    17.861862    23.355426    21.847922    9114.3283    2190.4108    1721.8021    1757.2438    -274.2425    26.006751    105.01087    -4379.631 
41769000    32.412133   -4682.2651   -4626.7118   -4682.2651            0    2183.0656    17.936802    23.218612     21.87661    9110.9002    1909.8296    2376.8137    2262.5534    527.20533    109.81584   -226.77057   -4336.6411 
41770000    32.062899   -4684.6106   -4629.6559   -4684.6106            0    2410.2089    17.886768    23.215608    21.918263    9101.6071    2469.0586     2488.619    2272.9491   -375.19784   -95.676969   -38.551863   -4309.7305 
41771000     32.74479   -4686.7619   -4630.6385   -4686.7619            0    1933.1233    17.917201    23.258218    21.884156    9119.6132    1958.2124    1575.7937    2265.3639    -275.8073    176.87265    363.52981   -4373.5327 
41772000    33.977199   -4682.4407    -4624.205   -4682.4407            0    2004.3279    17.963901    23.169609    21.887892    9110.1029    1594.8924     2494.489    1923.6024   -264.14199    127.80766    153.89971   -4357.9069 
41773000    30.276371   -4682.9118   -4631.0191   -4682.9118            0    1760.7551    17.922622    23.228659    21.920322    9125.8353    1637.7557    1735.3593    1909.1502   -411.67691   -388.04791    109.32559   -4396.6786 
41774000    34.520201    -4681.061   -4621.8945    -4681.061            0    1501.3641    17.892231    23.343384    21.890836    9143.0407    1600.2003    1566.5206    1337.3714    -391.4301   -61.740956    321.62525   -4421.6998 
41775000    32.136275    -4681.687   -4626.6065    -4681.687            0    1696.7464    17.916877    23.237776    21.922604    9127.4407    1509.7664    1992.4006    1588.0721    124.75768    83.849145    73.358644   -4400.7452 
41776000    34.266751   -4681.2358   -4622.5038   -4681.2358            0    1726.3188     17.93278    23.156268    21.991245    9132.0021     1960.153    1433.2599    1785.5434    117.72019    53.566459    124.99954   -4392.5911 
41777000    33.385726   -4680.6726   -4623.4506   -4680.6726            0     2079.142    17.905765    23.344477    21.809565    9116.4136    1955.7282    1878.1285    2403.5694   -974.91161     170.1397    240.95785   -4347.0213 
41778000    31.949895    -4682.672    -4627.911    -4682.672            0    2286.3353     17.85258    23.391644    21.778313    9094.6494    2419.7064    2436.3182    2002.9812     6.980365    242.52631   -73.177138   -4324.6603 
41779000    32.433072   -4685.6604   -4630.0713   -4685.6604            0    2205.5816    17.918762    23.275865    21.829352    9104.4703    2965.6231    1673.8361    1977.2858   -31.417412   -183.93202    61.048774   -4337.2155 
41780000    34.410062   -4683.3628   -4624.3852   -4683.3628            0     1851.246    17.842842    23.298221    21.939176    9120.2572     1718.049    2426.5549    1409.1341   -430.97173    -18.06435    458.44522   -4378.1517 
41781000    34.138779   -4681.8906   -4623.3779   -4681.8906            0    1826.2776    17.892066    23.220488    21.965976    9126.0394    1890.5369    1824.7047    1763.5912    -168.1062    114.99749   -61.907439   -4380.3115 
41782000    31.886434   -4679.4029   -4624.7507   -4679.4029            0    1779.2471    17.917574     23.15469    22.027967    9138.8721    1975.1742    1904.8516    1457.7156   -488.22628   -211.95757    44.367187   -4387.6107 
41783000    31.724514   -4680.7557    -4626.381   -4680.7557            0     2504.205    17.910785    23.221828     21.86142    9092.6271    2073.1341      2662.36    2777.1209    144.54627    24.224925    156.99944   -4294.3068 
41784000    31.661872   -4685.0273   -4630.7599   -4685.0273            0    1857.0001    17.855757    23.327661    21.878388    9113.0717    1665.8931    2068.9535    1836.1537   -144.24966    141.84288   -293.98268   -4383.9557 
41785000    30.982133   -4685.1212   -4632.0189   -4685.1212            0    1861.1331    17.919734    23.253364    21.886858    9120.1249    1603.3503    1697.0206    2283.0286   -174.94341   -187.37501    194.10789   -4384.4739 
41786000     31.98707   -4684.0327    -4629.208   -4684.0327            0    1927.6517    17.922758    23.234813    21.884569    9113.4334    1492.1659    1922.9433    2367.8459   -106.09981    255.78233    176.93052   -4373.0036 
41787000    32.773836   -4682.1819   -4626.0087   -4682.1819            0    1855.8197    17.943497    23.247034    21.841526    9110.8234    1537.0641    1900.8433    2129.5516   -16.008993   -119.96375   -316.42933   -4379.4222 
41788000    33.428106   -4683.8602   -4626.5656   -4683.8602            0    1993.0113    17.872702    23.286274    21.908206    9117.9465    2210.6484    1817.0988    1951.2866   -17.967622    22.405481    118.01172   -4361.5431 
41789000    31.749977   -4681.0807   -4626.6623   -4681.0807            0    2007.2532    17.838956    23.425695    21.778306    9100.9355     2118.733    1696.1271    2206.8995   -184.12288    -125.1247      179.424    -4360.244 
41790000    32.607538   -4683.9764   -4628.0882   -4683.9764            0     1917.114    17.823406    23.292201    21.938749    9107.7915    1978.8772    2250.1718     1522.293   -99.972579   -182.00768     48.79722   -4373.4421 
41791000    32.692939   -4684.4892   -4628.4546   -4684.4892            0    2012.5796    17.929284    23.276812    21.852966    9120.0423    1954.7557    1915.9466    2167.0364   -139.94758   -95.127224   -104.67568   -4360.7685 
41792000    32.863423   -4684.4569   -4628.1301   -4684.4569            0    1602.7558    17.943693    23.261317    21.881349    9133.1425    1668.1689    1589.5352    1550.5632   -327.26718   -57.613875    268.36929    -4414.647 
41793000    32.980067   -4682.8763   -4626.3496   -4682.8763            0    2036.5691    17.920531    23.226696    21.903417    9116.9628    1903.7664    2298.4077    1907.5331   -413.43318   -203.03812   -296.23138   -4355.5642 
41794000    33.721547    -4683.835   -4626.0374    -4683.835            0    1928.4297    17.986053    23.178919    21.878701    9121.1705    1961.8691    2132.4356    1690.9844    46.867561   -35.815848    133.25902    -4369.512 
41795000    30.799753   -4685.9719   -4633.1822   -4685.9719            0    1393.8779    17.896306    23.345618    21.871821    9138.0539    1374.5146    1372.1597    1434.9593   -252.38421   -64.952317    39.955898   -4447.4212 
41796000    33.423827    -4682.532   -4625.2447    -4682.532            0    2059.5968    17.875151    23.281655    21.905698    9116.3429    2286.8195    1800.2628     2091.708   -46.514445     106.3075    96.915924   -4351.4161 
41797000    31.974169   -4683.7814   -4628.9788   -4683.7814            0    2501.3456    17.897492    23.278501    21.834762    9096.9464     2184.911    2874.6277    2444.4981    216.90319   -145.06832    320.60324   -4297.1262 
41798000    33.375717   -4683.4253   -4626.2205   -4683.4253            0    2205.9996    17.942221    23.206225    21.871989    9106.8672    2146.3919    2361.1276    2110.4794    269.49014   -129.54409     53.17226   -4333.2321 
41799000    32.686242   -4681.2084   -4625.1853   -4681.2084            0    1691.5214    17.836467    23.354433    21.919345    9130.7348    1926.6955    1555.0847     1592.784    274.68736    93.086648     3.045735   -4399.9383 
41800000    31.407581   -4682.5251   -4628.6936   -4682.5251            0    1786.0971    17.900391     23.29855    21.876174    9123.5272    1916.5025    1708.9919     1732.797   -191.20782   -84.648533    39.561022   -4391.0404 
41801000    33.653097   -4682.6471   -4624.9669   -4682.6471            0    1722.3164    17.896744    23.314453    21.884883    9131.5286    1944.5547     1021.932    2200.4625   -414.00579    13.633972   -204.14312   -4395.5991 
41802000    33.828635   -4684.8987   -4626.9176   -4684.8987            0    2479.6298    17.893561    23.278597    21.843026    9098.4284     1942.816    3024.9983     2471.075   -261.86249    83.774673    22.461035   -4297.8925 
41803000    32.577273   -4685.8358   -4629.9995   -4685.8358            0    2022.4396    17.890735    23.289361    21.875252    9114.6248    2576.5396     1919.716    1571.0633    9.9942347    -308.2252    157.19533   -4361.1618 
41804000     33.26162   -4681.9982    -4624.989   -4681.9982            0     2078.146    17.961097     23.22676    21.867005    9122.4353    1809.9285    2346.0775     2078.432    -115.4657    249.44045   -86.773032   -4348.5096 
41805000    31.888876   -4680.0021   -4625.3457   -4680.0021            0     2571.819    17.947976    23.156888    21.860948    9085.8312    2154.5454    2971.6672    2589.2444    104.77267    240.25422    367.43552   -4284.5603 
41806000    33.898058   -4680.3502     -4622.25   -4680.3502            0    2160.2497    17.921111    23.263357    21.843053    9106.4823     2007.451     2021.511     2451.787    312.76207   -345.18449     93.85013   -4335.3501 
41807000    33.308924   -4683.9122   -4626.8219   -4683.9122            0     2429.897    17.953745    23.209583    21.840758    9101.0206     1899.527    2504.5951    2885.5688   -277.63332   -83.771307   -140.16954   -4304.3039 
41808000    31.857145    -4681.772   -4627.1699    -4681.772            0    2154.5501    17.915518    23.206034    21.907407    9107.9631    2106.1955    2547.9546    1809.5001   -216.00807    71.848745    -42.79945   -4340.9804 
41809000    34.205742   -4685.4475   -4626.8201   -4685.4475            0    1993.3621    17.950622    23.239602    21.848203    9114.3123    1605.1363     2428.731     1946.219    468.49795   -162.24851    313.34907   -4361.8566 
41810000    31.358482    -4685.397   -4631.6496    -4685.397            0    2229.8018    17.826418    23.354192    21.866382    9103.4471    2747.8882    2212.4382     1729.079   -211.86604    39.725322   -111.67562   -4335.6112 
41811000      32.4511   -4683.5049   -4627.8849   -4683.5049            0    1779.4542    17.838156    23.378532    21.883414    9126.0381    2309.4914    1638.9384    1389.9327   -299.37078    19.980814    73.234463   -4391.0503 
41812000    32.955956    -4682.446   -4625.9606    -4682.446            0    2040.8034    17.881449    23.282074    21.910571    9121.7477    1904.4538     2628.389    1589.5674   -417.60811   -158.30812    195.29536   -4354.4698 
41813000    33.543261   -4680.3524   -4622.8604   -4680.3524            0    1929.9969    17.839719    23.267521    21.962493    9116.3241    2324.9711    2036.3802    1428.6395    227.72954   -102.93371   -165.09857   -4366.2629 
41814000    33.190724   -4684.1563   -4627.2685   -4684.1563            0    1803.2774    17.870983     23.36933    21.846798    9123.9418     1816.275     1878.389    1715.1681    73.784801   -53.880861    -308.2447   -4387.3184 
41815000    31.945864   -4685.4212    -4630.667   -4685.4212            0    2013.3867     17.84734     23.26995    21.921098    9103.9789    2436.0478    2073.5641    1530.5484   -461.87833   -47.160688    139.47105   -4363.3453 
41816000    33.894329   -4682.8331   -4624.7394   -4682.8331            0    2177.7101    17.882043    23.330297    21.845199    9113.6723    2575.7133    2251.6095    1705.8075   -425.30183    10.413506    307.00581   -4335.2922 
41817000    31.280693    -4686.458   -4632.8439    -4686.458            0    2067.8095    17.937953    23.241483    21.875163    9119.8568    1905.9685    2360.2931    1937.1668   -98.406199   -2.7307488    3.9661386   -4357.8175 
41818000    31.342808   -4681.5266   -4627.8061   -4681.5266            0    2089.3438     17.91463    23.221804    21.905482    9112.8999    2321.8473    2323.1325    1623.0517   -72.487788   -58.249944    462.39719   -4350.1275 
41819000    31.244448   -4686.9028   -4633.3509   -4686.9028            0     1996.522    17.968831    23.295619     21.78594    9119.4862    1768.2625    1628.4346    2592.8689   -140.03722   -20.787025    204.10618   -4367.8168 
41820000    32.942844   -4684.4834   -4628.0205   -4684.4834            0    1737.8298    17.854581    23.284474    21.974497    9135.5572    1604.4739     1736.902    1872.1136    175.22699    95.523657   -35.676882   -4396.4846 
41821000    32.467359   -4683.1834   -4627.5355   -4683.1834            0    1803.2015    17.939669     23.23261     21.90889    9131.3044    1624.5759    1778.9203    2006.1084   -220.90779   -241.24911   -145.69031   -4387.4018 
41822000    34.208799   -4679.1003   -4620.4676   -4679.1003            0    2270.0033    17.898239    23.263113    21.889928    9114.2819    2028.0161    2282.2789     2499.715    322.56423    198.92041    333.33151   -4318.7331 
41823000    31.302277   -4685.8428   -4632.1917   -4685.8428            0    1766.1239     17.98074    23.225694    21.858606    9128.4849    1402.6668    1599.4506    2296.2542    93.138177   -170.42084   -153.10746   -4397.0684 
41824000     31.99646   -4682.1822   -4627.3413   -4682.1822            0    2047.1837    17.827894     23.29699    21.960053    9120.8064    2434.7982    2057.0676    1649.6854    19.317864    112.31575    135.13384   -4355.0298 
41825000    32.085886   -4682.8761    -4627.882   -4682.8761            0    2005.0829     17.91681    23.289888    21.850327    9117.7151    2089.9931    2015.8953    1909.3605   -276.33642    1.3769904   -24.551501   -4361.2611 
41826000    31.588137   -4682.3658   -4628.2248   -4682.3658            0    2092.2761    17.935022      23.2616    21.854509    9117.6426    1953.0223    1700.5768     2623.229     107.3139    127.45456      150.583   -4350.0118 
41827000    31.451742   -4683.2111   -4629.3039   -4683.2111            0    2276.2853    17.922139    23.196675    21.917692    9111.9303    2229.6603    2268.6712    2330.5243    63.501794   -348.13902    132.22118   -4326.8125 
41828000    33.013274    -4678.548   -4621.9643    -4678.548            0    2177.0142    17.860624    23.276974    21.915852    9111.3243    2322.6202    1978.4824      2229.94    189.42828    143.72259    86.640613   -4332.6842 
41829000    32.809598   -4684.5171   -4628.2826   -4684.5171            0    1749.2637    17.878506    23.300074     21.92094     9131.617    1941.0886    1488.0898    1818.6126   -110.20685    38.176236    138.85141   -4395.3239 
41830000    33.920469   -4680.7978   -4622.6592   -4680.7978            0    1959.9496      17.9134    23.265665     21.89274    9124.1753    2258.9339     1729.876    1891.0388    133.06955    30.973742    85.796889   -4361.8551 
41831000    32.416942   -4683.4847   -4627.9232   -4683.4847            0    2166.1642    17.928745    23.237607    21.885317    9117.8855    1972.4205    2321.0452    2205.0268    131.14375   -37.494829    122.45385   -4339.8775 
41832000    31.831666   -4684.6886   -4630.1302   -4684.6886            0    1998.5791    17.907734    23.223137    21.930758    9120.4265    2394.9392     1953.389    1647.4091    48.145425   -108.41858    112.59376   -4364.2951 
41833000    30.988689   -4682.7407   -4629.6272   -4682.7407            0    2372.9454    17.884208    23.203292    21.912617    9093.1336    2410.7964    2774.4626    1933.5773    291.30317   -71.779216    174.18948   -4314.9413 
41834000    33.776539   -4681.3145   -4623.4226   -4681.3145            0    2031.6482    17.969034    23.241485     21.84192    9121.7766     1485.212    2363.3862    2246.3464     277.9646   -66.354014    101.03547   -4353.1489 
41835000    33.203982   -4685.3267   -4628.4162   -4685.3267            0    1977.2844    17.915155    23.284762    21.865721    9121.2883    2022.7858    1930.5799    1978.4875     395.5852   -165.32628    107.78382   -4365.3887 
41836000    32.440504   -4684.4758   -4628.8739   -4684.4758            0    1861.0419    17.895572    23.283405    21.889731    9120.7911    2072.6225    1770.6035    1739.8996    180.13846    29.398824    -401.7976    -4381.323 
41837000    30.550562   -4682.2262   -4629.8636   -4682.2262            0    1743.0897    17.835389     23.33013    21.951642    9134.1206    2307.4602    1613.3432    1308.4657   -87.153108    42.319742   -77.370133   -4397.6635 
41838000    32.235311   -4678.2189   -4622.9687   -4678.2189            0    2226.4859    17.866763    23.268673    21.898993    9104.1966    2069.5805    1936.4865    2673.3907    346.63362   -148.54876    523.47752   -4327.3462 
41839000    29.651699   -4681.3317   -4630.5097   -4681.3317            0     2135.831    17.871926    23.292894    21.908681    9120.3401    2357.5545    2274.7083    1775.2302   -85.007245    37.656005    289.38845   -4346.4211 
41840000    31.324272   -4679.6835   -4625.9948   -4679.6835            0    2347.7176    17.908225    23.287221    21.839794    9107.9103    2465.0195    2182.1694    2395.9638   -107.91306     345.7173   -495.77678   -4314.1485 
41841000    30.913751   -4685.5913   -4632.6062   -4685.5913            0    1917.8375    17.961182    23.248529    21.848082     9123.127    1209.9702     2121.333    2422.2092   -181.96638   -449.92319    185.42459   -4377.4351 
41842000    33.414949   -4682.8623   -4625.5902   -4682.8623            0     1867.512    17.979867    23.266922     21.80665    9122.5103    1362.0524      1612.63    2627.8535    248.75731    12.613826     290.5475   -4377.1318 
41843000    30.669223   -4683.6785   -4631.1125   -4683.6785            0    1800.9446    17.918134    23.231382    21.944735    9134.7812    1353.9517    2155.0915    1893.7905    -331.3963   -50.406489    99.264795   -4391.1881 
41844000    31.176704   -4680.9957   -4627.5599   -4680.9957            0    1750.9671    17.915934    23.304372    21.860085    9127.0138    1948.2422    1442.0806    1862.5785   -255.60623    -22.71137   -9.5514608    -4394.492 
41845000    31.377115   -4682.7302   -4628.9509   -4682.7302            0    2219.5099    17.880493    23.260613    21.905155    9110.5996    2366.6823    2382.6126    1909.2348   -293.56463   -60.882048    194.85133   -4334.0474 
41846000    33.707926   -4682.0576   -4624.2834   -4682.0576            0    2476.1579    17.931352    23.251573    21.802834    9090.3023    2361.9322     2414.546    2651.9955   -454.48894   -10.590097    -35.09508   -4296.0124 
41847000    33.243454   -4684.8919   -4627.9138   -4684.8919            0    2057.3567    17.854199    23.306619    21.891934    9109.6933    1920.2698    1733.6112    2518.1891     533.3371   -149.59529    197.98508   -4354.5826 
41848000    31.612497   -4685.6297   -4631.4469   -4685.6297            0    1273.1277    17.859198    23.392521     21.90246    9150.2272    1643.0704    531.56237    1644.7503   -875.07267    -125.3025    94.026075   -4461.5523 
41849000    32.537477   -4682.2331    -4626.465   -4682.2331            0    1762.7258    17.841871    23.291052     21.96298     9126.847    1620.7265    1989.4694    1677.9815   -13.239376    314.81301   -19.984807   -4391.8361 
41850000    32.619508    -4686.852   -4630.9432    -4686.852            0    1728.0585    17.946608     23.26881    21.845198    9122.4718    1551.9984     1947.834     1684.343    456.48197   -53.330842    359.15114   -4401.0391 
41851000     31.57931   -4685.8875   -4631.7616   -4685.8875            0     1872.689    17.870594    23.280188    21.923464     9120.836    1891.9183    1944.0407    1782.1082    58.070031   -300.85253   -73.933513   -4382.6602 
41852000    34.041475   -4683.7641   -4625.4181   -4683.7641            0    1976.5548    17.906766    23.298557    21.848917    9115.4076    1573.1004    2125.4254    2231.1385    142.26939     310.5668    264.60042   -4362.6572 
41853000    32.895409   -4681.4528   -4625.0712   -4681.4528            0    1702.0054     17.90987    23.278736    21.902948    9131.7581    1765.8001    2067.5663    1272.6497    252.83381    95.661518    257.41627   -4398.4026 
41854000    30.919813   -4680.1868   -4627.1913   -4680.1868            0    2169.3842    17.908017    23.233946     21.89549    9110.1419    2254.5001    2370.6272    1883.0254   -492.52322    -83.84485    -152.1168   -4338.9624 
41855000     34.99992   -4684.4035   -4624.4148   -4684.4035            0    2143.8242    17.885802    23.249634    21.907513    9109.9843    2224.7297    2187.0951    2019.6479    536.50751    59.154383    187.55336   -4339.5868 
41856000    32.042387   -4685.4593   -4630.5397   -4685.4593            0    2047.9137    17.858196    23.276872    21.919569     9111.591    2220.5146    2430.5593    1492.6673   -322.03276    -33.45782     314.1887   -4358.4064 
41857000    31.270671   -4683.7673   -4630.1705   -4683.7673            0    1927.9796     17.88904    23.300661    21.855251    9109.8466     2028.213    1944.6885    1811.0372   -363.53727    122.63991   -75.280194   -4374.0234 
41858000    31.670938   -4681.2141   -4626.9312   -4681.2141            0    2424.1914     17.91581    23.288122    21.810299    9099.8144    1955.4896    2565.5147      2751.57    132.50672    -183.8385    285.82777   -4305.2132 
41859000    31.746239    -4682.908   -4628.4961    -4682.908            0    1962.1988    17.832188    23.258132    21.982967    9117.2903    2025.7792    1974.9049    1885.9123   -118.94813    219.56668    179.04706   -4367.5897 
41860000    32.375896   -4684.3042    -4628.813   -4684.3042            0    1884.7605    17.878222    23.304439    21.887408    9119.2119    1742.1687    1795.7742    2116.3386    107.22859   -53.919946   -214.49441   -4378.1505 
41861000    32.810257   -4682.4819   -4626.2462   -4682.4819            0    1897.0315    17.896295    23.257342    21.912865    9120.5779    1200.2182    2377.8026    2113.0736    87.453345   -193.51964    333.61225   -4373.9139 
41862000    33.018383   -4683.1042   -4626.5119   -4683.1042            0    1966.0745    17.872562    23.291414    21.893837     9113.906    2030.2423    1510.5405    2357.4407    12.255164    111.89447   -252.85224   -4365.1872 
41863000     31.23394   -4680.9516   -4627.4177   -4680.9516            0    2080.3574    17.833221    23.275833    21.961764    9115.9567    2188.0439    2094.6792     1958.349    191.55085    28.304687    22.272159   -4350.8407 
41864000    33.549654   -4678.9297   -4621.4267   -4678.9297            0    2332.1764    17.842952    23.324382    21.871768    9102.5009    2235.9976    2121.4728    2639.0587    177.37341   -278.11009    148.48298   -4311.8288 
41865000    33.379342   -4681.5802   -4624.3691   -4681.5802            0    2127.6335    17.867171    23.232327    21.928121    9102.2744    2165.0589      2379.26    1838.5815   -109.00398    77.047336    177.44466   -4341.9315 
41866000    33.171009   -4687.6654   -4630.8114   -4687.6654            0    1840.8395    17.942082    23.254529    21.853256    9117.9357    1837.1904    1475.8778    2209.4503   -87.810985    104.78273    185.69361   -4386.0244 
41867000    31.078827    -4685.603   -4632.3349    -4685.603            0    1906.4692    17.860283    23.357921    21.863801    9121.1203    2078.3292     1534.434    2106.6442   -105.84249   -447.70901    49.295728   -4378.7322 
41868000     31.59393    -4683.626   -4629.4751    -4683.626            0    2211.5204    17.845831    23.248308    21.942239    9103.5142    2394.5172    2450.8524    1789.1916   -294.15805   -139.20371     332.4391   -4335.8617 
41869000    32.928701   -4683.0461   -4626.6075   -4683.0461            0    1894.9727    17.862704    23.319524    21.890582    9118.5166    1911.4068    2145.2668    1628.2445    267.18904    5.1984199    320.62277    -4374.606 
41870000    32.649062   -4685.9311   -4629.9718   -4685.9311            0    1670.2123    17.935379    23.305673    21.846209    9131.6298    1955.6106    1430.4569    1624.5694    52.084647    86.211968    5.0160163   -4407.5405 
41871000    32.732136   -4685.2423   -4629.1406   -4685.2423            0    1689.7819    17.856915    23.178156    22.053168    9127.5933    1873.2749    1959.2873    1236.7834     214.6026    53.986492    81.740535   -4404.2026 
41872000    33.993496   -4681.7829   -4623.5192   -4681.7829            0    1860.8013    17.936653    23.215638    21.912534    9124.6168    1922.6638    1923.6257    1736.1145    -339.6196   -257.61953   -120.97654   -4375.8964 
41873000    30.816546   -4684.2046   -4631.3861   -4684.2046            0    2187.4311     17.85095    23.342677    21.851926    9105.4566    1943.6865    2131.2566    2487.3502   -156.10224   -195.68693   -27.837938    -4340.909 
41874000    33.366937   -4682.7433   -4625.5535   -4682.7433            0    1917.8705    17.991693     23.31312    21.772837    9132.4532     1689.634    1277.0949    2786.8824   -232.11262    92.355442   -139.23416   -4370.1172 
41875000    33.400797   -4679.9699   -4622.7221   -4679.9699            0    2076.8602    17.836787    23.319935     21.93393     9123.478    2097.3935    1903.9555    2229.2315    61.713042   -97.120879    304.66427   -4346.3822 
41876000    32.627181   -4684.2309    -4628.309   -4684.2309            0    2141.0263    17.913347    23.277411    21.844184    9108.5076    1980.7529    2196.6539    2245.6722   -153.18696   -11.071899     539.0459   -4343.8989 
41877000     32.52945   -4681.7592   -4626.0048   -4681.7592            0    2189.0153    17.863223    23.204146    21.984112    9112.4324    2595.2486     2043.381    1928.4162   -197.20798    222.43819   -223.09124   -4335.0946 
41878000    33.417268   -4683.3973   -4626.1213   -4683.3973            0    2028.2974    17.839976    23.268771    21.977982    9123.3751    1824.5661    2168.0682    2092.2579    13.475643   -536.13503    258.55136    -4356.246 
41879000    33.706771   -4682.5314   -4624.7591   -4682.5314            0    1921.7022    17.817876    23.325089    21.932163    9115.0846    2499.8611    1556.3751    1708.8704   -125.97194   -153.61809    325.11753   -4369.2992 
41880000     32.22196   -4687.3979   -4632.1705   -4687.3979            0    1695.6783     17.95176    23.278426    21.833648     9124.035    1322.9822    1747.4373    2016.6153   -301.50347    67.936492    46.983813   -4406.5356 
41881000    31.637157   -4684.9146   -4630.6896   -4684.9146            0    1907.0026    17.963433    23.221992    21.851728    9115.3757    1422.9022    2509.7671    1788.3385    57.421501   -197.41937    12.260282   -4377.1757 
41882000    32.054265   -4679.0002   -4624.0603   -4679.0002            0    1933.4015    17.950221     23.29749    21.807778    9119.9054    1908.5702    1884.4408    2007.1934   -34.314712    264.90262    241.86189   -4366.9093 
41883000    32.555591   -4685.5181    -4629.719   -4685.5181            0    2026.0124    17.912798    23.259944    21.873591    9113.6461    1861.8409    2135.1393     2081.057   -98.643257     444.1505    520.53022   -4360.4352 
41884000    31.447496   -4684.8544   -4630.9545   -4684.8544            0    2268.1366    17.868997    23.345566    21.817561    9101.4541    2312.4031    1822.0604    2669.9463    536.92749   -174.12289    164.75237   -4329.8925 
41885000    29.848067   -4683.6501   -4632.4915   -4683.6501            0    2266.8635    17.885217    23.247613    21.888876    9101.1452    2050.3215    1942.9683    2807.3007   -406.54561   -115.87726   -80.382822   -4331.6087 
41886000    32.988091   -4684.5801   -4628.0396   -4684.5801            0    1996.9928    17.904955    23.297012    21.847149    9113.1438    1662.0969    2030.7412    2298.1401    -94.79891   -226.17677    198.67612   -4362.6276 
41887000    31.468139   -4684.5154   -4630.5801   -4684.5154            0    1995.6404    17.795057     23.32164     21.93101    9101.5871    2253.3934    2029.3877    1704.1402    71.129719    -254.3161   -57.440176   -4365.6841 
41888000    33.378739    -4684.928    -4627.718    -4684.928            0    1699.2798     17.84038    23.351902     21.93416    9137.9203    2092.4581    1535.1187    1470.2627   -207.50355    112.10418   -39.113568   -4401.2597 
41889000    30.134992   -4684.9913    -4633.341   -4684.9913            0    2047.9882    17.939585    23.238903    21.861319    9113.9025    1802.1772    2154.2335    2187.5539   -21.227695    -76.19373    24.062613   -4361.1287 
41890000    33.468301   -4685.2964   -4627.9329   -4685.2964            0    2127.5474    17.857286    23.361573    21.832942    9108.1424    1872.5807    2061.7099    2448.3515    317.23381    124.40881   0.60914263   -4345.3246 
41891000    32.732289   -4688.8016   -4632.6996   -4688.8016            0    1782.0019    17.856672    23.375933     21.85807    9123.9164    2118.0704    1369.0601    1858.8753    253.35192   -43.519309    24.730389   -4395.5811 
41892000    31.238389   -4683.8262   -4630.2847   -4683.8262            0    2150.6862    17.901427     23.27279    21.859699    9107.1039    1871.4601    2139.8905     2440.708    146.44922   -370.89706    74.172046   -4344.6353 
41893000    31.765509   -4684.8675   -4630.4225   -4684.8675            0    2241.9407    17.926127    23.150086    21.944373    9106.7256     2361.799    2290.8756    2073.1475   -26.669271    261.95082    273.98912   -4332.6653 
41894000    32.118695   -4683.9633    -4628.913   -4683.9633            0    1862.6217    17.975354    23.180147    21.886626    9119.5301    1374.8373     1868.273    2344.7549    -185.9864   -178.63578    81.575676   -4381.1862 
41895000    32.199761   -4679.3013    -4624.112   -4679.3013            0    2089.0877    17.913074    23.228631    21.893113     9109.641    1870.8581    2336.7747    2059.6303   0.97493806   -431.36003   -474.03253   -4346.5668 
41896000    32.906018   -4686.2488   -4629.8491   -4686.2488            0    2159.6117    17.906121    23.277862    21.851532    9108.0725    2292.4733     1361.344    2825.0178    152.53894    114.24685   -194.81814   -4342.9837 
41897000    30.799031   -4684.4679   -4631.6794   -4684.4679            0      1872.24    17.917243    23.356223    21.798636    9122.2742    988.70134    1684.1561    2943.8626   -24.283134   -107.11541   -3.7952439   -4382.5984 
41898000    30.937318   -4685.2991   -4632.2736   -4685.2991            0    2027.4743    17.959094    23.243438    21.826234    9110.9486    1806.2289    1752.0924    2524.1017   -42.310205    95.719261    41.107365   -4362.8753 
41899000    34.031769   -4681.7773   -4623.4481   -4681.7773            0    2032.4729    17.871956    23.349576     21.83804    9113.0706    2017.6801    1369.6929    2710.0456    -534.8714   -52.960446   -76.433753   -4353.3227 
41900000    32.925312    -4685.328   -4628.8952    -4685.328            0     2042.265    17.848288    23.299099    21.886268    9101.3835    2101.3784    1651.3705    2374.0462    94.803132   -59.335243   -42.549344   -4357.8165 
41901000    33.181626   -4680.9311   -4624.0589   -4680.9311            0    1807.8555    17.901039    23.289088    21.886862    9124.6079     1607.822    1459.5812    2356.1633   -271.61786   -16.748457     134.7082   -4383.4821 
41902000    31.555932   -4685.5803   -4631.4945   -4685.5803            0     2143.334    17.844342    23.222952    21.967832    9103.4322    2381.0784     2017.626    2031.2975   -254.93649     13.38029    130.86185   -4346.9364 
41903000    33.842076   -4685.4164   -4627.4123   -4685.4164            0    2058.7446    17.883138    23.318726    21.843239    9108.8927    1926.4871    2132.2366    2117.5101    37.480845    47.016518   -68.979937   -4353.9207 
41904000    29.911647   -4683.0649   -4631.7974   -4683.0649            0    1658.9729     17.96909    23.227132    21.891753    9136.9702     1320.065    2174.6732    1482.1804   -353.43795    212.71556    104.58169   -4410.7337 
41905000    32.521111   -4684.2716   -4628.5316   -4684.2716            0    1625.4913    17.988029    23.245404    21.833684    9129.5149    1725.6367    1625.8831     1524.954    197.57142    92.036591     387.3697   -4412.1062 
41906000     30.70141   -4686.5694   -4633.9482   -4686.5694            0     2036.777    17.876906    23.330638    21.856026    9115.7034    1744.1653     1995.506    2370.6598    573.17467   -301.96969   -102.59787   -4363.1726 
41907000    31.817302   -4684.6056   -4630.0719   -4684.6056            0    2233.5442    17.830264    23.371245    21.851539    9105.8741    2324.3468    1531.4138    2844.8721   -407.14604   -13.289377    104.06504   -4333.4576 
41908000     31.94239   -4685.8601    -4631.112   -4685.8601            0     1925.351     17.87256    23.294597    21.909302    9121.5891     1500.471    1779.3944    2496.1875    93.465023    46.501705   -63.739333   -4374.9844 
41909000    31.990239   -4682.7524   -4627.9223   -4682.7524            0    2102.9893    17.917288    23.268124    21.841036    9105.5647    1899.7476    2083.9282    2325.2921   -5.2490558    72.400362    6.7256573   -4348.6551 
41910000    34.966673   -4682.9095   -4622.9778   -4682.9095            0     2279.828    17.913854    23.232212    21.863159    9098.9756    2187.8258    2044.7581       2606.9    -322.2188   -391.98353   -82.864101   -4320.4464 
41911000    30.732237   -4683.9952   -4631.3212   -4683.9952            0     2293.526    17.861571    23.271491    21.882876    9095.9542    2418.0364    2390.8106    2071.7309    333.97814   -46.076223    93.564276   -4327.0731 
41912000     32.06401   -4685.2579   -4630.3013   -4685.2579            0    2151.5168    17.932255    23.298047    21.798263    9107.0205    2123.1191    2141.7209    2189.7103   -250.08485    1.5877241    45.293023   -4344.5443 
41913000    32.236846   -4682.7096   -4627.4567   -4682.7096            0    1855.2222    17.919864    23.299737    21.838337    9118.1201    2070.4869    1491.6158    2003.5639   -462.56171   -63.286281    166.30669   -4380.7522 
41914000    32.535226   -4685.8876   -4630.1233   -4685.8876            0     1824.999    17.918484    23.314115    21.830037    9119.5764    1565.7744    1652.8396    2256.3828    -65.68927    21.033905     95.72049    -4387.399 
41915000    32.727965   -4684.5519   -4628.4573   -4684.5519            0    1735.0905    17.850095    23.371343    21.867966    9122.8935      2040.15    1661.0136     1504.108   -467.10198   -225.32229   -143.90275   -4397.6069 
41916000    31.582503   -4680.2629   -4626.1316   -4680.2629            0    1899.8806    17.949132    23.160051    21.948102    9123.8879    1883.6749    2041.3296    1774.6372    183.18608    87.998457    156.73687   -4373.3287 
41917000    31.564193   -4685.7319   -4631.6319   -4685.7319            0    1411.1884    17.921465    23.220853    21.960706    9138.9852    1672.2703    1597.7404    963.55459   -75.442578    135.06393    55.873589   -4443.5449 
41918000    33.669997   -4680.0207   -4622.3114   -4680.0207            0    2092.1642    17.885771    23.268897    21.872964    9103.1376    2148.8604    2376.3994    1751.2329    18.025779    15.452591    -80.14849   -4344.5559 
41919000    33.028119   -4679.2504   -4622.6413   -4679.2504            0    2366.7822    17.916594     23.17216     21.92876    9104.0799    2571.7063    2464.1933    2064.4471   -275.14283   -221.39348    238.77868    -4308.395 
41920000    32.153226   -4682.5505    -4627.441   -4682.5505            0    2479.0778    17.814548    23.289807    21.920741    9094.8582    2360.9526    2880.2918    2195.9889   -300.60531   -216.06323   -4.7688891   -4298.6181 
41921000    32.396283   -4683.7864   -4628.2602   -4683.7864            0    2150.6494    17.900282    23.209465     21.91939    9106.5413     1863.932    2241.2504    2346.7658    -30.91219    137.09478    283.95552   -4342.6334 
41922000    31.048162   -4682.1181   -4628.9027   -4682.1181            0    1819.0162    17.876153    23.280947    21.904011    9115.8748     1856.527    1391.2876    2209.2339   -65.746295    58.534438    297.55829   -4387.0723 
41923000    31.087053   -4682.6444   -4629.3623   -4682.6444            0    2036.5805    17.910062    23.213571    21.934843    9119.5537    1892.3047     2042.847    2174.5898    203.41021   -244.37673   -55.992582   -4358.4984 
41924000     31.02213   -4683.7024   -4630.5315   -4683.7024            0    2034.2306     17.89909    23.346324    21.804724    9111.7131    2114.5366    1851.8926    2136.2627   -196.38305    144.11653    109.01719   -4360.2128 
41925000    34.613992   -4685.7686   -4626.4414   -4685.7686            0    1859.8961     17.84733    23.368609    21.864954    9119.1568    1685.5951    1937.5522    1956.5411     218.3439   -47.670585    219.71303   -4379.0873 
41926000    33.085962   -4686.4339   -4629.7256   -4686.4339            0    1590.2973    17.940519    23.304377    21.846443    9133.8363    1711.1923    1325.0182    1734.6816   -604.48423     49.15442   -258.81125   -4417.8859 
41927000    34.350503   -4682.5193   -4623.6437   -4682.5193            0    1714.1555    17.898592    23.306736    21.879224    9127.0881    1146.5115     2398.913     1597.042   -403.99831    87.924009    32.729088   -4395.4738 
41928000    33.036655   -4681.4542   -4624.8305   -4681.4542            0    2123.0906    17.857002    23.225177    21.971136    9112.1336    2585.4546     1833.027    1950.7903     359.1783    163.05806    227.51987   -4342.6906 
41929000    32.282007   -4683.6638   -4628.3335   -4683.6638            0    2048.5825    17.837749    23.299974     21.91972    9110.2545    2105.2315    1922.4078    2118.1081   -235.84733   -148.66007   -80.448551   -4356.1512 
41930000    34.507575   -4689.4398    -4630.295   -4689.4398            0    1920.6431    17.910025    23.283016    21.862699    9116.7324    2269.6361    1576.4593    1915.8338    4.0958854   -321.57159    134.01859   -4374.9297 
41931000    32.336936    -4683.009   -4627.5846    -4683.009            0    1327.7971    17.870846    23.380105    21.894543    9148.0272    1535.7822    1130.9993    1316.6098    332.44165    388.83901    -43.28238   -4450.4371 
41932000    33.974729   -4681.9154   -4623.6839   -4681.9154            0    1693.8681    17.939096    23.338236    21.808899    9130.6627    1745.8255    1504.4876    1831.2912   -302.10022    44.872905   -186.88546   -4398.1261 
41933000    32.348942    -4685.013   -4629.5681    -4685.013            0    1822.7266    17.878511    23.323612    21.873388    9121.0163    2079.6699    1899.9719    1488.5381   -275.53558   -172.49585    316.37617   -4387.1078 
41934000    31.555038   -4684.7388   -4630.6545   -4684.7388            0    2137.5253    17.934686    23.250309    21.853286    9112.5361    2095.5307    2178.3953    2138.6498    47.904975    71.539876    301.47631   -4346.5839 
41935000    32.747434   -4681.7356   -4625.6076   -4681.7356            0    2206.8508     17.83945    23.316445    21.892767    9106.3527    2244.2568    1833.6239    2542.6718     9.075758    18.586908   -38.705772   -4332.5228 
41936000     33.59729    -4683.942   -4626.3574    -4683.942            0    1885.2295    17.909794    23.213361    21.916601    9111.7503     1589.971    1938.3375    2127.3799   -50.373758   -323.86843   -167.64091   -4375.8376 
41937000    31.337312   -4683.6128   -4629.9017   -4683.6128            0    1902.8809    17.883644    23.250959    21.929983    9118.7469    2143.3561    1914.7088    1650.5779    -436.8739   -106.09418     228.6953   -4376.8422 
41938000    34.151961   -4681.4638   -4622.9285   -4681.4638            0    2068.8783    17.938312     23.20575    21.873271      9105.23     1722.289     2236.732    2247.6139    184.12115   -75.008458   -17.256985   -4348.2013 
41939000    30.383338   -4682.9235   -4630.8475   -4682.9235            0    2060.9681    17.884888    23.283422     21.89679     9118.292    2486.5111    1715.4929    1980.9002   -121.53554    110.02301    8.2072364    -4356.778 
41940000    33.122969   -4680.3357    -4623.564   -4680.3357            0    1759.6362    17.946149     23.22209    21.887541    9121.5687    1531.1105    1924.7865    1823.0115    376.25566   -24.764234    420.15346   -4389.4819 
41941000     31.57961   -4682.1453    -4628.019   -4682.1453            0    1605.1253    17.922063    23.347747     21.83054    9134.7665    1680.4608    1382.2353    1752.6797   -262.09043    204.36194   -200.92958   -4414.1823 
41942000    32.889693   -4682.7583   -4626.3865   -4682.7583            0    2047.4196    17.962195    23.145034       21.932     9117.913    1653.4182    2585.0843    1903.7564    -251.6922   -133.55307   -85.557293   -4354.1301 
41943000    33.611311   -4684.6836    -4627.075   -4684.6836            0     2078.231    17.895361    23.276915     21.86747     9108.868    1870.7771    2329.6954    2034.2205     159.7754   -221.84714    220.77734   -4350.9955 
41944000    32.749486    -4679.849   -4623.7175    -4679.849            0    2302.5444     17.98309    23.189224    21.829706    9103.2912    2045.7141    2253.2285    2608.6907   -90.235247   -106.98275   -87.060067   -4318.0267 
41945000    32.459777   -4683.6466   -4628.0117   -4683.6466            0    1792.6673    17.818989    23.372726    21.892236    9117.6425     2043.435    1524.2204    1810.3466   -281.52412   -18.497811    -336.8951   -4389.6381 
41946000    32.537109   -4682.6859   -4626.9184   -4682.6859            0    1542.3282    17.869275     23.36653    21.880603    9136.0918    1575.2652    1606.2869    1445.4326   -109.33304    180.89022    468.63448   -4421.4178 
41947000    32.107419   -4681.8403   -4626.8093   -4681.8403            0    2091.9744    17.878444    23.289322    21.887111    9113.2863    2454.1917     1790.684    2031.0475    240.75897    28.332593    31.907024   -4348.7693 
41948000    33.433411   -4683.9035   -4626.5998   -4683.9035            0    2109.7283    17.824671    23.319525     21.91632    9109.8003    2165.3101    2137.7458    2026.1291   -360.88149    51.723595   -176.42072   -4346.3074 
41949000    34.701853   -4684.6966   -4625.2188   -4684.6966            0    2160.9086    17.851589    23.335693    21.866694    9109.2101    2262.4101     1831.545    2388.7707   -218.60528   -230.73588     215.1429   -4338.1453 
41950000    33.300822   -4686.9539   -4629.8774   -4686.9539            0    1882.0136     17.91233    23.233599    21.911748    9118.9658    1602.8784    1900.0413    2143.1213   -435.68858    145.98406    379.43652    -4379.587 
41951000    32.713084   -4684.3719   -4628.3028   -4684.3719            0    1593.4901    17.953779    23.237844    21.881243      9129.01    1261.6098    1861.2263    1657.6342   -109.49774    92.617901    114.13708   -4416.1499 
41952000    30.941478   -4680.1285   -4627.0958   -4680.1285            0    1867.5048    17.865461    23.392067    21.812781    9115.7806    2244.4094    1335.2629     2022.842    365.70788    142.64603    11.285757   -4378.8217 
41953000    32.971703   -4686.5303   -4630.0179   -4686.5303            0    1931.6824    17.850481    23.254486     21.94386    9108.9788    1938.5655    1988.8746     1867.607   -142.91216    17.443724   -18.191067   -4373.4034 
41954000    30.629636   -4681.5406   -4629.0425   -4681.5406            0    2117.8355    17.882007    23.160655    21.985314    9105.4157    1891.2254     2709.011    1753.2702    27.919842   -16.866196    22.401732   -4347.8084 
41955000    31.694057   -4686.2294   -4631.9069   -4686.2294            0    2070.7079    17.858339    23.202344    21.990486    9111.8753    2618.8568    2129.1784    1464.0883    172.33599    104.00515    2.0355895    -4356.736 
41956000    32.486324   -4685.7763   -4630.0959   -4685.7763            0    1992.0894    17.831997    23.293354    21.925982    9107.3294    2241.4977    2199.6751    1535.0953    241.49687    145.70613    69.428608   -4365.5045 
41957000     32.59292   -4684.8501    -4628.987   -4684.8501            0    1875.2909    17.926099    23.361217     21.77642     9119.431    1660.7554    1695.3264    2269.7908    -251.6756    103.92281    187.41619   -4379.5779 
41958000    33.354239   -4684.1968   -4627.0288   -4684.1968            0    1724.5007    17.944546    23.346305    21.804641    9134.8112     1925.969    1134.6713    2112.8617   -39.040318    26.838448    -4.375165   -4397.2876 
41959000    33.448131   -4685.6266   -4628.2976   -4685.6266            0    1967.9272    17.923786    23.287771    21.863874    9126.0909    1766.3508    1951.4144    2186.0165   -123.78419    -81.00413    144.10577    -4366.377 
41960000    33.123334   -4680.8581   -4624.0859   -4680.8581            0    2122.8718    17.873645    23.323278    21.857169    9111.6413    2469.3509    1883.9006    2015.3638    46.373633   -107.48735    7.6804484   -4341.9903 
41961000    31.953851   -4683.7282   -4628.9604   -4683.7282            0    1919.2629    17.901988    23.244743    21.918359     9120.823    1411.9415    2206.5626    2139.2847   -104.00592   -519.63622    56.529344   -4373.6642 
41962000    32.025249   -4682.2309   -4627.3407   -4682.2309            0    1927.8288    17.929863    23.262359    21.872934    9123.0018    1499.8288    1787.8521    2495.8056    9.7097827    50.473248    18.092518   -4370.8438 
41963000    32.373174   -4679.9155    -4624.429   -4679.9155            0    2220.9884    17.904611    23.210061    21.912864    9106.2656    2397.9525    2220.3482    2044.6645   -110.60271   -52.839557    236.85005   -4329.4694 
41964000    33.632392   -4687.1207   -4629.4759   -4687.1207            0    2465.7022    17.964424    23.249594    21.788716    9100.3965    1841.9723    2706.6047    2848.5295   -338.73006   -379.91335    282.56002   -4302.2281 
41965000    31.115224   -4688.3875   -4635.0571   -4688.3875            0    1984.8073    17.925131    23.309568    21.821609    9117.6592    2122.6738    1637.4174    2194.3306   -316.50478   -6.3228468    198.06986   -4371.1339 
41966000     32.06344   -4684.4798   -4629.5242   -4684.4798            0    2014.4792     17.89499    23.309238     21.86012    9118.2623    1556.5918    2051.8006    2435.0452    212.93805    135.24764    145.47763   -4361.6377 
41967000    32.429549   -4686.5684   -4630.9853   -4686.5684            0    1917.8917    17.868779    23.302376    21.891028    9115.0959    2326.9113    1189.8146    2236.9492   -93.489196    227.17539    59.642464   -4376.0316 
41968000    31.035528   -4679.3366   -4626.1427   -4679.3366            0    2274.0272    17.902635    23.262535    21.852444    9100.6832    1857.2386    2495.9323    2468.9107    357.81689   -73.713481    329.41353   -4324.3244 
41969000     33.75341   -4684.4695   -4626.6174   -4684.4695            0    1904.0333    17.815774     23.38493    21.893224    9121.1684    2038.4564    1684.5851    1989.0582   -133.30595   -178.04988    171.99723   -4373.3374 
41970000    31.876797   -4684.8878   -4630.2521   -4684.8878            0    1703.4696    17.923786    23.185867    21.974153    9131.9858    1577.7221    2444.5814    1088.1053    454.12311    329.61764    240.57921   -4403.3829 
41971000    33.032265   -4683.5696   -4626.9534   -4683.5696            0    2379.0448    17.838753    23.274688    21.900031    9092.7046    3127.3753    2723.3701    1286.3888   -629.55139   -139.29318     174.6702   -4311.4736 
41972000    31.099916    -4683.533   -4630.2288    -4683.533            0    2073.0263    17.955069    23.209384    21.859837    9109.5648    2201.8195    2382.7218    1634.5377   -301.34766   -263.62192     66.25136   -4354.8197 
41973000    32.501197   -4685.3903   -4629.6844   -4685.3903            0    1979.7339    17.901431    23.278617    21.873719    9115.2283    1963.4316    2378.2819    1597.4882    -492.4558   -117.61811    149.10721    -4366.506 
41974000     32.25224   -4682.9197   -4627.6405   -4682.9197            0    1956.4438    17.943667    23.238719    21.869615    9119.3633    2352.5611    1974.0416    1542.7288   -74.585631   -41.546743    66.099417   -4367.4402 
41975000    32.673678   -4685.7271   -4629.7255   -4685.7271            0    2268.6272    17.876283    23.269828    21.886497    9104.3018    2439.7111    2392.8649    1973.3057    43.565448   -29.592099    252.09196   -4328.5042 
41976000    32.608443   -4683.4597   -4627.5699   -4683.4597            0    2181.4985    17.900614    23.260109    21.869534    9105.8232    1747.4925    2748.9325    2048.0704    246.35585    132.15729   -28.691794   -4337.8689 
41977000    34.847056   -4681.0047   -4621.2781   -4681.0047            0    2236.9593    17.900085     23.26443    21.867872     9106.553    2436.5955    2169.4204    2104.8619   -343.89128    108.66938    282.51867   -4324.1881 
41978000    32.524312   -4681.3518   -4625.6063   -4681.3518            0    1959.9606    17.910038    23.215195    21.938449     9121.679    1627.5485    2168.5185    2083.8148    137.09717   -223.80383    28.747649   -4364.8721 
41979000    31.804509   -4680.9352   -4626.4234   -4680.9352            0    1909.4244    17.957295    23.234784    21.855196    9118.7278    1499.4254    1685.9496    2542.8982    95.936559   -43.671087   -235.40741   -4372.4942 
41980000    33.785633   -4680.7877   -4622.8803   -4680.7877            0    1916.5496    17.964943    23.143991    21.920988    9114.3187    1848.6265    2146.6279    1754.3943    154.91717    86.880693    47.422984   -4368.1268 
41981000    32.373143   -4681.3189   -4625.8325   -4681.3189            0    2043.3513    17.923145    23.230727    21.904866    9120.4783    2437.4108    2068.5483    1624.0949   -21.191041    37.462032    228.40396   -4354.0405 
41982000    34.287612   -4687.1508    -4628.383   -4687.1508            0    1993.7678    17.857996     23.30198    21.899775    9113.0805    2225.6454    2183.7563    1571.9016   -558.86179     218.1284    243.91805   -4363.4015 
41983000    31.467197   -4683.6651   -4629.7314   -4683.6651            0     1721.393     17.87747     23.29078    21.934807    9133.2197    1832.7949    2230.7505    1100.6337    138.94882   -3.7470338    97.359215   -4400.4442 
41984000    33.095482   -4680.8689   -4624.1444   -4680.8689            0    2265.9291    17.935719    23.231898    21.834655    9098.0813    2419.1074    2419.8102    1958.8698   -355.71296    53.871715   -271.93439   -4323.4869 
41985000     33.00799   -4686.2244   -4629.6498   -4686.2244            0    2362.0889    17.863742    23.233668    21.918948    9097.2458    2414.4916    2797.3236    1874.4516    326.85895   -303.28332   -25.140434    -4316.262 
41986000    32.565928   -4685.8794   -4630.0625   -4685.8794            0    1804.1563    17.945883    23.319071    21.819736    9131.1524    1951.4057    1787.4249    1673.6385    239.91432   -40.732987    154.26757   -4389.8057 
41987000    32.707155   -4684.5138   -4628.4549   -4684.5138            0    2189.0969    17.863205    23.341394    21.854252    9112.1766    2230.9163    2492.4561    1843.9182   -96.280095    463.38521    51.782323    -4337.542 
41988000    32.898002   -4682.5939   -4626.2078   -4682.5939            0    1903.2341    17.990544    23.168592    21.875952    9118.2374    1533.3673    2470.2475    1706.0874   -17.477637    -257.1656     234.5788   -4373.1155 
41989000    32.462195   -4682.7062   -4627.0671   -4682.7062            0     2058.203    17.894522    23.232452    21.895798    9102.8196    1957.4137    2136.2538    2080.9414   -81.914207   -142.61259    30.988359   -4353.8298 
41990000    32.414004   -4682.6514   -4627.0949   -4682.6514            0    1965.2471    17.928472    23.247781    21.880751    9119.8356     1807.293    1964.0609    2124.3875   -323.94776    101.37681   -228.50024   -4365.7103 
41991000    30.980354   -4683.9747   -4630.8755   -4683.9747            0    1921.2147    17.807996    23.346024    21.930311    9117.4368    2141.4137    1921.2764    1700.9539   -15.366545      262.921    395.04278   -4375.4145 
41992000    31.886128   -4682.8217     -4628.17   -4682.8217            0    1975.5923    17.868184    23.280184    21.907655    9113.0283    2434.0477    1861.2589    1631.4703    274.29056   -350.14237      114.342   -4365.6056 
41993000    33.978835   -4682.6838   -4624.4453   -4682.6838            0    1595.3908     17.89872    23.212061    21.976746    9130.5946    1441.0512    2001.6319    1343.4894   -72.539874   -171.63686   -168.28818   -4412.0025 
41994000    32.547863   -4680.8594   -4625.0735   -4680.8594            0     1850.035    17.954052    23.188567    21.889747    9113.3308    1887.1293    2030.3917    1632.5839    40.332222    9.3778894    256.76116    -4379.188 
41995000     33.27858   -4681.7331   -4624.6948   -4681.7331            0     1933.282    17.931921    23.238482    21.887528    9120.7658    2097.0499    1882.7314    1820.0646   -259.10335    95.321531    435.00769   -4367.5354 
41996000    32.379541   -4683.8397   -4628.3423   -4683.8397            0    1917.0358    17.912867    23.191713    21.951922    9119.4884    2048.2466    2280.0419    1422.8189   -368.12971   -380.49822   -221.96776   -4373.3797 
41997000    32.219905   -4683.6766   -4628.4528   -4683.6766            0    1965.8734      17.8576    23.261424    21.944675    9115.6688    2050.7825    2322.0818    1524.7559   -140.74494    3.8316558   -5.4969917   -4367.1043 
41998000    32.637718   -4680.0967   -4624.1568   -4680.0967            0    1976.5899    17.856035    23.321642    21.906071    9122.3898     1609.159    1928.1371    2392.4736    83.868571     33.70096    536.06805   -4361.1899 
41999000    31.190007   -4684.4015   -4630.9429   -4684.4015            0    2068.1336    17.883816    23.237268    21.931439    9114.0705    2040.2448    1810.6383    2353.5176    63.493475    44.309529   -19.111559   -4356.0479 
42000000    32.470292   -4678.2086   -4622.5557   -4678.2086            0    2214.6217    17.864334    23.259164    21.921646    9108.6513    2354.1899    2258.9599    2030.7152   -59.612772    88.771239   -161.21832   -4328.3646 
Loop time of 365.913 on 64 procs for 250000 steps with 864 atoms

Performance: 118.061 ns/day, 0.203 hours/ns, 683.222 timesteps/s
383.7% CPU use with 16 MPI tasks x 4 OpenMP threads

MPI task timing breakdown:
Section |  min time  |  avg time  |  max time  |%varavg| %total
---------------------------------------------------------------
Pair    | 24.28      | 26.934     | 31.378     |  36.7 |  7.36
Bond    | 1.5487     | 1.8122     | 2.2395     |  15.5 |  0.50
Kspace  | 193.93     | 200.11     | 208.68     |  31.9 | 54.69
Neigh   | 0.064351   | 0.072215   | 0.085013   |   2.8 |  0.02
Comm    | 46.77      | 53.71      | 60.157     |  50.6 | 14.68
Output  | 0.48777    | 0.48807    | 0.48931    |   0.0 |  0.13
Modify  | 59.375     | 64.758     | 70.575     |  43.4 | 17.70
Other   |            | 18.03      |            |       |  4.93

Nlocal:        54.0000 ave          61 max          47 min
Histogram: 3 2 2 1 0 0 0 4 0 4
Nghost:        2590.56 ave        2616 max        2568 min
Histogram: 3 1 4 0 0 0 4 0 1 3
Neighs:        13338.9 ave       14879 max       11664 min
Histogram: 3 3 1 1 0 0 0 1 4 3

Total # of neighbors = 213423
Ave neighs/atom = 247.01736
Ave special neighs/atom = 2.0000000
Neighbor list builds = 250
Dangerous builds = 0

unfix		3
unfix		2
unfix		1

write_data	data.final.${pid} nocoeff
write_data	data.final.1 nocoeff
System init for write_data ...
PPPM initialization ...
  extracting TIP4P info from pair style
  using 12-bit tables for long-range coulomb (../kspace.cpp:340)
  G vector (1/distance) = 0.37215925
  grid = 24 27 25
  stencil order = 5
  estimated absolute RMS force accuracy = 0.0031097689
  estimated relative force accuracy = 9.3649767e-06
  using double precision FFTW3
  3d grid and FFT values/proc = 6300 1296
Last active /omp style is kspace_style pppm/tip4p/omp

write_restart   restart.lmp.${pid}
write_restart   restart.lmp.1
System init for write_restart ...
PPPM initialization ...
  extracting TIP4P info from pair style
  using 12-bit tables for long-range coulomb (../kspace.cpp:340)
  G vector (1/distance) = 0.37215925
  grid = 24 27 25
  stencil order = 5
  estimated absolute RMS force accuracy = 0.0031097689
  estimated relative force accuracy = 9.3649767e-06
  using double precision FFTW3
  3d grid and FFT values/proc = 6300 1296
Last active /omp style is kspace_style pppm/tip4p/omp
Total wall time: 0:06:06
