LAMMPS (30 Jul 2021)
Processor partition = 0
  using 4 OpenMP thread(s) per MPI task
using multi-threaded neighbor list subroutines
variable        pid world 0 1
variable        phase world IceVI IceV

shell cd ${phase}
shell cd IceVI
include Restart.lmp
echo both
log log.lammps
#include		in.partitions
include		in.temp
variable        temperature equal 70.77
variable	tempDamp equal 100.0
include		in.pressure
variable        pressure equal 8226.1
variable        pressureDamp equal 1000.0 # This is 1 ps
include		in.seed
variable        seed equal 745823

units		real
atom_style	full
read_restart	restart.lmp.${pid}
read_restart	restart.lmp.0
Reading restart file ...
  restart file = 30 Jul 2021, LAMMPS = 30 Jul 2021
  restoring atom style full from restart
  orthogonal box = (0.045478394 0.022818872 0.063238157) to (24.684523 24.707182 22.746762)
  2 by 4 by 2 MPI processor grid
  restoring pair style lj/cut/tip4p/long/omp from restart
  restoring bond style harmonic/omp from restart
  restoring angle style harmonic/omp from restart
  1920 atoms
  1280 bonds
  640 angles
Finding 1-2 1-3 1-4 neighbors ...
  special bond factors lj:    0        0        0       
  special bond factors coul:  0        0        0       
     2 = max # of 1-2 neighbors
     1 = max # of 1-3 neighbors
     1 = max # of 1-4 neighbors
     2 = max # of special neighbors
  special bonds CPU = 0.001 seconds
  read_restart CPU = 0.005 seconds
include 	in.setup
variable	out_freq equal 1000
variable	out_freq2 equal 10000
variable	out_freq3 equal 1000

timestep	2.0

neigh_modify    delay 7 every 1

include		in.tip4p
# This is TIP4P/Ice

# create groups ###
group ox type 2
640 atoms in group ox
group hy type 1
1280 atoms in group hy

# set charges - beside manually ###
set group ox charge -1.1794
Setting atom values ...
  640 settings made for charge
set group hy charge 0.5897
Setting atom values ...
  1280 settings made for charge

# ### TIP3P Potential Parameters ###
pair_style lj/cut/tip4p/long/omp 2 1 1 1 0.1577 8.5
pair_coeff 1 1*2 0.000 0.000
pair_coeff 2 2 0.21084 3.1668
bond_style  harmonic
bond_coeff  1 450 0.9572
angle_style harmonic
angle_coeff 1 55 104.52
kspace_style pppm/tip4p/omp 1.0e-5
pair_modify tail yes

thermo          ${out_freq}
thermo          1000
thermo_style    custom step temp pe etotal epair emol press lx ly lz vol pxx pyy pzz pxy pxz pyz enthalpy

restart 	${out_freq3} restart.lmp.${pid} restart2.lmp.${pid}
restart 	1000 restart.lmp.${pid} restart2.lmp.${pid}
restart 	1000 restart.lmp.0 restart2.lmp.${pid}
restart 	1000 restart.lmp.0 restart2.lmp.0


include         in.dump
dump            myDump all atom ${out_freq2} dump.water.${pid}
dump            myDump all atom 10000 dump.water.${pid}
dump            myDump all atom 10000 dump.water.0
dump            myDump2 all dcd ${out_freq2} dump.dcd
dump            myDump2 all dcd 10000 dump.dcd
dump_modify     myDump append yes
dump_modify     myDump2 append yes


variable natoms 	equal  "count(all)"                        # NUMBER ATOMS
variable H      	equal  "enthalpy/v_natoms"                 # ENTHALPY-per-atom
variable Vol      	equal  "vol/v_natoms"                 # volume-per-atom
fix AVG all 		ave/time ${out_freq} 1 ${out_freq} v_Vol v_H file vol_enthalpy.dat
fix AVG all 		ave/time 1000 1 ${out_freq} v_Vol v_H file vol_enthalpy.dat
fix AVG all 		ave/time 1000 1 1000 v_Vol v_H file vol_enthalpy.dat




fix 		1 all shake 1e-6 200 0 b 1 a 1
Finding SHAKE clusters ...
       0 = # of size 2 clusters
       0 = # of size 3 clusters
       0 = # of size 4 clusters
     640 = # of frozen angles
  find clusters CPU = 0.000 seconds
fix             2 all nph aniso ${pressure} ${pressure} ${pressureDamp}
fix             2 all nph aniso 8226.1 ${pressure} ${pressureDamp}
fix             2 all nph aniso 8226.1 8226.1 ${pressureDamp}
fix             2 all nph aniso 8226.1 8226.1 1000
fix             3 all temp/csvr ${temperature} ${temperature} ${tempDamp} ${seed}
fix             3 all temp/csvr 70.77 ${temperature} ${tempDamp} ${seed}
fix             3 all temp/csvr 70.77 70.77 ${tempDamp} ${seed}
fix             3 all temp/csvr 70.77 70.77 100 ${seed}
fix             3 all temp/csvr 70.77 70.77 100 745823


run             250000
PPPM initialization ...
  extracting TIP4P info from pair style
  using 12-bit tables for long-range coulomb (../kspace.cpp:340)
  G vector (1/distance) = 0.37539508
  grid = 30 30 30
  stencil order = 5
  estimated absolute RMS force accuracy = 0.0031631935
  estimated relative force accuracy = 9.5258634e-06
  using double precision FFTW3
  3d grid and FFT values/proc = 7920 1800
Last active /omp style is kspace_style pppm/tip4p/omp
Neighbor list info ...
  update every 1 steps, delay 7 steps, check yes
  max neighbors/atom: 2000, page size: 100000
  master list distance cutoff = 10.8154
  ghost atom cutoff = 10.8154
  binsize = 5.4077, bins = 5 5 5
  1 neighbor lists, perpetual/occasional/extra = 1 0 0
  (1) pair lj/cut/tip4p/long/omp, perpetual
      attributes: half, newton on, omp
      pair build: half/bin/newton/omp
      stencil: half/bin/3d
      bin: standard
Setting up Verlet run ...
  Unit style    : real
  Current step  : 38750000
  Time step     : 2
Per MPI rank memory allocation (min/avg/max) = 12.57 | 12.57 | 12.57 Mbytes
Step Temp PotEng TotEng E_pair E_mol Press Lx Ly Lz Volume Pxx Pyy Pzz Pxy Pxz Pyz Enthalpy 
38750000    73.857037   -9893.8274   -9612.2507   -9893.8274            0    9084.8632    24.639044    24.684363    22.683524    13796.099    8821.3983    9058.9259    9374.2654   -753.18091   -209.12922   -235.99537   -7784.3584 
38751000    70.957169   -9895.2831    -9624.762   -9895.2831            0    8132.9256    24.641724    24.677205     22.75532    13837.257    7986.3781    8547.6387    7864.7601   -317.68336    15.385521   -169.22418   -7983.5197 
38752000     70.58736   -9890.3929   -9621.2817   -9890.3929            0    8379.4207    24.650282    24.707152    22.686773    13817.113    8278.4179    8160.7887    8699.0555   -171.57947    365.29415   -260.63312   -7932.7579 
38753000    71.173579    -9899.967   -9628.6209    -9899.967            0    7650.1407    24.701741    24.682638    22.745674    13868.131    7008.5168    7612.2999    8329.6052    215.03512    282.62007    466.48043    -8081.361 
38754000    70.571642   -9899.1659   -9630.1146   -9899.1659            0    8135.1289    24.715856    24.713695     22.63629    13826.702    8079.9896     7364.159     8961.238   -265.48501    393.53463     338.3839     -7989.68 
38755000    72.342032   -9894.6049   -9618.8041   -9894.6049            0    7816.2128    24.645655    24.659354    22.789152    13850.014    7924.5699    8296.0814     7227.987   -213.70904   -449.85786     55.02342    -8040.021 
38756000    71.910153   -9882.8347   -9608.6804   -9882.8347            0    8155.8842    24.697295    24.704573    22.680452    13838.163    8127.1511    7988.2711    8352.2303     332.9935   -120.67997    231.00925   -7962.6973 
38757000    70.456952   -9897.5834   -9628.9694   -9897.5834            0    7885.9904    24.692298    24.701783     22.69584    13843.187    7615.6255    8032.2892    8010.0563    365.15693   -133.10038   -406.89344   -8036.8772 
38758000    70.574543   -9896.0401   -9626.9778   -9896.0401            0    8337.7385    24.683517    24.618619    22.766654    13834.706     8334.258    8667.0779    8011.8797   -56.938676   -176.26457    145.86192    -7944.714 
38759000    72.989065   -9891.8169   -9613.5493   -9891.8169            0     7646.158     24.76618    24.663924    22.692099    13861.041    6748.8031    8043.5789     8146.092   -3.3698853   -417.71625     1123.222   -8067.8855 
38760000    70.917336   -9886.6742    -9616.305   -9886.6742            0    8151.7409    24.617566    24.680579    22.764986    13831.454    8603.0571    8020.9707    7831.1949   -118.62771    -515.9626    66.483857   -7971.9556 
38761000    73.105558   -9903.4529   -9624.7412   -9903.4529            0    8057.7648    24.588385     24.74504    22.743088    13837.818    8800.2766    7233.8035    8139.2144    10.054743    83.641253   -70.379324   -7998.6006 
38762000    72.927605   -9886.5354   -9608.5021   -9886.5354            0    8587.6681    24.675395    24.658522    22.728618    13829.427    8248.2004    9028.4993    8486.3045   -515.84497   -349.32205   -540.31464   -7876.4725 
38763000    73.446941   -9890.7987   -9610.7855   -9890.7987            0    8438.6817    24.721579    24.745627    22.602274    13826.963    8279.1019     7870.092    9166.8513      78.0349    206.29373    267.88846   -7909.1078 
38764000     69.20759   -9896.3297   -9632.4788   -9896.3297            0    8239.1711    24.633006    24.676881    22.742632    13824.467    8691.6647     8223.242    7802.6066   -732.20668   -235.83716    514.95405   -7971.3328 
38765000    72.271892    -9898.181   -9622.6476    -9898.181            0    8187.0657    24.575833    24.704129    22.788967    13835.741    8913.9483    7779.4407    7867.8082    271.40151   -450.16163    225.03518   -7970.6607 
38766000    72.259812   -9892.6713    -9617.184   -9892.6713            0    8154.6411     24.65528    24.765772    22.658302    13835.319    8327.1194    7066.4951    9070.3088    -287.8633   -102.55126   -213.42113   -7971.7899 
38767000    71.755616   -9887.8678   -9614.3027   -9887.8678            0    8716.4159    24.668453    24.685241    22.681739    13811.971    8655.3648    8622.9195    8870.9633   -457.85758   -203.59357    390.96552   -7858.5252 
38768000    70.653182   -9899.9432    -9630.581   -9899.9432            0    8146.4812    24.655439    24.623492    22.788685    13835.079    8286.6471    8626.5528    7526.2439   -430.74493   -613.67411   -84.306302   -7986.8619 
38769000    70.606136   -9891.4799   -9622.2971   -9891.4799            0    8298.6679    24.651281     24.74177     22.67826    13831.841    8781.3479    7781.3604    8333.2953     227.8618   -690.13338   -548.97599   -7948.2632 
38770000    69.593815   -9893.0286   -9627.7052   -9893.0286            0    8192.4783    24.667809    24.690573    22.704035    13828.173    8228.1356    8171.7794    8177.5199    206.59634    318.37615    94.334091   -7975.5304 
38771000    71.160074   -9898.5824   -9627.2877   -9898.5824            0    7982.3342    24.590393     24.69496     22.79722    13843.812    8717.3868    7751.4937     7478.122    112.78405   -668.62373   -58.765037   -8015.6721 
38772000    72.510817   -9891.2057   -9614.7614   -9891.2057            0    8067.3483    24.670824    24.709999    22.706247    13842.093    8394.8493    7866.9436    7940.2521    19.649137    -150.3655   -460.56498   -7986.1838 
38773000    69.210787   -9893.0237   -9629.1606   -9893.0237            0    9039.5221    24.679437    24.691201    22.636476    13793.875    8520.4696    8602.4796    9995.6171    287.37188   -297.69653    692.06511   -7810.6843 
38774000    72.151293   -9880.6973   -9605.6237   -9880.6973            0      8302.72    24.641446    24.686998    22.764558    13848.211    8947.5587    7982.5931    7978.0083   -132.11376   -198.97468    253.93797   -7928.7901 
38775000     71.65162   -9894.2476   -9621.0789   -9894.2476            0    7479.9866    24.749624    24.644017    22.740933     13870.38    6986.6204    8004.5157    7448.8238   -147.44085     135.9672    -106.2793   -8107.9878 
38776000    73.940688   -9895.0093   -9613.1137   -9895.0093            0    8233.3238    24.685323    24.674199    22.713142     13834.36    8134.3442    8244.5498    8321.0773   -221.11645   -303.19579    266.70486   -7951.9586 
38777000    69.477533   -9882.9029   -9618.0229   -9882.9029            0    8977.7022    24.666751    24.668344    22.690936     13807.16    8540.0945    9247.8999    9145.1121   -673.82625    36.967878     134.0881   -7810.2434 
38778000    71.130921   -9897.4434   -9626.2599   -9897.4434            0     8121.959    24.691769    24.700506    22.689708    13838.434    7590.2625    8126.9673    8648.6472   -264.73019   -38.833126    574.29318   -7987.0912 
38779000    70.118414   -9895.4323    -9628.109   -9895.4323            0    8097.0007    24.673073    24.720331    22.694054    13841.706    8702.7564    7386.9021    8201.3437   -571.27559   -177.77516    260.21481   -7993.5911 
38780000    72.653977   -9891.2445   -9614.2544   -9891.2445            0    8259.7821    24.673676    24.613932    22.782604    13836.244    8025.5193    8672.7523    8081.0747    274.63316   -485.15554    238.83723   -7947.5342 
38781000    71.276834   -9878.2652   -9606.5254   -9878.2652            0    8377.0804    24.671697     24.69017    22.696418    13825.487    8146.7226     8930.378    8054.1406   -78.626537   -245.49868   -210.35072   -7917.4501 
38782000    71.984185   -9889.1137   -9614.6771   -9889.1137            0    7932.4609    24.591725    24.779598    22.734668    13853.894    8456.2643     7291.509    8049.6095   -328.29457   -27.074618    475.03782   -8011.9644 
38783000    71.362491   -9884.2189   -9612.1525   -9884.2189            0    8651.8259    24.646714    24.676901    22.717269    13816.746    8198.0853    9175.3959    8581.9964   -808.68269    26.324703    780.30507   -7868.7831 
38784000    69.888336   -9898.5289   -9632.0827   -9898.5289            0    7834.7698    24.637276    24.764137    22.700903    13850.295      8575.43    7357.7186    7571.1608   -15.805269   -267.50399    509.38499   -8049.5192 
38785000    68.721509   -9895.8607   -9633.8629   -9895.8607            0    8732.5564    24.623274    24.711708    22.691028    13807.108    8682.8801    8521.4188    8993.3703   -253.44692    156.88299   -468.37096   -7875.4535 
38786000    68.915715   -9886.8342    -9624.096   -9886.8342            0     7671.579    24.577765    24.736494    22.791106    13856.257    8266.1864    7809.3448    6939.2058    71.859636   -199.69319    145.93722   -8073.8288 
38787000    73.254778   -9900.6152   -9621.3346   -9900.6152            0    7900.7635    24.678922    24.699401    22.711546    13843.927    8279.5791    7256.6845    8166.0269   -461.76578   -254.05653   -282.38821   -8026.1746 
38788000    70.365701   -9883.4455   -9615.1793   -9883.4455            0    8538.6555    24.697621    24.666555     22.70652    13832.931    8146.0355    8834.3211    8635.6099    170.80917      262.182    102.82725   -7892.5986 
38789000    68.894153   -9894.5391   -9631.8831   -9894.5391            0    7735.2755    24.663581    24.686071    22.756151    13855.012     8639.621    7505.5379    7060.6676   -221.80146   -115.91985    394.74419   -8068.8845 
38790000    69.341204   -9892.3571   -9627.9968   -9892.3571            0    7804.5354    24.680163    24.704356    22.724332    13855.197    7347.8754    7996.5078     8069.223   -65.066378    231.28653    53.439146   -8050.9825 
38791000    69.481192   -9899.5697   -9634.6757   -9899.5697            0    8656.1101    24.627159    24.649113    22.748609    13809.261    8688.6529    8668.0456    8611.6318    161.36205    160.03836   -443.22524   -7891.3878 
38792000    72.978943    -9903.441    -9625.212    -9903.441            0     7968.654    24.639288    24.691091    22.759383    13846.147    8321.5106    8210.8328    7373.6186    84.131813   -240.66892   -26.974845    -8016.087 
38793000    72.174596   -9891.3925     -9616.23   -9891.3925            0    8138.8447     24.64007    24.803641    22.644644    13839.579    8900.5622    7086.3906    8429.5812    107.89628   -416.55331    262.78863   -7973.5177 
38794000    73.815809   -9905.7476   -9624.3281   -9905.7476            0    7586.4557    24.619921    24.758092    22.746975    13865.243    8212.2998    6792.3187    7754.7488   -261.57563   -643.36418   -461.15293   -8090.2682 
38795000     68.34998   -9897.3943    -9636.813   -9897.3943            0    8243.0972    24.660156    24.653112    22.744264    13827.365    8067.7364    9066.3432     7595.212   -263.04467   -157.73397   -696.55467    -7974.527 
38796000     70.40658   -9875.3791   -9606.9571   -9875.3791            0    8434.4954    24.706694    24.657881    22.697752    13827.804     8222.275    9198.2091     7883.002   -757.18821    8.2282426   -13.076589   -7906.0201 
38797000    71.800636   -9899.3924   -9625.6556   -9899.3924            0    8378.6529    24.647725    24.643124    22.762202    13825.692    8484.0628    8347.3465    8304.5493   -82.435858    279.76661    332.63707   -7936.2382 
38798000    70.658683   -9891.8447   -9622.4616   -9891.8447            0     8804.268    24.603451    24.678519    22.756752    13817.371    9206.3536    8790.8038    8415.6466   -35.268545   -144.11349    220.69775   -7848.2944 
38799000    72.337654   -9890.4238   -9614.6396   -9890.4238            0    8473.7435    24.579843    24.753697    22.732483    13831.397    8727.4711    8252.8551    8440.9044   -593.19516    69.311873   -427.27313   -7905.3437 
38800000    71.890277   -9886.3099   -9612.2314   -9886.3099            0    7984.5236     24.66385    24.690451     22.74629    13851.616    8130.8931    7894.9622    7927.7155    38.825963    181.68469    281.78042   -7999.2649 
38801000    71.385169   -9886.7911   -9614.6383   -9886.7911            0    9033.7681    24.710303    24.628891    22.676284      13800.5     7844.269    9542.5261    9714.5091   -296.72981   -11.653247    -345.4871   -7796.4466 
38802000    71.068125   -9893.7654   -9622.8213   -9893.7654            0     7895.202    24.655544    24.682908     22.74921    13844.499    8093.0238    7888.8366    7703.7455    121.08812    13.957103   -5.7710452   -8028.7183 
38803000     70.24339   -9885.0666   -9617.2668   -9885.0666            0    9252.3212    24.681326    24.702169    22.647086    13807.527     8379.847    9263.6726    10113.444    356.67577   -179.55374    22.158682   -7754.1397 
38804000    70.707839    -9891.084   -9621.5135    -9891.084            0    7611.2679    24.682825     24.77662    22.672464    13865.503    7467.7768    7161.1766    8204.8503   -376.04552   -563.65954   -881.22919   -8082.4075 
38805000    73.712933   -9892.8211   -9611.7937   -9892.8211            0    8046.4788    24.666627    24.646312      22.7618     13837.84    7498.3931    8955.7477    7685.2956    588.04064    182.35623    353.15666   -7987.9282 
38806000    71.865812   -9888.5572    -9614.572   -9888.5572            0    8354.9777    24.716696     24.68753    22.672704    13834.752    7894.4265    8538.3403    8632.1663   -484.78571   -1133.6445    846.99123   -7928.8243 
38807000    68.303955    -9883.783   -9623.3772    -9883.783            0    7789.4342    24.662098    24.674169    22.775855     13859.49    7707.6181    8421.9774    7238.7071   -97.806988   -272.32553     250.1164   -8048.9266 
38808000     69.13508   -9892.4042   -9628.8297   -9892.4042            0    7557.9776    24.698208     24.70562    22.715903    13860.893     7075.203    7239.8125    8358.9173   -335.40598     379.5487   -219.90489    -8101.008 
38809000    70.073248   -9889.6232    -9622.472   -9889.6232            0     8286.844    24.668505    24.644224    22.748535    13829.657    7987.8775    9001.6957    7870.9588   -43.166835   -208.80434    -48.01783   -7951.0871 
38810000    68.357408   -9893.4863   -9632.8767   -9893.4863            0    8369.6395    24.662034    24.731831    22.650187    13815.193    8374.7518    8456.2319    8277.9348    43.042527   -566.58807   -234.95823   -7946.5582 
38811000    70.621053   -9899.3606    -9630.121   -9899.3606            0    7771.5939    24.660037    24.703142    22.750614    13859.228    7590.3381    8086.6133    7637.8303    218.03156   -365.19681    725.30785   -8059.3061 
38812000    70.996721   -9894.9701   -9624.2982   -9894.9701            0    7873.6495    24.629999    24.769026    22.705282    13851.609    8445.2774    7353.0818    7822.5894    11.329022    332.43474    192.76999   -8033.7304 
38813000    71.799475   -9881.3695   -9607.6372   -9881.3695            0    8333.9018    24.625313    24.687254    22.760148    13836.607    8536.4373    8080.7957    8384.4722    318.74155   -304.97305      73.5561   -7925.9164 
38814000    71.684458   -9891.0849   -9617.7911   -9891.0849            0    8492.5256    24.699325    24.681181    22.665687    13817.196    7846.6202    8236.7816    9394.1751    19.408293   -448.69376   -392.07973   -7906.4654 
38815000    68.648542    -9896.281   -9634.5614    -9896.281            0    8195.2212     24.69443    24.680659    22.679495    13822.581    7479.6892    8210.8913    8895.0829   -258.57332   -7.6842297     77.59928   -7982.5019 
38816000    71.807405   -9874.8671   -9601.1045   -9874.8671            0    8975.2014    24.653905    24.623375    22.770504    13823.116    9383.3012    8588.7961    8953.5069    152.39395     246.7651    21.132435   -7791.7401 
38817000    69.453886   -9898.7904   -9634.0005   -9898.7904            0     8306.338    24.654874    24.678243    22.744014    13838.344     8362.393    7879.2987    8677.3223   -213.17104    271.21354      255.885   -7957.6315 
38818000    68.977629   -9897.3217   -9634.3476   -9897.3217            0    7915.9887    24.654314    24.746756    22.697085    13847.816    8193.2027    6823.2527    8731.5107   -56.417335   -633.58766    879.48184   -8035.6646 
38819000    72.058134   -9903.7549   -9629.0364   -9903.7549            0    8218.5047    24.660159    24.659995    22.728394    13821.577    8226.9585    8833.0133    7595.5422   -972.06104     238.7538    94.647274   -7972.4035 
38820000    70.271924   -9899.1177   -9631.2091   -9899.1177            0    7994.3205    24.582972    24.788728    22.732751    13852.897    8356.5876    7201.1882    8425.1857   -175.09287   -71.978756    837.87153   -8016.1141 
38821000    71.717298   -9894.3238   -9620.9047   -9894.3238            0    8150.1802    24.643637    24.719647    22.716997    13838.786    8552.7807    7569.7883    8327.9717   -10.246261   -749.29829   -75.236982   -7975.9987 
38822000    69.546324   -9876.6727   -9611.5304   -9876.6727            0    8517.5757    24.707688    24.526378    22.820177    13828.801    8455.0231    9015.0423    8082.6618   -75.526285   -84.886136    282.57007   -7893.7153 
38823000    67.313176   -9899.4548   -9642.8262   -9899.4548            0    7709.3366    24.667482     24.74227    22.702344     13855.91    7950.6338    6982.8504    8194.5256     363.3646   -364.33556   -115.03087   -8084.9679 
38824000    72.032246   -9888.7303   -9614.1105   -9888.7303            0    8606.9118    24.678569    24.671579    22.690206    13815.142    8342.7187    9029.9516     8448.065   -144.17166    450.07334   -109.90593   -7879.9927 
38825000    73.875031   -9891.0341   -9609.3888   -9891.0341            0    8576.6145    24.663442    24.633927    22.746493    13819.801    8443.6878    8846.1221    8440.0335    12.493065    325.05342    219.22838   -7880.7926 
38826000    69.984954   -9890.6266   -9623.8121   -9890.6266            0    7977.8975    24.646254    24.729782    22.720637    13848.149    8095.3519    7646.5975    8191.7433   -148.75021   -514.13549    277.24671   -8012.5875 
38827000    70.023547   -9898.4617      -9631.5   -9898.4617            0    7823.4342    24.640038    24.661528    22.775637    13839.866    8374.3136    8048.2474    7047.7415   -104.37497    464.79081    1154.7788   -8052.4161 
38828000    73.152229   -9889.6359   -9610.7462   -9889.6359            0    8388.7083    24.641816    24.655547    22.763383    13830.063    8714.7857    8489.6374    7961.7019   -321.74908   -278.55439    226.73538   -7918.7666 
38829000    69.680227   -9893.5152   -9627.8624   -9893.5152            0     7630.405    24.714254    24.750287    22.657466    13859.229     7413.944    7162.2965    8314.9745   -75.656915    8.5402066    11.634294   -8085.5848 
38830000    69.279157   -9884.6147   -9620.4909   -9884.6147            0    8398.7623    24.668875    24.665419    22.738253    13835.503    8419.6267    8322.5518    8454.1082   -155.87113    246.67143    63.643644   -7925.8171 
38831000    72.632958   -9886.6215   -9609.7115   -9886.6215            0    8631.4921    24.702212    24.666518    22.675762     13816.74    8728.4775    8206.3025    8959.6963    30.345235    -77.32103    713.22942   -7870.4401 
38832000    69.693138   -9890.2172   -9624.5151   -9890.2172            0     8154.591    24.715806     24.69588     22.67769    13841.976    7736.6409    8251.0063    8476.1258   -507.48472   -101.49518    299.06122   -7978.3395 
38833000    68.269501   -9897.1236   -9636.8491   -9897.1236            0     8090.485    24.581412     24.71553    22.782309    13841.224    8944.6956       7503.7    7823.0595    662.62286   -362.98384    871.04299   -8003.7033 
38834000    71.542148   -9884.5822   -9611.8309   -9884.5822            0    8153.5551    24.648763    24.713278    22.728364    13845.022    7751.2964    8563.1011    8146.2677   -546.34748    42.528871    324.14522   -7965.5022 
38835000    71.377348   -9899.3534   -9627.2304   -9899.3534            0    7873.5306    24.659701    24.740753     22.69842    13848.296    8599.4663    6703.8748    8317.2508   -343.22472   -474.15561    185.36636    -8037.067 
38836000    71.304492   -9890.4222   -9618.5769   -9890.4222            0     8622.546    24.588533    24.680965    22.787728    13829.159    9075.9234    8737.8547    8053.8599    169.98804   -205.59974   -262.24634   -7879.5465 
38837000    71.257748   -9893.1966   -9621.5295   -9893.1966            0    8445.3766    24.687089     24.62925    22.743533    13828.626    8174.9145    8941.5514    8219.6639   -335.62968   -332.86006    431.40419   -7918.2971 
38838000    72.227815   -9886.7336   -9611.3682   -9886.7336            0    8179.4376    24.688337    24.598562    22.786039    13837.907    7270.2446    9467.2372    7800.8311    -2.203342    644.90038   -86.947709   -7960.6622 
38839000      69.0063   -9896.9808   -9633.8973   -9896.9808            0    8779.7304     24.66063    24.625968     22.74047    13810.103    8787.9828    9055.9634    8495.2449    154.74036   -705.71115   -136.83406   -7865.6053 
38840000    73.445046   -9899.7613   -9619.7553   -9899.7613            0    7322.4495    24.702319    24.745664    22.700117    13876.021    7070.1573    6793.9131    8103.2782   -3.5120979    -277.9364   -38.051502   -8137.9293 
38841000    69.063419   -9890.0453   -9626.7441   -9890.0453            0    9408.1022    24.637279    24.701075    22.646773    13782.085    8503.4851    9710.7265    10010.095   -426.81028   -851.79066    213.57073   -7735.7383 
38842000     71.00592   -9894.1779   -9623.4709   -9894.1779            0    7841.3911    24.674453    24.690918    22.731708     13848.95    7942.0515    7700.6335    7881.4885    141.57444   -906.89295    -717.3177   -8039.7237 
38843000    70.762591   -9888.6797   -9618.9005   -9888.6797            0    7928.0987      24.6135     24.71496    22.763582     13847.58    7690.0996     8427.258    7666.9384   -38.169471     141.2667     659.1116   -8017.7991 
38844000     68.66262   -9884.1513   -9622.3781   -9884.1513            0     8425.072    24.609434    24.720124    22.725573    13825.062    9139.9422    8069.8165    8065.4573   -456.26684   -277.92145    195.40346   -7923.6784 
38845000    67.038411   -9895.1094   -9639.5284   -9895.1094            0    8078.7641    24.628988    24.774213    22.671965    13833.612    8550.2779    7346.2433     8339.771    61.384636   -270.56086    521.80518   -8009.6455 
38846000    70.465036   -9889.2793   -9620.6344   -9889.2793            0    8281.0835    24.674827    24.680001    22.705008    13826.777    7999.5406     8330.021    8513.6888   -200.57435    46.312704    66.324064   -7950.7593 
38847000    70.340845   -9888.2341   -9620.0627   -9888.2341            0    7817.0526    24.628649    24.699382    22.779171    13856.853    7739.2893    7940.8329    7771.0356    198.92331   -109.50959   -162.21223   -8040.3303 
38848000    67.766231   -9895.3594   -9637.0037   -9895.3594            0    8241.9211    24.638217    24.672949    22.745376    13826.856    8661.2262    8122.1634    7942.3737   -107.28715    272.46226   -491.69658    -7975.016 
38849000    72.253976   -9892.4359   -9616.9708   -9892.4359            0    8452.7713    24.648177    24.718593    22.696408    13828.201    8584.7375    8305.6433     8467.933   -333.99101     214.6337   -162.07027   -7912.2993 
38850000    68.413537   -9897.6545   -9636.8309   -9897.6545            0    7369.9248    24.625065    24.709379    22.802978     13874.93    8561.6696    6289.7879    7258.3169   -724.85438    344.59601    55.572724   -8145.5147 
38851000    72.260093   -9900.7687   -9625.2803   -9900.7687            0    8673.3805    24.680584     24.64018    22.709724    13810.556    7828.2857    9701.0521    8490.8036   -304.77097   -481.23666    211.06022   -7878.3505 
38852000    71.577906   -9888.3493   -9615.4617   -9888.3493            0    8126.2184    24.760395    24.634547    22.696392    13843.916    7238.5115     8394.917    8745.2267   -37.653035    379.61596    455.37027   -7974.7837 
38853000    70.742474    -9888.612   -9618.9094    -9888.612            0    8305.3119    24.673607    24.651166    22.748279    13836.258    8166.6386    8607.5436    8141.7535   -129.29324   -708.21845    183.04659   -7943.0001 
38854000    71.258366   -9895.8936   -9624.2242   -9895.8936            0     7989.723    24.673572    24.706967     22.71029      13844.4    6973.3518    8675.3242    8320.4929   -17.944853   -277.82471   -180.53004   -8011.0482 
38855000    70.432977   -9887.0852   -9618.5626   -9887.0852            0    7644.5073    24.685361     24.71554    22.713957    13858.059     7644.834    7318.7128     7969.975    128.32643   -62.904601    372.13022   -8073.5651 
38856000    70.711704   -9891.5824   -9621.9972   -9891.5824            0    9587.7863    24.603404    24.653785    22.705238    13772.249    9922.7272    9282.7272    9557.9046   -528.23339   -493.01394    507.58954   -7696.2507 
38857000    70.726956   -9892.0344    -9622.391   -9892.0344            0     8172.717    24.654128    24.742368    22.678607    13833.984    8406.3626    7263.7977    8847.9906   -57.349289    -579.5434    121.44393   -7973.5088 
38858000    73.341086   -9900.2383   -9620.6286   -9900.2383            0    8578.9963    24.615105    24.723251    22.700074     13814.48    8727.6159    8073.9038     8935.469   -257.63282   -779.56644    598.25838    -7892.218 
38859000    70.750788   -9897.8628   -9628.1286   -9897.8628            0    7909.7707    24.672446    24.690252    22.726996     13844.58     8019.783    7947.8338    7761.6952   -366.92282     102.1014   -107.69804   -8031.0747 
38860000     68.75183    -9886.319   -9624.2057    -9886.319            0    9237.7936     24.66941    24.688374    22.644488    13791.571      8865.71    8906.7721    9940.8987    -112.1991    -188.4788    369.15496   -7766.1536 
38861000    69.968172   -9888.8948   -9622.1442   -9888.8948            0    8132.5232    24.647945    24.659323      22.7707    13840.069     7671.637    8642.1589    8083.7738    328.82607   -105.66139   -149.49017   -7980.6496 
38862000    70.756542   -9889.0084   -9619.2522   -9889.0084            0    8062.1396    24.635261    24.802543    22.658085    13844.478    8313.7438    7298.1465    8574.5286   -235.53282    -406.8575   -382.17572   -7991.4457 
38863000    72.051092   -9901.7837   -9627.0921   -9901.7837            0    7225.0736    24.633309    24.763965    22.751974    13879.123    7893.6792    6331.5353    7450.0061    109.59652   -516.85539    673.46775   -8164.6449 
38864000    74.112285   -9883.1064   -9600.5566   -9883.1064            0    8567.2132    24.643569    24.668809    22.749487    13830.039    8937.0625    8640.9375    8123.6395    237.80168   -312.96271    522.62351    -7872.576 
38865000    73.632669   -9891.0786   -9610.3573   -9891.0786            0    8092.7193    24.632114    24.712781    22.734898     13839.37    7923.1501    7893.1694    8461.8384   -539.98196   -18.537156    226.70274   -7976.9793 
38866000    68.680359   -9894.3603   -9632.5194   -9894.3603            0     7574.104    24.673417    24.740487    22.720102    13869.085    7710.8871    7503.9638    7507.4612    113.15134    242.27041    546.99344   -8100.5328 
38867000    67.701462   -9894.7733   -9636.6645   -9894.7733            0    8546.5876    24.622916    24.676338    22.761184    13829.773    8700.0742    8523.7999    8415.8886   -308.05477   -657.61991    538.23458   -7912.8771 
38868000    68.097656   -9896.7913    -9637.172   -9896.7913            0    8481.1856    24.573605    24.744059    22.743969    13829.487    9600.8997    7478.4769    8364.1801   -185.50494   -358.63637    12.100191   -7926.6112 
38869000    73.699254   -9906.3496   -9625.3744   -9906.3496            0    8047.0373    24.667237    24.709206    22.717083    13846.241    7945.8414    8252.7699    7942.5006   -72.327991    -585.6744    346.76051   -8000.4103 
38870000    69.762311   -9895.3632   -9629.3975   -9895.3632            0     7133.971    24.680636    24.683163    22.776811    13875.546     7518.183    7539.8306    6343.8995   -274.03999   -880.80119    689.27323   -8185.7627 
38871000    70.121073   -9892.9288   -9625.5952   -9892.9288            0    8419.0394    24.571165    24.696184    22.781799    13824.315    9114.5519    8643.3085    7499.2578    15.947074   -341.85995    -346.6042   -7928.2037 
38872000    71.406584   -9892.2316   -9619.9971   -9892.2316            0    7554.4622    24.701689    24.724496    22.702233    13865.089    7170.6406    7928.4929     7564.253   -126.20994   -100.02543    283.62978   -8092.4237 
38873000    71.245565   -9898.7277   -9627.1072   -9898.7277            0    8392.6912    24.655008    24.651414    22.739988    13820.928    8776.9575    7984.3937    8416.7225   -300.30685   -287.33572   -215.77976   -7935.4422 
38874000    71.452535   -9886.6958   -9614.2861   -9886.6958            0    7615.6393    24.672938    24.710484    22.754315    13872.856    7726.6882    7762.9745    7357.2552    135.31945    113.48362    972.30983   -8073.4795 
38875000    71.661091   -9886.3445   -9613.1397   -9886.3445            0    7347.7223    24.733185    24.670447    22.743355    13877.511    6630.8528    7769.8856    7642.4286   -44.518417   -167.63521    241.85085   -8126.0396 
38876000    71.328821   -9895.2375   -9623.2995   -9895.2375            0    7968.2287    24.640439    24.690277    22.751824    13841.738    8351.2241    8085.5458    7467.9161   -229.85079    102.84632    141.50111   -8014.7728 
38877000    72.069969   -9893.9154   -9619.1518   -9893.9154            0    8134.8274    24.678778    24.646115    22.738677    13830.482    8098.3921    8330.5327    7975.5574     257.0057   -24.454665   -207.00618   -7978.3295 
38878000    69.921399   -9893.5093    -9626.937   -9893.5093            0    8060.6428    24.670233    24.721705    22.692618    13840.006    7919.1557     8003.495    8259.2777   -33.991508   -99.134661    264.88043   -7999.9584 
38879000    71.226037   -9892.4241    -9620.878   -9892.4241            0    7611.0364    24.634958    24.751484    22.716689    13851.542    8069.1835    7068.5611    7695.3646   -688.55078   -532.24599    132.47915   -8083.3685 
38880000    69.228738   -9892.9986   -9629.0671   -9892.9986            0    8994.9935    24.604909    24.666648    22.732152    13796.612    9468.6621     9241.656    8274.6625   -512.77964   -308.13292    218.05092   -7819.1896 
38881000    70.416961   -9902.7012   -9634.2396   -9902.7012            0    7846.0798    24.698282    24.693926    22.702571    13846.242    7908.1658    7762.2662    7867.8074    63.856621    4.6913652   -134.86437   -8049.8553 
38882000     69.12382   -9884.1113   -9620.5798   -9884.1113            0    8846.4447     24.61438    24.621416    22.793157    13813.585    8760.0231    9240.1678    8539.1432    311.82495   -493.56115   -573.80285   -7838.4019 
38883000    71.217394   -9899.9286   -9628.4154   -9899.9286            0    7844.6811    24.671111    24.703468    22.734582    13855.864    7869.7846    8191.7426     7472.516   -522.39901   -883.39571    264.70466   -8043.2127 
38884000    68.573154   -9896.0728   -9634.6407   -9896.0728            0    8100.1629    24.681316    24.737904    22.670903    13842.038    8023.9645    8193.9568    8082.5673   -259.01596   -578.79158    790.72343   -7999.4452 
38885000    69.267162   -9899.7046   -9635.6265   -9899.7046            0    8279.7147    24.667396    24.631405     22.75441    13825.412    7741.4255    9104.2239    7993.4946    83.791172     -289.277    556.15606   -7966.1922 
38886000    71.716104   -9895.7426   -9622.3281   -9895.7426            0    8160.8693    24.661545    24.704396    22.716169    13839.793    8551.6752    7482.8704    8448.0621    446.55872    196.50668    95.500661   -7975.1448 
38887000    68.988793   -9895.3524   -9632.3357   -9895.3524            0    7573.2058    24.696247    24.712882    22.718439    13865.414     7438.848    7758.8537    7521.9159   -371.15815   -435.85324    97.393319   -8100.9362 
38888000    71.563258   -9886.7349   -9613.9031   -9886.7349            0    9382.7252    24.591446    24.625125    22.763114    13784.601     9240.441    9689.2609    9218.4738   -592.25348   -211.65432   -409.85784   -7727.6539 
38889000     68.45634   -9895.5261   -9634.5393   -9895.5261            0    7880.2581    24.636869    24.708635    22.742446    13844.314     8234.332    7460.9483     7945.494   -433.80634    17.187344   -118.72691   -8043.4749 
38890000    72.064198   -9896.7672   -9622.0256   -9896.7672            0    8041.5094    24.658371    24.692236    22.720511    13833.845    8120.2323    7934.4912    8069.8048   -608.83485   -438.76995    247.96402   -7999.6315 
38891000    69.239211   -9896.0923   -9632.1209   -9896.0923            0    8398.4985    24.663209    24.664332    22.717671    13819.195    8215.1807    8570.0913    8410.2236    -597.0077    403.84666    78.609594   -7939.4977 
38892000    71.978619   -9910.0078   -9635.5925   -9910.0078            0    7316.7457    24.647514     24.71608    22.762772    13866.852    7276.0086    6870.8001    7803.4285    136.96101   -664.30593   -486.93286   -8155.8991 
38893000    69.358667   -9887.4097   -9622.9828   -9887.4097            0    8417.9163    24.604491    24.724995    22.747884    13838.582    8585.8032    8320.3053    8347.6404   -333.08735   -3.7985352    411.32643   -7924.0661 
38894000    70.355719   -9889.3528   -9621.1247   -9889.3528            0    8620.3191    24.629092    24.762557    22.660068    13819.906    9260.3085    7428.1068    9172.5419    168.17388   -255.70263    133.46382   -7883.7066 
38895000    73.087702   -9887.0775   -9608.4338   -9887.0775            0    8393.5991       24.655     24.66076    22.756608    13836.269    7880.0633    8813.1533    8487.5808   -175.86385    654.32429   -367.65412    -7914.708 
38896000    69.190054   -9890.2642   -9626.4802   -9890.2642            0    8027.6045    24.699256    24.643009    22.740389    13841.256    7578.5123    8624.7046    7879.5966    277.88854    23.602757    237.08218   -8006.0237 
38897000    70.826273   -9895.4837   -9625.4616   -9895.4837            0    8277.4469    24.686892     24.63352    22.732616    13824.274     7826.691     9054.793    7950.8567   -262.44779    20.980168    829.42802    -7956.622 
38898000    70.947449   -9902.9467   -9632.4626   -9902.9467            0     8139.717    24.705779    24.595737    22.747379    13822.601    7628.6828    8989.9481    7800.5201    315.61603    59.025598    121.53304   -7991.5897 
38899000    72.118098   -9898.8002   -9623.8531   -9898.8002            0    7661.7227    24.659405     24.72446    22.716554    13850.067    7264.6939    7954.2083    7766.2659    25.115122    -225.7396    55.199661   -8076.2692 
38900000    71.022812   -9897.7141   -9626.9428   -9897.7141            0    8022.8496    24.662707    24.709981    22.713358    13841.862    8030.7585    8116.1094    7921.6808     -401.866   -27.668685    570.70188   -8007.3753 
38901000    70.058213   -9882.9092   -9615.8153   -9882.9092            0    9096.9446    24.614178    24.635502    22.754966    13798.216    10025.121    9174.5438     8091.169   -336.91061   -169.13019    130.94378   -7785.2114 
38902000    70.856047   -9901.8154   -9631.6798   -9901.8154            0    7716.6319      24.7004    24.698804    22.701681    13849.622    7478.2717    7635.7311     8035.893   -9.3558742    350.56131   -333.95574    -8073.055 
38903000    71.448602   -9887.3174   -9614.9227   -9887.3174            0     8622.273    24.652374    24.669416    22.711132    13811.995     8128.431     9105.686    8632.7021    195.59953   -213.77485    282.80968   -7878.1057 
38904000       69.337   -9893.6699   -9629.3257   -9893.6699            0    8868.0843    24.651471    24.626984    22.740247    13805.407    8615.4074    9288.5028    8700.3427    -482.2829   -804.45169    2.1804323   -7843.8459 
38905000    70.885504   -9894.1164   -9623.8685   -9894.1164            0    7984.1925    24.697395    24.744762    22.653889    13844.497    7593.3801    7769.1826    8590.0149   -462.73012   -216.07878   -499.76956   -8011.7978 
38906000    67.967525   -9910.4386   -9651.3154   -9910.4386            0    7795.7784    24.617448    24.700991    22.753935    13836.107     7799.335    7840.6645    7747.3359   -617.59735    397.25437    19.570581   -8078.2408 
38907000    71.161665   -9894.1974   -9622.8967   -9894.1974            0    8765.6987    24.648704    24.685454    22.685387    13803.251    8364.6056    8783.9633    9148.5273   -362.58448    275.16722    168.55182   -7858.3066 
38908000    72.425357   -9898.0955    -9621.977   -9898.0955            0    8216.9781    24.672427    24.702098    22.673443    13818.572    9035.2525    7626.3852    7989.2966   -487.00034    32.716517    263.02259   -7966.0118 
38909000    73.992612   -9895.7091   -9613.6155   -9895.7091            0    8362.1328    24.626273    24.656166    22.765558    13823.007    8591.1356    8385.5668     8109.696    511.48263    154.77345   -53.339188   -7927.8565 
38910000    70.795204   -9897.4252   -9627.5216   -9897.4252            0    7731.1963     24.67826     24.71599    22.693567    13841.887      7463.64    7972.1426    7757.8063   -269.08189   -95.721665  -0.76720671   -8066.8271 
38911000    67.895234   -9894.1519   -9635.3043   -9894.1519            0    8565.5529     24.63799    24.679815     22.72602    13818.807    8022.0576    8724.0873    8950.5137    143.13113   -178.31738      2.26571   -7909.0615 
38912000    68.159502   -9882.4441    -9622.589   -9882.4441            0    9058.8658    24.661351     24.58886    22.770461    13807.883    8557.0668    9688.0863    8931.4443    159.77322   -298.63924    174.74589   -7798.3707 
38913000    70.116598   -9887.2868   -9619.9703   -9887.2868            0    8457.1835    24.628529    24.724425    22.709389    13828.343    8133.6049    8561.1485    8676.7969   -74.198204    159.57036     634.0835   -7914.3916 
38914000     67.76009   -9892.9535   -9634.6211   -9892.9535            0    7252.3962    24.674187    24.759168    22.729371    13885.653    7140.7109    6786.8133    7829.6644    199.38873   -875.76899   -135.90808   -8165.9529 
38915000    69.724852   -9888.9498   -9623.1269   -9888.9498            0    8644.2671    24.615802    24.693908    22.742927    13824.524    9005.3868    8425.0036    8502.4108    14.296648   -913.67146   -649.65684   -7880.3001 
38916000     71.02271   -9889.2037   -9618.4327   -9889.2037            0    7807.8068    24.655774    24.719607    22.736507     13857.47    7884.8686    7583.2138    7955.3378    1.1554587    496.56974    384.01731   -8040.4984 
38917000    69.270876   -9899.4065   -9635.3143   -9899.4065            0    8554.1453    24.557198    24.792374    22.692604    13815.966    9450.3323    7211.1774    9000.9261    98.855745   -774.82153   -42.938324   -7911.7251 
38918000    71.952076   -9884.0697   -9609.7555   -9884.0697            0    8422.7721    24.648662     24.71489    22.699616    13828.356    8523.4768    8085.2733    8659.5661   -338.56876   -181.27656    371.92053    -7911.115 
38919000     70.64239   -9890.2145   -9620.8935   -9890.2145            0    8537.6066    24.709381    24.604193    22.730595    13819.165    7857.8954    9097.9028    8657.0215   -165.03665    353.23001    195.03595   -7900.2383 
38920000    72.781488     -9905.44   -9627.9638     -9905.44            0    8221.0169    24.705944    24.615017     22.74795    13833.875    7081.7375    9164.8066    8416.5067    197.41748   -430.27499    166.06311   -7969.3499 
38921000    69.498992   -9888.3593   -9623.3975   -9888.3593            0    8638.7062    24.646904    24.683663    22.694398    13806.724    8338.7734     8852.687    8724.6583   -65.889885   -236.57057   -105.60285   -7883.9343 
38922000    68.387425   -9887.2534   -9626.5293   -9887.2534            0     8357.757    24.615838    24.733628    22.708218    13825.649    7934.7473    8454.9585    8683.5652   -199.24282   -68.117904    149.87193   -7941.3305 
38923000    68.656791   -9887.1153   -9625.3643   -9887.1153            0    7987.3504    24.638998    24.687595    22.761061    13845.043    8685.6941     7629.998    7646.3592    92.108139    157.05644   -84.529542   -8012.5925 
38924000    69.490159   -9893.7504   -9628.8222   -9893.7504            0    8408.6383    24.679481    24.657437    22.713641    13821.995    8275.9046    8705.9945    8244.0159    161.12845    277.88942    286.69881   -7933.8121 
38925000    71.901273   -9896.2769   -9622.1565   -9896.2769            0    8310.5599    24.673626    24.623226    22.743178    13817.487    7655.1173    9105.7772    8170.7853   -127.42697    192.77145    83.055055   -7947.4633 
38926000    69.426494   -9892.6554     -9627.97   -9892.6554            0    8176.9669    24.710313    24.668284    22.696653    13834.995    7933.6514    8268.2113    8329.0379   -574.29748    191.47469    143.36466   -7978.1098 
38927000    69.936878    -9886.696   -9620.0647    -9886.696            0     8604.888    24.651226    24.629036    22.766905    13822.606    8819.2348    8952.5095    8042.9197     329.8776   -51.498739    138.26485    -7885.418 
38928000    68.077089    -9885.803   -9626.2621    -9885.803            0    8545.1726    24.628832    24.707836    22.712735     13821.27    8850.9591    7949.2022    8835.3564    33.190894   -527.39049    115.94838   -7903.8198 
38929000     70.65697   -9896.4484   -9627.0718   -9896.4484            0    7695.0791    24.662734    24.758388     22.68264    13850.236    7588.4901     7255.666    8241.0811   -358.03998   -495.65128    400.20655   -8072.7314 
38930000    69.018765   -9890.9686   -9627.8376   -9890.9686            0    8913.9541    24.649903    24.662522    22.713053    13807.919    9181.4267    8577.4346    8983.0009   -85.207773   -269.31075    -32.09218    -7832.796 
38931000    72.423111   -9899.1532   -9623.0433   -9899.1532            0    8256.5461    24.585213    24.791451    22.702666    13837.346     8924.293    7160.8571    8684.4884    207.03902   -91.940854    10.947348   -7956.8434 
38932000    71.945373   -9888.3108   -9614.0223   -9888.3108            0    8548.7672    24.668889    24.697424    22.694194     13826.62    8151.4365    8299.4016    9195.4637   -185.80096   -583.74315    484.42457   -7890.1884 
38933000    70.533726   -9890.5965   -9621.6898   -9890.5965            0    8357.2652    24.697767    24.621367    22.753176    13836.042    7932.5585     8778.552     8360.685   -862.38838    538.64941   -76.444578   -7935.3233 
38934000    71.471701   -9892.5244   -9620.0417   -9892.5244            0    8559.8809    24.675809    24.667112    22.718118    13828.085    8433.9085    8381.8784    8863.8558   -578.84028     158.6303    164.61004   -7893.7838 
38935000    73.360819   -9888.4832   -9608.7983   -9888.4832            0    7941.9022    24.682603    24.711686    22.696411    13843.647    7637.8455    8190.2448    7997.6162   -257.66411   -200.79191    179.59764   -8005.3649 
38936000    70.970798   -9883.5651    -9612.992   -9883.5651            0    7872.3565    24.659995    24.670557    22.766489    13850.582    7843.3345    8022.8342    7750.9009   -128.96763    724.62442    686.70417   -8022.8034 
38937000    68.256744   -9898.3586   -9638.1328   -9898.3586            0    8327.0235    24.603215    24.790529     22.67051     13827.35    8911.3902    7085.6768    8984.0033   -551.88958    162.06246   -218.75489   -7958.9243 
38938000    72.771632   -9887.9265   -9610.4878   -9887.9265            0    8648.6163    24.603076    24.703526    22.731542    13815.838    9049.8504    8169.6326    8726.3658   -470.66337   -477.37029    315.10442   -7867.8796 
38939000    69.970728   -9900.0361   -9633.2758   -9900.0361            0    8610.0778    24.607545    24.769721    22.651143    13806.371    9062.8366    7192.2522    9575.1445    -432.3646   -377.81863   -98.081391   -7899.6215 
38940000    72.060446   -9883.9419   -9609.2146   -9883.9419            0    8357.7392    24.686938    24.649678    22.719944    13825.655    8188.0206    8869.4475    8015.7494    -227.3525    -259.6845    -61.63939   -7924.0186 
38941000    70.936402    -9894.549   -9624.1071    -9894.549            0    7838.7416    24.661842    24.646359    22.805766    13861.906    7649.3022    8119.9315    7746.9911   -24.451987   -745.64221    120.95766    -8039.414 
38942000    70.181123   -9882.2983   -9614.7358   -9882.2983            0    8353.3983    24.686597    24.712884    22.672873    13832.199    8184.9824    8111.9527    8763.2597     53.44076   -591.08793    994.08636   -7929.6179 
38943000    70.532847   -9898.3463   -9629.4429   -9898.3463            0    7640.6992    24.692393    24.721212    22.706744    13860.784    7535.0354    7533.6756    7853.3866   -53.607731   -444.20875    508.43485   -8084.9114 
38944000     69.77228   -9893.9782   -9627.9744   -9893.9782            0     8061.905      24.6363    24.673908    22.780704    13847.793    8036.0175    7857.2875      8292.41    -291.8893   -38.315393    459.85037   -7999.8255 
38945000    72.128249   -9895.4308    -9620.445   -9895.4308            0     9048.759    24.680249    24.707291    22.621165    13793.981    8419.5915    9141.7114    9584.9741    289.26609   -204.13848    286.93482   -7800.0965 
38946000    71.044003   -9890.9295   -9620.0774   -9890.9295            0    8288.5447    24.632336    24.648458    22.783742    13833.128     8373.001    8667.3551    7825.2778   -662.72438   -367.83199    17.231671   -7947.9299 
38947000       71.199   -9890.9818   -9619.5388   -9890.9818            0    8980.1667    24.528386     24.74952    22.728446    13797.662    10752.245    8111.6854    8076.5701   -346.00465    103.04726    852.08521    -7812.507 
38948000     72.07635   -9898.7246   -9623.9367   -9898.7246            0    7454.9665    24.666278    24.719643    22.746272    13869.349     7933.335    7275.5563    7156.0082    119.32804   -45.588292    137.46367   -8116.0189 
38949000    71.017053   -9883.8626   -9613.1132   -9883.8626            0    8666.2571    24.660268    24.636437    22.750986     13822.16    8645.3676    8632.7284    8720.6754    307.39158    114.87325    242.08036   -7866.1515 
38950000    70.202707   -9895.3502   -9627.7054   -9895.3502            0    7454.5574    24.677321    24.679377    22.754701    13858.089    6981.5606    8164.6057     7217.506   -77.046068    66.911823    673.68763   -8121.0946 
38951000    73.447518   -9888.3198   -9608.3044   -9888.3198            0    8824.2769     24.63379    24.685175    22.714767     13812.61    9078.1491    8936.4164    8458.2651    467.35788   -595.21765    550.86288   -7830.7178 
38952000       70.048   -9893.4627   -9626.4078   -9893.4627            0    8428.4691    24.574174    24.681432    22.775646    13814.017    9101.5533    8383.4812    7800.3728    398.14456    189.04402   -285.75843   -7928.3808 
38953000    69.305896   -9897.5945   -9633.3688   -9897.5945            0     8795.623    24.678699    24.625077    22.719318    13806.867    8659.8053     8938.053    8789.0108   -144.18577   -48.074421    40.937787    -7862.291 
38954000    72.372403   -9894.6983   -9618.7817   -9894.6983            0    7591.6372    24.707148    24.699697    22.699324    13852.468    7078.5299    7946.9825    7749.3993     260.8854   -313.40255    257.11329   -8085.0885 
38955000    67.976747   -9890.6213   -9631.4629   -9890.6213            0    7996.9116    24.666119    24.689087    22.725642    13839.551    7128.8657     8514.562    8347.3069   -8.3854682    93.219366   -201.84936    -8017.401 
38956000    66.765463   -9902.0936   -9647.5532   -9902.0936            0    7919.0289    24.629626    24.700314    22.762049    13847.509    8459.2403    8067.6159    7230.2305   -183.50966   -98.471461    623.91627   -8048.2918 
38957000    70.571236   -9887.4583   -9618.4085   -9887.4583            0    8558.2203    24.694279    24.693439     22.65981     13817.65    7431.9603    8691.5805      9551.12    415.18613   -290.71051    269.32741   -7893.7881 
38958000    69.731675   -9891.1074   -9625.2585   -9891.1074            0    8270.5779     24.67482    24.675709    22.728697    13838.791    8420.9439    7902.8154    8487.9744   -603.00922   -576.00043    195.17617   -7956.0526 
38959000    70.063278   -9884.0847   -9616.9716   -9884.0847            0    7317.0463    24.697681    24.662287    22.790765    13881.885    7442.9744    7830.5667    6677.5978     149.0234   -134.77953    608.46795   -8135.6132 
38960000    71.788828    -9889.966   -9616.2743    -9889.966            0    8841.7875    24.689262    24.662834    22.664575    13800.622    7964.9119    8850.0119    9710.4386   -267.59019    67.655258     296.7975   -7836.7062 
38961000    73.588518   -9899.3295   -9618.7765   -9899.3295            0     7560.255    24.660684    24.740368    22.725818    13865.349    7780.7551    6826.8529    8073.1571   -246.87009   -366.32563   -252.87509   -8090.0031 
38962000    70.020818   -9890.6307   -9623.6794   -9890.6307            0    8774.2513    24.637282    24.671388    22.727157    13814.383    9482.6968    8028.5554    8811.5018    37.380332   -228.22626    45.935639   -7855.9432 
38963000    69.552685   -9898.4797   -9633.3132   -9898.4797            0    7611.1151    24.660667     24.72438    22.737802    13863.686    7897.7766    7130.1189    7805.4498    -508.0881    -602.8676   -370.15032   -8094.4398 
38964000    69.714535   -9880.5225   -9614.7389   -9880.5225            0    8977.9208    24.608211    24.698474    22.725547    13812.252    8995.0028    9103.5008    8835.2587    368.92152   -688.22079   -56.312877   -7806.2487 
38965000    69.931232   -9894.4339   -9627.8241   -9894.4339            0    8480.9014    24.665281    24.708322    22.681656    13823.056    8119.1557    8495.3294    8828.2192   -666.96307    -284.4348    1342.4343    -7918.116 
38966000    67.842037   -9896.9019   -9638.2571   -9896.9019            0    7003.8139    24.714628    24.676295    22.774522    13889.394    6355.6852    7442.8683    7212.8883   -88.793142    39.687747   -526.99289   -8219.5466 
38967000    71.208037   -9886.4713   -9614.9938   -9886.4713            0     8692.709    24.692384    24.687351    22.675662    13822.847    8296.0598    8741.6398    9040.4275   -69.367353   -822.38095   -388.47775   -7862.6128 
38968000    68.420383   -9887.7106   -9626.8609   -9887.7106            0    7603.8555    24.649097    24.729015    22.748411    13866.246    8022.6671    7322.8559    7466.0436     14.45399   -288.31294    390.41331   -8089.1713 
38969000    69.657794   -9893.6514   -9628.0841   -9893.6514            0    9017.2114    24.668819    24.658342    22.686121     13799.79    8641.6132    9141.4689    9268.5523   -574.33382   -596.30779    265.15421   -7813.3182 
38970000    69.736008   -9885.8591   -9619.9936   -9885.8591            0    8825.6361     24.60261    24.755486     22.65289    13796.733    8955.9605    8032.1602    9488.7876   -430.13749    194.81728    877.61987   -7844.1768 
38971000    69.543637   -9891.3824   -9626.2503   -9891.3824            0    7409.2068    24.686109     24.66924    22.766214    13864.341    7155.7596    7969.2214    7102.6395    5.6317243   -731.22654     538.7978   -8128.1295 
38972000    70.760245   -9897.6656   -9627.8952   -9897.6656            0    8714.9747    24.622771    24.687973    22.725607    13814.586     9278.608    8515.1075    8351.2085    20.410643   -251.24107   -5.2723719   -7872.0757 
38973000    69.916731   -9892.5417   -9625.9872   -9892.5417            0     7772.392    24.707807    24.666765    22.722536    13848.515    7384.1693    8050.9552    7882.0515   -206.92369   -242.71494   -449.25675   -8056.2253 
38974000    75.223709   -9894.7968   -9608.0097   -9894.7968            0    7964.5119    24.596697    24.656726    22.837001    13850.048    8074.5492    8586.5969    7232.3894     339.5194   -110.31516   -481.84525    -7999.268 
38975000     70.75434   -9899.8174   -9630.0696   -9899.8174            0    7831.9424    24.681935    24.716931    22.691175    13843.016    7382.8985    8023.3197     8089.609    -537.3043   -798.69953   -145.51294   -8048.9086 
38976000     69.91392   -9891.4246   -9624.8809   -9891.4246            0    8498.7204    24.649762    24.675284    22.738524    13830.477    8248.4729    8620.1312     8627.557    -267.3537   -62.437442    241.31577   -7910.6607 
38977000    70.864709   -9886.7955   -9616.6269   -9886.7955            0    8194.9757     24.68533     24.68449    22.700811    13832.621    7862.7357    8649.2367    8072.9545   -122.83738    635.41223     185.7472   -7963.4169 
38978000    71.401936   -9887.6535   -9615.4368   -9887.6535            0     8084.331     24.67754    24.708042    22.689947    13834.825    7830.3648    8930.0927    7492.5356   -593.71251    27.780581   -154.04207   -7984.2877 
38979000     69.69954   -9893.6612   -9627.9348   -9893.6612            0    8606.9745      24.6268    24.645487    22.766524    13817.902    8753.6839    8932.3872    8134.8523   -126.97579   -751.86904   -46.493047   -7893.4579 
38980000    70.743238   -9886.1466   -9616.4411   -9886.1466            0     9160.436    24.672794    24.612811    22.733658    13805.396    8775.9953     9663.995    9041.3176    -438.0233   -523.27961    58.236446   -7772.1014 
38981000    70.828241   -9883.1642   -9613.1346   -9883.1642            0    8217.2443    24.669026     24.74873     22.67562    13844.079    8457.5891    7976.6907    8217.4532   -293.35666     280.4107    416.40109    -7954.059 
38982000    72.780834   -9891.7995   -9614.3258   -9891.7995            0    8548.4784    24.605773    24.664043    22.767885    13817.325    8562.6632    9015.3418    8067.4302     -334.939   -57.977628    224.72987    -7891.709 
38983000    71.638227    -9882.698   -9609.5804    -9882.698            0    8934.1652    24.621434    24.763251    22.651095    13810.525    8441.6299    8912.0703    9448.7954   -199.05951    723.31137    22.974153   -7810.1292 
38984000    72.461023    -9894.604   -9618.3495    -9894.604            0    7988.5715    24.658853    24.667927    22.764256    13847.105    8174.6636    8312.5254    7478.5256    245.44371    -120.6184   -323.81992   -8005.0908 
38985000     67.56217   -9888.1271   -9630.5493   -9888.1271            0    8104.9915    24.676484    24.622646    22.768494    13834.144    8089.8421    8489.3236    7735.8086   -618.89668   -164.25467   -101.03009   -7995.3121 
38986000    72.803824   -9895.0636   -9617.5022   -9895.0636            0    8378.8726    24.638055    24.722886    22.704432    13829.811    8569.2609    7965.7815    8601.5754   -98.683652   -559.75073   -59.280473   -7927.5372 
38987000    71.122707   -9897.4026   -9626.2504   -9897.4026            0    8160.5163    24.629935    24.716548    22.717682    13829.774    8380.6176    7809.7228    8291.2085    110.29467    600.04898    11.205574   -7980.3308 
38988000    73.172854    -9890.047   -9611.0787    -9890.047            0    7775.9376    24.640956    24.666643    22.798684     13857.26     7903.844    7853.9565    7570.0123    49.147583   -67.039724    887.77819   -8039.6089 
38989000    71.183178   -9886.5928   -9615.2101   -9886.5928            0    8741.7853    24.660082    24.673477    22.691273    13806.504    8784.7983    8955.9796    8484.5781    154.53222   -357.15325   -541.31896   -7855.0192 
38990000      72.0278   -9883.9928     -9609.39   -9883.9928            0    8353.9098    24.616878    24.747865    22.700515    13829.498    8468.4002     7795.564     8797.765    269.02861   -330.17985   -109.98539   -7924.4979 
38991000    72.563689   -9893.1367   -9616.4908   -9893.1367            0    8888.9399     24.61198    24.647352    22.771603    13813.713    9216.2733    9035.4398    8415.1066    -368.5967   -690.83693   -334.83512   -7825.7353 
38992000    73.468501    -9901.077   -9620.9816    -9901.077            0    7104.6323    24.659427    24.709918    22.771984    13875.708    7414.2753     7216.185    6683.4366   -60.050401     29.85422     17.67974   -8183.2671 
38993000    68.960758   -9886.6221   -9623.7122   -9886.6221            0    8081.1964    24.616938    24.720723    22.729247     13831.85    8788.6942    8074.7361    7380.1587   -75.801728    599.55036   -623.66272   -7993.5463 
38994000    68.762967   -9894.6352   -9632.4794   -9894.6352            0    7766.4851    24.640416    24.676826     22.78428     13853.92    7819.8507    7597.7436     7881.861   -91.323117   -52.556408    79.958532   -8063.2983 
38995000    71.046336   -9890.9758   -9620.1148   -9890.9758            0    8132.1288     24.66201    24.679199    22.729394    13833.988    8774.8475    7940.5951    7680.9439   -704.89057   -763.88708     582.4978    -7979.421 
38996000    70.397511   -9899.7608   -9631.3734   -9899.7608            0    7949.1325    24.717978      24.6832    22.698102    13848.538    7634.3386    8299.9578    7913.1012   -381.43641    241.70585    -528.3136   -8025.9131 
38997000    73.730049   -9888.8198   -9607.7273   -9888.8198            0    8512.2229    24.531531      24.6768    22.832229    13821.711    9349.4329    8252.1027     7935.133   -115.14599    137.16648   -334.75931   -7891.8719 
38998000      68.6497   -9896.2377   -9634.5138   -9896.2377            0    8042.4711    24.622784    24.688361    22.760009    13835.723    8805.8591    7978.9764    7342.5778   -92.163444   -163.46136   -28.668806   -8011.7054 
38999000    66.738808   -9894.5794   -9640.1406   -9894.5794            0    7850.2448     24.73773     24.67446    22.676204    13841.331    7300.0844    8370.1193    7880.5308   -67.522353    -559.1121    669.78623   -8055.4776 
39000000    73.594955   -9894.8733   -9614.2958   -9894.8733            0    8624.8028    24.637134    24.665992    22.750881    13825.696    8472.0446    8616.7212    8785.6426   -690.14295    -625.1181   -159.13756   -7875.2458 
Loop time of 606.335 on 64 procs for 250000 steps with 1920 atoms

Performance: 71.248 ns/day, 0.337 hours/ns, 412.314 timesteps/s
374.1% CPU use with 16 MPI tasks x 4 OpenMP threads

MPI task timing breakdown:
Section |  min time  |  avg time  |  max time  |%varavg| %total
---------------------------------------------------------------
Pair    | 72.017     | 75.298     | 78.235     |  20.1 | 12.42
Bond    | 1.5975     | 1.8973     | 2.7745     |  21.7 |  0.31
Kspace  | 296.35     | 304.25     | 310.02     |  22.1 | 50.18
Neigh   | 0.16309    | 0.17107    | 0.17998    |   1.1 |  0.03
Comm    | 77.114     | 83.655     | 89.837     |  43.6 | 13.80
Output  | 0.58871    | 0.58903    | 0.59034    |   0.0 |  0.10
Modify  | 92.07      | 106.43     | 111.81     |  51.4 | 17.55
Other   |            | 34.04      |            |       |  5.61

Nlocal:        120.000 ave         123 max         117 min
Histogram: 1 0 0 4 0 6 4 0 0 1
Nghost:        4356.88 ave        4395 max        4325 min
Histogram: 3 0 1 3 2 1 2 2 1 1
Neighs:        43994.4 ave       45189 max       43101 min
Histogram: 1 2 1 4 4 0 1 2 0 1

Total # of neighbors = 703910
Ave neighs/atom = 366.61979
Ave special neighs/atom = 2.0000000
Neighbor list builds = 250
Dangerous builds = 0

unfix		3
unfix		2
unfix		1

write_data	data.final.${pid}
write_data	data.final.0
System init for write_data ...
PPPM initialization ...
  extracting TIP4P info from pair style
  using 12-bit tables for long-range coulomb (../kspace.cpp:340)
  G vector (1/distance) = 0.37536539
  grid = 30 30 30
  stencil order = 5
  estimated absolute RMS force accuracy = 0.0031649074
  estimated relative force accuracy = 9.5310246e-06
  using double precision FFTW3
  3d grid and FFT values/proc = 7920 1800
Last active /omp style is kspace_style pppm/tip4p/omp
WARNING: Not all mixed pair coeffs generated from mixing. Use write_data with 'pair ij' option to store all pair coeffs. (../write_data.cpp:312)

write_restart   restart.lmp.${pid}
write_restart   restart.lmp.0
System init for write_restart ...
PPPM initialization ...
  extracting TIP4P info from pair style
  using 12-bit tables for long-range coulomb (../kspace.cpp:340)
  G vector (1/distance) = 0.37536539
  grid = 30 30 30
  stencil order = 5
  estimated absolute RMS force accuracy = 0.0031649074
  estimated relative force accuracy = 9.5310246e-06
  using double precision FFTW3
  3d grid and FFT values/proc = 7920 1800
Last active /omp style is kspace_style pppm/tip4p/omp
Total wall time: 0:10:06
