LAMMPS (30 Jul 2021)
  using 1 OpenMP thread(s) per MPI task
package omp 0
using multi-threaded neighbor list subroutines
echo both

include		in.partitions
variable        pid world 0
include		in.temp
variable        temperature equal 268.80
variable	tempDamp equal 100.0
include		in.pressure
variable        pressure equal 9125.0
variable        pressureDamp equal 1000.0 # This is 1 ps
include		in.seed
variable        seed world 745823

units		real
atom_style	full
read_restart	restart.lmp.${pid}
read_restart	restart.lmp.0
Reading restart file ...
  restart file = 30 Jul 2021, LAMMPS = 30 Jul 2021
  restoring atom style full from restart
  orthogonal box = (-0.15798117 -0.11786621 -0.094824445) to (24.887982 24.847867 22.904824)
  4 by 4 by 4 MPI processor grid
  restoring pair style lj/cut/tip4p/long/omp from restart
  restoring bond style harmonic/omp from restart
  restoring angle style harmonic/omp from restart
  1920 atoms
  1280 bonds
  640 angles
Finding 1-2 1-3 1-4 neighbors ...
  special bond factors lj:    0        0        0       
  special bond factors coul:  0        0        0       
     2 = max # of 1-2 neighbors
     1 = max # of 1-3 neighbors
     1 = max # of 1-4 neighbors
     2 = max # of special neighbors
  special bonds CPU = 0.725 seconds
  read_restart CPU = 0.955 seconds
include 	in.setup
variable	out_freq equal 1000
variable	out_freq2 equal 10000
variable	out_freq3 equal 1000

timestep	2.0

neigh_modify    delay 7 every 1

include		in.tip4p
# This is TIP4P/Ice

# create groups ###
group ox type 2
640 atoms in group ox
group hy type 1
1280 atoms in group hy

# set charges - beside manually ###
set group ox charge -1.1794
Setting atom values ...
  640 settings made for charge
set group hy charge 0.5897
Setting atom values ...
  1280 settings made for charge

# ### TIP3P Potential Parameters ###
pair_style lj/cut/tip4p/long/omp 2 1 1 1 0.1577 8.5
pair_coeff 1 1*2 0.000 0.000
pair_coeff 2 2 0.21084 3.1668
bond_style  harmonic
bond_coeff  1 450 0.9572
angle_style harmonic
angle_coeff 1 55 104.52
kspace_style pppm/tip4p/omp 1.0e-5
pair_modify tail yes

thermo          ${out_freq}
thermo          1000
thermo_style    custom step temp pe etotal epair emol press lx ly lz vol pxx pyy pzz pxy pxz pyz enthalpy

restart 	${out_freq3} restart.lmp.${pid} restart2.lmp.${pid}
restart 	1000 restart.lmp.${pid} restart2.lmp.${pid}
restart 	1000 restart.lmp.0 restart2.lmp.${pid}
restart 	1000 restart.lmp.0 restart2.lmp.0


include         in.dump
dump            myDump all atom ${out_freq2} dump.water.${pid}
dump            myDump all atom 10000 dump.water.${pid}
dump            myDump all atom 10000 dump.water.0
dump            myDump2 all dcd ${out_freq2} dump.dcd
dump            myDump2 all dcd 10000 dump.dcd
dump_modify     myDump append yes
dump_modify     myDump2 append yes


variable natoms 	equal  "count(all)"                        # NUMBER ATOMS
variable H      	equal  "enthalpy/v_natoms"                 # ENTHALPY-per-atom
variable Vol      	equal  "vol/v_natoms"                 # volume-per-atom
fix AVG all 		ave/time ${out_freq} 1 ${out_freq} v_Vol v_H file vol_enthalpy.dat
fix AVG all 		ave/time 1000 1 ${out_freq} v_Vol v_H file vol_enthalpy.dat
fix AVG all 		ave/time 1000 1 1000 v_Vol v_H file vol_enthalpy.dat




fix 		1 all shake 1e-6 200 0 b 1 a 1
       0 = # of size 2 clusters
       0 = # of size 3 clusters
       0 = # of size 4 clusters
     640 = # of frozen angles
  find clusters CPU = 0.080 seconds
fix             2 all nph aniso ${pressure} ${pressure} ${pressureDamp}
fix             2 all nph aniso 9125 ${pressure} ${pressureDamp}
fix             2 all nph aniso 9125 9125 ${pressureDamp}
fix             2 all nph aniso 9125 9125 1000
fix             3 all temp/csvr ${temperature} ${temperature} ${tempDamp} ${seed}
fix             3 all temp/csvr 268.8 ${temperature} ${tempDamp} ${seed}
fix             3 all temp/csvr 268.8 268.8 ${tempDamp} ${seed}
fix             3 all temp/csvr 268.8 268.8 100 ${seed}
fix             3 all temp/csvr 268.8 268.8 100 745823


run             250000
PPPM initialization ...
  extracting TIP4P info from pair style
  using 12-bit tables for long-range coulomb (../kspace.cpp:340)
  G vector (1/distance) = 0.37425743
  grid = 30 30 30
  stencil order = 5
  estimated absolute RMS force accuracy = 0.0032956897
  estimated relative force accuracy = 9.9248715e-06
  using double precision FFTW3
  3d grid and FFT values/proc = 3600 512
Last active /omp style is kspace_style pppm/tip4p/omp
Neighbor list info ...
  update every 1 steps, delay 7 steps, check yes
  max neighbors/atom: 2000, page size: 100000
  master list distance cutoff = 10.8154
  ghost atom cutoff = 10.8154
  binsize = 5.4077, bins = 5 5 5
  1 neighbor lists, perpetual/occasional/extra = 1 0 0
  (1) pair lj/cut/tip4p/long/omp, perpetual
      attributes: half, newton on, omp
      pair build: half/bin/newton/omp
      stencil: half/bin/3d
      bin: standard
Per MPI rank memory allocation (min/avg/max) = 9.329 | 9.338 | 9.344 Mbytes
Step Temp PotEng TotEng E_pair E_mol Press Lx Ly Lz Volume Pxx Pyy Pzz Pxy Pxz Pyz Enthalpy 
 3750000    273.68061   -9055.1312   -8011.7359   -9055.1312            0    8447.9305    25.045963    24.965733    22.999649     14381.47     7692.184    9270.3838    8381.2238    90.965586    -546.4119   -925.65924   -6239.8755 
 3751000    267.48305   -9076.4876   -8056.7203   -9076.4876            0    7439.0455    25.055433     24.84687    23.122826    14395.094    7144.7355     8614.442    6557.9589    121.08414    760.99469    457.82836   -6494.9843 
 3752000    273.81687   -9085.7582   -8041.8434   -9085.7582            0     8979.557    25.039161    24.856569    23.012803    14322.884    8382.9679     9491.838    9063.8651    94.527544   -825.68595   -761.71198   -6166.1525 
 3753000     268.3134   -9044.2299   -8021.2968   -9044.2299            0    10315.036    25.072522     24.80517    22.966109     14283.27    9662.1888    11391.081     9891.839    391.95219    -115.3033    642.23529   -5872.6042 
 3754000    258.69311   -9076.1212   -8089.8651   -9076.1212            0    7770.5299    25.062118    24.961203    22.988534    14381.182     6288.889    8342.0861    8680.6147    282.80105   -730.73884   -416.23866   -6460.1147 
 3755000    266.95865   -9047.0687   -8029.3006   -9047.0687            0     7178.711    25.106899    25.057906     22.98915    14463.079    6535.0615    6652.4297    8348.6419    20.819139     1150.022   -290.30825    -6515.101 
 3756000    271.19589   -9035.1474    -8001.225   -9035.1474            0    8359.7336    24.983489    25.053909    22.979917    14383.913    7682.1104    7925.2221    9471.8684    603.07446    790.00314   -860.52992   -6247.5651 
 3757000     261.0146    -9061.974   -8066.8674    -9061.974            0    8337.2195    24.890787    24.909763    23.186506    14376.181    9877.4445    7398.0991     7736.115    223.23456    1248.8824    341.19445   -6318.8705 
 3758000    266.08115   -9099.9801   -8085.5574   -9099.9801            0    7167.4897    25.002233    25.012853     23.04593    14412.398     7214.021    7187.5113    7100.9367   -358.58124   -155.89816    432.97666   -6579.0225 
 3759000    274.10968   -9051.6091    -8006.578   -9051.6091            0    7957.7516    25.007271    25.051551    23.006463     14412.88    6765.5266    8085.4798    9022.2484     194.3591   -1838.5352   -351.18263   -6333.8819 
 3760000    271.57161   -9073.7609    -8038.406   -9073.7609            0    7922.0413    24.969509    25.060348     23.00277    14393.859    7292.0386    8131.0684    8343.0169    197.73322   -1343.6304     1163.961   -6375.4138 
 3761000    258.21385   -9043.8343   -8059.4053   -9043.8343            0    9146.0128    24.963485    24.995064    23.019286    14363.204    8656.1745    8960.6937    9821.1703    -827.0412    -526.5564    -1263.434   -6143.5662 
 3762000    276.05097   -9057.6932    -8005.261   -9057.6932            0    9002.5871    25.000686    24.972736    23.014384    14368.697    9065.4571    8301.0776    9641.2265    143.04906   -1626.2692     1063.108   -6118.7445 
 3763000    263.35437   -9022.8058   -8018.7788   -9022.8058            0    8619.7764    25.064231    25.005148    22.977376    14400.722    7952.5271    8329.7493    9577.0527    342.77201     1048.184     -573.009   -6208.4555 
 3764000    264.64503   -9103.4578   -8094.5102   -9103.4578            0    8696.9809    25.060119    24.797213    23.064167     14332.56    9102.5714    9550.8678    7437.5035   -27.298579    523.18658    547.48545   -6276.6178 
 3765000    267.91569   -9057.8463   -8036.4295   -9057.8463            0     10060.69    25.018036    24.918724    22.888035    14268.802    8496.3452    9937.0497    11748.674    17.199664   -131.08082   -393.36971   -5942.8418 
 3766000    266.52848   -9036.4258   -8020.2977   -9036.4258            0    10989.591    24.864892     24.99773    22.968953    14276.717    11112.292    10021.738    11834.742   -757.83972    902.07365     551.0265    -5732.141 
 3767000    266.29237   -9039.9692   -8024.7413   -9039.9692            0    10548.359    24.833815    25.027281    22.962062    14271.447    10476.821    10209.685    10958.573    686.77576    135.86564    516.64113   -5829.2647 
 3768000    265.87579   -9086.4843   -8072.8445   -9086.4843            0    8814.9509    24.811635    25.057308    23.026462    14315.846    8985.6337    9038.2652    8420.9538    349.13508    819.03157   -109.50602   -6232.4421 
 3769000    265.65328   -9053.0897   -8040.2983   -9053.0897            0    9450.1591    24.835377    25.203465    22.861301    14309.747    10395.433    8294.6416    9660.4027   -682.20234     213.0918   -187.95431   -6068.1163 
 3770000    261.06609   -9072.1767   -8076.8738   -9072.1767            0    8834.4842    24.868909    24.976427    23.063136    14325.356    9370.8429    9340.5497      7792.06    80.209599    46.765346    428.04037   -6231.1679 
 3771000    276.14875   -9116.0908   -8063.2859   -9116.0908            0    8367.4405    24.862187    25.002566    23.040734    14322.546     9062.764     7231.197    8808.3606    36.361269   -494.30487   -56.124816   -6315.4979 
 3772000    269.08296   -9039.4745   -8013.6076   -9039.4745            0    10012.645    24.983418    25.057038    22.877764    14321.719    8864.3454    10080.341    11093.247    25.971915    534.99335    315.08866   -5922.2907 
 3773000    266.24453   -9110.3628   -8095.3172   -9110.3628            0    8555.4135    24.995638    24.946961    22.989442    14335.416    8049.9435    9389.3065    8226.9904    140.10648    172.65031   -294.14925   -6306.6597 
 3774000    282.99148   -9070.3297   -7991.4371   -9070.3297            0    7574.3211     25.13875     24.88767    23.008823    14395.353    6131.0403    8556.3505    8035.5724   -310.57205   -223.55518   -62.222679   -6401.2731 
 3775000    267.56555    -9059.992   -8039.9101    -9059.992            0    8493.6847    25.088949    24.789274    23.103845    14369.132    5963.8902    11514.166    8002.9974    45.490574    478.12661   -791.01518   -6259.9816 
 3776000    278.08223    -9068.807   -8008.6307    -9068.807            0    8332.2634    24.998081    24.996033    22.985328    14362.448    8580.5946    8079.7069    8336.4886     873.7176    358.81435   -7.3947404   -6263.3417 
 3777000    270.87234   -9064.9313   -8032.2424   -9064.9313            0     8347.628    24.975821    24.974222     23.05311    14379.417    8452.9421    7359.1322    9230.8096    229.82746     401.5097    562.80512   -6281.6693 
 3778000    267.55602    -9082.236   -8062.1904    -9082.236            0    8274.4375      24.9657    25.018819    23.042012    14392.325     8189.882    7904.6348    8728.7957   -438.85285    440.01956    1123.4361   -6325.4083 
 3779000    267.95564   -9090.3082   -8068.7392   -9090.3082            0    7549.1684    24.978119    25.024296    23.061312      14414.7     7608.412    7407.4487    7631.6443   -916.48178   -313.75088   -734.76068   -6481.7257 
 3780000     272.5631   -9042.5436   -8003.4088   -9042.5436            0    8725.8291    25.054346    25.071615     22.90231    14386.153     7217.813    8523.8249    10435.849   -384.30006   -283.38157    1574.6103   -6172.6663 
 3781000    270.63064   -9025.2874     -7993.52   -9025.2874            0     7701.864    24.952867    25.017193    23.111549      14427.4    8619.6189    7582.8553    6903.1178   -876.75254     178.1651    38.669211   -6372.9798 
 3782000    267.61944   -9047.6191   -8027.3318   -9047.6191            0    7355.3329    25.074202    24.926026    23.068653    14417.913    7121.0694    7270.5857    7674.3436    89.324825    698.41172   -232.60167   -6480.7225 
 3783000    270.09875   -9061.1177    -8031.378   -9061.1177            0    8074.0137    25.031797    25.028294    22.997478    14407.993    7805.1468    8105.3295    8311.5649    394.31082    436.14673   -154.99739   -6334.8194 
 3784000    263.38946   -9105.5415   -8101.3808   -9105.5415            0    7168.4652    25.057536    24.930894    23.057917    14404.437    6326.0132    7832.9165    7346.4661   -390.46419   -776.31813    1371.1998   -6595.4731 
 3785000     261.4785   -9105.7671   -8108.8918   -9105.7671            0    8453.8102    24.943372     25.00621    23.027693    14363.275    8926.9807    8450.7723    7983.6776   -103.87211   -411.64456    463.16986   -6338.0414 
 3786000    266.60414   -9082.0929   -8065.6763   -9082.0929            0    8467.8274    24.996628     24.95743    22.998345    14347.554    9028.7163    7996.9723    8377.7936    816.12065    585.80829   -363.98202   -6293.8312 
 3787000     271.2739   -9077.2871   -8043.0672   -9077.2871            0    9660.9914    24.807367    24.958575    23.114793    14311.675    11140.449    9392.5731    8449.9524   -124.91795    1389.2215   -24.214659   -6026.6144 
 3788000    275.41196    -9063.205   -8013.2089    -9063.205            0    10777.361    25.025295    24.932639    22.854333    14259.885     10123.68    10126.707    12081.696    534.69965   -24.218586     1270.221   -5771.8865 
 3789000    263.67551   -9073.9546   -8068.7032   -9073.9546            0    9255.3109    25.055338    24.859349    22.968221    14305.972    8046.6981    10801.261    8917.9732   -698.72261   -29.803669    875.67191   -6137.6943 
 3790000    269.85065   -9080.9945   -8052.2008   -9080.9945            0    10113.472    24.899926    24.879962    23.032012    14268.544    9440.7325    10820.543     10079.14     130.8431   -542.12359   -1172.7352   -5947.6674 
 3791000    258.07269   -9070.2299   -8086.3391   -9070.2299            0    10679.817     24.91508    24.957665    22.889958    14233.484    10825.649    9833.9735     11379.83   -192.83754    326.94619      1612.36   -5869.4144 
 3792000    269.58551   -9080.9569    -8053.174   -9080.9569            0    8421.7697    24.851125    25.066851     23.01799    14338.814    8558.4111    8466.8537    8240.0444     189.1721    68.648896   -793.37678   -6292.0397 
 3793000     280.3686   -9077.9997   -8009.1068   -9077.9997            0    9980.2321    24.770957    25.149883     22.94142    14292.198    10898.744     9438.839    9603.1133    654.24333   -589.36239   -335.66039   -5928.8566 
 3794000       268.58   -9077.7583   -8053.8088   -9077.7583            0    9342.8402    24.840389    25.069711    22.999582    14322.791    10172.805    7953.6446    9902.0711    497.33292   -1164.8193   -86.063531   -6102.2464 
 3795000    270.21368    -9144.956   -8114.7783    -9144.956            0    8427.9396    24.906776    25.027712    22.989417    14330.674    8955.9488    7755.3575    8572.5125   -349.14589    723.84657   -708.75038   -6353.3542 
 3796000    273.74594   -9039.7205   -7996.0761   -9039.7205            0     8823.281    24.978863    25.023919    22.972835    14359.608    8216.7484    8881.2855    9371.8089   -522.32379    -802.5577    791.51609   -6148.3032 
 3797000    270.43913   -9089.6636   -8058.6263   -9089.6636            0    9548.1803    24.896785    24.954556    23.022491    14303.602    10515.168    8841.4096    9287.9634    663.22917   -476.33787   -691.75082   -6066.8437 
 3798000    262.77328   -9053.0608   -8051.2492   -9053.0608            0    9560.1053    24.834936    25.068352    23.035605    14341.298    12350.125    7156.9407    9173.2501   -442.85551   -579.54762   -60.718542   -6051.7234 
 3799000    270.54055   -9060.1763   -8028.7523   -9060.1763            0    8911.9664    24.893049    25.111088    22.958239    14351.001    9391.8509    8413.0873    8930.9609    1142.5372   -726.60412    432.55034   -6163.5256 
 3800000    276.17659   -9057.5874   -8004.6762   -9057.5874            0    9913.8044    24.871272    24.938525     23.05904    14302.435    10511.648    9749.2847    9480.4808    128.21299   -549.19672    157.63958    -5936.792 
 3801000    271.39878   -9072.2029    -8037.507   -9072.2029            0    9130.5037    24.975993    25.056436    22.914576    14340.157    8964.7349    8628.7865    9797.9897    811.74445    75.761641    222.40228   -6127.9857 
 3802000    268.16652   -9078.9651    -8056.592   -9078.9651            0     8878.809    24.916995    24.908383    23.100139    14336.918    8912.0229    9581.6545    8142.7495    38.786199    1025.6741   -396.70872   -6200.1286 
 3803000    262.12985   -9052.7293   -8053.3707   -9052.7293            0    9755.9191    24.866967    24.927994    23.053319    14290.375    9765.3133    10424.057    9078.3866   -587.49228   -224.51381     101.3655   -6020.1351 
 3804000    268.82982    -9063.198   -8038.2961    -9063.198            0    7751.3798    25.053923    24.958304    23.072289    14427.181    8053.0896    8003.2088    7197.8409    -395.7133   -870.20766   -260.94014   -6407.3621 
 3805000    277.74509   -9081.7849    -8022.894   -9081.7849            0    8757.5879    24.990289    24.906283    23.088928      14370.9    7918.3112    9816.5265     8537.926    -4.191594   -757.13727      761.286   -6187.4363 
 3806000    275.13423   -9054.0931    -8005.156   -9054.0931            0    8102.0157    25.116245    25.054616    22.847213    14377.246    7264.0303    8852.7321    8189.2848   -773.37924    595.21835    241.46414   -6306.3465 
 3807000    258.15483   -9025.2721   -8041.0682   -9025.2721            0    9512.3792    24.963545    24.929124    23.006163     14317.18    9385.5615    10440.827    8710.7492   -212.29922   -1497.7437    93.022471   -6054.8703 
 3808000    271.58617   -9097.1641   -8061.7538   -9097.1641            0    9074.6851    25.035765    24.899636    22.963322    14314.909    9095.2065    8334.8886    9793.9603     624.2547   -1406.6827   -947.64897   -6167.2476 
 3809000    269.84319   -9071.7012   -8042.9359   -9071.7012            0    8747.0852    25.040568    24.933763    22.946182    14326.577    7761.3012    9756.6269    8723.3276   -297.75756   -873.05416     770.8239   -6215.3337 
 3810000    262.29984   -9101.2595   -8101.2529   -9101.2595            0    8579.2534    24.938573    24.800648     23.22009    14361.458    8342.3637    9796.5583    7598.8382    -724.7301    120.44698     121.7462   -6304.3528 
 3811000    265.44213   -9082.3321   -8070.3456   -9082.3321            0    8269.0281    25.029138    25.051709    22.908691    14364.269    8440.6785    8266.7029    8099.7028   -421.70508   -848.49955    -463.0291   -6338.0824 
 3812000    269.57294   -9063.2808   -8035.5458   -9063.2808            0    9188.0729    24.966046     24.97093    22.973703     14322.39    9262.7304    9270.5485    9030.9399   -719.68237    38.167902   -318.27979   -6116.3653 
 3813000    275.78684   -9033.0889   -7981.6637   -9033.0889            0    9759.0363     24.92894    24.902203    23.095109     14337.11    9852.5939    10300.416     9124.099   -89.492697   -445.61466    742.67879   -5941.1269 
 3814000    274.91853   -9081.8505   -8033.7357   -9081.8505            0     9457.986     25.02514    24.973124     22.93452    14333.064    8797.3469    11014.364    8562.2471   -23.042218    1299.5317    412.67348   -6056.7042 
 3815000    257.35314   -9088.3084   -8107.1609   -9088.3084            0    7918.5214    25.087301    24.898665    23.041536    14392.672    6796.5274    9752.9266    7206.1101   -318.41194    391.55328    503.31023   -6445.0446 
 3816000    266.71653   -8991.8938   -7975.0488   -8991.8938            0    9565.3239    25.066031    24.981205    22.925291    14355.351    9520.0022     10266.06      8909.91    553.26238   -1731.5992   -566.56437   -5972.4711 
 3817000    267.76453   -9106.6545   -8085.8141   -9106.6545            0    9281.0373    24.907677    24.906204    23.041616    14293.998    8776.4267    10151.831    8914.8546   -385.99825   -105.22289   -92.516355   -6151.0584 
 3818000     266.8697   -9089.3354   -8071.9064   -9089.3354            0    9273.4247    24.887698     24.94228     23.06208    14315.923    9649.0518    9618.3883    8552.8339   -793.08173    268.45386   -154.30226   -6135.7725 
 3819000    260.58273   -9078.2333   -8084.7731   -9078.2333            0    8801.9252    25.014056    25.074126    22.829992    14319.099    8634.2531    8339.4306    9432.0919     556.5903   -1276.3147   -1801.6987   -6246.6726 
 3820000    274.02118   -9110.6545   -8065.9608   -9110.6545            0    8229.3975    24.816404    24.931844    23.149253    14322.876    8846.8271    8793.9603    7047.4052   -101.81935    -4.072913    337.83705   -6346.9676 
 3821000    267.11452   -9050.9136   -8032.5512   -9050.9136            0    9285.6874    24.917531    25.001387    23.020877    14341.381    9497.0011    9738.7189    8621.3423    379.24838   -837.91882    784.82978   -6090.4094 
 3822000    267.48682   -9019.9656   -8000.1838   -9019.9656            0    9787.8854    24.926539    25.025067    22.983503    14336.841    10040.328    9703.6461    9619.6823   -286.78868   -630.36317   -1109.1866   -5953.6533 
 3823000    260.57375   -9122.7726   -8129.3466   -9122.7726            0    8525.0203    24.849462    24.975381    23.089769    14330.083    9976.4678    6959.5768    8639.0163    930.31527    -281.8654    99.952124   -6347.7063 
 3824000    272.21156   -9049.8276    -8012.033   -9049.8276            0    9160.2323    24.960245    25.101396    22.861029    14323.281     8525.481     8963.038     9992.178    472.38539    1714.8547   -489.38417   -6098.5488 
 3825000    277.42716   -9053.2054   -7995.5266   -9053.2054            0    9857.5893    24.872729    24.965919    23.046028    14310.905    10085.252    9975.2157    9512.3008   -593.20424    1254.2968    46.534697   -5938.1505 
 3826000     274.3874    -9076.624   -8030.5341    -9076.624            0    10852.467    24.862641    24.890926    22.968575    14214.198    10134.321    11701.805    10721.275   -413.62447   -661.15793    40.792103   -5780.8232 
 3827000    263.23842   -9091.0705   -8087.4856   -9091.0705            0    9650.8777     24.96116    24.979803    22.916618    14289.081    9658.6005    9135.6422    10158.391    351.90931     193.5954    81.221329   -6076.3237 
 3828000    268.05348   -9021.6442   -7999.7021   -9021.6442            0    10439.883     24.82723    24.914297    23.117139    14299.175    11392.031    9318.1997    10609.419    877.04057   -638.49722   -54.030227   -5822.5813 
 3829000    268.63078   -9088.6166   -8064.4736   -9088.6166            0    9563.2835    24.880422    24.950551    23.028756    14295.797     10686.37    9705.4421    8298.0387   -364.33015   -1267.4952    499.87404    -6070.629 
 3830000     264.8067   -9064.9081   -8055.3441   -9064.9081            0    7119.7675    25.106047    25.068925    22.904968    14415.966    6257.3307    7629.0501    7472.9217   -212.71589    663.20678    714.16645   -6558.4694 
 3831000    281.64509   -9079.7389   -8005.9794   -9079.7389            0     8574.237    24.953551    24.955867     23.03045    14341.925    9578.3272    7633.0086    8511.3752   -89.114558    1297.4603    -88.77273   -6212.5725 
 3832000    267.07964   -9073.1276   -8054.8982   -9073.1276            0    9707.7022    24.914118    24.854146    23.118965    14315.705    10267.122    10540.595    8315.3889   -60.560427    201.21246    961.67229   -6028.1254 
 3833000    253.85546   -9077.1572   -8109.3444   -9077.1572            0    9664.8413    24.934645    24.996734    22.957554    14309.092    9734.8746    9365.7265    9893.9228    -188.3645    -588.8326    -183.2102   -6092.4521 
 3834000    270.02695   -9029.4849    -8000.019   -9029.4849            0    8354.5147    24.960959    25.024356     23.06345    14406.167    8142.3112    7631.1428      9290.09   -262.62134    207.69785    242.80319   -6244.7423 
 3835000    269.04503    -9091.795   -8066.0726    -9091.795            0    8453.1188    24.934721    25.015083    23.027858    14363.491    8672.2155    8151.2791    8535.8618   -104.13271    438.79763   -253.29322   -6295.3404 
 3836000     271.9694   -9079.4608   -8042.5894   -9079.4608            0    8670.4251    24.854018    25.145769    22.965783    14353.003    10226.866    6680.3881    9104.0212   -386.49956   -1063.1517    557.78098   -6227.6628 
 3837000    273.32362   -9082.8715   -8040.8372   -9082.8715            0    10491.053    24.874136    25.010242    22.927093    14263.132    10723.594    9001.5603    11748.004   -175.15167   -1209.6896    -304.6882   -5858.5603 
 3838000    271.02121   -9024.9893   -7991.7328   -9024.9893            0    10170.438    24.889605    25.009734    22.972987     14300.28    11190.778    9644.8166    9675.7192   -680.45371   -220.51594   -370.95218    -5870.638 
 3839000    263.99963   -9100.1432   -8093.6562   -9100.1432            0    11428.935    24.778481    25.031998    22.920127    14216.321    11701.285    10016.813    12568.708    -98.04719   -529.98836    72.339698   -5724.0898 
 3840000    277.38919   -9080.4711    -8022.937   -9080.4711            0    10075.423    24.678462     25.09543    23.081738    14294.904    11164.515    8810.0819    10251.673    48.015935    637.18753   -443.15694   -5922.4479 
 3841000    264.98916   -9100.3018   -8090.0423   -9100.3018            0    9419.5249    24.817666    25.025507    22.985348    14275.617    10528.794     9067.308    8662.4725    733.75578    260.64896   -1001.5492   -6128.9421 
 3842000    274.67951   -9078.7843   -8031.5807   -9078.7843            0    9228.4289    24.780295    25.080074    22.985578    14285.344    9902.1219    8407.4883    9375.6765   -143.42537   -857.87544    674.91932   -6108.9567 
 3843000    273.20128   -9069.5506   -8027.9827   -9069.5506            0    9136.7807    24.901078       25.036    22.970188    14320.153    8710.8763    9709.4572    8990.0086   -759.22473   -221.66226   -633.25327   -6119.8141 
 3844000    258.22549   -9041.4603   -8056.9869   -9041.4603            0    7826.9734    24.854741    25.033354    23.227007    14451.787    9876.6532    7391.6919    6212.5749    190.80103    754.74949   -192.70616   -6407.3389 
 3845000    254.86007   -9089.1991   -8117.5563   -9089.1991            0    8677.3486    24.907723    24.999679    23.000864    14322.295    9378.2094    8370.8808    8282.9557   -1149.7471   -124.48404   -575.39644   -6305.0666 
 3846000    265.72696   -9061.2825   -8048.2102   -9061.2825            0     7297.953    24.845359    25.186481    23.034799    14414.421    8972.7082    5640.9647    7280.1861   -345.81429   -511.67912   -557.89467   -6514.0378 
 3847000    271.09487   -9075.8766   -8042.3393   -9075.8766            0    7827.3983    24.933736    25.044199     23.06704    14404.108    8008.7941    8008.4703    7464.9305   -81.786241    827.17664    733.96789   -6398.0445 
 3848000    260.72823   -9111.5262   -8117.5113   -9111.5262            0    7949.1672    24.900412    25.104389    22.928981    14333.127    8773.7884    7732.6069    7341.1062     145.0172    216.29336    759.66723   -6455.8655 
 3849000    274.33705    -9081.873    -8035.975    -9081.873            0    8050.6148     24.98317    25.155569    22.883579    14381.548    7409.6689    7457.2072    9284.9682    764.57752   -547.78728    349.34385    -6347.438 
 3850000    267.22785    -9094.727   -8075.9326    -9094.727            0    9708.4709    24.860285    24.902071    23.081233    14288.959    9270.2685    10594.523    9260.6209   -40.078528   -283.75889    840.55745   -6052.7863 
 3851000    271.16621    -9090.657   -8056.8477    -9090.657            0    10057.137    24.922656    24.946423    22.906883    14241.922    9558.1688    10578.601    10034.642    518.37169    476.98519   -1099.0909   -5967.9419 
 3852000     264.9925   -9011.9378   -8001.6655   -9011.9378            0      10681.7    25.011024    24.760965    23.120772    14318.627    10342.216    11325.664     10377.22    104.48939    175.83083    1088.4797   -5771.0863 
 3853000    267.56575   -9051.2909   -8031.2083   -9051.2909            0    8618.1815    25.023205     24.95739    22.973615    14347.342    8457.0686    8912.0059      8485.47    11.996874    338.70392    524.37963   -6227.9291 
 3854000    266.92952   -9090.5383   -8072.8813   -9090.5383            0    7118.6083    25.057233     25.00993     23.01044    14420.174    6664.2034    7473.0252    7218.5962   -185.03217    584.98152   -749.51306   -6575.8134 
 3855000    268.82418   -9063.0717   -8038.1913   -9063.0717            0     8714.581    24.925264    24.967672    23.125142    14391.373    9872.4363    7203.8451    9067.4617    1011.2587   -413.34961    664.07808   -6209.1454 
 3856000    266.25058   -9096.9002   -8081.8316   -9096.9002            0    9560.9903    24.855564    24.993856    22.984298    14278.682    10668.866    8802.8347    9211.2701      1066.46    1553.2833    999.92505   -6090.8516 
 3857000    275.58642   -9089.0079   -8038.3468   -9089.0079            0    9624.3151    24.833321    25.040375    22.960255    14277.506    10217.799    9153.9287    9501.2172   -74.145657   -1043.7975    226.27971   -6034.3452 
 3858000    267.85433    -9055.146   -8033.9631    -9055.146            0     10118.04    24.822107    24.976448    22.990893    14253.619    10514.072    8473.4034    11366.645   -847.52102   -506.65299    1617.7407   -5930.6814 
 3859000     269.2215   -9086.5435   -8060.1484   -9086.5435            0    8486.8817     24.98438     25.17674     22.84774    14371.805    8641.8701    7874.4713    8944.3036    142.29753   -185.17903    632.57424   -6281.3147 
 3860000    260.52624   -9069.7553   -8076.5104   -9069.7553            0    8644.6725     24.94209    25.006879    22.988074    14338.209    9902.0398    7734.9536    8297.0242    641.82596    -427.3305    40.139726   -6268.8396 
 3861000    268.19692   -9064.6294   -8042.1404   -9064.6294            0     8372.739    24.926259    24.911986    23.130897    14363.422    9075.2024    8412.1285     7630.886    410.85627    601.06094    684.91954   -6288.2544 
 3862000    274.36976   -9072.5817    -8026.559   -9072.5817            0    8168.3682    24.959767    24.971005    23.040971    14360.757    8506.5757     7796.384    8202.1449    346.98378    129.16419    520.05969   -6315.8012 
 3863000    272.10717   -9091.5243   -8054.1277   -9091.5243            0    7759.5452    24.982956    25.054941    23.013831    14405.426    7295.1473    7444.7961    8538.6922   -849.07268   -961.02007    646.31323   -6423.9375 
 3864000    280.56414   -9052.8043   -7983.1658   -9052.8043            0     7332.483    24.939082    25.235966     22.88821    14404.966    7970.4463    6432.5273    7594.4754    275.26031   -1379.1408    470.02231   -6442.7457 
 3865000    279.95786   -9063.1952   -7995.8682   -9063.1952            0    8780.6565    24.895595    25.036681    23.037801    14359.532    10002.921    8170.4234    8168.6247   -167.70711   -1822.5083    565.95174   -6157.0314 
 3866000    268.37882   -9086.9394   -8063.7569   -9086.9394            0    8563.4012    24.859715    24.955744    23.120562    14343.827    9287.7185    8241.6371    8160.8479   -391.63328    422.84545   -187.01906    -6272.379 
 3867000    259.14935   -9098.0618   -8110.0662   -9098.0618            0    9392.8699    24.951589    24.995224    22.961435     14320.37    9373.2846    8444.0918    10361.233   -813.45459   -716.47432    111.00107    -6148.385 
 3868000    262.40447   -9097.1794   -8096.7739   -9097.1794            0    9686.2272    25.000899    25.075318    22.776165    14278.503    8794.1674    8821.8531    11442.661    170.45555   -704.12009   -66.144548   -6079.7399 
 3869000    271.37087   -9078.1031   -8043.5135   -9078.1031            0    10193.977    24.945611     24.90915    22.974077    14275.493    10793.882    10195.911     9592.139   -38.014957   -988.11771     803.3076   -5921.1945 
 3870000     267.3642   -9075.7151   -8056.4008   -9075.7151            0    9470.4755    24.973612     24.85859    23.110829    14347.405    9271.8084    10425.862    8713.7563   -802.37698     234.1171    476.14994   -6074.7778 
 3871000    267.73599   -9086.1497    -8065.418   -9086.1497            0    9139.4715    25.070691    24.951499    22.887139     14317.08    7261.0113    9001.5328     11155.87   -141.67548   -563.42825   -926.64497   -6157.0971 
 3872000    271.07267    -9053.665   -8020.2123    -9053.665            0    8831.1231    25.037357    24.969247    22.960901    14354.328     7409.505    9626.1347    9457.7297   -742.99474    111.12907   -96.131092   -6171.4772 
 3873000    253.77339   -9052.6371   -8085.1373   -9052.6371            0     8472.615    24.975657    25.000013    23.030251    14379.899    7870.6009    8607.8198    8939.4242    287.60516    71.973999   -390.13373   -6308.2937 
 3874000    273.02244   -9055.8409   -8014.9548   -9055.8409            0    8080.6626    25.045095    24.876218    23.125818    14408.015    7242.0776    9870.1415    7129.7687   -502.99276   -552.75301   -5.3814597   -6316.9965 
 3875000    274.95757   -9050.5193   -8002.2557   -9050.5193            0    9478.4032    25.023472    24.985739    22.938265     14341.69     8958.203    9302.6582    10174.348    295.31309   -414.76964     93.05965   -6019.7638 
 3876000    263.70383   -9058.7393   -8053.3801   -9058.7393            0    9108.1734    24.921593    24.990592    23.021489    14337.907    8833.1121    8802.7036    9688.7046   -416.93106   -971.74751     230.1923   -6148.8277 
 3877000    273.57188   -9063.2239   -8020.2431   -9063.2239            0    11069.777    24.945367    24.696029    23.091875    14225.784    10598.672    12728.273     9882.387    406.89239    872.90274    624.57166   -5723.6133 
 3878000    273.99826   -9109.8956   -8065.2893   -9109.8956            0    9226.2222    24.991482    24.884455    22.979933    14291.207    8007.2679    10879.934    8791.4644    358.49699     779.3584   -362.45056   -6142.3362 
 3879000    273.91379     -9072.61   -8028.3258     -9072.61            0    10068.328    25.037232    24.908046    22.904403    14283.839    8931.3496    10675.358    10598.276   -474.19526    980.45151   -938.73963   -5930.9406 
 3880000    266.87966   -9101.4047   -8083.9377   -9101.4047            0    10422.661    24.908485    24.866636    23.008239    14251.079    10156.835     10756.89    10354.258    773.14099   -116.64175    1385.2066   -5917.7193 
 3881000    266.91375   -9095.1979    -8077.601   -9095.1979            0    10597.651    24.932268    24.928184    22.893323     14228.57    10808.803    9708.7747    11275.374   -386.45176   -469.24097   -1432.8734    -5878.492 
 3882000    267.51072   -9065.2532   -8045.3803   -9065.2532            0    9208.2225    24.970637    25.013166    22.995565    14362.908    8919.2663    8948.2743    9757.1269    613.26026    557.97668     1000.592   -6116.5498 
 3883000     268.7544   -9095.7116   -8071.0972   -9095.7116            0    7408.4955    24.983872    24.991035    23.099146    14422.479    6897.1121    8182.4872    7145.8871   -164.46586     496.8535    568.48363    -6512.816 
 3884000     264.2203   -9110.1404   -8102.8121   -9110.1404            0    7992.9014    24.943215    25.053698    22.994477    14369.704    7856.9205    8401.7244    7720.0594     -27.3321    51.277532    204.15445   -6427.7606 
 3885000     267.3845   -9136.4726    -8117.081   -9136.4726            0    8296.2683    24.729683    25.050875    23.140914    14335.801    10521.607    7168.6877    7198.5105    466.47382     745.2814    563.43764   -6382.5556 
 3886000    272.45579   -9077.1174   -8038.3916   -9077.1174            0    8945.6096    24.910297    25.077675    22.960468    14343.229    9170.7703     7352.769     10313.29    861.60808   -1051.5935   -190.24278   -6167.1376 
 3887000    258.70397   -9054.6108   -8068.3133   -9054.6108            0    9798.2882     24.95056    25.031543    22.885995    14293.471     9374.616    9619.6129    10400.636   -131.77214    277.90711   -26.728918   -6025.8051 
 3888000    273.49752   -9090.6378   -8047.9405   -9090.6378            0    9120.8797     24.80306    24.911788    23.192938    14330.651    9797.4058    9805.8024    7759.4311    387.18124   -1100.8326    849.40368   -6141.6963 
 3889000    269.63553   -9115.8762   -8087.9025   -9115.8762            0    9404.2356      24.9125    24.985512    22.968275    14296.639    10145.217    9342.4497    8725.0398   -178.82239    1511.7306    93.317721   -6127.1024 
 3890000    275.48834    -9091.613   -8041.3258    -9091.613            0    9138.6221    24.941813    25.081346    22.911244    14332.684    8735.6569    9626.2564     9053.953    477.93195   -1298.7847   -182.29755   -6131.1025 
 3891000    265.04009   -9104.6706   -8094.2169   -9104.6706            0    7576.1307    24.875758    25.060784    23.041304    14364.087    8666.3851     6618.099    7443.9079   -124.54624    636.28579    620.67744   -6507.1275 
 3892000    253.32845   -9060.6447   -8094.8411   -9060.6447            0    8254.5991     24.77315    25.144425    23.106348    14393.097    11054.662    5956.6195    7752.5162    195.58719    751.89818     70.87577   -6362.1301 
 3893000    267.03699   -9060.6983   -8042.6316   -9060.6983            0    8129.5182    24.875478    25.095049    23.021485    14371.193    7943.5146    8489.1513    7955.8888   -162.91357   -40.180085   -539.00773   -6338.7731 
 3894000    279.04361   -9118.7181   -8054.8766   -9118.7181            0    8883.4232    24.815671    25.040186    23.093811    14350.241    10760.623    7676.5699    8213.0766    406.19208   -577.97956    400.91021   -6195.7223 
 3895000    276.28428   -9020.2018   -7966.8801   -9020.2018            0    11558.885    24.790905    25.015434    22.962854    14240.534    11526.242    11631.572     11518.84    278.82864   -8.8568181   -1677.5014   -5566.2895 
 3896000    273.86127    -9104.233    -8060.149    -9104.233            0    8769.0982    25.001111    25.031387    22.889982    14324.836    7956.8774    9001.4645    9348.9527   -330.56822   -307.99666   -855.18189     -6228.17 
 3897000    259.02322    -9052.517   -8065.0023    -9052.517            0    8425.4098    24.961909    24.962324    23.041554     14357.36    9450.7218    8195.7191    7629.7886   -342.61072   -1082.5969   -202.17947    -6300.828 
 3898000    263.43938   -9094.4319   -8090.0808   -9094.4319            0    8439.4557    24.923304    24.886732    23.130713    14347.047    7571.8864     10050.89    7695.5904    85.613516    -879.3822   -116.54922   -6324.2348 
 3899000      274.648   -9085.5007   -8038.4172   -9085.5007            0    8035.4471    25.039502    25.021205    22.910501    14353.853    7668.2267    7892.1169    8545.9979   -209.30656   -700.75325    149.30429    -6356.307 
 3900000     264.6564   -9073.6001   -8064.6092   -9073.6001            0    9761.1534    24.852039    24.913696    23.095515     14299.73    11001.447    9375.6187     8906.394    203.62769    -516.3411    647.26948    -6028.951 
 3901000    271.73497   -9068.0484   -8032.0708   -9068.0484            0    8822.2026    24.889625     25.00135    23.038587    14336.319    9509.1953     9196.452    7760.9606   -163.89722   -1551.9381    1030.7995   -6187.5201 
 3902000    263.34767   -9087.0499   -8083.0485   -9087.0499            0    9027.1725    24.985497    25.085754    22.851519    14322.876    8083.6152    9257.4603     9740.442   -204.34383      493.861    758.92789   -6197.4125 
 3903000    270.90035    -9083.312   -8050.5163    -9083.312            0    7956.9039    25.029948    24.918219     23.05686    14380.603    6735.2656    8601.6672    8533.7789   -158.29285    120.13178    620.15949   -6381.7439 
 3904000    265.02447   -9101.8476   -8091.4535   -9101.8476            0    8988.4139    24.957947    24.929018    23.033604    14330.981     8484.909    8481.2023    9999.1305   -556.60097    -356.2358    222.49429    -6212.851 
 3905000    263.40828   -9061.9112   -8057.6787   -9061.9112            0    8090.5332    25.041207    24.970068    22.938515    14343.009    7996.0877    7753.9449    8521.5669   -7.4730932   -876.62478     581.6265   -6365.3165 
 3906000    257.48148   -9134.9168     -8153.28   -9134.9168            0    8968.5082    24.983683    24.806308    23.069313    14297.274    8346.8305    10622.752    7935.9417    218.42344   -79.854704    339.93709   -6283.2466 
 3907000    263.03732    -9067.432   -8064.6138    -9067.432            0    7936.3201    25.076919    24.907993    22.986674    14357.838    7067.1206    9219.3689    7522.4707    701.89882   -1622.0408    -419.0016   -6402.7933 
 3908000    263.26507    -9057.211   -8053.5244    -9057.211            0    7627.7812    25.088198    24.951318    23.046228    14426.561      6892.99    7750.9083    8239.4452   -7.6619551   -1231.5622    174.60771   -6448.6653 
 3909000    265.94326   -9036.0388   -8022.1418   -9036.0388            0    8458.3966    24.954923    24.929248    23.086429     14362.24     7348.325    9422.0468     8604.818    561.34933   -45.980927   -217.55872   -6250.4584 
 3910000    267.98702    -9067.553   -8045.8642    -9067.553            0    9531.0469    24.946488    24.925324    23.006564    14305.465    10008.387    10077.853    8506.9006   -528.64859   -329.85642    -183.9411   -6057.3968 
 3911000    260.73122   -9083.1014   -8089.0751   -9083.1014            0    10611.242    24.927936    24.985167    22.797629    14199.017    10182.525    9943.1086    11708.094    34.955854   -489.98691   -319.70521   -5891.7192 
 3912000    268.37891    -9076.847   -8053.6643    -9076.847            0    9082.3614    24.926276    24.938433    23.030194    14316.081    8935.5043    9703.1456    8608.4343    224.14505    1.5733558    116.45603   -6157.4002 
 3913000      269.608    -9061.781   -8033.9124    -9061.781            0    9750.6428    24.830689    24.986738    23.044895    14297.927    10375.389    9337.5909    9538.9481    204.57021    -1555.925   -713.73678   -6000.7025 
 3914000    273.39302   -9116.7022   -8074.4033   -9116.7022            0    9629.0108    24.984875    25.025611    22.839106     14280.42    8841.5551    8951.7132    11093.764    143.62145    415.55835   -406.05009   -6069.0147 
 3915000     267.5062   -9072.3634   -8052.5078   -9072.3634            0    9408.8197    24.948713     24.99615    22.931063     14300.31    8395.7279     9350.981     10479.75    216.36191   -1341.7904   -559.21782    -6090.248 
 3916000    274.85357   -9067.7897   -8019.9225   -9067.7897            0    8908.2844    24.883785    24.887842    23.185907    14359.118    9443.7308    9620.8253    7660.2971    -201.2004    204.09217    806.68911   -6154.4119 
 3917000    250.74126    -9082.306    -8126.366    -9082.306            0    8193.4918    24.926036      24.9329     23.08027    14343.888    7171.8429    9853.5736     7555.059    220.07688   -12.991482   -541.36495   -6412.3621 
 3918000    277.67026   -9052.8094   -7994.2037   -9052.8094            0    9798.6926     25.08925      24.9889    22.809739    14300.629    8969.3544    9658.1159    10768.607    173.75269   -637.60839   -577.63046   -5950.5884 
 3919000    269.25975   -9077.2906   -8050.7497   -9077.2906            0    8208.3599    25.040655    24.934404    23.043594    14387.817    7874.0521     8420.582    8330.4457   -897.67415   -649.26812   -445.68281   -6328.3768 
 3920000    271.18259   -9084.9414   -8051.0697   -9084.9414            0    10207.964    24.907919    24.820726    23.081618     14269.81    9818.7304    11527.625     9277.536   -1160.1541   -974.02979    1204.7245   -5926.6848 
 3921000    264.50566   -9076.9907   -8068.5745   -9076.9907            0     9443.214    24.999191    24.999116    22.902591     14313.15     9151.716    9262.7515    9915.1744    -526.0061    -143.6555     1481.854   -6097.3734 
 3922000    265.19085   -9067.5166   -8056.4881   -9067.5166            0    9786.5848     24.76259    24.959811    23.132932    14297.761    11077.754    8617.9597    9664.0403   -809.76138     469.1735     272.6899   -6015.8073 
 3923000    268.74704   -9068.9809   -8044.3946   -9068.9809            0     10698.12    24.822489    24.943273    22.990824    14234.863    11207.402    10217.505    10669.454   -457.46463   -336.24345     404.3197   -5823.4554 
 3924000    265.17764   -9077.3693   -8066.3912   -9077.3693            0    10485.171    24.977339     24.98539      22.8246    14244.115    10167.006    9806.2133    11482.295    695.63899   -212.48826    517.55761   -5888.2457 
 3925000    266.97746   -9093.6783   -8075.8385   -9093.6783            0    8160.6084    24.984869    24.894879    23.101034    14368.734    7160.5517    9804.0766    7517.1969    -875.1096   -756.96909    400.76573   -6365.7565 
 3926000    263.89049   -9075.9321   -8069.8612   -9075.9321            0    10285.492    24.949841    24.930369     22.91966    14256.229    10656.617    9614.6357    10585.224    763.37231    50.194638     1291.582    -5931.379 
 3927000     266.8137   -9061.4451   -8044.2296   -9061.4451            0    8873.0269    24.902904    24.964188    23.035621    14320.802    8703.9449     9654.237    8260.8988   -136.18711    673.02044   -39.949477   -6191.0606 
 3928000    267.59274   -9084.7537   -8064.5682   -9084.7537            0    8005.3703    24.947654    25.043013     22.99823    14368.476     9102.008    7030.0165    7884.0864     769.5967   -1795.3603    1404.9463    -6387.047 
 3929000    266.10559   -9082.8364   -8068.3205   -9082.8364            0    7327.2141    24.929418    25.161208    22.963429    14403.909    7496.6636    6786.5151    7698.4635     686.4742   -94.568195    918.91921   -6529.1202 
 3930000    265.39983     -9095.74   -8083.9149     -9095.74            0    8051.5173    24.885727    24.937526    23.129521    14353.914    7775.4872    9495.4036    6883.6611    97.335022     -944.831    250.34829   -6398.4334 
 3931000    269.54607   -9074.4111   -8046.7785   -9074.4111            0    9696.4963    25.027977    25.018255    22.811252     14283.41    8823.7377    9026.2536    11239.498     371.3047    23.511659    95.292117   -6026.9123 
 3932000    274.77615   -9064.5423   -8016.9703   -9064.5423            0    9275.8067    24.913635    24.992042    22.996279    14318.464    9411.5018    8883.7115    9532.2067    1221.0798   -575.50104     1597.545   -6079.9953 
 3933000    267.72873   -9077.5296   -8056.8255   -9077.5296            0    9323.3653    24.726474    25.062056    23.087172    14307.034    11089.834     8070.599    8809.6628   -50.896069    427.15082   -316.75912   -6111.4734 
 3934000    260.14949   -9027.1654   -8035.3569   -9027.1654            0    9285.2015     24.91267    25.083351    22.921772    14323.661    10909.805    7653.1649    9292.6351   -102.97364    -93.24157    293.07641   -6095.7164 
 3935000    277.27251   -9029.1285   -7972.0393   -9029.1285            0    10736.903    24.849818    24.992817    22.988908    14277.651    10938.362    10745.167     10527.18    182.62019   -458.43988   -539.54113   -5736.3488 
 3936000      269.972   -9031.7862   -8002.5298   -9031.7862            0    9284.7005    24.842099     25.11502    23.039366    14374.486    9565.9057    9632.7751    8655.4207    252.29007   -528.38814    354.15226   -6056.1117 
 3937000     263.7555   -9115.9057   -8110.3495   -9115.9057            0    8421.1872    24.923203    25.027985    22.995317    14343.962    7761.4911    7527.2477    9974.8228    122.36312   -548.97817   -990.84993   -6348.7047 
 3938000    271.90935   -9047.8225     -8011.18   -9047.8225            0    8663.3803    24.837979    25.162262    22.992428    14369.802    8902.3326    8423.7815    8664.0267    21.147866   -753.15781    1069.2189   -6195.6057 
 3939000     264.3624   -9123.5492   -8115.6792   -9123.5492            0    9254.0821    24.838936    25.041744    22.977005    14291.933    10337.533    8184.7599    9239.9536   -527.84071    64.997346   -501.98064   -6186.8214 
 3940000    268.82025   -9035.8645   -8010.9991   -9035.8645            0     8581.318    24.877134     25.17703    22.998856    14404.928     9867.706    6503.7505    9372.4977    513.01333   -59.092542   -266.82774   -6208.2264 
 3941000    275.33739   -9095.7484   -8046.0367   -9095.7484            0    8261.5292    24.988409    25.049427    22.970092    14378.022    8325.8648    6313.5887    10145.134    89.099733   -1244.7188   -448.36387   -6313.6874 
 3942000    269.34478   -9053.6374   -8026.7722   -9053.6374            0    9143.0446     24.76444    25.042295    23.162487    14364.411    10180.733    9095.3562    8153.0448   -440.83771    321.94839    604.53039    -6111.394 
 3943000    259.73566   -9039.0265   -8048.7957   -9039.0265            0    8990.5521    24.890672      25.0746    22.959089     14329.31    9597.8726    8544.2886     8829.495    871.77395   -309.83434   -286.26858   -6169.9655 
 3944000    267.48744   -9086.3972   -8066.6131   -9086.3972            0    7930.7567    24.902281    25.112088     22.97607    14368.046    9650.7909    5904.3273    8237.1518    225.06169   -189.21414    355.91828   -6404.7769 
 3945000     274.4878   -9090.8044   -8044.3317   -9090.8044            0    8819.9969    24.878128    24.953569    23.110298    14346.829    10058.828    8111.7306    8289.4319   -286.91943    925.46085   -504.22103   -6198.8905 
 3946000    272.59537   -9063.8565   -8024.5986   -9063.8565            0    9665.1361    24.947744    25.097834    22.834485    14297.456    9748.2898    10026.416    9220.7022    -629.2351    288.55746    492.92146   -6009.2851 
 3947000    268.78707   -9081.8652   -8057.1263   -9081.8652            0    8402.5235    24.920288    25.035998     23.02727    14366.813    8936.5308    7895.5617    8375.4779   -1078.8762    120.35282    282.99001   -6296.5857 
 3948000    274.03299   -9070.8836   -8026.1449   -9070.8836            0     8403.437    24.803001    25.045527    23.117754    14360.847    10677.634     7082.107    7450.5704   -251.64254   -338.78268    891.63666    -6266.144 
 3949000    265.21773   -9032.4599    -8021.329   -9032.4599            0    8529.8706    24.928237    25.039392    23.023237    14370.826    8515.0483    8502.0387    8572.5248     645.7983    153.84485   -85.999465   -6233.6067 
 3950000    264.25177   -9060.9512   -8053.5029   -9060.9512            0    9177.9832    24.988397    25.083096    22.841274    14316.599    8237.7772    8962.1387    10334.034   -601.83482   -806.84711    71.321183   -6137.2051 
 3951000    279.68313   -9077.7448   -8011.4652   -9077.7448            0    9834.7377    24.847285    24.926338    23.058873    14281.555    8676.0975    9963.5614    10864.554    -455.9102     225.5342    1009.3005    -5963.068 
 3952000    266.46128   -9064.8051   -8048.9331   -9064.8051            0    10211.788    24.950031    24.839807    22.966648    14233.671    9006.6951    12366.314    9262.3532   -403.62883    163.49684    -66.30238   -5929.1346 
 3953000    266.11467   -9121.3264   -8106.7759   -9121.3264            0     9380.793    24.923987    24.840264     23.05738    14275.248    10608.317    8895.0142    8639.0475   -253.50852    1011.2478    13.502779     -6153.79 
 3954000    278.84328   -9095.8705   -8032.7928   -9095.8705            0     8998.556     25.00517    25.031447    22.867823    14313.327    8651.4093    9265.3913    9078.8673   -360.73756    880.11335    71.780216   -6154.3875 
 3955000    263.72047   -9090.6941   -8085.2714   -9090.6941            0    9498.1458    24.942384    24.913819    23.009245    14298.176    10012.048    9672.2353     8810.154   -290.49569   -475.47002    1466.5493   -6104.6779 
 3956000    257.88013   -9128.5136   -8145.3569   -9128.5136            0    8432.1133    25.010181    24.887502    23.030067    14334.857     8008.913    9527.3823    7760.0446    515.54478     890.6013   -282.45939   -6382.5462 
 3957000    265.95385   -9057.7909   -8043.8535   -9057.7909            0    9972.1567    25.008538     24.85174    23.000555    14294.976    9883.2279    9567.3243    10465.918   -514.02504   -1100.5366    1555.5916   -5964.8826 
 3958000    266.79882   -9060.0553   -8042.8966   -9060.0553            0    8710.7425    25.088394    24.897855    22.973818    14350.531    8535.4301    9993.4775    7603.3201    557.92801    -450.6459   -314.14108   -6219.8446 
 3959000    264.31224   -9027.3466   -8019.6679   -9027.3466            0    9474.3706     24.98969    24.982743    22.976111    14344.239    8160.0943    10105.542    10157.476     688.8866    388.74479   -636.45431   -6037.6673 
 3960000    275.88106   -9084.0997   -8032.3153   -9084.0997            0    9536.4109    24.839332    25.109567    22.947266    14312.321    8565.9672    9564.9533    10478.312    71.021797   -1396.3924    1019.4775   -6041.7753 
 3961000    268.75789   -9044.3093   -8019.6816   -9044.3093            0    9172.7849    24.897919    24.989945    23.100532    14373.096    9382.6498    8618.2224    9517.4824   -390.67166    946.19386   -273.44271   -6096.9112 
 3962000    259.16267   -9044.9794   -8056.9331   -9044.9794            0    8603.7583    24.920888    25.231959    22.832251    14356.984    8061.5502    7789.1201    9960.6047    394.57918   -802.02884    1074.6891    -6255.462 
 3963000     270.7115   -9104.6495   -8072.5738   -9104.6495            0     7780.517    24.922852    25.028024    23.066253     14388.03    8440.6163    6671.1534    8229.7814   -166.89326    -79.29016    786.30516   -6439.9516 
 3964000    269.36164   -9062.4469   -8035.5175   -9062.4469            0    8436.9307    24.844739    25.070818    23.053257    14359.365    9651.0114    7016.8898    8642.8908    -688.6134   -347.59867    1194.8398    -6268.684 
 3965000    267.40507   -9091.9065   -8072.4365   -9091.9065            0    8288.5005     24.95332    24.994945    22.952488    14315.624    7457.2595    8942.7012    8465.5407    483.65615    103.45151   -24.845814   -6341.9742 
 3966000    258.46476   -9076.9951   -8091.6096   -9076.9951            0    8545.0162    24.840577    24.989929    23.142624    14366.114    9535.1321    8859.3848    7240.5316   -1048.0704   -948.53251    370.01938   -6301.3002 
 3967000    264.38611    -9033.809   -8025.8485    -9033.809            0    8986.9432    24.974553    25.054221    22.956642    14364.383    7975.1601    8861.2667    10124.403    531.06441     1069.802    977.46627   -6143.1756 
 3968000    265.97209   -9044.4266   -8030.4197   -9044.4266            0    9766.2874    24.897458    25.027519    22.897519    14267.939    10211.978    8769.9281    10316.956   -359.95172    84.866999    -557.1444   -5998.2189 
 3969000    261.93524   -9082.4736   -8083.8571   -9082.4736            0    9791.1467    24.910816    24.927349    23.028119    14299.554    10090.739    9452.3822    9830.3188    370.53064   -1002.9971   -279.94596   -6041.9689 
 3970000    275.19031   -9112.7319   -8063.5809   -9112.7319            0    8060.0958    25.120492    25.026381    22.878796    14383.328    7673.3225    8060.6945    8446.2704    140.11788    839.25533    468.03967   -6372.8462 
 3971000    261.60413   -9054.7595   -8057.4052   -9054.7595            0     10033.68    24.935323    24.808014    23.140032    14314.327    9610.8898    11199.531    9290.6204   -22.266695    51.615858    201.81388   -5962.7763 
 3972000    265.34706   -9086.5847   -8074.9607   -9086.5847            0    10641.589    24.944797    24.974847    22.852277    14236.797    10244.113    10340.438    11340.215    776.97312   -1218.6133   -238.53161   -5865.4574 
 3973000     270.1602   -9073.1074   -8043.1334   -9073.1074            0    10042.248    24.943471    25.009014    22.896725    14283.243    10672.389    9255.1649     10199.19   -296.68482    -776.4686    772.70136   -5951.2684 
 3974000     276.1592   -9035.0693   -7982.2244   -9035.0693            0    10475.912    24.873837    25.010135    22.986361     14299.77    11567.117     9756.113    10104.506    898.15683    486.84204   -1268.7616   -5797.4995 
 3975000    263.14401    -9075.233   -8072.0081    -9075.233            0    8124.2292    24.923897    25.047454    23.033528    14379.375    7156.1148     8600.906    8615.6668   -251.30098    153.89118    488.72154   -6368.2887 
 3976000    268.52732    -9067.741   -8043.9924    -9067.741            0    9507.1214    24.807995    24.947385    23.136181    14318.857    10058.816    10433.049    8029.4986    833.25451    -585.5798   -1511.4577   -6058.6597 
 3977000    275.61195    -9080.717   -8029.9585    -9080.717            0    7333.9688    25.045237    25.102672    22.914843    14406.616    6897.0833    6270.2279    8834.5951    517.17967   -692.12965    -113.7294   -6489.0498 
 3978000    273.89559   -9067.3921   -8023.1772   -9067.3921            0    7639.2823     24.98375    25.046472    22.987573    14384.584    7203.3147    6931.8733    8782.6589    764.65955    777.29041    408.99656   -6420.5749 
 3979000    269.16841   -9099.6103   -8073.4175   -9099.6103            0    8913.9951     24.87741    24.942824    23.132802    14354.201    10006.221    8567.7026     8168.062    219.30923   -1575.4151   -555.54143   -6207.3502 
 3980000    270.17306   -9060.3106   -8030.2877   -9060.3106            0    9347.2497    24.926701    25.043165    22.960062    14332.669    10312.788    8755.8199    8973.1411   -321.89778    596.72601    240.66305   -6076.4575 
 3981000    273.44217   -9044.3578   -8001.8716   -9044.3578            0    9713.1809    24.836464    24.956492    23.080999    14306.319    9896.5826    9123.5811    10119.379   -910.44408   -917.91847    335.31395   -5975.2844 
 3982000    259.47077   -9014.4158   -8025.1949   -9014.4158            0    9742.1863    25.042358    25.026526     22.85264    14322.281    9922.5951    9308.5762    9995.3876    -707.1356    132.63648    925.90414   -5990.2883 
 3983000    279.98474   -9082.7072   -8015.2777   -9082.7072            0    9988.5418    24.864605    25.037155    22.934385    14277.548    9853.6825    10521.504    9590.4385    1262.3395   -808.31022    157.10296   -5935.4296 
 3984000    273.84759   -9077.5882   -8033.5562   -9077.5882            0    9516.9845    24.912484    24.932738    23.048322    14316.153    8759.2285    10025.337    9766.3881   -402.65831   -830.31839    20.922004   -6046.5393 
 3985000    265.80936   -9103.4064   -8090.0199   -9103.4064            0    7363.8279    25.066193    25.033359    22.920171    14382.201    6817.9366    7720.2389    7553.3083    515.69384    -428.4935    497.29739   -6545.4595 
 3986000    266.93822   -9045.9053    -8028.215   -9045.9053            0    10252.882    24.902734     24.89735    23.049318    14290.856    10770.136    10257.415    9731.0957   -1031.3393   -1744.4547   -278.21625   -5891.3352 
 3987000    265.27056    -9073.168   -8061.8356    -9073.168            0    9525.3632    25.000978    24.934748    22.909228    14281.454    9276.3804    10214.715    9084.9941   -218.01472    367.68253    781.04705   -6077.8896 
 3988000    270.18891   -9014.5807   -7984.4973   -9014.5807            0    9081.2355    25.097495    24.970614    22.939969    14376.476    8381.4296    8596.1286    10266.148   -25.062673    632.63489   -627.20762   -6080.4696 
 3989000     267.3346   -9058.5231   -8039.3217   -9058.5231            0    8599.7804    25.037563    24.926618    22.998128    14353.172    7570.3268     10281.18    7947.8342   -541.65705    169.28168    67.195799   -6239.1615 
 3990000     272.8591   -9050.2679   -8010.0046   -9050.2679            0    9073.7725     25.01611    24.924681    23.021086    14354.075    8007.8038    10489.106    8724.4072   -397.55036    70.512203   -285.80188   -6110.5059 
 3991000    266.21594   -9045.7972   -8030.8606   -9045.7972            0    9618.1872    24.941609     24.95122     22.95751    14286.999    9749.4555    9496.5186    9608.5875   -958.40204   -81.113188   -307.11697   -6026.8033 
 3992000    279.48957   -9087.2929   -8021.7512   -9087.2929            0    8737.9323    24.938801    24.952834    23.063542    14352.298    8641.4723    9359.1222    8213.2024   -1135.1938   -240.14559    174.82368   -6192.7837 
 3993000    268.07809   -9065.0892   -8043.0532   -9065.0892            0     9718.754    24.951708    25.017056    22.894581    14291.216    10258.901    9091.9679    9805.3933   -578.07432   -431.02406    684.23566    -6017.444 
 3994000    269.49467   -9112.0861   -8084.6495   -9112.0861            0    8286.5867    24.993838    24.982012    22.986732    14352.831    8914.7764    7730.3159    8214.6677    350.08526   -620.15615    152.86097   -6350.0902 
 3995000    266.06789   -9054.3964   -8040.0243   -9054.3964            0    9099.6554    24.901727    24.953573    23.054776    14325.939      10370.5    9074.3753    7854.0906   -119.42161    -668.9913    1525.7569   -6138.8412 
 3996000    260.61908    -9061.558   -8067.9592    -9061.558            0    8875.6931    24.982222    25.158275    22.853949    14363.927    7873.6245    8426.3026    10327.152    102.25209   -441.44017   -354.93794   -6208.6511 
 3997000     282.1493   -9073.7558   -7998.0739   -9073.7558            0    8962.9799    24.861893     24.98708    23.081823    14339.031    9867.6252      7882.13    9139.1843   -787.85149   -430.54747   -143.73359    -6123.735 
 3998000    257.17623   -9073.4992   -8093.0261   -9073.4992            0    8401.7608    24.872921    25.040871    23.078613    14374.275    9776.0945    7217.1842    8212.0037   -503.24173    770.04752    535.84107   -6331.7309 
 3999000    257.63968   -9107.2521   -8125.0122   -9107.2521            0    7688.2858    25.111599    25.006599    22.863883    14357.505    6728.0532    7000.9985    9335.8055   -75.136152   -1053.7914    1270.5078   -6515.1659 
 4000000    275.50809   -9065.4108   -8015.0483   -9065.4108            0    8381.9828    24.956514    24.920171    23.111432    14373.475    8159.6403     9460.505    7525.8033   -182.05438   -27.861844    170.77546    -6257.997 
Loop time of 539.947 on 64 procs for 250000 steps with 1920 atoms

Performance: 80.008 ns/day, 0.300 hours/ns, 463.008 timesteps/s
99.2% CPU use with 64 MPI tasks x 1 OpenMP threads

MPI task timing breakdown:
Section |  min time  |  avg time  |  max time  |%varavg| %total
---------------------------------------------------------------
Pair    | 62.198     | 64.59      | 66.615     |  12.0 | 11.96
Bond    | 0.27348    | 0.28131    | 0.2885     |   0.7 |  0.05
Kspace  | 226.73     | 236.94     | 245.82     |  29.0 | 43.88
Neigh   | 5.749      | 6.7511     | 7.7658     |  16.9 |  1.25
Comm    | 98.216     | 108.42     | 120.46     |  46.2 | 20.08
Output  | 0.89128    | 0.89246    | 0.89391    |   0.0 |  0.17
Modify  | 106.91     | 114.54     | 119.39     |  31.3 | 21.21
Other   |            | 7.53       |            |       |  1.39

Nlocal:        30.0000 ave          34 max          27 min
Histogram: 4 7 12 0 17 14 0 7 2 1
Nghost:        2806.69 ave        2839 max        2773 min
Histogram: 2 1 5 17 8 7 10 8 3 3
Neighs:        10564.9 ave       11833 max        9183 min
Histogram: 2 2 4 11 11 8 13 8 3 2

Total # of neighbors = 676154
Ave neighs/atom = 352.16354
Ave special neighs/atom = 2.0000000
Neighbor list builds = 12047
Dangerous builds = 0

unfix		3
unfix		2
unfix		1

write_data	data.final.${pid}
write_data	data.final.0
System init for write_data ...
PPPM initialization ...
  extracting TIP4P info from pair style
  using 12-bit tables for long-range coulomb (../kspace.cpp:340)
  G vector (1/distance) = 0.37433656
  grid = 30 30 30
  stencil order = 5
  estimated absolute RMS force accuracy = 0.0032824732
  estimated relative force accuracy = 9.8850706e-06
  using double precision FFTW3
  3d grid and FFT values/proc = 3600 512
Last active /omp style is kspace_style pppm/tip4p/omp
WARNING: Not all mixed pair coeffs generated from mixing. Use write_data with 'pair ij' option to store all pair coeffs. (../write_data.cpp:312)

write_restart   restart.lmp.${pid}
write_restart   restart.lmp.0
System init for write_restart ...
PPPM initialization ...
  extracting TIP4P info from pair style
  using 12-bit tables for long-range coulomb (../kspace.cpp:340)
  G vector (1/distance) = 0.37433656
  grid = 30 30 30
  stencil order = 5
  estimated absolute RMS force accuracy = 0.0032824732
  estimated relative force accuracy = 9.8850706e-06
  using double precision FFTW3
  3d grid and FFT values/proc = 3600 512
Last active /omp style is kspace_style pppm/tip4p/omp
Total wall time: 0:09:01
