LAMMPS (30 Jul 2021)
Processor partition = 0
  using 2 OpenMP thread(s) per MPI task
using multi-threaded neighbor list subroutines
variable        pid world 0 1
variable        phase world IceIh Liquid

shell cd ${phase}
shell cd IceIh
include Restart.lmp
echo both
log log.lammps
#include		in.partitions
include		in.temp
variable        temperature equal 252.00
variable	tempDamp equal 100.0
include		in.pressure
variable        pressure equal 1462.3
variable        pressureDamp equal 1000.0 # This is 1 ps
include		in.seed
variable        seed equal 745823

units		real
atom_style	full
#include		in.box
read_restart	restart.lmp.${pid}
read_restart	restart.lmp.0
Reading restart file ...
  restart file = 30 Jul 2021, LAMMPS = 30 Jul 2021
  restoring atom style full from restart
  orthogonal box = (0.21379498 0.040857784 -0.010021552) to (17.993777 23.588320 22.223217)
  2 by 4 by 4 MPI processor grid
  restoring pair style lj/cut/tip4p/long/omp from restart
  restoring bond style harmonic/omp from restart
  restoring angle style harmonic/omp from restart
  864 atoms
  576 bonds
  288 angles
Finding 1-2 1-3 1-4 neighbors ...
  special bond factors lj:    0        0        0       
  special bond factors coul:  0        0        0       
     2 = max # of 1-2 neighbors
     1 = max # of 1-3 neighbors
     1 = max # of 1-4 neighbors
     2 = max # of special neighbors
  special bonds CPU = 0.002 seconds
  read_restart CPU = 0.008 seconds
include 	in.setup
variable	out_freq equal 1000
variable	out_freq2 equal 10000
variable	out_freq3 equal 1000

timestep	2.0

neigh_modify    delay 7 every 1

include		in.tip4p
# This is TIP4P/Ice

# create groups ###
group ox type 2
288 atoms in group ox
group hy type 1
576 atoms in group hy

# set charges - beside manually ###
set group ox charge -1.1794
Setting atom values ...
  288 settings made for charge
set group hy charge 0.5897
Setting atom values ...
  576 settings made for charge

# ### TIP3P Potential Parameters ###
pair_style lj/cut/tip4p/long/omp 2 1 1 1 0.1577 8.5
pair_coeff 1 1*2 0.000 0.000
pair_coeff 2 2 0.21084 3.1668
bond_style  harmonic
bond_coeff  1 450 0.9572
angle_style harmonic
angle_coeff 1 55 104.52
kspace_style pppm/tip4p/omp 1.0e-5
pair_modify tail yes

thermo          ${out_freq}
thermo          1000
thermo_style    custom step temp pe etotal epair emol press lx ly lz vol pxx pyy pzz pxy pxz pyz enthalpy

restart 	${out_freq3} restart.lmp.${pid} restart2.lmp.${pid}
restart 	1000 restart.lmp.${pid} restart2.lmp.${pid}
restart 	1000 restart.lmp.0 restart2.lmp.${pid}
restart 	1000 restart.lmp.0 restart2.lmp.0


include         in.dump
dump            myDump all atom ${out_freq2} dump.water.${pid}
dump            myDump all atom 10000 dump.water.${pid}
dump            myDump all atom 10000 dump.water.0
dump            myDump2 all dcd ${out_freq2} dump.dcd
dump            myDump2 all dcd 10000 dump.dcd
dump_modify     myDump append yes
dump_modify     myDump2 append yes


variable natoms 	equal  "count(all)"                        # NUMBER ATOMS
variable H      	equal  "enthalpy/v_natoms"                 # ENTHALPY-per-atom
variable Vol      	equal  "vol/v_natoms"                 # volume-per-atom
fix AVG all 		ave/time ${out_freq} 1 ${out_freq} v_Vol v_H file vol_enthalpy.dat
fix AVG all 		ave/time 1000 1 ${out_freq} v_Vol v_H file vol_enthalpy.dat
fix AVG all 		ave/time 1000 1 1000 v_Vol v_H file vol_enthalpy.dat


timer           timeout 23:50:00 every 1000
New timer settings: style=normal  mode=nosync  timeout=23:50:00

fix 		1 all shake 1e-6 200 0 b 1 a 1
Finding SHAKE clusters ...
       0 = # of size 2 clusters
       0 = # of size 3 clusters
       0 = # of size 4 clusters
     288 = # of frozen angles
  find clusters CPU = 0.000 seconds
fix             2 all nph aniso ${pressure} ${pressure} ${pressureDamp}
fix             2 all nph aniso 1462.3 ${pressure} ${pressureDamp}
fix             2 all nph aniso 1462.3 1462.3 ${pressureDamp}
fix             2 all nph aniso 1462.3 1462.3 1000
fix             3 all temp/csvr ${temperature} ${temperature} ${tempDamp} ${seed}
fix             3 all temp/csvr 252 ${temperature} ${tempDamp} ${seed}
fix             3 all temp/csvr 252 252 ${tempDamp} ${seed}
fix             3 all temp/csvr 252 252 100 ${seed}
fix             3 all temp/csvr 252 252 100 745823


run             250000
PPPM initialization ...
  extracting TIP4P info from pair style
  using 12-bit tables for long-range coulomb (../kspace.cpp:340)
  G vector (1/distance) = 0.3713165
  grid = 24 27 25
  stencil order = 5
  estimated absolute RMS force accuracy = 0.0032192921
  estimated relative force accuracy = 9.6948025e-06
  using double precision FFTW3
  3d grid and FFT values/proc = 4410 672
Last active /omp style is kspace_style pppm/tip4p/omp
Neighbor list info ...
  update every 1 steps, delay 7 steps, check yes
  max neighbors/atom: 2000, page size: 100000
  master list distance cutoff = 10.8154
  ghost atom cutoff = 10.8154
  binsize = 5.4077, bins = 4 5 5
  1 neighbor lists, perpetual/occasional/extra = 1 0 0
  (1) pair lj/cut/tip4p/long/omp, perpetual
      attributes: half, newton on, omp
      pair build: half/bin/newton/omp
      stencil: half/bin/3d
      bin: standard
Setting up Verlet run ...
  Unit style    : real
  Current step  : 3750000
  Time step     : 2
  Walltime left : 23:49:59.93
Per MPI rank memory allocation (min/avg/max) = 10.19 | 10.21 | 10.23 Mbytes
Step Temp PotEng TotEng E_pair E_mol Press Lx Ly Lz Volume Pxx Pyy Pzz Pxy Pxz Pyz Enthalpy 
 3750000    265.23661   -4233.0653   -3778.4588   -4233.0653            0    1639.2776    17.779982    23.547462    22.233239    9308.4672    2604.7887    2395.5867    -82.54255    407.45736    -678.9541    132.56356   -3555.9196 
 3751000    249.94005   -4239.2056   -3810.8169   -4239.2056            0    2323.3117     18.17363    23.541759    21.846463    9346.7738    1805.0763    2168.8155    2996.0433   -284.97407   -132.41192     95.53838   -3494.1191 
 3752000    254.44732   -4255.7528   -3819.6388   -4255.7528            0    1073.1492    18.239591    23.261084    22.181334    9410.9337    923.28046   -149.59659    2445.7636    1883.3873    -1153.821     -436.505   -3672.3504 
 3753000    249.14399   -4248.1097   -3821.0854   -4248.1097            0    1548.1941    18.015617    23.482918    22.121523    9358.7147      1715.93    825.98515    2102.6672   -290.90921   -163.56691    132.59962   -3609.7767 
 3754000    232.05583   -4258.8971   -3861.1613   -4258.8971            0    1106.4172    18.092703    23.611584    21.881653    9347.7851     1917.479   -268.46886    1670.2416    39.650932   -733.77784    422.46397   -3710.3258 
 3755000    248.44194   -4232.8549   -3807.0339   -4232.8549            0    893.29537    18.067881    23.474117    22.168841    9402.4165   -334.34114    1576.6804    1437.5468   -933.46153   -1199.1117    212.84723   -3684.5411 
 3756000    255.90327   -4239.4232   -3800.8138   -4239.4232            0    1273.5311    18.000646    23.479166    22.173287    9371.3219    1051.2214     1966.559    802.81287   -810.35415    22.060446   -566.15258   -3626.7588 
 3757000    268.35699   -4273.7926   -3813.8379   -4273.7926            0      2080.71    18.084759    23.745143    21.569835    9262.6304    940.33428    899.99078    4401.8049    596.40658   -267.26149    179.29605   -3532.7632 
 3758000    260.81061   -4250.1778   -3803.1574   -4250.1778            0    2102.0719    17.957922    23.401213    22.139632    9303.8958    1595.6234    2328.2886    2382.3037    692.11437    851.00786    92.534241   -3517.9319 
 3759000    279.29634   -4263.6803   -3784.9759   -4263.6803            0    1370.3828    18.209752    23.429204    21.998008    9385.2301    865.52368    1041.7813    2203.8436   -281.53909   -780.07685    164.03584   -3597.4062 
 3760000    256.00393   -4249.6735   -3810.8915   -4249.6735            0    1594.7139    18.236027    23.344843    21.945785    9342.6979    1183.2676    2518.8072    1082.0668   -792.13935   -62.994138    830.39905   -3593.6059 
 3761000    244.94835   -4238.2657   -3818.4326   -4238.2657            0    2861.2558    17.996746    23.396929    22.119712    9313.9159    4026.5793    1079.1571    3478.0308   -195.85023     1587.248    8.2192495   -3429.7771 
 3762000    260.61762   -4218.4076   -3771.7179   -4218.4076            0    902.49544    18.086074    23.510614    22.186653    9434.0911    1633.8563    608.57691    465.05314    -368.0516     131.9065   -103.72439   -3647.5466 
 3763000    269.40116    -4250.071   -3788.3266    -4250.071            0    2877.1651     17.98062    23.503795    22.049766    9318.5135    3041.2008    1619.4398    3970.8548    -738.1651    1044.9067   -33.137643   -3397.3171 
 3764000    242.52392   -4247.4879   -3831.8102   -4247.4879            0    2888.8638    17.945154    23.422596    22.058894    9271.8401    4329.8479    2338.0744    1998.6692   -198.44201   -396.80307    38.031303   -3441.1772 
 3765000    247.24799   -4242.4252   -3818.6506   -4242.4252            0    2124.6799    18.294859    23.328867    21.887547    9341.5682    2153.2212    1280.6623    2940.1563    177.13224     499.9414    74.776649   -3529.1902 
 3766000    255.84217    -4251.493   -3812.9882    -4251.493            0    1321.8482    18.087766    23.267368    22.246332    9362.4735    1005.1015    1057.8783    1902.5649   -829.46231    185.88129    39.731013   -3632.5003 
 3767000     265.5491    -4267.409    -3812.267    -4267.409            0    795.50982    18.034397    23.538485    22.145608    9400.8632    1101.1305    172.89724    1112.5017    742.87722    29.846617   -78.053235    -3703.201 
 3768000    248.38692   -4274.4131   -3848.6864   -4274.4131            0    2016.7652    17.922953     23.70635    21.874977    9294.4109    2185.0998    2025.4376    1839.7583   -115.94378   -212.91555    635.01984    -3575.315 
 3769000    249.92193   -4249.7647    -3821.407   -4249.7647            0   -78.340209    18.005408    23.663559    22.178794    9449.7636   -1271.5752   -181.25995    1217.8146   -693.80872    244.36377   -264.95638   -3832.2035 
 3770000    255.25396   -4282.9058   -3845.4093   -4282.9058            0    495.60131    18.270679    23.366383     22.05927    9417.5366    936.71836    1040.2925   -490.20689   -134.03392   -306.73965    750.05401   -3777.3409 
 3771000    247.77705   -4261.2903   -3836.6089   -4261.2903            0    2316.4597    18.254217    23.209637    21.966299    9306.5443    2019.4925    2347.4904    2582.3961   -342.16151   -442.80854   -276.33702   -3522.2041 
 3772000    256.42022   -4240.2314   -3800.7359   -4240.2314            0    1765.8314    18.066723    23.383906    22.103843    9338.2229    1017.5645    999.43756    3280.4921    899.63412   -24.758925   -343.55837   -3560.2501 
 3773000    250.11626   -4270.4308   -3841.7401   -4270.4308            0    2498.5851    17.837717    23.645928    21.990604    9275.4029    3273.9569    2681.4095    1540.3889   -562.93135    653.68518    -1075.929   -3503.7509 
 3774000    274.91819   -4236.9125   -3765.7121   -4236.9125            0    2354.2899    17.930025    23.659908    22.015663    9339.5448    3425.9898    1259.1156    2377.7644    164.71915   -1033.5423   -126.59968   -3445.0398 
 3775000     248.8496   -4236.5859   -3810.0662   -4236.5859            0    1458.9113    18.028689    23.427215    22.280251     9410.331    1198.5603    2135.1871    1042.9867    114.76634    818.43082    32.443768   -3609.8452 
 3776000     272.5072   -4250.8538   -3783.7858   -4250.8538            0    1654.2985    18.239412     23.36774    22.053234    9399.3933    2156.1199    1351.9495    1454.8263     163.6599    461.02369   -495.73402   -3557.0138 
 3777000    252.82137   -4226.4054   -3793.0783   -4226.4054            0    1476.0147    18.164054    23.285015     22.20076    9389.8176    1824.9405    1498.0017    1105.1019    410.28703    679.83701    842.74964   -3590.9515 
 3778000    252.85832   -4268.6459   -3835.2554   -4268.6459            0    301.44916    17.964377    23.625848    22.137914    9395.8541    -464.0187     221.0223    1147.3439   -108.74007   -48.332906   -659.51622   -3793.9482 
 3779000     239.5575   -4267.3739   -3856.7805   -4267.3739            0    1319.8889    18.074053    23.738176    21.877299    9386.3464    2022.2377    1406.7129    530.71604    1052.3369   -62.797902   -507.14625   -3676.1006 
 3780000    252.25357   -4227.1416   -3794.7877   -4227.1416            0    2657.1489    18.073446    23.421875    22.054709    9336.0669    2423.4796    2324.3743    3223.5928    510.02046   -468.96668    162.71128   -3432.9983 
 3781000    266.22857   -4238.5784   -3782.2718   -4238.5784            0    1458.8883    18.168864    23.467128    22.089754    9418.4322    837.45144    608.46914    2930.7442    571.57567    124.80327    719.48004   -3581.8815 
 3782000    253.39866   -4232.2288   -3797.9121   -4232.2288            0     1676.756    18.307987    23.400776    21.857618    9364.2645    -5.486437    2405.8906     2629.864    207.28691   -471.25627   -637.87565   -3568.9206 
 3783000    258.20343   -4258.1521   -3815.6003   -4258.1521            0    879.75583    18.023435    23.495056    22.208049     9404.256    2043.2775    599.90425   -3.9142903   -46.691196   -266.40395     617.8673   -3694.9405 
 3784000    235.77272   -4247.4948   -3843.3885   -4247.4948            0    744.16759    17.795129    23.911226    22.029445    9373.6029    1084.5186    376.31503    771.66917    672.90144   -28.184534      343.454   -3741.6575 
 3785000    249.00664   -4284.6203   -3857.8314   -4284.6203            0    922.13387     18.03428    23.748695    21.951344    9401.5547    1229.0917    117.93709    1419.3728   -581.70535   -50.099801     352.7056   -3731.3958 
 3786000    251.69215   -4276.5565   -3845.1648   -4276.5565            0    740.08869    18.219007    23.256772    22.287324      9443.48    418.51999    1542.7355    259.01062   -589.82515   -131.92688   -1.0474661   -3743.2372 
 3787000    254.81261   -4245.2046   -3808.4645   -4245.2046            0    939.45708    18.223299    23.501012    22.038874    9438.4996    874.73385    1080.1106    863.52679   -56.567815    376.85632    -872.4129   -3679.1475 
 3788000    255.36043   -4253.3383   -3815.6593   -4253.3383            0    1441.6021     18.03307    23.337606    22.275739     9374.715     1452.613     1427.892    1444.3014   -522.50542    234.87905   -92.245632   -3618.5626 
 3789000    266.82249   -4271.7904   -3814.4658   -4271.7904            0    1745.7126    17.926826    23.680299    22.077257    9372.0737    2409.1148    2728.5154    99.507677    249.19399    1111.7205    830.26373   -3575.8582 
 3790000    242.13062   -4238.4762   -3823.4726   -4238.4762            0    2245.4803    17.983254    23.598323    21.938758    9310.2524    681.40152    3778.0272    2277.0121    500.81003   -194.75269    527.02028   -3518.5802 
 3791000    235.77379   -4228.0703   -3823.9621   -4228.0703            0    2493.7619    17.909952    23.676595    22.053182    9351.5786    3888.2835    1400.5994    2192.4029    10.006025    571.99305    401.69738   -3483.8549 
 3792000    257.29296   -4269.5264   -3828.5351   -4269.5264            0      1874.17     18.05571    23.277431    22.259709    9355.5449    2294.6721    2969.0154    358.82253    247.08949    278.03261   -202.29246   -3572.8214 
 3793000    260.49625   -4250.5873   -3804.1056   -4250.5873            0    1265.1011    18.182196    23.253484    22.100788    9344.1999     1310.701    1012.1348    1472.4675    1149.1512   -477.42993     125.6914   -3631.7032 
 3794000    251.35552   -4242.6892   -3811.8744   -4242.6892            0    1954.9288    18.175228    23.366739    21.909386    9304.8243     1938.893    1455.9493    2469.9442   -821.77936   -267.42568   -413.94343    -3546.588 
 3795000    236.72147    -4271.602   -3865.8695    -4271.602            0    1352.2995    17.820095    23.479102    22.288506    9325.5069    263.54341    2635.7785    1157.5767    337.34784    69.049948   -268.91065   -3681.9527 
 3796000    260.72772   -4255.8542   -3808.9758   -4255.8542            0    2057.9168    17.909301    23.756015    21.984607    9353.4312    1137.4823    2082.9386    2953.3294   -222.15995    147.68185    620.95414   -3528.2549 
 3797000    248.12752    -4265.317   -3840.0349    -4265.317            0    2607.2327    17.867908    23.589472    22.102114      9315.92    2881.4217    1010.9154    3929.3611    572.03775    19.300551   -511.78048   -3485.8081 
 3798000     244.8869   -4231.0574   -3811.3296   -4231.0574            0    1319.9687    18.154519    23.435671    22.122387    9412.2648    1893.0359    1524.0048    542.86541   -352.58184   -839.40128   -227.65197   -3630.1399 
 3799000    253.99762   -4237.5976   -3802.2544   -4237.5976            0    1203.8935    18.163981    23.239254    22.277687    9403.7987    234.94317    2297.0594    1079.6779    1199.3061   -525.53189    951.00586   -3637.1467 
 3800000    251.51249    -4261.364   -3830.2801    -4261.364            0    2353.5849    18.006116    23.424566     22.16594     9349.271    2657.0668    1133.6608    3270.0272   -476.25293   -1239.6045   -99.362183     -3509.37 
 3801000    250.51661   -4218.2238   -3788.8469   -4218.2238            0   -254.13969    18.092389    23.605627    22.108183    9442.0111   -24.360466   -542.10021   -195.95838   -198.87612     147.2176    120.13833   -3823.8424 
 3802000    247.95777   -4249.3581   -3824.3669   -4249.3581            0     2130.852    17.973649     23.28691    22.203812    9293.4222    1955.3905    3223.3346    1213.8309    973.19484   -380.96053   -526.46589   -3535.5618 
 3803000    251.88369   -4269.1296   -3837.4096   -4269.1296            0    1902.3154    18.087821    23.499175    21.973567    9339.8398     1680.488    1732.9049    2293.5534   -144.97579   -56.052203    557.58034   -3578.2915 
 3804000    261.50626   -4243.6098   -3795.3971   -4243.6098            0    333.47859    18.237068    23.585443    21.942057    9437.9224    -946.7726    501.90851    1445.2998    226.21823    327.93797    115.31069   -3749.4963 
 3805000      245.458   -4241.7232   -3821.0166   -4241.7232            0    1246.1655    18.092633    23.230512    22.267027    9358.8569    2403.5879    2370.4174   -1035.5088   -326.66592    486.98373    538.52699   -3650.9283 
 3806000    258.00441   -4219.0058   -3776.7951   -4219.0058            0    2188.4563    18.316729     23.38762    21.814608     9345.044    1934.7488    1698.7302    2931.8898    240.66287    -148.7505    389.21199    -3478.535 
 3807000     257.4815   -4260.6612   -3819.3468   -4260.6612            0    1840.5553    18.123021     23.40059    22.050343    9351.3164    3458.0592    1335.4643    728.14249    746.09539    -142.7376    334.12488    -3568.333 
 3808000    251.68959   -4246.9263   -3815.5389   -4246.9263            0    1582.6929    17.970344    23.332503    22.333278    9364.1893    1272.1196    2502.0854    973.87363    130.43256    -491.1017   -283.97024   -3599.3952 
 3809000    246.78218   -4235.5255   -3812.5493   -4235.5255            0    2867.4116    18.082789    23.481514    21.975366    9330.9875    1216.4828    3336.2091    4049.5429   -606.70426   -209.78799    1233.1547   -3422.3437 
 3810000    241.46103   -4259.3584   -3845.5025   -4259.3584            0    941.24217    17.746024      23.4737    22.542179     9390.279    2487.6404    72.193901    263.89217    -225.4536    183.87711   -456.07179   -3716.6016 
 3811000    251.11712   -4248.7758   -3818.3696   -4248.7758            0    1537.6867    18.030185    23.628202    21.983369    9365.3739    3188.7517    -469.9671    1894.2754     83.37543    -11.71933   -203.78252   -3608.3457 
 3812000    263.83152   -4246.5736   -3794.3754   -4246.5736            0    2893.9334    18.195177     23.33076    21.936086    9312.0286     2775.636     2559.146    3347.0182    396.35736    178.45176   -520.16084   -3401.3607 
 3813000    252.50561   -4215.6803   -3782.8943   -4215.6803            0    1342.1592    18.171085    23.272439     22.28791    9425.2335    1952.4547    606.68662    1467.3363    169.09802    591.39273   -192.02695   -3598.4047 
 3814000    260.87438   -4260.0738    -3812.944   -4260.0738            0    3016.0795    18.118192     23.53774    21.743046    9272.5672    2316.8826    2431.7461    4299.6098   -403.89133    589.05099    393.88455   -3405.0769 
 3815000    240.89154   -4263.6493   -3850.7694   -4263.6493            0    429.33064    17.997616    23.564185    22.154835     9395.847    492.29891    274.74963    520.94338     215.5652    -210.8026   -9.1875967   -3791.9388 
 3816000     268.8931    -4247.454   -3786.5804    -4247.454            0    2005.0249    17.892937    23.678122    21.984667     9314.269    2649.9621    1078.4366     2286.676   -438.58379    377.15035   -426.71188   -3514.2197 
 3817000    232.72573   -4260.8932   -3862.0092   -4260.8932            0    771.01802    18.043942    23.659229     22.01716     9399.252   -148.33249    1420.6772    1040.7094    311.10699    732.77183   -513.27372   -3756.3193 
 3818000      248.388   -4251.5623   -3825.8338   -4251.5623            0    2036.5945      18.1253    23.217201    22.150624    9321.3979    2449.4453    906.99261    2753.3456    943.08865   -117.96012   -11.937785    -3548.973 
 3819000    232.74212   -4262.7409   -3863.8289   -4262.7409            0    2034.9419    18.196247    23.275864    22.053325    9340.3191    260.62806    3413.0215    2431.1762   -303.93294    324.32092    318.65363   -3586.6312 
 3820000    249.29678   -4245.7994   -3818.5132   -4245.7994            0    2305.1257    18.032317    23.596597    21.937801    9334.5635    3883.9737    136.02018    2895.3833    81.011457    34.594104    19.092862   -3504.7048 
 3821000    252.33054   -4256.8963   -3824.4104   -4256.8963            0    1020.6151    17.861437    23.749779    22.146389    9394.6124     1698.844    199.68226    1163.3189    564.64897   -986.36206    161.68178   -3684.5751 
 3822000     265.1067   -4216.9981   -3762.6143   -4216.9981            0    2191.0976    18.043237    23.483906    22.136332    9379.7321    2313.6716    1737.4807    2522.1406    954.39327   -401.86791   -100.20671   -3462.8858 
 3823000    238.39869   -4258.6829   -3850.0757   -4258.6829            0     2101.217    18.355378    23.431386    21.726896    9344.5629    1124.8559    1100.7777    4078.0175   -308.84469   -941.19045     308.8362     -3563.72 
 3824000    253.48852   -4254.9262   -3820.4555   -4254.9262            0    1599.8796    18.098727    23.238473    22.301591    9379.7543    2370.6823    1307.4642    1121.4923   -29.417999    742.10932   -381.55468   -3601.6014 
 3825000    244.91082   -4241.8733   -3822.1045   -4241.8733            0    2111.3985    17.984706    23.383718    22.137303    9309.8273      2551.31    2205.0228    1577.8626   -839.02448    103.00141    644.48897   -3535.4309 
 3826000    250.83495   -4257.9941   -3828.0715   -4257.9941            0    2107.2765    18.020516    23.650342    21.968878    9362.9461    1615.7989    2284.5153    2421.5154   -67.467565   -192.04886    519.12998   -3540.3251 
 3827000    240.40877   -4249.8408   -3837.7883   -4249.8408            0    2177.2502    17.775633    23.660407    22.086245    9289.0043    1141.7667    2604.0891    2785.8948    872.36451   -44.316262    -1015.862    -3542.835 
 3828000    271.52115   -4239.5904   -3774.2125   -4239.5904            0    1650.7899    18.037941    23.457488    22.064509    9336.0407    923.55451    2109.5543    1919.2608    866.08359   -516.04502   -1007.5951   -3549.4466 
 3829000    248.65636   -4256.8814   -3830.6929   -4256.8814            0    718.64622    18.319883    23.361532    22.037271    9431.5231   -181.30989    1986.6785    350.57009     1412.826    95.058011   -609.58837   -3731.8437 
 3830000    256.62004    -4214.557    -3774.719    -4214.557            0    1346.7188     18.15694    23.344546    22.143175    9385.7281    731.06604    1562.0751    1747.0152   -202.19217      699.361   -626.10735   -3590.3785 
 3831000    263.32306   -4264.1915   -3812.8648   -4264.1915            0    1714.6386    18.168246    23.376126    21.982004     9335.828     1407.324    1267.5595    2469.0321    10.358972   -88.324694    134.20607   -3579.4108 
 3832000    250.26593   -4276.7185   -3847.7712   -4276.7185            0    1456.3666    18.156041    23.537427    21.865955    9344.3391    903.62329     1916.217    1549.2596    1165.9207    632.73398   -1051.5002   -3649.3011 
 3833000    232.04045   -4236.3943   -3838.6849   -4236.3943            0   -478.84422    17.806126    23.537262    22.508892    9433.6446   -121.61244    870.90459   -2185.8248   -271.32214    819.39808    536.65586   -3904.5643 
 3834000     254.8329   -4223.9232   -3787.1484   -4223.9232            0    1935.3846    18.066553    23.560054    21.902951    9322.9689    2171.1879    2095.7455    1539.2205    399.79163   -405.75495    -58.70953    -3524.002 
 3835000    259.34047   -4265.2385   -3820.7378   -4265.2385            0    2117.7374    18.105909    23.442782    21.955019    9318.8712    2407.3238    1629.2779    2316.6107    355.28593    165.79126   -328.98022   -3532.9242 
 3836000    262.67242   -4265.6122   -3815.4007   -4265.6122            0    2533.1737    17.948251    23.207133    22.182222    9239.5042     2744.259     2205.077    2650.1849    477.19072    1272.8306   -424.02337   -3474.0589 
 3837000     244.4058   -4259.1239   -3840.2207   -4259.1239            0    1055.6338    18.232693     23.51247    21.806655    9348.4179    1432.4607   -111.92356    1846.3642    -750.8463    601.24702   -85.127811   -3696.2986 
 3838000    258.44011   -4228.5969   -3785.6394   -4228.5969            0    1935.1154    17.901583    23.475893    22.040377    9262.5932    2561.6489    715.18173    2528.5155   -1740.2584    -380.7995    39.080452   -3524.2335 
 3839000      232.458   -4250.6374   -3852.2123   -4250.6374            0    2012.6094    17.909855     23.58421    22.080479    9326.5687    1859.7491    1855.9112    2322.1678   -1037.2503    -245.6803   -11.859706   -3578.4603 
 3840000    261.24709   -4261.0494   -3813.2808   -4261.0494            0    999.26187     18.29436    23.391619    21.889829    9367.4175    779.82633    1707.4462    510.51312    366.73413   -510.58336    202.44797   -3676.7675 
 3841000    238.91662   -4259.1797   -3849.6848   -4259.1797            0    1271.0046    18.262406    23.222328    22.168514    9401.5687    959.27206     2933.076   -79.334404   -234.95319   -36.175048   -435.20906   -3675.4145 
 3842000    255.27605   -4230.5542   -3793.0197   -4230.5542            0    2217.1444    18.131833    23.270698     22.07531    9314.4657    3376.7289    1985.2492    1289.4552    840.95624    321.76741   -372.07448   -3491.8386 
 3843000    246.21991   -4267.4942   -3845.4817   -4267.4942            0    465.66355     18.04502    23.680715    21.994331     9398.595    921.59643     892.6293    -417.2351   -133.24118   -558.16925   -350.04687   -3781.6537 
 3844000    248.77954   -4245.4626    -3819.063   -4245.4626            0    1563.1372    17.605705    23.805624    22.298395    9345.5871    2233.2871    1504.1387    951.98569    183.17582   -494.26692    567.56118    -3606.014 
 3845000    248.58477   -4265.3862   -3839.3204   -4265.3862            0    895.92625     18.12276    23.465847     22.12666    9409.7144    884.83583     848.2857    954.65721    -710.7768    293.77203    2.5088341   -3716.3715 
 3846000    263.10801   -4251.4272   -3800.4691   -4251.4272            0    491.36699    18.429963    23.164834     21.99503    9390.2726   -54.409965    684.92392    843.58701    41.778465     -226.011     866.2119   -3733.1776 
 3847000    252.09622   -4251.4432   -3819.3589   -4251.4432            0    817.33929    18.109552    23.353085    22.154247    9369.3393    616.80258    1393.1335    442.08174   -274.80738    655.28055    557.48551   -3707.6758 
 3848000    244.28915   -4271.5193    -3852.816   -4271.5193            0    1792.9828    17.962267    23.555266    21.977413    9298.7747    2245.2889    2458.2134    675.44604   -161.86402   -558.26329    534.85801   -3609.6641 
 3849000    251.36294   -4246.3455    -3815.518   -4246.3455            0    1855.7755    17.942702    23.634936    22.020819    9338.4707    964.78842    866.75458    3735.7835   -381.62955    -420.1694     1183.826   -3562.7762 
 3850000    242.08353   -4242.3218   -3827.3989   -4242.3218            0   -220.66354    18.056826    23.524476      22.1879    9424.9177   -629.58845   -198.45378     166.0516   -853.33598   -631.30605   -333.76898   -3857.7297 
 3851000    246.35837   -4282.3369   -3860.0871   -4282.3369            0    2246.8351    18.187049     23.28777    21.974822    9307.1239    1208.3259     2974.108    2558.0712   -1.7456452   -717.09746    151.68024   -3555.1132 
 3852000    251.64892   -4233.8926   -3802.5749   -4233.8926            0     1312.432    18.382492    23.131886    22.169363    9426.8944    381.45324    2041.6378     1514.205   -303.78596   -397.09619    769.51295   -3622.1397 
 3853000    246.52392   -4236.3099   -3813.7764   -4236.3099            0    262.91648     18.14755    23.388649    22.317412    9472.5514   -452.84547     1755.051    -513.4561    417.04441   -12.191361    658.06508   -3777.4551 
 3854000    253.47206   -4256.5196   -3822.0772   -4256.5196            0    1019.0741    17.938947    23.661033    22.066404    9366.1739     1102.309     262.0474    1692.8659   -413.06669    428.37812   -830.75334   -3682.8757 
 3855000    268.89378   -4257.9588   -3797.0841   -4257.9588            0    2971.6425    17.772534    23.668661    22.113831    9302.2291    3446.2452    2615.3514     2853.331   -1344.6564    -1348.891    -359.4276   -3393.9407 
 3856000    237.82203   -4255.3788     -3847.76   -4255.3788            0    2710.8126    18.116014     23.28557    22.056221    9304.2341    3292.0326    3402.1663    1438.2388   -373.13768      146.665   -1024.1837   -3479.9225 
 3857000    241.83877   -4255.0243   -3840.5209   -4255.0243            0    545.44527    18.286499    23.349719    22.098811    9435.8523   -1118.8811     2379.261    375.95591   -314.91295    348.88017   -288.78444    -3765.461 
 3858000    244.73567   -4244.5372   -3825.0686   -4244.5372            0    642.10153    18.103542    23.482608    22.136317    9410.5552    843.63323    1020.3797    62.291654    -469.5663    24.453934    259.31505   -3736.9445 
 3859000    249.23837   -4257.1683   -3829.9823   -4257.1683            0    2410.4577    17.864463    23.572882    22.232858    9362.6321    3627.9898    1672.1221    1931.2613    57.932852    875.92085    223.78575   -3500.8478 
 3860000    236.81155   -4230.3422   -3824.4553   -4230.3422            0    1512.9851    17.985771    23.748493    21.954315    9377.4555    1104.4001    337.18139    3097.3737   -489.20482    408.23469    935.64022   -3617.5386 
 3861000    252.16379   -4241.8624   -3809.6623   -4241.8624            0     1879.293    17.933435    23.453695    22.107512     9298.537    3447.2868    2534.5373   -343.94511   -517.00721   -290.88886   -306.86793   -3554.8121 
 3862000    252.17506   -4250.1465    -3817.927   -4250.1465            0    883.63536    18.056218    23.425349    22.116009    9354.4794   -489.96684    1286.3969     1854.476   -719.54355   -271.31468    246.51755   -3697.3767 
 3863000     258.4292    -4275.852   -3832.9132    -4275.852            0     1056.098    18.240369    23.416239    22.059999    9422.2851    250.67902     1241.152     1676.463   -524.32888   -191.18541    479.18392   -3687.7902 
 3864000    268.05942   -4239.4703   -3780.0257   -4239.4703            0    3743.7756    18.119413    23.184814    22.093986    9281.5779    2449.6567    4810.3452    3971.3248   -296.55589    -682.9729   -517.61828   -3273.2596 
 3865000    262.25477   -4239.5764   -3790.0807   -4239.5764            0    2131.9151    18.115707     23.57093    21.832765     9322.679    935.33982    2585.9691    2874.4363   -313.93348    134.45063    46.603147   -3500.2218 
 3866000     251.9837   -4272.8169   -3840.9254   -4272.8169            0    968.02878    18.044327    23.509765    22.066548    9361.0246    412.08502    722.29349    1769.7078   -185.23482    401.58269     340.1489   -3708.7692 
 3867000    248.41345   -4280.3998   -3854.6277   -4280.3998            0    2818.3781    18.114004    23.228354    22.012716    9262.0372    1660.9003    1923.5949    4870.6392    55.839401    674.10742    890.12272   -3473.9287 
 3868000    238.79322   -4252.6142   -3843.3308   -4252.6142            0    713.75396    18.198512    23.372873    22.027666    9369.5007    503.74527    1159.7346      477.782    -1268.523   -33.924147   -439.14611   -3745.8002 
 3869000    251.13034   -4239.5654   -3809.1366   -4239.5654            0    1331.7541    18.014415    23.673829    22.064073    9409.6693    2309.2239    2203.9561   -517.91763   -265.00367   -376.57472    39.657771   -3626.3795 
 3870000    236.15107   -4231.8197   -3827.0648   -4231.8197            0    3219.1438    17.580627    23.697244    22.315699    9296.9972    5199.0902    2825.2477    1633.0937   -533.57319   -91.040804    396.93831   -3390.5902 
 3871000    262.08519   -4288.6117   -3839.4066   -4288.6117            0    773.85751    18.153282    23.639021    21.927247    9409.5479    233.03151     870.8786    1217.6624    416.54574   -586.11841    53.967558   -3733.2112 
 3872000    263.45278   -4243.0718   -3791.5228   -4243.0718            0    1392.1186    18.107022    23.289792    22.151995    9341.6907    715.08279    2092.2863    1368.9867    457.43173   -332.47547   -379.33293   -3601.8619 
 3873000     227.4267   -4250.2987   -3860.4971   -4250.2987            0    760.49428    18.137834    23.333787     22.19273    9392.5035    679.23641    1921.5767   -319.33025    938.75148    -96.77649   -410.95833   -3756.3246 
 3874000    260.94065   -4246.5383   -3799.2949   -4246.5383            0    2267.2845    18.115402    23.538484    21.864849    9323.3707    1621.4433    1143.9716    4036.4384   -423.67413    379.99402    140.41758   -3491.0082 
 3875000    259.68242   -4223.0419   -3777.9552   -4223.0419            0    1094.0985    17.997731    23.679568     22.09163    9414.9774    1070.9106    404.32021    1807.0647    171.42206   -450.50463    131.56398   -3627.7269 
 3876000    249.43112   -4244.3163   -3816.7999   -4244.3163            0    45.560561    17.999123    23.608264    22.255311    9456.9064    1266.0187   -37.932066    -1091.405   -454.83683   -264.49452   -799.06982   -3810.5162 
 3877000    260.38136   -4252.3379   -3806.0531   -4252.3379            0    2642.5459     18.11775    23.485433    21.932298    9332.2633     1428.514    3043.7091    3455.4145    341.74151    265.85034   -74.868233   -3446.3987 
 3878000     259.1988   -4262.7595   -3818.5016   -4262.7595            0    1558.9825    18.176279    23.286801    22.103065    9355.5066    1456.7616    1232.9061    1987.2797    -568.6403   -583.89085   -883.23977   -3605.7933 
 3879000    267.13453   -4245.5202   -3787.6608   -4245.5202            0    1909.5676    17.971804    23.201161    22.329426    9310.6276    2343.3756    3029.9127     355.4145   -571.07677    741.15784   -440.54824   -3528.3683 
 3880000    249.68864   -4282.3393   -3854.3816   -4282.3393            0      1012.11    18.107733    23.642851    22.066172    9446.9347    525.54116    916.18276    1594.6059    469.08572    503.48603    -649.1295   -3714.9393 
 3881000    253.11103   -4289.3492   -3855.5255   -4289.3492            0     140.8021    18.055581    23.763898    22.093648    9479.7434    793.55564    27.508102   -398.65745    108.41768    262.52094    236.90729   -3836.0593 
 3882000     259.9564    -4238.163   -3792.6066    -4238.163            0    1541.9844     18.03978    23.388325    22.145304    9343.5516    2413.1008      1318.53    894.32257    558.89483    118.10375    594.88034   -3582.4864 
 3883000    249.54299   -4258.2601    -3830.552   -4258.2601            0    2120.1502    18.246115    23.669373    21.700855    9372.0371    49.394573    4131.8771    2179.1788   -44.775714    -526.2427    56.056301   -3540.7666 
 3884000    245.85433   -4269.6806   -3848.2947   -4269.6806            0    1017.0873    18.057742    23.526193      22.0757    9378.4183    67.138248    1515.0348     1469.089   -376.61472    519.88529    208.16945    -3709.183 
 3885000    237.92861   -4277.4843   -3869.6828   -4277.4843            0    30.594593    18.062735    23.571042    22.041917    9384.5109   -273.06678    24.261194    340.58937   -341.09016      48.9391   -572.85518   -3865.4956 
 3886000    262.64071   -4273.6671   -3823.5099   -4273.6671            0    405.31225    17.983245     23.31785    22.509356    9438.8622    878.25077    1378.4466   -1040.7606   -240.62177   -260.74143   -245.09151   -3767.7162 
 3887000    243.86597   -4266.5816   -3848.6036   -4266.5816            0    923.16595    18.186751    23.499696    21.976041    9392.1893    1803.1764    103.05196    863.26947    898.79349    441.03996    269.47507   -3722.1526 
 3888000    251.25862   -4252.4915   -3821.8428   -4252.4915            0    1153.5872    18.111345    23.567791    22.068798    9419.9424    1357.4407   -1148.9671    3252.2881   -524.50543    311.51763    180.76838   -3663.3628 
 3889000    237.72658   -4279.1687   -3871.7135   -4279.1687            0    2285.1714    17.980822    23.340862    22.105019    9277.2088    2055.8596    2403.5471    2396.1076   -160.77911    151.13684    511.05777   -3562.5331 
 3890000    249.33804   -4253.5417   -3826.1849   -4253.5417            0    796.94936    18.031787    23.890781    21.804232     9393.121    1136.4363    402.47825    851.93349    136.10563   -250.23311    55.032471   -3717.0115 
 3891000    249.79044   -4278.9271   -3850.7948   -4278.9271            0    2616.4971    17.974691    23.398904    22.055515    9276.2863    3915.1494    1626.5846    2307.7572     1425.725    174.25534    534.95575   -3496.8217 
 3892000    249.57579   -4273.7877   -3846.0234   -4273.7877            0    593.36026    18.127012    23.459083    22.120547    9406.6096    985.40523    905.85114   -111.17558    558.34778   -860.35476    336.33191   -3764.6228 
 3893000    256.18996   -4278.9953   -3839.8945   -4278.9953            0    2586.7543    18.194733    23.410997    21.760763    9269.1456    2042.0746    2886.1757    2832.0127   -521.54411    56.077841    1047.4975   -3490.2145 
 3894000    235.92767   -4237.9585   -3833.5866   -4237.9585            0    1735.3899    18.119704    23.432199    22.047845    9361.1735    2439.7671    1476.9492    1289.4534    864.42539    1150.3308    598.52653   -3596.6658 
 3895000    253.98422   -4235.3329   -3800.0126   -4235.3329            0    2280.0484     18.03217    23.551333    22.103312    9386.8712    3426.9434    2225.7041    1187.4977   -29.437019    428.14265   -256.80043   -3487.8788 
 3896000    244.49924    -4258.219   -3839.1557    -4258.219            0    2035.5406    18.163138    23.471454    21.849633    9314.8321    1210.9723    2205.0256    2690.6237    399.47953    554.35863    1122.6886    -3562.633 
 3897000    240.48064   -4259.2382   -3847.0626   -4259.2382            0    1803.7415    17.978757    23.011351    22.454862    9289.9244    1967.2499    1990.2127    1453.7619   -53.066312    626.75203   -659.36998   -3602.6844 
 3898000    245.45457   -4277.2085   -3856.5077   -4277.2085            0    1223.4265    18.011215    23.508062    21.989525    9310.5571    835.09551    1189.5858    1645.5983   -1089.5624   -105.59473   -137.10157   -3690.3848 
 3899000    266.44539   -4239.7389   -3783.0606   -4239.7389            0    3501.4318    18.002972    23.511768    21.782525    9220.1444    3975.4184    3838.0629    2690.8141   -1707.2804   -576.85483    225.02729   -3312.2358 
 3900000    243.09945   -4250.9298   -3834.2656   -4250.9298            0    666.49621    18.183464    23.202746    22.156126    9347.8089   -408.20647   -394.50362    2802.1987    517.09238   -302.73455   -907.85891   -3743.4034 
 3901000    270.04798   -4261.4503   -3798.5973   -4261.4503            0   -99.240735    18.313172    23.322012    22.068144    9425.3048   -362.95199     1433.274   -1368.0442   -838.37887   -236.42165    444.71129   -3812.2387 
 3902000    232.27636   -4246.6475   -3848.5338   -4246.6475            0    3131.6519     18.02008    23.415808    21.963005    9267.3936    4313.1852    2520.5473    2561.2233   -390.85706    572.08633   -111.04991    -3425.274 
 3903000    250.36441    -4238.763    -3809.647    -4238.763            0    820.34406    17.866808    23.692514    22.193093    9394.5494    332.18043    711.23373     1417.618    318.96348   -223.02542   -261.17247   -3697.2517 
 3904000    232.46656   -4243.4846   -3845.0449   -4243.4846            0    1162.3692    18.092557    23.650298      21.9235    9380.9419    752.77392    1023.4857    1710.8478   -756.41799    394.21535    816.35505   -3686.0195 
 3905000    252.78337   -4265.0785   -3831.8164   -4265.0785            0    1064.7534    18.093683    23.408322    22.136281    9375.6613    1292.4894    558.40155    1343.3693   -210.96597   -539.36938    166.24322    -3686.228 
 3906000    238.54076   -4284.8169   -3875.9662   -4284.8169            0    1840.9459    18.322218    23.119937    22.081533    9353.9253    1579.4286    3094.0686    849.34032   -291.71873   -588.52075    746.42123   -3624.8292 
 3907000    247.11133   -4261.8425   -3838.3021   -4261.8425            0    1276.4225    18.308192    23.313569    22.061082    9416.3161    653.97105    894.94122    2280.3553   -384.56328    361.05765    -503.1608   -3663.0145 
 3908000    249.58308    -4264.079   -3836.3021    -4264.079            0     369.9743    17.989985    23.610798    22.198676    9429.0632    1272.7782    764.78607   -927.64141    494.55914    268.76128    756.09486   -3785.4257 
 3909000    260.48632   -4276.6119   -3830.1473   -4276.6119            0    1563.2059    17.948749     23.81817     21.96764    9391.3057    2287.9967    1889.5974    512.02354    337.06155   -166.90333   -88.285521   -3616.0466 
 3910000    266.43391   -4251.8145   -3795.1559   -4251.8145            0    2069.7703    18.076529    23.474956    22.030704    9348.6351    1826.1402    1233.5224    3149.6484    1189.0412    29.966118   -344.94018   -3512.9629 
 3911000    245.73504   -4276.6486   -3855.4671   -4276.6486            0    1403.6481    18.198053    23.262802    22.103574    9357.2766    1694.4727    809.33667    1707.1348    245.83524    143.17464    77.495288   -3663.9165 
 3912000    248.97277   -4265.4006   -3838.6697   -4265.4006            0    596.90187    18.359118    23.172562    22.099705    9401.8288    46.942873    141.05769    1602.7051   -331.52748   -371.49769   -402.14921   -3756.8249 
 3913000    251.12404   -4248.1576   -3817.7395   -4248.1576            0    1425.0352    17.962789    23.529221    22.132304    9354.2279     1569.108    764.80078    1941.1969   -254.40359   -127.55397   -690.11515   -3623.3336 
 3914000    252.33559   -4269.7997   -3837.3051   -4269.7997            0    1409.5056    17.772019    23.875931    22.001485    9335.7467      2449.43   -63.424159    1842.5109   -215.83464   -115.22739    11.955548   -3645.3977 
 3915000    246.68631   -4255.6387   -3832.8269   -4255.6387            0    466.70868    18.081998    23.588107    22.038285    9399.7715    180.11089    89.961058    1130.0541   -49.578961   -484.39094   -568.39939   -3768.8476 
 3916000    257.22556    -4250.688   -3809.8122    -4250.688            0    2036.1923    18.241674    23.274165    22.017586    9347.7807    863.57633    1804.7435    3440.2571   -247.32999   -150.15351     374.5905   -3532.2226 
 3917000    248.28104   -4279.9916   -3854.4463   -4279.9916            0    307.81466    18.253359    23.345922    22.052323      9397.41   -253.29264   -39.532021    1216.2687   -953.26715   -1219.8705    96.250028   -3812.2599 
 3918000     255.5289   -4220.6417   -3782.6739   -4220.6417            0    2239.3114    17.884493    23.310633    22.278456    9287.8627     2684.733    2904.9327    1128.2687   -439.19873   -161.20398   -227.67788   -3479.3503 
 3919000    246.49717   -4212.6997    -3790.212   -4212.6997            0    2265.0942    17.927696    23.563038    22.084863    9329.3307    2836.4949    1564.1062    2394.6813   -705.36395   -9.2738163   -312.86533   -3482.0262 
 3920000    261.62392   -4274.6734    -3826.259   -4274.6734            0   -591.32362    18.074385    23.825563    22.043682    9492.7238   -649.10657   -1447.5553      322.691    147.53391    415.53425    463.13826   -3908.1228 
 3921000    234.93927   -4224.1101   -3821.4322   -4224.1101            0    2716.7555    18.078124    23.315198    22.050019    9293.9738     3627.875    2884.4261    1637.9654    -124.0784     650.4004    900.50486   -3453.1948 
 3922000    250.83493   -4262.8231   -3832.9006   -4262.8231            0    685.22502    18.298778    23.237244    22.093713    9394.5377    1522.5087    777.36202   -244.19563    483.02002    -23.00981    1139.7964   -3739.0181 
 3923000    246.19622   -4254.7316   -3832.7597   -4254.7316            0     796.4712    18.315739    23.523442    21.863344    9419.8046    953.41635    632.69859    803.29865    911.65798   -35.949388    276.82464    -3723.342 
 3924000    244.53013   -4269.5097   -3850.3934   -4269.5097            0    915.29473    17.913077    23.444031    22.272165    9353.3009    1172.8936    1999.0977   -426.10713    284.68582    226.74815   -628.63756   -3725.5396 
 3925000    252.52715   -4244.9799    -3812.157   -4244.9799            0    2635.0873    17.997489    23.571526    21.977912    9323.6522    2239.7248    1256.9988    4408.5384     -534.108    326.53799    719.12362   -3453.8487 
 3926000    245.71663   -4260.1813   -3839.0314   -4260.1813            0      1513.88    18.292463    23.564315    21.839827    9414.0431    776.79094    700.81102    3064.0381   -157.03728   -176.05943   -684.36378   -3631.1846 
 3927000    257.76878   -4235.7509    -3793.944   -4235.7509            0    2520.1491    18.157364    23.142475     22.18225    9321.1224    2133.7097     2000.232    3426.5056   -221.60404   -413.96869   -930.06859   -3451.3575 
 3928000    252.98421    -4240.057   -3806.4507    -4240.057            0    512.33157    18.169686     23.47327    22.211858    9473.4007    1077.7182    -847.9892    1307.2657    169.28132     -433.942    544.48769   -3735.6671 
 3929000    255.07098   -4264.6542   -3827.4712   -4264.6542            0    921.43306    18.272659    23.465415    21.929845     9402.981   -320.34538    1674.7553    1409.8892    470.58711    643.72798   -548.93738   -3701.1125 
 3930000    258.30155   -4272.4287   -3829.7087   -4272.4287            0     1549.494    17.925702    23.446547    22.211352    9335.3383    1772.9572    1080.3864    1795.1385    42.535006   -431.64284     323.7302   -3618.7508 
 3931000    247.52133   -4237.0327   -3812.7896   -4237.0327            0    1961.2632    18.126543      23.4628    22.082079    9391.4964    814.18947    842.53284    4227.0672    138.06432   -441.66663    1265.5546   -3544.1645 
 3932000    269.47003   -4243.1535    -3781.291   -4243.1535            0    1097.1405    18.152863    23.597029    21.976382    9413.6628    1704.4963   -720.76516    2307.6903   -240.11746    81.274744     -703.214   -3630.6661 
 3933000    250.37883    -4272.074   -3842.9332    -4272.074            0     2020.914    17.870397    23.379409    22.384984    9352.4308    1917.5506    2538.0962    1607.0954    82.151965   -398.34185    140.84538   -3567.2894 
 3934000    250.68782   -4278.7699   -3849.0995   -4278.7699            0    985.29178    18.113485    23.604158    21.936822    9379.1665   -850.53028    2392.1111    1414.2946    487.96565    155.38506     494.9267   -3714.3259 
 3935000     265.4032    -4256.725    -3801.833    -4256.725            0    2453.2091     18.09334    23.550048    21.863509    9316.0197    2426.2303    573.52728    4359.8698    -457.2486   -41.037956    569.34746   -3468.5287 
 3936000    257.00009   -4237.8625   -3797.3732   -4237.8625            0    1093.7253    18.042942    23.536416    22.190458    9423.5368    1376.5852    881.90847    1022.6821   -41.396652   -58.911442    406.36122   -3647.0596 
 3937000     246.0173   -4253.0621   -3831.3969   -4253.0621            0    1305.6045    18.291492    23.579707    21.760329    9385.4044    1012.9333    128.68474    2775.1956    40.563704   -6.5237088     439.4514   -3652.6903 
 3938000    267.63411   -4251.6717    -3792.956   -4251.6717            0    1687.2994    18.074169     23.33793    22.137439    9337.8749    1050.2722    3167.4263    844.19983     1178.746    -795.2521    361.26698   -3563.1739 
 3939000    241.26239   -4265.0208   -3851.5053   -4265.0208            0    200.30913    18.151486    23.610231    22.019157    9436.5471    227.23255    261.41571    112.27913    120.36341    -911.9038    116.20817   -3823.9383 
 3940000    263.70469    -4237.875   -3785.8942    -4237.875            0    399.17498    18.111239    23.776948    21.975905    9463.4834    94.829567   -160.93689    1263.6323   -235.36917    16.925125    93.294381    -3730.802 
 3941000    251.83586   -4242.9088   -3811.2707   -4242.9088            0    1903.0548     17.99327    23.397084    22.266487    9373.9692     807.3256    2081.0753    2820.7635    953.17945    764.40254    644.17258   -3551.1046 
 3942000    252.83454   -4245.3842   -3812.0345   -4245.3842            0    3255.0366    18.010066    23.442682    21.974293      9277.64    4540.9785    4272.8999     951.2315     -1525.78    40.793208    435.97011   -3371.6122 
 3943000    262.52136   -4263.4043   -3813.4517   -4263.4043            0    2515.7213    18.096642    23.344883    22.030608    9307.1384    3049.6813    2213.9879    2283.4947    379.02206    539.66517    242.68299   -3471.9801 
 3944000    241.51676   -4212.4796   -3798.5282   -4212.4796            0    1126.6222    18.124146    23.196428    22.384694     9410.871    1250.4648    3459.3164   -1329.9147    35.826617    -84.80526   -300.92868   -3643.9017 
 3945000     255.1602   -4264.3296   -3826.9937   -4264.3296            0    619.98333    18.146483    23.805307    21.840026    9434.5115   -155.44747    515.56293    1499.8345    -166.2516    -1009.921    408.26097   -3741.6886 
 3946000    259.87544   -4268.0176      -3822.6   -4268.0176            0    1189.4655    18.091546    23.619013    22.045875    9420.3009    1660.2294    56.431197     1851.736    250.52476   -240.14124   -943.92648   -3659.1847 
 3947000    241.06333   -4231.9967   -3818.8224   -4231.9967            0   -3.4931313    17.909266    23.542264    22.413205    9449.9601    1781.6951   -529.06297   -1263.1115    -453.5538    -405.4593    362.54574   -3819.3038 
 3948000    264.02003   -4261.0128   -3808.4915   -4261.0128            0    1118.6319    18.131504    23.537468    21.973488    9377.6187    1367.5004   -49.991801    2038.3871    86.903058    918.53049    368.35177   -3655.5041 
 3949000    266.51353   -4256.0179   -3799.2228   -4256.0179            0    1397.1128    17.924886    23.405163    22.207737    9316.9203    1054.0146    1784.9359     1352.388    107.20437   -147.11932   -999.74086   -3609.3863 
 3950000    246.15969   -4245.8022   -3823.8929   -4245.8022            0     2557.343    18.201812    23.213193    21.912444    9258.4934    2483.4455    3036.8271    2151.7563    1560.5688    724.16294    211.78217    -3478.586 
 3951000    254.97421   -4259.4754   -3822.4584   -4259.4754            0    1224.3169    18.245522    23.234924    22.112252    9374.1203    429.87686    1844.1273    1398.9464   -834.95062    126.80774   -685.73255   -3655.0796 
 3952000    250.02614   -4245.9367   -3817.4005   -4245.9367            0     1282.389    18.207812    23.273999    22.298396      9449.36    1748.5366    1805.2051    293.42529    -796.5971       551.52   -14.013432   -3640.6755 
 3953000    252.59228    -4280.312   -3847.3775    -4280.312            0    2362.2708    17.932395    23.641909    21.987663    9321.8027     2981.761    1546.8074     2558.244   -444.98864    355.27538    573.93451   -3526.2293 
 3954000    248.58402   -4271.9138   -3845.8493   -4271.9138            0    1616.6641    17.909979    23.581509    22.124714    9344.2475    1987.2344    1434.4043    1428.3536   -670.93734    229.24484     135.0981   -3625.5364 
 3955000    245.67008   -4273.8364   -3852.7663   -4273.8364            0    2270.9405    18.158948    23.334841    22.073111    9353.1755    1735.7774    2386.9073    2690.1368    883.49354   -333.19484    812.98283   -3542.9953 
 3956000    249.87411   -4266.8673   -3838.5916   -4266.8673            0   -47.351279    18.405386    23.196864    22.138993    9452.1817   -756.15076    773.50667   -159.40974    301.67499    9.2370308    1083.5849    -3845.119 
 3957000    250.63527   -4257.7211   -3828.1408   -4257.7211            0    1319.6184    18.120935    23.514726    22.030637    9387.4486    1777.4948    1994.2052     187.1551   -425.47283   -584.14218    595.48083   -3647.4767 
 3958000    256.67588   -4248.1746   -3808.2409   -4248.1746            0    2624.2201    17.804841    23.555467    22.112484    9274.0054    4122.9348    724.97008    3024.7555   -357.95091    481.34599    54.356243   -3453.3103 
 3959000    247.37891   -4249.7884   -3825.7895   -4249.7884            0    979.48033    17.999781    23.556755    22.139389    9387.4648    1366.4359    686.41238    885.59272    265.91044  -0.95246137    -539.0584   -3691.6922 
 3960000    263.18434   -4242.4839   -3791.3949   -4242.4839            0     2106.649    18.184213     23.43092    21.899297     9330.696    1880.6039    1533.6736    2905.6696    281.48593    556.07775    736.36421    -3504.725 
 3961000    251.99082   -4266.2089   -3834.3053   -4266.2089            0    1368.3468    18.140532    23.197141    22.183624    9335.0571    116.40746    2776.7867    1211.8461   -717.53925   -238.69203   -754.18074   -3648.0155 
 3962000    256.77697   -4263.7197   -3823.6128   -4263.7197            0    268.31541    18.197294    23.552915    22.072327    9460.1847    1754.7866    -1857.019    907.17859    68.955794     393.3246    556.09917   -3786.5941 
 3963000    256.35833   -4246.0986   -3806.7092   -4246.0986            0     1386.403    18.149182    23.493181    22.032732    9394.3607    1705.5998    1681.7083    771.90098   -864.48379   -482.96096   -351.56696   -3616.7621 
 3964000    257.40704   -4270.8021   -3829.6153   -4270.8021            0    2408.0305    17.988271    23.554706    22.000144    9321.6466    3244.2923    1526.2316    2453.5676    107.85892    641.87018    508.26888   -3502.2516 
 3965000    228.40509   -4265.2153   -3873.7368   -4265.2153            0    2293.6401     17.84273    23.525023    22.133405    9290.5104    2237.0112     3647.936     995.9732   -567.81596    721.91218    178.59473   -3562.9656 
 3966000    253.77356   -4277.6158   -3842.6566   -4277.6158            0     643.3889    18.111699    23.532039    22.040764    9393.8883    1316.8912   -688.49208    1301.7676   -774.35925    148.88216    335.20343   -3754.5122 
 3967000    249.10621   -4278.1342   -3851.1747   -4278.1342            0    1988.9559    18.296965    23.202384    22.008516     9343.346    1213.2338    2019.1087    2734.5252    16.683209     154.6152   -300.71995   -3580.1534 
 3968000    253.10907   -4247.8052   -3813.9849   -4247.8052            0    1210.0179    18.173235    23.377694    22.248731    9452.3356    1081.2907    830.11793     1718.645   -1022.8157    109.75522   -22.473321   -3647.1808 
 3969000    249.06529   -4232.1883    -3805.299   -4232.1883            0    281.02811    18.098229    23.671964    21.850265    9361.1041    209.53584   -292.24228    925.79077   -345.31242    306.60568    420.80291   -3766.9324 
 3970000    243.46084   -4276.0045   -3858.7209   -4276.0045            0    1327.5263    17.982066    23.572456    22.111221    9372.5366    1816.7347    1034.9065    1130.9378   -917.40333   -356.96316    703.85863   -3677.2629 
 3971000    251.47378   -4256.8421   -3825.8246   -4256.8421            0     928.5543      18.0058    23.483141    22.152702    9366.8875    226.80573     873.4738    1685.3834    108.03321    639.78849   -228.36096   -3698.9781 
 3972000    246.12215      -4264.3   -3842.4551      -4264.3            0     1345.051    18.065552    23.709431    21.899985    9380.2881   -39.818418    1350.0879    2724.8837   -633.29755   -154.64473    212.79571   -3658.4496 
 3973000    239.14114   -4243.0112   -3833.1315   -4243.0112            0    1602.7367    17.978351     23.38262    22.243974     9350.943    1756.9676    2276.1101    775.13243    115.45341    133.73308    383.25234     -3614.56 
 3974000    241.56726   -4233.4147   -3819.3767   -4233.4147            0    1294.5386     18.14202    23.138533     22.31643     9367.985    2132.9772    2185.9951   -435.35658    994.28261    -347.6901   -1403.5229   -3642.5137 
 3975000    249.47896   -4269.8754    -3842.277   -4269.8754            0    2095.3583    18.234775     23.36068    21.925575    9339.7851    1567.3622    2566.2478     2152.465   -61.467537    775.59774    838.75435   -3556.8658 
 3976000    252.43079   -4251.7088    -3819.051   -4251.7088            0    1191.6303    18.075272    23.549073    22.006391    9367.1499    560.67366    937.19335    2077.0238   -103.70868   -369.01486    375.12679   -3656.2621 
 3977000    270.54246   -4231.5681   -3767.8676   -4231.5681            0    1809.2319    17.998924    23.564089    22.113645    9379.0217    2250.6295    1802.3578    1374.7084    215.35233   -31.366289    507.67448   -3520.3947 
 3978000    259.75272   -4235.6179   -3790.4106   -4235.6179            0    2278.0104    18.076443    23.530939    21.974905    9347.1506    2146.5092    3124.1221       1563.4    260.09833    212.27365    180.81087   -3479.8754 
 3979000    263.55227   -4260.8742   -3809.1546   -4260.8742            0    1795.0649    18.180977    23.203645    22.166056    9351.0817    2043.9749    2653.3731    687.84674    420.07267   -154.65611   -149.86244   -3564.3509 
 3980000    246.14651   -4207.4931   -3785.6064   -4207.4931            0    1081.6617    18.300452    23.280273    22.079907    9406.9128    1087.6024    547.15104    1610.2317    244.14414   -1008.3934     497.0195    -3637.213 
 3981000    260.48424   -4258.1636   -3811.7025   -4258.1636            0     1308.551    18.105771    23.553124    22.074187    9413.4817    276.05865    1277.2951    2372.2993    112.81618    496.64694   -234.24685   -3632.0568 
 3982000     267.6573   -4274.4972   -3815.7417   -4274.4972            0    2055.8292    17.838612    23.441765    22.238841    9299.5837    2874.9782    809.79945    2482.7101    536.88153   -82.064476    -102.0227   -3536.9201 
 3983000    254.49938   -4272.0951   -3835.8918   -4272.0951            0    2784.4196    17.991136    23.509488    21.883493     9255.895    1958.7462     3463.361    2931.1514   -1391.4168    220.49557    138.34869   -3460.0294 
 3984000    261.22391   -4250.8209   -3803.0921   -4250.8209            0    356.07299    18.213733    23.472969    22.094028    9445.8684    1178.1753    299.14636   -409.10265   -283.12177    67.326848    -255.5928   -3754.0401 
 3985000    240.43199   -4255.4492    -3843.357   -4255.4492            0    1473.0078    17.976692    23.354524    22.267099    9348.5536     891.1934    2618.8591    908.97082    195.46254    536.73979   -1449.1799   -3642.5285 
 3986000    238.51286   -4236.0464   -3827.2436   -4236.0464            0     2119.208     17.93959     23.66249     21.98577    9332.8574    2962.7629     747.9614    2646.8996    497.53087   -3.7852362    84.335549   -3538.7978 
 3987000    257.17385   -4269.1105   -3828.3233   -4269.1105            0    1635.1787    17.981456    23.570885    22.054544    9347.5723    2621.1171    1090.2272    1194.1919   -1018.3398   -52.265504   -112.12461   -3605.4079 
 3988000    259.75529   -4250.6188   -3805.4071   -4250.6188            0    637.14468    18.044204     23.44317    22.282637    9425.8527    1683.3437    71.864087    156.22629   -902.63226    26.212011   -15.967381   -3717.8211 
 3989000    243.03042   -4237.5194   -3820.9736   -4237.5194            0    340.21155     18.34277    23.301642    21.951011    9382.2277   -374.14591    526.60587     868.1747   -407.06388   0.56032251   -212.13951   -3774.4224 
 3990000    249.89505   -4243.5345    -3815.223   -4243.5345            0    3169.2236    18.035402    23.254686    22.114313    9274.9115    4045.8444    3887.4847    1574.3419   -719.44216    1193.8852    324.23351   -3386.5377 
 3991000    252.30235   -4281.0553   -3848.6177   -4281.0553            0    1390.8864     18.07835    23.521197    22.133387    9411.6574    1222.4191    522.47574    2427.7643    115.71931   -318.17855   -447.75625   -3657.7055 
 3992000    251.39516   -4249.9675   -3819.0848   -4249.9675            0    1320.3785    17.854047    23.871381    21.888519    9328.9031    2705.5621    -637.4275    1893.0009    262.54419    270.95045   -543.81606    -3639.444 
 3993000    262.98849   -4251.8672    -3801.114   -4251.8672            0    1513.0762    17.929621    23.587122    22.287255    9425.4617    2412.5058    1635.2316    491.49122     211.2629   -854.77502    527.89831   -3593.1255 
 3994000      256.043   -4250.7196   -3811.8707   -4250.7196            0    1526.1554    18.182835    23.320605    22.161503    9397.2466    1686.2782    2177.7053    714.48265   -841.52447    361.92108    406.03537   -3602.7123 
 3995000    258.22773   -4233.4744   -3790.8809   -4233.4744            0    2821.3004    18.241796    23.221739    22.061362      9345.33    3453.9248    3846.1103     1163.866   -806.67291   -290.17984    282.01328   -3406.3601 
 3996000    240.27835   -4232.0114   -3820.1825   -4232.0114            0     355.0758      18.0631     23.35776    22.353127    9431.0871    1598.0341   -343.00425   -189.80244    17.272734    -494.8669    220.51121   -3771.3444 
 3997000    242.01529    -4235.559   -3820.7531    -4235.559            0    1336.9437     17.93967    23.524058     22.05499    9307.5111    743.52705    2534.1151     733.1891   -160.47664   -382.64353   -534.03218   -3639.2757 
 3998000    260.78236   -4243.7769   -3796.8048   -4243.7769            0    1125.1644    18.005881    23.626949    22.037485    9375.2755     922.6311    1631.0701     821.7919   -821.60786    3.2395812    238.41062   -3642.9625 
 3999000    250.75206   -4272.6346   -3842.8542   -4272.6346            0    1611.3337    18.025582    23.345936    22.243263    9360.5009    583.61803    2848.8734    1401.5098    571.40731    419.21913   -448.40765   -3622.8857 
 4000000    254.65324   -4215.2092   -3778.7422   -4215.2092            0    2299.4628      18.3344    23.366863     21.87865    9373.1944    384.97094    2468.2544    4045.1632   -69.423451   -476.34677    841.35287   -3464.4093 
Loop time of 399.496 on 64 procs for 250000 steps with 864 atoms

Performance: 108.136 ns/day, 0.222 hours/ns, 625.788 timesteps/s
191.1% CPU use with 32 MPI tasks x 2 OpenMP threads

MPI task timing breakdown:
Section |  min time  |  avg time  |  max time  |%varavg| %total
---------------------------------------------------------------
Pair    | 17.847     | 24.718     | 32.933     |  98.4 |  6.19
Bond    | 0.93879    | 1.0445     | 1.2823     |   7.0 |  0.26
Kspace  | 196.89     | 206.52     | 214.29     |  35.4 | 51.70
Neigh   | 1.726      | 1.8127     | 1.9623     |   4.5 |  0.45
Comm    | 61.214     | 67.302     | 70.187     |  21.9 | 16.85
Output  | 0.59895    | 0.59927    | 0.60086    |   0.0 |  0.15
Modify  | 71.423     | 72.975     | 77.371     |  17.5 | 18.27
Other   |            | 24.52      |            |       |  6.14

Nlocal:        27.0000 ave          38 max          17 min
Histogram: 2 8 4 2 2 2 1 4 2 5
Nghost:        2093.28 ave        2200 max        1984 min
Histogram: 7 6 3 0 0 0 0 2 6 8
Neighs:        6498.12 ave        9193 max        4196 min
Histogram: 3 6 4 2 4 2 0 5 3 3

Total # of neighbors = 207940
Ave neighs/atom = 240.67130
Ave special neighs/atom = 2.0000000
Neighbor list builds = 6044
Dangerous builds = 0

unfix		3
unfix		2
unfix		1

write_data	data.final.${pid} nocoeff
write_data	data.final.0 nocoeff
System init for write_data ...
PPPM initialization ...
  extracting TIP4P info from pair style
  using 12-bit tables for long-range coulomb (../kspace.cpp:340)
  G vector (1/distance) = 0.37168245
  grid = 24 27 25
  stencil order = 5
  estimated absolute RMS force accuracy = 0.0031453514
  estimated relative force accuracy = 9.4721323e-06
  using double precision FFTW3
  3d grid and FFT values/proc = 4410 672
Last active /omp style is kspace_style pppm/tip4p/omp

write_restart   restart.lmp.${pid}
write_restart   restart.lmp.0
System init for write_restart ...
PPPM initialization ...
  extracting TIP4P info from pair style
  using 12-bit tables for long-range coulomb (../kspace.cpp:340)
  G vector (1/distance) = 0.37168245
  grid = 24 27 25
  stencil order = 5
  estimated absolute RMS force accuracy = 0.0031453514
  estimated relative force accuracy = 9.4721323e-06
  using double precision FFTW3
  3d grid and FFT values/proc = 4410 672
Last active /omp style is kspace_style pppm/tip4p/omp
Total wall time: 0:06:39
