LAMMPS (30 Jul 2021)
Processor partition = 1
  using 2 OpenMP thread(s) per MPI task
using multi-threaded neighbor list subroutines
variable        pid world 0 1
variable        phase world IceII IceIh

shell cd ${phase}
shell cd IceIh
include Restart.lmp
echo both
log log.lammps
#include		in.partitions
include		in.temp
variable        temperature equal 242.60
variable	tempDamp equal 100.0
include		in.pressure
variable        pressure equal 2157.0
variable        pressureDamp equal 1000.0 # This is 1 ps
include		in.seed
variable        seed equal 745823

units		real
atom_style	full
#include		in.box
read_restart	restart.lmp.${pid}
read_restart	restart.lmp.1
Reading restart file ...
  restart file = 30 Jul 2021, LAMMPS = 30 Jul 2021
  restoring atom style full from restart
  orthogonal box = (0.049043350 0.080182833 0.15898328) to (18.158529 23.548995 22.054213)
  2 by 4 by 4 MPI processor grid
  restoring pair style lj/cut/tip4p/long/omp from restart
  restoring bond style harmonic/omp from restart
  restoring angle style harmonic/omp from restart
  864 atoms
  576 bonds
  288 angles
Finding 1-2 1-3 1-4 neighbors ...
  special bond factors lj:    0        0        0       
  special bond factors coul:  0        0        0       
     2 = max # of 1-2 neighbors
     1 = max # of 1-3 neighbors
     1 = max # of 1-4 neighbors
     2 = max # of special neighbors
  special bonds CPU = 0.002 seconds
  read_restart CPU = 0.007 seconds
include 	in.setup
variable	out_freq equal 1000
variable	out_freq2 equal 10000
variable	out_freq3 equal 1000

timestep	2.0

neigh_modify    delay 7 every 1

include		in.tip4p
# This is TIP4P/Ice

# create groups ###
group ox type 2
288 atoms in group ox
group hy type 1
576 atoms in group hy

# set charges - beside manually ###
set group ox charge -1.1794
Setting atom values ...
  288 settings made for charge
set group hy charge 0.5897
Setting atom values ...
  576 settings made for charge

# ### TIP3P Potential Parameters ###
pair_style lj/cut/tip4p/long/omp 2 1 1 1 0.1577 8.5
pair_coeff 1 1*2 0.000 0.000
pair_coeff 2 2 0.21084 3.1668
bond_style  harmonic
bond_coeff  1 450 0.9572
angle_style harmonic
angle_coeff 1 55 104.52
kspace_style pppm/tip4p/omp 1.0e-5
pair_modify tail yes

thermo          ${out_freq}
thermo          1000
thermo_style    custom step temp pe etotal epair emol press lx ly lz vol pxx pyy pzz pxy pxz pyz enthalpy

restart 	${out_freq3} restart.lmp.${pid} restart2.lmp.${pid}
restart 	1000 restart.lmp.${pid} restart2.lmp.${pid}
restart 	1000 restart.lmp.1 restart2.lmp.${pid}
restart 	1000 restart.lmp.1 restart2.lmp.1


include         in.dump
dump            myDump all atom ${out_freq2} dump.water.${pid}
dump            myDump all atom 10000 dump.water.${pid}
dump            myDump all atom 10000 dump.water.1
dump            myDump2 all dcd ${out_freq2} dump.dcd
dump            myDump2 all dcd 10000 dump.dcd
dump_modify     myDump append yes
dump_modify     myDump2 append yes


variable natoms 	equal  "count(all)"                        # NUMBER ATOMS
variable H      	equal  "enthalpy/v_natoms"                 # ENTHALPY-per-atom
variable Vol      	equal  "vol/v_natoms"                 # volume-per-atom
fix AVG all 		ave/time ${out_freq} 1 ${out_freq} v_Vol v_H file vol_enthalpy.dat
fix AVG all 		ave/time 1000 1 ${out_freq} v_Vol v_H file vol_enthalpy.dat
fix AVG all 		ave/time 1000 1 1000 v_Vol v_H file vol_enthalpy.dat


timer           timeout 23:50:00 every 1000
New timer settings: style=normal  mode=nosync  timeout=23:50:00

fix 		1 all shake 1e-6 200 0 b 1 a 1
Finding SHAKE clusters ...
       0 = # of size 2 clusters
       0 = # of size 3 clusters
       0 = # of size 4 clusters
     288 = # of frozen angles
  find clusters CPU = 0.000 seconds
fix             2 all nph aniso ${pressure} ${pressure} ${pressureDamp}
fix             2 all nph aniso 2157 ${pressure} ${pressureDamp}
fix             2 all nph aniso 2157 2157 ${pressureDamp}
fix             2 all nph aniso 2157 2157 1000
fix             3 all temp/csvr ${temperature} ${temperature} ${tempDamp} ${seed}
fix             3 all temp/csvr 242.6 ${temperature} ${tempDamp} ${seed}
fix             3 all temp/csvr 242.6 242.6 ${tempDamp} ${seed}
fix             3 all temp/csvr 242.6 242.6 100 ${seed}
fix             3 all temp/csvr 242.6 242.6 100 745823


run             250000
PPPM initialization ...
  extracting TIP4P info from pair style
  using 12-bit tables for long-range coulomb (../kspace.cpp:340)
  G vector (1/distance) = 0.37173125
  grid = 24 27 25
  stencil order = 5
  estimated absolute RMS force accuracy = 0.003148504
  estimated relative force accuracy = 9.4816262e-06
  using double precision FFTW3
  3d grid and FFT values/proc = 4410 672
Last active /omp style is kspace_style pppm/tip4p/omp
Neighbor list info ...
  update every 1 steps, delay 7 steps, check yes
  max neighbors/atom: 2000, page size: 100000
  master list distance cutoff = 10.8154
  ghost atom cutoff = 10.8154
  binsize = 5.4077, bins = 4 5 5
  1 neighbor lists, perpetual/occasional/extra = 1 0 0
  (1) pair lj/cut/tip4p/long/omp, perpetual
      attributes: half, newton on, omp
      pair build: half/bin/newton/omp
      stencil: half/bin/3d
      bin: standard
Setting up Verlet run ...
  Unit style    : real
  Current step  : 500000
  Time step     : 2
  Walltime left : 23:49:59.95
Per MPI rank memory allocation (min/avg/max) = 10.19 | 10.21 | 10.23 Mbytes
Step Temp PotEng TotEng E_pair E_mol Press Lx Ly Lz Volume Pxx Pyy Pzz Pxy Pxz Pyz Enthalpy 
  500000    248.47426   -4261.0473   -3835.1709   -4261.0473            0    2055.4902    18.109486    23.468812    21.895229    9305.6502    1730.2116    2128.3433    2307.9158   -259.13392   -192.13345   -392.28602   -3556.2135 
  501000    248.52547   -4280.1091   -3854.1449   -4280.1091            0    2557.6041    17.927845    23.203581    22.244473    9253.4828    3055.2493    2832.3726    1785.1903   -450.80015   -71.813201   -36.351527   -3508.9897 
  502000    242.97565   -4270.6959   -3854.2439   -4270.6959            0    1935.3846       18.049     23.47575    22.015005    9328.0617    580.44639    1810.6558    3415.0516   -305.81721   -136.80317    15.006914   -3590.9538 
  503000    247.46476   -4281.9392    -3857.793   -4281.9392            0    3132.3138    17.956222    23.449735    21.907773    9224.6763    3859.7553    2712.5714    2824.6148   -659.65579    -94.99462    185.92086   -3436.3952 
  504000     228.7444   -4288.1323   -3896.0723   -4288.1323            0     1778.755    18.036208    23.276048    22.207369    9322.9118    1397.9425    2532.5454    1405.7772   -297.00511     603.9949    926.85881   -3654.2237 
  505000     251.0712   -4279.9511   -3849.6236   -4279.9511            0    1796.3527    18.235287    23.359397    21.850361    9307.4953    1960.8455    1677.4017     1750.811    31.419249    471.73864    194.79282   -3605.7862 
  506000    237.31871    -4245.874   -3839.1178    -4245.874            0     2271.518    18.045469    23.420212    22.093445     9337.324    2745.9576    2567.6143     1500.982   -1029.9678    275.21781   -330.14765   -3529.7932 
  507000    234.62021   -4253.6055   -3851.4745   -4253.6055            0    3128.4305    17.931167    23.622135    21.855325    9257.3134    3212.0069    4246.0272    1927.2575   -166.22602    550.22811   -247.49681     -3429.11 
  508000     253.2407   -4274.9695   -3840.9236   -4274.9695            0    2754.1275    17.969736    23.441975    22.004127    9269.1524    2012.6938    2142.6214    4107.0674    -1492.174    619.45051     1090.652   -3468.6177 
  509000    254.57963   -4264.7197    -3828.379   -4264.7197            0    2260.6818     18.27513    23.243859    21.996986    9343.9793    429.40335     3561.387    2791.2549    561.06691    195.87152    437.18574   -3520.3105 
  510000    240.88311   -4257.5525   -3844.6871   -4257.5525            0    3088.8897    18.060709    23.357384    21.941078    9255.8636    4071.5154    2472.4694    2722.6843   -258.12039   -564.75016   -440.67577   -3427.7263 
  511000    255.50395   -4290.9228   -3852.9978   -4290.9228            0    3322.5733    17.987522    23.225525    22.109075       9236.5    4092.0516    3858.0544    2017.6138     91.02446   -62.091588    -752.6498    -3405.431 
  512000    252.18638   -4251.5915   -3819.3526   -4251.5915            0    526.51481    18.006923    23.681705    21.999772    9381.4647    887.55592   -637.76463    1329.7531   -464.59243   -399.50091    948.21657   -3747.3154 
  513000    250.35659   -4257.6027   -3828.5001   -4257.6027            0    2058.2493    17.754219    23.860057    21.906369    9279.9036    2022.8854    1074.2571    3077.6053      269.238    -466.5712   -592.91929    -3549.941 
  514000    237.69666   -4283.8026   -3876.3987   -4283.8026            0    2222.8005    17.913523    23.454182    22.091123    9281.5194    2219.7913    2234.9768    2213.6334    182.37751   -563.73952   -142.52558   -3575.5172 
  515000       237.47   -4256.7284    -3849.713   -4256.7284            0    1357.9057    18.254003    23.351236    21.891271    9331.2317   -37.584281    367.10545    3744.1959    284.96555   -518.08743   -282.96857   -3664.9204 
  516000    251.33813   -4277.9061   -3847.1211   -4277.9061            0    2877.5226    18.093988    23.160647    22.004308    9221.3115    2186.3969    3598.6178     2847.553   -460.60077   -46.432793    197.05167   -3460.1422 
  517000      249.859   -4284.3723   -3856.1225   -4284.3723            0    2067.0629    18.142379    23.165541    22.062356    9272.3232    1739.0417    2048.8062    2413.3409   -178.36515    503.44869   -362.18848   -3576.5991 
  518000    237.47384   -4285.4395   -3878.4174   -4285.4395            0    2321.6142    17.900249    23.619857     21.97607    9291.5115    3733.5358     1030.095    2201.2118    721.92313    197.79736   -503.00849   -3563.8221 
  519000    248.91967   -4279.3293   -3852.6895   -4279.3293            0    2669.4409    17.740419     23.76235    21.938245    9248.1561    2350.8912    3050.1485    2607.2829   -52.034933    652.61808    36.479279    -3492.649 
  520000    241.83539     -4290.13   -3875.6324     -4290.13            0    738.80259    18.016445    23.483221    22.090368    9346.0849    245.00938    1432.0284    539.37006    871.60395    382.75982   -184.73335   -3774.9314 
  521000    237.63945   -4287.1009    -3879.795   -4287.1009            0    2656.7267    18.139192    23.209283    21.995076    9259.8749    2930.9286    3926.6807    1112.5709   -1002.1997    732.45498   -549.79719   -3521.0153 
  522000    245.10665   -4256.8628   -3836.7584   -4256.8628            0    3196.0253    18.046376    23.068469    22.148904    9220.6391    2967.0077    4604.9128    2016.1552   -320.77502    130.46037    458.88275   -3406.9775 
  523000    232.75806   -4275.7953    -3876.856   -4275.7953            0    2150.6697    17.888079    23.537283     21.98936    9258.3296    2321.2419    3088.0556    1042.7118    373.64465   -192.63616   -523.30472   -3586.4656 
  524000    252.17962   -4232.6727   -3800.4454   -4232.6727            0    2894.8085    17.725423    23.925973    21.894815    9285.5471     4564.053    1129.5562    2990.8162    240.87705   -227.33686    837.14786   -3408.4299 
  525000    233.58254   -4246.7939   -3846.4414   -4246.7939            0    1664.8049    18.041217    23.458444    22.041426    9328.3475    802.39988    2460.1401    1731.8746    995.54127    36.774505   -264.52464    -3619.954 
  526000    255.61393   -4263.4643   -3825.3508   -4263.4643            0    1910.1932    18.321054    23.129085    22.008136    9325.9307    2843.4911    803.31204    2083.7765    -306.7591    413.14989   -5.8364339    -3565.547 
  527000    248.03337   -4251.8103   -3826.6896   -4251.8103            0    1833.5392    18.126243    23.226555    22.052172     9284.189    2137.5314    855.90306     2507.183    -580.1128   -901.99105    244.00047   -3578.4277 
  528000    231.30703    -4263.504   -3867.0516    -4263.504            0    1308.7503    18.023196    23.449666    22.043536    9316.4347    1368.3536    605.16449    1952.7329   -142.71778   -613.60773    401.43655   -3689.2309 
  529000    236.28134   -4300.8515   -3895.8733   -4300.8515            0    2071.5968    17.889486    23.688626    21.937896    9296.7831    2853.1723    552.60102     2809.017    30.982712   -462.69298   -155.70398   -3614.9979 
  530000    246.71027   -4253.6935   -3830.8406   -4253.6935            0    2551.5694    17.858168    23.532676    22.143797    9305.9413    3521.1285    1980.4239    2153.1559    507.61175    144.22745    173.87729   -3484.5477 
  531000    245.15966   -4246.6151   -3826.4198   -4246.6151            0    1453.1969    18.025828    23.555179    21.922923    9308.5083     1322.002    318.23269     2719.356   -276.69219   -205.20667     652.4098    -3629.141 
  532000    240.76075   -4254.5116   -3841.8559   -4254.5116            0    2919.0454    18.049593    23.319082    22.045149    9278.8018    3485.4171    3764.8431    1506.8759   -482.20332   -228.24614    750.69768   -3446.8454 
  533000    251.30039   -4281.6893   -3850.9691   -4281.6893            0    1408.7476    18.327783    23.154227    21.903676    9295.1675    889.89417    1489.1105    1847.2382   -581.14798    71.986909    225.87074   -3659.9986 
  534000    240.81769   -4296.0716   -3883.3183   -4296.0716            0    2399.7505    18.037661    23.268836    22.190189    9313.5636    1286.6655    3663.3035    2249.2827    586.62116   -204.65306   -631.50087   -3557.3631 
  535000    244.30437   -4306.0871   -3887.3578   -4306.0871            0    2822.1747    17.938503    23.636768    21.750617     9222.441    2878.6788    2821.7995    2766.0459    87.518511   -530.18332     570.8723   -3507.7757 
  536000    234.37802   -4282.4622   -3880.7463   -4282.4622            0    765.02356      17.9184    23.494852    22.198934    9345.5326    1082.6514    1218.0399   -5.6206655    731.97225    132.26036   -1264.9501   -3776.4774 
  537000     240.7522   -4257.2691    -3844.628   -4257.2691            0    2476.0541    18.093838     23.11447    22.176691    9274.9457    1674.4597    2880.0267     2873.676    403.90858   -264.02532   -568.99969   -3509.7032 
  538000    243.29792   -4268.8561   -3851.8518   -4268.8561            0      1519.74    18.249413    23.376521    21.920964    9351.6541    2004.9014   -115.86973    2670.1885   -224.90952    1116.0607   -61.085275   -3644.5831 
  539000    240.69248   -4259.7688   -3847.2302   -4259.7688            0    3273.0638    17.838751    23.515389    22.111308    9275.3657    3280.8501    1900.8296    4637.5116    -1273.125    505.37399    126.37926   -3404.4773 
  540000    239.23753   -4275.6231   -3865.5782   -4275.6231            0    1256.1592    17.960019    23.690042    21.953173    9340.4955    1943.4984       1549.3     275.6792     482.0359   -131.30617    724.35112   -3694.4622 
  541000    234.96788   -4258.4231   -3855.6962   -4258.4231            0    2914.7907     18.07712    23.330166    21.977602    9268.8824    3079.6286    2737.1369    2927.6065   -701.98246   -441.17827    843.60428   -3461.6831 
  542000    236.22274   -4263.1293   -3858.2516   -4263.1293            0    3021.1139    18.052371    23.018859    22.371765    9296.4748    4084.8539     3804.903    1173.5847    41.035074     348.4728   -4.9163587   -3448.6503 
  543000    247.12283   -4267.6174   -3844.0573   -4267.6174            0    2625.1988    18.113977    23.532176    21.832033    9306.1509    1862.3415    2768.3335    3244.9215    -518.1576   -325.68222    85.630105   -3487.7636 
  544000    246.98107   -4277.1189   -3853.8018   -4277.1189            0    2604.7805    17.851418    23.331938    22.329345    9300.3546    4639.2574    1842.2328    1332.8511   -2233.4843   -264.30139    609.94343   -3500.4994 
  545000    232.20027   -4307.1797   -3909.1963   -4307.1797            0    991.09858    18.051822    23.603895    21.987769    9368.8414    844.92174   -627.09869    2755.4727     210.7516   -279.04867    422.10468   -3773.7776 
  546000    247.61108   -4268.0359    -3843.639   -4268.0359            0     2124.627    17.921825    23.626245    22.050322    9336.6668    1629.7198    1977.3533     2766.808   -727.38831    474.71523    192.26574   -3554.3377 
  547000    243.41023   -4293.9873   -3876.7905   -4293.9873            0    1696.4961    18.063089     23.22101    22.265672    9339.1837    1369.9431     2435.382    1284.1633   -1600.1748   -597.21091    475.21757   -3645.7237 
  548000    249.69818   -4274.8136   -3846.8395   -4274.8136            0    2802.9915    18.174062    23.279739    21.911324    9270.4055    3216.2722    3257.1187    1935.5836    253.92142     613.3079    181.56997   -3467.8768 
  549000    235.93802   -4243.6201   -3839.2304   -4243.6201            0    1815.1042    18.001815    23.153567    22.287551      9289.59    3071.0429    2859.2792   -485.00944   -100.45734    87.817449    292.90934   -3593.3216 
  550000    241.01973   -4281.1613   -3868.0618   -4281.1613            0    3831.3314    17.939865     23.42169    21.899585    9201.8103    4829.4708    3941.4587    2723.0647    -380.0478   -90.801303    651.76276    -3353.901 
  551000    242.99687   -4248.6245   -3832.1362   -4248.6245            0    893.13064    18.083633     23.73736     21.86461    9385.5524    1227.1977    105.05899    1347.1352   -904.36659    335.34327   -460.98678   -3709.8857 
  552000    236.49848   -4268.8063    -3863.456   -4268.8063            0    1353.4328    17.995545    23.539463    22.088912    9356.9836    2997.9251    992.11143     70.26185   -466.08809    514.18591   -425.86269   -3678.7639 
  553000    237.25758   -4288.3519   -3881.7005   -4288.3519            0    3219.9241    17.960964    23.318197    22.138412    9271.9501    4128.1129    2105.0601    3426.5993   -1254.0801    589.27011     670.3334   -3446.2964 
  554000    243.26798   -4250.2996   -3833.3466   -4250.2996            0    2626.7498    18.142658     23.24938    21.867705    9223.9197    2362.3864    2218.3368    3299.5262   -301.50516    179.00579   -317.37736   -3479.9925 
  555000    250.76018   -4276.8345   -3847.0401   -4276.8345            0    2437.6753    17.979477    23.337831    22.055186    9254.4006    2734.9006    2517.0229    2061.1023    297.51782     258.0672   -751.05779    -3518.037 
  556000    263.84231   -4275.1498   -3822.9331   -4275.1498            0    2088.8955    17.850395    23.603052    22.126023    9322.2201    3171.2439     2357.295     738.1474    879.09309    570.53992    372.26521   -3538.9373 
  557000    247.01784   -4284.5129   -3861.1328   -4284.5129            0    2676.3149    17.995535     23.64734    21.890148    9315.2769    1257.2849    3352.0673    3419.5926   -885.11384    476.71592    760.46811   -3497.5453 
  558000    252.95123   -4286.1144   -3852.5646   -4286.1144            0    3376.6892    18.014982    23.371291    21.952039    9242.5414    3752.0116    4669.7547    1708.3014    1276.9606   -628.34089   -766.02825   -3397.4106 
  559000    242.30429   -4265.1377   -3849.8365   -4265.1377            0     1296.338    18.199046    23.031033    22.171924     9293.203    1447.0341    2170.4637     271.5164   -1758.8961    75.522592    340.09275   -3674.1414 
  560000    236.87855   -4288.8127   -3882.8109   -4288.8127            0    1749.4788     18.02541    23.410708    21.926732    9252.8091    1469.8484     1376.384    2402.2041    160.89814   -832.65087    383.96717   -3646.7315 
  561000    242.22676   -4267.0897   -3851.9213   -4267.0897            0    2156.3793    17.605712    23.626354    22.244288     9252.707    3438.2531    1725.5166    1305.3681   -673.74711   -1228.4674   -67.601905   -3560.9368 
  562000    234.50889   -4240.3682    -3838.428   -4240.3682            0    1380.8335    18.005704    23.611257    21.932771    9324.4393     2161.951    605.82989    1374.7197    794.02525    141.45366    1047.1742   -3650.6521 
  563000    265.27224   -4278.4293   -3823.7618   -4278.4293            0    1068.5671    18.220245    23.187139    22.046216    9313.9829    419.78253    561.19476    2224.7241    717.32496   -673.33531    594.83071   -3678.6131 
  564000    245.94545   -4278.2345   -3856.6924   -4278.2345            0    2957.1084    18.163875    23.152642    21.949275    9230.5853     1420.679    3770.8359    3679.8104    248.19327   -1072.7905   -308.26955   -3458.6105 
  565000    228.42898   -4271.6193   -3880.0998   -4271.6193            0     3270.066    17.968496      23.4295    21.872947    9208.3551    4762.9662    2608.0459     2439.186   -200.88093   -433.74062     1059.619   -3440.9482 
  566000    256.01936   -4267.3636   -3828.5552   -4267.3636            0    3015.1213    17.819279    23.452068    22.190285    9273.2964    3153.1313     2301.116    3591.1166   -35.147855   -101.56208    231.50717   -3420.7856 
  567000     230.4959   -4291.1908   -3896.1287   -4291.1908            0    1962.1136    18.098217    23.374366     22.04222    9324.6164    2707.1118     1585.316    1593.9129    589.97235   -552.37987    191.90891    -3629.301 
  568000    240.60123   -4275.1166   -3862.7343   -4275.1166            0    1826.8048    18.224531    23.195746    22.085691    9336.3193    725.56111    3472.2842    1282.5691   -805.39755   -761.09216    969.90053   -3613.9954 
  569000    230.63765   -4291.6382   -3896.3331   -4291.6382            0     1900.124    18.055928    23.341033    21.938526    9245.8603    2831.5627    1492.0881    1376.7213    451.17971     260.5587    457.92792   -3640.1178 
  570000    246.46588   -4277.9191    -3855.485   -4277.9191            0    1349.0992    18.107473    23.505634      21.9369    9336.9509    620.37853    3013.2237    413.69547   -554.48229    1064.4261     951.8586   -3671.7783 
  571000    242.32544   -4273.6781   -3858.3405   -4273.6781            0    3851.7862    17.762154    23.398961    22.148056    9205.0851    4601.5295    4586.0751    2367.7541   -210.73192    728.51569   -296.73235   -3341.2509 
  572000    263.21789   -4251.8316   -3800.6852   -4251.8316            0    1374.8112    17.970859     23.48037    22.075663    9315.1001    1829.8283    2152.4124    142.19304   -1305.6367   -519.37448   -225.95686   -3613.9154 
  573000    225.25779   -4272.1226   -3886.0384   -4272.1226            0    3496.0119     17.96358    23.442446    21.930095     9234.988    4705.0978    3401.3185    2381.6193   -176.39113    677.94609    478.46937   -3415.1857 
  574000      242.274   -4276.1385   -3860.8892   -4276.1385            0    3588.3962    18.042343    23.086763    22.147176    9225.1689    4473.1226    3545.9426    2746.1236     8.843757   -438.02935    162.84162   -3378.1077 
  575000    234.04859   -4265.1104   -3863.9591   -4265.1104            0    2523.0895    18.176418     23.28832    21.949946    9291.3736    2322.5476      2237.24    3009.4809   -812.85847    675.47368    395.43614   -3522.0675 
  576000    224.06125   -4245.3863    -3861.353   -4245.3863            0    2745.0942    17.966043    23.506156    21.920027    9257.1039     2656.554     3138.399    2440.3295    256.35572    515.47662    -1195.566   -3490.7505 
  577000    237.93014   -4285.7731    -3877.969   -4285.7731            0    3337.1222    17.871587    23.582551    21.936215    9245.1848    2866.1013    5219.4799    1925.7854    795.72467    283.89047    453.27057   -3428.0197 
  578000    258.02207    -4252.853    -3810.612    -4252.853            0    2203.6981    17.836074    23.354354    22.185067     9241.189    2811.5673    2212.8119    1586.7153   -1403.2219   -401.37858      352.985   -3513.6124 
  579000    240.35384   -4270.3488   -3858.3905   -4270.3488            0    1284.2723    18.148461    23.372745    22.041274     9349.453    1064.3642     96.96242    2691.4903   -642.24281    273.29207   -880.78417   -3683.2772 
  580000    253.03742   -4250.6822   -3816.9847   -4250.6822            0    878.66644    18.254331    23.327403    21.988281    9363.1845    3.1585921    1156.1044    1476.7364   -573.61174    -403.6669   -193.36667   -3697.0007 
  581000     242.0714    -4272.915   -3858.0129    -4272.915            0    1177.3346      17.8824    23.364394    22.366077    9344.8033    3156.7802    922.21696   -546.99327   -679.78125   -97.108092   -106.16726   -3697.5606 
  582000     235.8663   -4281.0628    -3876.796   -4281.0628            0    1647.8911     18.08692    23.560773    21.823167     9299.764    1109.2253    2369.8259    1464.6221   -89.820229   -92.623856   -373.40092   -3653.2966 
  583000    230.73475    -4271.685   -3876.2136    -4271.685            0    553.26581    18.005352    23.458716    22.167207    9363.0391   -283.41949    -42.77971    1985.9966   -851.03721    151.43241   -98.345233   -3800.6649 
  584000    265.06801   -4273.4517   -3819.1342   -4273.4517            0    1574.9455    17.893676    23.692282    22.181617    9403.7198    2593.7187    256.99198    1874.1259    306.83631   -999.37319   -131.60175   -3603.1405 
  585000    248.53237   -4292.2473   -3866.2713   -4292.2473            0    2227.1138     18.20308    23.321498    21.849414    9275.5811    1672.6048    2786.2848    2222.4517    848.93195    505.36059   -40.743435   -3564.9988 
  586000    245.52769   -4286.9478   -3866.1218   -4286.9478            0    991.59552    18.046165    23.386524    22.270253     9398.872    762.76328    831.62598    1380.3973    359.38643   -983.11517    424.52778   -3730.2009 
  587000    228.82076   -4265.8423   -3873.6513   -4265.8423            0    3295.9703    17.884132    23.629354    21.863874    9239.4653    4880.0318    3050.8619    1957.0172    242.58528   -291.37451    89.563856   -3429.5255 
  588000    256.85274   -4272.1261   -3831.8893   -4272.1261            0    1922.7954    18.034428    23.580022    22.033291    9369.7061    1199.2845    2516.6449    2052.4569   -476.28823   -636.74753     509.7339    -3569.144 
  589000    218.32866   -4261.1586   -3886.9507   -4261.1586            0    2213.2193    18.186959    23.076693    22.154039    9297.9367    1613.9214    3286.0372    1739.6992    962.43085    244.80253    226.36518   -3586.8362 
  590000    245.77762   -4277.5947   -3856.3403   -4277.5947            0    2207.6858     18.19381     23.32084    22.013649    9340.2795    1271.4765    2938.2503    2413.3306    320.42979   -876.92938     38.00912   -3555.6129 
  591000    227.51592   -4278.5527   -3888.5982   -4278.5527            0    2648.0076    17.923001    23.575656    22.100962    9338.6845     3891.759     2396.313    1655.9508    426.06506   -163.22942    1090.2113   -3527.9525 
  592000    242.12059   -4254.1831   -3839.1967   -4254.1831            0    2163.0042    17.779086    23.702461    22.004871    9273.0306      2819.03    1918.9152    1751.0673    313.74646    340.72621     518.9292   -3546.6771 
  593000    235.43725   -4283.2376   -3879.7063   -4283.2376            0    2483.3482    18.004777    23.450555     21.97689    9279.1267    1763.2024    2633.9124    3052.9299    -982.5839    629.97993    -460.9861   -3543.6433 
  594000    235.69914    -4275.966   -3871.9858    -4275.966            0    366.34696    18.183728    23.303053    22.183763    9400.0676    227.46119    1408.1038   -536.52411   -161.50268    537.95319    679.34629   -3821.7631 
  595000    240.79297   -4291.3276   -3878.6167   -4291.3276            0     1551.738    18.179742    23.343878    21.972679    9324.8908    1940.8955    694.80011    2019.5184   -280.84211   -506.53619    179.06899   -3667.5897 
  596000    252.19314   -4279.4754    -3847.225   -4279.4754            0    621.45116    18.090093    23.485236     22.15377    9412.0314    -1353.783    1993.7613    1224.3753    698.20362   -552.76321    795.93206   -3761.9216 
  597000    243.38506   -4272.9923   -3855.8387   -4272.9923            0    2166.6365    17.941645    23.667714    21.945453    9318.8673    2324.2584    1061.8464    3113.8047   -467.29347   -424.34994   -490.73924   -3561.3795 
  598000    242.44609   -4305.0481   -3889.5038   -4305.0481            0    2605.0832    17.901404    23.459339    22.047288    9258.8712    2717.7206    2298.9841    2798.5449    446.00947   -315.60679    -649.8869   -3537.7364 
  599000    243.55766   -4272.2419   -3854.7924   -4272.2419            0    2423.5068    18.281022    23.236298    21.915232    9309.2239    510.61694     4171.667    2588.2363    258.92569   -149.19066    337.73968   -3525.7639 
  600000    240.67391   -4288.1905   -3875.6836   -4288.1905            0    2063.2968    17.953915    23.281609    22.203237     9280.865    2727.7281    2557.9834    904.17884   -20.477517   -860.63424   -359.77571   -3596.4125 
  601000    236.06149   -4293.3141   -3888.7128   -4293.3141            0    2542.1809    17.935116    23.660947    21.721416    9217.7402    2018.0553     2354.233    3254.2543   -217.32614    385.33994    -620.7221   -3546.9641 
  602000     241.1819   -4253.3216   -3839.9441   -4253.3216            0      2513.99    17.996551    23.538764     22.02459    9329.9808    2307.9131    1707.5641    3526.4928    118.57977   -766.03489   -301.09426     -3497.87 
  603000    252.91838   -4283.0003   -3849.5069   -4283.0003            0    1511.1369    17.924499    23.346819    22.327807    9343.7413    2048.3536    2070.7017     414.3555   -322.62443   -280.00481    636.65544    -3643.586 
  604000    240.63866   -4270.4669   -3858.0205   -4270.4669            0    1642.6432    18.213871    23.344489    21.859384    9294.4678    177.29211    2568.8353     2181.802   -14.012189   -772.08989    52.638733   -3635.3598 
  605000    244.97786   -4256.9497   -3837.0661   -4256.9497            0    1268.8016     18.07642    23.447549    22.022855    9334.3373    415.06122    1990.6557     1400.688   -440.37234    673.04928   -1434.7358   -3664.3419 
  606000    237.79441   -4293.0332   -3885.4618   -4293.0332            0    1564.1333     17.94054    23.347367    22.337616    9356.4313    2612.4077    1750.1659    329.82626    194.22416    -473.7132    389.40203   -3672.0296 
  607000     239.0392   -4289.2697   -3879.5647   -4289.2697            0    2041.7893    18.174905    23.428312    21.767389    9268.7138    1082.0819    1955.7945    3087.4916    34.142861    344.84016    469.02872   -3603.5664 
  608000    235.86891   -4258.2233   -3853.9521   -4258.2233            0    3614.4348    18.019293    23.313215    21.975436    9231.6095    2721.6957    4707.3855    3414.2232   -389.59681   -828.03697   -311.17694   -3367.3279 
  609000    237.78762   -4275.3273   -3867.7675   -4275.3273            0    1545.5435     18.00175    23.517064    22.104699    9357.9867    1869.3996    2591.5829     175.6481   -119.13966    703.11125    265.27369   -3656.8369 
  610000    226.46664   -4258.5273   -3870.3712   -4258.5273            0    969.11108    18.116842    23.607833    21.889694    9362.2086    389.01016    462.63521    2055.6879   -389.79125    -1011.086    351.54857   -3738.0505 
  611000    239.31056   -4260.5459   -3850.3758   -4260.5459            0    2456.9818    18.080573    23.251646    22.170768    9320.6591     2575.543    969.52051    3825.8818   -470.27083    314.40718    678.75377   -3516.3928 
  612000    247.60739   -4282.1862   -3857.7956   -4282.1862            0    2404.6723    18.255691    23.318896    21.780556    9272.0383     1591.957    1785.1664    3836.8934   -567.89039    233.19715    577.06636   -3532.6282 
  613000    233.08601    -4270.969   -3871.4676    -4270.969            0    833.23475    18.021445     23.50827    22.080873    9354.6283    1211.7179    254.20313    1033.7833    75.232548  -0.70216962    799.34341   -3757.7913 
  614000    249.52265   -4246.8865   -3819.2132   -4246.8865            0     4129.032    17.835855    23.373195    22.081015    9205.1534    4801.0463    4285.4657     3300.584    129.70444    222.40526    212.63126      -3264.9 
  615000    259.55442   -4276.7744    -3831.907   -4276.7744            0    2365.7352     17.94739    23.829719    21.752771    9303.2523    1488.4332    1748.3094    3860.4632    34.712897    125.46663    463.04708   -3510.9278 
  616000    234.48398   -4271.3183   -3869.4208   -4271.3183            0     5210.978    17.853818    23.354157    21.992607    9170.0566     4196.182    5082.3829    6354.3693   -7.6462261   -1234.9121    250.48622   -3172.5261 
  617000    238.92969   -4300.4553   -3890.9379   -4300.4553            0    1878.5124    18.053877    23.397895    22.130877    9348.5854    1859.8633    2705.8487    1069.8253   -309.50649    -228.6562    382.31671   -3634.8224 
  618000    234.04618   -4280.1494   -3879.0023   -4280.1494            0    1684.5396    18.210445    23.341921    21.957168    9333.2626   -173.27024    3097.6858    2129.2031   -342.88831    380.91256   -922.70801   -3649.7094 
  619000     241.2125   -4261.8275   -3848.3975   -4261.8275            0    2482.9898    17.953864    23.282048    22.184081    9273.0059    1832.3659    3568.0231    2048.5806    22.957255    150.81691   -226.80371   -3512.6047 
  620000    255.42843   -4308.3666    -3870.571   -4308.3666            0    2861.7225    17.931425    23.595308    21.905182    9268.0279    2615.9592    3099.2016    2870.0069    384.33419    231.28685   -372.39352   -3483.7672 
  621000     245.1489   -4295.1693   -3874.9925   -4295.1693            0    524.43261    17.992395    23.668095    22.013042    9374.1597    438.46385   -40.971617    1175.8056   -901.28503    607.34485    94.450168    -3803.296 
  622000    252.38434   -4264.4829   -3831.9048   -4264.4829            0    1315.3957    18.059495    23.424537    22.046736    9326.5479    972.04945    1789.3191    1184.8187    -694.0541    -46.25041    721.83715   -3652.9871 
  623000    232.67099   -4285.9589   -3887.1688   -4285.9589            0    3158.3295      18.0368    23.114354    22.088442    9208.8696    2275.0732    4214.9693     2984.946   -802.88498   -147.59797    212.40294   -3462.9991 
  624000     236.7582   -4249.7997   -3844.0043   -4249.7997            0    2398.8019    18.160351    23.470153    21.813649    9297.5491      1975.01    2372.0287    2849.3671   -272.93847   -327.61211   -68.731681   -3518.7382 
  625000    254.59778   -4258.6083   -3822.2364   -4258.6083            0    3210.2305    17.879975     23.52935    22.073896     9286.581    3284.5019    2537.0855    3809.1041    1092.9983    136.20873    377.29267    -3387.458 
  626000    238.80329   -4271.8633   -3862.5627   -4271.8633            0    1541.1867    18.038103    23.607012    21.951459    9347.4959    2083.1018    1305.0697    1235.3884    526.38321    501.27648    529.03533   -3652.4625 
  627000    241.71656   -4265.5931   -3851.2992   -4265.5931            0    2705.7768    18.054812    23.391311    21.905443    9251.2323    1963.1233    3237.2449     2916.962    976.23591    720.28856    132.05341   -3486.2365 
  628000    240.56677   -4269.7377   -3857.4145   -4269.7377            0    3342.2754    17.980781    23.272857    22.152901    9270.1946    2041.9766    4532.6822    3452.1675   -116.89328    276.13417   -546.15276   -3405.5513 
  629000     244.3847   -4248.3096   -3829.4426   -4248.3096            0    917.24017     18.13189     23.50085    21.986798    9368.9005    2782.4041   -354.73497    324.05134     245.0157   -1396.3333    394.20203   -3704.1148 
  630000    240.39051   -4297.7637   -3885.7426   -4297.7637            0    2558.0747    18.045902    23.142702    22.198558    9270.8045    3416.6322    1031.8075    3225.7843   -879.79436   -160.30306    -693.3261   -3539.8777 
  631000    237.36393   -4295.5622   -3888.7285   -4295.5622            0    1923.8274    17.947107    23.537201     21.98537    9287.1626    1268.5506    3089.8237    1413.1081    427.11318   -542.53028    192.69216   -3628.1581 
  632000    236.38974   -4228.5489    -3823.385   -4228.5489            0    4162.7744    17.858733    23.343303    21.990638    9167.4972    5058.3243    4748.5153    2681.4835    1225.1941   -750.21312   -510.70647   -3266.8281 
  633000    236.98398   -4274.8626   -3868.6802   -4274.8626            0    2256.6541    17.941111    23.450664    22.076174    9288.1298    2637.9834    3012.9883    1118.9906   -817.20769   -851.17192   -646.16564   -3562.9987 
  634000    247.37821   -4310.3647   -3886.3669   -4310.3647            0    3082.1342     18.34947    23.336389    21.555007    9230.0774     1321.039    2917.9394    5007.4241   -244.01374    228.88388   -14.593372   -3471.4771 
  635000    232.94436   -4292.9477   -3893.6891   -4292.9477            0    1543.6541    18.055657      23.2384    22.188747    9310.0559    1574.3146    1871.3032    1185.3445   -148.08094   -34.370523   -455.44249   -3684.0954 
  636000    233.29192    -4261.475   -3861.6206    -4261.475            0    1250.2681    17.856426    23.566272    22.124501    9310.1979    1484.3739    1534.1721    732.25821    577.62183     217.8786   -16.623963   -3691.8596 
  637000    230.06981   -4278.5657   -3884.2339   -4278.5657            0    2027.4559    17.907711    23.625295    21.955969    9289.0204    1928.0211    1879.6266      2274.72    1459.5467     214.4675    -635.4767   -3609.5728 
  638000    246.03965   -4278.8182   -3857.1146   -4278.8182            0    2669.5785    17.909569     23.29763    22.131453    9234.3605    3486.3874    1888.7338    2633.6144    502.44057   -966.20618   -197.96447   -3497.5927 
  639000    233.98201   -4312.0911   -3911.0539   -4312.0911            0     1273.139    18.188178    23.339203    21.904795    9298.5325   -752.76009    1257.5395    3314.6374   -871.91157    68.961411    86.795572   -3738.4041 
  640000    242.82924   -4273.9446   -3857.7436   -4273.9446            0    3561.8151    17.958931     23.32044    21.956678      9195.68    3202.9941    4546.9105    2935.5406    950.26847   -55.769785   -67.863769   -3380.0702 
  641000    233.95365   -4286.5128   -3885.5242   -4286.5128            0    2074.1247    17.957592    23.466745    22.123391    9322.9348    2784.4024      1575.23    1862.7418   -779.01375    -952.1752   -543.91281   -3603.5149 
  642000    243.75391   -4295.9979    -3878.212   -4295.9979            0     1558.375    17.903601    23.719092    21.874836    9289.3057    2304.6155   -543.17074    2913.6803    14.390328   -596.45368    117.15772   -3667.0912 
  643000    230.35727   -4268.8164    -3873.992   -4268.8164            0    3197.4853    17.919284    23.311306     22.09251    9228.5258    3515.6615    3565.0724    2511.7219   -182.61456    789.12865   -414.71821   -3443.6469 
  644000    240.95945   -4284.0341   -3871.0378   -4284.0341            0    2402.9538    18.200088    23.286704    21.958688    9306.5325    931.51878    3852.9774    2424.3652    609.66006    613.65759    452.79728   -3544.8939 
  645000    242.91269   -4250.3509   -3834.0069   -4250.3509            0    1321.2858    18.165427    23.287573    22.031821    9320.0926    2047.4572    2295.0472   -378.64707   -79.008714   -228.30375    374.64975   -3654.4124 
  646000    244.40332   -4293.3894   -3874.4905   -4293.3894            0    2159.1653    17.945736    23.442858    22.024275    9265.5978    2984.3506    1235.2506    2257.8947     145.1337    665.80366    45.131978   -3582.7241 
  647000    228.42109   -4281.4747   -3889.9687   -4281.4747            0    839.01282    17.976482     23.80728    21.870646    9360.0053    506.00293    489.09521    1521.9403   -231.66286   -551.66955    1136.0975   -3775.4384 
  648000    231.03534   -4290.8649   -3894.8782   -4290.8649            0    2884.7469    17.933209     23.33003    22.122902    9255.8306    2258.9472    4134.9862    2260.3073    856.06842    1094.3592   -312.31523   -3505.4755 
  649000     251.0257   -4249.1098   -3818.8604   -4249.1098            0    2316.2706    18.235456    23.274354    21.938815    9311.2379    2312.0369    3653.8416    982.93326    215.98452    567.17626    138.74353   -3504.3227 
  650000    246.97087   -4295.0457   -3871.7461   -4295.0457            0     876.7563    18.241821    23.267517    22.004146    9339.4812    862.82591    1327.0384    440.40454   -619.33908   -334.92239    1063.6897    -3752.326 
  651000     245.5302   -4254.5072   -3833.6768   -4254.5072            0    1457.3088    18.036893    23.476359    21.929132    9285.6844    667.80113     1094.226    2609.8994    188.59994    650.42972    265.46891   -3636.3249 
  652000     238.5453   -4302.0769   -3893.2185   -4302.0769            0    1638.5934    17.999018    23.638104    21.920993     9326.564    1454.0858    1790.9312    1670.7634   -118.23957    41.235418    471.30942   -3670.3397 
  653000    238.73329   -4258.6744   -3849.4937   -4258.6744            0    3516.6283    17.843135    23.318842    22.077617    9186.0824    4025.3208    4796.9764    1727.5877   -69.683814   -544.68822   -550.46529   -3378.3725 
  654000    232.79119   -4283.3541    -3884.358   -4283.3541            0    375.24967    18.133971     23.49821    22.033568    9388.8526    1193.2831    35.898424    -103.4325    334.63569    427.89905   -10.462536   -3832.9762 
  655000      232.247   -4267.5858   -3869.5224   -4267.5858            0    2174.3348    18.243201    23.250899    21.978072    9322.4575    953.51855    2211.3747    3358.1111    354.68639   -36.381061    937.24646   -3573.9031 
  656000    232.72759   -4298.0054   -3899.1182   -4298.0054            0    2757.5891     18.36066    22.881902    22.098783    9284.2914    3022.4747     3924.675    1325.6175    398.98843   -563.23287    241.06927   -3525.7355 
  657000    231.76237   -4272.6445   -3875.4117   -4272.6445            0    1612.0845    17.954339    23.632536    22.025079    9345.3852     1151.366    1290.3269    2394.5607   -578.73224    -571.7509    31.971898   -3655.6961 
  658000     243.9055   -4294.0649   -3876.0192   -4294.0649            0    2783.1095    17.864093     23.63631    21.914064    9253.0219     3049.847    695.24602    4604.2355   -1273.9783   -516.25973    815.90569   -3500.4502 
  659000      243.884   -4282.3496   -3864.3408   -4282.3496            0    2673.8443    18.093605    23.288402    22.040447    9287.2082    2383.1407    2520.6756    3117.7165   -811.90203   -348.01142    77.135438   -3502.1836 
  660000    251.31692   -4265.0305   -3834.2819   -4265.0305            0    2590.2987    18.125281    23.148071    22.134293    9286.7809    2724.6816    2911.7034    2134.5112    1177.0109   -850.28685   -268.08906   -3483.4566 
  661000    228.95366   -4288.4701   -3896.0514   -4288.4701            0    2363.9586    18.008713    23.354081    22.085106    9288.4863    2798.1841    2000.8835    2292.8081   -514.31201    287.62904    349.02863   -3575.8224 
  662000    236.63498    -4282.772   -3877.1878    -4282.772            0    1928.3883    17.914553    23.648858    21.929885    9290.7871    1508.4908    2575.1634    1701.5107    1174.0132    861.73609   -642.78604   -3615.8977 
  663000    242.72375   -4271.2973   -3855.2771   -4271.2973            0    3385.5629    17.849943    23.483656    22.052887    9244.1714    3288.1237    2583.0179    4285.5471   -247.53245   -346.03419    139.97614   -3398.8465 
  664000    249.00241    -4303.693   -3876.9114    -4303.693            0    1757.1658    18.143376     23.24217    22.155314    9342.7062    1480.5719    1089.9043    2701.0213   -423.66778    536.55367   -321.49952   -3637.4909 
  665000    231.00873   -4254.4125   -3858.4714   -4254.4125            0    2773.7494    18.168821     23.31775    21.810522    9240.1588    3164.4852    2492.2069     2664.556    940.76312   -806.44222    79.649466   -3484.6858 
  666000    241.50168   -4266.7059   -3852.7802   -4266.7059            0    2449.6706    17.966462    23.091859    22.353586    9274.0334    1675.6416    4557.2626    1116.1076   -49.922103   -736.98646   -153.65575   -3521.4567 
  667000    235.68148   -4295.7266   -3891.7766   -4295.7266            0    1312.8222    18.005699    23.481882    21.994606    9299.4886    1044.1971    956.67858    1937.5908   -185.83758   -791.37427   -251.97495   -3713.7271 
  668000    257.49503    -4271.456   -3830.1183    -4271.456            0    382.54267    18.008992    23.855206    21.789859    9361.1024    93.053194   -105.37199    1159.9468     2.646508    566.12266    318.49621   -3777.8928 
  669000    243.28061   -4240.8744   -3823.8998   -4240.8744            0    2147.0801    17.938868    23.375327    22.191063    9305.3098    3660.2179    1990.1836    790.83897    689.54169     32.14051   -222.69005    -3532.523 
  670000    246.83781    -4283.133   -3860.0614    -4283.133            0    2820.4916    18.092065    23.389517    21.866158    9252.9851    2236.9148    2829.6849    3394.8752    114.67084   -132.00555   -900.36375   -3479.4494 
  671000    239.69868   -4275.5006   -3864.6653   -4275.5006            0    2209.9827       18.142    23.123695    22.167889    9299.6526     994.7775    4230.8215    1404.3492   -1223.1394    101.32857    589.99793   -3564.9344 
  672000    234.78647   -4271.2793   -3868.8634   -4271.2793            0    2519.1125    17.921149    23.364544    22.242233    9313.2561    4104.4494    3414.4236    38.464644    39.595735    406.58728   -182.46942   -3526.7067 
  673000      237.507   -4287.1575   -3880.0786   -4287.1575            0    2947.4582    17.928944    23.518226    21.965389    9261.8594    2167.1811    3712.5101    2962.6835     824.5231   -117.03194   -51.064105   -3481.9515 
  674000    229.59689   -4274.9784   -3881.4572   -4274.9784            0    1548.0995    17.985779     23.54481    22.076943    9348.9614    1472.4591    717.77718    2454.0622   -1059.8806   -32.722157   -184.41349   -3670.3815 
  675000    242.80631   -4263.3949   -3847.2332   -4263.3949            0     2730.158    18.077882     23.26718    21.907572    9214.7921    2535.5137    2735.4088    2919.5514   -741.57399    519.63813    -284.1964   -3480.3319 
  676000    243.86258   -4293.7037   -3875.7316   -4293.7037            0    1974.5923    18.173572    23.013378    22.204747    9286.8089    3128.9714    2366.4308    428.37471    434.64151    14.576247   -47.141582   -3608.2956 
  677000    247.94275   -4255.4231   -3830.4577   -4255.4231            0     1883.353    18.216908     23.41993    21.850079    9322.0891    541.64055    1181.9347    3926.4837    25.971232   -270.36204     384.8506     -3574.41 
  678000    248.91133   -4271.9235    -3845.298   -4271.9235            0    2381.1319    17.902646    23.597345    22.080366     9327.959    3309.1155    714.85065    3119.4297   -913.32084    176.31266   -289.04997   -3521.3719 
  679000    228.13352   -4248.3263   -3857.3133   -4248.3263            0    2705.4847    17.872385    23.607821    22.050183     9303.591    2789.9735     2739.824    2586.6566   -442.33576   -672.17612   -344.37989   -3490.2241 
  680000    246.30066   -4289.5353   -3867.3844   -4289.5353            0    2512.9834    18.106722    23.413507    21.894631    9282.0504    2591.2738    1480.9765    3466.6999    1401.0259   -440.57232    223.00703   -3527.2039 
  681000    247.78417   -4275.3163   -3850.6227   -4275.3163            0    4068.8256    18.200155    23.134406    21.931289    9234.1645    2995.7714    3749.5108    5461.1945   -935.90996    138.30385    544.27826   -3302.6707 
  682000      257.003   -4270.8855   -3830.3911   -4270.8855            0    2163.8581    18.199208    23.088667    22.189436    9323.9001    2078.4425    3197.7939    1215.3378   -547.35891   -69.025324   -63.591727   -3536.1508 
  683000    235.03992   -4285.7989   -3882.9485   -4285.7989            0    1952.5639    18.059804    23.492262    21.972824    9322.3142    1248.9336    1581.2036    3027.5546   -369.88549   -911.06487   -50.441009    -3617.485 
  684000     249.8159   -4313.1054   -3884.9295   -4313.1054            0    2183.1208    17.771824    23.578409    22.111137     9265.259    4176.4984    700.60624    1672.2577     418.6272   -369.66884   -83.194844   -3589.9368 
  685000    248.86702   -4263.1891   -3836.6396   -4263.1891            0    2934.2013    17.843551    23.722913    21.878754    9261.2983    3978.6481     1850.911    2973.0449   -396.83422   -374.86256      394.015   -3440.3272 
  686000    254.03746   -4273.1549   -3837.7434   -4273.1549            0    1875.5141    18.063429    23.378077    22.032541    9304.0825     601.8676    2217.0367     2807.638    432.27536    529.82752    568.65775    -3583.254 
  687000    229.31042   -4266.2014   -3873.1712   -4266.2014            0    364.41576    18.319741     23.43123    22.010027    9447.8936    562.35411    176.69948    354.19368    190.02405    460.66412    112.20244   -3822.9591 
  688000    240.48047   -4242.1129   -3829.9376   -4242.1129            0    2562.7602    18.120983    23.330883    21.978936    9292.2225    2784.0613    3516.6061    1387.6133   -508.91331   -360.59368    153.04147   -3482.6387 
  689000    238.47353   -4299.2838   -3890.5484   -4299.2838            0    2628.5197    17.866372    23.445377    22.156581    9281.0333    3944.4658    2975.7951     965.2981   -495.76816   -485.34311   -142.87837   -3534.7668 
  690000    245.26066   -4240.0242   -3819.6558   -4240.0242            0    1894.7266    18.137017    23.661253    21.848785     9376.287    1637.4277    1759.5847    2287.1673   -878.19143   -243.16143   -70.946363   -3560.5642 
  691000     254.6673   -4288.5622   -3852.0712   -4288.5622            0    2051.5523    18.009447    23.251527    22.199798     9296.102    1494.4332    2227.1873    2433.0365   -257.50346    974.96813    785.28786   -3573.9338 
  692000    244.39182   -4269.3513   -3850.4721   -4269.3513            0    1794.9883    18.009742     23.32725    22.104039    9286.2989    2663.3127    1922.3937    799.25863   -331.09827   -670.71746    904.97563   -3607.3748 
  693000    232.94445   -4257.1101   -3857.8513   -4257.1101            0    1689.0495     18.13692    23.505306    21.865393    9321.5196    1637.3199    1533.8667     1895.962   -202.80394   -698.59714    362.67233   -3628.2338 
  694000    240.66273   -4252.9461   -3840.4584   -4252.9461            0    1718.8556    17.928567     23.34206    22.282598     9325.037    1915.5764    3195.9453    45.045029    88.555964   -92.998189   -199.87557   -3606.7007 
  695000    237.55356   -4276.7191   -3869.5604   -4276.7191            0     2857.017    17.961869    23.539424    21.884096    9252.8597    2785.3657    2938.4681    2847.2173   -232.62113   -77.201304   -383.64878   -3484.0246 
  696000    239.57098   -4270.7194    -3860.103   -4270.7194            0    1081.8355    18.097424    23.446362    22.115309    9383.9406    1791.9341    1830.6909   -377.11863    1156.9055    45.141524    -671.2249   -3712.0482 
  697000     254.9719   -4286.6462   -3849.6331   -4286.6462            0    1747.7313    18.146078    23.232056    22.089683    9312.3631    561.60011    1765.9092    2915.6846    984.19816   -332.91938    1149.8802   -3612.2715 
  698000    245.81938   -4271.5909   -3850.2649   -4271.5909            0    4107.0633    18.125485    23.299096     21.82063    9215.0139    2280.9816    5429.7893    4610.4188    94.793008    -316.8348    328.45798   -3298.3104 
  699000    239.31593   -4251.8328   -3841.6535   -4251.8328            0   -44.883733    17.958784    23.633507    22.184736    9415.8464    1874.4304    762.10493   -2771.1865    650.74706   -251.25351    726.23015   -3847.8169 
  700000    239.51592   -4277.7523   -3867.2302   -4277.7523            0    2855.2549    17.936218    23.469336    22.066145    9288.7689    4513.4684    1817.3303    2234.9662    360.50436    283.68463   -924.17014   -3480.4369 
  701000    233.41423   -4258.9347   -3858.8707   -4258.9347            0    1948.1188    17.869605    23.578002    22.057911    9293.6504    1819.8121    2043.8587    1980.6855    849.42736   -668.52022    810.33749   -3594.8259 
  702000    259.06209    -4292.334   -3848.3105    -4292.334            0    2368.4629    18.082706    23.218864    22.045122    9255.8625    2389.5447    3327.3965    1388.4474   -464.74075   -541.47142   -606.50349   -3528.5982 
  703000    239.48777   -4290.8485   -3880.3747   -4290.8485            0    3230.0326    18.259948    23.221714    21.820917     9252.664    2464.2224    2908.3604    4317.5151   -526.70899    37.596272   -711.09815   -3444.5121 
  704000    238.05604   -4285.0501   -3877.0302   -4285.0501            0    2727.4713    18.091668     23.46739    21.887822    9292.7861    2821.7033    2956.6981    2404.0124   -354.43516   -1314.8392    791.62376   -3507.3876 
  705000    231.68233   -4291.5493   -3894.4538   -4291.5493            0    1428.9858    17.858996    23.677049    22.139565     9361.678    1142.2794    1901.1518    1243.5261   -290.00659    64.659175   -600.36164   -3699.3537 
  706000    232.76844   -4279.5201    -3880.563   -4279.5201            0     2389.824    18.148854    23.612223    21.740487    9316.5548    1373.8579    2149.2447    3646.3694   -1068.6024   -115.30762    -38.73214   -3555.8519 
  707000    230.16021   -4260.0617    -3865.575   -4260.0617            0    3180.3941    18.109453    23.260029    22.083245    9302.0461    3478.2167    3529.2691    2533.6964    566.24438    691.99656   -793.21166   -3434.1202 
  708000    251.76195   -4280.2971   -3848.7857   -4280.2971            0    1937.2128    18.017434    23.291333     22.10519    9276.4443    2436.2003    2366.3868    1009.0514   -125.50742    76.857657   -421.62657   -3586.7052 
  709000    228.54212   -4257.3626   -3865.6492   -4257.3626            0    1092.4245    17.996618    23.768984    21.856429    9349.3354    153.85047    1406.0907    1717.3324    -295.4248    103.26681   -595.06095   -3716.6967 
  710000    256.46912   -4273.1097   -3833.5304   -4273.1097            0    1693.5978    17.994975    23.402712    22.098496    9306.3663    1682.6714    1306.6524    2091.4697   -435.81447    -418.8539   -339.34668   -3603.6688 
  711000    236.66584   -4277.9412   -3872.3041   -4277.9412            0    2723.3513    18.018719     23.42361    21.904979    9245.2911    3137.0913    1636.7679    3396.1946   -16.132041   -82.795863   -122.68544   -3505.1062 
  712000    251.98131    -4288.474   -3856.5867    -4288.474            0    2358.2523    18.160434     23.36828    21.890025    9289.6475     1674.744     1365.293    4034.7199    28.111346   -1184.6406   -487.07758   -3537.0907 
  713000    251.64849   -4276.7418   -3845.4249   -4276.7418            0    1450.8974    18.087671    23.431193    22.133853     9380.675    855.50061    1652.6943    1844.4971   -1351.6079   -364.96574    136.69964   -3646.9312 
  714000    243.82493   -4283.9868   -3866.0792   -4283.9868            0    2119.9783    18.035128    23.445352    21.971589    9290.4652    1815.7769    1796.3184    2747.8395    42.521232    16.157735    677.50564   -3578.8393 
  715000    228.57843   -4308.3104   -3916.5348   -4308.3104            0    1186.7203    17.969402    23.839019    21.926811    9392.8519    2723.7518    203.14244    633.26663    352.78659    312.36232 -0.011250677   -3753.9718 
  716000    239.62046   -4276.0885   -3865.3872   -4276.0885            0    2823.3243    17.819512    23.543508    22.086238    9265.9239    3879.7205    2591.9009    1998.3514    60.482409    32.371509    183.88108   -3483.8601 
  717000    233.21654   -4291.9092    -3892.184   -4291.9092            0    1565.7092    18.221945    23.560688    21.730406    9329.3317    3044.7338     925.8451    726.54866    -826.0936    -51.75227   -580.34274   -3679.1556 
  718000    242.97009   -4272.1119   -3855.6695   -4272.1119            0    2968.3203    18.074058    23.218362    22.052345    9254.2668    1613.2077    3291.9271    3999.8261   -581.45939   -160.45804    656.77889   -3455.0531 
  719000    242.43795   -4260.5415   -3845.0111   -4260.5415            0    1806.8367    18.031638    23.346845    22.130134     9316.385    1006.6144    3644.7893     769.1065    509.50156   -235.80619    441.04862   -3599.5164 
  720000    235.03867   -4283.0576   -3880.2093   -4283.0576            0    5108.7948    17.799593    23.674333    21.631929    9115.5542    5786.1765    4259.9168    5280.2911   -1358.9268    326.60534    1157.8754    -3201.041 
  721000    246.24295   -4280.9023   -3858.8503   -4280.9023            0    2640.8506     17.81464    23.520344    22.114444    9266.0948    3597.6752    1839.6411    2485.2355    1022.2943   -49.655228    560.70474    -3501.975 
  722000    233.46244   -4279.1608   -3879.0142   -4279.1608            0    2623.4528    18.048257     23.49917    21.850784    9267.3341    3373.1543    1972.7462    2524.4578    69.425549   -874.73375    67.088999   -3524.4425 
  723000    242.00305   -4289.1166   -3874.3317   -4289.1166            0     2525.444    18.192702    23.219315    21.965648    9278.7747    2084.3883    3267.0368     2224.907   -236.80578   -7.2429101    337.99825    -3532.585 
  724000     246.0638   -4279.5554   -3857.8105   -4279.5554            0    1743.9256     18.20323    23.100614    22.104492    9295.0667    750.21118    977.91785    3503.6477    319.02428   0.88373346    209.32608   -3621.4057 
  725000    242.41759   -4285.9884   -3870.4929   -4285.9884            0    4063.7015    18.075832    23.304164    21.820024     9191.514    4306.0437    5416.4293    2468.6315   -319.71971   -196.42406   -814.85737   -3325.7586 
  726000    234.64586    -4262.007    -3859.832    -4262.007            0    1636.6626    18.006015    23.474884    22.101982     9342.267    2675.3725    442.84896    1791.7663    768.28594    77.895038    124.97976    -3636.841 
  727000    252.72524    -4240.146   -3806.9836    -4240.146            0    1528.3763    18.033901    23.456017    22.105728       9350.8    2870.0582    1381.5411    333.52966   -188.67357   -449.08393   -577.03219   -3598.5561 
  728000     247.8973   -4259.1289   -3834.2414   -4259.1289            0    2118.3572    18.016373    23.505341    22.008001    9319.9701     2049.508    2227.0819    2078.4818    641.55014   -34.021015   -979.35363   -3546.3096 
  729000    248.33726   -4271.2064   -3845.5648   -4271.2064            0     1273.624      17.9573    23.349425     22.26975    9337.5418    1519.9836    2473.5051   -172.61662    260.06253   -453.69491   -579.38197   -3672.1246 
  730000    227.84242   -4206.0819   -3815.5678   -4206.0819            0    3163.5113    18.273923    23.490065    21.556589    9253.2874    4466.4335    642.54687    4381.5536    1470.0481   -54.170992    258.48099   -3388.6529 
  731000    255.32192   -4284.9983   -3847.3853   -4284.9983            0    2543.0613    18.029866    23.453335    22.057338    9327.1769    3717.3625     2603.881    1307.9405    55.466995   -361.61973   -534.75816   -3501.4595 
  732000    235.76874   -4261.8535    -3857.754   -4261.8535            0    507.15267    17.936888    23.440518    22.295435    9374.1148   -320.67231    1145.9888    696.14157   -764.18146    3.5427497    672.68203   -3788.4202 
  733000    244.25063   -4289.8492    -3871.212   -4289.8492            0    2714.5319    18.054999    23.450062    21.817822     9237.466    2509.3534    2209.2342    3425.0083   -877.67291    -101.6884    275.44712   -3505.5131 
  734000    255.25071   -4279.3818   -3841.8908   -4279.3818            0    3821.9723    17.917013     23.11969    22.232102    9209.3322    3681.6985    3915.9755    3868.2428    1105.3907    -28.39091   -471.18441   -3328.5669 
  735000    237.01059   -4288.5666   -3882.3385   -4288.5666            0    2751.7719    18.090554    23.505536    21.780023    9261.4796     1709.913    2986.0289    3559.3739   -821.31083    246.42456    217.54855    -3510.659 
  736000    233.05083   -4271.6221    -3872.181   -4271.6221            0    1486.0457    18.065849    23.413476    22.088978    9343.2914    1325.9072    2223.6767    908.55322   -149.59492   -449.76909    685.69387    -3669.689 
  737000    248.95489   -4289.4756   -3862.7754   -4289.4756            0     2481.847    18.030918    23.372971    22.033335    9285.6431    2331.8137    1708.0742    3405.6532   -699.72631    586.53424    112.68307   -3526.6798 
  738000    248.16783   -4272.4821   -3847.1309   -4272.4821            0    1520.0945    18.129693    23.596095    21.773496    9314.4826    434.06973    1730.1031    2396.1106    35.420395   -576.51336     112.2752    -3640.638 
  739000     231.6816   -4257.2679   -3860.1736   -4257.2679            0    1115.8929    17.965452    23.481842     22.20913    9369.1857    399.98301    811.95344    2135.7422   -33.581658   -274.73921    1452.9516    -3707.698 
  740000     233.8506   -4260.1897   -3859.3778   -4260.1897            0    2919.3193    17.964614    23.741386     21.77275    9286.1829    2876.0814    2130.8325    3751.0439   -1115.4647   -11.793594    504.00217    -3464.016 
  741000    235.12827   -4290.6948    -3887.693   -4290.6948            0    1375.6931    18.088634    23.569404    22.037512     9395.436    2282.0065    1032.8679    812.20486    46.876883    711.83061    643.16685   -3699.1917 
  742000     245.2818   -4277.5094   -3857.1048   -4277.5094            0    2735.8198    18.090926    23.084529    22.256852    9294.9181    1103.0979    4584.6655     2519.696     1201.237    125.72177   -98.072971   -3486.2457 
  743000    244.99724   -4254.0744   -3834.1576   -4254.0744            0    2340.7001    18.245967    23.368979    21.854095    9318.3596    86.666507    3241.8492    3693.5845   -176.52608    539.43296    6.9242943   -3516.0594 
  744000    239.95157   -4263.0053   -3851.7365   -4263.0053            0    1862.1988    17.919627    23.391782    22.242962    9323.6272    2389.1426    2083.2158     1114.238    897.07965    111.83351    806.40228   -3598.5231 
  745000     251.0199   -4261.8704   -3831.6309   -4261.8704            0    1350.7967    17.955362    23.595349    21.937849    9294.2556    1116.6739   -236.60082     3172.317    83.841001    309.98912    390.38347   -3648.5342 
  746000    248.69926   -4286.6792   -3860.4172   -4286.6792            0    737.08912    18.216245    23.430765    21.881713     9339.565    61.110849   -119.54988    2269.7064   -1485.4476    -206.8216   -150.62781   -3760.0197 
  747000    244.97858   -4287.1907   -3867.3057   -4287.1907            0    3014.4787     18.07103    23.043638     22.16604    9230.4326    4752.8702    4051.4665    239.09953    486.74047   -93.382079    271.22018   -3461.5075 
  748000      245.706   -4252.4466   -3831.3149   -4252.4466            0    1017.7976    17.948678    23.585882    22.032151    9326.9898    1401.9024    1615.3241    36.166461    180.74336    -524.7334   -569.11483   -3692.8694 
  749000     240.9699    -4293.948   -3880.9339    -4293.948            0    2711.5846    17.908882    23.449898    22.016319    9246.0056    1960.9993    2806.6219    3367.1326    36.638206    177.93044    422.75419   -3515.2943 
  750000    245.83697   -4239.5356   -3818.1795   -4239.5356            0    1537.7316    17.847388    23.729636    22.112927    9365.0907    1182.3767    215.07448    3215.7435   -519.93947   -298.27036    1233.9699   -3608.1557 
Loop time of 385.222 on 64 procs for 250000 steps with 864 atoms

Performance: 112.143 ns/day, 0.214 hours/ns, 648.977 timesteps/s
194.3% CPU use with 32 MPI tasks x 2 OpenMP threads

MPI task timing breakdown:
Section |  min time  |  avg time  |  max time  |%varavg| %total
---------------------------------------------------------------
Pair    | 17.47      | 25.043     | 33.271     | 103.6 |  6.50
Bond    | 0.82586    | 1.0116     | 1.3474     |  10.4 |  0.26
Kspace  | 193.74     | 204.03     | 212.85     |  40.0 | 52.96
Neigh   | 1.486      | 1.6093     | 1.7082     |   5.7 |  0.42
Comm    | 58.704     | 62.332     | 67.29      |  27.5 | 16.18
Output  | 0.59979    | 0.60019    | 0.60165    |   0.0 |  0.16
Modify  | 69.987     | 72.34      | 76.314     |  17.0 | 18.78
Other   |            | 18.26      |            |       |  4.74

Nlocal:        27.0000 ave          39 max          17 min
Histogram: 2 5 6 3 3 3 2 2 4 2
Nghost:        2095.59 ave        2191 max        1999 min
Histogram: 9 7 0 0 0 0 0 0 6 10
Neighs:        6498.16 ave        9316 max        4034 min
Histogram: 2 5 4 4 4 2 4 1 3 3

Total # of neighbors = 207941
Ave neighs/atom = 240.67245
Ave special neighs/atom = 2.0000000
Neighbor list builds = 5578
Dangerous builds = 0

unfix		3
unfix		2
unfix		1

write_data	data.final.${pid} nocoeff
write_data	data.final.1 nocoeff
System init for write_data ...
PPPM initialization ...
  extracting TIP4P info from pair style
  using 12-bit tables for long-range coulomb (../kspace.cpp:340)
  G vector (1/distance) = 0.37124614
  grid = 24 27 25
  stencil order = 5
  estimated absolute RMS force accuracy = 0.0032216931
  estimated relative force accuracy = 9.702033e-06
  using double precision FFTW3
  3d grid and FFT values/proc = 4410 672
Last active /omp style is kspace_style pppm/tip4p/omp

write_restart   restart.lmp.${pid}
write_restart   restart.lmp.1
System init for write_restart ...
PPPM initialization ...
  extracting TIP4P info from pair style
  using 12-bit tables for long-range coulomb (../kspace.cpp:340)
  G vector (1/distance) = 0.37124614
  grid = 24 27 25
  stencil order = 5
  estimated absolute RMS force accuracy = 0.0032216931
  estimated relative force accuracy = 9.702033e-06
  using double precision FFTW3
  3d grid and FFT values/proc = 4410 672
Last active /omp style is kspace_style pppm/tip4p/omp
Total wall time: 0:06:25
