#include		in.partitions
include		in.temp
variable        temperature equal 263.91
variable	tempDamp equal 100.0
include		in.pressure
variable        pressure equal 4750.0
variable        pressureDamp equal 1000.0 # This is 1 ps
include		in.seed
variable        seed equal 745823

units		real
atom_style	full

read_restart	restart.lmp.${pid}
read_restart	restart.lmp.0
Reading restart file ...
  restart file = 30 Jul 2021, LAMMPS = 30 Jul 2021
  restoring atom style full from restart
  orthogonal box = (-0.084825287 0.070522931 -0.086975565) to (20.084826 19.929478 20.786974)
  4 by 2 by 4 MPI processor grid
  restoring pair style lj/cut/tip4p/long/omp from restart
  restoring bond style harmonic/omp from restart
  restoring angle style harmonic/omp from restart
  972 atoms
  648 bonds
  324 angles
Finding 1-2 1-3 1-4 neighbors ...
  special bond factors lj:    0        0        0       
  special bond factors coul:  0        0        0       
     2 = max # of 1-2 neighbors
     1 = max # of 1-3 neighbors
     1 = max # of 1-4 neighbors
     2 = max # of special neighbors
  special bonds CPU = 0.002 seconds
  read_restart CPU = 0.007 seconds
include 	in.setup
variable	out_freq equal 1000
variable	out_freq2 equal 10000
variable	out_freq3 equal 1000

timestep	2.0

neigh_modify    delay 7 every 1

include		in.tip4p
# This is TIP4P/Ice

# create groups ###
group ox type 2
324 atoms in group ox
group hy type 1
648 atoms in group hy

# set charges - beside manually ###
set group ox charge -1.1794
Setting atom values ...
  324 settings made for charge
set group hy charge 0.5897
Setting atom values ...
  648 settings made for charge

# ### TIP3P Potential Parameters ###
pair_style lj/cut/tip4p/long/omp 2 1 1 1 0.1577 8.5
pair_coeff 1 1*2 0.000 0.000
pair_coeff 2 2 0.21084 3.1668
bond_style  harmonic
bond_coeff  1 450 0.9572
angle_style harmonic
angle_coeff 1 55 104.52
kspace_style pppm/tip4p/omp 1.0e-5
pair_modify tail yes

thermo          ${out_freq}
thermo          1000
thermo_style    custom step temp pe etotal epair emol press lx ly lz vol pxx pyy pzz pxy pxz pyz enthalpy

restart 	${out_freq3} restart.lmp.${pid} restart2.lmp.${pid}
restart 	1000 restart.lmp.${pid} restart2.lmp.${pid}
restart 	1000 restart.lmp.0 restart2.lmp.${pid}
restart 	1000 restart.lmp.0 restart2.lmp.0


include         in.dump
dump            myDump all atom ${out_freq2} dump.water.${pid}
dump            myDump all atom 10000 dump.water.${pid}
dump            myDump all atom 10000 dump.water.0
dump            myDump2 all dcd ${out_freq2} dump.dcd
dump            myDump2 all dcd 10000 dump.dcd
dump_modify     myDump append yes
dump_modify     myDump2 append yes


variable natoms 	equal  "count(all)"                        # NUMBER ATOMS
variable H      	equal  "enthalpy/v_natoms"                 # ENTHALPY-per-atom
variable Vol      	equal  "vol/v_natoms"                 # volume-per-atom
fix AVG all 		ave/time ${out_freq} 1 ${out_freq} v_Vol v_H file vol_enthalpy.dat
fix AVG all 		ave/time 1000 1 ${out_freq} v_Vol v_H file vol_enthalpy.dat
fix AVG all 		ave/time 1000 1 1000 v_Vol v_H file vol_enthalpy.dat


timer           timeout 02:55:00 every 1000
New timer settings: style=normal  mode=nosync  timeout=02:55:00

fix 		1 all shake 1e-6 200 0 b 1 a 1
       0 = # of size 2 clusters
       0 = # of size 3 clusters
       0 = # of size 4 clusters
     324 = # of frozen angles
  find clusters CPU = 0.001 seconds
fix             2 all nph aniso ${pressure} ${pressure} ${pressureDamp}
fix             2 all nph aniso 4750 ${pressure} ${pressureDamp}
fix             2 all nph aniso 4750 4750 ${pressureDamp}
fix             2 all nph aniso 4750 4750 1000
fix             3 all temp/csvr ${temperature} ${temperature} ${tempDamp} ${seed}
fix             3 all temp/csvr 263.91 ${temperature} ${tempDamp} ${seed}
fix             3 all temp/csvr 263.91 263.91 ${tempDamp} ${seed}
fix             3 all temp/csvr 263.91 263.91 100 ${seed}
fix             3 all temp/csvr 263.91 263.91 100 745823


run             250000
PPPM initialization ...
  extracting TIP4P info from pair style
  using 12-bit tables for long-range coulomb (../kspace.cpp:340)
  G vector (1/distance) = 0.37225095
  grid = 24 24 25
  stencil order = 5
  estimated absolute RMS force accuracy = 0.0034272983
  estimated relative force accuracy = 1.0321207e-05
  using double precision FFTW3
  3d grid and FFT values/proc = 3458 576
Last active /omp style is kspace_style pppm/tip4p/omp
Neighbor list info ...
  update every 1 steps, delay 7 steps, check yes
  max neighbors/atom: 2000, page size: 100000
  master list distance cutoff = 10.8154
  ghost atom cutoff = 10.8154
  binsize = 5.4077, bins = 4 4 4
  1 neighbor lists, perpetual/occasional/extra = 1 0 0
  (1) pair lj/cut/tip4p/long/omp, perpetual
      attributes: half, newton on, omp
      pair build: half/bin/newton/omp
      stencil: half/bin/3d
      bin: standard
Per MPI rank memory allocation (min/avg/max) = 10.19 | 10.19 | 10.21 Mbytes
Step Temp PotEng TotEng E_pair E_mol Press Lx Ly Lz Volume Pxx Pyy Pzz Pxy Pxz Pyz Enthalpy 
11250000    275.12529   -4674.4008   -4143.7985   -4674.4008            0    5225.6632    20.169652    19.858955    20.873949    8361.0229      3622.25    6754.6079    5300.1318    305.27624    1215.2294    418.80685   -3506.5971 
11251000    256.70485   -4677.7218   -4182.6449   -4677.7218            0    7811.2187    20.100527    19.929722     20.46884    8199.7745    6480.5249    7287.6837    9665.4477   -992.04948   -122.19999   -212.03071    -3248.538 
11252000    266.18266   -4698.4441   -4185.0885   -4698.4441            0     3823.892    19.997249    20.267836    20.742133    8406.8067    4391.2677    3600.5658    3479.8425   -161.71291    571.21386   -588.67068   -3716.2615 
11253000    264.82364   -4698.9396   -4188.2049   -4698.9396            0    4059.6636    20.168597    19.948528    20.825637    8378.8583    4923.5285    2820.1538    4435.3086   -9.9343492   -100.40745   -683.00118    -3692.126 
11254000    245.31101   -4701.9339    -4228.831   -4701.9339            0    2690.6602    20.146782    20.106656    20.829972    8437.8968     2401.692    2398.6143    3271.6742    -345.7636   -272.55471   -444.36862   -3897.7235 
11255000    260.71777   -4684.0578   -4181.2416   -4684.0578            0     3747.445    20.013985    20.013747     20.76109    8315.9551    4307.7241    4259.0771    2675.5338   -490.32943   -21.352073    258.17074   -3726.7527 
11256000    271.12811   -4685.1849   -4162.2916   -4685.1849            0    4850.2724    20.060571    20.117553    20.509572    8277.0395    3080.5495    5246.5444    6223.7231    417.78599    717.36095    -1473.457   -3576.8048 
11257000    267.16425    -4701.229   -4185.9803    -4701.229            0    5007.2471    20.078793    20.207474    20.543735    8335.4497     4773.718    4025.1064    6222.9169    193.82422     87.81601    864.31551   -3577.2794 
11258000     258.9305   -4680.4741   -4181.1049   -4680.4741            0    5257.7957    19.931082    19.851973     21.24739    8406.9823    6110.1524    6259.7687     3403.466    28.482059    543.99141     1271.638   -3536.4612 
11259000    267.96674   -4672.8614    -4156.065   -4672.8614            0    2571.9864    20.009542    20.120635    20.910766    8418.7724    3771.1431    2820.1811    1124.6349    305.31335    701.90662   -439.54905   -3840.2786 
11260000     269.2751   -4683.3593   -4164.0396   -4683.3593            0    4694.4237    20.320553    20.157121    20.409706    8359.8942    1824.8775    4922.3774    7336.0163    541.26825    639.00597    336.96566   -3591.6932 
11261000    261.84007   -4693.0303   -4188.0497   -4693.0303            0    4731.0579     20.18329    19.852295    20.739893    8310.1566    3735.0476    5241.9505    5216.1756   -31.581421    100.09201    -89.68634   -3614.6686 
11262000    267.44353   -4652.1979   -4136.4106   -4652.1979            0    3733.1852    20.100901     19.96762    20.854071    8370.1394    5566.4171    2894.6049    2738.5337    65.543176   -81.335824   -172.86374    -3680.701 
11263000    267.69106   -4668.9209   -4152.6562   -4668.9209            0    3917.6691    20.055783     19.97494    20.980541    8405.0787    4900.0629    3977.1153    2875.8291    120.83569   -990.21767   -598.09217   -3672.4305 
11264000    280.41276   -4734.5886   -4193.7891   -4734.5886            0    5906.7788    20.115393    20.010594    20.608996    8295.5532    3829.0998    6961.2437    6929.9929    867.68676   -469.73886    -411.3881   -3479.1743 
11265000    263.45606   -4696.3368   -4188.2396   -4696.3368            0    5466.3381    20.069103    19.954248    20.857497    8352.6735    5767.7958    5995.6443     4635.574    -901.6973   -475.96519    835.35919   -3522.3567 
11266000    263.92359   -4684.3036   -4175.3048   -4684.3036            0    5586.3479    19.929982     19.95406    20.799194    8271.5075    5683.5368    6688.6484    4386.8584   -632.09568   -2040.3868    1011.5354   -3501.4155 
11267000    263.04499   -4691.5577   -4184.2533   -4691.5577            0    4862.4539    20.078311    20.084142    20.635076    8321.2111     5211.404    4286.2934    5089.6642     -300.473   -1108.4683   -155.25434   -3594.1638 
11268000    248.84871   -4685.1324   -4205.2067   -4685.1324            0    3355.7876    20.260861    20.052923    20.635567    8384.0135    3094.9267     3704.798    3267.6382   -31.297083    195.59139   -1879.4209    -3794.887 
11269000     250.1134   -4669.1621   -4186.7974   -4669.1621            0    4639.7596    20.129838    20.169219    20.800547    8445.0866    4140.6259    5648.1147    4130.5382    730.59511   -1336.7505   -723.65853    -3615.351 
11270000    257.77005   -4691.1008   -4193.9696   -4691.1008            0    5244.6998    19.979015    19.929916    20.936601    8336.5381    4589.6249    5744.1269    5400.3477   -10.954062    1958.3023    583.02789   -3556.3198 
11271000    257.42797   -4706.5242   -4210.0527   -4706.5242            0    5317.9897    19.853579    20.099705    20.755364    8282.4506    5678.6727    4991.5876    5283.7087   -48.662087    1068.7611   -621.98521   -3567.6872 
11272000    263.14415   -4679.4987   -4172.0031   -4679.4987            0    7053.0738    20.187394     19.74837    20.667625     8239.523    5294.6472    8900.2556    6964.3188   -61.602834    235.34405   -766.48932   -3324.4705 
11273000    257.44315   -4712.7395   -4216.2387   -4712.7395            0    4984.0856    20.120109    19.961403    20.749808     8333.654    3681.7213    6131.3828    5139.1527    901.83412   -79.385972    642.55033   -3610.4839 
11274000    274.53305   -4655.8895   -4126.4295   -4655.8895            0     5322.493    20.010988    20.085964    20.721749    8328.8996    4426.2682    5645.0773    5896.1335    235.63414   -1355.3636    355.57158   -3479.9145 
11275000     270.2524   -4673.4546   -4152.2501   -4673.4546            0    6306.1637    20.122687    19.767974    20.735066     8248.093     5628.811    6745.9191    6543.7611    396.48843    773.46104    843.47549   -3393.6818 
11276000    279.08204   -4690.6525   -4152.4193   -4690.6525            0    4849.9171    19.980554    19.992383    20.966143    8375.1123    5069.5397    5791.1529    3689.0586   -523.14495    1653.7158   -669.94563   -3560.0387 
11277000    275.16014   -4669.5799   -4138.9105   -4669.5799            0    6592.9691    20.108827    19.847182    20.771293    8289.8968    6238.6768    8800.0841    4740.1465   -6.8030455    71.463981    97.796027   -3341.8229 
11278000    250.74917   -4680.0723   -4196.4815   -4680.0723            0    4571.8668    19.890958    20.054655    20.799205     8296.934    5903.6492    3152.0248    4659.9265    769.53124   -1811.5781    25.617088   -3643.2752 
11279000    268.02304   -4696.3264   -4179.4214   -4696.3264            0    4634.0706    20.193175    20.032077    20.702781    8374.5076    2936.0763    5980.1521    4985.9835    36.116734   -499.46752    287.76126   -3613.4457 
11280000    268.14857   -4673.8348   -4156.6877   -4673.8348            0    4617.1465    20.080916    20.133644    20.562594    8313.4977    4350.4817    4428.0883    5072.8696   -1227.1846    1051.4196    309.12069   -3596.8871 
11281000    270.12259   -4681.7297   -4160.7755   -4681.7297            0    3834.5001    20.136341    20.003061    20.812211    8382.9185    1942.9785    5750.3018    3810.2198    263.54401    634.05486   -1255.3405   -3691.9839 
11282000    268.11429   -4684.2316   -4167.1506   -4684.2316            0    5023.7393    20.044435     20.05002    20.695226    8317.2316    4552.3203    5793.6648    4725.2329    346.15989   -50.766107   -510.38979   -3557.7796 
11283000    263.54785   -4673.1785   -4164.9043   -4673.1785            0    5005.9521    20.171641    20.060215    20.446476    8273.6145     4304.431    5136.4101    5577.0152    589.55928    1559.9567    -516.5387   -3560.8752 
11284000    260.62019   -4714.2029   -4211.5749   -4714.2029            0    4045.9689    20.064413    20.042459    20.745641    8342.6556    4679.2967    1027.8217    6430.7881    733.03878   -2147.2412    921.69688   -3719.3056 
11285000    266.62679   -4745.1837   -4230.9715   -4745.1837            0    4965.0336    20.049906    19.864714    20.879955    8316.1862    3455.7475    6190.1764     5249.177   -28.675229   -481.33373    497.12436   -3628.7971 
11286000    260.59156   -4719.3135   -4216.7408   -4719.3135            0    4037.4308    20.033857    19.944073    20.937335    8365.6521    5831.7342    3502.9173     2777.641   -242.41925    1141.0221    70.528681   -3724.1562 
11287000    267.28419   -4706.3064   -4190.8264   -4706.3064            0    3984.6072    20.161769    20.085752    20.827245     8434.291    3018.2086    5567.3192    3368.2939   -545.43824    621.72302    410.47285   -3700.6978 
11288000    272.02499   -4686.6399   -4162.0168   -4686.6399            0    5204.6842    20.091023    19.950622    20.725607    8307.4121    6360.3914    3645.6056    5608.0556   -390.81883     -510.951   -62.329696   -3531.4429 
11289000    255.76224   -4696.1415   -4202.8825   -4696.1415            0    4431.6846    20.149155     19.92591    20.710796    8315.1828    3714.8454    6014.0941    3566.1143   -32.429703    1039.7299    80.821287   -3665.4592 
11290000    267.24707   -4699.0523   -4183.6438   -4699.0523            0    6788.6057    20.112941    19.971497    20.606641    8277.3898    5643.1508    8394.2328    6328.4336   -311.27267    112.14993   -932.61843   -3364.1421 
11291000    265.61712    -4686.941   -4174.6761    -4686.941            0    5022.8277    19.895444    19.940464    20.973177    8320.5711    5025.4897    5452.3921    4590.6013   -61.436438   -760.70664   -27.351866    -3565.171 
11292000    261.38504   -4695.8131   -4191.7101   -4695.8131            0    3731.0418    20.150274    19.854957    20.851697    8342.4059    3589.0763    4365.7088    3238.3402   -882.15898    177.91815    401.37448   -3737.7713 
11293000    269.23208   -4681.2337    -4161.997   -4681.2337            0    4506.6643    20.171262    20.171272    20.429594    8312.3934     4413.347    2877.0085    6229.6373    218.84049   -236.08036     627.6855   -3615.6643 
11294000    245.44231    -4688.006   -4214.6499    -4688.006            0    5978.0334    20.011579    20.172585    20.640297    8332.1841    5452.0726    5801.8786    6680.1491    427.71931    1361.2377   -966.75734    -3488.221 
11295000    254.30703   -4714.0042   -4223.5517   -4714.0042            0    5620.3774    19.994562    19.875487    20.917932    8312.8209    3651.5778    7700.2922    5509.2621     70.42257    781.67016    165.55328    -3542.171 
11296000    255.15235    -4695.689   -4203.6062    -4695.689            0    3565.1035    19.980914    19.946395    21.029683    8381.3212    3738.8498    3964.1543    2992.3065   -154.76025    815.94869    119.91796    -3767.833 
11297000    264.86283   -4700.6492    -4189.839   -4700.6492            0    4479.7197    20.061542    20.099886    20.803939    8388.8702    6645.2067    3249.7831    3544.1694    413.06134    554.58128     719.3035   -3641.7763 
11298000    260.44559   -4722.4851   -4220.1939   -4722.4851            0    4461.9948    20.252372    19.988821    20.532488    8311.9832    4720.2033    3378.3664    5287.4147   -153.60208   -947.35369   -133.01377   -3679.3031 
11299000    265.17208   -4686.9972   -4175.5905   -4686.9972            0    4633.5061    20.093699    20.011377    20.664597    8309.2877    4385.7454     4315.269    5199.5038    -226.4651    1498.4304    30.483887   -3614.0909 
11300000    271.03324   -4731.3628   -4208.6524   -4731.3628            0    6726.6394    20.100212    19.920965    20.592728    8245.6501    6235.9217     8422.994    5521.0024    796.18543   -75.074616   -956.66699   -3399.7448 
11301000    276.62247   -4647.9243   -4114.4346   -4647.9243            0    5288.9196     19.93559    20.219162    20.706214    8346.2799    3812.5032    6050.3763    6003.8793   -72.218364    863.99452    167.82211   -3470.6571 
11302000    254.94593   -4700.9869   -4209.3023   -4700.9869            0     5170.739    20.132672    19.830775    20.771437    8292.9233    5354.1652    5199.9758    4958.0762   -355.79939   -81.721233   -529.66092   -3583.9335 
11303000     254.3651   -4714.8736   -4224.3091   -4714.8736            0    4705.2349    19.886472     20.15326    20.690559    8292.3053    8605.1707    1212.1206    4298.4136   -574.24562    29.593054    1341.8362   -3655.2826 
11304000     269.2469   -4674.2806   -4155.0153   -4674.2806            0     4637.552      20.1165     19.98653    20.721669     8331.334    5510.4562    3828.2603    4573.9394    471.98503    91.021635   -1277.2235   -3591.5344 
11305000    265.74649    -4688.743   -4176.2286    -4688.743            0    6004.6967    19.937614    20.052382    20.784787    8309.6885    5299.4012    6463.3215    6251.3675   -157.82657    108.35842   -1168.7739   -3448.5297 
11306000    284.26982   -4688.0971   -4139.8588   -4688.0971            0    4620.7677     19.86244    20.113698    20.811565    8314.3687    6374.6602    3716.0615    3771.5812   -164.45815   -641.27529    844.49569   -3579.5605 
11307000    250.45877    -4696.472   -4213.4412    -4696.472            0    5821.3108    20.047841    20.107846    20.436182     8238.211    4930.8459    5733.5451    6799.5414   -59.113161    1385.7108   -79.375479   -3514.0348 
11308000    268.51217    -4699.634   -4181.7857    -4699.634            0    4096.0146    19.962642    20.256923    20.711673    8375.4215    3306.9728     4746.969    4234.1019    396.76139   -624.00246    793.53435   -3681.4701 
11309000    259.86527   -4701.3584   -4200.1864   -4701.3584            0    6644.6557    20.166684    19.777921    20.886488    8330.6818    6591.2279    8908.9136    4433.8255    -578.3186   -569.48879   -1286.6383   -3392.8976 
11310000      272.778   -4708.1955   -4182.1202   -4708.1955            0    5071.0771    19.874085    20.107215     20.66916    8259.6547    5299.8556    4838.4372    5074.9385   -236.68137   -257.15721   -367.17569   -3571.2654 
11311000    267.25973   -4686.1892   -4170.7563   -4686.1892            0    6634.9468    19.807947    20.161423    20.658931    8250.2766    6254.3875     5613.022    8037.4311    216.32771    1056.6821    607.87299   -3372.4274 
11312000    278.35133   -4676.8273   -4140.0034   -4676.8273            0    5417.6349    20.171043    20.115047     20.59965    8358.1323    5855.8265    4604.0525    5793.0257     -559.206    217.17374   -96.976147   -3479.6219 
11313000    288.04889   -4711.2325    -4155.706   -4711.2325            0    4865.4996    20.127627    20.155579    20.566101    8343.3378    4737.9087    4026.7047    5831.8854   -903.04214   -898.97231   -399.34167   -3563.6768 
11314000    267.79204   -4692.6011   -4176.1416   -4692.6011            0    4838.2411    20.064535    19.867213    20.839722    8307.2631    4564.3099    5373.0709    4577.3425    119.15775   -1050.2451    1245.4236   -3589.9746 
11315000    268.58483   -4716.0132   -4198.0248   -4716.0132            0    5838.8017    20.119054    19.884494     20.84014    8337.2485    4920.1057    7411.2983     5185.001    -9.329631    99.351055   -584.25948   -3488.0836 
11316000    273.17944   -4662.5431   -4135.6936   -4662.5431            0     3979.429    19.924584    20.263907    20.725434    8367.8926    4896.5374    2558.0929    4483.6566    91.915647    461.00155   -525.32259   -3650.0555 
11317000    262.09546   -4703.1356   -4197.6624   -4703.1356            0    5097.8772    19.969432    20.042695    20.856387    8347.5858    6133.4408    5000.9156     4159.275    244.71684    1289.7099   -1386.6258   -3577.0419 
11318000    258.89714   -4689.3208   -4190.0159   -4689.3208            0    3758.9387    20.257564     20.01475    20.760791    8417.4639    2380.9805    4101.4829    4794.3527    420.12566    498.27548    27.285347   -3728.5682 
11319000    255.18544   -4723.5491   -4231.4025   -4723.5491            0    5168.9621    20.011642    20.314591    20.466651    8320.2735    6564.3427    3546.4992    5396.0446    102.60697   -1455.7032   -330.09597   -3604.1869 
11320000    260.77171   -4673.1376   -4170.2174   -4673.1376            0    5520.1338    20.090331    20.057971    20.689748    8337.3742    5529.2304    6047.6806    4983.4905    196.10489   -1960.7267   -1854.0227    -3499.013 
11321000     261.5045   -4684.8678   -4180.5344   -4684.8678            0    3677.0937    20.026226    20.051983    20.854792     8374.566    3880.0742    3848.1525    3303.0546   -226.91816    691.57476   -458.26541   -3731.4345 
11322000    287.10155   -4678.5281   -4124.8286   -4678.5281            0    4490.4038    20.276685    19.919367    20.824429    8410.9599    3328.0531    4698.6795     5444.479    84.882906    195.00984    146.00187   -3574.0123 
11323000    243.37981   -4688.6123   -4219.2339   -4688.6123            0    2835.9679    20.116394    20.197624    20.675994    8400.7259    2882.1958    2134.1551    3491.5527   -381.60603     720.7657   -22.493807   -3871.7825 
11324000    265.57486   -4726.4484   -4214.2649   -4726.4484            0    4210.6609    20.131994    19.973034      20.6976    8322.4424    4582.4358    4735.2179    3314.3291   -1184.9418    247.53056   -264.99172    -3703.199 
11325000    252.60713   -4682.7708   -4195.5967   -4682.7708            0    3673.0753    19.912133    20.264835    20.728783    8364.3974    4554.2822    2603.7299    3861.2139    372.82513    1193.1569   -309.76272   -3747.5323 
11326000    267.54013   -4685.7143   -4169.7406   -4685.7143            0    3733.8274     19.88019     20.27491     20.66612    8329.8738    4163.2718    3458.4366    3579.7739   -183.18544   -410.49653    1776.1413   -3716.1453 
11327000    253.10733   -4723.9727   -4235.8339   -4723.9727            0    2480.3407     20.09369    20.088929    20.857024     8419.161     1726.072     2610.322    3104.6282    75.660277    292.12541    377.31012   -3931.2857 
11328000     272.2301   -4660.6739   -4135.6553   -4660.6739            0    5128.5618    20.057988      19.9994    20.801029    8344.2854    5632.2602    5043.6488    4709.7765    -687.1046   -134.43732    1256.7199    -3511.546 
11329000    273.75082   -4719.3744    -4191.423   -4719.3744            0    4902.4165    19.887759    20.143925    20.668138    8280.0183    5026.4761    4148.1923     5532.581    711.14596   -273.22376   -225.10121   -3599.4288 
11330000    266.51339   -4667.4628   -4153.4693   -4667.4628            0    4627.1081     20.18176    20.020658    20.635744    8337.9158    3659.8915    5944.3393    4277.0934    53.298509    95.311622      -107.22   -3590.8132 
11331000    270.80666    -4694.729   -4172.4556    -4694.729            0    3686.2404     20.07976    20.285623    20.390965    8305.8606    3109.8974    3036.3587    4912.4652    268.90574    -474.4686    756.72224   -3725.9322 
11332000    260.43335   -4714.1205   -4211.8528   -4714.1205            0    4662.0077    20.029462    20.094591    20.722181    8340.3432    5502.9697    4212.1871    4270.8662   -160.78823   -645.78231   -1465.5695   -3644.7879 
11333000    275.56906   -4708.4243   -4176.9662   -4708.4243            0     4964.376     20.00506    19.958538    21.101635    8425.2868    5223.6626      4624.19    5045.2753    338.45912   -790.25119    1338.3537   -3566.9726 
11334000    275.50807   -4669.2365    -4137.896   -4669.2365            0    4596.6312    19.950212    19.977857    20.859908    8313.9769    5493.1438    4113.5989     4183.151   -186.48895   -678.37297    121.01846   -3580.5506 
11335000     256.6278   -4703.3121   -4208.3838   -4703.3121            0    4488.3237    20.161176    19.927657    20.750429    8336.7961    3120.1686    5238.0599    5106.7425    86.280202    1398.7982   -369.54886   -3662.6772 
11336000    266.23293   -4713.6318   -4200.1792   -4713.6318            0    2858.8292    20.351786     19.80601    20.666149    8330.2699    644.40398      4515.61    3416.4737    217.48022    1039.4232    362.88488   -3852.8645 
11337000    255.36436   -4690.1305   -4197.6389   -4690.1305            0    5701.7213    19.976217    20.146009     20.66316    8315.7038    5926.3577    5601.9891     5576.817    -179.6897   -911.19106   -391.48321   -3506.1569 
11338000    263.02977   -4688.6516   -4181.3765   -4688.6516            0    4621.7811    20.082497    19.887316    20.738879    8282.8381    3890.1277     5934.966    4040.2497    71.997102    281.52999   -46.831339   -3623.0806 
11339000    249.94088   -4721.3339   -4239.3019   -4721.3339            0    3587.5858    19.988524    20.296752    20.673741    8387.3803    4228.0536    2260.0088    4274.6952   -206.41355    961.14806     346.3687   -3800.4636 
11340000    261.80744   -4706.2529   -4201.3352   -4706.2529            0    4385.6946    20.260414    19.984471    20.663325    8366.4489    2964.8163    4867.9616     5324.306    135.35981    271.89121   -1001.8184     -3666.21 
11341000    258.21927   -4688.7401   -4190.7425   -4688.7401            0    6833.7156    20.089597    20.125071    20.411682    8252.5367    7374.8338    6052.3684    7073.9447   -546.33284   -1486.2715    740.60768   -3368.2722 
11342000    261.68782   -4699.5874   -4194.9005   -4699.5874            0    4378.9061    20.153644    19.900748    20.836741     8357.046    4415.8243    4415.0239      4305.87    206.06135   -213.46632    1865.5348    -3661.204 
11343000    277.61353   -4694.0336   -4158.6326   -4694.0336            0    6546.7686    19.886035    19.925787    20.902464    8282.4944    7078.9582    5914.2417    6647.1059    268.98155    850.15417    -646.6432   -3367.8373 
11344000    274.48552   -4712.0754    -4182.707   -4712.0754            0    4719.2981    20.018623     20.13427    20.544561    8280.6982    4652.6788    4065.6066     5439.609    172.35351    646.95285   -911.05772   -3612.7786 
11345000     259.1548   -4734.0479   -4234.2461   -4734.0479            0    4038.4087    20.118741     20.10125    20.591638     8327.502     2259.479    4489.4618    5366.2853   -144.82236   -979.57968   -1997.0945   -3743.7892 
11346000    268.70681   -4693.6687    -4175.445   -4693.6687            0    3404.6254    19.923146    20.047168    20.849599    8327.3853     3614.694    3825.3842    2773.7979   -2.5792668   -15.346503   -157.00294   -3761.9656 
11347000    257.55647    -4685.462   -4188.7427    -4685.462            0    5106.4381    19.830984     19.91068    21.054362    8313.2808    4683.3939    5373.1106    5262.8096    688.15725   -22.070437   -1206.1147   -3569.6347 
11348000    263.69971   -4701.9347   -4193.3676   -4701.9347            0     3451.496    20.121884    19.946534    20.805327    8350.4642    2375.6154    5360.6099    2618.2627    214.85477    257.01045    233.49013   -3773.0343 
11349000    269.65833   -4712.5994   -4192.5406   -4712.5994            0    5478.0636    19.944686    20.226991    20.581802    8303.1305    6610.4868    3709.9166    6113.7875   -97.159937   -41.781475    369.72994   -3529.1874 
11350000    264.03078   -4684.8919   -4175.6863   -4684.8919            0    6049.0684    20.028621     20.03705    20.546012    8245.4126     5278.659    6896.6016    5971.9445    16.443868   -227.39331   -320.69199   -3448.2805 
11351000    247.98931   -4716.0113   -4237.7431   -4716.0113            0    3835.1864    19.985084    20.058151    21.031414    8430.7333    4958.5195    3851.1393    2695.9003    56.483641     107.4788   -404.95828   -3766.1931 
11352000    261.35273    -4689.469   -4185.4283    -4689.469            0    3611.9561    20.159768    19.985143    20.786529    8374.8063     4163.088    3065.4252    3607.3552   -119.20491   -813.33609    -62.65096   -3744.2713 
11353000    277.16484   -4694.3666   -4159.8309   -4694.3666            0    5432.3049    19.888003    20.086795    20.793961    8306.9016    7338.2927    3977.9948    4980.6271   -30.976677    1754.6824    644.13472     -3501.72 
11354000    269.72671   -4684.8507   -4164.6601   -4684.8507            0    3430.9779    20.537827     19.93541    20.427459    8363.6149    978.51219    5411.4473    3902.9741    -9.010752   -590.62564    -260.1551   -3746.1674 
11355000    270.75218   -4654.5554    -4132.387   -4654.5554            0    5012.2816    20.071116    20.020643    20.636522    8292.5107    7337.9604    2319.2799    5379.6044    436.94354    588.38231    717.29354   -3526.2129 
11356000    256.75493   -4708.3112   -4213.1377   -4708.3112            0    3762.5865    19.924549    19.991229    20.979228    8356.3667    3621.3231    4822.7315     2843.705   -341.52499   -872.27795   -1088.6464   -3754.5949 
11357000    258.55136   -4687.9801    -4189.342   -4687.9801            0    4270.4106    20.027989    20.174557    20.858973    8428.1891    4184.4908     4592.623    4034.1179   -622.14548   -84.464309    343.85093   -3664.4381 
11358000    275.13001   -4687.9699   -4157.3585   -4687.9699            0    4333.4032     20.08458    20.161874    20.598007    8341.0137    3005.5857     3720.369    6274.2549    559.36925   -649.65863   -47.605366   -3630.2211 
11359000     268.4821   -4710.3355   -4192.5452   -4710.3355            0    4538.1295    20.004526      19.9751    20.855952    8333.8802    2621.6766    6506.7859     4485.926    1042.8081    232.60946   -888.28226    -3640.976 
11360000    275.12875   -4681.1971   -4150.5882   -4681.1971            0    5568.6645    19.982855    20.088494    20.865235    8375.8366     6112.398    5174.7606    5418.8349    108.98473   -220.07657     624.8016   -3470.3592 
11361000    278.79079   -4680.8417   -4143.1702   -4680.8417            0    4887.7702    20.074703    20.172437     20.42375    8270.7136    6427.8429    2240.3826    5995.0852   -206.06762   -226.94236    240.92808    -3553.608 
11362000    269.73789   -4684.8638   -4164.6516   -4684.8638            0    5911.3873    20.088983    20.060531    20.454339      8243.01    4646.6298    6196.5532    6890.9789    1102.1597   -39.434797   -615.76339   -3454.0091 
11363000    262.55631   -4721.3292   -4214.9673   -4721.3292            0    4229.0834    20.144121    19.970561    20.694435    8325.1519    4151.0057    4839.7165     3696.528   -533.04689   -992.93754    840.54815   -3701.4982 
11364000    256.92521   -4672.5199    -4177.018   -4672.5199            0    4678.9189    19.998646    19.907576    21.023643    8370.0289    6435.2039    3859.8689    3741.6838   -118.08469     448.2633   -1322.5559   -3605.8704 
11365000    264.02039   -4690.7825   -4181.5969   -4690.7825            0    5480.2288    20.049277    19.786287    20.959931    8314.8203    4904.1883    6244.1886    5292.3096   -387.82748   -160.57017   -645.75182   -3517.0473 
11366000    249.41632    -4703.733   -4222.7126    -4703.733            0    3736.0533    20.226563    19.895666    20.794783    8368.2559    3174.3336    3991.8053    4042.0209   -17.628067   -541.91858   -415.34304   -3766.7556 
11367000    272.34604   -4737.2161   -4211.9738   -4737.2161            0    5335.8848    19.910375    19.945475    20.850687     8280.264    6047.2246    5976.5915    3983.8383    34.815284     198.3724    208.05567   -3567.6169 
11368000    267.41466   -4722.6505   -4206.9189   -4722.6505            0    3388.3226    20.204522    20.086836    20.638761    8376.1361    2682.1623    4055.4654    3427.3401   -447.67084    651.46657    -333.4042   -3793.0103 
11369000    264.84687   -4718.6459   -4207.8665   -4718.6459            0    6124.6208    20.016756    20.032521    20.529018    8231.8506    6334.2122    5344.2741     6695.376    435.89272   -720.80929   -853.86941   -3472.5868 
11370000    270.98178   -4705.1998   -4182.5886   -4705.1998            0    5953.1837    19.976491    20.063785    20.734826    8310.6019     6405.931    7076.2062    4377.4139   -145.80957   -127.53451   -421.77505   -3461.0532 
11371000    240.85393   -4675.7202   -4211.2132   -4675.7202            0    5956.3357    20.074432    19.843186    20.919211    8332.9726    4837.1281    9111.1769    3920.7021    97.047244   -1.3714857    750.59392   -3487.3524 
11372000    267.26742   -4672.2227    -4156.775   -4672.2227            0    6446.2739    20.203715    20.051227    20.489985     8300.683    3135.8872    8088.6845    8114.2499    94.497688    71.136034   -181.32648   -3376.4088 
11373000    256.72013   -4675.9992   -4180.8928   -4675.9992            0    3739.1704    20.299643    19.951321     20.70226    8384.5125    3707.4543     3028.358     4481.699   -1259.6797   -699.16544   -866.80952   -3723.6689 
11374000    271.24959   -4697.2476     -4174.12   -4697.2476            0    4938.5086    20.099644    19.997478    20.821849    8369.1791     5601.882    4627.0049    4586.6387   -73.383704   -341.14725   -1259.0206   -3571.3459 
11375000     265.2572   -4661.5779   -4150.0071   -4661.5779            0    2618.5715    20.218345    19.893177    20.955238    8428.3458    1300.8056    4800.4991    1754.4097   -133.44412   -355.18863    573.41981   -3828.1355 
11376000    262.58399   -4730.9978   -4224.5825   -4730.9978            0    5328.6473    20.028113    19.968204    20.856767     8341.152    3782.9665     6459.696    5743.2793    20.145132   -1607.8151    1349.1332   -3576.3678 
11377000    262.38066   -4699.9642    -4193.941   -4699.9642            0    2883.3401    20.034892    20.185407    20.806491    8414.4043    4119.9722    2035.8794    2494.1687   -467.81793    1191.7212   -540.83615   -3840.1106 
11378000    262.90593   -4703.3306   -4196.2944   -4703.3306            0    4249.0286    20.267362    19.944127     20.56306    8311.8941    2436.8152    5093.4344    5216.8364    435.16138    481.10102   -182.10912   -3681.2252 
11379000    271.86437   -4654.8294   -4130.5161   -4654.8294            0    5484.0909    20.057808    19.757535    20.937317     8297.309    6604.8734    4218.9392    5628.4601    503.24963    -401.2707    908.25522   -3466.8986 
11380000     263.4556   -4726.2989   -4218.2026   -4726.2989            0    4896.5777    20.052761    19.908552    20.660575    8248.1445     4749.224    5117.4747    4823.0343    -464.2775    448.26332    71.291408   -3629.1897 
11381000    252.22125   -4711.6726   -4225.2427   -4711.6726            0     3488.721    20.246286    19.983618    20.765757    8401.7014    2606.1813    3757.3923    4102.5895   -393.05795    679.45065    572.74513   -3797.7691 
11382000    274.67319   -4672.9596   -4143.2292   -4672.9596            0    3227.9194    20.089437    20.039708    20.746872    8352.4093    3374.0483    3848.6216    2461.0884   -725.55235   -16.768578     519.5846   -3750.0321 
11383000    275.52743   -4678.1959   -4146.8181   -4678.1959            0    4425.2726    20.268856    19.916421    20.773981    8386.1043    3282.3045    4878.0346    5115.4786   -291.39893   -17.768331    783.65002   -3605.5952 
11384000    252.02598   -4700.9351   -4214.8818   -4700.9351            0    5118.1279    19.957095    20.132641    20.779184    8348.8485     7735.297    3240.9867    4378.1001   -307.86869    296.15644    625.59993   -3591.7017 
11385000    262.91872   -4681.8284   -4174.7675   -4681.8284            0    5625.0447    20.161797    19.922397    20.598221    8273.7144    7251.6143     4615.838    5007.6817    497.61656   -962.39014    582.34327   -3496.0291 
11386000    270.64064   -4709.2089   -4187.2556   -4709.2089            0    5341.1044      20.1405    20.088061    20.692975    8372.0385     6901.821    3954.1987    5167.2934    379.19093    325.85221    387.99926   -3535.1196 
11387000    262.02297     -4705.63   -4200.2966     -4705.63            0    4651.2416    20.215466    19.940512    20.716814    8351.0873    3328.8966    6483.9953     4140.833   -720.27227    218.52567    225.38701   -3633.8124 
11388000    253.24664   -4684.1998   -4195.7924   -4684.1998            0    4978.3067    19.997351    20.013211    20.861051    8348.8263    4141.6108    6362.0023     4431.307    226.86782   -487.83524   -546.94343   -3589.6384 
11389000    248.31156   -4713.9529   -4235.0632   -4713.9529            0    3980.8455    20.028144    19.950027    20.911805    8355.5627    5743.9877    3044.4489    3154.0998   -335.87745    444.33147    1019.1992   -3749.9681 
11390000    261.76907   -4686.9512   -4182.1075   -4686.9512            0     2795.302    20.249175    20.136201    20.729125    8452.1237    2495.5731    2982.1552    2908.1776   -526.90377    -263.8058    1384.5062   -3837.5431 
11391000    264.73461    -4698.909    -4188.346    -4698.909            0    4175.6985    20.076016    20.107106    20.543908    8292.9717    5906.8496    2550.0534    4070.1925    119.58291    2783.1313   -161.03148   -3683.3183 
11392000    266.19622   -4698.6726   -4185.2908   -4698.6726            0    5118.5903     20.08154    19.792245    20.798985    8266.7388    4801.5029    5375.2348    5179.0332    380.39145    305.55078    695.56243   -3568.1838 
11393000    260.23461   -4704.2974   -4202.4131   -4704.2974            0    3246.8222    19.962735    20.067199    21.023659    8421.9976    2493.5333    3320.7034    3926.2298    289.69525    500.43217    952.81889   -3803.6183 
11394000    266.73149    -4696.986   -4182.5719    -4696.986            0    5613.8699    20.085298    20.012975    20.632349    8293.5145    6017.0957    5135.0808    5689.4334   -389.25173    882.23344   -541.00448   -3503.5609 
11395000    271.44844   -4707.2909   -4183.7797   -4707.2909            0    5650.7636    19.981657    19.912323    20.701106    8236.5813    6453.1694    5833.6489    4665.4724    491.42642    306.38793    -844.4709   -3504.9982 
11396000    258.33818   -4703.5554   -4205.3285   -4703.5554            0     3758.339    19.801431     20.02227    21.006837    8328.5727     5388.578    2536.2194    3350.2196    230.39194   -437.96959    857.63631   -3748.8268 
11397000     252.5833   -4697.7843   -4210.6561   -4697.7843            0    4909.3579    20.098322     19.96885    20.733732    8321.2841    6891.5551    2720.1186    5116.4001   -308.98126   -861.86216    637.02802   -3614.8692 
11398000    260.97465   -4708.4019   -4205.0903   -4708.4019            0    5083.8606    20.124227    20.067113    20.630977    8331.5135    4140.1336    5757.3382    5354.1102    -583.4875    532.35345   -202.89015   -3587.3678 
11399000    279.92877    -4699.172   -4159.3059    -4699.172            0    6279.4518    20.009721    20.086444    20.517825    8246.6093    7101.1223    5591.5669    6145.6662    1328.4203   -983.11091   -1077.1537   -3404.0866 
11400000    270.90018   -4718.3709   -4195.9171   -4718.3709            0    6471.5919    20.154403    19.853813    20.694746    8280.8319     6749.436    5686.6492    6978.6906   -310.65573    81.325781   -1136.2006   -3414.3595 
11401000    272.53923    -4682.616   -4157.0011    -4682.616            0    3557.0623    19.933915    20.138884     20.88958    8386.0549    5292.7977    2619.3057    2759.0834    367.62629    871.26614     333.9831   -3721.9653 
11402000    267.83187   -4689.0125   -4172.4762   -4689.0125            0    3591.7686     20.09002    20.030138    20.716598    8336.4809    1439.1184    4885.2953    4450.8919     29.12584   -220.05021     421.8798   -3735.7925 
11403000    265.02105   -4710.2444    -4199.129   -4710.2444            0     4639.355    20.099565    20.162984     20.65553    8371.0091    5998.2913    2443.2207     5476.553    195.28583   -440.93242   -420.09994   -3632.7446 
11404000    261.00498   -4689.5982   -4186.2282   -4689.5982            0     4705.599    20.112469    20.008834    20.679462    8321.9752    3747.8651    5774.3986    4594.5333   -641.74927    843.24616   -614.30973   -3615.1215 
11405000    263.88622   -4700.7566   -4191.8298   -4700.7566            0    4113.3581    20.046313    20.186862    20.792985    8414.3424    5064.6247    3677.0505    3598.3992    333.90492    257.55872    405.95748   -3687.0609 
11406000    250.37842   -4690.7366   -4207.8607   -4690.7366            0    4051.0654    20.040255    19.938721    20.950356    8371.2817      4953.66    4123.6077    3075.9286    235.01892    1178.7006    -612.5337   -3713.2801 
11407000    265.92473   -4697.6725   -4184.8143   -4697.6725            0    3928.1952    19.979823    20.239679    20.727553    8381.9154    4146.5529    2059.7979    5578.2349    1167.1349    483.95521    171.26315   -3704.6253 
11408000    253.06451   -4714.1503   -4226.0942   -4714.1503            0     5143.838    20.297408    20.048344     20.48085    8334.2603    2201.9554    8026.5077     5203.051    179.66601   -829.79882    409.37926   -3600.8779 
11409000    266.31628   -4730.4904   -4216.8771   -4730.4904            0    4837.5664    19.979063    20.022074    20.850559    8340.6881    4049.6729    5538.6565    4924.3697    655.27118    722.07119    295.58611   -3628.4337 
11410000    276.77994   -4721.6264    -4187.833   -4721.6264            0    3137.3542    20.003825     20.03787    20.896406    8375.9913    4362.0227    2144.5008    2905.5389    142.59059    550.77737    -144.0258   -3804.5888 
11411000    261.11934    -4713.658   -4210.0674    -4713.658            0    4546.7279    20.206523    20.022405    20.674914    8364.7226    1512.5683    7241.5097    4886.1056    -407.1636    1892.8688   -1362.9058    -3655.408 
11412000    265.90494   -4692.7903   -4179.9703   -4692.7903            0    4747.2553    19.898683    20.125375    20.698198    8288.9754    5885.3167    2422.3543    5934.0949   -454.80532    1559.6093     236.7116   -3606.0926 
11413000    274.90446   -4704.8656   -4174.6893   -4704.8656            0    4622.6951     20.28039    19.962129    20.622291    8348.7236    4021.6476    4928.8742    4917.5636   -29.493453    334.99611   -244.57057   -3611.8411 
11414000     268.0071   -4719.1209   -4202.2467   -4719.1209            0    4561.4826    20.004354    20.040951    20.756583    8321.4444    3927.4769    4430.7063    5326.2647   -32.272609   -2428.0549    36.113299   -3648.6664 
11415000    266.49611   -4704.8495   -4190.8894   -4704.8495            0    5288.8704    20.015752      19.8801    20.957122    8339.1565    5228.9022     5633.053    5004.6561   -675.94269   -300.44306    -148.6952   -3547.6673 
11416000     270.8455   -4693.3159   -4170.9676   -4693.3159            0    4451.2751    19.964224    20.086595    20.631375    8273.4551    3874.6812    4737.9368    4741.2072    -25.61121    96.518962    189.66177   -3633.8774 
11417000    270.71707   -4702.4599   -4180.3593   -4702.4599            0    5735.9848    20.150412    20.123543    20.491065    8309.0793    6013.5273    4245.3559    6949.0712    -787.1552   -501.40592   -2113.9495   -3485.2761 
11418000    273.34554   -4679.6253   -4152.4554   -4679.6253            0    4684.9874    19.892145    20.062625    20.885595    8335.2038    5371.4935    4522.2989    4161.1699   -277.88118    2187.1993   -385.44354   -3582.9465 
11419000    270.06637   -4669.8969   -4149.0512   -4669.8969            0    7671.6297      19.7827    20.038751    20.836502    8260.0188    7031.0596    8841.1416    7142.6879   -504.36964   -805.69334    1453.2836   -3224.8967 
11420000    266.03523   -4683.7281   -4170.6568   -4683.7281            0     5273.914    20.066955    20.083259    20.579231    8293.6325    4318.7419    4828.8891    6674.1111   -357.27192   -724.84332    1296.3425   -3532.7551 
11421000     258.9015   -4671.7303    -4172.417   -4671.7303            0    4625.6103    20.217799     19.98498    20.670518    8351.9703    3601.2462    5911.3406    4364.2442    206.38963   -157.18473    574.12574   -3608.9949 
11422000    245.97825   -4675.6129   -4201.2231   -4675.6129            0     4441.415    20.094474    20.002257     20.82599    8370.6911    4280.7987    4462.9372    4580.5092    11.393782    621.68778   -303.85752   -3659.0243 
11423000    252.71835   -4701.5448   -4214.1562   -4701.5448            0    4531.7486    19.973028    20.056931    20.650265    8272.4475    3092.5742    4415.8056    6086.8659    212.69844   -1998.3338    -1006.087   -3667.4227 
11424000    269.04319   -4699.9541   -4181.0817   -4699.9541            0    5832.8143    20.187918    20.116104    20.495964    8323.4572    4888.6527    4849.1436    7760.6467   -1287.7703   -652.24391    970.46143   -3473.0417 
11425000    253.57067   -4682.9748   -4193.9424   -4682.9748            0    5755.7308     20.07798     19.89639    20.707241    8272.1148    7726.0517     5780.187    3760.9537   -396.68772    305.26851    709.63591   -3499.5693 
11426000    256.25486   -4717.1033   -4222.8942   -4717.1033            0    4887.5805    20.010753    19.878537    20.926933    8324.4096    6006.3902    4315.7025    4340.6489   -245.42075   -608.14009     -963.039   -3629.5274 
11427000    261.55617   -4674.5298   -4170.0967   -4674.5298            0     7285.853     19.86315    19.795404    20.732533    8152.0129    8083.7821    8332.4439    5441.3329    627.53153    1418.3663    271.32936   -3303.8908 
11428000     273.7812   -4699.0843   -4171.0743   -4699.0843            0      3917.51    20.124877    19.983845     20.63628    8299.3427    5731.5099    2669.3312     3351.689    262.15252    765.56973    432.22391    -3696.909 
11429000    268.69194   -4672.0382   -4153.8432   -4672.0382            0    3935.9306    20.154412    20.160148    20.578304    8361.2927    4749.1601    2313.7449    4744.8869    102.08206    476.50037     1060.225   -3673.8923 
11430000     276.9434   -4707.5792   -4173.4706   -4707.5792            0    4585.5077     20.02586    19.987029    20.845041    8343.3824    5361.4383    4490.9629    3904.1218   -216.06466   -336.82822   -912.34104   -3615.5075 
11431000    261.24046   -4698.1887   -4194.3645   -4698.1887            0    5127.0928    20.180124    19.909851    20.665483    8303.0455    3505.8113    5961.2083    5914.2588    477.84168   -1109.6825    66.273492   -3573.5177 
11432000    251.74859   -4675.8216   -4190.3033   -4675.8216            0      6295.35     19.91429    20.168713    20.712462    8319.0689    6265.4493    5428.4664    7192.1343    238.54055    1201.4817   -443.85664   -3426.5194 
11433000    252.43423   -4705.5098   -4218.6692   -4705.5098            0    4961.0082    20.076872    19.951866    20.908656    8375.4022    2304.9981    7476.3959    5101.6305    238.43704    2253.4918   -900.90907   -3612.6986 
11434000    254.33704   -4709.0959   -4218.5856   -4709.0959            0    2657.2932    19.974222    20.008391    20.984567    8386.5251    4140.2577    2695.6713    1135.9508    -949.3609    484.39105     263.9965   -3893.5751 
11435000    266.97945   -4681.2148   -4166.3225   -4681.2148            0    2644.1524    20.361971    20.080678    20.492451    8378.9981    2041.7106    1984.0243    3906.7223   -251.72537   -491.76739   -1287.9561   -3843.2094 
11436000    269.56425   -4674.2061   -4154.3288   -4674.2061            0    4984.3307    20.039414    20.017094    20.685138    8297.4466    5162.6035    3085.1417    6705.2468   -226.61301   -1489.6173    528.14962   -3551.1762 
11437000     258.7626   -4690.0996   -4191.0541   -4690.0996            0    4215.6777    20.001273    20.170375    20.636517    8325.4557    2995.0094    4616.1139    5035.9097   -314.25757    792.28051    476.40494    -3679.194 
11438000    272.46424    -4696.284   -4170.8138    -4696.284            0    5066.1307    20.113314    20.076632    20.499752    8277.9553    4911.4512    5102.6759    5184.2651   -378.92325   -875.84938    241.62962   -3559.2027 
11439000     252.5067   -4710.1964    -4223.216   -4710.1964            0    4592.0273    20.058224    20.175096    20.540782    8312.3738    6183.3277    2622.8696    4969.8846   -15.673993    -27.79718    202.15015   -3666.5363 
11440000    268.65131   -4665.5054   -4147.3887   -4665.5054            0    4959.8655     19.93774    20.045752    20.928477    8364.4216    4752.6298    5623.7915    4503.1752   -475.79764    734.52192    52.958773    -3542.352 
11441000    267.20407    -4698.908   -4183.5824    -4698.908            0    3701.8657    19.973866    20.018052    20.972798    8385.7194    5714.7942    4111.6118     1279.191   -353.20162    1321.2562   -666.54957   -3730.8549 
11442000    273.66148   -4715.9435   -4188.1643   -4715.9435            0    3208.0132    20.295477    19.935141    20.679192    8366.6602    3585.0669    2359.2406    3679.7319    69.220757   -184.90515    618.79455   -3796.7253 
11443000    267.47023   -4698.4507   -4182.6118   -4698.4507            0    3719.4365     19.88902    20.321003    20.665875    8352.4195    3795.5047    3393.1487     3969.656    795.89906   -483.13771    1165.3019   -3729.5418 
11444000    264.42721   -4667.9089   -4157.9387   -4667.9089            0    5087.9862    20.161213    19.828034    20.769521     8302.766    3719.7239      6591.56    4952.6745   -283.58969   -515.80156     196.0949   -3541.8481 
11445000    263.51513   -4691.2027   -4182.9916   -4691.2027            0     5093.136    19.983443    19.920644     20.85698    8302.8102    4645.2198     6551.048    4083.1401   -913.59359   -482.40854   -1296.6401   -3566.2741 
11446000    263.01742   -4688.4748   -4181.2236   -4688.4748            0    4919.9677    20.162545    19.938449    20.684265    8315.2787    3195.1081    5478.7694    6086.0257   -746.61693   -911.81786   -1040.8661     -3584.58 
11447000    262.83279   -4690.1452   -4183.2501   -4690.1452            0    5225.0451    19.970582    20.240144    20.540289     8302.538    4569.2231    5840.1791     5265.733    993.31936   -23.904918   -48.641444   -3550.5807 
11448000    263.59007   -4684.9737    -4176.618   -4684.9737            0    5204.0154    20.186782     19.96486    20.586413    8296.8652    3192.0809    6510.1167    5909.8486     249.3072   -975.35416    -241.1411   -3546.9256 
11449000    274.99106   -4687.9631   -4157.6197   -4687.9631            0    5045.4947    19.857025    20.102417    20.900623    8342.9893     6363.154     4715.639    4057.6911   -748.24612   -64.884552    -243.9005   -3543.7145 
11450000    271.20161   -4713.4738   -4190.4387   -4713.4738            0    4765.2992    20.198472    19.655461    20.817028    8264.5742    3993.5814    6630.1226    3672.1936    658.84753    2038.6253    -388.0722   -3616.0756 
11451000    257.99738    -4687.127   -4189.5573    -4687.127            0    4508.4926     20.28419    19.847385    20.639314    8309.1429    3715.5039    4616.8403    5193.1336    -98.97116    1288.0538    -411.5195   -3643.2167 
11452000    263.51007   -4692.3437   -4184.1423   -4692.3437            0    3285.0628    19.947707     20.23716    20.725581    8366.6051    6656.6945    231.42602     2967.068   -115.09165    893.94983    1215.0304   -3783.3044 
11453000    255.22744   -4710.0747   -4217.8471   -4710.0747            0    5591.9386     20.20631    19.799461    20.720603    8289.7752    6343.3769    5970.2849     4462.154   -147.34484    518.61422   -941.52699   -3541.7936 
11454000    247.26482   -4697.3088   -4220.4378   -4697.3088            0    4981.1385    20.060726    20.016387    20.669116    8299.5443    6588.7985    4121.5703    4233.0468   -133.87216    740.73973   -212.68958   -3617.5191 
11455000    261.48739   -4718.7634    -4214.463   -4718.7634            0    5813.1002    19.986841     19.84248    20.678414    8200.8213    6185.8903    5257.2918    5996.1186    156.56984   -511.49282   -1196.3311   -3519.2129 
11456000    251.39724   -4704.8075   -4219.9668   -4704.8075            0    4458.6572    20.201257    20.002621    20.624863    8334.0553    4102.6098    4621.4611    4651.9008    190.68809   -611.10818   -136.78467   -3678.0453 
11457000    263.63392   -4703.1358   -4194.6957   -4703.1358            0    4148.8631    20.073514    20.086153    20.697465    8345.2108    5382.6776    3282.3583    3781.5534   -1163.9668   -116.17129   -243.05653   -3689.7527 
11458000    257.15994   -4667.2342   -4171.2796   -4667.2342            0     6016.323    19.955441    19.945025    20.888238    8313.7647    7625.6628    5025.5633     5397.743   -1580.7083   -722.38202    1081.5601   -3441.8141 
11459000    261.49841   -4696.2601   -4191.9385   -4696.2601            0    4919.8399    20.000361    19.930373    20.835116    8305.1829    3693.0549    5500.8031    5565.6617   -287.86327    1024.8275    301.61101   -3596.0348 
11460000    277.83365   -4697.5933   -4161.7677   -4697.5933            0    4101.3883    20.305254    20.105304    20.607292    8412.7892    3316.6772    4586.6356     4400.852    112.39245   -1080.9335   -924.53461   -3658.5606 
11461000    270.39725   -4715.3692   -4193.8853   -4715.3692            0    2440.7545    20.142609    20.160947    20.690715    8402.3768      2150.16    2560.5904     2611.513   -105.80963   -185.75213   -122.46434   -3894.7952 
11462000    277.58232   -4726.1751   -4190.8343   -4726.1751            0     6338.121    19.913284    20.079143    20.736267     8291.224    6661.0235     6015.411    6337.9284    381.90043   -425.26548   -970.86559    -3424.435 
11463000    269.80116   -4687.7746   -4167.4403   -4687.7746            0    4947.7363    20.102954    19.855906    20.874464    8332.3006    5434.6901     5152.785     4255.734    333.42623    986.19017    1289.2866    -3566.201 
11464000    273.23134   -4696.8759   -4169.9263   -4696.8759            0    5650.1086    20.015025     19.97303    20.661859    8259.7991    5168.8723    5918.7626    5862.6908    272.35641    1369.6303    98.083391   -3489.3103 
11465000    254.09062   -4722.6092    -4232.574   -4722.6092            0    4641.1333    20.240635    19.824872    20.785801    8340.6767    4104.1035    4909.5054     4909.791    16.672815    1418.4572   -31.711045   -3668.0256 
11466000    259.10866   -4708.1985   -4208.4856   -4708.1985            0    4423.4056    20.078092    19.866518    20.881836    8329.3838    3454.8549    6006.6143    3808.7476    835.85833    494.83519   -376.53323   -3671.1501 
11467000    256.20964   -4715.2124   -4221.0905   -4715.2124            0    7812.0572    19.993573    20.129487    20.602573    8291.7189    8922.2692    6178.6189    8335.2834   -399.26931    48.875841   -668.47275    -3276.408 
11468000    278.42859   -4691.7056   -4154.7326   -4691.7056            0    5199.5405     20.26652    19.989481    20.455856    8287.0193    3898.0894      4384.12    7316.4121   -128.24432   -324.77249    1148.1588   -3526.3282 
11469000    270.95376   -4696.3176   -4173.7605   -4696.3176            0    5799.4269    20.091607    19.937849    20.723731     8301.583    9050.2467    2544.0292    5804.0048   -188.79675   -1197.3763   -29.861338   -3471.6234 
11470000    264.61051   -4725.2523   -4214.9286   -4725.2523            0    4676.1897    20.082514    19.785936    20.955056    8326.5195    3267.0755    6868.4787     3893.015    227.88006    -1276.177   -354.84631   -3647.0814 
11471000    269.16592   -4724.7191     -4205.61   -4724.7191            0    3568.7903    20.083631    20.000632    20.798367    8354.3984    877.15177    5515.7403    4313.4789     31.61405    103.76855   -557.08204   -3770.7874 
11472000    259.92879   -4708.8163   -4207.5218   -4708.8163            0     4789.204    20.158269    19.853254    20.697192    8283.1659    5049.1634    4547.9959    4770.4526    95.352135    417.92945    784.75207   -3628.9789 
11473000    252.52844   -4690.5102   -4203.4879   -4690.5102            0    4277.2363    19.876923    20.102777    21.007875    8394.3549    5655.3084    3758.3672    3418.0334    -122.6431    248.09126    1187.0958   -3679.8555 
11474000     265.9864   -4702.5358   -4189.5587   -4702.5358            0    3992.1369    20.084318    19.883178     21.01003    8390.1469    4026.7164    3957.4845    3992.2098    -175.0271   -767.67488   -633.18641   -3701.0741 
11475000    260.13522   -4711.8776   -4210.1849   -4711.8776            0    5296.9498    20.051817    20.090881    20.690015     8335.152    6239.0291    5997.8451    3653.9753   -248.63895     -1358.13   -2591.9537   -3566.2896 
11476000     267.9285   -4702.6567   -4185.9341   -4702.6567            0    2847.7853    19.906887    19.985592    20.995338    8353.0144    4720.0594    1487.4019    2335.8947    530.54101   -263.27861    208.34455   -3839.0164 
11477000     275.6756   -4648.0485   -4116.3849   -4648.0485            0    4102.8674    20.036827    20.082234    20.760876    8353.8493    4922.8726    2457.9874    4927.7421    1181.0102   -682.99053    1025.6641    -3616.523 
11478000     282.9303   -4711.8619    -4166.207   -4711.8619            0    3429.2515    20.318105    19.959489     20.75064    8415.1935    3663.4742    3053.9079    3570.3723    561.40987   -708.91602   -612.52226   -3745.3454 
11479000    260.16653   -4676.3464   -4174.5934   -4676.3464            0    4360.0145    20.152809    20.068668    20.616592    8338.1751    5339.3508     3120.902    4619.7906     -207.485    805.67258   -1098.1852   -3644.3994 
11480000    275.69876   -4690.2246   -4158.5163   -4690.2246            0    3203.6648    20.215905    20.016122    20.756838    8399.1305    3561.0544    2730.6109    3319.3291   -202.70073    50.368503    1097.7902   -3766.0908 
11481000    275.50487   -4699.1727   -4167.8384   -4699.1727            0    3559.9835    20.076936    19.837417    21.068609    8391.0907    3188.5384    4731.1226    2760.2895     269.8887   -293.55501   -408.87986   -3732.1838 
11482000    263.64049   -4690.1281   -4181.6752   -4690.1281            0    3773.3528    20.033097    20.113564    20.774204    8370.6948    4777.4155    4841.9324    1700.7105   -507.80038   -234.87684     495.2038   -3721.0319 
11483000    259.93849   -4697.7009   -4196.3877   -4697.7009            0    3672.4521    20.114739    20.246766     20.54968    8369.0304    3968.7361    2380.5888    4668.0314    708.75675    1249.2236   -424.10037   -3748.1512 
11484000    284.59783    -4711.381   -4162.5101    -4711.381            0    5119.7907    20.191276    19.970064    20.656339     8329.071    4350.9811    6483.2843    4525.1067    310.83372   -283.19752   -149.40352   -3540.6042 
11485000    255.59099   -4701.1969   -4208.2682   -4701.1969            0    3542.3983    19.979408    20.132863    20.743347    8343.8596    3492.2449    3655.3054    3479.6445   -163.49759   -346.61241     -626.489   -3777.2056 
11486000    255.81225   -4710.3789   -4217.0235   -4710.3789            0    3759.0504    20.120467    19.974418    20.825607    8369.6991    4022.1045    3144.3466       4110.7    26.259326   -1028.3925     426.7643   -3758.1807 
11487000    265.94644   -4700.1067   -4187.2066   -4700.1067            0    5618.2967    20.054101    19.895244    20.742533    8275.8815    5987.4155      6419.41    4448.0646   -125.27833    924.24757   -751.63577   -3509.1049 
11488000    257.05167   -4667.7836   -4172.0378   -4667.7836            0    3578.8567    20.251223    19.997623    20.612691    8347.6519    4250.7619    1594.2937    4891.5144    556.64234    309.89449     907.5374   -3736.3408 
11489000    253.86537   -4688.8711   -4199.2703   -4688.8711            0    3657.2726    20.028695    20.003615     20.97525    8403.6566    3834.9538    4194.9369    2941.9271    67.780613    87.236891    518.81794   -3751.0397 
11490000    270.03719   -4691.5967   -4170.8073   -4691.5967            0    5821.8226    19.919272    19.920677    20.909728    8297.0924    4762.5606    7815.3463    4887.5611   -125.51013    270.99322    12.764914     -3466.34 
11491000    249.87013   -4695.3821   -4213.4865   -4695.3821            0    4504.1108    20.156553    19.988298    20.751961    8360.8653    3986.6243    5296.9224    4228.7855    -203.8458   -1195.4652   -762.21019   -3664.2794 
11492000    266.14127   -4697.2533   -4183.9774   -4697.2533            0    4883.4029    20.230768    20.024395    20.455489    8286.7004    5870.3952    4181.9336    4597.8798   -220.00826   -658.74612    -687.8293   -3593.8034 
11493000    270.08699   -4682.0896   -4161.2041   -4682.0896            0    3615.9275    20.144824    20.105048    20.787302      8419.12    4165.1634    3643.6304    3038.9888     359.4734    1138.4175    73.645482   -3717.2253 
11494000    267.95812   -4684.9262   -4168.1464   -4684.9262            0    4535.1862    19.951617    20.160699    20.671275    8314.7837    4910.6074     3220.205    5474.7462   -483.18478    1310.2301   -365.06183    -3618.198 
11495000    277.57334    -4684.553   -4149.2294    -4684.553            0    3664.8943    20.175094    20.059907     20.85177    8438.9308    3062.4142    5535.5601    2396.7086   -957.53444    106.17659    1079.3721   -3698.1794 
11496000    261.25234   -4673.8971     -4170.05   -4673.8971            0    4192.8531    20.074583    20.029511     20.81982    8371.3183     5359.711    3767.9503     3450.898    151.53109   -957.84583    40.392025   -3658.1568 
11497000    256.25553   -4684.6651   -4190.4548   -4684.6651            0     4407.578    20.141822    20.120226    20.576883    8338.9468    5030.7162    3591.7382    4600.2797    390.54013   -859.56109   -4.8853663   -3654.4272 
11498000    268.21813    -4667.523   -4150.2418    -4667.523            0    4905.5399     20.11009    20.191688    20.470048    8311.9995    3650.6457    5219.1835    5846.7905   -292.66803    -1880.308   -725.14308   -3555.5825 
11499000    253.10265   -4695.2637    -4207.134   -4695.2637            0    4012.1703     20.04176    19.856357    20.968022    8344.3575    5362.6262    3702.6623    2971.2225    34.941094   -387.69991   -707.49125   -3718.8774 
11500000    268.77645   -4661.9443   -4143.5863   -4661.9443            0    4583.7261    20.120275    20.030107    20.827396    8393.6749     4161.896    4132.2389    5457.0433   -1101.3275    496.43625   -648.95234    -3582.478 
Loop time of 458.666 on 64 procs for 250000 steps with 972 atoms

Performance: 94.186 ns/day, 0.255 hours/ns, 545.059 timesteps/s
190.6% CPU use with 32 MPI tasks x 2 OpenMP threads

MPI task timing breakdown:
Section |  min time  |  avg time  |  max time  |%varavg| %total
---------------------------------------------------------------
Pair    | 25.866     | 35.026     | 42.369     |  76.5 |  7.64
Bond    | 0.90352    | 1.1484     | 1.4788     |  14.3 |  0.25
Kspace  | 203.53     | 213.96     | 226.84     |  41.8 | 46.65
Neigh   | 2.6889     | 3.1535     | 3.6703     |  19.6 |  0.69
Comm    | 84.132     | 92.537     | 100.88     |  46.9 | 20.18
Output  | 0.52715    | 0.52755    | 0.52905    |   0.0 |  0.12
Modify  | 84.93      | 89.218     | 94.738     |  24.8 | 19.45
Other   |            | 23.1       |            |       |  5.04

Nlocal:        30.3750 ave          37 max          25 min
Histogram: 2 6 2 3 4 7 2 4 0 2
Nghost:        2580.66 ave        2629 max        2545 min
Histogram: 3 2 6 6 2 7 1 3 0 2
Neighs:        9381.75 ave       12686 max        6625 min
Histogram: 1 3 4 4 6 7 4 2 0 1

Total # of neighbors = 300216
Ave neighs/atom = 308.86420
Ave special neighs/atom = 2.0000000
Neighbor list builds = 8290
Dangerous builds = 0

unfix		3
unfix		2
unfix		1

write_data	data.final.${pid}
write_data	data.final.0
System init for write_data ...
PPPM initialization ...
  extracting TIP4P info from pair style
  using 12-bit tables for long-range coulomb (../kspace.cpp:340)
  G vector (1/distance) = 0.37214444
  grid = 24 24 25
  stencil order = 5
  estimated absolute RMS force accuracy = 0.0034403099
  estimated relative force accuracy = 1.0360391e-05
  using double precision FFTW3
  3d grid and FFT values/proc = 3458 576
Last active /omp style is kspace_style pppm/tip4p/omp
WARNING: Not all mixed pair coeffs generated from mixing. Use write_data with 'pair ij' option to store all pair coeffs. (../write_data.cpp:312)

write_restart   restart.lmp.${pid}
write_restart   restart.lmp.0
System init for write_restart ...
PPPM initialization ...
  extracting TIP4P info from pair style
  using 12-bit tables for long-range coulomb (../kspace.cpp:340)
  G vector (1/distance) = 0.37214444
  grid = 24 24 25
  stencil order = 5
  estimated absolute RMS force accuracy = 0.0034403099
  estimated relative force accuracy = 1.0360391e-05
  using double precision FFTW3
  3d grid and FFT values/proc = 3458 576
Last active /omp style is kspace_style pppm/tip4p/omp
Total wall time: 0:07:38
