#include		in.partitions
include		in.temp
variable        temperature equal 50.49
variable	tempDamp equal 100.0
include		in.pressure
variable        pressure equal 8688.6
variable        pressureDamp equal 1000.0 # This is 1 ps
include		in.seed
variable        seed equal 745823

units		real
atom_style	full
read_restart	restart.lmp.${pid}
read_restart	restart.lmp.1
Reading restart file ...
  restart file = 30 Jul 2021, LAMMPS = 30 Jul 2021
  restoring atom style full from restart
  orthogonal box = (0.051434469 0.026486980 0.045784124) to (24.678567 24.703514 22.764216)
  4 by 4 by 2 MPI processor grid
  restoring pair style lj/cut/tip4p/long/omp from restart
  restoring bond style harmonic/omp from restart
  restoring angle style harmonic/omp from restart
  1920 atoms
  1280 bonds
  640 angles
Finding 1-2 1-3 1-4 neighbors ...
  special bond factors lj:    0        0        0       
  special bond factors coul:  0        0        0       
     2 = max # of 1-2 neighbors
     1 = max # of 1-3 neighbors
     1 = max # of 1-4 neighbors
     2 = max # of special neighbors
  special bonds CPU = 0.002 seconds
  read_restart CPU = 0.008 seconds
include 	in.setup
variable	out_freq equal 1000
variable	out_freq2 equal 10000
variable	out_freq3 equal 1000

timestep	2.0

neigh_modify    delay 7 every 1

include		in.tip4p
# This is TIP4P/Ice

# create groups ###
group ox type 2
640 atoms in group ox
group hy type 1
1280 atoms in group hy

# set charges - beside manually ###
set group ox charge -1.1794
Setting atom values ...
  640 settings made for charge
set group hy charge 0.5897
Setting atom values ...
  1280 settings made for charge

# ### TIP3P Potential Parameters ###
pair_style lj/cut/tip4p/long/omp 2 1 1 1 0.1577 8.5
pair_coeff 1 1*2 0.000 0.000
pair_coeff 2 2 0.21084 3.1668
bond_style  harmonic
bond_coeff  1 450 0.9572
angle_style harmonic
angle_coeff 1 55 104.52
kspace_style pppm/tip4p/omp 1.0e-5
pair_modify tail yes

thermo          ${out_freq}
thermo          1000
thermo_style    custom step temp pe etotal epair emol press lx ly lz vol pxx pyy pzz pxy pxz pyz enthalpy

restart 	${out_freq3} restart.lmp.${pid} restart2.lmp.${pid}
restart 	1000 restart.lmp.${pid} restart2.lmp.${pid}
restart 	1000 restart.lmp.1 restart2.lmp.${pid}
restart 	1000 restart.lmp.1 restart2.lmp.1


include         in.dump
dump            myDump all atom ${out_freq2} dump.water.${pid}
dump            myDump all atom 10000 dump.water.${pid}
dump            myDump all atom 10000 dump.water.1
dump            myDump2 all dcd ${out_freq2} dump.dcd
dump            myDump2 all dcd 10000 dump.dcd
dump_modify     myDump append yes
dump_modify     myDump2 append yes


variable natoms 	equal  "count(all)"                        # NUMBER ATOMS
variable H      	equal  "enthalpy/v_natoms"                 # ENTHALPY-per-atom
variable Vol      	equal  "vol/v_natoms"                 # volume-per-atom
fix AVG all 		ave/time ${out_freq} 1 ${out_freq} v_Vol v_H file vol_enthalpy.dat
fix AVG all 		ave/time 1000 1 ${out_freq} v_Vol v_H file vol_enthalpy.dat
fix AVG all 		ave/time 1000 1 1000 v_Vol v_H file vol_enthalpy.dat




fix 		1 all shake 1e-6 200 0 b 1 a 1
       0 = # of size 2 clusters
       0 = # of size 3 clusters
       0 = # of size 4 clusters
     640 = # of frozen angles
  find clusters CPU = 0.001 seconds
fix             2 all nph aniso ${pressure} ${pressure} ${pressureDamp}
fix             2 all nph aniso 8688.6 ${pressure} ${pressureDamp}
fix             2 all nph aniso 8688.6 8688.6 ${pressureDamp}
fix             2 all nph aniso 8688.6 8688.6 1000
fix             3 all temp/csvr ${temperature} ${temperature} ${tempDamp} ${seed}
fix             3 all temp/csvr 50.49 ${temperature} ${tempDamp} ${seed}
fix             3 all temp/csvr 50.49 50.49 ${tempDamp} ${seed}
fix             3 all temp/csvr 50.49 50.49 100 ${seed}
fix             3 all temp/csvr 50.49 50.49 100 745823


run             250000
PPPM initialization ...
  extracting TIP4P info from pair style
  using 12-bit tables for long-range coulomb (../kspace.cpp:340)
  G vector (1/distance) = 0.37539088
  grid = 30 30 30
  stencil order = 5
  estimated absolute RMS force accuracy = 0.0031627135
  estimated relative force accuracy = 9.5244176e-06
  using double precision FFTW3
  3d grid and FFT values/proc = 5400 960
Last active /omp style is kspace_style pppm/tip4p/omp
Neighbor list info ...
  update every 1 steps, delay 7 steps, check yes
  max neighbors/atom: 2000, page size: 100000
  master list distance cutoff = 10.8154
  ghost atom cutoff = 10.8154
  binsize = 5.4077, bins = 5 5 5
  1 neighbor lists, perpetual/occasional/extra = 1 0 0
  (1) pair lj/cut/tip4p/long/omp, perpetual
      attributes: half, newton on, omp
      pair build: half/bin/newton/omp
      stencil: half/bin/3d
      bin: standard
Per MPI rank memory allocation (min/avg/max) = 10.56 | 10.57 | 10.57 Mbytes
Step Temp PotEng TotEng E_pair E_mol Press Lx Ly Lz Volume Pxx Pyy Pzz Pxy Pxz Pyz Enthalpy 
 6000000    52.552773   -9955.5243   -9755.1692   -9955.5243            0    8159.5488    24.627132    24.677027    22.718432    13806.545    8340.3753    7833.2818    8304.9893    -145.4861    365.92615    217.98341   -8112.2089 
 6001000    50.003913   -9969.0984   -9778.4606   -9969.0984            0    7898.4129    24.678087    24.614879    22.721443    13802.098    7801.7884    8256.5345    7636.9158    -75.36634    19.961188    89.327011   -8188.5936 
 6002000    51.619022   -9971.9224   -9775.1272   -9971.9224            0    8435.2691    24.584468    24.711395    22.682527     13780.01    8802.9344    7881.6083    8621.2646     40.22859   -110.78569    92.238567   -8079.9139 
 6003000    50.192529   -9963.2131   -9771.8563   -9963.2131            0    9264.1782    24.644155    24.620306    22.668062     13753.77    8699.1776    9466.8385    9626.5184    153.35255    78.342185    490.23748   -7913.6045 
 6004000    50.035643   -9968.0855   -9777.3268   -9968.0855            0    9146.7838    24.577034      24.6386    22.692741    13741.447    8957.2934    9931.4045    8551.6534   -197.86077    217.72446    303.39104   -7944.2665 
 6005000    50.717236   -9961.4847   -9768.1275   -9961.4847            0    9107.8589    24.576961    24.600335     22.73853    13747.748    9180.3391    9118.1539    9025.0838    123.91483   -482.10861     113.7703   -7942.0308 
 6006000    50.377214   -9956.9886   -9764.9277   -9956.9886            0    9044.5089    24.559197     24.68997    22.690046    13758.468    9695.5323    8373.1293    9064.8649   -406.26686   -359.70761    694.97569   -7950.1185 
 6007000    49.177507   -9963.2834   -9775.7963   -9963.2834            0    9287.9761     24.60395     24.68401    22.619581    13737.418    9031.5512    9034.6064    9797.7708   -292.55485   -204.74713    46.335288   -7914.9861 
 6008000    49.715359   -9966.0266   -9776.4889   -9966.0266            0    8943.4887     24.66011    24.628548    22.646942    13754.455    8592.3638    9430.9389    8807.1634   -497.86517   -172.12972    255.72165   -7982.4732 
 6009000    51.514409   -9961.8223   -9765.4259   -9961.8223            0    8674.2861    24.676837    24.608662    22.686019    13776.402    8256.8177    8957.3388    8808.7017   -12.901973     293.9572    407.39859   -8022.6345 
 6010000     50.49826   -9962.2988   -9769.7764   -9962.2988            0    8898.0696    24.564871    24.642838    22.736163    13763.294    9215.6087    8915.8274    8562.7727    441.57638   -213.95617    439.18911   -7983.7245 
 6011000    48.891515   -9960.3881   -9773.9914   -9960.3881            0    8890.5741    24.640318    24.621852    22.692246    13767.165    8464.7738    9221.4536     8985.495   -202.86927    151.76334    171.84776    -7988.942 
 6012000    52.337559    -9966.958   -9767.4233    -9966.958            0     8257.039    24.636392    24.669565    22.687995    13789.062     8556.059    7989.9032    8225.1549    112.93282    6.8724843    241.25566   -8106.9383 
 6013000    52.419712   -9967.9282   -9768.0803   -9967.9282            0    8415.6793     24.66361    24.709859    22.600199    13773.337    7745.8549    8094.0401    9407.1429    -117.4137   -140.40055    233.67245   -8077.6229 
 6014000    49.984691   -9972.3051   -9781.7407   -9972.3051            0    8866.4589    24.611764    24.606643    22.716112     13757.17    9070.4071    9411.6719    8117.2975   -41.081235    4.8577111    194.04948   -8002.8257 
 6015000    49.209879   -9957.5246   -9769.9141   -9957.5246            0    9346.8427      24.5806    24.678641    22.654426    13742.533    9225.8977    9243.0641    9571.5662    253.25152   -353.28009   -56.319271   -7896.6129 
 6016000    51.374031   -9964.4168   -9768.5555   -9964.4168            0    9293.9575     24.62608    24.642549    22.645653    13742.501    9240.5341    9443.0965    9198.2419   -65.077846     135.9151     619.6557    -7905.858 
 6017000    52.041698   -9970.9432   -9772.5366   -9970.9432            0     8588.131    24.602149    24.682045    22.691561    13779.027    9207.0915    8280.5631    8276.7385   -309.59665   -346.73185     357.3595    -8046.726 
 6018000    50.367606   -9975.3774   -9783.3531   -9975.3774            0    8242.3704    24.627008    24.636478    22.713999      13781.1    8279.1629    8127.1409    8320.8074    62.469627   -19.653792     156.2104   -8126.7751 
 6019000    51.489532    -9974.177   -9777.8754    -9974.177            0     7957.279    24.638017    24.675766    22.689264    13794.209    8281.3889    7993.3886    7597.0594    249.37722   -500.53227    60.457385   -8177.0746 
 6020000    50.911927   -9971.8957   -9777.7962   -9971.8957            0    8443.7418    24.617114    24.653677    22.694005    13773.046     8009.075    8590.9569    8731.1934   -356.84387   -347.74973    366.96614   -8081.7378 
 6021000    50.460584    -9967.586   -9775.2073    -9967.586            0    8833.9314    24.641197    24.641638    22.661429    13760.007     7798.313    9374.0367    9329.4446   -10.807124     220.5458   -452.03218   -8002.4529 
 6022000    50.062144   -9960.0542   -9769.1945   -9960.0542            0    8602.3309    24.593717    24.606045    22.770222    13779.494    8569.9413    9167.5604     8069.491   -68.405269   -18.064687    -9.799273   -8040.4719 
 6023000     49.77267   -9973.3282   -9783.5721   -9973.3282            0    8740.6725    24.648824    24.632091    22.667732     13762.76    8241.4226    9000.5884    8980.0065    -267.0797     -273.414   -148.38937   -8029.1815 
 6024000    52.489949   -9961.8475   -9761.7319   -9961.8475            0    8792.6758    24.615687    24.626208    22.716568     13770.58    8885.2609    9076.0374    8416.7292    -150.4044   -336.26594    366.50723   -7995.9007 
 6025000    50.455187   -9966.5819   -9774.2237   -9966.5819            0       8292.1    24.641195    24.640527    22.691361    13777.559    8341.3941    8617.0858    7917.8201   -305.78659    244.53703   -282.42034    -8108.079 
 6026000    51.161486   -9960.1236   -9765.0727   -9960.1236            0    8831.6688    24.580496    24.675651    22.679214    13755.844    9489.8187    8727.9017    8277.2861   -405.25418   -299.37569    187.87381   -7993.3085 
 6027000    50.681531   -9964.2344   -9771.0133   -9964.2344            0    8944.2821    24.652873    24.628034    22.660377    13758.288    8198.8318    8762.4873     9871.527   -326.97771    121.14094   -10.234837   -7976.3384 
 6028000    51.659298   -9974.4875   -9777.5387   -9974.4875            0    8426.8809    24.605458    24.644434    22.719165    13776.619    9128.2414    8000.1553    8152.2461   -26.687786   -766.33965   -91.019329   -8084.4278 
 6029000    49.568647   -9969.7205   -9780.7422   -9969.7205            0    8356.5779    24.610524    24.641969    22.727457    13783.106    8435.8099     8434.455    8199.4688    164.76624   -329.75941    499.11966   -8100.9659 
 6030000    50.079753   -9962.4661   -9771.5392   -9962.4661            0    8342.8692    24.673653    24.640179    22.677345    13786.992    8162.9976    8582.0873    8283.5228   -215.44388    131.52107    153.44048   -8094.0457 
 6031000    53.198644    -9965.072   -9762.2545    -9965.072            0    8985.8761     24.61288     24.67006     22.65412     13755.61    8786.2972    9286.0075    8885.3237   -443.58058    237.29242    79.467061   -7959.5848 
 6032000    51.870576   -9961.4279   -9763.6736   -9961.4279            0    8917.6425    24.657674    24.602508     22.67171     13753.58    8452.7344    9420.8281    8879.3649    48.486714   -501.03525    405.68887   -7974.9563 
 6033000    52.001487   -9966.8873    -9768.634   -9966.8873            0    9062.9616    24.636532     24.65354    22.649408    13756.745    8693.4008    9221.6832    9273.8007   -51.365369   -84.070327    105.63099   -7950.3499 
 6034000    49.816734    -9970.149   -9780.2249    -9970.149            0    9323.9383    24.560828    24.655535    22.692104    13741.438    9699.3295    9194.7124     9077.773   -67.717585    139.21013   -174.39616   -7911.6631 
 6035000    49.543806   -9972.9569   -9784.0734   -9972.9569            0    8847.1158    24.641272    24.616018     22.68189    13758.154     8709.184    9038.8001    8793.3634   -120.06459   -743.33436    638.24276   -8008.9123 
 6036000    50.188919   -9964.9949   -9773.6519   -9964.9949            0      8542.73    24.597928    24.694636    22.663532    13766.665    8937.6815    8350.2088    8340.2997    239.29903   -452.34652   -377.81577    -8058.505 
 6037000    50.371214   -9967.4577   -9775.4197   -9967.4577            0    8084.5389    24.658486    24.717192    22.622392    13788.088    8149.1198    7581.2227    8523.2743   -259.00757    10.037773    167.47298   -8149.7392 
 6038000    50.572333   -9963.1904   -9770.3856   -9963.1904            0    8526.1952    24.640663    24.660726    22.670911    13776.129    8311.4419    8608.7481    8658.3956   -74.681835   -79.728861     259.7669   -8057.3816 
 6039000    49.860627   -9971.2081   -9781.1166   -9971.2081            0    8431.3273    24.566963    24.674162    22.727507    13776.715    8893.5495    8083.4328    8316.9995   -274.27816     43.30771    500.52864   -8087.1006 
 6040000    51.523426   -9973.4157   -9776.9849   -9973.4157            0    8889.1047    24.575934    24.608206    22.758866    13763.872    8953.6712    9482.6927    8230.9503   -159.44824   -475.29921    435.15551   -7992.6576 
 6041000    49.416817    -9972.181   -9783.7815    -9972.181            0    8805.6068    24.593671    24.680152    22.667222    13758.449    9008.6773    8697.2766    8710.8667   -303.64634   -472.88208    170.64992   -8016.9113 
 6042000    50.547135   -9969.7052   -9776.9964   -9969.7052            0      8265.98    24.654293    24.678525    22.650866    13781.502     8583.341    7743.9484    8470.6505   -399.89824   -313.98836     203.5067   -8115.6248 
 6043000    51.169197   -9965.9402   -9770.8598   -9965.9402            0    8230.7832    24.638054    24.692323    22.654413    13782.283    8317.4487    8110.4329    8264.4679   -400.74348    137.41425    -83.02913   -8116.4686 
 6044000    50.218058   -9966.1595   -9774.7054   -9966.1595            0    8118.3478    24.580635    24.717789    22.693381    13788.021    8442.7154    7702.4058    8209.9222   -259.54632   -756.46497    -541.4784   -8142.2344 
 6045000    49.826947   -9971.9508   -9781.9877   -9971.9508            0    9209.2208    24.643109    24.615571    22.648793    13738.853    9022.1291    8792.5288    9813.0047    105.62566   -220.89157   -38.815992    -7936.763 
 6046000     51.85272   -9958.7455   -9761.0592   -9958.7455            0    9379.3587    24.547462    24.684481    22.688098    13747.657    10062.439    8858.6459    9216.9912    139.85732   -41.170897   -29.036551   -7880.5403 
 6047000    51.220187   -9968.7515   -9773.4768   -9968.7515            0    9125.1111    24.565588     24.72069    22.623973    13739.047    9358.6772    8717.7404    9298.9156   -559.45752   -200.72095   -666.77783   -7945.0791 
 6048000    48.720178   -9959.8619   -9774.1183   -9959.8619            0    8610.5643    24.673978    24.622359    22.663614     13768.86    8386.6813    8531.0039    8914.0079   -93.434713    -331.4158    120.70134   -8045.0765 
 6049000    51.981537   -9970.6645   -9772.4872   -9970.6645            0    8053.3071    24.625612    24.672551    22.697607    13790.536    7695.1182     8815.305    7649.4983   -47.412845   -423.62401     268.6484   -8152.7994 
 6050000    52.441443   -9967.8497    -9767.919   -9967.8497            0    8216.8614     24.63699    24.694954    22.653642    13782.688    8263.9009    7923.1355    8463.5477   -149.55817   -62.738935   -7.9925829   -8116.2776 
 6051000    50.084204   -9968.0883   -9777.1445   -9968.0883            0    7946.0649    24.626466    24.682508    22.702002    13799.252    8116.9599    7909.3069    7811.9279   -587.30506   -596.06658   -461.10572   -8178.0154 
 6052000    50.153998   -9964.2004   -9772.9905   -9964.2004            0    8760.2868    24.653676    24.625659    22.682519    13770.853    8364.6885    8816.1509    9100.0211     -217.455   -45.695769    723.85521   -8013.6291 
 6053000    51.459806   -9968.7212   -9772.5329   -9968.7212            0    8955.3101    24.577624     24.70556    22.643811    13749.412    9528.1753    8315.8143    9021.9407   -385.63793    76.016543   -239.48043   -7976.8046 
 6054000     51.50164   -9967.5272   -9771.1795   -9967.5272            0    8718.4996    24.610734    24.658819     22.68567     13767.29    8916.2566    8901.4614    8337.7807    423.89438   -228.02228    650.34718   -8020.6635 
 6055000    50.385665   -9960.4294   -9768.3363   -9960.4294            0    8892.1133    24.559648    24.670698     22.71841    13765.168    9558.8241    8580.1333    8537.3825   -203.23999   -707.67927    623.09061   -7983.2369 
 6056000    49.826723   -9955.2663   -9765.3041   -9955.2663            0    8665.9742    24.575773    24.655909    22.727529    13771.474    8827.6799    8907.5464    8262.6963     5.373727   -96.511325   -309.17307   -8024.8055 
 6057000    50.208205   -9966.3913   -9774.9747   -9966.3913            0    8482.9393     24.62501    24.607044    22.750667    13785.737    8019.3578    9166.2882    8263.1719   -292.56177   -801.69632     145.8267   -8069.4727 
 6058000    48.851376   -9965.0444   -9778.8006   -9965.0444            0    8250.7653    24.632979    24.668778    22.696125    13791.652    8358.5707    8291.8569    8101.8682    78.948789   -391.77881  -0.86082976   -8119.2656 
 6059000    47.952797   -9956.7399   -9773.9219   -9956.7399            0     8590.676    24.588505    24.618461    22.759211    13776.859    8758.8429     9035.184     7978.001   -324.11671   -609.41976    140.04475   -8047.8716 
 6060000    49.772466   -9970.4854   -9780.7301   -9970.4854            0    8896.8988    24.662408    24.590092    22.685853    13757.855    8314.0545    9300.5128    9076.1291   -68.708024   -716.83291    154.62856   -7995.6189 
 6061000    50.391215   -9967.6791   -9775.5648   -9967.6791            0    9376.7433    24.555595    24.694388    22.660965    13741.278    9838.1673    8942.0908    9349.9717   -406.54876   -200.58327    -78.74874   -7896.4425 
 6062000    51.996976   -9966.0779   -9767.8418   -9966.0779            0    9844.8184    24.608376    24.615203    22.645268    13717.149    9204.4151     10304.28     10025.76   -47.524058   -513.54587    376.94443   -7798.3805 
 6063000    49.707727   -9951.0562   -9761.5477   -9951.0562            0    9255.7397    24.588123    24.678166      22.6721    13757.198    9317.0638    8773.5351    9676.6203     -281.355   -105.74837    542.26427   -7904.5258 
 6064000    51.068265   -9963.2692   -9768.5737   -9963.2692            0    9159.3197     24.58449    24.661179    22.688287    13755.511    9433.8722    8816.0936    9227.9935   -605.34485   -33.553538    66.018674   -7931.1223 
 6065000    50.120719   -9970.4462   -9779.3631   -9970.4462            0    9131.7736    24.546873    24.655911    22.718124    13749.588    9847.9454    8826.4897    8720.8857    -48.09429    -257.3042    211.76878   -7948.2266 
 6066000    49.807088   -9953.7268   -9763.8395   -9953.7268            0    8448.8443    24.702365    24.685449     22.60142    13782.097    7628.8501    8270.8874    9446.7955   -682.52018    64.762202    383.25282   -8065.6408 
 6067000    49.963108   -9971.7764   -9781.2942   -9971.7764            0    8758.0254    24.630596    24.628353    22.682434    13759.415    8010.2151    9282.6387    8981.2224   -359.72917   -399.77678   -108.15808    -8023.848 
 6068000    49.144766   -9966.5507   -9779.1884   -9966.5507            0    8901.7102    24.650159    24.619354    22.671544    13758.702    8847.0992    9245.7841    8612.2474   -232.80011     -122.562   -249.22034   -7993.0019 
 6069000    50.002159   -9970.5418   -9779.9108   -9970.5418            0    9101.7968    24.591142    24.642951    22.686246    13747.827    9290.4632    8887.6545    9127.2728   -23.601411    93.683681    318.66482   -7955.0192 
 6070000    49.104674   -9963.7947   -9776.5853   -9963.7947            0    9459.4268    24.529172    24.663079    22.707336    13737.141    10086.337     9677.235    8614.7086   -38.520205   -294.51609    260.06955   -7881.4637 
 6071000    51.040957   -9967.5506   -9772.9592   -9967.5506            0    8858.9575    24.607024    24.629507     22.70352     13759.67    9125.5135    9039.4181    8411.9408   -106.37211   -126.56916    303.18225   -7995.2262 
 6072000    50.014795    -9961.173   -9770.4937    -9961.173            0    8594.2322    24.584082     24.67553    22.702972    13772.196    8681.3332    8549.3086    8552.0548   -32.124526   -35.171582    161.04218   -8044.3134 
 6073000    47.419184   -9967.1374   -9786.3538   -9967.1374            0    8820.7974    24.610337    24.608214    22.724042    13762.054     8793.253    9503.7111     8165.428    0.8164535   -404.17808     540.7798   -8015.9719 
 6074000    52.884061   -9974.5474   -9772.9292   -9974.5474            0    7981.8474    24.643536    24.615302    22.758334     13805.39    7923.1393    8401.6488    7620.7542   -53.066993     -281.397   -499.01201   -8165.8844 
 6075000    51.581142   -9967.2681   -9770.6173   -9967.2681            0    7997.4246    24.625182    24.663294    22.725515    13802.071    8156.2692    7914.5723    7921.4322    -312.3435   -83.980706    204.35293   -8160.8233 
 6076000    51.480156   -9972.5077   -9776.2419   -9972.5077            0    8410.4151    24.657057    24.635562    22.683404    13778.818    8241.8897    8657.0619    8332.2936   -15.501704   -235.98832   -502.75051   -8086.1696 
 6077000    48.761716    -9969.961   -9784.0591    -9969.961            0    8279.2304    24.628871    24.663722    22.690808    13783.296    8663.0622     7897.964     8276.665   -355.76849    43.985517     11.61207   -8119.8076 
 6078000    51.711207   -9960.6242   -9763.4775   -9960.6242            0    9423.7518    24.612126    24.641202    22.659168    13742.159    9563.0076    9522.7482    9185.4997   -525.63209    -736.5873    252.76155   -7874.8134 
 6079000    49.331066   -9963.1024   -9775.0298   -9963.1024            0     9016.114    24.640335    24.625289    22.664849    13752.472    8835.5464    8954.3498    9258.4457    269.75977    28.269227    183.65727   -7966.7067 
 6080000    50.152824   -9961.6433   -9770.4379   -9961.6433            0    9589.0477     24.54872    24.605406    22.744396    13738.326    9801.4815     9759.629    9206.0325    382.79205   -250.92943   -215.98337   -7849.1822 
 6081000    51.793247   -9962.1483   -9764.6888   -9962.1483            0    9187.1375    24.595814    24.631225    22.698767    13751.481    9202.8532    9410.4715    8948.0879   -112.50827   -308.60553    -113.7108   -7922.1969 
 6082000    50.597516   -9964.9563   -9772.0555   -9964.9563            0    9161.1115    24.567566    24.617279    22.734741    13749.667    9283.5717    9833.4671    8366.2958   -474.38982   -752.41286   -123.63927   -7935.0256 
 6083000    49.178956    -9968.291   -9780.7984    -9968.291            0    8906.9474    24.505159    24.692346     22.72977    13753.554    9692.1483    8224.3985    8804.2954    454.22964    46.887617    453.34572   -7994.2297 
 6084000     51.44355   -9963.3521   -9767.2259   -9963.3521            0    8333.2241    24.657055    24.637366    22.683084    13779.631    8256.5905    8490.5975    8252.4844    83.664723    502.45141    122.81005   -8092.5663 
 6085000    49.232782   -9964.6545   -9776.9567   -9964.6545            0    8216.7122     24.59914    24.658138    22.726089     13784.94    8854.5489    7810.4126     7985.175    -86.03644    270.12888   -819.13202   -8125.0753 
 6086000    51.840136   -9971.4828   -9773.8445   -9971.4828            0    8603.9327    24.640858    24.615777    22.714982     13777.86    8753.8686    8937.4938    8120.4357    10.998302   -32.163263    318.36531   -8045.0051 
 6087000    49.800241   -9964.6256   -9774.7644   -9964.6256            0    8511.9471    24.589431     24.66302    22.722875    13780.279      9147.49    8329.7398    8058.6115    1.6137941   -18.460981   -324.24508   -8064.1078 
 6088000    51.422457   -9962.4941   -9766.4483   -9962.4941            0      8696.25    24.588723    24.605264    22.759138    13769.552    9019.3149     9233.481    7835.9542   -14.291483   -457.26689     108.8086   -8020.1127 
 6089000    49.185054   -9972.7163   -9785.2004   -9972.7163            0    8616.6685    24.617185    24.662125    22.685464     13772.62    8944.6525    8297.6237    8607.7292   -336.09476   -402.32626   -15.835692   -8054.4604 
 6090000    52.085432    -9965.313   -9766.7396    -9965.313            0     8924.151    24.565688    24.632979    22.730075    13754.561    8844.9853     9653.789    8273.6785   -282.23671   -59.555385   -294.60958   -7976.5892 
 6091000    48.069883   -9960.0926   -9776.8283   -9960.0926            0    9646.8581    24.655611    24.592047    22.643365    13729.396    9191.4673    9722.7597    10026.347   -118.50478    107.86039    17.771282   -7845.2461 
 6092000    50.321688   -9963.6387   -9771.7895   -9963.6387            0    8974.9625    24.622609    24.638281    22.682669     13760.64    9103.5354    9176.3054    8645.0468   -242.76034   -478.10207    84.723474   -7970.6508 
 6093000    50.448259    -9966.519   -9774.1872    -9966.519            0    8036.1538    24.614085    24.695997    22.689709    13792.379    8252.2446    7736.7516    8119.4653    136.39802   -425.70812     314.2029   -8157.7333 
 6094000    50.984142   -9969.9318    -9775.557   -9969.9318            0    8412.7652    24.632357    24.672558    22.673019    13779.375    8479.2506    7945.0711     8813.974   -164.68909   -69.696677    10.461624   -8084.9442 
 6095000    48.595198   -9971.6092   -9786.3422   -9971.6092            0    8577.9837    24.608521    24.651464    22.699295    13770.211    8473.2346    8861.3581    8399.3584   -186.86035    60.011085    238.08454   -8063.6737 
 6096000     50.87669   -9971.4155   -9777.4504   -9971.4155            0    8024.9212    24.613261    24.687877    22.701539    13794.571    8535.3646    7488.7331    8050.6659    -159.3163   -903.80793   -96.880896   -8162.9994 
 6097000    49.700207   -9962.0966   -9772.6167   -9962.0966            0    8171.2646     24.61048    24.636762    22.749031     13793.25    8170.5272      7966.92    8376.3467   -712.27309    718.05007     -316.984   -8128.8818 
 6098000    49.994125   -9972.9347   -9782.3343   -9972.9347            0    9075.1235    24.567734    24.632515    22.713972    13745.703    9799.8921    8330.6781    9094.8003    -76.45774   -267.90437    547.66949   -7963.0717 
 6099000    50.992367   -9961.9591    -9767.553   -9961.9591            0    8846.3786    24.553353    24.690936    22.695197    13758.856    9274.9035    8538.8871    8725.3453   -30.856963   -358.06627    718.27931   -7992.4492 
 6100000    49.255816   -9965.7025   -9777.9169   -9965.7025            0    9030.2992    24.586298    24.645958    22.688188    13747.973    9627.6898    8706.1773    8757.0306   -17.300981   -438.79808   -105.46201   -7967.3412 
 6101000    49.261478    -9960.693   -9772.8858    -9960.693            0    9424.8462    24.615151    24.649045    22.624841    13727.396    9354.3365    9179.9934    9740.2087    72.892025    10.113324    83.172261   -7886.0317 
 6102000    50.734544   -9959.2208   -9765.7976   -9959.2208            0    9235.7517    24.566211    24.657948    22.698159    13749.463    9133.7446      9438.07    9135.4405   -92.340973   -341.66339   -143.52712   -7913.8279 
 6103000    49.152581   -9957.2684   -9769.8763   -9957.2684            0    9117.8859    24.591887    24.604598    22.729994    13753.317    9388.5084    9295.9737    8669.1756   -463.89806    199.70364    43.789356   -7941.0288 
 6104000     51.55107   -9971.5541   -9775.0179   -9971.5541            0    8753.0383    24.592038     24.66264    22.690406    13761.835    8970.1932    8497.0233    8791.8985    55.665298    -279.5025    425.65661   -8018.2634 
 6105000    50.021565   -9961.8568   -9771.1518   -9961.8568            0    8679.0234    24.617458    24.652323    22.685811    13767.509    8552.5442    8886.3678    8598.1583   -367.03994   -267.47566    118.09905   -8028.5341 
 6106000    50.216843   -9966.3844   -9774.9349   -9966.3844            0    9582.5444     24.63013    24.666999    22.594548    13727.349    9100.1845    9586.4307    10061.018   -307.65791   -79.540433     136.1182   -7856.5162 
 6107000    50.174925   -9964.7141   -9773.4244   -9964.7141            0    8798.4963    24.662245    24.632583    22.650053     13759.79    8310.3838     9019.067    9066.0382   -171.98258    182.04582    18.488191   -8007.8089 
 6108000    50.625032   -9966.7339   -9773.7282   -9966.7339            0    8776.2307    24.683834     24.63402    22.638482    13765.602    8010.4256    9507.4455     8810.821   -351.94698    180.47753    35.650993   -8011.8368 
 6109000    50.738027   -9972.2366   -9778.8001   -9972.2366            0    8495.4226    24.607521    24.670739    22.689206    13774.293    8456.4147     8521.316    8508.5372   -191.47415    320.08233    465.93628   -8072.2062 
 6110000    50.259041   -9973.8944    -9782.284   -9973.8944            0    8466.9247    24.619411    24.639687    22.707066    13774.438    8468.5994    8789.8107    8142.3641   -288.62563   -287.01127    370.43461    -8081.397 
 6111000    51.141139   -9971.4238   -9776.4504   -9971.4238            0    8405.4265    24.607519    24.671732    22.702341    13782.821    8758.4699    8327.0201    8130.7896      -289.69   -173.43447    32.187545   -8086.8899 
 6112000    50.647681   -9966.1856   -9773.0935   -9966.1856            0     8536.882    24.706827    24.583528    22.684364    13778.051    8084.2365    9189.7742    8336.6354    240.21596   -89.383495     661.0269   -8057.7032 
 6113000     49.82904   -9964.5058   -9774.5348   -9964.5058            0    8669.4492     24.58093    24.694933    22.684554    13770.078    8518.4329    8357.0317     9132.883   -364.14618   -403.61147    151.61874   -8033.5146 
 6114000    52.666529   -9961.5726   -9760.7838   -9961.5726            0    9107.4342    24.594896    24.639696    22.705143    13759.561    9069.0507    9447.3773    8805.8746   -623.45512   -322.83825    198.67601   -7933.2033 
 6115000    52.255146   -9964.5342   -9765.3138   -9964.5342            0    8581.8258    24.592916    24.663107    22.701659    13769.412    8836.7785    8376.3039     8532.395   -615.54919   -159.66016   -34.420723   -8041.9737 
 6116000    48.623812   -9964.1761      -9778.8   -9964.1761            0    8670.1896    24.624255    24.629345    22.701405    13767.932    8283.5058    9435.5928    8291.4701   -208.44222   -386.11643    87.175344   -8037.9025 
 6117000    49.622509   -9975.6932   -9786.5096   -9975.6932            0     8593.126    24.634961    24.599092    22.715968    13765.824    8686.5333    8865.2992    8227.5454   -73.136752   -160.76255   -387.09923     -8061.35 
 6118000    49.269879   -9966.9703   -9779.1311   -9966.9703            0    9336.4519    24.588625    24.642287     22.66619    13733.897    9428.1724    9287.2631    9293.9204    137.38274    -56.82204    538.02577   -7909.0883 
 6119000    50.658168   -9965.4212   -9772.2892   -9965.4212            0    8878.4255    24.618801    24.636846    22.685969    13759.712    8799.4139    9177.7091    8658.1536     275.7658   -471.03589   -96.767224   -7990.6442 
 6120000    49.709649   -9962.5129    -9772.997   -9962.5129            0    9072.8893    24.628399    24.630956    22.654561    13742.733    9437.7326    8728.7125    9052.2228   -373.93686    -385.0921     323.3411   -7954.5753 
 6121000    49.842875   -9964.9162   -9774.8925   -9964.9162            0    9170.6379    24.623613       24.576    22.731264    13755.822    9156.0894    9172.5379    9183.2864   -110.21364   -387.66809    237.29034    -7935.129 
 6122000    50.776978   -9961.1288   -9767.5438   -9961.1288            0    8955.8102    24.653127    24.661063    22.637141    13762.755    8606.3546    8768.9589    9492.1172    -352.7436    560.34344      997.935   -7969.9725 
 6123000    49.128956   -9965.6999   -9778.3979   -9965.6999            0    9161.3169    24.587199    24.665968    22.671412    13749.464    9221.6706    8801.6364    9460.6435   -43.586714    -17.24695    486.13988   -7941.3538 
 6124000    51.575858   -9960.6386   -9764.0079   -9960.6386            0    8830.7963    24.616037    24.629678    22.698963    13762.043     8890.106    8847.3627    8754.9201   -200.57317    -436.9118    719.19194   -7991.6204 
 6125000    52.295786   -9964.8094    -9765.434   -9964.8094            0    8605.5954    24.634299    24.666874    22.669418    13775.098    8464.2682    8539.8906    8812.6275   -410.88776    43.885116   -315.20656   -8036.6071 
 6126000    50.212369   -9968.7317   -9777.2992   -9968.7317            0     8002.332    24.680294    24.688851    22.632843    13790.828    8047.2753    8054.3672    7905.3536     23.97918   -183.50113    72.691993   -8167.8296 
 6127000    51.047806   -9965.3996   -9770.7821   -9965.3996            0    8725.1828    24.535013      24.7095    22.710808     13768.38    9536.2354    7648.9203    8990.3928   -351.93288    19.901904    52.107263   -8018.7854 
 6128000    50.198984   -9973.7091   -9782.3277   -9973.7091            0    8040.9576    24.630372    24.667107    22.702878    13793.361     8288.504    8088.4212    7745.9477   -151.50296   -162.18659   -75.687445   -8164.7923 
 6129000    50.234771   -9963.8133   -9772.2955   -9963.8133            0    8660.5781    24.611062    24.618476    22.729841    13771.712    8542.0666    9063.1727     8376.495   -170.42153   -662.04265    449.25293   -8032.8504 
 6130000    50.749475   -9974.4003   -9780.9202   -9974.4003            0    9116.0246    24.576086    24.636139    22.715291    13753.197    9517.6565    9068.7873      8761.63   -329.02704    -368.5665    606.53192   -7952.4619 
 6131000    48.491005   -9963.6146   -9778.7448   -9963.6146            0     8752.444    24.634738    24.633606     22.68276    13764.861     8391.312    9024.5942    8841.4258   -396.17138    -366.0343    612.27111   -8021.7233 
 6132000    50.106616   -9960.7908   -9769.7616   -9960.7908            0    9674.0136    24.561477    24.666811    22.665622    13732.042    10115.794    9609.9176    9296.3288    37.132696   -598.57214    694.69036   -7832.3686 
 6133000    50.493574   -9966.6653   -9774.1608   -9966.6653            0    8945.8558    24.656182    24.617803    22.661533     13755.12     8792.606    9128.0834    8916.8779    -539.8483   -49.571309    460.52429   -7979.5835 
 6134000     50.84006   -9972.1742   -9778.3487   -9972.1742            0    9198.4462    24.634833    24.660489    22.619111    13741.269    9097.8686    9140.1748    9357.2951     -413.924    -652.5221   -153.05016   -7934.9588 
 6135000    49.197338   -9970.8534   -9783.2907   -9970.8534            0    9003.3395    24.605443    24.686771      22.6408    13752.677    8820.5297    8668.4092    9521.0795   -524.82087    217.51618   -70.654131   -7977.5027 
 6136000    51.315401   -9963.6043   -9767.9666   -9963.6043            0    9443.0286    24.614347    24.662564    22.620512    13731.848    9398.1057    9125.4541     9805.526   -477.29809    -410.2399    588.72706   -7876.8592 
 6137000    50.415906   -9971.5675   -9779.3591   -9971.5675            0    8738.9027    24.638218    24.636564    22.676318    13764.548    8405.1934    9059.4452    8752.0695   -241.55564    -138.3311    194.41813   -8025.0959 
 6138000    50.778489    -9965.877   -9772.2863    -9965.877            0    8920.1514    24.653737    24.617653    22.676438    13762.719    8369.8097    9004.3654     9386.279   -686.75542    174.91774    542.41978   -7981.8769 
 6139000    49.312755   -9967.7413   -9779.7386   -9967.7413            0    8945.1237    24.580612    24.697341    22.670493    13762.707    9234.1634    8663.6736    8937.5342    135.18498   -197.15517    130.97157   -7984.3185 
 6140000    50.734768   -9967.0566   -9773.6326   -9967.0566            0     8763.917    24.542106    24.678193     22.72823    13765.463    9164.7491    8638.1195    8488.8823    -297.0459    -154.3148    913.73301   -8014.2311 
 6141000    49.029618   -9969.6244   -9782.7012   -9969.6244            0    8257.3037     24.66293    24.618769    22.693874    13779.062    8161.2289    8386.7132    8223.9689   -512.72187   -121.64279   -27.495576   -8123.3672 
 6142000     48.18518   -9966.6574   -9782.9535   -9966.6574            0    8166.4218    24.650655    24.619331    22.721966    13789.567    8074.6648    8639.6934    7784.9073   -168.62298   -92.599804    345.22381   -8140.6315 
 6143000    49.417501   -9964.0346   -9775.6326   -9964.0346            0    8764.6672    24.574537    24.662612    22.723098     13771.84    9273.9177    8292.9126    8727.1712   -28.829355    246.69998   -413.71342   -8015.2653 
 6144000    49.287673   -9966.4232   -9778.5161   -9966.4232            0    8351.7065    24.578523    24.695087    22.698401     13777.22    8749.5038    8040.8406    8264.7752    274.60928   -211.74576   -253.49615   -8100.4358 
 6145000    52.365254   -9963.7808   -9764.1406   -9963.7808            0    8946.4049    24.572759    24.672476    22.699615    13762.114    9224.8877    8989.3089    8625.0181    34.940361   -581.07971   -75.329797   -7968.5407 
 6146000    50.793322   -9969.3476   -9775.7003   -9969.3476            0    8688.0704    24.613892    24.657577    22.674578    13761.631    8766.4411    8750.1378    8547.6322    -18.46784   -398.86105   -278.08232   -8032.0109 
 6147000    50.683808   -9969.9098     -9776.68   -9969.9098            0     8913.615     24.54889        24.67    22.708213    13752.573    9808.2217    8314.9032    8617.7202   -103.60548   -110.63744    193.17806   -7988.9015 
 6148000    50.683068   -9975.7368   -9782.5099   -9975.7368            0    8924.1814    24.615624    24.577124    22.740337    13757.477    8504.6177    9379.3051    8888.6212    21.038157   -3.7770489   -108.97573   -7991.9738 
 6149000     50.30534   -9965.6585   -9773.8716   -9965.6585            0    8914.3324    24.608069    24.613424    22.738569    13772.498    8839.5216    9388.6978    8514.7779    126.87894    128.99018    -165.5041   -7983.3589 
 6150000    48.889941   -9962.1005   -9775.7098   -9962.1005            0    9345.6105    24.618693    24.634249    22.665179    13745.592    9299.0808     9685.851    9051.8998    196.80917   -139.43155   -603.01418   -7902.2386 
 6151000    51.080275   -9967.7008   -9772.9595   -9967.7008            0      8858.99    24.627904    24.646387    22.673887    13762.797    8418.7466    9022.7917    9135.4317    181.01909    134.92108    1099.9898    -7994.816 
 6152000    50.078602   -9972.2208   -9781.2984   -9972.2208            0    8400.1306    24.611169    24.632704    22.737369    13784.295    8415.0988    8639.6364    8145.6566   -148.92578   -272.88657   -207.38666   -8092.6218 
 6153000    51.812797   -9970.8335   -9773.2995   -9970.8335            0    8188.1653    24.624399    24.633793     22.72408    13784.253    8303.5234     8636.513    7624.4594   -201.78424   -421.35156    505.53149   -8127.2392 
 6154000     50.20419   -9973.2643    -9781.863   -9973.2643            0    8383.5377    24.641506     24.72228    22.622617    13781.567    8444.2645     7764.436    8941.9126    -536.0195   -693.39402    142.05804   -8096.8556 
 6155000    50.917546    -9971.788   -9777.6671    -9971.788            0    8292.9949    24.632378    24.689303    22.655749    13778.236    7987.0717    8515.5233    8376.3896   -61.667042   -130.41939    7.9959856   -8111.2608 
 6156000    48.816669   -9979.9287   -9793.8172   -9979.9287            0    8570.7126    24.638736    24.682405    22.623347    13758.236    8825.9153    7786.8436    9099.3788   -390.86407   -191.68426    187.78547   -8074.1058 
 6157000    50.079472   -9968.0712   -9777.1454   -9968.0712            0    8749.2618    24.644542      24.6167    22.688762     13764.53    8698.8145    9115.0695    8433.9014   -237.74194    326.99249    820.10422    -8020.805 
 6158000    49.594876   -9965.6915   -9776.6132   -9965.6915            0    8497.1152    24.659169    24.676889    22.636415    13774.521     8188.361    8417.1782    8885.8063   -77.549849   -555.40597    -436.8854   -8069.6511 
 6159000    51.072738   -9961.3977   -9766.6851   -9961.3977            0    9133.6225    24.594656     24.67666    22.647182    13744.891    8727.7673    9204.1202      9468.98    -174.9278    204.68351    493.00874   -7935.8035 
 6160000    48.920449   -9963.2224   -9776.7153   -9963.2224            0    8767.2795    24.651447    24.670132    22.630692    13762.956    8681.3792    8599.4373    9021.0219    -17.57812    656.92814    245.23278   -8016.9593 
 6161000     47.86951   -9967.4971   -9784.9967   -9967.4971            0     9025.139    24.573278     24.64105    22.714236    13753.728     9452.227    8773.4944    8849.6954   -75.075187   -90.399306    535.60479   -7974.6981 
 6162000    50.401943    -9969.457   -9777.3018    -9969.457            0    8840.0379    24.604295    24.669279    22.668009    13758.807    8956.2483     8801.834    8762.0313   -389.96829   -67.675234    313.10798   -8003.4767 
 6163000    52.362964   -9972.8184   -9773.1869   -9972.8184            0    8396.2471    24.627557    24.619873    22.724185    13778.295    8156.0598    9090.2753    7942.4064    244.85919      545.397   -228.33561   -8086.0257 
 6164000    48.859282   -9966.1422   -9779.8683   -9966.1422            0    8591.3517    24.603969    24.606214    22.755384    13776.349    8606.9987     8913.281    8253.7753   -369.67299   -82.980511    134.62275   -8053.7462 
 6165000    50.365305   -9969.5747   -9777.5592   -9969.5747            0    8120.1661    24.631155     24.64107    22.735297    13798.916    8091.8058    8111.8764    8156.8159    47.966359   -348.53361    204.45034   -8143.4323 
 6166000    50.262299   -9964.0881   -9772.4653   -9964.0881            0    8265.7383    24.634224    24.664476    22.703517    13794.435    8736.1872    7863.5222    8197.5056   -181.31276    325.42734   -35.851623   -8109.5831 
 6167000    49.172998   -9972.5013   -9785.0314   -9972.5013            0    8545.3282    24.657654    24.620073    22.682861    13770.158    7994.1802    8851.6668    8790.1377   -251.06328   -263.84442   -456.56009   -8068.9276 
 6168000    50.620726   -9957.0794   -9764.0901   -9957.0794            0    8767.8847    24.618076    24.691774    22.652679    13769.747    8721.1973     9045.802    8536.6549   -423.14032    14.684684    90.135322   -8003.3442 
 6169000    48.576549   -9955.3694   -9770.1735   -9955.3694            0    9346.9458    24.633455    24.608048    22.670288    13742.304    8995.7903    9653.2297    9391.8173   -295.27328    255.34594    465.75388   -7896.8828 
 6170000    49.022147   -9960.8353   -9773.9405   -9960.8353            0    9102.1267    24.588214    24.684954      22.6444    13744.221     9304.326    8815.0302    9187.0238   -465.46019    122.18161     183.8507   -7949.4614 
 6171000     49.99752   -9964.4694   -9773.8561   -9964.4694            0     9611.644    24.647575    24.608256    22.639732    13731.763    8899.2012     10188.19    9747.5405    308.11742   -692.38749    219.37656   -7848.9929 
 6172000    50.784618   -9970.5417   -9776.9275   -9970.5417            0    8530.7073    24.636802    24.666334     22.66034    13770.679    8843.6688    8004.8235    8743.6296   -186.37149   -228.06367   -288.07243   -8063.6951 
 6173000    51.397235   -9969.6225   -9773.6728   -9969.6225            0    8978.5777    24.616072    24.578042    22.735541    13755.339    8491.1048    9743.8981    8700.7303   -325.71778    127.22088   -82.790997   -7972.5026 
 6174000    51.481611   -9974.4298   -9778.1585   -9974.4298            0    8846.4435    24.569497    24.674794    22.688093    13754.595    9215.7101    8708.2003      8615.42   -207.43901   -259.81225   -68.167348   -8003.5915 
 6175000     50.59917   -9969.4864   -9776.5793   -9969.4864            0    8627.8935    24.656761    24.619843    22.680132    13767.874    8381.0958    8954.0688     8548.516   -312.08826   -23.901394    435.12251   -8044.1818 
 6176000    49.787376    -9967.021   -9777.2089    -9967.021            0    8603.2215    24.577469     24.61841     22.75143     13765.94    8957.0527    8814.5966     8038.015    160.91609    85.142436   -83.323635    -8050.008 
 6177000    50.531851   -9965.4616   -9772.8111   -9965.4616            0    8437.6599    24.661812    24.660625    22.644304    13771.715    8608.7837    8389.6308    8314.5653    104.95457   -309.08375   -75.420199    -8078.138 
 6178000    50.936531   -9970.5208   -9776.3275   -9970.5208            0     8689.143    24.596112    24.685442    22.688235    13775.523    8809.9938    8653.7222    8603.7131     118.1839   -63.707351    71.756328   -8030.6624 
 6179000    51.187627    -9973.114   -9777.9634    -9973.114            0    8567.9783    24.608353    24.602986    22.747301    13772.102    8470.4131    9195.0241    8038.4978    178.20599   -73.789805    19.328832    -8057.068 
 6180000    50.479696   -9971.6425   -9779.1909   -9971.6425            0    8801.6207    24.601473    24.608423    22.721585    13755.726    8858.9471    8942.2144    8603.7005    460.79766   -71.374395    39.162311   -8013.4701 
 6181000     50.55357   -9967.3706   -9774.6373   -9967.3706            0    8652.7566     24.59067    24.629421    22.738089    13771.414     9133.647    8324.4647     8500.158   -249.19034   -664.65764   -49.125103   -8036.8008 
 6182000    53.007592   -9971.9147   -9769.8256   -9971.9147            0    8263.8371    24.615385    24.689731    22.669622      13777.4    8336.2531     8089.103    8366.1552   -326.26668     265.8334    425.40059    -8109.379 
 6183000    50.181799   -9966.4689    -9775.153   -9966.4689            0    8766.2091    24.642251    24.662749    22.642845     13761.09    8716.4691    8701.3307    8880.8276   -94.767108   -467.32181   -42.393924   -8015.8503 
 6184000    50.266547   -9967.6651   -9776.0261   -9967.6651            0    8372.8808    24.677363    24.621368      22.6721    13775.351    7824.9739     9024.161    8269.5074   -454.87639   -51.929705    631.03423   -8093.9197 
 6185000    51.563524   -9963.8795   -9767.2958   -9963.8795            0     8563.801    24.612389    24.688309    22.680255    13781.391    8946.2613    7946.7299    8798.4118   -280.18869   -716.31976    34.020762   -8046.0792 
 6186000    53.672436   -9976.7834   -9772.1596   -9976.7834            0    7881.4041    24.619784    24.657986     22.72974    13798.641    7627.1846    8482.6209    7534.4067   -186.14119     9.420087    393.03291   -8186.1135 
 6187000    48.801126   -9971.0802    -9785.028   -9971.0802            0    8582.4054    24.628402    24.638939    22.688807    13767.969    8533.8039    8553.0642    8660.3482    -94.36004   -163.43765    666.91139   -8061.7522 
 6188000    52.744976   -9968.5627   -9767.4748   -9968.5627            0    8770.2033    24.610842      24.7131    22.635324    13767.035    9639.0137    8030.5792    8641.0169   -140.73126    -116.9377    590.07746   -8006.6102 
 6189000     50.23713   -9974.1745   -9782.6476   -9974.1745            0    8989.2735    24.591524    24.658023    22.673375    13748.644    8981.9676    8666.6626    9319.1903   -202.39737   -371.50743    86.706075   -7980.2096 
 6190000    51.314922   -9961.2983   -9765.6624   -9961.2983            0    8980.6211     24.69884    24.576492    22.670763    13761.399    8623.8903    9417.8804    8900.0927   -375.85494   -255.00408     106.4248   -7963.2887 
 6191000    51.223373   -9968.5064   -9773.2196   -9968.5064            0    8607.5423    24.602332    24.673146    22.679042    13766.562    8690.0068    8644.8549    8487.7653   -366.22787   -537.71796    97.275516   -8045.0731 
 6192000    52.929007   -9969.4495   -9767.6599   -9969.4495            0    8926.2312    24.669071    24.584157    22.680343    13754.909    8455.7057    9278.7084    9044.2795   -416.21637   -498.42841    233.01101   -7977.0469 
 6193000    49.761886   -9962.3158   -9772.6008   -9962.3158            0    9403.4696    24.608502    24.686446    22.618188    13740.469      9346.87    8844.9801    10018.559   -448.58689   -411.06309    241.78918   -7888.2334 
 6194000     50.35704     -9967.45    -9775.466     -9967.45            0     8916.793    24.618213    24.625658    22.696527    13759.535    8645.4127    9207.0077    8897.9585    92.180178   -302.63275    441.28005   -7986.1447 
 6195000    50.507687   -9966.4522   -9773.8939   -9966.4522            0    8814.9274    24.618852    24.653066    22.667433     13757.55     8614.877    9287.0475    8542.8578   -658.29317   -117.30171    -6.324422   -8005.2691 
 6196000    51.665359   -9966.5303   -9769.5584   -9966.5303            0    9287.5823    24.633204    24.655446    22.621988    13739.298     9466.978    8912.5889    9483.1799   -389.46043   -85.831179    41.776216   -7908.5724 
 6197000    50.576358   -9968.4918   -9775.6717   -9968.4918            0     8802.943    24.627454    24.585136    22.734582    13765.091    8208.9025    9499.2519    8700.6748    -104.0905   -279.43584    -348.9999   -8008.4832 
 6198000    51.231688   -9968.5882   -9773.2697   -9968.5882            0    8401.5112    24.566878    24.697362    22.715536    13782.358    8951.9586    8128.9584    8123.6165    -324.3148   -528.30596    360.52987   -8084.5529 
 6199000    50.372914   -9957.7408   -9765.6963   -9957.7408            0    9085.8447     24.65062      24.6643    22.620205    13752.865    8853.6119    8735.3661    9668.5561    46.062306   -119.75041    35.804927   -7943.3354 
 6200000    51.617953    -9966.994   -9770.2028    -9966.994            0      9232.46    24.611778    24.728188    22.574068    13738.683    8832.8435    8711.5817    10152.955   -218.69196   -232.37087    529.15076   -7920.3446 
 6201000    50.379944   -9959.1738   -9767.1025   -9959.1738            0    8791.0529    24.604988    24.705289    22.648401    13767.359    8771.7942    8376.1199    9225.2445   -411.88576    50.997226      411.167   -8002.0102 
 6202000    50.291346   -9968.6274   -9776.8938   -9968.6274            0    8571.0092    24.636584    24.650134    22.672196    13768.713    8410.9663    8614.4058    8687.6556    220.09033   -279.87604     -320.852   -8055.8132 
 6203000    49.766805   -9973.7707   -9784.0369   -9973.7707            0    8751.5144    24.620771    24.650676    22.677098    13763.154    9103.8024    8685.5219    8465.2189    35.395918    -107.5473   -493.39422     -8027.42 
 6204000    50.724801   -9965.9227   -9772.5366   -9965.9227            0    8774.1414    24.641634    24.679403    22.636476    13766.165    8482.6659    8539.2981    9300.4602   -324.32148   -764.80366    474.19558   -8010.9926 
 6205000    48.546077    -9965.705   -9780.6252    -9965.705            0    8804.0329    24.655589    24.652093    22.643259    13762.842    8497.5917    8859.9003    9054.6067    15.096794    289.86946   -374.20943   -8013.5067 
 6206000     49.14397   -9977.0233   -9789.6641   -9977.0233            0     8811.446    24.610201    24.700781    22.636807    13760.715    8944.5192    8404.8618    9084.9571   -294.14704   -575.71751    396.62251   -8021.3309 
 6207000    49.111067   -9962.7503   -9775.5165   -9962.7503            0    8520.1445    24.581578    24.679508    22.709374    13776.897    8676.6309    8575.0575    8308.7453   -276.55223    110.81468    195.71888   -8063.6328 
 6208000    48.506914     -9961.37   -9776.4396     -9961.37            0    8542.2706    24.617374    24.645437    22.706075    13775.911    8692.7629    8705.8389      8228.21   -448.70865    408.16063    193.04112   -8060.2331 
 6209000    52.063033   -9963.9856   -9765.4975   -9963.9856            0    9314.9684    24.647182    24.595017    22.675662    13745.938     8952.901    9913.0542    9078.9499    25.297858   -998.02567   -135.56432    -7898.122 
 6210000    51.521522   -9966.3991   -9769.9756   -9966.3991            0    9357.8133    24.605547    24.664185    22.630034    13733.619    8831.4795    8934.3474    10307.613   -95.389518    6.4415065   -157.17752   -7895.6922 
 6211000    50.329068   -9961.9589   -9770.0815   -9961.9589            0    8954.1094    24.629912    24.663386    22.651504    13759.816    8762.2927    9013.7149    9086.3205    469.72852   -290.50226    135.70077   -7973.2353 
 6212000    49.936648   -9966.8915   -9776.5102   -9966.8915            0    8971.3107    24.606813    24.684859    22.647299    13756.325    9395.6374    8550.0268    8968.2679     -189.679    61.012783   -171.12836   -7976.6689 
 6213000    49.456537   -9963.9924   -9775.4416   -9963.9924            0    9148.0913    24.592743    24.622447    22.702324    13747.018    9083.8785    9301.1397    9059.2556   -265.45772   -404.79076   -445.13881   -7941.3759 
 6214000    50.357638   -9963.4752   -9771.4889   -9963.4752            0    8707.7288    24.596394    24.631219    22.732177    13772.043    8760.6238    9106.2348    8256.3278   -856.77618    64.037707    136.34973   -8022.5318 
 6215000    49.282605   -9965.8988    -9778.011   -9965.8988            0    8295.2105    24.624107    24.601442    22.746241    13779.412     8632.774    8925.1244    7327.7331    478.85918   -560.75222    172.76993   -8111.0172 
 6216000    49.143356   -9969.8322   -9782.4754   -9969.8322            0      8280.19    24.628137    24.636054    22.710592    13779.427    8164.6105    8136.5109    8539.4487    172.45758    299.36642    476.17911   -8118.4983 
 6217000    50.508417   -9967.9424   -9775.3813   -9967.9424            0    7651.4153    24.613259    24.699869    22.716605     13810.43     7757.538    7545.1399    7651.5679    -594.5778   -698.99546    398.07594   -8234.3025 
 6218000    50.203846   -9967.3551   -9775.9552   -9967.3551            0    8098.6811    24.679462    24.617497    22.691984    13786.438    7778.6512     8829.522      7687.87   -251.15306   -680.75613   -11.171301   -8147.6258 
 6219000    48.839701   -9966.7504   -9780.5512   -9966.7504            0    8865.1489    24.550243    24.702536    22.678647    13753.539    9761.9961     8230.412    8603.0387    -23.03368   -441.98185    107.03432   -8002.3684 
 6220000    49.477693   -9963.0421   -9774.4106   -9963.0421            0    9040.1381    24.642598    24.586905    22.704024    13756.032    8118.1997    9934.0635    9068.1511    -124.5228    1.6820598   -83.021776   -7960.7996 
 6221000      50.4912   -9970.4065    -9777.911   -9970.4065            0     8537.842    24.612117    24.662287    22.690153    13772.721    9208.5402    7944.1874    8460.7983   -581.46623   -375.00482    -129.3134   -8062.9915 
 6222000    49.159119   -9969.5665   -9782.1495   -9969.5665            0    8203.7086    24.618899    24.672793    22.684646     13779.04    8449.8552    7901.7841    8259.4866    171.71073   -194.73476    249.95121   -8133.5883 
 6223000    50.402996   -9970.3545   -9778.1953   -9970.3545            0    8024.7734    24.664426    24.675262    22.653011    13786.649    7579.7855    8553.7002    7940.8343   -255.12489   -476.11389   -329.92355   -8164.7013 
 6224000    52.132339   -9961.4835   -9762.7312   -9961.4835            0    8552.1769     24.67741    24.625207    22.664389    13772.839    8278.5714    9076.1332    8301.8263    118.73901    106.66673   -155.81319   -8044.9176 
 6225000    48.979252   -9968.4546   -9781.7234   -9968.4546            0    8446.7365    24.644442    24.714668    22.619428    13777.023    8313.3612    8055.8493    8970.9991   -361.85487   -409.97074    -216.3325   -8084.5734 
 6226000    50.408883   -9966.2407   -9774.0591   -9966.2407            0    8892.8745    24.635624    24.587642    22.709588    13755.922    8646.3646    9305.9409    8726.3181    277.56048    206.61736   -71.941407   -7990.0061 
 6227000    51.545048   -9967.1374   -9770.6242   -9967.1374            0    8670.7108    24.583448    24.609919    22.755421    13766.954    8992.4929    8988.3434     8031.296   -39.264094    291.01104   -279.13448   -8029.7457 
 6228000    52.283392   -9969.4935   -9770.1654   -9969.4935            0    8815.4546    24.558585    24.641153     22.74078    13761.625    9449.0687    8761.5597    8235.7353    18.635873     -1056.98    242.27062   -8000.9108 
 6229000    51.133122   -9972.4663   -9777.5235   -9972.4663            0    8915.1037    24.598657    24.636339    22.696078    13754.297    9096.4504    8885.0457     8763.815   -572.40991   -476.21835    165.70867   -7989.2223 
 6230000    49.626762   -9959.2717   -9770.0719   -9959.2717            0    9394.3963    24.612887    24.633918    22.666091    13742.719    9047.8132      9545.29    9590.0856    -57.53037   -414.14086    116.94161   -7887.2144 
 6231000    50.440293   -9960.1553   -9767.8539   -9960.1553            0    8763.1577    24.619002    24.627751    22.708844    13768.614    8876.8667    8894.9957    8517.6107   -13.861646   -194.13441   -80.241616   -8008.2021 
 6232000    51.036197   -9966.5596   -9771.9863   -9966.5596            0    8660.3378     24.62582    24.609759    22.728465    13774.256    8129.7221    9533.2218    8318.0695   -382.71711    375.74382    23.206418   -8032.2683 
 6233000    50.378065   -9959.7902    -9767.726   -9959.7902            0    8715.8012    24.622996    24.726299    22.609164    13765.263    8964.7998    8269.8089     8912.795   -300.39847    -387.9282    6.1000824   -8018.0094 
 6234000    50.811758   -9964.9112   -9771.1936   -9964.9112            0    8607.3793    24.595258    24.676505    22.675604    13762.391    8821.6727    8316.6184    8683.8467   -291.16888   -412.99939   -254.62085   -8043.6035 
 6235000    48.575511   -9969.8427   -9784.6507   -9969.8427            0    8049.9367    24.658133    24.684022    22.659562    13792.012    7783.4098    8083.8673     8282.533   -309.02037   -458.69711    234.64826   -8165.4676 
 6236000    51.013741   -9969.3974   -9774.9098   -9969.3974            0    8298.7729    24.624119    24.700797    22.681674    13795.796    7834.5319    8076.8434    8984.9433    409.40303    214.60928   -307.13234   -8105.2171 
 6237000    49.781217   -9972.1667    -9782.378   -9972.1667            0    8004.1826     24.68521     24.63271    22.683009    13792.713     8162.808     8122.308    7727.4319   -437.65967   -93.389325    43.036982   -8172.3162 
 6238000    52.050707   -9963.3492   -9764.9081   -9963.3492            0     8724.231    24.635153     24.67465    22.659234    13773.727    7948.1662    8888.5976    9335.9293   -148.45618   -60.005409    132.76215   -8012.4223 
 6239000    48.820279   -9957.5804   -9771.4553   -9957.5804            0    8875.2052     24.60263    24.657922    22.682703    13760.456    8774.7577     8905.778      8945.08   -442.39029    499.56327     330.6279   -7990.3601 
 6240000    51.937973   -9964.8087   -9766.7975   -9964.8087            0    8584.2424    24.654205    24.703737    22.606353    13768.422    8416.3289    8447.0272    8889.3711   -212.10674   -24.928839      361.982   -8043.0961 
 6241000     50.83021   -9965.9808   -9772.1929   -9965.9808            0    8685.0347    24.543063    24.694625    22.716257    13767.909    9215.6288    8327.2534    8512.2219   -282.60475   -232.96034    -89.96199   -8028.3176 
 6242000    50.483586   -9962.1942   -9769.7278   -9962.1942            0    8523.3806    24.643103    24.641608    22.691613    13779.384    8516.4619    8408.9359    8644.7439   -166.18468   -544.19924    139.72103   -8056.8847 
 6243000    50.686846   -9966.4422   -9773.2008   -9966.4422            0    8873.5617    24.627524    24.662206    22.640949    13751.412     8892.806    8656.1233    9071.7559   -493.60814   -79.664372    823.67303   -7993.6059 
 6244000    50.985232   -9973.9716   -9779.5926   -9973.9716            0    8608.2728    24.633539    24.607005    22.720879    13772.434    8184.9404    8931.0242    8708.8538    50.203127   -395.88478   -75.689237   -8050.5623 
 6245000    50.769004   -9968.8387   -9775.2841   -9968.8387            0     8178.894    24.642438    24.663095    22.686379    13787.846    8046.7217    8208.8651    8281.0953   -424.42292    54.529061    380.14852    -8130.659 
 6246000    50.045312   -9972.6123   -9781.8167   -9972.6123            0    7972.2368    24.604445    24.635352    22.758598    13794.878    8459.4438    8010.0422    7447.2246    79.761344   -480.78709    -397.3635   -8177.9291 
 6247000    49.597833   -9956.8099   -9767.7204   -9956.8099            0    7869.8092    24.637015    24.674157    22.706422    13803.179    7699.1968      8004.42    7905.8109   -69.385722   -963.72413    627.57944   -8183.4868 
 6248000    49.459572   -9973.9987   -9785.4362   -9973.9987            0    8121.2087     24.63231    24.648998    22.704542     13785.33    8392.5453     8121.306    7849.7746   -412.47164    92.281693    175.89398   -8152.7087 
 6249000    49.715041   -9972.6285   -9783.0921   -9972.6285            0     9051.351    24.595757    24.648942    22.684595    13752.749    9581.0656     8675.761    8897.2264   -323.87555   -6.3284136   -292.09366    -7967.665 
 6250000    50.561044   -9959.7421   -9766.9804   -9959.7421            0    8959.4304    24.607411    24.625386    22.706703    13759.512    8773.1381    9272.8722     8832.281     128.7912   -46.374694    423.79797    -7969.106 
Loop time of 541.698 on 64 procs for 250000 steps with 1920 atoms

Performance: 79.749 ns/day, 0.301 hours/ns, 461.512 timesteps/s
194.2% CPU use with 32 MPI tasks x 2 OpenMP threads

MPI task timing breakdown:
Section |  min time  |  avg time  |  max time  |%varavg| %total
---------------------------------------------------------------
Pair    | 72.734     | 75.022     | 79.115     |  14.7 | 13.85
Bond    | 0.83801    | 1.0616     | 1.4937     |  15.2 |  0.20
Kspace  | 251.37     | 258.58     | 265.14     |  18.3 | 47.73
Neigh   | 0.15813    | 0.16851    | 0.189      |   1.6 |  0.03
Comm    | 77.45      | 83.152     | 87.439     |  25.7 | 15.35
Output  | 0.8349     | 0.83521    | 0.83702    |   0.0 |  0.15
Modify  | 91.573     | 96.959     | 101.44     |  29.2 | 17.90
Other   |            | 25.93      |            |       |  4.79

Nlocal:        60.0000 ave          62 max          58 min
Histogram: 2 0 6 0 0 16 0 6 0 2
Nghost:        3638.78 ave        3659 max        3606 min
Histogram: 1 1 2 2 6 4 2 3 4 7
Neighs:        22108.6 ave       22996 max       20828 min
Histogram: 1 0 0 4 6 3 11 3 3 1

Total # of neighbors = 707474
Ave neighs/atom = 368.47604
Ave special neighs/atom = 2.0000000
Neighbor list builds = 250
Dangerous builds = 0

unfix		3
unfix		2
unfix		1

write_data	data.final.${pid}
write_data	data.final.1
System init for write_data ...
PPPM initialization ...
  extracting TIP4P info from pair style
  using 12-bit tables for long-range coulomb (../kspace.cpp:340)
  G vector (1/distance) = 0.37549203
  grid = 30 30 30
  stencil order = 5
  estimated absolute RMS force accuracy = 0.0031507086
  estimated relative force accuracy = 9.4882655e-06
  using double precision FFTW3
  3d grid and FFT values/proc = 5400 960
Last active /omp style is kspace_style pppm/tip4p/omp
WARNING: Not all mixed pair coeffs generated from mixing. Use write_data with 'pair ij' option to store all pair coeffs. (../write_data.cpp:312)

write_restart   restart.lmp.${pid}
write_restart   restart.lmp.1
System init for write_restart ...
PPPM initialization ...
  extracting TIP4P info from pair style
  using 12-bit tables for long-range coulomb (../kspace.cpp:340)
  G vector (1/distance) = 0.37549203
  grid = 30 30 30
  stencil order = 5
  estimated absolute RMS force accuracy = 0.0031507086
  estimated relative force accuracy = 9.4882655e-06
  using double precision FFTW3
  3d grid and FFT values/proc = 5400 960
Last active /omp style is kspace_style pppm/tip4p/omp
Total wall time: 0:09:01
