#include		in.partitions
include		in.temp
variable        temperature equal 140.10
variable	tempDamp equal 100.0
include		in.pressure
variable        pressure equal 2054.1
variable        pressureDamp equal 1000.0 # This is 1 ps
include		in.seed
variable        seed equal 745823

units		real
atom_style	full
#include		in.box
read_restart	restart.lmp.${pid}
read_restart	restart.lmp.1
Reading restart file ...
  restart file = 30 Jul 2021, LAMMPS = 30 Jul 2021
  restoring atom style full from restart
  orthogonal box = (0.071583600 0.17139885 0.11312916) to (18.135989 23.457779 22.100067)
  2 by 4 by 4 MPI processor grid
  restoring pair style lj/cut/tip4p/long/omp from restart
  restoring bond style harmonic/omp from restart
  restoring angle style harmonic/omp from restart
  864 atoms
  576 bonds
  288 angles
Finding 1-2 1-3 1-4 neighbors ...
  special bond factors lj:    0        0        0       
  special bond factors coul:  0        0        0       
     2 = max # of 1-2 neighbors
     1 = max # of 1-3 neighbors
     1 = max # of 1-4 neighbors
     2 = max # of special neighbors
  special bonds CPU = 0.002 seconds
  read_restart CPU = 0.006 seconds
include 	in.setup
variable	out_freq equal 1000
variable	out_freq2 equal 10000
variable	out_freq3 equal 1000

timestep	2.0

neigh_modify    delay 7 every 1

include		in.tip4p
# This is TIP4P/Ice

# create groups ###
group ox type 2
288 atoms in group ox
group hy type 1
576 atoms in group hy

# set charges - beside manually ###
set group ox charge -1.1794
Setting atom values ...
  288 settings made for charge
set group hy charge 0.5897
Setting atom values ...
  576 settings made for charge

# ### TIP3P Potential Parameters ###
pair_style lj/cut/tip4p/long/omp 2 1 1 1 0.1577 8.5
pair_coeff 1 1*2 0.000 0.000
pair_coeff 2 2 0.21084 3.1668
bond_style  harmonic
bond_coeff  1 450 0.9572
angle_style harmonic
angle_coeff 1 55 104.52
kspace_style pppm/tip4p/omp 1.0e-5
pair_modify tail yes

thermo          ${out_freq}
thermo          1000
thermo_style    custom step temp pe etotal epair emol press lx ly lz vol pxx pyy pzz pxy pxz pyz enthalpy

restart 	${out_freq3} restart.lmp.${pid} restart2.lmp.${pid}
restart 	1000 restart.lmp.${pid} restart2.lmp.${pid}
restart 	1000 restart.lmp.1 restart2.lmp.${pid}
restart 	1000 restart.lmp.1 restart2.lmp.1


include         in.dump
dump            myDump all atom ${out_freq2} dump.water.${pid}
dump            myDump all atom 10000 dump.water.${pid}
dump            myDump all atom 10000 dump.water.1
dump            myDump2 all dcd ${out_freq2} dump.dcd
dump            myDump2 all dcd 10000 dump.dcd
dump_modify     myDump append yes
dump_modify     myDump2 append yes


variable natoms 	equal  "count(all)"                        # NUMBER ATOMS
variable H      	equal  "enthalpy/v_natoms"                 # ENTHALPY-per-atom
variable Vol      	equal  "vol/v_natoms"                 # volume-per-atom
fix AVG all 		ave/time ${out_freq} 1 ${out_freq} v_Vol v_H file vol_enthalpy.dat
fix AVG all 		ave/time 1000 1 ${out_freq} v_Vol v_H file vol_enthalpy.dat
fix AVG all 		ave/time 1000 1 1000 v_Vol v_H file vol_enthalpy.dat


timer           timeout 23:50:00 every 1000
New timer settings: style=normal  mode=nosync  timeout=23:50:00

fix 		1 all shake 1e-6 200 0 b 1 a 1
       0 = # of size 2 clusters
       0 = # of size 3 clusters
       0 = # of size 4 clusters
     288 = # of frozen angles
  find clusters CPU = 0.001 seconds
fix             2 all nph aniso ${pressure} ${pressure} ${pressureDamp}
fix             2 all nph aniso 2054.1 ${pressure} ${pressureDamp}
fix             2 all nph aniso 2054.1 2054.1 ${pressureDamp}
fix             2 all nph aniso 2054.1 2054.1 1000
fix             3 all temp/csvr ${temperature} ${temperature} ${tempDamp} ${seed}
fix             3 all temp/csvr 140.1 ${temperature} ${tempDamp} ${seed}
fix             3 all temp/csvr 140.1 140.1 ${tempDamp} ${seed}
fix             3 all temp/csvr 140.1 140.1 100 ${seed}
fix             3 all temp/csvr 140.1 140.1 100 745823


run             250000
PPPM initialization ...
  extracting TIP4P info from pair style
  using 12-bit tables for long-range coulomb (../kspace.cpp:340)
  G vector (1/distance) = 0.37183659
  grid = 24 27 25
  stencil order = 5
  estimated absolute RMS force accuracy = 0.003140278
  estimated relative force accuracy = 9.4568539e-06
  using double precision FFTW3
  3d grid and FFT values/proc = 4410 672
Last active /omp style is kspace_style pppm/tip4p/omp
Neighbor list info ...
  update every 1 steps, delay 7 steps, check yes
  max neighbors/atom: 2000, page size: 100000
  master list distance cutoff = 10.8154
  ghost atom cutoff = 10.8154
  binsize = 5.4077, bins = 4 5 5
  1 neighbor lists, perpetual/occasional/extra = 1 0 0
  (1) pair lj/cut/tip4p/long/omp, perpetual
      attributes: half, newton on, omp
      pair build: half/bin/newton/omp
      stencil: half/bin/3d
      bin: standard
Per MPI rank memory allocation (min/avg/max) = 10.21 | 10.22 | 10.23 Mbytes
Step Temp PotEng TotEng E_pair E_mol Press Lx Ly Lz Volume Pxx Pyy Pzz Pxy Pxz Pyz Enthalpy 
20250000    149.94641   -4483.2457   -4226.2427   -4483.2457            0    1068.5183    18.064405     23.28638    21.986937    9248.9065    138.33171    2305.5018    761.72153    305.89605     255.1984    255.85419   -4082.1147 
20251000    145.87878   -4492.5682   -4242.5369   -4492.5682            0    2691.4644    17.906455    23.621668    21.710182    9182.9799    2181.8817    1932.6633    3959.8483     280.6772   -87.124691    982.84423   -3882.0843 
20252000    135.35878    -4474.517   -4242.5167    -4474.517            0    1922.0338    18.028932    23.367703    21.901834    9227.1275     1760.852    2938.4435    1066.8059    201.62634   -107.37652   -278.85333    -3983.872 
20253000    138.95671   -4486.4741   -4248.3071   -4486.4741            0    1751.4351    17.950312    23.241267    22.151408    9241.3012    1430.6435    2149.4658    1674.1959    217.33759   -595.64573    671.21506   -4012.2576 
20254000    128.65698   -4488.1774   -4267.6638   -4488.1774            0    1364.1593    17.949258    23.321777    22.094522    9248.9566    1937.9124    1018.9359    1135.6295   -107.02826   -88.975301   -451.54846    -4083.657 
20255000    144.89277   -4484.3247   -4235.9835   -4484.3247            0    2146.4425    17.952601    23.343401     21.94686    9197.3751    1321.1925    2312.0228    2806.1122   -400.89777   -244.47071    357.81774   -3948.0719 
20256000    143.96304   -4482.9273   -4236.1796   -4482.9273            0    2149.2808    17.924121    23.485918    21.919863    9227.4827    1811.5412    1782.4404    2853.8609   -239.86553   -47.064188    544.88991   -3946.9437 
20257000    134.61283   -4474.6936   -4243.9719   -4474.6936            0    2169.1879    18.160781    23.134595    21.884998    9194.8136    1212.1976    2723.9743    2571.3918   -142.20763    336.15333   -63.618303   -3953.0904 
20258000    141.74459   -4477.5835   -4234.6382   -4477.5835            0    2304.7546    17.833777    23.492839    21.953665    9197.8404    3177.0433    2229.2684    1507.9521    293.22348   -990.35422     426.0578   -3925.4759 
20259000    142.12671    -4471.663   -4228.0627    -4471.663            0    2774.5206     17.91048    23.332861    21.969591    9181.1523    2956.2521    2533.4905    2833.8192    552.87571    73.580218    446.62672   -3856.5608 
20260000    140.62627   -4480.3919   -4239.3633   -4480.3919            0    1339.9952    17.937492    23.329718    22.122811    9257.8791    1028.7479    2019.1404    972.09731    200.63832   -706.60408   -145.85598   -4058.4416 
20261000      137.648   -4481.6138   -4245.6898   -4481.6138            0    2684.0541    17.945283    23.344717     21.87604    9164.4757    2711.6105    2108.3285    3232.2234    964.48221    363.23212    55.400006    -3886.954 
20262000    147.40943    -4472.874   -4220.2193    -4472.874            0    1966.8392    17.966956    23.483808    21.772959    9186.7199    1411.3636    675.05512    3814.0987   -1182.4917    235.57093   -849.61876   -3956.7044 
20263000     150.4837   -4490.2929    -4232.369   -4490.2929            0    1424.2939    18.026065    23.431045    21.902345    9250.8835     1962.759     753.2703    1556.8523   -229.39328    -142.6299   -585.79122   -4040.2109 
20264000    138.91893   -4494.1493    -4256.047   -4494.1493            0    2222.1036     17.97452    23.400455    21.851626     9191.055    2463.8337    1620.6849    2581.7923   -610.17197   -289.05376   -84.023844   -3958.1916 
20265000    147.70165   -4496.7253   -4243.5697   -4496.7253            0    2287.4573    17.893338    23.415032    21.942193    9193.1883    3184.3378    2346.2262     1331.808   -169.42423   -8.6576539    546.49009    -3936.883 
20266000    137.52033   -4477.0771   -4241.3719   -4477.0771            0    2663.3707    17.996979    23.164237     22.01944    9179.6026    2492.3384    2643.4734    2854.3003     145.9894    225.54922    364.20728    -3884.813 
20267000     139.5692    -4480.145   -4240.9281    -4480.145            0    2552.3385    17.842117    23.346034    21.994831    9161.7856    2291.0313    3877.9819    1488.0021   -463.40238   -110.11485    258.40919   -3899.8968 
20268000    136.36418   -4489.3923   -4255.6687   -4489.3923            0    2785.7606    18.052354    23.265322    21.814789    9162.0769    1398.0853    2759.4309    4199.7658   -703.01284    904.47649   -64.857125   -3883.4368 
20269000     136.0209   -4481.6692   -4248.5341   -4481.6692            0    718.79813    17.968142    23.396776    22.044936    9267.6161      119.685   -25.397847    2062.1072   -33.267087   -203.96368    276.90949   -4151.3823 
20270000    134.08198   -4484.8356   -4255.0237   -4484.8356            0    2508.6841    18.033718    23.165468    21.961663    9174.6938    3059.2967    1894.2191    2572.5364    687.42859   -392.09261    697.36585    -3919.353 
20271000    137.24015   -4488.8488   -4253.6239   -4488.8488            0    2691.7997    17.905644    23.444563    21.881709    9185.7222    3414.1496    3213.4635    1447.7861   -758.73304    1.8697902    439.31026   -3893.0187 
20272000    139.86447   -4468.7938   -4229.0709   -4468.7938            0    2671.2291    18.045271    23.239446    21.882552    9176.7131    2194.6786    3082.3289    2736.6799   -577.49865    285.06682   -139.23217   -3871.5724 
20273000    136.86403   -4491.8131   -4257.2328   -4491.8131            0    2181.4194    17.871515    23.454468    21.979832    9213.2177     2851.676    1989.1948    1703.3873    322.18551    632.70421   -26.121389   -3964.1257 
20274000    149.53885   -4469.7766   -4213.4721   -4469.7766            0    2382.0638     17.86806    23.392603    22.010055    9199.7727     2643.577    2635.8051    1866.8092    347.53912    245.41108   -599.93095   -3893.8724 
20275000    136.94764   -4474.5551   -4239.8315   -4474.5551            0    2487.7017    18.020735    23.313575     21.89125    9197.1219    2966.9378    1994.6991    2501.4683   -537.99225   -233.06867    131.64915   -3906.1546 
20276000    150.29048   -4485.7002   -4228.1075   -4485.7002            0    2350.4603    17.962453    23.392461    21.877839    9192.7615    3025.2171    2314.5147    1711.6492   -327.05124   -21.580779   -181.47823   -3912.9883 
20277000    142.43147   -4475.2899   -4231.1672   -4475.2899            0      2673.54    17.904492    23.282818    22.050048    9191.9383    2584.6974    2907.3553    2528.5673   -218.36435    250.39198    338.01892   -3872.7658 
20278000      137.285   -4490.6217   -4255.3199   -4490.6217            0    1682.1237    18.131774    23.174468    21.991629    9240.7554     1885.951    1397.4741    1762.9461    429.64491   -499.40029    412.64205   -4028.6253 
20279000    133.06709    -4489.268   -4261.1955    -4489.268            0    1934.7003    17.842015    23.502749    21.939646    9200.0923    3364.7738    249.37805    2189.9489   -869.36406    382.88613    55.699896   -4001.6092 
20280000    143.04519   -4476.8015    -4231.627   -4476.8015            0    2015.5072     18.08804    23.174686    21.984046    9215.3743    2814.0758    1574.4696    1657.9761    222.66525   -370.53726    163.55984   -3960.7493 
20281000    140.80163   -4466.6387   -4225.3095   -4466.6387            0    2832.5804    17.901379     23.33242    21.924019    9157.2788    3064.9361     3083.171     2349.634   -642.41362     160.8609   -628.02066   -3847.0198 
20282000    143.06131   -4480.2623   -4235.0601   -4480.2623            0    2846.6293    17.873044    23.372881    21.943347    9166.7133    3089.6431    2827.0999    2623.1449    523.56019    588.87742   -236.03061   -3854.5025 
20283000    146.28431   -4487.5341   -4236.8078   -4487.5341            0    2005.6305    17.997545    23.298204     21.97492    9214.3142     2324.444    2966.2786    726.16882    6.3340827    6.4524841   -273.93028   -3967.2885 
20284000    132.60178   -4485.1674   -4257.8925   -4485.1674            0    2188.5922    18.005375    23.406386     21.82462    9197.7841    981.35043    2595.6248    2988.8013   -581.90619   -567.74469    105.47206   -3964.3142 
20285000    132.92595   -4490.8362   -4263.0057   -4490.8362            0    2625.0664     18.01318    23.335792    21.847069    9183.4549    2255.3989    2708.2701    2911.5302   -1240.9894    2.4711872   -421.84456   -3911.4272 
20286000    135.60133   -4489.3607   -4256.9446   -4489.3607            0     1688.447    17.876686    23.437988    21.965116    9203.2422     1869.674     1215.485    1980.1819   -9.9507444   -22.367069    313.13195   -4030.3215 
20287000    142.50817   -4482.4817   -4238.2276   -4482.4817            0    2157.5408    17.927858    23.322373    21.939466    9173.3338     1980.386    2827.7325     1664.504    -803.8167    7.9445233    323.44689   -3949.5839 
20288000    139.86417   -4481.9078   -4242.1854   -4481.9078            0     2397.824    18.055769     23.37568    21.788016     9195.978     3198.086    1885.0459    2110.3401   -851.90291   -24.304263    791.85638   -3920.6039 
20289000     143.9984   -4487.1438   -4240.3355   -4487.1438            0    2127.2303    17.853716    23.502272    21.849295    9168.0273    2954.9954    2270.1188    1156.5766     150.5046   -86.447249    80.405491   -3955.9115 
20290000    137.60155   -4480.6687   -4244.8244   -4480.6687            0    3183.5157    17.953555    23.180856    22.033079    9169.6995    4052.8057    2888.0631    2609.6782   -553.19271   -41.108899   -134.83927   -3819.0907 
20291000    140.51872    -4488.445   -4247.6008    -4488.445            0    1705.8565    17.931976    23.450766    21.948164    9229.6105    2923.0653     648.4242    1546.0801     747.9805     229.0638   -601.49419    -4017.985 
20292000    142.93199   -4489.4444   -4244.4638   -4489.4444            0    3147.1971    17.914196    23.391377    21.806572    9137.7762    3764.7086    3192.5821    2484.3004   -585.81182   -407.71515    496.84038   -3825.0523 
20293000    135.53724    -4472.692   -4240.3858    -4472.692            0    1113.7372    17.985755    23.271067    22.127014    9261.2108    939.99757    1356.3844    1044.8298   -327.32763   -20.903055    92.886776   -4089.9586 
20294000    144.10278     -4487.52   -4240.5328     -4487.52            0    702.63461    17.905824    23.307381    22.126279     9234.134    202.31171    1901.2876    4.3044724    12.957938   -79.364047   -408.74108   -4145.9087 
20295000    133.36444   -4500.8729   -4272.2908   -4500.8729            0    1910.6031    18.007392    23.272879    21.910312    9182.2581    2402.3387    1621.3758    1708.0947    -588.8264   -114.72554   -707.99484   -4016.4346 
20296000    143.51274   -4483.3706   -4237.3947   -4483.3706            0    2368.0038    18.039613    23.398855    21.787448    9196.6185     2173.231    2564.6274     2366.153   -460.52563    475.77887    217.55658   -3919.7903 
20297000    138.55894   -4490.2836   -4252.7983   -4490.2836            0    2056.1565    17.911923    23.427297    21.937871    9205.7441     1356.963    1550.2997    3261.2068    649.37632   -338.66244   -25.447144   -3976.7463 
20298000    135.91302   -4468.2311   -4235.2808   -4468.2311            0    3229.0945    17.884408    23.068504    22.139783    9134.1333    3137.5021    3412.4394    3137.3418   -815.59055   -389.06559   -461.61945   -3805.1268 
20299000    140.76944   -4477.8232   -4236.5492   -4477.8232            0    1715.2948    17.866061    23.509485    21.938405    9214.6104    1825.5665    317.06781    3003.2501    -781.0989   -42.390156      182.835   -4006.0382 
20300000    136.29261   -4480.7692   -4247.1683   -4480.7692            0    2704.2297    17.971253    23.369124    21.805226     9157.594    1512.4425    2110.1651    4490.0816   -182.70773    17.529554   -362.21829   -3886.0073 
20301000    147.20182   -4481.1096   -4228.8107   -4481.1096            0     2599.388    17.969416    23.287159    21.871272     9152.179     1924.972    3528.1702    2345.0219    1090.7683    304.57336   -140.78909    -3881.857 
20302000    135.59007   -4480.3093   -4247.9126   -4480.3093            0    2293.6817    17.796739    23.435251    22.097383    9216.1786    2439.2927    2882.5698    1559.1828   -360.61162   -51.353617    -887.7399   -3939.6223 
20303000    133.33715   -4481.1634   -4252.6281   -4481.1634            0    1906.6922    18.135174    23.171008    21.945058    9221.5383     1493.688     2209.832    2016.5567   -64.749754    234.50702    554.86286   -3996.2034 
20304000    147.77052   -4487.9309   -4234.6573   -4487.9309            0    2406.4672     17.96887    23.535787    21.744071    9195.8176    1936.5073    2450.8432    2832.0511    -420.9529     58.43616    384.88596   -3911.9222 
20305000    147.60762    -4494.574   -4241.5796    -4494.574            0    2249.9567     18.02631    23.375775    21.783413    9179.0722    2520.5058    1317.2546    2912.1098   -45.629415    337.29948   -103.84276   -3940.3838 
20306000    140.44292   -4462.8888   -4222.1745   -4462.8888            0    2065.9814    18.095178    23.342135    21.780436    9199.6219     2222.066    1804.4593    2171.4187    -623.5443    196.87804   -649.05478   -3944.9878 
20307000    139.06763   -4481.6089   -4243.2517   -4481.6089            0    2875.1076     17.83112    23.363693    22.037036    9180.6476    3464.5844     2419.516    2741.2224    519.76214    5.1848481    349.84987   -3858.3026 
20308000    137.49837    -4481.294   -4245.6265    -4481.294            0    1585.0325    18.124989     23.16988    22.065884    9266.6522     1762.986      2215.38     776.7315     1005.011   -198.84716    395.25391   -4031.4178 
20309000    139.11592   -4477.4906   -4239.0507   -4477.4906            0     3055.713    17.762037    23.589535    21.878912    9167.2246    3994.7244    2707.5345    2464.8801   -526.20027    66.444569   -779.67199   -3830.5185 
20310000    135.74086   -4494.6657   -4262.0105   -4494.6657            0    1247.9802    18.023897    23.299043    21.997966    9237.8161   -23.828272    1642.5185    2125.2505   -560.78063   -266.76817    44.491789   -4093.8775 
20311000    139.85988   -4486.6987   -4246.9837   -4486.6987            0    1432.7972    18.067781    23.436704    21.848574    9251.7619    550.20499    1444.7174    2303.4692    325.37896   -113.02536     342.5774     -4053.66 
20312000    137.71123   -4474.1251   -4238.0928   -4474.1251            0    2768.7594    17.988927    23.422178    21.851029    9206.7094    2931.6559    2789.0289    2585.5933    1085.1444     23.88024  -0.47062283   -3866.3303 
20313000    142.42152   -4468.1116    -4224.006   -4468.1116            0    1947.8038    17.988287    23.317045    22.032319    9241.0969    1446.5626    3294.1169    1102.7318    43.392112   -118.74332   -9.5507451   -3961.4967 
20314000    140.35166   -4485.2023   -4244.6443   -4485.2023            0    1588.9547    17.860983    23.357606    22.155338    9242.9809    1705.8459    2213.4933    847.52505    560.20785   -85.699241    338.97425   -4030.4542 
20315000    136.07048   -4492.2903   -4259.0702   -4492.2903            0    1704.7009    17.973463     23.29077    21.962615    9193.8976    1994.2168    1602.4373    1517.4487    90.616287    129.00814   -557.94126   -4030.4978 
20316000    151.98473   -4492.0694   -4231.5728   -4492.0694            0    1628.9359    18.053349    23.471894    21.781622    9229.8814    1586.6018    1267.4232    2032.7829    -1021.746    314.85268   -714.03295   -4012.3044 
20317000    128.80465   -4482.5898    -4261.823   -4482.5898            0    2773.8268    17.952468     23.36121    21.886093    9178.8387    2107.1307    2207.7611    4006.5885    -778.2613   -571.68665    402.81554   -3890.5076 
20318000    140.53878   -4487.8346   -4246.9559   -4487.8346            0    1006.3901    18.109579     23.32177    21.876824    9239.6207    1940.8415    10.872571    1067.4562   -95.603456   -788.16104    624.70627   -4111.3445 
20319000    135.25882    -4495.916    -4264.087    -4495.916            0    2673.2609    17.781553    23.579439    21.818414    9148.0038    3541.9329    2634.1605    1843.6893     394.9248   -283.26448    454.21633   -3907.4359 
20320000    137.21116   -4478.7347   -4243.5595   -4478.7347            0    1135.0107    18.037277    23.305594    21.967069    9234.2846    1786.1724    1966.8315   -347.97191   -649.30356   -2.2002835    44.869975   -4090.7047 
20321000    137.14169   -4481.8324   -4246.7762   -4481.8324            0    2040.8931    17.795411    23.378286    22.045957    9171.6964    2361.0881    2790.0718    971.51935    -600.7409    220.66447   -95.889562   -3973.7868 
20322000    149.42671   -4473.4148   -4217.3026   -4473.4148            0     2315.307    17.993388    23.209637    22.023228    9197.3409    2610.2517    2388.2204     1947.449    -325.4598   -383.78003   -368.56938   -3906.7417 
20323000    126.24194   -4478.0808   -4261.7064   -4478.0808            0    1886.7814    17.943852    23.449005    21.956685    9238.6146    1744.5172    1668.8045    2247.0226   -21.025346   -418.28267   -272.97039   -4007.4896 
20324000    140.85364   -4492.2411   -4250.8227   -4492.2411            0    2581.5235    17.912972    23.270465    22.078042    9203.0816    2995.2287    2500.0367     2249.305   -745.78546    314.00626   -220.38857   -3904.3371 
20325000    136.00267   -4479.5773   -4246.4734   -4479.5773            0    2265.8774    17.958684    23.316977     21.98332    9205.3442    2770.3769    2397.5867    1629.6686    611.30628    602.50062   -124.09166   -3942.2782 
20326000    134.14627   -4480.3167   -4250.3945   -4480.3167            0    786.49855      18.0364    23.471631    21.896529    9269.7578    429.29472    412.16916    1518.0318    -375.1858   -172.79361   -23.277791   -4144.0679 
20327000    137.31877   -4489.6555   -4254.2958   -4489.6555            0     2097.269    18.074793    23.363386    21.829914    9218.5192    1189.3516    2308.4451    2794.0102    379.70603   -548.14214   -572.46815   -3972.3334 
20328000    148.00633    -4474.054   -4220.3762    -4474.054            0    2840.1161    17.931781    23.184404     22.05302    9168.2709    3967.4361    3174.2027    1378.7095   -1162.4267    554.30712    -329.8703   -3840.6247 
20329000    142.21689   -4492.3117   -4248.5568   -4492.3117            0    3030.0946    17.859296    23.441399    21.883731    9161.5557    3092.7541    3351.9222    2645.6074    464.04586    25.969504    70.139858   -3843.7002 
20330000    143.76183   -4469.2495   -4222.8466   -4469.2495            0    1724.5814    18.182769    23.199923      21.9008     9238.608    854.99264     2786.891    1531.8605   -64.845837    73.704067    288.52025    -3990.484 
20331000    135.02121   -4475.7023   -4244.2806   -4475.7023            0     2256.824    17.870866    23.568413    21.855767     9205.386    2662.1805    1110.1168    2998.1747    163.18243    418.71529     79.84876   -3941.2995 
20332000    140.16792   -4495.2426   -4254.9996   -4495.2426            0    2537.8951    18.020836    23.237568    21.906586    9173.6107    2812.0946    2514.4157    2287.1751   -515.20754   -273.46536   -337.91952   -3915.4604 
20333000    134.33287   -4485.0892   -4254.8473   -4485.0892            0    2408.5783    17.872754    23.333642     22.02671    9185.9405    3342.9719    3405.1934    477.56963   -356.80429    121.09804   -188.96416    -3932.176 
20334000    145.35896   -4473.0172   -4223.8769   -4473.0172            0    1860.8375    17.934015    23.393205    22.035175    9244.5068    1738.8939    2398.6247    1444.9938   -886.58494   -232.60241    559.45097   -3972.9957 
20335000    152.22454   -4505.7241   -4244.8165   -4505.7241            0    2255.7841    17.825008    23.377683    22.067081    9195.5157    1380.3393    3817.9094    1569.1035   -589.32503    -59.43153     -115.842   -3942.2997 
20336000    142.92169   -4488.4567   -4243.4938   -4488.4567            0    2992.5422    17.938491    23.321107    21.887817    9156.6686    3258.2538    2760.0514    2959.3213    186.43332    222.50072    368.28024   -3843.8679 
20337000    141.78262   -4497.5102   -4254.4997   -4497.5102            0    1256.3653     18.20616    23.442968    21.729307    9274.2076   -553.83613    939.57047    3383.3616   -328.62019   -787.55171   -92.712786   -4084.5702 
20338000    143.23837   -4471.9931   -4226.4875   -4471.9931            0     1841.187    17.961019    23.379846    21.930665    9209.2536    2816.3227    1983.5623    723.67584    234.27994    359.28971    264.81128   -3979.2022 
20339000    131.65611   -4488.4333   -4262.7792   -4488.4333            0    1417.9164    17.898297    23.187607    22.182838    9206.2919    638.68963     1716.898    1898.1616   -430.34223   -588.41293    443.14628   -4072.4036 
20340000    142.33755   -4485.7679   -4241.8062   -4485.7679            0    1926.0222     17.95882    23.389458     21.96186    9225.0146    1805.1472    1443.1042    2529.8151    189.85805   -338.26133   -427.64212   -3982.6842 
20341000    140.39207     -4504.58   -4263.9528     -4504.58            0    1183.2376    18.094399    23.449011    21.851463    9271.4833    1068.8887    824.98945    1655.8346     107.3807     73.36502   -346.51199   -4103.9612 
20342000    144.90428   -4482.4506   -4234.0896   -4482.4506            0    1568.4227    17.898764    23.536512    21.923332    9235.7404    1532.9332   -183.64086    3355.9759    577.55671   -71.941552   -211.24131   -4022.8328 
20343000    127.99235   -4477.0527   -4257.6782   -4477.0527            0    2600.3837    17.874375    23.240699    22.152653    9202.4991    3065.8646    2119.1432    2616.1433   -248.48361    81.259289   -133.55306   -3908.6832 
20344000    141.99253   -4492.4642   -4249.0939   -4492.4642            0    1434.5672    17.930478    23.319241    22.067697    9227.0589    1523.2318    2297.9366    482.53328   -14.253927    37.300775    584.11845   -4056.0482 
20345000    134.83099   -4485.9401   -4254.8444   -4485.9401            0    2376.3933     17.89365    23.305522    22.036007    9189.4746    2779.3571    2296.3294    2053.4933    157.49675    244.64193    725.07528   -3936.3624 
20346000    147.66405   -4485.0139   -4231.9227   -4485.0139            0    2492.8921    17.982036    23.196535    21.984238    9170.0858    1897.7137    3078.6222    2502.3404    482.70862    484.14765    -301.9661   -3898.5326 
20347000    148.37404   -4500.6349   -4246.3268   -4500.6349            0    2570.6842    17.988445    23.428071    21.756081    9168.7647     2545.749    2643.6191    2522.6844   -23.255471   -685.93562    281.64695   -3902.5826 
20348000     132.3609   -4488.7576   -4261.8956   -4488.7576            0    1697.3956     18.02129     23.40841    21.925048    9249.0758    1865.3099    1208.2251    2018.6518    340.90209    54.990923    860.05602   -4032.9368 
20349000    142.29318   -4485.5648   -4241.6792   -4485.5648            0    1367.7564    17.932574    23.487613    22.030188    9278.9689    1651.9774    1474.8644    976.42731    345.34618   -14.948919   -360.92621   -4056.5886 
20350000    138.71466   -4494.7846   -4257.0325   -4494.7846            0    2436.6198    17.954357    23.268884    22.018889     9199.004    2939.3479    1383.9975    2986.5141   -917.41534   -251.02645    80.951068   -3930.1403 
20351000    135.99032    -4498.308   -4265.2252    -4498.308            0    1910.0166    17.778843     23.37157     22.14459     9201.508    1944.6782    2417.9942    1367.3774   -878.48077   -213.66819    161.01763   -4008.9114 
20352000    144.31541   -4482.6674   -4235.3157   -4482.6674            0    2461.2829    17.967247    23.371178    21.869952    9183.5369    2367.2621     2838.622    2177.9648    33.231988   -880.65926    44.634262     -3905.67 
20353000    140.73159   -4478.0586   -4236.8495   -4478.0586            0    1816.3924    18.032839    23.345784    21.890379    9215.6471    1608.2245     2302.275    1538.6778    587.72378   -193.94401    572.27123    -3992.725 
20354000    143.47039   -4489.0831   -4243.1798   -4489.0831            0    2126.9955    17.894679    23.261777    22.091145    9195.7046    2671.7867    2467.7981    1241.4017   -741.76226   -132.67969   -234.56458   -3957.9286 
20355000     139.5311   -4471.2892   -4232.1377   -4471.2892            0     2688.473    17.942387    23.231007    22.028061      9181.73    2364.6109     2116.704    3584.1042    -473.0529    -360.3804    442.45039   -3872.1347 
20356000    133.43788    -4488.836   -4260.1281    -4488.836            0    2637.2091    18.039262    23.351346    21.804323    9184.8759    1532.8772    1519.6814    4859.0688   -139.17959    -1346.595   -92.807834   -3906.8686 
20357000    139.32715   -4493.7755   -4254.9735   -4493.7755            0    2785.9268    17.852692    23.510338    21.819286    9158.0522    2963.7218    2232.2619    3161.7966    278.19932   -345.17435   -102.39146   -3882.8829 
20358000    135.78984   -4479.0121    -4246.273   -4479.0121            0    643.51861    18.103081    23.164381    22.113439    9273.1971    190.62028    714.13818    1025.7974     86.57799    437.27904    40.269228   -4159.2435 
20359000    139.72176   -4490.3158   -4250.8375   -4490.3158            0    1707.7859    17.881296    23.470811    21.946255    9210.5913    771.36283    2197.6574    2154.3375   -112.90819    490.95172    8.0836755   -4021.4357 
20360000    139.55449   -4493.3038   -4254.1122   -4493.3038            0    1476.2735    18.031219    23.376155    21.883005    9223.6989    602.80713    1545.2129    2280.8005   -434.88909    -257.4569    672.25529   -4055.5265 
20361000    144.57798   -4491.5636   -4243.7619   -4491.5636            0    958.91139    18.008835     23.39961    21.940529     9245.733     308.9009    1814.0852     753.7481   -390.14929   -144.09395    537.59788   -4114.4627 
20362000    142.30357   -4489.7799   -4245.8764   -4489.7799            0    1533.3703    17.842382    23.448466    22.006201    9206.8774    1979.8607     1408.422    1211.8281    -389.4357   -207.89501   -653.76929   -4039.9864 
20363000     139.8905    -4488.477   -4248.7095    -4488.477            0     2014.997    17.987666    23.254904    21.972821    9191.2628    2585.9181    2379.8392    1079.2336   -697.77409    159.12765    87.407785   -3978.6089 
20364000    147.77724   -4476.8835   -4223.5984   -4476.8835            0    2996.3943    17.671108    23.350025    22.130507    9131.5081    3724.6185    3480.5445    1784.0199   -72.488884    111.49773    -68.77574   -3824.5576 
20365000    144.13669   -4480.9799   -4233.9346   -4480.9799            0    2089.2321    17.942891    23.244003     22.05187    9197.0546    1572.3006    2015.4003    2679.9953   -88.633558   -900.50815   -278.50139   -3953.7067 
20366000    133.89651   -4486.5063   -4257.0123   -4486.5063            0    2276.3537    17.958177    23.299211    21.989912    9200.8288    1396.6163     2705.963    2726.4819    518.30198   -347.47404   -148.83552   -3951.5605 
20367000    132.33242   -4487.0167   -4260.2034   -4487.0167            0    2554.5673    17.982349    23.433268    21.782254    9178.7195    3036.6931    1610.3776    3016.6312   -52.635077   -3.2690539    209.31426   -3918.2434 
20368000    139.01628   -4492.0917   -4253.8225   -4492.0917            0     2474.183    18.063883    23.279524    21.836733    9182.7525     2580.206     3100.696    1741.6469   -419.58049    295.91155    183.55165   -3922.4774 
20369000    138.72767   -4477.8871   -4240.1126   -4477.8871            0    2160.1333    17.751243    23.550309    22.006808    9199.8854    2966.2598     1838.688    1675.4522   -96.923698   -268.90974   -67.060114   -3950.2856 
20370000    139.93482   -4493.4688   -4253.6253   -4493.4688            0    1993.8618    17.980193    23.279232    22.012363    9213.6062    2362.7493    2731.0421    887.79404   -207.77172   -41.279449   -608.86729   -3985.7081 
20371000    135.78824   -4485.4553   -4252.7189   -4485.4553            0    1370.6328    18.020267    23.365772    21.976275    9253.2745    1316.2569    1086.4271    1709.2144    1024.2359    135.71623    132.47035   -4067.7527 
20372000    143.03467   -4476.5869   -4231.4304   -4476.5869            0    1138.8704    17.981166    23.396933     22.00845    9259.0459     1047.374    525.18744    1844.0498   -473.51104   -62.887465   -335.86366   -4077.6445 
20373000    136.65252   -4496.1436   -4261.9259   -4496.1436            0    2891.5268    17.898031    23.135361    22.076719    9141.4707     2571.354    3753.6869    2349.5394    334.31924    562.47956    392.69699   -3876.4305 
20374000    143.43826   -4478.6189   -4232.7707   -4478.6189            0    2179.0445    17.842121    23.526768    21.913622    9198.6251    2753.3681    751.08486    3032.6806    581.75547    562.10278   -182.07394   -3940.4464 
20375000    146.30622   -4474.9895   -4224.2256   -4474.9895            0    1958.3411    18.153327    23.306035     21.80325    9224.5642    1355.5499    2440.5008    2078.9725    -9.571152     620.9435    471.22003   -3960.7684 
20376000    134.92135     -4476.65   -4245.3994     -4476.65            0     1540.238     17.94414    23.471932    21.923777    9233.9359    1547.0283    763.65929    2310.0264    303.63203    36.304682    505.26926   -4037.9794 
20377000    144.30554   -4486.4901   -4239.1553   -4486.4901            0     2315.686    18.035685    23.208711    21.958166     9191.359    1888.1565    3416.7532    1642.1485   -173.24057   -196.48308   -22.144067   -3928.7456 
20378000    137.58266   -4481.7024   -4245.8904   -4481.7024            0    1435.9745    17.968676    23.424353    21.936956    9233.3661    1286.6334     264.2178    2757.0722   -888.40646    424.62741    86.272381   -4052.5233 
20379000    141.95522   -4476.6907   -4233.3843   -4476.6907            0    1035.3788    17.976776    23.347765    21.996793      9232.44    1099.6879    912.55615    1093.8925    596.80383   -605.95062     760.9194    -4093.975 
20380000    138.32451   -4494.0172   -4256.9337   -4494.0172            0    2732.9787    17.898593    23.305449    22.039655    9193.5058    2710.5565    2852.0927    2636.2868   -512.00447    145.97605    291.64523   -3890.5018 
20381000    130.50023   -4487.2547   -4263.5818   -4487.2547            0    1692.8272     17.89572    23.449843    21.967528    9218.7132    1344.6098    2178.4985    1555.3731    344.70388    335.91668     -437.525   -4035.9888 
20382000     138.1405   -4464.2631    -4227.495   -4464.2631            0    2088.2961    18.102343    23.282157    21.818345    9195.5943    1911.7879    2704.4458    1648.6546   -308.69238    141.66612   -80.397273   -3947.4371 
20383000    140.29016   -4493.2192   -4252.7667   -4493.2192            0    1817.6687    17.914527    23.541512     21.79696    9192.5418    2057.3474    395.96353    2999.6952    364.09232    417.92026   -137.60283   -4009.0831 
20384000    146.06223   -4511.0862   -4260.7406   -4511.0862            0    1448.9763    17.993704    23.223616     22.03531    9208.0905    590.19495    3053.0424     703.6916    575.40109   -91.761685   -35.849844   -4066.1567 
20385000    135.27981   -4497.2151   -4265.3501   -4497.2151            0    2237.1273    17.749189    23.312473    22.146971    9163.9181    3243.2257    1441.4522     2026.704   -33.204403    78.912753   -47.118303   -3966.3662 
20386000    132.46803   -4472.1249   -4245.0792   -4472.1249            0     2836.724    17.931977    23.306569    21.960785    9178.1335    3157.7927    2680.4763    2671.9031    449.25997   -94.319583   -254.93694   -3865.3733 
20387000    143.00927   -4499.5107   -4254.3977   -4499.5107            0    2576.3356    18.042598    23.151746    21.912402     9153.197    2487.7853    2443.8288    2797.3925   -1054.0717   -63.639869    423.85353   -3910.4827 
20388000    142.84079   -4489.3474   -4244.5231   -4489.3474            0    2291.0985     17.74851    23.503029     22.00288    9178.3639    3578.1338    2336.7716    958.38999     -648.273    202.33144   -76.750769   -3937.8435 
20389000    136.40157   -4506.8145   -4273.0268   -4506.8145            0    1667.3749    18.003569    23.208401      22.0218    9201.4579    859.45566    2356.8849    1785.7842    178.36017    144.50389    508.30564   -4049.2754 
20390000    146.21748   -4496.5891   -4245.9773   -4496.5891            0    2464.3508      17.8459    23.511798    21.954543    9211.8889    2937.9742    1070.6335    3384.4447   -474.61245   -94.558895    697.21243   -3914.9018 
20391000     134.2575   -4491.5126   -4261.3998   -4491.5126            0    1946.7634    18.173667    23.074771    22.016247    9232.5838    2135.8219    1918.6218    1785.8466    127.32843    565.03558    82.705438   -3999.2724 
20392000    137.18632   -4488.5356    -4253.403   -4488.5356            0    2000.6207    17.877884    23.447987    21.971011    9210.2563    3344.1621    1040.4518    1617.2484    611.63595    271.71696   -5.6723679   -3984.6753 
20393000    137.78974    -4490.461   -4254.2941    -4490.461            0    3138.7476    18.068863    23.167882    21.909225    9171.5803    3690.5069    3406.0186    2319.7174    245.62345   -167.88965    121.40267   -3834.4612 
20394000    139.36433   -4491.0636   -4252.1979   -4491.0636            0    1550.2825    17.974902    23.451278    21.901631    9232.2911    1585.9915    1992.6007    1072.2551    377.06545   -88.030788    58.460504   -4043.4624 
20395000    145.94669   -4480.6032   -4230.4555   -4480.6032            0    2416.1992    17.899837    23.379199    21.982172    9199.1837     2739.884    2875.5202    1633.1934    457.15087   -39.809082   -17.885672   -3906.2966 
20396000    133.49357   -4484.0098   -4255.2064   -4484.0098            0    2614.1949    18.157454    23.279539    21.720452    9181.1731    1413.3004    3558.6266    2870.6578   -597.45167   -740.77577      322.653    -3905.171 
20397000    136.67551   -4497.5059   -4263.2487   -4497.5059            0    2468.1416    17.974547    23.378617    21.810361    9165.1507    2768.7355    3030.3383    1605.3509   -528.68274   -233.20561    233.32441   -3933.3463 
20398000    130.46655   -4489.5732    -4265.958   -4489.5732            0    1072.4197      17.9088    23.180681    22.243113    9233.9659    1202.9013    1155.9488    858.40889   -113.08705   -570.38389    460.05381   -4121.5375 
20399000    148.69093   -4481.9234   -4227.0722   -4481.9234            0    1329.1705    17.947115    23.256587    22.172925    9254.7273     1731.392    1243.9813    1012.1384    254.51193   -216.72471    631.43518   -4047.6732 
20400000    135.90764   -4483.7183   -4250.7773   -4483.7183            0    2212.7719    18.012195    23.376096    21.852286    9201.0099    2086.4359    2228.6833    2323.1964     711.8214    615.51676    3.3132535   -3953.8514 
20401000    143.14323   -4482.6372   -4237.2946   -4482.6372            0    2273.2656    18.019556    23.382506    21.769791    9172.5358    1064.8262      2016.96    3738.0105   -438.10036   -188.64909   -414.83685   -3933.1952 
20402000    133.94088   -4490.1292   -4260.5591   -4490.1292            0    2524.4532    17.868382    23.394067    21.909896    9158.6458    2985.4594    2523.8963    2064.0039   -325.45119   -656.27127    257.08513   -3923.3693 
20403000    138.81328    -4478.461   -4240.5398    -4478.461            0    2435.1276    17.941414     23.23594    22.015102    9177.7795    2201.4856     3099.256    2004.6411    532.11023   -542.78426   -4.8794173   -3914.6016 
20404000    139.73252   -4498.5391   -4259.0423   -4498.5391            0    2182.6395    17.854978    23.372774     21.99315    9178.1891    3135.1528    916.60565    2496.1599    609.16715   -796.25628   -310.71935   -3966.8863 
20405000    137.68293   -4485.0821   -4249.0983   -4485.0821            0    2889.8655    17.960832    23.386653    21.918423    9206.6964    2577.3186    2312.6158     3779.662    112.69432  -0.88518111   -29.379326   -3861.0754 
20406000    128.30408   -4495.8329   -4275.9242   -4495.8329            0    1756.4544    18.111338    23.185775    21.955798    9219.7979    1998.1356    2240.6589    1030.5686    308.86099   -43.822529    218.28476    -4039.749 
20407000    136.08925   -4487.6265   -4254.3742   -4487.6265            0    1970.0102    17.868228    23.564401    21.889216     9216.544    1664.8476    1488.1027    2757.0802    -494.5938       23.948    40.509318   -3989.5776 
20408000    138.61353   -4493.7549   -4256.1761   -4493.7549            0    1819.1169    18.114538     23.28935    21.828323    9208.8412    669.56157    1615.2057    3172.5833   -43.869616   -46.912825    263.11072   -4011.8659 
20409000    137.52909   -4486.1526   -4250.4325   -4486.1526            0     1579.065     17.99191    23.430105    21.872173    9220.2655    1293.8627    1045.3822    2397.9501    368.30538    267.24707   -140.91261   -4038.0986 
20410000    143.17294   -4477.2512   -4231.8577   -4477.2512            0    2154.5541    17.915584    23.317244    22.101177    9232.5905    1675.5714    2401.4345    2386.6564    173.25034    213.96173    -126.2698   -3941.7516 
20411000    131.93089   -4490.6898   -4264.5648   -4490.6898            0     3080.816    17.901935    23.210833    22.077086     9173.445    3984.8817    3907.2699    1350.2962     574.3411   -463.03944   -241.85036   -3852.3969 
20412000    140.70672   -4499.0128   -4257.8463   -4499.0128            0    1579.2285     17.82385    23.433815    22.087081    9225.3493     2491.611    1520.1039    725.97064   -669.44204   -233.20493   -44.321849   -4045.3733 
20413000    138.70044    -4482.524   -4244.7962    -4482.524            0    2413.0234    18.127585     23.10898    21.903269    9175.4984    814.67614    4225.5548    2198.8394    807.61289   -23.618538     202.8019   -3921.8969 
20414000    136.39459   -4485.4998   -4251.7241   -4485.4998            0    3392.1541    17.839912      23.4183    21.917656    9156.7676    2646.9004    3382.7601    4146.8019    268.11955    -482.3137   -258.72875   -3798.7288 
20415000    136.29668   -4481.9212   -4248.3134   -4481.9212            0    2865.6708     18.15061     23.14733    21.857628    9183.2235    2315.6125    3440.7405    2840.6594    61.525156    108.11047    104.01505   -3864.5201 
20416000    138.16163   -4476.0963    -4239.292   -4476.0963            0    3309.0498    17.887265    23.385874    21.879374    9152.3462     3296.247    2428.4021    4202.5002   -844.67911   -374.17405    87.865477    -3797.608 
20417000    143.89139   -4509.9752   -4263.3503   -4509.9752            0    2049.4443    17.922679     23.38715    21.931767     9192.928     3166.562    2128.1213    853.64971   -708.73544   -543.23352  -0.89981932   -3988.5825 
20418000    146.84763   -4479.7196   -4228.0277   -4479.7196            0    1045.5043    18.038967    23.282853    22.067297    9268.2342    1480.7748    753.10722    902.63092   -678.28027   -148.05651   -303.18236   -4086.7093 
20419000    147.60373    -4483.791   -4230.8032    -4483.791            0    995.25853    17.905725    23.529257    21.981773    9261.1059    1793.6965    1267.2451   -75.165983   -367.01651     710.0073    -238.1233   -4096.3799 
20420000    139.94714   -4486.6693   -4246.8047   -4486.6693            0    1396.1432    18.129967    23.226447    21.897133    9220.7671    540.12273    1265.6404    2382.6666   -188.27845   -35.126826   -106.09944   -4059.0577 
20421000    137.66357   -4483.8868   -4247.9361   -4483.8868            0    2171.5897    17.787602     23.38608     22.15147    9214.6188    2357.9913      2662.89    1493.8877    100.73444    -327.3256    146.61265   -3956.1054 
20422000    134.06234   -4481.7555   -4251.9772   -4481.7555            0    2214.4911    17.946735    23.241062    22.067993    9204.5859    2121.9595    2015.6033    2505.9104   -1118.2593   -47.889185    483.76728   -3954.7052 
20423000    138.76029   -4492.6872   -4254.8568   -4492.6872            0    2393.6423    17.961572    23.395862     21.91895    9210.9227    1118.6397     2612.285    3450.0021   -303.07516    591.33427   -385.32901   -3933.3143 
20424000    133.98664    -4487.575   -4257.9265    -4487.575            0    2537.0853    18.015407     23.39805    21.768176    9175.8387    2667.3726    1976.8866    2966.9965   -492.05408   -376.70109   -43.514288   -3918.4133 
20425000    143.14712   -4486.4922   -4241.1429   -4486.4922            0    1873.5401    18.084209    23.459001    21.693819    9203.3314    2071.5347    1351.6889    2197.3967     542.5621    596.92102   -623.59943   -3989.6742 
20426000    139.36514    -4491.888   -4253.0209    -4491.888            0    1318.9394     18.01838    23.378021    21.999557    9266.9628    811.15885    1729.1091    1416.5502   -347.51203    58.878599    163.31618   -4074.7674 
20427000    139.87777   -4472.5621   -4232.8164   -4472.5621            0    1601.5289     17.97321    23.334336    22.076154    9258.5826    2159.8041    1509.5045    1135.2782    164.77381   -438.95454   -300.95895   -4016.5669 
20428000    136.66064   -4472.9358   -4238.7041   -4472.9358            0     2179.256    17.965233    23.295166    22.054293    9229.7896    2357.0113    1356.3739    2824.3827   -24.836909   -390.18749    64.417872    -3945.361 
20429000    136.72664   -4482.4335   -4248.0887   -4482.4335            0    2411.0734    17.962937    23.442259    21.906502    9224.6489    1366.3614    2297.6238     3569.235   -362.22997   -521.57398    94.616988   -3923.7221 
20430000    138.22855   -4488.9271   -4252.0081   -4488.9271            0    1636.1651    18.140867    23.374519    21.787399    9238.5988    1424.3243    908.28786    2575.8831    67.605874   -378.21843    46.603233   -4031.5586 
20431000    140.87674   -4483.1496   -4241.6917   -4483.1496            0    2307.6484    17.891161    23.308864    22.004171    9176.2374    2585.7965    841.30655    3495.8422   -68.147844   -108.14784   -174.01481   -3932.8683 
20432000    149.49524   -4483.2151   -4226.9854   -4483.2151            0    1650.1752    17.911773    23.306775    22.108892    9229.7036    1577.7795    2006.3352     1366.411    516.06877   -509.08455   -283.94095   -4004.8623 
20433000    140.59976   -4497.6769   -4256.6937   -4497.6769            0    2448.3554     17.96368     23.15627    22.060372    9176.4929    3097.5972    2809.1393    1438.3298   -207.64123    340.76899    506.93071   -3929.0309 
20434000    137.31838   -4493.1496   -4257.7906   -4493.1496            0     1446.861     18.02082    23.029855     22.25424    9235.8851    1545.4455    2904.1528   -109.01545    407.13535     69.10402    -329.9802   -4062.9044 
20435000     151.5107   -4493.1701   -4233.4859   -4493.1701            0    1535.8834    17.892375    23.468127    21.957595    9220.0054    1591.3272    1677.6283    1338.6948   -819.63803    211.17424    334.90506   -4026.9644 
20436000    148.49451   -4492.4857   -4237.9712   -4492.4857            0    1322.8463     18.18665     23.24163    21.869645     9244.023    704.48237    1663.1844    1600.8721   -222.03296   -373.24721    52.720963   -4059.6322 
20437000     134.4256   -4485.3394   -4254.9385   -4485.3394            0      2409.02    17.849236    23.582163    21.811327     9180.902    3007.7417    1836.8137    2382.5046    72.978795   -525.02578   -67.994949   -3932.3851 
20438000    146.86545   -4481.4476   -4229.7252   -4481.4476            0    669.99611      18.1092    23.249594    22.045291    9281.7626   -85.970877    1476.4638    619.49544   -234.71878   -305.82869   -459.93611   -4139.0312 
20439000    136.89147    -4499.344   -4264.7167    -4499.344            0    2322.7004    17.952367      23.2913    22.002987    9200.1961    3290.9128    1518.2494    2158.9391    -178.7813   -289.15229    562.99668   -3953.0674 
20440000    145.73146   -4477.2247    -4227.446   -4477.2247            0    1277.5886    17.893203    23.532642     21.95246    9243.6178    469.70239    1447.2103    1915.8533   -229.39804   -372.66594   -279.83057    -4055.216 
20441000    138.96415    -4479.294   -4241.1142    -4479.294            0    2679.5738    18.193974    23.115592    21.885609    9204.3099    2215.8854    3629.7485    2193.0875   -64.277899   -181.54674   -288.31401   -3881.4205 
20442000    139.12337   -4481.2608   -4242.8082   -4481.2608            0    1574.0515    17.899718    23.531117    21.977153     9256.785    2441.0356    1720.1645     560.9545    203.34213   -255.26685   -221.69133   -4030.3101 
20443000    135.86273   -4479.8464   -4246.9824   -4479.8464            0    1836.1482    18.081351    23.197845    22.042178    9245.5558    2437.6784    1483.5128    1587.2535   -199.53357   -56.997923   -63.238424   -3999.4017 
20444000    146.36986   -4482.2846   -4231.4117   -4482.2846            0    2036.4815     17.90116    23.401976    22.054956    9239.3175    993.31457    1673.3154    3442.8146   -823.07711   -786.78704    57.728542    -3957.004 
20445000     139.3433   -4486.6393   -4247.8097   -4486.6393            0    2282.2585    17.884853    23.381082    21.979727    9191.2011    2638.9983    2314.1974    1893.5799   -185.86512     598.8566    571.56359   -3941.8861 
20446000    137.02421   -4478.1995   -4243.3447   -4478.1995            0    2109.8811    18.205521     22.99454    21.993333    9207.0158    2054.7553    2802.0413    1472.8467    477.14974    463.46887   -254.63433   -3960.0407 
20447000    132.59623   -4469.3504    -4242.085   -4469.3504            0    1653.2771     17.88127    23.588539    21.849704    9216.0532    559.21901    1685.3395    2715.2728    153.03818    69.845672    189.32873   -4019.8736 
20448000    143.71794   -4489.5554   -4243.2278   -4489.5554            0    2954.0715    18.069722    23.221525    21.871264    9177.3249    1181.1293    3787.7593    3893.3259    41.391941   -451.39334     65.01846   -3847.8493 
20449000    144.25629   -4484.6881   -4237.4378   -4484.6881            0    1790.8108    17.880392    23.498116    21.973321     9232.212    1727.7258    1930.4215     1714.285    1050.0418   -114.29915   -531.14421   -3996.3188 
20450000    139.06599   -4486.5838   -4248.2295   -4486.5838            0    3212.7901    17.960596    23.266418    21.968402     9180.128    3135.4926    3799.7993    2703.0784   -185.55765    649.33878    -684.3762   -3818.0923 
20451000    137.22583   -4480.9138   -4245.7135   -4480.9138            0    1302.8041    17.865981    23.465275     22.01217    9228.1654    1169.7488    1467.9052    1270.7583   -284.29964    647.82538   -719.06766   -4070.3778 
20452000    138.54009    -4481.179    -4243.726    -4481.179            0    1971.6048    18.060787    23.316344    21.844518    9198.9782    1500.2803    3090.4787    1324.0555   -669.95889    17.650724   -106.68953   -3979.2201 
20453000    135.50458   -4491.0836   -4258.8333   -4491.0836            0    1567.0142    18.100796    23.277631    21.905184    9229.6101    498.88984    2178.8063    2023.3466    -733.0413   -147.54735   -462.89463   -4047.9063 
20454000    132.14757   -4483.8882   -4257.3918   -4483.8882            0    1447.5921     17.78864    23.687064    21.882419    9220.3902    1638.5248    361.48748    2342.7642    357.88098    380.68067    456.59223   -4062.7342 
20455000    138.85984   -4502.5013   -4264.5003   -4502.5013            0    2731.3309    18.055179    23.150278     21.92349    9163.6329     2763.654    3387.3582    2042.9805    203.65437    226.14244    82.979808   -3899.4793 
20456000    136.90184   -4494.7786   -4260.1335   -4494.7786            0    1301.0371    17.992666     23.50839     21.84696    9240.7965    635.07555    1076.5865    2191.4493    80.329252    218.67195   -54.702844    -4084.796 
20457000    135.55291   -4483.2454   -4250.9123   -4483.2454            0    2043.2729    17.998963    23.374656    21.900771    9214.0828    1232.7278    1772.4939    3124.5972    250.25929    74.373182   -241.85133   -3976.3415 
20458000    139.13755   -4476.0275   -4237.5505   -4476.0275            0    576.73015      17.8992    23.415892    22.214106    9310.5034    1181.1717   -242.40012    791.41889    330.19679   -222.33437   -34.126278   -4159.2397 
20459000    138.77584   -4487.7865   -4249.9294   -4487.7865            0     1165.261     17.91158    23.411611    22.071388    9255.3927    1882.7767    582.40872    1030.5974   -525.31273   -200.18916    335.92684    -4092.642 
20460000    146.45327   -4479.1713   -4228.1554   -4479.1713            0    3145.7323    18.066506     23.06739    21.975793    9158.3488    1695.7428    4634.3129    3107.1411    3.9812434    177.73157    738.15731   -3807.9953 
20461000    136.44179    -4489.132   -4255.2754    -4489.132            0    696.23856    17.812369     23.69527    22.010586    9289.9836    2407.9028   -669.53281    350.34572   -138.03509   -464.80816    2.6657607   -4160.9456 
20462000    134.82225   -4477.6388   -4246.5581   -4477.6388            0    2335.5746    18.131959     23.22461    21.891944    9218.8656    2028.1175    2711.3895    2267.2167   -192.61636   -80.477958    245.50394   -3932.5454 
20463000    144.04449   -4484.0696   -4237.1823   -4484.0696            0    2345.5809    17.962893    23.420714    21.908333    9216.9183    1170.0759    3076.5455    2790.1212    446.54918    -612.9526   -177.47803    -3921.891 
20464000    142.83142   -4494.9754   -4250.1672   -4494.9754            0    2458.5535    17.992361    23.322485    21.906266    9192.4512    2488.6234    2369.3785    2517.6587   -717.70086   -14.308822   -435.49275   -3920.5675 
20465000    129.90722   -4496.4998   -4273.8432   -4496.4998            0    2382.6729    17.866565    23.276881    22.121713    9199.9318    2403.3693    3391.8298    1352.8196     -877.311    433.48885    400.07083   -3954.1563 
20466000    134.90005    -4487.193    -4255.979    -4487.193            0    2463.3079    17.879639    23.406009     22.00129     9207.342    3616.1534    1393.3369    2380.4332    745.55423   -47.969276    543.63907   -3925.2069 
20467000    134.45837    -4496.017   -4265.5599    -4496.017            0    2144.9986    18.116123    23.109319    22.031731    9223.6117    1920.1297    2057.3315    2457.5347    123.62332    40.426629     129.5564   -3977.0213 
20468000     139.9029   -4483.4298    -4243.641   -4483.4298            0    1919.2456    17.848385    23.526541    21.931356     9209.212    2211.1878    1080.6065    2465.9423    438.97726   -153.03107   -344.84371    -3985.873 
20469000    144.02737   -4486.3071   -4239.4491   -4486.3071            0    2414.0164    18.080783    23.233864    21.847616    9177.8876    1882.4495    2038.9675    3320.6322     83.75051    -925.0686    296.09394   -3916.3328 
20470000    133.10734   -4488.7389   -4260.5975   -4488.7389            0    2558.2178    17.970031    23.390862    21.850265    9184.4205    2114.8684    2900.8953    2658.8896   -155.96129   -283.42412    124.21976   -3917.9361 
20471000    147.63114   -4501.5043   -4248.4696   -4501.5043            0    2490.6003    18.051238     23.41475    21.736309    9187.1823     2512.253    2072.6392    2886.9089    757.55778   -884.80202   -226.71361   -3914.7649 
20472000    141.08643   -4501.7448   -4259.9275   -4501.7448            0    2294.5992    17.955099    23.264637    22.086855    9226.0961    3352.6103    1775.2798    1755.9077   -386.11938    229.61302   -348.95906    -3951.182 
20473000    134.89409   -4485.7826   -4254.5787   -4485.7826            0    902.93796    17.889731    23.438762    22.101002    9267.2407    581.82683    931.15951    1195.8276    699.09696    558.10248    47.973503   -4132.5438 
20474000    136.72597   -4479.8705   -4245.5269   -4479.8705            0    2077.3575    18.058954    23.161883     21.99303    9199.2311    590.06344    3439.2943    2202.7149    413.21529    26.046923   -94.978419   -3966.8258 
20475000    140.11571   -4497.5604   -4257.4069   -4497.5604            0    2424.8252    17.931126    23.398948     21.90594    9191.0635    2326.4816    2696.7405    2251.2535    317.00913   -488.47612    194.10341   -3932.3779 
20476000    145.15402   -4493.5843   -4244.7952   -4493.5843            0     2812.427    17.923471    23.148585    22.028607     9139.735    2962.7432     2498.127    2976.4108    372.81587   -589.70745   -257.48921   -3869.9165 
20477000    150.18929   -4474.0277   -4216.6084   -4474.0277            0    2065.8656    17.930054     23.41635    21.890336    9190.7982     2225.365    1668.1124    2304.1193    328.88838     422.8624   -125.25415   -3939.7032 
20478000    146.33672   -4484.8926   -4234.0765   -4484.8926            0     1604.409     18.07142    23.334454    21.874485    9224.1797    2484.0861    1693.3131    635.82792   -484.46661   -134.87848      557.176    -4018.243 
20479000    141.46028   -4483.8111   -4241.3531   -4483.8111            0    1662.1949    17.887884     23.40589    22.005005    9213.0962     1836.382    1174.4378     1975.765    849.79359    320.92441    -163.9441   -4018.0147 
20480000    140.45422   -4468.3071   -4227.5733   -4468.3071            0     1160.743    17.819339    23.362755    22.268067    9270.3934     2775.309    925.68791   -218.76801   -168.46757   -25.317168    673.64099   -4070.6418 
20481000    137.23335   -4471.2227   -4236.0094   -4471.2227            0    2019.7841    18.010943    23.347627    21.966307    9237.1131    1767.9516    1931.3246    2360.0762    269.73004    178.43492   -454.44237   -3963.9166 
20482000    143.24362   -4490.8167    -4245.302   -4490.8167            0    2012.9672    18.024847    23.524667    21.717326    9208.7659    728.30517     932.6083    4377.9882    195.20473    65.044301   -812.20395   -3974.9597 
20483000    137.23471   -4490.8632   -4255.6476   -4490.8632            0    2673.8718    18.016491    23.306547    21.895144    9193.8192    2586.8547    1873.1632    3561.5975   -1052.4462    98.864482    512.31084   -3897.1284 
20484000    141.49671   -4476.0397   -4233.5192   -4476.0397            0    2275.0076    18.012515    23.204788    22.032066    9208.8884    2692.3488    2545.2667    1587.4074   -669.19128    -357.5533    926.94848   -3927.9806 
20485000    136.13716   -4491.9957   -4258.6613   -4491.9957            0    1934.7116    17.795317    23.548734    21.950727    9198.6098    2651.7755    2297.5214    854.83791    371.27495    365.13034   -136.77471   -3999.1153 
20486000    135.87503   -4486.2245   -4253.3394   -4486.2245            0    2109.5552    18.094593    23.168342    21.949019    9201.5055    2017.9383    3888.8052    421.92209   -469.12745   -570.77914   -131.04413   -3970.2486 
20487000    148.71829   -4502.8923   -4247.9942   -4502.8923            0    2728.5786    17.888187    23.404807    21.903197     9170.202    3452.4657    3161.0616    1572.2084    372.14184     -455.114   -638.90403   -3883.0796 
20488000    140.69593   -4481.8964   -4240.7484   -4481.8964            0    1805.0982    17.916005    23.587443    21.892388    9251.5645    2354.9527    1350.6283    1709.7135    273.81603    465.36015   -435.21796   -3997.1963 
20489000    140.73994   -4487.3305   -4246.1071   -4487.3305            0    1675.8626    17.980353    23.265588    22.078001    9235.7462    2352.1027    2158.1931    517.29216   -268.96715   -598.29781   -193.48891   -4020.3786 
20490000    139.68878   -4481.1017   -4241.6799   -4481.1017            0    2815.4126    17.788174    23.432462    22.017937    9177.5321      3292.12    2528.7443    2625.3735   -190.08622    716.78002    -387.6639   -3864.8513 
20491000    135.41389   -4491.8737   -4259.7789   -4491.8737            0    2169.9062    18.077374    23.255523     21.91709    9213.9178    1673.0525    2084.7645    2751.9016    192.21751    670.47986    372.88366   -3968.1966 
20492000    142.67064    -4494.194   -4249.6614    -4494.194            0    1606.4564    17.909578    23.520715     21.91552    9231.8265    1432.4638    1190.7677    2196.1376   -1027.6433   -585.52104   -413.00109   -4033.3734 
20493000     152.0585   -4494.1063   -4233.4832   -4494.1063            0    1208.6939    18.039622    23.298256    22.017143    9253.6227    853.58561    1562.7796    1209.7164   -82.255118    255.82668    42.221291   -4070.3644 
20494000    140.88656   -4479.9182   -4238.4434   -4479.9182            0    1618.6208    17.894333    23.550571    21.889194    9224.5824    1417.8934    1780.5606    1657.4083    3.7671094     9.337279    767.81144   -4020.6887 
20495000    140.19576   -4472.7546   -4232.4638   -4472.7546            0    1721.4697    17.947284    23.354671    22.044352    9239.9543    1864.1202    2267.9196    1032.3692    685.03559     -544.004    279.91037   -4000.4867 
20496000     137.1612   -4485.0137   -4249.9241   -4485.0137            0    1933.2688    17.854112    23.243387    22.194631    9210.5507    955.88361    1699.8575    3144.0655   -128.11003   -186.60609    12.850079    -3990.235 
20497000    139.96943   -4490.4092   -4250.5063   -4490.4092            0    2208.0119    17.921178    23.417091    21.919763    9198.8887    2235.6212    1219.2058    3169.2085   -219.50485   -564.36213   -67.106707   -3954.2875 
20498000    145.81733   -4478.6115   -4228.6856   -4478.6115            0    1558.4305    18.084247    23.365381    21.757623    9193.5818    422.54055    2432.4681    1820.2829   -222.52918    79.836507   -328.56166   -4019.7329 
20499000     133.4487   -4487.9461   -4259.2196   -4487.9461            0    2220.7963     17.95316    23.335532    21.899277    9174.6263    1397.2093    3325.5368    1939.6426     995.2323    2.2250132   -216.81423   -3962.0714 
20500000    145.01694   -4471.1962   -4222.6421   -4471.1962            0    1373.3753    17.954833    23.236051     22.05533     9201.471    2100.4587    2031.2293   -11.562088    214.04834    192.55403   -560.77122   -4038.3433 
Loop time of 395.876 on 64 procs for 250000 steps with 864 atoms

Performance: 109.125 ns/day, 0.220 hours/ns, 631.511 timesteps/s
193.0% CPU use with 32 MPI tasks x 2 OpenMP threads

MPI task timing breakdown:
Section |  min time  |  avg time  |  max time  |%varavg| %total
---------------------------------------------------------------
Pair    | 17.813     | 25.105     | 34.464     | 107.9 |  6.34
Bond    | 0.90149    | 1.0393     | 1.304      |   8.5 |  0.26
Kspace  | 197.3      | 208.55     | 217.56     |  40.5 | 52.68
Neigh   | 0.8297     | 0.89277    | 0.99805    |   4.9 |  0.23
Comm    | 59.392     | 64.411     | 67.767     |  23.1 | 16.27
Output  | 0.64985    | 0.65017    | 0.65185    |   0.0 |  0.16
Modify  | 71.69      | 73.351     | 76.789     |  14.6 | 18.53
Other   |            | 21.88      |            |       |  5.53

Nlocal:        27.0000 ave          39 max          17 min
Histogram: 5 2 5 3 3 3 3 3 1 4
Nghost:        2153.81 ave        2266 max        2053 min
Histogram: 8 3 5 0 0 0 1 7 2 6
Neighs:        6599.31 ave        9391 max        4093 min
Histogram: 5 2 4 4 2 3 4 3 2 3

Total # of neighbors = 211178
Ave neighs/atom = 244.41898
Ave special neighs/atom = 2.0000000
Neighbor list builds = 3040
Dangerous builds = 0

unfix		3
unfix		2
unfix		1

write_data	data.final.${pid} nocoeff
write_data	data.final.1 nocoeff
System init for write_data ...
PPPM initialization ...
  extracting TIP4P info from pair style
  using 12-bit tables for long-range coulomb (../kspace.cpp:340)
  G vector (1/distance) = 0.37187001
  grid = 24 27 25
  stencil order = 5
  estimated absolute RMS force accuracy = 0.0031427304
  estimated relative force accuracy = 9.4642393e-06
  using double precision FFTW3
  3d grid and FFT values/proc = 4410 672
Last active /omp style is kspace_style pppm/tip4p/omp

write_restart   restart.lmp.${pid}
write_restart   restart.lmp.1
System init for write_restart ...
PPPM initialization ...
  extracting TIP4P info from pair style
  using 12-bit tables for long-range coulomb (../kspace.cpp:340)
  G vector (1/distance) = 0.37187001
  grid = 24 27 25
  stencil order = 5
  estimated absolute RMS force accuracy = 0.0031427304
  estimated relative force accuracy = 9.4642393e-06
  using double precision FFTW3
  3d grid and FFT values/proc = 4410 672
Last active /omp style is kspace_style pppm/tip4p/omp
Total wall time: 0:06:36
