LAMMPS (30 Jul 2021)
Processor partition = 1
  using 2 OpenMP thread(s) per MPI task
using multi-threaded neighbor list subroutines
variable        pid world 0 1
variable        phase world IceIh IceIII

shell cd ${phase}
shell cd IceIII
include Restart.lmp
echo both
log log.lammps
#include		in.partitions
include		in.temp
variable        temperature equal 210.22
variable	tempDamp equal 100.0
include		in.pressure
variable        pressure equal 1649.6
variable        pressureDamp equal 1000.0 # This is 1 ps
include		in.seed
variable        seed equal 745823

units		real
atom_style	full

read_restart	restart.lmp.${pid}
read_restart	restart.lmp.1
Reading restart file ...
  restart file = 30 Jul 2021, LAMMPS = 30 Jul 2021
  restoring atom style full from restart
  orthogonal box = (-0.095008586 -0.048132445 -0.085497748) to (20.095010 20.048133 20.785496)
  4 by 2 by 4 MPI processor grid
  restoring pair style lj/cut/tip4p/long/omp from restart
  restoring bond style harmonic/omp from restart
  restoring angle style harmonic/omp from restart
  972 atoms
  648 bonds
  324 angles
Finding 1-2 1-3 1-4 neighbors ...
  special bond factors lj:    0        0        0       
  special bond factors coul:  0        0        0       
     2 = max # of 1-2 neighbors
     1 = max # of 1-3 neighbors
     1 = max # of 1-4 neighbors
     2 = max # of special neighbors
  special bonds CPU = 0.002 seconds
  read_restart CPU = 0.007 seconds
include 	in.setup
variable	out_freq equal 1000
variable	out_freq2 equal 10000
variable	out_freq3 equal 1000

timestep	2.0

neigh_modify    delay 7 every 1

include		in.tip4p
# This is TIP4P/Ice

# create groups ###
group ox type 2
324 atoms in group ox
group hy type 1
648 atoms in group hy

# set charges - beside manually ###
set group ox charge -1.1794
Setting atom values ...
  324 settings made for charge
set group hy charge 0.5897
Setting atom values ...
  648 settings made for charge

# ### TIP3P Potential Parameters ###
pair_style lj/cut/tip4p/long/omp 2 1 1 1 0.1577 8.5
pair_coeff 1 1*2 0.000 0.000
pair_coeff 2 2 0.21084 3.1668
bond_style  harmonic
bond_coeff  1 450 0.9572
angle_style harmonic
angle_coeff 1 55 104.52
kspace_style pppm/tip4p/omp 1.0e-5
pair_modify tail yes

thermo          ${out_freq}
thermo          1000
thermo_style    custom step temp pe etotal epair emol press lx ly lz vol pxx pyy pzz pxy pxz pyz enthalpy

restart 	${out_freq3} restart.lmp.${pid} restart2.lmp.${pid}
restart 	1000 restart.lmp.${pid} restart2.lmp.${pid}
restart 	1000 restart.lmp.1 restart2.lmp.${pid}
restart 	1000 restart.lmp.1 restart2.lmp.1


include         in.dump
dump            myDump all atom ${out_freq2} dump.water.${pid}
dump            myDump all atom 10000 dump.water.${pid}
dump            myDump all atom 10000 dump.water.1
dump            myDump2 all dcd ${out_freq2} dump.dcd
dump            myDump2 all dcd 10000 dump.dcd
dump_modify     myDump append yes
dump_modify     myDump2 append yes


variable natoms 	equal  "count(all)"                        # NUMBER ATOMS
variable H      	equal  "enthalpy/v_natoms"                 # ENTHALPY-per-atom
variable Vol      	equal  "vol/v_natoms"                 # volume-per-atom
fix AVG all 		ave/time ${out_freq} 1 ${out_freq} v_Vol v_H file vol_enthalpy.dat
fix AVG all 		ave/time 1000 1 ${out_freq} v_Vol v_H file vol_enthalpy.dat
fix AVG all 		ave/time 1000 1 1000 v_Vol v_H file vol_enthalpy.dat


timer           timeout 02:55:00 every 1000
New timer settings: style=normal  mode=nosync  timeout=02:55:00

fix 		1 all shake 1e-6 200 0 b 1 a 1
Finding SHAKE clusters ...
       0 = # of size 2 clusters
       0 = # of size 3 clusters
       0 = # of size 4 clusters
     324 = # of frozen angles
  find clusters CPU = 0.000 seconds
fix             2 all nph aniso ${pressure} ${pressure} ${pressureDamp}
fix             2 all nph aniso 1649.6 ${pressure} ${pressureDamp}
fix             2 all nph aniso 1649.6 1649.6 ${pressureDamp}
fix             2 all nph aniso 1649.6 1649.6 1000
fix             3 all temp/csvr ${temperature} ${temperature} ${tempDamp} ${seed}
fix             3 all temp/csvr 210.22 ${temperature} ${tempDamp} ${seed}
fix             3 all temp/csvr 210.22 210.22 ${tempDamp} ${seed}
fix             3 all temp/csvr 210.22 210.22 100 ${seed}
fix             3 all temp/csvr 210.22 210.22 100 745823


run             250000
PPPM initialization ...
  extracting TIP4P info from pair style
  using 12-bit tables for long-range coulomb (../kspace.cpp:340)
  G vector (1/distance) = 0.37189701
  grid = 24 24 25
  stencil order = 5
  estimated absolute RMS force accuracy = 0.0034710597
  estimated relative force accuracy = 1.0452993e-05
  using double precision FFTW3
  3d grid and FFT values/proc = 3458 576
Last active /omp style is kspace_style pppm/tip4p/omp
Neighbor list info ...
  update every 1 steps, delay 7 steps, check yes
  max neighbors/atom: 2000, page size: 100000
  master list distance cutoff = 10.8154
  ghost atom cutoff = 10.8154
  binsize = 5.4077, bins = 4 4 4
  1 neighbor lists, perpetual/occasional/extra = 1 0 0
  (1) pair lj/cut/tip4p/long/omp, perpetual
      attributes: half, newton on, omp
      pair build: half/bin/newton/omp
      stencil: half/bin/3d
      bin: standard
Setting up Verlet run ...
  Unit style    : real
  Current step  : 8500000
  Time step     : 2
  Walltime left : 2:54:59.93
Per MPI rank memory allocation (min/avg/max) = 10.19 | 10.19 | 10.20 Mbytes
Step Temp PotEng TotEng E_pair E_mol Press Lx Ly Lz Volume Pxx Pyy Pzz Pxy Pxz Pyz Enthalpy 
 8500000    218.97003     -4778.76   -4356.4579     -4778.76            0    1981.2972    20.190018    20.096266    20.870993    8468.2798    2947.1226    350.58341    2646.1857   -437.32195     222.4151    994.51008   -4111.7654 
 8501000    212.11245   -4818.7374   -4409.6607   -4818.7374            0    1537.0291    19.951404    20.199354    21.257998    8567.0899    1905.8981    1947.4824    757.70666   -215.54185    51.736371   -235.30423   -4217.6208 
 8502000    216.94156   -4816.5436   -4398.1535   -4816.5436            0     1419.046    20.061831     20.10993    20.981445    8464.7968    1335.5492    1627.3163    1294.2724    332.51866   -173.11169   -171.02044   -4222.9718 
 8503000    213.87964   -4819.7563   -4407.2715   -4819.7563            0    1703.3576    20.201079    20.029138    20.916744     8463.128    1925.1463    1180.7879    2004.1386    253.87739   -326.79898   -935.13823   -4197.0328 
 8504000    208.66224   -4838.7966   -4436.3739   -4838.7966            0    1029.4306    20.047665    20.076944    21.004266    8454.1298     976.0152    1739.0171    373.25949   -243.06314    848.05547   -1092.3093   -4309.4504 
 8505000    210.77916   -4803.0572   -4396.5519   -4803.0572            0    4723.9353    19.802093     20.15643     21.20432    8463.4818    6600.4102    3690.0102    3881.3855    238.85483    551.61752   -882.11362   -3813.4708 
 8506000    218.70705   -4807.2566   -4385.4617   -4807.2566            0    1599.5975      20.2309     19.98605    20.852898    8431.5728    889.29336    1798.8336    2110.6655    412.94628   -389.37093   -869.88644   -4188.7658 
 8507000    208.48058   -4800.7008   -4398.6284   -4800.7008            0    553.69326    20.493566    20.062809    20.825392    8562.5371   -1269.1949    1131.9207     1798.354    651.27013   -677.23967    506.53862   -4329.4855 
 8508000    219.08945   -4820.9684   -4398.4359   -4820.9684            0    245.23618    20.096051    20.153001    21.113667    8550.9452    295.78001   -990.73107    1430.6596   -327.24398   -171.00137   -198.62599   -4367.8533 
 8509000    216.16035   -4793.4885   -4376.6051   -4793.4885            0    1320.7711    20.180859    19.912409    21.002983    8440.0388    904.22116    1262.2114    1795.8806   -526.73331    884.64739    339.97259   -4214.0323 
 8510000    207.27079   -4779.3662   -4379.6271   -4779.3662            0    2672.4918    20.022499    20.203582    20.841154    8430.7932    702.79127    4420.1333     2894.551   -670.83895    224.31661   -238.42201   -4051.0323 
 8511000    211.15435   -4808.1786   -4400.9497   -4808.1786            0    1754.9984    19.948893    20.141328    21.004388    8439.5041    2872.8945   -25.208841    2417.3096   0.54240865    1058.5104    186.22376   -4184.9419 
 8512000    211.77173   -4769.7906    -4361.371   -4769.7906            0    674.41223     20.10718    20.141724    21.176164    8576.2035    2048.2787   -421.08566    396.04364   -191.35601    860.91265    1053.1794   -4277.0188 
 8513000    216.16302   -4783.3807   -4366.4921   -4783.3807            0    1230.3844    20.099248    20.097935     20.99706    8481.8335    846.42349    1002.9261    1841.8036    211.93975   -162.67668    643.24312    -4214.295 
 8514000    203.85803   -4802.8159   -4409.6585   -4802.8159            0   -169.92502    20.255669    20.081623     21.06937     8570.318   -581.86811   -383.79452    455.88756    341.19097    550.15876   -719.33259   -4430.8973 
 8515000    207.88458   -4805.8088   -4404.8859   -4805.8088            0    2192.8952    20.217713    19.864845     21.07388    8463.7283    1801.7617    3466.3425    1310.5815    452.97364   -739.55376    777.49619   -4134.2063 
 8516000    206.72918   -4797.8874   -4399.1928   -4797.8874            0    2364.5075    20.152676    20.014495    20.877323    8420.7769    1567.1712    2003.7149    3522.6365    346.75787    302.78175   -252.48488   -4108.8114 
 8517000    215.46142   -4816.7433   -4401.2079   -4816.7433            0    2233.0675     20.04894    20.135602    21.013697    8483.1769     1929.317    1910.4075    2859.4779   -243.99349    846.99592    384.51653   -4124.9363 
 8518000    199.27661   -4809.6726   -4425.3509   -4809.6726            0    2293.9613    20.002424    20.118999    21.028734    8462.5672    2186.7464    1740.0999    2955.0375    249.72901     599.5342    143.52889   -4142.2351 
 8519000    205.52836   -4804.9419   -4408.5632   -4804.9419            0    1290.8744    20.201797    19.905109    21.105267    8486.8282    965.52731    2885.4253    21.670544    221.29126   -342.71617   -573.98067   -4248.7895 
 8520000    209.06916   -4805.4287   -4402.2213   -4805.4287            0    3133.4405     20.27767    20.022392    20.763369    8430.0827    2945.7811    2713.2629    3741.2776    427.52742    112.61487    407.60114   -4016.9832 
 8521000    207.76619   -4825.6655   -4424.9709   -4825.6655            0    1631.7421    20.237393    20.021494    21.009972    8512.8807    1274.6579    1427.1328    2193.4357   -391.09597   -415.99285    176.13842   -4222.3875 
 8522000    222.61231   -4829.1515   -4399.8249   -4829.1515            0    1755.9598    20.131073    19.943697    21.193823    8509.0658      1311.58    2701.1737    1255.1256    322.95365   -101.25682    1277.3869   -4181.9174 
 8523000     206.9346   -4816.2408     -4417.15   -4816.2408            0    2331.7957    19.909626    20.133058    20.937351    8392.5626    3250.4094    1936.5287    1808.4491   -161.48983   -289.62301   -787.09333   -4131.7454 
 8524000    219.19816   -4781.7563   -4359.0143   -4781.7563            0    2056.6766    20.000593    20.323026    20.819057    8462.3759    3586.4882    1057.7626    1525.7789    135.36184   -233.50453    735.21602   -4105.1894 
 8525000    219.25837   -4794.3408   -4371.4826   -4794.3408            0    1330.3507    20.154904    20.077991    20.991355    8494.5712    131.64973    2215.1345    1644.2678   -461.71081   -699.29005    684.20607   -4206.6727 
 8526000    214.52986   -4789.4601   -4375.7212   -4789.4601            0    971.52816    20.052165     20.01875    21.212649    8515.1662    1005.7302    880.17931    1028.6749   -176.65381    418.69819   -429.02652   -4255.0721 
 8527000    223.74053    -4803.322   -4371.8196    -4803.322            0    1802.3337    20.249834     20.08178    20.736605    8432.5969    3063.9206     1256.733    1086.3474   -1001.3826    1077.0624   -1146.4393   -4150.1672 
 8528000    205.59012   -4808.6794   -4412.1816   -4808.6794            0    1313.0885    20.107774    19.830066    21.092198    8410.2711    2004.0864    1602.0841    333.09506    -418.3997   -13.741696    -509.0038   -4251.1245 
 8529000    210.20168   -4798.3396    -4392.948   -4798.3396            0    1018.6029    20.127162    20.152746    20.967456     8504.769    132.17415    1567.2226    1356.4119   -238.01419   -1040.4739    358.23837   -4266.6073 
 8530000    213.58088   -4791.8885   -4379.9798   -4791.8885            0    2010.1276    20.030846    20.051045    21.103288    8475.9116    1831.7799    1945.1706    2253.4323   -588.76518    544.78326    780.94853   -4131.5029 
 8531000    207.36027   -4777.4142   -4377.5025   -4777.4142            0    1369.0539    20.144406    20.156386    20.885054    8480.1341    2714.6721     267.6629    1124.8267    258.01244    240.16066    58.652113    -4208.186 
 8532000    214.72803   -4807.5588   -4393.4377   -4807.5588            0    1425.6286    19.985281    20.237405    21.010202    8497.5809     1827.393    1050.3071    1399.1859    15.228111     290.7131   -121.34614   -4216.7617 
 8533000    211.31221   -4805.1564    -4397.623   -4805.1564            0    336.22034    20.095072    20.112017    21.240316    8584.3256    1435.4851   -978.95061    552.12647   -37.902238   -844.64538    1054.4076   -4355.5304 
 8534000    210.12251   -4819.0329   -4413.7939   -4819.0329            0    2277.2834    20.135705    20.266273    20.633059    8419.8499    1199.8933    1867.7184    3764.2385    320.05608    833.41915   -128.56856   -4134.1552 
 8535000    208.00348   -4839.3963    -4438.244   -4839.3963            0     2163.161    19.976469    20.060308    21.009288    8419.1383    3455.4544    2985.7486    48.280043    34.695416    -857.6683   -547.33619   -4172.6414 
 8536000    204.70994   -4824.4077   -4429.6074   -4824.4077            0    1903.4951    20.022882    20.053676     21.13945    8488.1739    2739.9853    2080.4667    890.03341   -212.71393   -156.16295   -1231.5707   -4193.9712 
 8537000    216.75058   -4823.3898   -4405.3681   -4823.3898            0    2323.0062    20.238413    20.139007     20.57338    8385.3302    516.79883    2553.9257     3898.294   -728.82957    1047.7992   -603.96383   -4121.2843 
 8538000    218.48259   -4807.2536   -4385.8916   -4807.2536            0    1852.0051    20.071493      19.9918    20.982516    8419.5548     441.8268    3605.2701    1508.9186   -172.97269    12.226815    735.25889   -4158.4828 
 8539000    203.64599   -4807.5238   -4414.7754   -4807.5238            0    1111.1901    20.038724    20.114869    21.072473    8493.8145    2420.5745    437.29839    475.69751    902.21169    -995.3949     415.8025   -4277.1283 
 8540000    206.47966   -4801.8468   -4403.6334   -4801.8468            0    1607.8532    20.134417    20.162385    20.853398    8465.6007     287.6909    3380.6451    1155.2237   -627.77864    113.75584    1015.8213   -4205.1244 
 8541000    213.98096   -4805.5037   -4392.8234   -4805.5037            0    2354.7711    20.026375     19.96003     21.24007    8490.2305    3108.9484      2292.57    1662.7948   -41.770909    1096.6348    577.93809   -4101.2526 
 8542000    213.26387   -4821.5476   -4410.2503   -4821.5476            0     748.6326    20.234514    20.087976    20.924292    8505.1056    592.89168    793.37063    859.63549   -651.52457    945.29997   -172.65159   -4317.3912 
 8543000    225.32925   -4817.7977   -4383.2313   -4817.7977            0    783.07513    20.216234    20.171343    20.831724    8494.9395    1808.5347   -684.50335     1225.194   -415.89837   -583.20777   -714.61381   -4286.2161 
 8544000    204.46992   -4823.4583   -4429.1209   -4823.4583            0    1785.6276    20.008608     19.95243    21.222596    8472.4921    1326.9914    2861.9194    1167.9719   -797.99454   -1330.2559   -441.15212   -4208.4841 
 8545000    201.74809   -4822.4394   -4433.3513   -4822.4394            0    632.98019    20.141682    20.189681    20.842502    8475.6895    615.46904   -157.61159    1441.0831   -69.817341    580.51627   -1115.0757   -4355.1091 
 8546000    205.10394   -4812.9561   -4417.3959   -4812.9561            0    1177.6696     20.24659    20.108373    20.969093    8537.0626   -461.01707    1824.5163    2169.5097   -466.19753   -322.23945   -397.80552   -4270.7709 
 8547000     211.4566   -4814.4019     -4406.59   -4814.4019            0    1777.7864    20.013027    20.035047    21.208668    8503.8687    3150.0739    1499.4757    683.80967   -374.30284   -96.752708   -1095.4831   -4186.1086 
 8548000    205.54704   -4814.6131   -4418.1983   -4814.6131            0    3134.9848    20.056928    20.110294    20.925524    8440.3254     3591.766    2039.6789    3773.5097   -419.49305   -357.88362   -193.00394   -4032.3021 
 8549000    211.51609   -4801.0257   -4393.0992   -4801.0257            0    761.03921    20.254209    20.068339    21.002343    8536.7872    85.419618    644.30402     1553.394   -221.99398    144.60425   -551.47045   -4298.3496 
 8550000    201.02457   -4805.5202   -4417.8275   -4805.5202            0     3472.786     19.97175    20.117818    20.982701     8430.598    5894.3168    1838.7349    2685.3064     18.09808    868.63881   -706.10983   -3990.8428 
 8551000    224.05107   -4771.2727   -4339.1713   -4771.2727            0    1033.4335    20.112528    20.323507    20.773757    8491.4206    2120.3589   -1101.9462    2081.8877   -265.50461    1275.3012    1520.0452   -4211.1923 
 8552000    204.82638   -4815.6985   -4420.6736   -4815.6985            0    2470.3504    20.126275    20.088794    21.034893     8504.672    3337.1128     2237.944    1835.9945   -164.69584    1097.2166   -877.78329   -4114.2713 
 8553000    202.78754   -4819.2002   -4428.1074   -4819.2002            0    460.39208    20.120071    20.088467    21.045848    8506.3398   -218.54017    1248.7151    351.00136    452.55898   -453.09765    600.58712   -4370.9929 
 8554000    211.50797    -4785.481   -4377.5701    -4785.481            0    2015.8143    20.202027    20.044399    21.022684    8512.8731   -393.84864    2651.3866     3789.905   -400.21158   -358.64878   -448.56024   -4127.3037 
 8555000    207.63294   -4790.5837   -4390.1461   -4790.5837            0    5328.0908    19.957332      19.9891    20.892132    8334.4793    3960.8512    6750.4553     5272.966   -263.40074   -128.81467   -870.73014   -3742.5175 
 8556000    219.83759   -4795.4606   -4371.4854   -4795.4606            0    2696.3325    20.061683    20.058325    21.066376     8477.189    2679.5014    2883.3078    2526.1882   -311.20106   -289.63654    902.61841   -4038.1348 
 8557000    202.17772    -4818.584   -4428.6673    -4818.584            0    1089.7367    20.164081    20.325085    20.688105    8478.7439    5.6510189    756.32471    2507.2345    765.81632   -59.902675   -716.07232   -4293.9172 
 8558000    210.83865    -4808.888    -4402.268    -4808.888            0    2441.5497    20.149148    20.026246    21.000523    8473.9589    2061.9485    2502.5269    2760.1738    -451.2581    904.36684   -529.59126   -4100.5315 
 8559000    211.82629   -4809.8405   -4401.3156   -4809.8405            0    1825.8152    20.141961    19.867818    21.175307    8473.8665    1402.5938    2242.1349    1832.7168    196.01264   -462.37372   -84.720568   -4175.6766 
 8560000    210.59758   -4810.8202   -4404.6651   -4810.8202            0    1817.5846    20.126179    20.204349    20.787109    8452.7937    1607.1018    2119.3472    1726.3046   -386.12838    415.08187    459.29606   -4180.6017 
 8561000    220.81053   -4820.6237    -4394.772   -4820.6237            0    171.87751    20.111362    20.055779    21.143433    8528.1831   -130.06395    2104.0207   -1458.3242   -394.43472     1080.283    155.15038   -4373.3948 
 8562000    233.47965   -4813.1438   -4362.8587   -4813.1438            0    2468.7466    20.014775    20.108471    21.125772    8502.4158    3233.0692     1605.118    2568.0527   -672.41438    408.24286    219.23782   -4056.7365 
 8563000     214.8387   -4793.5262   -4379.1917   -4793.5262            0    2609.4324    20.135521    20.120908    20.811784    8431.7893    1883.9982     3473.889      2470.41   -394.22072    1334.3543    -237.7634   -4058.3124 
 8564000    210.17803   -4808.3799   -4403.0339   -4808.3799            0    774.25069    20.179099    20.032843    21.081176     8521.954    510.25534    213.34238    1599.1543   -119.62874   -598.50898   -414.65798   -4306.8069 
 8565000    211.25811   -4812.9356   -4405.5066   -4812.9356            0    3010.5619    20.058591    19.960818    21.006955    8410.8885     4140.568    2887.4568    2003.6609   -226.25044   -656.64852   -164.01471   -4036.2185 
 8566000    215.26692    -4784.854   -4369.6936    -4784.854            0    2686.0632    20.214695    19.983495      20.9802    8475.1669     1138.997    3642.8209    3276.3716   -433.14254   -384.45484   -303.61381   -4037.6919 
 8567000    205.69493   -4808.5936   -4411.8936   -4808.5936            0    499.85148    20.218054    19.905498    21.140322    8507.9316    -358.7946    1439.8422    418.50687    -563.9276   -645.32545    420.03291   -4349.8723 
 8568000    205.89904   -4800.2916    -4403.198   -4800.2916            0   -89.823961    20.359589    20.294025    20.733324    8566.5533   -1910.6525    234.22183    1406.9587   -743.92902    818.76599   -708.22919   -4414.4201 
 8569000    199.94634    -4815.001   -4429.3877    -4815.001            0    2464.4365    20.034417    20.047308    20.998633    8433.8096    3749.3934     1775.486    1868.4302    373.72084   -39.789065    598.74371   -4126.2658 
 8570000    203.94308    -4783.151   -4389.8296    -4783.151            0    1227.8912    20.293972    19.979104    21.023566    8524.1178    1270.1817    1192.1049     1221.387    -176.9513   -768.39228   -161.71263   -4237.1837 
 8571000    216.85304   -4814.0127   -4395.7934   -4814.0127            0    2143.6575    20.011723    20.044459    21.012013    8428.4261    2259.2557    2325.1189    1846.5979    59.850717    410.43752    580.39365   -4132.2951 
 8572000    231.65946    -4797.522   -4350.7472    -4797.522            0    2255.7737    19.974433    20.233087    21.028064    8498.3749    1986.8017    3360.3182    1420.2012     149.4849    348.55578     311.6002   -4071.1665 
 8573000     193.8638   -4800.1377   -4426.2551   -4800.1377            0    1220.5184    20.193699    20.038253    21.022815    8506.8075    1592.2522    1858.3434    210.95953   -302.49273    125.59043   -294.17445   -4274.8338 
 8574000    210.79509   -4828.9492   -4422.4131   -4828.9492            0    1329.6176    20.188015    20.161407    20.964863    8533.0931    926.44159    1455.4551    1606.9562   -647.06031   -283.73087   -172.28633    -4256.947 
 8575000    203.93789   -4801.1375   -4407.8261   -4801.1375            0    2596.9034    20.045653    20.122538     20.87903    8421.9622     3128.402    2333.0448    2329.2635    416.17543    30.265118      588.158   -4088.8597 
 8576000    209.09334   -4805.7871    -4402.533   -4805.7871            0    199.93639    20.094239    20.093139    21.120842    8527.6739    1967.7876   -1452.3668    84.388342    1032.3397    847.46931   -642.16252   -4377.6674 
 8577000     206.3175   -4843.9068   -4446.0062   -4843.9068            0    155.54058    20.227151    20.087676    20.994771    8530.5212   -707.46352    415.53428    758.55097   -361.93386   -56.143761   -333.35464   -4426.6555 
 8578000    213.31022   -4777.8526   -4366.4659   -4777.8526            0     1427.273    20.281813    20.031699    20.829993    8462.7922     936.6423    1461.7534    1883.4234   -325.61507    1661.3364    947.43742   -4190.3102 
 8579000    202.43633   -4808.3383   -4417.9229   -4808.3383            0      2357.52    19.955448    20.155481    21.175744    8517.1309     2424.464    2237.7771     2410.319   -754.78591    734.12007    428.34186   -4125.0868 
 8580000    208.20942   -4783.1329   -4381.5835   -4783.1329            0    919.98506    20.129053     20.16213    21.023427    8532.2441    2104.8222    662.85331   -7.7203613   -107.73835   -250.38163    725.70277    -4267.106 
 8581000    208.37308   -4793.6795   -4391.8145   -4793.6795            0    1659.2285     19.98699    20.092711    21.005618    8435.7052    1984.4241    1986.2388    1007.0224     427.9576   -573.54029    -762.6705   -4187.6861 
 8582000    209.01721   -4819.1206   -4416.0133   -4819.1206            0    1677.7873    19.959546    20.253346    20.899544    8448.5906     1329.652    1290.7938     2412.916   -335.08288   -37.610442   -63.324292   -4209.2864 
 8583000    215.59307   -4801.5676   -4385.7783   -4801.5676            0   -215.25467    20.222624    20.081644    21.026069    8538.7605    354.81422   -1487.9475     487.3693   -297.93499   -440.23292    189.74488   -4412.5837 
 8584000    221.97821   -4794.0697    -4365.966   -4794.0697            0    1028.0956    19.935617    20.262596    21.121539    8531.9904    2190.7496   -758.37921    1651.9165    -659.7325    645.11526    785.87737   -4238.0398 
 8585000    204.83219   -4813.5764   -4418.5403   -4813.5764            0      944.777     20.24864    20.106419    20.909039     8512.648   -565.44737    2122.2728    1277.5056   -668.76393    1766.2139    107.06878   -4301.2479 
 8586000    197.33765   -4795.0103    -4414.428   -4795.0103            0    2214.0685    20.147817    19.938639    21.090982    8472.6703    1887.9022    1660.5305    3093.7728   -579.35016    598.73855   -392.97664   -4140.8462 
 8587000    199.86844   -4795.5906   -4410.1275   -4795.5906            0    1041.1597    20.053345    20.137693    20.992999    8477.5631    2364.2997    967.74313   -208.56367   -441.31384     87.20571   -62.493634   -4281.4021 
 8588000     207.2071   -4798.3347   -4398.7184   -4798.3347            0     2226.779    20.233429    19.998917    20.830804    8429.1153    2077.7482    2238.6228     2363.966   -704.36516   -235.27475   -101.27154   -4124.9805 
 8589000    200.52098   -4831.2331   -4444.5115   -4831.2331            0    644.53714    20.035592    20.157243    21.123178    8530.8553    1749.9245   -816.12115    999.80811    26.432077   -51.333697    797.53283   -4364.3222 
 8590000    200.54951   -4794.0835   -4407.3069   -4794.0835            0    1859.6401    20.038716    20.086704    21.110057    8497.0459    2534.9439    1992.0609    1051.9156   -103.11138   -755.14774    406.86313    -4176.859 
 8591000    207.56724   -4811.4208   -4411.1099   -4811.4208            0    2154.3747    20.063521    20.231894     20.83629    8457.9302    2459.4974    1762.5819    2241.0449    527.56681   -335.53256   -969.78517   -4145.3673 
 8592000    210.79192   -4814.8664   -4408.3364   -4814.8664            0    1763.3829    20.062718    19.865605    21.315508     8495.467    2585.7168    2242.8338    461.59812   -198.06807    78.711393   -79.610642   -4189.8574 
 8593000    220.29728   -4806.7555   -4381.8936   -4806.7555            0    1213.5898    20.003003    20.166211    21.089127    8507.0329    1862.4325   -17.833258      1796.17    -505.5405   -374.04444   -1464.7887    -4231.328 
 8594000    206.22436   -4798.3569   -4400.6359   -4798.3569            0    2430.6324    20.063139    20.037081    20.919444    8409.7579    4039.0799    1987.7293     1265.088   -480.78583    1731.0877   -335.16498   -4102.5244 
 8595000    204.12836   -4826.0644   -4432.3857   -4826.0644            0    1569.5934    19.905604    20.109302    21.232873    8499.2601    2042.7603    2105.8082    560.21167   -69.039396   -1085.3864    388.77555   -4237.8299 
 8596000    210.92276   -4797.8416   -4391.0594   -4797.8416            0     1843.852    20.115362    20.227855    20.887784    8499.0436     3620.128    796.30159    1115.1264    135.09403    123.27652    416.28078   -4162.5142 
 8597000    210.55571   -4804.7853   -4398.7109   -4804.7853            0    1281.4784    19.980769    20.314514    20.881596    8475.8316    2793.5756   -577.01911    1627.8789    626.02579     903.5791   -780.51792   -4240.3056 
 8598000    210.63114   -4811.9314   -4405.7115   -4811.9314            0    3462.3059    20.008728    20.019529    21.030588    8424.1239     3808.737    3004.9336    3573.2472   -535.46012    1470.8688   -252.99397   -3980.3423 
 8599000    208.43652   -4809.4356   -4407.4482   -4809.4356            0    2025.4826    19.941602    20.049985    21.065889    8422.7496    3148.9418    813.76284    2113.7432   -422.32048   -279.59499    258.59183   -4158.6437 
 8600000     208.3817   -4806.1596    -4404.278   -4806.1596            0    594.31338    20.130793     20.16747    20.980967    8518.0032    1582.2443   -27.974875    228.67073   -180.29355   -19.864946     480.4114   -4330.4486 
 8601000    205.41147   -4830.3207   -4434.1674   -4830.3207            0    1596.8311    20.200644    19.855143    21.098081    8462.1594    834.84797    3275.3154    680.32986    466.89323   -82.382045   -619.23003   -4237.0994 
 8602000     209.8067   -4802.2308    -4397.601   -4802.2308            0     1416.541    20.101791    20.112606    20.936987    8464.8114    601.24076    2703.5329    944.84932   -160.43008    432.63646    922.02468   -4222.7282 
 8603000    209.41131   -4789.5131   -4385.6458   -4789.5131            0    3261.5217    20.026431    20.112451    20.926976    8428.9802    4985.7729    988.54063    3810.2514   -258.49338    52.319063    427.54059   -3984.7134 
 8604000    220.37576   -4815.1038   -4390.0906   -4815.1038            0    849.88555     20.03857    20.075455    21.122657    8497.2943    1214.7624    1182.8652    152.02897   -47.155243   -1075.2566    651.67588   -4284.7691 
 8605000     213.6225   -4766.9003   -4354.9113   -4766.9003            0     2532.832     20.12192    20.312795    20.749148    8480.8498    2379.7774    1772.2266    3446.4919    -327.9831   -918.31268     59.10505   -4041.6393 
 8606000     208.4567   -4828.4009   -4426.3746   -4828.4009            0    536.71572    20.225791    20.022404    20.995788    8502.6427    939.60263    278.91622    391.62832   -1069.8121     802.8007     811.2158   -4359.8206 
 8607000    204.08851   -4788.6402   -4395.0383   -4788.6402            0    1511.2345    20.170034     19.96822    21.094198    8495.8926    961.21801    2483.5967    1088.8888    209.30353   -445.26731   -687.59413   -4207.7905 
 8608000    209.07548   -4789.2444   -4386.0248   -4789.2444            0    159.65276    20.247493     20.20507     20.96531    8576.9505   -411.67026     700.3456    190.28294    343.08043    1208.1841    85.641988   -4366.0544 
 8609000    207.14086   -4802.0947   -4402.6061   -4802.0947            0    1182.8952    20.146789    20.050438     21.16987    8551.6099    833.72719    2167.9572    547.00112    21.833997   -845.52627    380.37483   -4255.0796 
 8610000     219.2628   -4800.7152   -4377.8484   -4800.7152            0    969.71507    19.979143    20.176809    21.202875    8547.2046    2066.6333    533.94121    308.57075    262.47511    1730.5039    567.69628   -4256.9713 
 8611000    216.30012    -4793.053   -4375.9001    -4793.053            0    1830.3412    20.190031    20.216445    20.809653    8493.8895    1477.7358    1388.6516    2624.6361    17.894559   -91.819614    369.38912   -4149.1672 
 8612000    212.70901   -4801.4286   -4391.2014   -4801.4286            0    2054.5509    20.046989    19.952354    21.193267    8476.9809    2531.7841    2268.4156    1363.4531    12.252847   -419.19744    677.67985   -4137.2012 
 8613000    205.10187   -4821.0235   -4425.4673   -4821.0235            0    1717.4671    19.987601    20.157977     21.07932    8493.0608    1509.0091     2619.662    1023.7302   -701.42598    97.659723    1345.1872   -4212.7374 
 8614000    210.39656    -4797.645   -4391.8776    -4797.645            0    2847.5966    20.140612    20.030898    20.693664    8348.5391     3633.152    1548.5534    3361.0844    272.38015    588.89143   -1013.1074   -4045.1688 
 8615000    200.67291    -4788.805   -4401.7905    -4788.805            0    1576.3759    20.181298    20.060388     21.05361    8523.4415     1948.886    1040.0041    1740.2375    3.1379685    171.88871    1207.5464    -4205.838 
 8616000    201.42376   -4811.2624   -4422.7998   -4811.2624            0    2626.7419     19.94428    20.033581    21.050614     8410.885    3902.4807    2161.8551    1815.8898    883.16328    375.58032    806.48257   -4100.5928 
 8617000    195.99846   -4814.6794   -4436.6799   -4814.6794            0    1579.5396    20.095838    20.210621    20.893869    8486.0318    1261.0517    1422.5954    2054.9718    65.789105     -399.664    408.60629    -4241.196 
 8618000    199.97357   -4799.9223   -4414.2564   -4799.9223            0     365.2459      20.0412    20.135451    21.027683    8485.4817    1643.5647   -413.37194   -134.45502   -659.71343    320.50463   -164.79286   -4369.0565 
 8619000    203.06768   -4812.0083   -4420.3752   -4812.0083            0    1253.9552    20.178543    19.904455    21.222581    8523.8985     238.7163    4213.8701   -690.72073   -281.00901    670.20906   -77.477549   -4264.4931 
 8620000     216.0933   -4812.7305   -4395.9764   -4812.7305            0    2062.0379    20.177249    20.161231    20.858842    8485.3394     1108.513    1939.6035    3137.9971   -196.16181    35.417142   -20.632981   -4140.7993 
 8621000    199.10967   -4814.6304   -4430.6307   -4814.6304            0    2102.7041    19.976548    20.039544    21.267081    8513.6573    1979.3383    3113.2985    1215.4754   -300.02146    215.57585    33.467039   -4169.5528 
 8622000    219.37578   -4801.0739   -4377.9892   -4801.0739            0    1934.3389    20.082346    20.001751    20.991543    8431.9268    1292.0137    2861.7839    1649.2192   -37.798969    774.67382    557.36621   -4140.1216 
 8623000     208.4169   -4796.9565   -4395.0069   -4796.9565            0    1730.6231     20.02148    20.231039    20.794805    8423.0467    2770.7171    327.33623    2093.8159   -117.56031   -566.33973   -872.76318   -4182.4146 
 8624000    212.29508   -4803.9719    -4394.543   -4803.9719            0    1029.4628    20.119379    20.147047    20.987555    8507.2228    1943.4618   -223.98399    1368.9106    440.14861   -81.092021   -1091.7908   -4266.8185 
 8625000     204.3535   -4771.2737   -4377.1608   -4771.2737            0    1081.8959    19.969148    20.089137    21.174959    8494.6089    2280.8663    115.29772    849.52385    718.54686    629.85709   -417.10252   -4243.1299 
 8626000    208.68477   -4837.2604   -4434.7942   -4837.2604            0    781.05158    20.073237    20.124017    21.005862    8485.4055    296.33178    734.89743    1311.9255   -149.57625    1024.0679     -681.254   -4338.1384 
 8627000    207.36273    -4804.981   -4405.0646    -4804.981            0     1897.823    20.298633    19.908556    21.007992    8489.6761    2099.5981    267.97802    3325.8929    107.64295   -552.73342   -102.51336    -4170.089 
 8628000    204.20588   -4808.2754   -4414.4472   -4808.2754            0    569.87775    20.223755    20.150502    20.964409    8543.3911   -327.87245    1135.4578    902.04791   -564.98774     -272.483   -221.28922   -4343.4424 
 8629000    216.14036   -4782.8682   -4366.0233   -4782.8682            0    465.28755    20.189502    20.061209    21.022819    8514.7846   -269.04563   -167.08947    1831.9978   -136.86932      192.006  -0.98045214   -4308.2442 
 8630000    211.15739   -4844.2482   -4437.0134   -4844.2482            0    221.69495    20.028289    19.974689    21.305215    8523.3396    198.01681    1067.2389    -600.1709    104.27835   -127.29888   -485.69816   -4409.4558 
 8631000    200.40841   -4822.3596   -4435.8551   -4822.3596            0    1833.3321    20.199492    20.022024    20.902688    8453.7726    612.73042    3620.9391    1266.3268   -537.26812   -230.96752   -767.78027   -4209.8243 
 8632000    221.15558   -4800.4672     -4373.95   -4800.4672            0    247.83119    20.176368     20.08521    20.996494    8508.7573   -996.58252    1892.3809   -152.30481   -458.85333    300.20571   -393.70836   -4343.1963 
 8633000    222.51808   -4804.1201   -4374.9753   -4804.1201            0    1666.4679    20.012695    20.011382    21.237138     8505.085    2149.9245    1868.1431    981.33607   -184.94749    277.21001   -318.59906     -4168.27 
 8634000    202.61721   -4812.6267   -4421.8624   -4812.6267            0    2103.7496    20.071679    20.024916    21.038286    8455.9959    1343.7458    2615.5216    2351.9815   -673.30707   -397.83019   -309.40799   -4162.4237 
 8635000    213.29405   -4824.2034   -4412.8479   -4824.2034            0    2370.0624    20.072761    20.109279    20.690004    8351.4945      2863.22    2020.6521    2226.3151   -212.79074   -274.91936    133.49186   -4124.1791 
 8636000    208.93996   -4793.7409   -4390.7826   -4793.7409            0    2807.5032      20.1012    19.846324    21.162029    8442.2727    1730.5126    4308.8941    2383.1029   -812.12021    731.29618   -699.27762   -4045.1175 
 8637000    201.84698   -4805.5558   -4416.2769   -4805.5558            0    1577.1615    20.178505    20.030436    20.895658    8445.6959    893.15296    2095.5744    1742.7572   -23.918203   -600.28018   -841.75407    -4222.015 
 8638000    199.79196   -4802.0204   -4416.7048   -4802.0204            0    103.01884    20.170093    20.166385    21.118082    8589.9457   -422.01746    408.91891    322.15505    -328.5054   -477.02652   -722.38033   -4403.7991 
 8639000    195.68973   -4822.0486   -4444.6445   -4822.0486            0    2846.0704    19.961519    20.139396    21.066951    8469.1868    3190.7409    2768.4909    2578.9795   -335.51893    949.60875    7.3435433   -4093.1138 
 8640000    208.03826   -4794.5569   -4393.3376   -4794.5569            0    2400.6132    20.073437    20.086261     20.89327    8424.1726    3394.7971    2233.7861    1573.2564    77.185189   -862.60752    624.11639   -4098.4033 
 8641000    209.86823   -4810.0317   -4405.2832   -4810.0317            0     2087.432    20.190634    19.980101    20.961935    8456.2733     912.4825    3202.8941    2146.9193   -70.766867    502.31237    45.698457   -4147.8484 
 8642000    197.64187   -4783.9899   -4402.8209   -4783.9899            0    1620.5297    20.137732    20.036596    20.885168    8426.9902   -188.70838    1907.5049    3142.7924   -471.84025   -289.06734    631.58103   -4203.6594 
 8643000    203.95781   -4803.7676   -4410.4178   -4803.7676            0    2442.1796    19.967176    20.067685    21.038244    8429.9195    2655.3406    2487.5567    2183.6415    105.38114    418.61863    1036.5918   -4110.1721 
 8644000    203.57254   -4792.7408   -4400.1341   -4792.7408            0    500.67934    20.175152     20.15204    20.823497    8466.2192    80.126166   -273.21695    1695.1288   -535.71732   -215.49978   -1636.6714   -4338.3146 
 8645000    206.77943   -4801.7153   -4402.9238   -4801.7153            0    2778.5633    20.033467     19.98524    21.027032    8418.6697     3387.731    2497.4453    2450.5137    104.43414    569.87511    11.983744   -4061.7782 
 8646000    204.67012   -4820.6234   -4425.8998   -4820.6234            0   -230.59757    20.021598    20.275202     21.14479     8583.557   -36.618052   -529.85573   -125.31892   -309.18601    506.58075   -16.531413   -4454.7666 
 8647000    203.10083   -4826.3772   -4434.6802   -4826.3772            0    770.23591    20.197277    20.186195    20.837125    8495.4243   -33.048575     996.0025    1347.7538   -123.00294     753.9048   -937.00836   -4339.2502 
 8648000    205.48347   -4815.8872   -4419.5951   -4815.8872            0    546.38694    20.065488    20.156099    21.076178    8524.0911    1744.7723   -227.35155    121.74004   -577.78416    426.80788    977.61189   -4351.6709 
 8649000    211.52848   -4790.6229   -4382.6725   -4790.6229            0    1209.6976    20.088272    20.210266    20.965184    8511.6409    657.36863    271.78672    2699.9375   -83.274716   -197.55126    127.68349   -4232.5084 
 8650000    212.67061     -4815.45   -4405.2969     -4815.45            0    1297.3687    20.043062    19.938475    21.331276    8524.5773    1076.8603    2459.0373    356.20858   -268.62526     96.75246    1101.0635   -4244.0051 
 8651000    214.28373   -4782.0102    -4368.746   -4782.0102            0    1493.4559    20.154875    20.044645    20.953966     8465.346    1926.4679    1179.6219    1374.2779    69.060751   -332.56437    704.13785   -4184.3664 
 8652000    219.26206   -4813.5653      -4390.7   -4813.5653            0    2249.5369     20.21624    20.001351    20.789664    8406.3445     544.3276    3412.6935    2791.5896    -471.8552   -485.16112     803.4825   -4114.9115 
 8653000    209.71775   -4816.3423   -4411.8839   -4816.3423            0    32.422506    20.186236     20.12153    21.138263    8585.8965    30.861548   -253.58418    319.99015   -75.941157     465.0044    1221.1731   -4407.8241 
 8654000    214.13005   -4813.9516   -4400.9838   -4813.9516            0    656.37058    20.172833    20.210041     20.73074     8451.794   -1230.2295    1550.4297    1648.9115    158.53055   -245.78421    416.80656    -4320.079 
 8655000    205.30417   -4802.8765   -4406.9301   -4802.8765            0    2101.5811    20.157898    19.951851    20.949071    8425.4518    3330.3099    1083.0559    1891.3776     43.18032    667.62537    213.15192   -4148.6951 
 8656000    209.39831    -4822.156   -4418.3137    -4822.156            0    1288.3954    20.124685    20.072821    21.129471     8535.444    289.15737    2427.2018    1148.8271     -744.843   -150.53195   -680.31079   -4257.9334 
 8657000    216.56935   -4814.7567   -4397.0845   -4814.7567            0    1314.2005      20.1084     20.12723    21.015109    8505.3696    1706.6401    423.10533    1812.8561   -181.62362    609.93269   -573.17376   -4234.0683 
 8658000     202.5976   -4819.6413   -4428.9148   -4819.6413            0    691.76496     20.12839    20.162356    20.820052    8449.5217    20.878835   -146.40425    2200.8203   -31.884719    382.28307   -311.26887   -4343.6703 
 8659000    206.33487   -4817.5938   -4419.6596   -4817.5938            0     916.9837    20.098734    19.912579    21.332845    8537.7808    1749.3668     939.4895    62.094836   -416.78409   -42.482234   -721.45018   -4305.4816 
 8660000    210.24452   -4809.0486   -4403.5744   -4809.0486            0   -960.37068    20.299544    19.981921    21.043408    8535.7089   -821.38054   -883.42032   -1176.3112   -470.70501   -567.99899   -1036.4768   -4523.1257 
 8661000    206.67474   -4816.4431   -4417.8535   -4816.4431            0    1366.0122    20.059807    20.147686    21.062448    8512.5719    2936.0868   -847.66855    2009.6184   -425.81763    313.13418   -495.15465    -4248.267 
 8662000    214.85761   -4814.8561   -4400.4851   -4814.8561            0    1787.3108    20.000858    20.133207     21.06527    8482.5928    3569.2476   -104.75866    1897.4436    -71.41969   -744.66158    579.56723    -4179.377 
 8663000    208.77658   -4802.6561   -4400.0129   -4802.6561            0    274.10527    20.164265    20.122434    20.904845    8482.2264    1429.8573   -958.21923    350.67777    378.33411     1221.077    819.09532   -4366.1048 
 8664000    213.04978   -4826.7985    -4415.914   -4826.7985            0    1633.4099    20.200617    19.992078    21.006026    8483.3325    654.63584    2474.7924    1770.8013   -644.52365   -723.74642   -111.48831   -4213.8274 
 8665000    209.44248   -4807.5329   -4403.6055   -4807.5329            0    884.41387    20.224633    19.952786    20.986515    8468.8518    936.50961    1070.3416     646.3904    314.71851     849.0282   -166.12013   -4294.3719 
 8666000    206.40696   -4788.0305   -4389.9573   -4788.0305            0     2315.916    20.016055     19.93171    21.209936     8461.793    886.21965    3562.8468    2498.6817   -604.14701      154.142   -721.72495   -4104.1581 
 8667000    204.96581   -4793.8986   -4398.6048   -4793.8986            0    1344.7691    20.137022    20.267507    20.833771    8502.8295    1112.3456   -1.3911692    2923.3527   -560.51528    50.529213   -430.32531   -4231.8466 
 8668000    213.35368   -4790.2105     -4378.74   -4790.2105            0    1915.9518     20.12028    20.060984    20.953665    8457.5825    2482.1585    1389.0386    1876.6585    130.96093    433.50335    953.50363   -4142.4166 
 8669000    213.61308   -4785.3856   -4373.4148   -4785.3856            0    3063.0647    20.029135    20.023313     21.00807    8425.2793     3913.854    2393.9169    2881.4231   -919.71052   -440.24283   -110.04207   -3997.0437 
 8670000     211.0353   -4806.8083    -4399.809   -4806.8083            0    2559.5134    20.153222    20.036194    21.096386    8518.5913    2686.0739    3182.3752    1810.0911    625.36406   -531.57627   -873.73251    -4081.828 
 8671000    207.86893   -4790.8042   -4389.9114   -4790.8042            0    1184.4045    20.181885    19.996912    20.949794    8454.8207    560.35352    1373.3188    1619.5413    323.44155    477.92104   -1070.1544   -4243.8686 
 8672000    217.99927   -4838.9265   -4418.4966   -4838.9265            0    1111.9448    20.010073    20.323845     20.77409    8448.4404    2129.3284   -717.05513     1923.561   -342.13624    2089.2931   -377.16138   -4281.4919 
 8673000    197.58013   -4805.3995   -4424.3496   -4805.3995            0    1591.8025    20.005845     20.09086    21.046393    8459.2743    1394.4022    1732.9967    1648.0085    496.86076   -305.15599   -41.149752   -4227.9692 
 8674000    207.41307   -4796.0015   -4395.9879   -4796.0015            0    2269.7795    19.794298    20.063534     21.15255    8400.5993    2978.8217    1942.5733    1887.9435    198.30966   -280.42566    -890.6768   -4117.9079 
 8675000    221.94422   -4844.3007   -4416.2626   -4844.3007            0    2920.8556    20.129454    20.017736       20.975    8451.7941    2057.5691    3447.5721    3257.4257   -98.192129    785.93327    245.87721   -4056.2358 
 8676000     197.5165   -4803.7321    -4422.805   -4803.7321            0    901.64854    20.177874    19.858345    21.167198     8481.679   -149.13499     2756.168    97.912617    -665.5101    290.66387    339.17046   -4311.2741 
 8677000    203.46261    -4793.706   -4401.3113    -4793.706            0    488.16446     20.25248    20.123138    21.026085    8569.0428    3689.6656   -1377.3985   -847.77366   -32.747199   -331.56058    564.09309    -4340.305 
 8678000    213.96221   -4812.2583   -4399.6142   -4812.2583            0    964.15774    20.171871    19.876207    21.203883    8501.4906     895.9285    1945.4299    51.114844   -460.84879    607.44266   -881.38371   -4280.0726 
 8679000    218.25564   -4793.2774    -4372.353   -4793.2774            0    1910.5031    20.081458    20.027673     20.95254    8426.7948    1827.8588    1570.8687    2332.7817   -37.143914   -324.73619   -787.39007   -4137.5595 
 8680000    219.02563   -4808.5039   -4386.0946   -4808.5039            0    3054.2519    20.121249    20.073139    20.818087    8408.3555     2987.499    2061.3958     4113.861    273.93053    670.70374    -620.9909   -4011.5601 
 8681000    213.50432   -4825.9399   -4414.1789   -4825.9399            0    226.02049    20.137251    20.125088     21.15775    8574.4731    2211.8233   -1410.7989   -122.96291    -897.3659   -245.59518   -1110.2025   -4385.9151 
 8682000    217.62107   -4826.3031   -4406.6026   -4826.3031            0     860.2697    20.153432     20.03873    20.938812    8456.1222    374.86654    1232.2863    973.65629    277.00351   -944.83006    170.89643   -4300.5108 
 8683000    212.55457   -4833.5694   -4423.6401   -4833.5694            0    1621.7353    20.049234    20.039924    21.138064    8492.9594    2515.3099    897.61474    1452.2812    841.80965   -127.05256    383.66263   -4222.7701 
 8684000    201.29418    -4807.236   -4419.0233    -4807.236            0    1986.7064    20.021499    20.216283    21.072419    8529.2784    4008.0431   -90.879391    2042.9555   -887.25259    155.03796   -406.00043   -4171.8953 
 8685000    222.36077   -4817.4677   -4388.6263   -4817.4677            0    3117.9186    20.075699    20.113507    20.874374    8428.9203    3831.1124    2353.0565    3169.5869   -148.53906    17.545116     478.0175   -4005.3494 
 8686000    206.59768   -4779.7898   -4381.3487   -4779.7898            0     1926.062    20.137102    19.968989    21.230406    8537.1192    2243.8524    2187.7982    1346.5354    902.84074   -85.138687   -699.70491   -4141.5442 
 8687000     210.1391   -4812.2065   -4406.9355   -4812.2065            0    2513.7797    20.149632    19.837494    21.219085    8481.6548    3502.8622    2457.2788    1581.1982   -429.69958   -843.78399    364.01018   -4095.9904 
 8688000    212.07819   -4791.5875   -4382.5769   -4791.5875            0    1337.8582    20.247302    20.028642    20.884094    8469.0421   -291.07598    2456.3521    1848.2986   -59.508303    1946.8656    175.51995    -4217.335 
 8689000    200.10373   -4812.0162   -4426.0994   -4812.0162            0    1495.6294    20.199517    20.056341    20.981222    8500.0888    1032.2688    1830.1426    1624.4769    -86.93105    868.29253    568.43457   -4240.6935 
 8690000    221.51567   -4795.1916     -4367.98   -4795.1916            0    871.12169    19.977014    20.037464    21.239582    8501.9646    2233.1316    853.97308   -473.73957   -271.44723    1365.3631   -460.17684   -4259.9675 
 8691000    215.59769   -4811.3288   -4395.5305   -4811.3288            0    805.11144    20.191172    20.092203    20.865812    8464.9495    1058.4746   -55.975066    1412.8348   -100.05307   -355.35959   -734.20851   -4296.1374 
 8692000    213.83657   -4803.3246   -4390.9228   -4803.3246            0    2575.3593    20.050621    20.101773    20.915458    8430.0388     3590.306    1982.1233    2153.6485   -444.93892   -485.79433     1205.839   -4074.2992 
 8693000    212.98179   -4799.9594   -4389.2061   -4799.9594            0    1587.3157    20.155603    19.866023    20.975304    8398.7566    385.33858    3146.1649    1230.4437   -55.047451   -627.79159   -411.12896   -4194.7802 
 8694000    215.81338   -4792.4707   -4376.2565   -4792.4707            0    2738.2645    20.149678    20.138578    20.797682    8439.4052    3432.6228    3022.4094    1759.7614   -694.13136    24.533155    671.57941   -4039.2307 
 8695000    209.95011   -4803.6486   -4398.7421   -4803.6486            0    2137.4646    20.100439    20.085072    20.917515     8444.793    1851.0376    2386.4056    2174.9507    597.56736    451.54555   -560.00001   -4135.4949 
 8696000    210.49104   -4815.4516    -4409.502   -4815.4516            0    1855.6516     20.16123    20.092901    21.054504    8529.1291    1680.4727    1947.5148    1938.9673   -697.39173    1214.2957   -376.76638   -4178.6801 
 8697000    201.25987   -4791.6413   -4403.4948   -4791.6413            0    1928.9982    20.168309    20.097004    20.917462    8478.3195    2080.6132    1649.9471    2056.4342    132.30236    -101.6552   -714.59539   -4164.9788 
 8698000    207.78627   -4799.9147   -4399.1814   -4799.9147            0    1197.5218    20.032614    20.001404     21.31468    8540.3747     700.8207    1093.6608    1798.0839   -448.95843    -777.5781    544.71163   -4250.0269 
 8699000    216.79959   -4799.8257   -4381.7095   -4799.8257            0    1351.3615    20.201605    20.115996    20.923186    8502.6682    1510.2501     696.6881    1847.1462    396.70616    992.07691   -395.24522    -4214.137 
 8700000    219.24432     -4830.96   -4408.1289     -4830.96            0    3532.0852    19.988204    20.090165    21.063484    8458.3857    4253.2013    3471.1091     2871.945   -229.67477     308.0273    1575.2685   -3972.4219 
 8701000    199.82098   -4793.2452   -4407.8737   -4793.2452            0    956.21319    20.223519    20.095019     21.02495    8544.3714    1929.9312   -113.42492    1052.1333    121.39479    1290.1772    895.52572   -4288.7191 
 8702000    200.77861   -4790.8964   -4403.6779   -4790.8964            0     1710.253    20.095081    20.131148    21.033151     8508.689    3119.1739    1205.4794    806.10573   -125.66116    63.272737    -1075.603   -4191.4518 
 8703000    198.38964   -4803.4156   -4420.8045   -4803.4156            0    2105.0149    20.075115    20.004216    21.050509    8453.6096    3588.4959    1491.0394    1235.5094   -59.157548   -819.53769    431.61548    -4161.283 
 8704000    202.83946   -4817.4338   -4426.2409   -4817.4338            0    884.51295     20.12261    20.094439    20.934167    8464.7839    1717.1691    788.42014    147.94964   -164.54618    1112.4021   -199.02139   -4317.0476 
 8705000    210.56007   -4836.1078    -4430.025   -4836.1078            0    2161.4891    20.068139    19.990797     21.04011    8440.8315    2622.8359    3120.9492    740.68221   -315.92954    587.80049   -738.40597   -4163.9438 
 8706000    204.32315   -4820.6909   -4426.6365   -4820.6909            0    1378.0573    20.039374    20.011649    21.203052    8502.8673    1438.1115    1745.8972     950.1631   -900.50133   -618.79916   -888.03475   -4255.7497 
 8707000    214.47976   -4820.5236   -4406.8813   -4820.5236            0    2708.9964     20.11383    20.055272    20.840793    8406.9327    1014.1882    3925.9095    3186.8916    277.69012   -441.54113    40.735193   -4074.7408 
 8708000    217.60632   -4810.6597   -4390.9876   -4810.6597            0    1375.1302    20.178589    19.971556    20.896545    8421.2622     856.0156    1110.3486    2159.0266    219.80001    316.90971    711.81018   -4222.1003 
 8709000    206.14959   -4807.1822   -4409.6054   -4807.1822            0    1324.2578    19.977125     20.06819    21.173853     8488.698    931.25435    3091.1642   -49.645187   -82.494575   -268.70937    156.00271   -4245.6637 
 8710000    212.53903   -4782.5528   -4372.6534   -4782.5528            0    2054.6428    20.165368    20.205428    20.759567    8458.4836    2371.4931     684.1245    3108.3108    1037.2799   -421.18513    1153.8621   -4119.1962 
 8711000    210.11205   -4808.4496   -4403.2309   -4808.4496            0    3334.2792    20.133057    19.929556     21.00146    8426.6862    4924.0701    2534.0796    2544.6878    208.40914    394.29027    -510.0419   -3993.4661 
 8712000    198.10308   -4783.2917   -4401.2332   -4783.2917            0    1938.8944    20.115177    19.976198    21.270021    8546.8215    2634.6444    1015.4193    2166.6196    -174.8529    287.14219   -225.22665   -4159.5566 
 8713000    216.97714   -4803.4737    -4385.015   -4803.4737            0    639.53293    20.216597    20.103847    20.917027    8501.3361    1182.5376    275.95598    460.10526   -42.836424   -930.49758    765.85875   -4305.7237 
 8714000    213.68752   -4807.3817   -4395.2674   -4807.3817            0    1208.7718    20.097271    20.229191    20.786899    8450.9462    1020.6377    278.99347    2326.6841   -21.478263   -92.247893    -697.3916   -4246.2882 
 8715000     201.2998   -4825.0958   -4436.8722   -4825.0958            0    2749.1724    19.937481    20.157163    21.119101     8487.409    2412.0103     2745.636    3089.8708   -866.91554    612.97988   -1645.8587   -4096.5792 
 8716000    209.23409   -4814.1997   -4410.6742   -4814.1997            0    1147.9264    20.018471    19.987413     21.27284    8511.6345    3989.1303   -385.59466   -159.75641   -231.46517    202.02108   -862.41636   -4268.1781 
 8717000    212.17348   -4838.2602   -4429.0658   -4838.2602            0    1912.3304    20.060329    20.132185    20.780617    8392.4241    1114.5599     2648.766    1973.6653   -313.42601    511.40793    265.82773   -4195.0063 
 8718000     211.6533   -4796.6355   -4388.4443   -4796.6355            0    1442.9658    20.073551    20.117734     20.95617    8462.8215    1746.2672    1756.5461    826.08416    18.058869     512.3828    495.86394   -4210.3512 
 8719000    215.76291   -4808.9793   -4392.8624   -4808.9793            0    1439.2275    20.274462    19.951512    20.983048    8487.7727    1120.5515    2105.2434    1091.8877    405.51783    164.40745    -141.6895    -4214.707 
 8720000    204.12362   -4819.0042   -4425.3346   -4819.0042            0    3092.5347    20.034341    20.143865    20.720182    8362.0246    3751.9743    2474.9379     3050.692    250.07459   -880.25262    314.36276   -4048.1952 
 8721000    206.25421   -4808.7793   -4411.0007   -4808.7793            0    2881.7336    19.975464    19.891959    21.161079    8408.3784     1643.668    4491.9732    2509.5597   -89.858276   -44.422641    348.39548   -4057.6207 
 8722000    209.24822   -4829.4519   -4425.8991   -4829.4519            0     1478.676    20.157519    20.008604    20.892891    8426.6005    1578.4764    1348.9599    1508.5916   -461.28608   -356.26893    699.87986   -4244.1797 
 8723000    203.18153   -4810.6165   -4418.7639   -4810.6165            0    456.88713    20.223669    20.087158    20.861815     8474.821   -370.72256    508.31283    1233.0711    937.59208    941.69317   -374.80222   -4362.2942 
 8724000    210.36784   -4809.7944   -4404.0823   -4809.7944            0     1023.348    19.966002    20.082252    21.237127    8515.2868    1510.5057    582.97445    976.56395   -38.892335   -1025.5195    1625.9043   -4276.9961 
 8725000    199.37547   -4804.8575   -4420.3451   -4804.8575            0    1510.4784    19.951506    20.060802    20.974561    8394.9258    1120.5116    1244.7955    2166.1282    95.053853    174.28036    430.01464   -4235.4152 
 8726000    204.67909   -4796.6942   -4401.9534   -4796.6942            0    961.80766    20.124849    20.233935    20.886908    8505.2509    1790.1551    383.54186    711.72602   -159.35244     -56.5669    261.28981   -4282.6504 
 8727000    221.90661   -4777.6788   -4349.7133   -4777.6788            0    1320.8286    19.999779    19.915279    21.323913      8493.34    3296.0271    794.32463    -127.8661     41.65747    67.951245    166.79102   -4186.1067 
 8728000     215.2544   -4794.7772    -4379.641   -4794.7772            0    2613.4527    20.162919    19.810018    20.977743    8379.0934    2790.6243    3434.4221    1615.3118    154.13744    166.90372    651.87857   -4060.2758 
 8729000    210.19582   -4794.0033    -4388.623   -4794.0033            0    3293.8002    20.035617    20.160382    20.960566    8466.5111     2022.824    4325.0462    3533.5305   -620.06486   -641.20037   -1428.6635   -3981.9198 
 8730000    211.54963   -4780.8603   -4372.8691   -4780.8603            0     850.1375    19.997803    20.165815     21.04603    8487.2746     2019.081   -368.91325    900.24476   -131.83728   -1005.9382   -664.30126   -4267.6406 
 8731000    207.91876   -4786.7714   -4385.7826   -4786.7714            0    967.98241    20.032397     20.03077    21.168654    8494.2261    127.84354    1967.7953    808.30835   -151.07824   -995.22434    1525.1429   -4265.8693 
 8732000    209.27011   -4801.2733   -4397.6783   -4801.2733            0    1097.8902    20.189586    20.191151    20.703328     8439.732    147.65377    1487.6617    1658.3552   -25.256404    260.80785   -72.216508   -4262.5446 
 8733000    208.53258   -4819.3824   -4417.2098   -4819.3824            0    1573.8166    20.033808    20.094887    20.996245    8452.6074    3043.7253    119.11063    1558.6137    708.08466    357.52428    44.747195   -4223.2013 
 8734000    219.97972   -4812.5952   -4388.3458   -4812.5952            0    2031.4652    19.905978    20.178292    21.089074    8470.8194     2801.014     2109.352    1184.0297    49.185427    564.64475    1908.2062   -4137.3822 
 8735000    206.54147   -4818.2217   -4419.8891   -4818.2217            0    2147.5264    20.023724    20.176116    20.953056    8465.0552    2477.2626    1299.9499    2665.3669     3.126075    -209.1699    10.400575    -4154.768 
 8736000    206.44384   -4821.8655   -4423.7212   -4821.8655            0    2218.8153    20.198192    20.055843    20.937099    8481.4464    656.56031    2985.7055      3014.18   -372.79896   -33.172377    424.32214   -4149.2688 
 8737000    206.89851   -4800.5369   -4401.5158   -4800.5369            0    1177.3095    20.291136    20.020861    20.877614    8481.4473    1457.3051    1045.3678    1029.2557   -385.76555   -1103.1813   -118.59732   -4255.8906 
 8738000    212.16613   -4797.2857   -4388.1055   -4797.2857            0    1408.2846    20.039111     20.08529    21.017897    8459.5216    1983.6789    511.36265    1729.8124     374.9124   -473.52594    224.26738   -4214.3605 
 8739000    208.61759   -4813.8842   -4411.5477   -4813.8842            0    1284.4441    20.088935      20.1071    21.077598    8513.8788    3000.1457    680.42674    172.75997    220.19122    634.60544    887.12624   -4252.0631 
 8740000    215.54546   -4808.9963   -4393.2988   -4808.9963            0    1137.8759     20.03712    20.266696    20.866071    8473.4238    1819.0338   -18.646963     1613.241   -325.43038   -568.65337    186.74546   -4252.6844 
 8741000    203.34936   -4810.0402   -4417.8639   -4810.0402            0    2438.0689    20.101824    20.021263    20.995927    8450.1027    1916.3489     3141.189    2256.6689    229.45617   -246.46158   -174.31235   -4117.4058 
 8742000    209.89662   -4808.9742   -4404.1709   -4808.9742            0    981.38363    20.113603    20.017845    21.308821    8579.5916    1637.3536    1889.8621   -583.06484   -295.92281   -1143.0779    765.04033   -4281.3757 
 8743000    206.53382   -4784.9219    -4386.604   -4784.9219            0    3130.6885    20.129916    20.081033    20.814931    8414.0097    4116.7702    2787.6379    2487.6572   -383.93298    517.34963    324.76043   -4002.4382 
 8744000    210.59532   -4796.6951   -4390.5443   -4796.6951            0    2172.2701    19.968713    20.054115    21.109803    8453.5233    2354.7481    1810.1864    2351.8759   -303.05798   -845.61416   -417.00281   -4122.7339 
 8745000     220.1098   -4790.8553    -4366.355   -4790.8553            0    2411.5476    20.046834    20.020534    21.110835    8472.7981    116.76181      4107.59    3010.2911     708.7624    766.19181   -125.84967   -4068.3672 
 8746000    214.13628   -4801.4847   -4388.5049   -4801.4847            0     1782.319    20.335571    20.014349    20.767323    8452.3676    400.73444    2217.7539    2728.4687    17.044567   -783.59124   -521.78061      -4168.8 
 8747000    209.45256   -4814.8666   -4410.9197   -4814.8666            0    1404.5342    20.169176    20.106824     20.89332    8473.0368    2859.3238   -417.45568    1771.7344  -0.69628853   -388.81631   -70.646826   -4237.3606 
 8748000    212.64245   -4795.4989      -4385.4   -4795.4989            0    1815.6312    19.942263    20.222811    21.125888    8519.8298    3723.2415    79.252096    1644.4001    509.82054    252.25998    -1000.722   -4159.8024 
 8749000    205.76537   -4820.0038    -4423.168   -4820.0038            0    2547.8832    20.100702    20.163937    20.811397    8435.0522    2480.9921    3038.6182    2124.0392   -501.19102    51.890431   -968.85971   -4109.7361 
 8750000    222.43103   -4796.1121   -4367.1352   -4796.1121            0    956.88952    20.144548    20.080153    20.970585    8482.7195    962.20903    653.76876    1254.6908    344.87368   -193.50699   -557.89953   -4248.7567 
Loop time of 354.332 on 64 procs for 250000 steps with 972 atoms

Performance: 121.920 ns/day, 0.197 hours/ns, 705.553 timesteps/s
195.5% CPU use with 32 MPI tasks x 2 OpenMP threads

MPI task timing breakdown:
Section |  min time  |  avg time  |  max time  |%varavg| %total
---------------------------------------------------------------
Pair    | 25.667     | 35.02      | 43.746     |  75.3 |  9.88
Bond    | 1.0199     | 1.2276     | 1.5017     |  10.2 |  0.35
Kspace  | 155.93     | 165.69     | 175.88     |  34.8 | 46.76
Neigh   | 1.68       | 1.7865     | 1.9003     |   4.8 |  0.50
Comm    | 63.583     | 66.522     | 69.462     |  17.9 | 18.77
Output  | 0.58419    | 0.58464    | 0.58822    |   0.1 |  0.16
Modify  | 69.339     | 71.06      | 73.615     |  12.3 | 20.05
Other   |            | 12.45      |            |       |  3.51

Nlocal:        30.3750 ave          37 max          23 min
Histogram: 1 1 5 2 2 6 9 4 1 1
Nghost:        2548.81 ave        2585 max        2520 min
Histogram: 4 1 2 5 7 6 2 2 2 1
Neighs:        9289.75 ave       11439 max        6780 min
Histogram: 3 1 3 1 6 5 3 4 3 3

Total # of neighbors = 297272
Ave neighs/atom = 305.83539
Ave special neighs/atom = 2.0000000
Neighbor list builds = 5553
Dangerous builds = 0

unfix		3
unfix		2
unfix		1

write_data	data.final.${pid}
write_data	data.final.1
System init for write_data ...
PPPM initialization ...
  extracting TIP4P info from pair style
  using 12-bit tables for long-range coulomb (../kspace.cpp:340)
  G vector (1/distance) = 0.37186246
  grid = 24 24 25
  stencil order = 5
  estimated absolute RMS force accuracy = 0.003474557
  estimated relative force accuracy = 1.0463525e-05
  using double precision FFTW3
  3d grid and FFT values/proc = 3458 576
Last active /omp style is kspace_style pppm/tip4p/omp
WARNING: Not all mixed pair coeffs generated from mixing. Use write_data with 'pair ij' option to store all pair coeffs. (../write_data.cpp:312)

write_restart   restart.lmp.${pid}
write_restart   restart.lmp.1
System init for write_restart ...
PPPM initialization ...
  extracting TIP4P info from pair style
  using 12-bit tables for long-range coulomb (../kspace.cpp:340)
  G vector (1/distance) = 0.37186246
  grid = 24 24 25
  stencil order = 5
  estimated absolute RMS force accuracy = 0.003474557
  estimated relative force accuracy = 1.0463525e-05
  using double precision FFTW3
  3d grid and FFT values/proc = 3458 576
Last active /omp style is kspace_style pppm/tip4p/omp
Total wall time: 0:05:54
