LAMMPS (30 Jul 2021)
  using 1 OpenMP thread(s) per MPI task
package omp 0
using multi-threaded neighbor list subroutines
echo both

include		in.partitions
variable        pid world 0
include		in.temp
variable        temperature equal 259.79
variable	tempDamp equal 100.0
include		in.pressure
variable        pressure equal 2750.0
variable        pressureDamp equal 1000.0 # This is 1 ps
include		in.seed
variable        seed world 745823

units		real
atom_style	full

read_restart	restart.lmp.${pid}
read_restart	restart.lmp.0
Reading restart file ...
  restart file = 30 Jul 2021, LAMMPS = 30 Jul 2021
  restoring atom style full from restart
  orthogonal box = (-0.078585790 0.051490984 -0.18062100) to (20.078587 19.948510 20.880619)
  4 by 4 by 4 MPI processor grid
  restoring pair style lj/cut/tip4p/long/omp from restart
  restoring bond style harmonic/omp from restart
  restoring angle style harmonic/omp from restart
  972 atoms
  648 bonds
  324 angles
Finding 1-2 1-3 1-4 neighbors ...
  special bond factors lj:    0        0        0       
  special bond factors coul:  0        0        0       
     2 = max # of 1-2 neighbors
     1 = max # of 1-3 neighbors
     1 = max # of 1-4 neighbors
     2 = max # of special neighbors
  special bonds CPU = 0.472 seconds
  read_restart CPU = 0.720 seconds
include 	in.setup
variable	out_freq equal 1000
variable	out_freq2 equal 10000
variable	out_freq3 equal 1000

timestep	2.0

neigh_modify    delay 7 every 1

include		in.tip4p
# This is TIP4P/Ice

# create groups ###
group ox type 2
324 atoms in group ox
group hy type 1
648 atoms in group hy

# set charges - beside manually ###
set group ox charge -1.1794
Setting atom values ...
  324 settings made for charge
set group hy charge 0.5897
Setting atom values ...
  648 settings made for charge

# ### TIP3P Potential Parameters ###
pair_style lj/cut/tip4p/long/omp 2 1 1 1 0.1577 8.5
pair_coeff 1 1*2 0.000 0.000
pair_coeff 2 2 0.21084 3.1668
bond_style  harmonic
bond_coeff  1 450 0.9572
angle_style harmonic
angle_coeff 1 55 104.52
kspace_style pppm/tip4p/omp 1.0e-5
pair_modify tail yes

thermo          ${out_freq}
thermo          1000
thermo_style    custom step temp pe etotal epair emol press lx ly lz vol pxx pyy pzz pxy pxz pyz enthalpy

restart 	${out_freq3} restart.lmp.${pid} restart2.lmp.${pid}
restart 	1000 restart.lmp.${pid} restart2.lmp.${pid}
restart 	1000 restart.lmp.0 restart2.lmp.${pid}
restart 	1000 restart.lmp.0 restart2.lmp.0


include         in.dump
dump            myDump all atom ${out_freq2} dump.water.${pid}
dump            myDump all atom 10000 dump.water.${pid}
dump            myDump all atom 10000 dump.water.0
dump            myDump2 all dcd ${out_freq2} dump.dcd
dump            myDump2 all dcd 10000 dump.dcd
dump_modify     myDump append yes
dump_modify     myDump2 append yes


variable natoms 	equal  "count(all)"                        # NUMBER ATOMS
variable H      	equal  "enthalpy/v_natoms"                 # ENTHALPY-per-atom
variable Vol      	equal  "vol/v_natoms"                 # volume-per-atom
fix AVG all 		ave/time ${out_freq} 1 ${out_freq} v_Vol v_H file vol_enthalpy.dat
fix AVG all 		ave/time 1000 1 ${out_freq} v_Vol v_H file vol_enthalpy.dat
fix AVG all 		ave/time 1000 1 1000 v_Vol v_H file vol_enthalpy.dat


timer           timeout 02:55:00 every 1000
New timer settings: style=normal  mode=nosync  timeout=02:55:00

fix 		1 all shake 1e-6 200 0 b 1 a 1
       0 = # of size 2 clusters
       0 = # of size 3 clusters
       0 = # of size 4 clusters
     324 = # of frozen angles
  find clusters CPU = 0.006 seconds
fix             2 all nph aniso ${pressure} ${pressure} ${pressureDamp}
fix             2 all nph aniso 2750 ${pressure} ${pressureDamp}
fix             2 all nph aniso 2750 2750 ${pressureDamp}
fix             2 all nph aniso 2750 2750 1000
fix             3 all temp/csvr ${temperature} ${temperature} ${tempDamp} ${seed}
fix             3 all temp/csvr 259.79 ${temperature} ${tempDamp} ${seed}
fix             3 all temp/csvr 259.79 259.79 ${tempDamp} ${seed}
fix             3 all temp/csvr 259.79 259.79 100 ${seed}
fix             3 all temp/csvr 259.79 259.79 100 745823


run             250000
PPPM initialization ...
  extracting TIP4P info from pair style
  using 12-bit tables for long-range coulomb (../kspace.cpp:340)
  G vector (1/distance) = 0.37198032
  grid = 24 24 25
  stencil order = 5
  estimated absolute RMS force accuracy = 0.0034598802
  estimated relative force accuracy = 1.0419327e-05
  using double precision FFTW3
  3d grid and FFT values/proc = 2366 288
Last active /omp style is kspace_style pppm/tip4p/omp
Neighbor list info ...
  update every 1 steps, delay 7 steps, check yes
  max neighbors/atom: 2000, page size: 100000
  master list distance cutoff = 10.8154
  ghost atom cutoff = 10.8154
  binsize = 5.4077, bins = 4 4 4
  1 neighbor lists, perpetual/occasional/extra = 1 0 0
  (1) pair lj/cut/tip4p/long/omp, perpetual
      attributes: half, newton on, omp
      pair build: half/bin/newton/omp
      stencil: half/bin/3d
      bin: standard
Per MPI rank memory allocation (min/avg/max) = 9.227 | 9.230 | 9.236 Mbytes
Step Temp PotEng TotEng E_pair E_mol Press Lx Ly Lz Volume Pxx Pyy Pzz Pxy Pxz Pyz Enthalpy 
 5000000    261.05967   -4652.8804   -4149.4048   -4652.8804            0    3889.5505    20.157173    19.897019     21.06124     8446.982    4676.5589    3746.8945    3245.1981   -80.046139   -1171.4209   -5.1685971   -3670.2489 
 5001000    247.23265   -4680.8129    -4204.004   -4680.8129            0    3701.1541    20.337755    19.931608    20.844794    8449.7323    3444.9154    3489.6882    4168.8588    307.36272    399.43129    -129.2834   -3747.9082 
 5002000    250.25576   -4674.8395   -4192.2003   -4674.8395            0    3043.1388    20.181597    20.153896    20.815585    8466.4855    1869.1509    3106.4108    4153.8547   -629.97891    467.25152   -254.95167   -3816.4487 
 5003000     266.9509    -4728.628   -4213.7907    -4728.628            0    2317.6798    19.936506    20.257206    21.177751    8552.8021    4172.7331    1105.4955    1674.8109   -57.932244   -547.57217    694.76228   -3924.6976 
 5004000    251.78455   -4725.9945   -4240.4068   -4725.9945            0    2523.4573    20.208513     20.09237    20.785824    8439.8121    1263.6393    2486.9388    3819.7937    575.16251   -60.716558   -1439.8608   -3929.8045 
 5005000     249.6151   -4677.7659   -4196.3622   -4677.7659            0    2593.9292    20.196376    20.212491     20.76611    8477.1221    1484.9534    3389.7713    2907.0628   -811.94051      490.716    -409.0221   -3875.6744 
 5006000     266.2347   -4679.9806   -4166.5245   -4679.9806            0    4802.1757    20.109489    19.925159    20.736767    8308.9068    4591.5517    5417.4713    4397.5042    681.10297    471.15848    155.49009   -3584.6119 
 5007000     257.0907   -4689.5836   -4193.7625   -4689.5836            0     2790.135    20.186643    20.082668    21.055159    8535.7957    2188.5654    2838.0807     3343.759    403.88701   -914.55621   -404.64864   -3846.4303 
 5008000     264.7172   -4702.0916   -4191.5622   -4702.0916            0    1170.7868    20.116095    20.192506    20.884782    8483.2808    195.08624    602.49766    2714.7766   -522.77401    844.94182    26.730455   -4046.7125 
 5009000    260.71131    -4664.161   -4161.3573    -4664.161            0    2476.5666    20.419475    20.090132    20.673619    8480.9377    1880.8876    1105.4526    4443.3597   -550.46347    413.26822    87.720815   -3855.0412 
 5010000    264.96895   -4698.1423   -4187.1274   -4698.1423            0    2651.1821    20.123422     20.17379    20.861713    8469.1397    1429.9579    3577.9664    2945.6221   -146.65656    74.190682    1543.7265     -3859.67 
 5011000    267.50983   -4711.3907   -4195.4755   -4711.3907            0    3364.3982    19.972995    19.897346    21.163998    8410.7757     5012.042    4055.3729    1025.7797    776.35258    862.83827    413.22836   -3782.7899 
 5012000    275.34275   -4680.2159   -4149.1942   -4680.2159            0    2364.3716    20.259217    20.075899    20.766502    8446.1929    356.20213    4200.0119    2536.9007     274.6512    774.37747    -1111.494   -3857.9531 
 5013000    281.94658   -4700.4836   -4156.7259   -4700.4836            0    2031.3997    20.055011    20.295871    20.917244    8514.0277     2345.442    946.50256    2802.2544   -11.606832   -741.72964    -17.72014   -3904.4904 
 5014000    250.78389   -4693.4305   -4209.7727   -4693.4305            0    3943.0018    20.046172    19.952765    21.015672    8405.7761    3599.3649    5402.8857    2826.7547    590.74051    494.69501   -389.06477   -3726.4016 
 5015000    260.42797   -4700.2424   -4197.9851   -4700.2424            0    2400.8872    20.228246    20.257857    20.744862    8500.8486    2115.2569    2699.5277    2387.8768    729.22255   -102.91105     12.72363   -3900.3324 
 5016000    254.67907   -4686.6181   -4195.4481   -4686.6181            0    2287.2454    20.118269    20.362401    20.648083    8458.6163    2772.0036    395.73681    3693.9959    -250.4484    933.47126   -225.30517    -3913.293 
 5017000    260.33662   -4702.2799   -4200.1988   -4702.2799            0    2558.7353     20.13632    20.156565    20.909363    8486.6724    3445.7289    2043.3305    2187.1466    413.81165   -1400.3339    -796.1596   -3883.5056 
 5018000    250.80677   -4704.6901   -4220.9882   -4704.6901            0    2905.6607    19.984484    19.889788    21.220582    8434.9084    3651.8209     3905.747    1159.4142   -189.65559   -674.84904    443.50919   -3863.5498 
 5019000    246.74764   -4676.6771   -4200.8035   -4676.6771            0     3481.236    20.298185    20.013942    20.861964     8475.104    3134.2503    2702.9874    4606.4703   -793.66131    582.94623   -1078.3667   -3770.5203 
 5020000     264.5821   -4718.6746   -4208.4057   -4718.6746            0    3608.4526    20.063113    20.206067    20.815416     8438.499    3308.7133    3720.9362    3795.7082   -637.61962   -300.71806   -1.6032744   -3764.3248 
 5021000    256.11671   -4723.4783   -4229.5356   -4723.4783            0    1621.4545     20.15185    20.080559    21.076177    8528.6946    2361.0502    1084.5918    1418.7215    115.28897    205.21652   -974.59354   -4027.8555 
 5022000    269.55008   -4719.8254   -4199.9754   -4719.8254            0       652.38     20.14291    20.175667    21.084473     8568.659    690.33484    795.93271    470.87246   -173.94431    1239.5949     -1163.41   -4118.4506 
 5023000    257.45251   -4718.6254   -4222.1066   -4718.6254            0     2901.774    20.045556    20.071973    20.893962    8406.7662    3826.5473    2614.9606    2263.8139    341.85367   -830.12168    1192.9931   -3866.3373 
 5024000    265.28043   -4661.8077   -4150.1921   -4661.8077            0    2042.3993    20.368329     20.28359      20.6394    8527.0205    2214.4867    1414.6131     2498.098    -204.6214   -842.49094   -54.117801   -3896.2037 
 5025000    274.94518   -4701.3399    -4171.085   -4701.3399            0    2194.7939    20.106948    20.241374    20.847947    8484.9526    4297.3817    649.80966    1637.1904     1121.259    158.66206   -486.46544   -3899.4917 
 5026000    263.06555   -4672.2699   -4164.9259   -4672.2699            0     3077.111    20.010915    19.991051    21.115229      8446.92    3162.6909     4232.364    1836.2781   -198.12947    307.54472    436.38109   -3785.8576 
 5027000     268.4112     -4680.81   -4163.1564     -4680.81            0     3471.093    20.115938    20.076847    20.953189    8462.2519    4616.8764    2746.4471    3049.9556    49.203948    1003.1619    785.18166   -3734.7775 
 5028000    251.30803   -4703.7423   -4219.0736   -4703.7423            0    3200.1158    19.996215    20.272264    21.035338    8527.0642    4154.0818    2343.3493    3102.9164    448.41251   -532.24418     42.29039    -3821.112 
 5029000    254.32671    -4680.475   -4189.9846    -4680.475            0    2138.6925    20.288407    20.030355    20.850099    8473.1467    1837.4877    2234.3329    2344.2569   -783.55297   -4.7104478   -824.40352   -3925.7017 
 5030000    275.49296   -4706.5102   -4175.1988   -4706.5102            0    2930.1288    20.170531    20.191167    20.846271    8489.9892    3309.6759    2318.3875    3162.3232   -257.33868   -218.74706   -242.88102   -3812.3968 
 5031000    261.55978   -4673.7206   -4169.2805   -4673.7206            0    3150.6879    19.893266    20.225794    20.912158    8414.1554    3269.8167    2745.8397    3436.4073   -180.49343     1108.805    91.842285   -3782.6539 
 5032000    269.09358    -4695.159   -4176.1894    -4695.159            0    3311.4366    20.020808    20.097708    20.904563     8411.418    4707.2772    2543.0757    2683.9568   -88.262261    373.60394   -338.62153   -3769.9691 
 5033000    254.09902   -4678.3543    -4188.303   -4678.3543            0    3659.5544    20.124595    20.007996    20.917584     8422.524    3920.2145    4316.0057    2742.4431    -395.2736    710.81943    266.48053   -3738.7858 
 5034000    248.74591   -4696.3005   -4216.5731   -4696.3005            0    2370.8492    20.234123    20.064179    20.920199    8493.2049    2097.4125    3025.2391     1989.896    175.75535    184.38885    675.00962   -3922.9086 
 5035000    251.63883    -4729.821   -4244.5144    -4729.821            0    4870.2982    19.946158    20.004508    21.006205    8381.7504    5371.7112    5086.3439    4152.8394   -251.33279   -172.38951   -206.24208   -3649.1729 
 5036000    249.85141   -4706.6463   -4224.7868   -4706.6463            0    2358.3604    20.036039    20.034078    21.112993     8474.831    3024.1207    2551.8084    1499.1521    157.87836     181.5767    1404.8765   -3933.3012 
 5037000    252.75437   -4689.3457   -4201.8877   -4689.3457            0    2512.9748    20.229856    20.149436    20.678273    8428.8814    1865.6916    2398.2272    3275.0057   -183.40751   -1298.2691   -846.53663   -3892.9762 
 5038000    253.55422   -4663.1362   -4174.1356   -4663.1362            0    4566.5079    19.963145    20.368403    20.681096    8409.2931    6905.6222    2299.0664    4494.8349   -244.71386    1851.8206    224.46224   -3614.0949 
 5039000    253.35738   -4703.0835   -4214.4625   -4703.0835            0    1651.5309    20.022003    20.090192    21.055197    8469.3665    3464.0548    217.64408    1272.8937     315.6822   -1268.5097    488.93771   -4010.4703 
 5040000    269.10844   -4727.0715   -4208.0733   -4727.0715            0    1584.8485    20.019722    20.126106    21.189182    8537.5249    1619.2494    1628.6741     1506.622    -715.1961    823.56493    520.24676   -4010.7421 
 5041000     252.8241   -4667.7301   -4180.1375   -4667.7301            0    1648.9541    20.027628     20.38994    20.793712    8491.3649    3297.5959    -1155.294    2804.5604   -134.80326    250.56462    1047.5233   -3975.9346 
 5042000    260.92954   -4713.3212   -4210.0967   -4713.3212            0    1035.1758    20.378723    20.151091    20.733024     8514.089   -389.99663    365.40232    3130.1218    10.761348    89.679878   -51.409244   -4081.5597 
 5043000    257.77236   -4678.0258   -4180.8901   -4678.0258            0    2942.4166    20.122744    20.180703    20.845908    8465.3378    3273.2304    2731.2026    2822.8168   -642.16922    1048.9627    183.97228   -3817.6244 
 5044000    251.85976   -4713.3587    -4227.626   -4713.3587            0    3439.9711    20.158047    19.870917    20.993082    8408.9654    2715.6949    5202.8332    2401.3853   -362.59326    112.62989    809.94292   -3805.7612 
 5045000    259.00045   -4738.1688   -4238.6647   -4738.1688            0    2098.3263    20.088133    20.172685    20.785292    8422.8569     1896.088    1749.0568     2649.834   -501.97357     232.2367   -1773.5437    -3980.909 
 5046000    256.08519   -4714.6846   -4220.8028   -4714.6846            0    2963.8483    20.223468     20.22497    20.638584    8441.5739    2394.4736    2406.7195    4090.3518    174.78239    494.96731   -90.973709   -3855.9184 
 5047000    262.08641   -4700.2561   -4194.8004   -4700.2561            0    3461.1816    20.186178    19.931847    21.088511    8484.9162    2768.9365    5269.9128    2344.6955   -179.36445   -125.99189   -157.89319   -3766.5006 
 5048000    245.13441   -4698.9963    -4226.234   -4698.9963            0    4245.3738    20.070691    19.973985    21.060594    8443.0171    2769.8399    5647.0809    4319.2006    1098.7577   -535.30911    1592.0941   -3703.4894 
 5049000    261.76253   -4698.8728   -4194.0418   -4698.8728            0    1617.7049    20.325753    20.075201    20.923089    8537.5324    353.36173    2895.8753    1603.8777    434.92963   -853.57622   -1202.0606   -3992.6195 
 5050000    252.45178    -4702.639   -4215.7646    -4702.639            0     5103.752    20.341226    19.994781    20.520677    8346.1363    3907.7015    4552.7421    6850.8124    3.7740492   -271.34078   -1405.9793   -3594.5367 
 5051000    284.81185   -4682.9069   -4133.6233   -4682.9069            0    989.72878    20.118403    20.210553    21.147884    8598.8155    1138.7233    999.29364    831.16937    593.47805      1179.26    1064.7689   -4009.5065 
 5052000    250.46062   -4707.1622   -4224.1278   -4707.1622            0    4035.4899     20.06264    19.944299    21.160998    8467.2621    3346.6183     5801.648    2958.2034   -208.14041   -435.84256   -68.296298      -3725.8 
 5053000     252.0689   -4723.7389   -4237.6028   -4723.7389            0    1849.2316    20.265739    20.158133    20.826558    8508.0544    1759.6166    1765.5344    2022.5437    22.380403   -983.33085    441.01212   -4008.1478 
 5054000    269.24272   -4691.3645   -4172.1073   -4691.3645            0    2466.2472    20.196676    20.234044    20.850156    8520.6338    862.47515    3431.2932    3104.9732   -300.48657   -490.86639    503.53373   -3865.6398 
 5055000    252.92561   -4680.8318   -4193.0435   -4680.8318            0    4527.0332    20.164916    19.909851    21.011067    8435.5332    5801.7235    4801.9673    2977.4089    246.61996    9.9427617    1021.8818   -3636.1115 
 5056000    271.34433   -4674.3516   -4151.0413   -4674.3516            0    2663.4256    19.968066    20.269476    21.026237    8510.2058    4159.8792    2192.2648    1638.1328   -420.03834    425.23052   -727.75742   -3820.4765 
 5057000    248.27298   -4704.3828   -4225.5675   -4704.3828            0    2204.9027    20.267193    19.940286    21.010141    8490.9044    1217.0443    3796.9272    1600.7364   -802.55771    1156.5788   -1441.6629   -3952.5319 
 5058000    261.35353   -4705.1736   -4201.1313   -4705.1736            0    3946.9801    19.986018     20.14416    20.918683    8421.8942     4206.134    2452.6323     5182.174    889.61138    986.47832    1224.6218   -3716.3447 
 5059000    255.54584   -4692.4708   -4199.6292   -4692.4708            0    5184.5831    20.121192    20.150187    20.649853    8372.3959    4649.2135    4684.9385    6219.5973   -585.55798   -199.15913    1727.3364    -3566.577 
 5060000    254.62204   -4697.3042   -4206.2441   -4697.3042            0    2015.0179    20.121868    20.133786    20.799657    8426.5523    1538.4282    3037.6525     1468.973    236.25411   -723.24668    790.96331   -3958.6133 
 5061000    257.20546   -4678.3942   -4182.3518   -4678.3942            0    2527.9388    20.188562    19.854469    21.124386    8467.3546     1767.969    4707.5823    1108.2651    567.66591   -831.49008   -13.107825   -3870.1825 
 5062000    262.41199   -4653.6703   -4147.5867   -4653.6703            0    2827.6514     20.11649    20.136764    20.738269    8400.6787    1676.9447    3959.8087    2846.2007   -521.30868    554.22418    453.06192   -3801.1562 
 5063000      256.055   -4660.0946    -4166.271   -4660.0946            0    3700.8257    20.216914    20.195757    20.831444    8505.3924    5199.3399    2923.7045    2979.4328    191.81613    546.64378   -912.57419   -3707.2116 
 5064000    255.74321   -4684.2568   -4191.0345   -4684.2568            0    1898.7065     20.12811    19.902671    21.153615    8474.2046    3069.4238    1217.5689    1409.1268    245.96728   -1254.7216    413.31308    -3956.378 
 5065000    264.63781   -4715.7239   -4205.3476   -4715.7239            0    2725.6532    20.230203    20.002432     20.93511    8471.4607    2733.5253     3646.713    1796.7212   -276.22456    809.59156    38.295497   -3868.5998 
 5066000    263.04131   -4651.2078   -4143.9105   -4651.2078            0    2853.8964     20.28175    20.323012    20.585018    8484.8616    1599.3059    2577.4585    4384.9249    43.465122   -854.40605   -1207.9548   -3790.7608 
 5067000    252.75977   -4706.0117   -4218.5432   -4706.0117            0    2561.1293    20.037058     20.19119    20.841147    8431.7456    1209.4298    3590.6357    2883.3225   -149.14321   -997.63289   -1085.7174   -3903.6053 
 5068000    256.61271   -4695.6285   -4200.7293   -4695.6285            0    2690.2232    20.084805    20.107175    20.909553    8444.2956    2774.4922     2650.618    2645.5593   -350.93675    1655.6881    484.40966   -3869.4246 
 5069000    247.65531   -4720.5023   -4242.8782   -4720.5023            0    1928.6457    20.303436    20.086553    20.824259    8492.6756    2661.6121    753.36378    2370.9611    592.65071    966.00717    688.60366    -4004.002 
 5070000    262.85742   -4689.4405   -4182.4979   -4689.4405            0    1342.8349    20.126258    20.137067    21.022718    8520.1667    2773.3498    260.46266    994.69213    129.15577   -706.48764    504.94168     -4015.64 
 5071000    262.17972   -4696.4295   -4190.7939   -4696.4295            0    2226.9173    20.276304    20.200324    20.733636    8492.2466    2251.2741    1478.2772    2951.2008    430.68691   -165.97509   -317.58052   -3914.9886 
 5072000    275.40067     -4662.94   -4131.8066     -4662.94            0    2356.6425    20.180819    20.325794    20.720548    8499.3858    4222.2741    589.38351    2258.2699   -50.594051   -1035.7406   -85.509154   -3839.6894 
 5073000     243.8728   -4713.1734   -4242.8442   -4713.1734            0    723.90594    20.348437    20.083843    20.926455    8552.1146    422.22708    1024.9545    724.53624   -318.33528   -572.76601    555.38615   -4152.5559 
 5074000     252.3261   -4715.5856   -4228.9535   -4715.5856            0    2096.7634     20.28339    20.026767    21.035394    8544.8029    1518.7766    2929.8501    1841.6635   -163.10623   -633.46526    576.22874   -3967.6608 
 5075000     262.4579   -4715.7859   -4209.6137   -4715.7859            0    3178.1032    20.125613    19.954515    20.949819    8413.3813    4532.5722    2208.9694     2792.768    -117.8374   -583.86156   -238.61465   -3819.6588 
 5076000    255.57947   -4698.2007   -4205.2942   -4698.2007            0    1667.5292    20.262997    19.936865    20.901537    8443.8163    634.85956    2259.4016    2108.3265    498.78047    957.07753   -664.15112   -3999.9473 
 5077000    245.57144   -4716.2209   -4242.6157   -4716.2209            0    2313.2989    20.099661    20.018809    21.088698    8485.4862    3288.3761    2815.9882    835.53247   -159.73683   -1404.2261    576.52752     -3956.34 
 5078000    268.48375   -4675.7032   -4157.9097   -4675.7032            0     1036.185    20.210049    20.207393    20.915924    8541.9045    1463.8141    666.83956    977.90147   -9.0527822    1014.6862    14.010342    -4028.827 
 5079000    253.11441   -4702.9855   -4214.8331   -4702.9855            0    1947.4405    20.240026    20.306437    20.569698    8454.2036     1253.162    2317.1634    2271.9962    372.48953   -1351.5194   -1121.7666   -3974.7217 
 5080000    266.36319   -4691.3512   -4177.6474   -4691.3512            0    1519.2043    20.032015    20.309785    20.902392     8504.053    2223.4157    670.06365    1664.1336    460.35424    1432.0472    1086.7415   -3989.2312 
 5081000    253.72362   -4686.2276   -4196.9002   -4686.2276            0    2338.4145    20.124585    20.158031    20.937178    8493.6268    2266.0528     1719.669    3029.5218    442.95233    381.31257    629.94423   -3907.2389 
 5082000    248.34479   -4711.8091   -4232.8552   -4711.8091            0    2827.5025    20.198779    19.994277    20.861105    8424.9655     3500.949    1276.4264    3705.1321   -150.67398      1004.68   -180.88726   -3885.4415 
 5083000    258.49462   -4677.4765   -4178.9479   -4677.4765            0    1916.9546    20.175788    19.949801    21.197032    8531.8684    3036.3217    1105.9788    1608.5634     591.4341   -853.65915    116.95096    -3940.424 
 5084000    269.55067   -4682.6791    -4162.828   -4682.6791            0    1499.5034     20.10776    20.098964    20.970432    8475.0983    2180.8892    1480.2551    837.36581   -186.73167   -882.06559    461.11296   -3977.4884 
 5085000    261.50665   -4731.9279   -4227.5904   -4731.9279            0    1304.8563    20.245652    20.087617    20.987473    8535.3303   -175.64542    1880.0224    2210.1919   -756.98549     703.3781    1415.5755   -4065.1631 
 5086000    255.42685   -4709.9552    -4217.343   -4709.9552            0    1624.0215    20.074328    20.157088    20.922594    8466.1184    1009.4208    1983.0053    1879.6383   -587.60174   -1416.4096    287.34414   -4016.8257 
 5087000    255.30082   -4701.8738   -4209.5047   -4701.8738            0    2447.1796    20.324841    20.128526    20.778158    8500.5332    3162.2813    1086.8251    3092.4325  -0.58836358    920.09158    -14.64098   -3906.1241 
 5088000    258.67217   -4698.7985   -4199.9274   -4698.7985            0    4094.3518    20.193016    19.990936    20.858384    8420.0557    3319.8161    4802.6552    4160.5842   -440.43479    1071.1087    648.12207   -3697.1497 
 5089000    264.43426    -4755.834   -4245.8503    -4755.834            0    3804.6385    19.837685    20.082622    20.934936    8340.3264    3959.9405    5192.0674    2261.9077    251.57366    83.319789    -744.6301   -3783.0727 
 5090000    264.56616   -4727.6294   -4217.3913   -4727.6294            0    2858.6025    20.131237    20.188834    20.812663    8458.8115    876.84118    4940.8799    2758.0865   -434.58165    433.71095    -245.8329   -3864.7453 
 5091000    254.77505   -4709.8861    -4218.531   -4709.8861            0    3079.1015    20.269445    20.189057    20.714815    8476.9366    3121.3264     2209.931     3906.047   -413.03456    -1046.893    689.70617   -3837.8696 
 5092000    261.81463   -4710.5821   -4205.6506   -4710.5821            0    2395.1982    20.004268    20.033859    21.037896    8431.2033    1958.4448    4381.5238    845.62606    444.39811   -358.49577    165.66825   -3911.1359 
 5093000    271.33226   -4701.5573   -4178.2702   -4701.5573            0    2962.7272    20.233096    19.974222    21.016823    8493.7461     2431.842    5158.5327     1297.807    164.01676     461.5764   -1140.4859   -3811.2695 
 5094000    268.24723   -4723.0916   -4205.7542   -4723.0916            0    3763.2871    20.051185    20.239536    20.651992    8381.1293    5320.9319    1488.1074    4480.8221   -472.53308    1300.2309   -684.92645    -3745.767 
 5095000    250.18379   -4723.0516   -4240.5511   -4723.0516            0    3249.2844    20.133576     20.04835    20.934095     8449.942    2711.1517    4861.8486     2174.853   -221.20891   -1121.0344   -865.66331   -3840.1296 
 5096000    265.50485   -4696.0791   -4184.0307   -4696.0791            0    2261.4227    20.039346    20.019627    21.095201    8462.9779    1484.5504    3103.9253    2195.7923    -610.3061   -842.80297    217.05326   -3904.9172 
 5097000    256.90592   -4693.1772   -4197.7126   -4693.1772            0    3187.4749    20.046608    20.148596    20.803089    8402.5963    2088.6675    3693.9242    3779.8332   -637.56633    846.37018   -559.48449    -3807.109 
 5098000    261.22223   -4710.3325   -4206.5435   -4710.3325            0    1755.7401     20.13342    20.227915    20.790421    8467.0468    2753.0458    1508.4601    1005.7143   -583.33117    735.05865    385.36614   -3989.7391 
 5099000    262.56367   -4712.1183   -4205.7422   -4712.1183            0    2807.0487    19.955689     20.22959    20.914895    8443.2472    2589.6251    2959.6893    2871.8317    71.317184    1255.7163    -81.32475   -3860.0932 
 5100000    250.23215   -4679.4392   -4196.8454   -4679.4392            0    3779.5983    20.067008    20.228659    20.862757    8468.7909    1801.0425    5305.4164     4232.336   -231.02222    1765.0352    943.53121   -3730.0324 
 5101000    256.49672   -4724.8832   -4230.2077   -4724.8832            0    3669.6341    20.231354     20.15784    20.486951    8354.9968    2045.7392    5383.0934    3580.0696    -107.0142    -427.3092    1.7714532   -3783.0662 
 5102000    260.90631   -4702.1881   -4199.0084   -4702.1881            0    3809.3391    20.083716    20.068287    20.833386    8396.8087    5003.6302    3833.3643    2591.0229    626.71356     218.4384    934.94573   -3732.5211 
 5103000    260.84091   -4691.3964   -4188.3428   -4691.3964            0    1734.6385    20.174567    20.247723    20.897844    8536.5402    2644.4061    1226.8099    1332.6995   -354.21505   -80.831477    260.28177   -3972.3861 
 5104000    264.52036   -4694.2207   -4184.0709   -4694.2207            0    3873.8832    20.063202    19.974234    20.892213    8372.4934    3190.0396    4953.3195    3478.2907   -731.42116   -39.503509   -1412.9664   -3711.0534 
 5105000     273.3109   -4677.9142   -4150.8112   -4677.9142            0    1208.1028    20.199609    20.259685    20.839303    8528.2286    1249.8346    531.84817    1842.6257   -113.38882   -799.32352    1152.9128   -4000.5528 
 5106000     245.9812   -4703.7421   -4229.3467   -4703.7421            0    3035.3196    20.412147    20.021846    20.853317    8522.5182    2454.0838    3467.3667    3184.5084   -238.74959    143.21518    260.61211   -3852.0802 
 5107000    263.73629    -4710.762   -4202.1244    -4710.762            0    3617.8982    20.172751    19.958834    21.102757    8496.4889    3198.8457    4211.0766    3443.7722    562.88585    1108.6205    547.37119   -3753.8213 
 5108000    269.23146   -4698.3456   -4179.1101   -4698.3456            0    4118.7346    20.002332    20.116557    20.855342    8391.7321    4451.8653    3486.8963    4417.4422   -137.40086    243.04248    1256.4554   -3675.0395 
 5109000    263.19703    -4706.242   -4198.6444    -4706.242            0    3232.6237    20.293908    20.243139    20.662291    8488.3253    3482.3849    2743.2415    3472.2446   -508.72745   -132.81564    548.59774   -3798.4666 
 5110000    267.21078   -4685.3624   -4170.0239   -4685.3624            0    2161.0758     20.24768     20.03909     20.88433    8473.7142     1692.415    2879.1563    1911.6561    473.55973    13.809093    1103.1336   -3902.9572 
 5111000    258.25444   -4666.1716   -4168.1062   -4666.1716            0    3577.0481     20.08816    20.173199    20.849508    8449.1056    5028.5279    3901.5034     1801.113    75.824219    994.99152   -581.94225   -3727.3368 
 5112000    255.60919   -4677.6341   -4184.6703   -4677.6341            0    760.80972    20.095764    20.376356    20.987429    8593.8996    -114.4688    33.953637    2362.9443   -464.19167   -769.55799    163.84853   -4089.3156 
 5113000    254.21814   -4711.1314   -4220.8503   -4711.1314            0    3602.5359     19.90416     20.24677    20.940899     8439.077    5038.9761    2635.1893    3133.4423   -420.20338    597.47476    529.47486   -3777.4672 
 5114000    270.36146   -4711.9843   -4190.5694   -4711.9843            0    3246.6918    20.133517    20.155315    20.792147     8437.399    4041.1373    2535.8196    3163.1186   -721.78307    973.37695   -197.48575   -3791.0614 
 5115000    264.58063   -4710.8975   -4200.6315   -4710.8975            0    1196.3705    20.192813    20.181738    20.896362    8515.8122   -171.83756     3273.531    487.41807   -143.01595    -247.0117    1125.5565    -4052.049 
 5116000    244.21053   -4698.6634   -4227.6829   -4698.6634            0    954.96279    20.279129    20.131778    20.870524    8520.4941    702.04096    949.59954    1213.2479   -951.28195    254.93211   -700.28134   -4109.0166 
 5117000    257.60744   -4721.5804   -4224.7627   -4721.5804            0    2622.0661    20.135706    19.987168    20.841406    8387.7432    4345.9958    726.00365    2794.1988   -88.081566   -606.95187    1751.3026   -3904.0142 
 5118000    251.12932   -4705.6845   -4221.3605   -4705.6845            0     1254.213    20.136301    20.344759    20.795006    8519.0526    2640.7957    91.690846    1030.1526   -336.04273   -1141.7261   -226.95389    -4065.535 
 5119000     259.1237     -4728.87   -4229.1282     -4728.87            0     1588.282    20.303911    20.101377    20.689283     8444.053     1403.891    1593.3136    1767.6414   -532.51586   -84.689959    415.56751   -4033.5346 
 5120000    256.13455   -4690.0391   -4196.0621   -4690.0391            0     2047.147    19.887693    20.076484    21.144051    8442.2898    2979.2978    2385.9487    776.19455    -9.634753    1525.1551     -1485.49   -3944.0129 
 5121000    250.13789    -4712.051   -4229.6391    -4712.051            0    1917.9591    20.147817     20.15166    21.041583    8543.1345    763.56605    3074.4443    1915.8669   -535.45356    867.51412    591.70012   -3990.6751 
 5122000    263.49199    -4677.921   -4169.7546    -4677.921            0    2503.7924    20.350616    20.273376    20.547569    8477.4271    1453.9132    1687.5741      4369.89   -701.15567    465.69972    707.51928   -3860.1993 
 5123000    262.72626   -4702.2501   -4195.5604   -4702.2501            0     2269.632    20.227238    20.193618    20.903367     8538.213    3839.5603   -41.288581    3010.6241    193.64794   -431.27414   -211.69405   -3912.9433 
 5124000    265.70417   -4698.9454   -4186.5125   -4698.9454            0    2919.1516    20.410474    20.092356    20.503814    8408.5015     3342.861    2198.6083    3215.9854     316.0024    799.16957    128.19275   -3828.5388 
 5125000    273.65017   -4699.3394   -4171.5821   -4699.3394            0      2717.22    20.164304    20.204864    20.958168    8538.7145    3972.5166    728.39639    3450.7469   -174.89112   -407.66365    602.67821    -3833.211 
 5126000     254.7236   -4730.3476   -4239.0917   -4730.3476            0    2578.8907     20.00611    19.992907    21.161347    8464.1215     3140.256    3029.7588    1566.6574    215.82136    953.09446    560.71856   -3920.7521 
 5127000    254.71296   -4696.9622   -4205.7269   -4696.9622            0    3607.6075    20.036136    20.136875    20.869961     8420.302    3027.8639    4371.8802    3423.0784   -219.62108    265.93555   -664.64951   -3762.7074 
 5128000    259.11173   -4713.2509   -4213.5321   -4713.2509            0    2036.7828    20.274146    20.315675     20.56478    8470.2824    2157.5175    1360.5964    2592.2345   -482.86095    883.96098    749.22116   -3961.9275 
 5129000    264.39947   -4666.1702   -4156.2536   -4666.1702            0    2144.3149    20.308321    20.156392    20.873755    8544.5148    3278.9112    949.39976    2204.6338    -577.3027   -1030.6645   -397.86205   -3889.0441 
 5130000    239.20506   -4700.1144   -4238.7873   -4700.1144            0    3268.1294    19.848468    20.138966    21.082295    8427.1756    4901.6477    3377.7312    1525.0091   -1018.0514   -883.73046    99.678201   -3837.1287 
 5131000    257.53296   -4737.2746   -4240.6007   -4737.2746            0    847.60301    20.151623    20.098539    20.960478    8489.3746     568.8505    1427.5283    546.43026    587.29303   -70.751888   -812.41127   -4135.6599 
 5132000    264.26746   -4675.2423   -4165.5802   -4675.2423            0    1249.2312    20.183988    20.158036    20.990186    8540.2676    148.14538    1893.2671    1706.2812   -441.26457   -340.93251    1308.0285   -4009.9872 
 5133000    275.77298   -4691.5311   -4159.6797   -4691.5311            0    3527.5076    20.255159    20.177474    20.601025    8419.5967    4427.4895    2060.9211    4094.1122   -253.00577   -30.490172     628.4159   -3726.5329 
 5134000    253.06815   -4707.6136   -4219.5504   -4707.6136            0    2700.6657     20.07129    20.222062    20.854579    8464.5164    2664.0557    2249.5957    3188.3457    394.78516    2018.7571    637.90097   -3886.1633 
 5135000    269.77634   -4733.6613   -4213.3749   -4733.6613            0    2905.0249    20.136203    19.999912    20.977681    8448.1802    2648.1603    4778.0396    1288.8748   -74.070117    1387.2556    604.97348   -3855.4525 
 5136000    271.08007   -4712.3269   -4189.5262   -4712.3269            0    1479.3364    20.163548    20.120389    20.986171    8514.0564     1037.169    2023.6888    1377.1513   -179.28819   -2202.5911     1232.928   -4005.8388 
 5137000    250.82122   -4696.0111   -4212.2813   -4696.0111            0    1527.5189    20.116647    20.364113    20.666686    8466.2669    2122.9429   -77.824823    2537.4385   -784.09943   -986.58918    197.38428   -4023.6758 
 5138000    257.01147   -4702.1958   -4206.5276   -4702.1958            0    2915.0933    20.115403    20.130189    20.829362    8434.3681    1802.5189     3526.953     3415.808   -506.27523    297.26208    237.69942   -3847.9519 
 5139000    257.74787   -4739.3917   -4242.3032   -4739.3917            0    3418.4151     19.74331    20.257324    21.022248    8407.7775    5002.2149     2531.366    2721.6645   -658.47473    -653.1564    285.94987   -3823.1412 
 5140000    260.49428   -4684.3148   -4181.9297   -4684.3148            0     2019.644    20.088529    20.172145    20.738488    8403.8305    2515.1993    1120.8081    2422.9247    762.04565    389.41181   -83.103507   -3934.3996 
 5141000    260.17335   -4704.6769   -4202.9107   -4704.6769            0    3641.0564    19.949434    20.113891    20.820506    8354.4518    3442.8446    3754.2858    3726.0389   -280.14754    2226.4999   -612.77573   -3759.2803 
 5142000    251.01713   -4690.7738   -4206.6662   -4690.7738            0    911.45072    19.891526    20.320052    21.162872     8553.966    3344.6609   -154.56313    -455.7456   -267.88794   -25.581182    1113.6751    -4092.962 
 5143000    246.62397    -4680.927   -4205.2919    -4680.927            0    3744.6746    20.090741     20.10469    20.816365    8408.1072    4256.5319    3517.5928    3459.8991   -804.56907    1739.5422   -400.97394   -3746.1064 
 5144000    263.31431   -4700.7181   -4192.8944   -4700.7181            0    4642.0175     20.00902    20.281993     20.55598    8342.0857    4582.0585    3371.8479     5972.146   -773.21346   -1311.8239   -1807.3209    -3628.143 
 5145000    248.05796   -4677.7136    -4199.313   -4677.7136            0    2725.6171    20.118968    20.311173    20.706422    8461.4692    898.98932    4870.3222    2407.5399   -700.06586    617.13569    999.20957   -3862.9668 
 5146000    256.86395   -4716.2903   -4220.9066   -4716.2903            0     3869.949     19.97754     20.03803    20.950543    8386.7235    4540.3624    2649.6699    4419.8147   -584.86836      -423.86    732.21171   -3747.5663 
 5147000    246.65217   -4701.2208   -4225.5313   -4701.2208            0    3404.9565    20.055414    20.020357    21.011379    8436.4163    3693.6453     3090.097    3431.1273    44.642292   -309.37144    756.51684   -3806.5975 
 5148000    258.23454   -4719.6236   -4221.5965   -4719.6236            0    3380.9302    20.462383    19.892435     20.85435    8488.6926    895.88379    5184.9317    4061.9753   -561.98013   -158.30175    755.00495   -3803.0412 
 5149000     282.3779   -4720.3354   -4175.7459   -4720.3354            0    1517.2149    20.111519    20.123917    20.993871    8496.6926    2185.4429    580.82738    1785.3744    407.18639   -1104.3224   -1339.6333   -3987.7393 
 5150000    259.65795   -4706.2484   -4205.4762   -4706.2484            0     3066.919    20.116121    20.314206    20.525537    8387.6177    2020.4946     2533.848    4646.4145   -90.630451   -711.03446    370.75957    -3830.316 
 5151000    271.76808    -4684.474   -4160.3464    -4684.474            0    3726.0564    20.315829    19.885232    20.905488    8445.5032    879.48813    6715.9945    3582.6865    17.075496    1258.6001   -110.65589   -3701.4117 
 5152000    270.15478   -4696.6728   -4175.6566   -4696.6728            0    3185.7052     20.03063    20.064995    21.096809    8479.1134    4152.2702    4026.7332    1378.1122   -326.23162    100.43609     430.4564   -3781.7149 
 5153000    251.17681   -4690.1361   -4205.7205   -4690.1361            0    2997.6069    20.195602    20.208945    20.732523     8461.602    4721.8497    565.19574    3705.7751    249.65881    1114.2117     812.5199   -3835.8045 
 5154000    254.91965   -4688.2003   -4196.5663   -4688.2003            0    2423.0969    20.271784    20.179601    20.654393    8449.2271    817.30328    3421.9022    3030.0853    187.91057   -1398.5447    688.64139   -3897.9843 
 5155000    260.99877   -4706.6447   -4203.2866   -4706.6447            0    769.84017    20.288214    20.062069    20.949082    8526.7698    21.327309     2381.761    -93.56776   -540.10209   -180.21356     251.4264   -4107.5538 
 5156000    256.08544   -4721.7575   -4227.8752   -4721.7575            0     352.7239    20.247564    19.913267    21.221703    8556.4874    719.88547    938.70559   -600.41936   -303.65217    166.33687    567.70846   -4183.8596 
 5157000    268.73397   -4714.2184   -4195.9424   -4714.2184            0    3532.9257    20.121413    19.991793    20.869599    8395.0698    5397.1076    3455.4117    1746.2577   -591.91622    102.10836    234.52302    -3763.394 
 5158000    248.97511   -4715.8984    -4235.729   -4715.8984            0    2184.6181    20.312982    20.245346    20.656178    8494.7157    3360.3687   -1361.7727    4555.2583    116.76726    498.83122    748.97803   -3965.0838 
 5159000    254.20119   -4722.6476   -4232.3992   -4722.6476            0    1505.3701    20.200988    20.049377    20.849566    8444.4333   -639.56963     3089.636    2066.0439   -263.06813   -112.56667    197.31837   -4047.0078 
 5160000    261.09708   -4695.6253   -4192.0777   -4695.6253            0    1880.6025    20.102974    20.203946    21.034347    8543.2978    1994.9309    1467.6461    2179.2305    323.56073    664.94446   -13.765577   -3957.7636 
 5161000    243.39979   -4688.8935   -4219.4766   -4688.8935            0    2357.5432    20.147751    20.135047    20.806996    8440.8975    5927.0677   -122.11962    1267.6816   -188.01086   -310.52767     -90.5143   -3929.2587 
 5162000    262.05634   -4704.1501   -4198.7524   -4704.1501            0    1065.3767    20.209275    20.405646    20.730347     8548.849    2111.1098   -619.45152    1704.4719    18.675369    72.395817    1026.9535   -4065.9253 
 5163000    267.15035   -4705.1209    -4189.899   -4705.1209            0    2930.7442    20.032037    20.168586    20.910238    8448.1097    3385.6004    2313.9453    3092.6868    216.41966   -229.61973    520.36346   -3828.8108 
 5164000    250.37511   -4699.7875    -4216.918   -4699.7875            0    1344.6139    19.935918    20.330287    21.029752      8523.42    3714.1951   -395.52458    715.17121     44.48976   -619.86399   -304.85844   -4049.7753 
 5165000     251.4783   -4692.6282   -4207.6312   -4692.6282            0    2750.0453    20.289911    20.022632    20.778751    8441.5219     745.0191    3919.1472    3585.9697   -230.73606   -274.51182   -328.81402   -3869.0705 
 5166000    259.97567   -4671.3011   -4169.9162   -4671.3011            0    2615.9114    19.975269    20.476678    20.719627    8474.8901     3977.499    1622.3925    2247.8427   -756.72388    208.61831   -422.96996   -3846.5959 
 5167000    268.42034   -4719.4667   -4201.7955   -4719.4667            0    435.22154    20.212975    20.136264    20.923573    8516.1832    823.77527    539.01081   -57.121453    29.120049   -6.0757858   -133.81111   -4147.7411 
 5168000    260.79989   -4670.4752   -4167.5007   -4670.4752            0     2163.349    20.085845    20.183363    20.999332    8513.1273    3722.6442    224.37697     2543.026   -180.45149    127.72222   -255.35303   -3898.9096 
 5169000    271.51211   -4682.9867   -4159.3528   -4682.9867            0    3259.2379    20.231969    20.238433    20.610005    8439.0418    2423.7234    3340.0164    4013.9737   -277.63631    618.65444    1575.8043   -3758.2228 
 5170000    267.63996   -4701.4892   -4185.3231   -4701.4892            0    3051.5635    20.300867    20.182108    20.721985    8490.0934    2138.0212     2847.897    4168.7722   -78.048883   -200.65644    289.51918   -3807.4806 
 5171000    271.04561   -4710.3612    -4187.627   -4710.3612            0    2644.9677    20.045443    20.138164     21.02917    8489.0225     1970.039    3805.6236    2159.2405   -37.236922     -1063.03   -1118.9544   -3860.1702 
 5172000     257.2036   -4708.8903   -4212.8515   -4708.8903            0    4142.6769    19.928271    20.073734    21.294604    8518.5829    4952.6737     4690.057       2785.3   -743.46073   -380.66919   -631.43792   -3698.1869 
 5173000      253.445   -4716.9485   -4228.1585   -4716.9485            0     2821.831     19.99551    20.198388    20.822911    8409.8963    2731.6391    3476.1831    2257.6707    134.02219   -1018.5359   -250.20331   -3882.0617 
 5174000    256.23973   -4696.2753   -4202.0954   -4696.2753            0    588.47864    20.206742    20.452805    20.744386    8573.3341    -573.5385   -3.4473278    2342.4217   -580.36424    18.682187    1650.4462    -4128.516 
 5175000    264.63164    -4719.009   -4208.6446    -4719.009            0    2510.6934    20.153585    20.057947    20.874215    8438.1833    2694.2846    3178.3003    1659.4955    436.59803   -280.19848    800.15172    -3899.673 
 5176000    253.17855   -4720.7221    -4232.446   -4720.7221            0    3216.2516    19.965194    20.071847    21.149758    8475.5185    4479.5078    2342.9186    2826.3283   -679.72079    1381.2062    288.29996   -3834.8956 
 5177000    257.49324   -4700.4692   -4203.8719   -4700.4692            0    2237.8734    20.106609    20.066765    21.006116    8475.4343     2358.185    3031.5037    1323.9315   -558.27713   -2241.2235    452.32837   -3927.2584 
 5178000    264.10277   -4706.8421   -4197.4977   -4706.8421            0     3418.904    20.428112    19.943994    20.715207    8439.7512   -287.09753    6282.1116    4261.6981   -37.906447   -21.300376     353.5063   -3776.6815 
 5179000    256.21447   -4663.3759   -4169.2448   -4663.3759            0    3096.2309    20.173333    20.053157    20.917647    8462.0043    3183.3301    3960.0138    2145.3487    769.84322    179.14181   -1304.0408     -3787.14 
 5180000    260.94644   -4689.8295   -4186.5724   -4689.8295            0    1230.6298    20.031218    20.024686     21.23287    8516.9045    1925.5949    672.44431      1093.85   -255.06851    749.79912    214.21848   -4033.7155 
 5181000    258.48516   -4706.2561   -4207.7457   -4706.2561            0    2602.1663    20.115557     19.92141    20.951817    8396.0272    2616.5807    3107.6822    2082.2361    168.91353    216.99419   -1119.3983   -3889.1171 
 5182000    261.36319   -4707.8924   -4203.8315   -4707.8924            0    1854.4574    20.353735    20.173238    20.677301    8490.1149   -340.80166    2938.0333    2966.1407    160.90684    324.97827   -778.67883   -3974.2133 
 5183000    251.11784   -4706.1674   -4221.8655   -4706.1674            0    2870.8343    20.258919     20.18185     20.71244    8468.5397    1580.4748    2266.3641     4765.664    -150.3352   -1141.9084   -1351.0159   -3867.3032 
 5184000    245.02259   -4695.6919   -4223.1452   -4695.6919            0     3598.389    20.204021     19.80096    21.047858    8420.3856    2380.8103    5404.9741    3009.3824   -195.18037    792.81757     500.5478   -3781.2534 
 5185000    263.49346   -4687.7895   -4179.6202   -4687.7895            0     2114.921    20.193893    20.133562    21.048088    8557.6261    2365.3596    2520.9142    1458.4891    -23.11283    133.44245    367.75418   -3915.6692 
 5186000    262.61601   -4675.1753   -4168.6982   -4675.1753            0    2146.4127    20.239236    20.137949    20.940505    8534.8618    891.95251      4452.46    1094.8254   -89.008087   -545.02869   -503.96782   -3901.5295 
 5187000    251.44906   -4699.0937    -4214.153   -4699.0937            0    2675.7787    20.145629    20.335265    20.690116    8476.0516    3268.2302    1687.2164    3071.8894    226.08451    541.05561   -454.52927   -3883.3879 
 5188000    259.08663   -4684.5271   -4184.8567   -4684.5271            0    3099.2375      20.1008    19.881761    21.062231    8417.2952      4462.89    4350.9059    483.91653   -1329.5289    867.88927    387.33225   -3804.4017 
 5189000    241.55066   -4697.8348    -4231.984   -4697.8348            0    3086.4622    20.205313    19.881306    21.034581    8449.7597    2892.3994    3890.4381    2476.5492   -405.31196   -265.49824    480.33729   -3851.6359 
 5190000    271.35414   -4688.8749   -4165.5457   -4688.8749            0    3464.9038    20.184309    20.189811    20.767576    8463.1485    2642.6128     4188.897    3563.2015   -130.89996    171.41107   -592.88788   -3737.8853 
 5191000    243.57077   -4669.9258   -4200.1791   -4669.9258            0    3880.6261    20.078247    20.086045    20.755222    8370.4269    2356.3641     5284.821    4000.6932    7.4020901   -224.01787   -1062.0467   -3726.4552 
 5192000    267.21967   -4699.6955   -4184.3399   -4699.6955            0    2629.8752    20.238691    20.263135    20.744938    8507.4852    3702.1415    742.50747    3444.9766     627.4795    381.14261    968.40125   -3858.0436 
 5193000    264.89027    -4702.884   -4192.0209    -4702.884            0    4738.4256    20.017218    20.142556    20.838727    8402.1316    5661.5092     4882.953    3670.8147    334.28353    1923.1798    972.82968   -3611.3909 
 5194000    264.72017   -4686.0539   -4175.5188   -4686.0539            0    1613.9184    20.182256    20.176158    20.918245    8517.9173    978.95573    780.27693    3082.5226    177.83037    569.84864    -237.3562   -3975.0296 
 5195000     257.6978   -4692.6814   -4195.6896   -4692.6814            0     4055.409     20.27172    19.901493    20.988191    8467.4234    3857.4549    4777.1997    3531.5724   -296.00414    59.264602   -858.38888   -3694.8924 
 5196000    250.06957   -4688.6891   -4206.4089   -4688.6891            0    2522.5774    20.005629    20.176075     21.08597    8511.0369    4256.8975    1342.3476    1968.4871    59.828238    1436.6437   -747.08016   -3893.2947 
 5197000    261.52252   -4698.3241    -4193.956   -4698.3241            0    2578.3447    20.317798    20.083757    20.676129    8437.0537    1686.0459    2194.1527    3854.8355    26.132143    415.13969    1339.0743   -3876.7015 
 5198000    265.83057   -4706.3933   -4193.7167   -4706.3933            0    2640.6972    20.342079    20.157236    20.646606    8465.9363    2964.3122     2403.645    2554.1344   -393.19157    1536.4261   -746.02562   -3867.6777 
 5199000    270.81667   -4695.7807    -4173.488   -4695.7807            0    3681.1068    20.097627     20.04312    20.869427    8406.6052    3049.6921    4412.5014    3581.1269    139.79122   -68.328422   -387.71944    -3722.178 
 5200000    250.48327   -4693.0875   -4210.0095   -4693.0875            0    1153.1711    20.278307    19.989304    21.128797    8564.5422    1126.0437    1535.9583    797.51138    148.48896     60.90796    897.03762   -4065.9726 
 5201000    248.61757   -4685.4371   -4205.9572   -4685.4371            0    1636.4006    20.142427    20.225841    20.860642    8498.5738    1918.4845    1294.7581    1695.9594    461.15456    -524.6767    334.74475   -4003.1368 
 5202000    261.76885   -4694.9397   -4190.0965   -4694.9397            0    2970.7605    20.189911    20.121065    20.688295    8404.4647    4900.1372    964.29965    3047.8447    118.79153    -203.8121   -655.58465   -3825.9689 
 5203000    255.34392   -4721.7168   -4229.2646   -4721.7168            0    2477.5253     20.18217    19.972301     21.07368    8494.4711    2529.4568    3347.9239    1555.1952   -1150.5797    404.90338   -418.92671    -3922.341 
 5204000     262.7429   -4735.3831   -4228.6613   -4735.3831            0    1386.9091    20.089468    20.081241    20.945092    8449.6992    3406.4051    -205.4153    959.73762    78.936502    1405.1105   -75.637489   -4057.7522 
 5205000    248.11066   -4709.8066   -4231.3044   -4709.8066            0    1822.0767    20.015225    20.124519    21.036791    8473.5517    4177.4976   -626.75106    1915.4834    346.49115   -1060.0875   -775.05494   -4006.1357 
 5206000    265.33609   -4745.7969    -4234.074   -4745.7969            0    630.49742    20.434929    20.037556    20.785754    8511.0602   -1332.5644    2626.9957     597.0609    111.74064   -593.57352    1160.1985   -4155.8134 
 5207000    262.97814   -4711.5252   -4204.3498   -4711.5252            0    1389.5136    20.233845    20.047857    20.919841    8486.0337    873.20077    1574.9734    1720.3666    726.39783    768.45995    1857.9133   -4032.3834 
 5208000     262.6275   -4692.5776   -4186.0784   -4692.5776            0    2812.3506    20.143766    20.066389    21.056742    8511.4012    2302.6806    3818.4656    2315.9054   -231.86092   -530.93758    268.26345   -3836.9811 
 5209000    265.11323    -4715.008   -4203.7148    -4715.008            0     1853.308    20.006246    20.145785    21.070639    8492.3426     2538.103    2678.0545    343.76643    164.66196    1032.2108   -241.89248   -3974.1787 
 5210000    269.54824   -4692.2739   -4172.4275   -4692.2739            0    3440.6017    20.188688    20.188234     20.76133    8461.7773    2536.3445    4000.8683    3784.5921   -384.20994    -1603.713   -911.15196   -3747.8354 
 5211000    258.03074   -4684.1697   -4186.5358   -4684.1697            0    6625.4587    20.202004    20.068124    20.556258    8333.8424    6766.6481    4599.2703    8510.4577    904.64457    879.02894   -75.154794   -3381.2739 
 5212000    246.64012   -4679.9201   -4204.2539   -4679.9201            0    3186.0684    20.077758     20.17779    20.858777    8450.4076    1444.1044    4271.7423    3842.3586    725.20611     1101.896    124.65289   -3811.6011 
 5213000    273.01132   -4703.0558   -4176.5305   -4703.0558            0    3519.0639     19.89022    20.039703    21.176972    8441.0159    3113.6259    3948.1596    3495.4061    260.43286     539.8419    1345.1125   -3743.3212 
 5214000        259.8   -4694.7322    -4193.686   -4694.7322            0    1693.0824    20.030537     20.29199    20.827091    8465.3679     2411.423    281.16735    2386.6569   -47.642468     848.1058    797.96807   -3984.6603 
 5215000     238.0443   -4718.1401   -4259.0516   -4718.1401            0    3010.3864    20.289634    20.193709    20.545457    8417.9452    2618.5233    2789.3348    3623.3012   -338.66667    37.300397   -484.32284   -3889.4752 
 5216000     258.8768   -4711.8253   -4212.5597   -4711.8253            0    3193.1347    20.056492    20.131495    20.814356    8404.1536    3521.3231    2966.9305    3091.1506   -763.16131   -1491.2163   -160.30121     -3821.19 
 5217000    255.58605   -4726.3796   -4233.4605   -4726.3796            0    2635.5354    20.227882    19.880634    20.830557     8376.865    3186.0121    2255.4154    2465.1788    127.21367   -283.93974   -1058.5189   -3911.4824 
 5218000    268.00958   -4698.5295   -4181.6505   -4698.5295            0    2799.6343    20.197913    20.106787    20.876605    8478.3049    4413.2778     1285.039    2700.5862    491.49745   -485.39877    492.44429    -3835.483 
 5219000    259.23108   -4680.7071   -4180.7582   -4680.7071            0    2027.6746    20.177015     20.13825    20.935029    8506.5255    2635.8305    2253.4553    1193.7381    -120.6972    479.64087    407.32031    -3929.207 
 5220000     245.4669   -4705.0733   -4231.6697   -4705.0733            0    2379.4401    20.408072    19.966521     20.94896    8536.2447    1676.6527    3372.7226     2088.945    150.12804   -365.19256    1218.0288   -3935.4476 
 5221000    264.24624   -4715.4986   -4205.8775   -4715.4986            0    3384.8738    20.030873    20.154647    20.853253    8418.7749    3530.3259    4186.4973    2437.7984    747.52524   -786.60305   -976.62482   -3790.2854 
 5222000    254.97472   -4712.0693   -4220.3291   -4712.0693            0    4223.6859    20.052277    20.031778    20.973883    8424.8473    3511.2022    4672.1877    4487.6679     -965.054    1.7819167    -788.1953   -3701.3743 
 5223000    258.98414   -4719.9329   -4220.4602   -4719.9329            0    1956.8418    20.151574    20.015803    21.082127    8503.4745    2986.8557     1610.337    1273.3328    401.51471    1124.2351    142.05491   -3977.7835 
 5224000    242.65343   -4673.0811   -4205.1036   -4673.0811            0    3338.8344     20.12153    20.021298    20.913405    8425.1564    3499.3682    3431.1396    3085.9954   -238.40534   -290.01281   -1192.1458   -3794.8534 
 5225000    258.60912    -4710.679   -4211.9295    -4710.679            0    2381.7545    20.207229    20.278477    20.641773    8458.4167     2356.304    2132.8585    2656.1008   -608.73083   -795.80762    295.21539   -3918.1226 
 5226000    264.02317   -4711.7598   -4202.5689   -4711.7598            0    2020.4571    20.175744    20.114204    20.959691     8505.842    2272.8183    2081.3385    1707.2146     324.1051   -997.97052    334.62867   -3951.9333 
 5227000    266.27705   -4647.9849   -4134.4472   -4647.9849            0    2840.2362    20.104421    20.104576    21.072097    8517.1487    3459.0953    1916.2542    3145.3592   -163.33615    911.36261    32.366505   -3781.6505 
 5228000    260.84694   -4669.7726   -4166.7073   -4669.7726            0    2414.2292    20.278179    19.975519    20.827808     8436.661    1368.5094    2909.9298    2964.2484   -246.87858   -766.30963   -924.77982   -3869.6605 
 5229000    270.51699    -4709.211   -4187.4962    -4709.211            0    3410.6881     20.33218     20.04937    20.645938    8416.2628    2392.6542    3833.3814    4006.0288     193.5916    1.0268956    418.48862   -3768.8596 
 5230000    253.16171   -4658.2627   -4170.0191   -4658.2627            0    1932.9818     20.11663    20.174987    21.097273    8562.3865    1009.7068    1854.4345    2934.8039    90.412436     805.1969   -667.20194   -3928.6406 
 5231000    267.81564   -4699.4164   -4182.9114   -4699.4164            0     3074.756    20.243601    19.890191    20.976715    8446.2551    2216.3294    4884.4118    2123.5268   -88.783445   -252.74294    64.846518   -3804.1631 
 5232000    264.69285   -4705.5878   -4195.1053   -4705.5878            0    3517.0491    20.262057    19.924503    20.833927    8410.8945     1315.085    5068.5075    4167.5548   -1084.7966   -985.70666    863.56539   -3763.6891 
 5233000    268.45492    -4732.649   -4214.9111    -4732.649            0    1818.2661    20.167864    20.036524    20.897838    8444.6888    3280.2201    1791.7365     382.8418     634.4807   -356.51452   -1287.8992   -3990.9787 
 5234000    273.74872   -4712.4777   -4184.5303   -4712.4777            0    3719.1791    20.146659    20.113971    20.812959    8434.0213    3268.5407     4423.254    3465.7425    302.33751    552.43124   -154.89895   -3727.0655 
 5235000    258.84381   -4728.2124   -4229.0104   -4728.2124            0   -23.330258    20.210161    20.478132    20.672147    8555.5062    980.47958   -1413.1851    362.71475   -418.48124     1001.449   -267.13869   -4231.9214 
 5236000     240.9233   -4683.8951   -4219.2543   -4683.8951            0    3737.4657     20.16687    20.025732    20.804713    8402.1153     4267.956    3803.2739     3141.167    440.16138    1560.4195    -373.8277   -3761.2793 
 5237000     269.3549   -4720.3666   -4200.8931   -4720.3666            0     2832.698    20.014507    20.155784    20.893176    8428.4757    4489.6515    1302.2459    2706.1966   -1055.9772    351.54044    748.95099   -3852.6959 
 5238000     268.9355   -4701.9879   -4183.3232   -4701.9879            0    4505.8831    20.197552      20.2637    20.593445     8428.426    4505.2174    4740.1257    4272.3062   -215.33502   -556.99034    860.57829   -3629.4603 
 5239000    254.19594   -4690.2981   -4200.0599   -4690.2981            0    2143.1297    20.238426    20.051786    20.860246    8465.4337    1382.6771    2628.5947    2418.1173   -119.90552    1645.0377     703.2589   -3935.4698 
 5240000    259.92433    -4689.758   -4188.4721    -4689.758            0    2036.0063    20.154103      20.1225    20.823087    8444.8227    2449.0352    1771.7656    1887.2182    40.374042   -607.06608    1195.5574   -3937.7194 
 5241000    246.36836   -4693.3509   -4218.2088   -4693.3509            0      3397.29    20.266704    20.149942    20.654763    8434.8456    2767.3129    3805.2922    3619.2648    -143.0247    256.02093   -1296.3672    -3800.296 
 5242000    262.35714   -4701.7277   -4195.7499   -4701.7277            0    3250.0867    20.371801    19.990948    20.771091    8459.0607     2130.761    3934.9926    3684.5063   -153.92183   -338.80722    300.52454   -3794.7973 
 5243000    248.68705   -4655.2036   -4175.5897   -4655.2036            0    3674.4119    20.217951    19.901853     20.97006    8437.8211     2089.915    5528.6918    3404.6289     191.2184     799.8936    -1248.833   -3723.4277 
 5244000    247.47045   -4657.4289   -4180.1613   -4657.4289            0    3229.6651    20.066659     20.06827    21.080645    8489.2417    2957.5931    3968.9394    2762.4627      208.201   -348.94082   -210.92391   -3780.3065 
 5245000    273.98354   -4681.5797   -4153.1794   -4681.5797            0    3469.2727    20.256606    20.061088    20.729411    8423.8014    3149.7618    3372.8659    3885.1904    12.662084    -1092.392    239.07212   -3726.9706 
 5246000    271.91884   -4708.6123   -4184.1939   -4708.6123            0    3211.5354    20.140831    20.256933    20.877224    8517.7291    3155.4124    3556.8044    2922.3892    755.47947    720.14011    241.01701   -3785.2495 
 5247000    255.33173   -4696.3888     -4203.96   -4696.3888            0    2113.8285    20.089856    20.216255     20.95837    8512.0666    1320.3578    2216.3582    2804.7695     145.8121    -29.48556     1091.773   -3941.5499 
 5248000     263.3457   -4680.4097   -4172.5254   -4680.4097            0     1782.564    20.400687    20.076042    20.676514    8468.3778    2294.1094    2319.1985    734.38406   -25.605609    483.77061    590.30929   -3952.3741 
 5249000    252.65374    -4715.618    -4228.354    -4715.618            0    1748.9247    20.187843    20.149024    20.994774    8539.9461    1293.1209    1650.7103    2302.9427     46.27467   -315.44293   -331.89653   -4010.5318 
 5250000      262.542   -4656.6565   -4150.3222   -4656.6565            0    3517.3317    19.922601    20.218342    20.934933    8432.6322    3922.3947    2587.5809    4042.0195   -859.28682    784.18501   -212.20303   -3717.7562 
Loop time of 390.742 on 64 procs for 250000 steps with 972 atoms

Performance: 110.559 ns/day, 0.217 hours/ns, 639.809 timesteps/s
99.1% CPU use with 64 MPI tasks x 1 OpenMP threads

MPI task timing breakdown:
Section |  min time  |  avg time  |  max time  |%varavg| %total
---------------------------------------------------------------
Pair    | 19.716     | 27.728     | 36.186     |  78.3 |  7.10
Bond    | 0.26515    | 0.27889    | 0.29699    |   1.0 |  0.07
Kspace  | 162.15     | 171.01     | 183.3      |  38.4 | 43.77
Neigh   | 2.9334     | 3.3549     | 3.7924     |  14.1 |  0.86
Comm    | 78.73      | 85.006     | 92.127     |  38.7 | 21.75
Output  | 1.3511     | 1.3517     | 1.3651     |   0.2 |  0.35
Modify  | 92.804     | 94.755     | 98.613     |  12.9 | 24.25
Other   |            | 7.256      |            |       |  1.86

Nlocal:        15.1875 ave          20 max          10 min
Histogram: 1 2 3 10 7 10 10 15 4 2
Nghost:        2206.80 ave        2238 max        2180 min
Histogram: 2 8 6 11 10 9 9 2 3 4
Neighs:        4669.59 ave        6361 max        2905 min
Histogram: 2 2 8 8 11 14 6 6 3 4

Total # of neighbors = 298854
Ave neighs/atom = 307.46296
Ave special neighs/atom = 2.0000000
Neighbor list builds = 8107
Dangerous builds = 0

unfix		3
unfix		2
unfix		1

write_data	data.final.${pid}
write_data	data.final.0
System init for write_data ...
PPPM initialization ...
  extracting TIP4P info from pair style
  using 12-bit tables for long-range coulomb (../kspace.cpp:340)
  G vector (1/distance) = 0.37201672
  grid = 24 24 25
  stencil order = 5
  estimated absolute RMS force accuracy = 0.0034560441
  estimated relative force accuracy = 1.0407774e-05
  using double precision FFTW3
  3d grid and FFT values/proc = 2366 288
Last active /omp style is kspace_style pppm/tip4p/omp
WARNING: Not all mixed pair coeffs generated from mixing. Use write_data with 'pair ij' option to store all pair coeffs. (../write_data.cpp:312)

write_restart   restart.lmp.${pid}
write_restart   restart.lmp.0
System init for write_restart ...
PPPM initialization ...
  extracting TIP4P info from pair style
  using 12-bit tables for long-range coulomb (../kspace.cpp:340)
  G vector (1/distance) = 0.37201672
  grid = 24 24 25
  stencil order = 5
  estimated absolute RMS force accuracy = 0.0034560441
  estimated relative force accuracy = 1.0407774e-05
  using double precision FFTW3
  3d grid and FFT values/proc = 2366 288
Last active /omp style is kspace_style pppm/tip4p/omp
Total wall time: 0:06:32
