LAMMPS (30 Jul 2021)
  using 1 OpenMP thread(s) per MPI task
package omp 0
using multi-threaded neighbor list subroutines
echo both

include		in.partitions
variable        pid world 0
include		in.temp
variable        temperature equal 258.43
variable	tempDamp equal 100.0
include		in.pressure
variable        pressure equal 7000.0
variable        pressureDamp equal 1000.0 # This is 1 ps
include		in.seed
variable        seed world 745823

units		real
atom_style	full
read_restart    restart.lmp.${pid}
read_restart    restart.lmp.0
Reading restart file ...
  restart file = 30 Jul 2021, LAMMPS = 30 Jul 2021
  restoring atom style full from restart
  triclinic box = (-3.2348197 -0.14960406 -0.12454429) to (14.844819 22.729603 19.354542) with tilt (0.12390748 -6.4866401 0.062202349)
  4 by 4 by 4 MPI processor grid
  restoring pair style lj/cut/tip4p/long/omp from restart
  restoring bond style harmonic/omp from restart
  restoring angle style harmonic/omp from restart
  1008 atoms
  672 bonds
  336 angles
Finding 1-2 1-3 1-4 neighbors ...
  special bond factors lj:    0        0        0       
  special bond factors coul:  0        0        0       
     2 = max # of 1-2 neighbors
     1 = max # of 1-3 neighbors
     1 = max # of 1-4 neighbors
     2 = max # of special neighbors
  special bonds CPU = 0.013 seconds
  read_restart CPU = 0.092 seconds

include 	in.setup
variable	out_freq equal 1000
variable	out_freq2 equal 10000
variable	out_freq3 equal 1000

timestep	2.0

neigh_modify    delay 7 every 1

include		in.tip4p
# This is TIP4P/Ice

# create groups ###
group ox type 2
336 atoms in group ox
group hy type 1
672 atoms in group hy

# set charges - beside manually ###
set group ox charge -1.1794
Setting atom values ...
  336 settings made for charge
set group hy charge 0.5897
Setting atom values ...
  672 settings made for charge

# ### TIP3P Potential Parameters ###
pair_style lj/cut/tip4p/long/omp 2 1 1 1 0.1577 8.5
pair_coeff 1 1*2 0.000 0.000
pair_coeff 2 2 0.21084 3.1668
bond_style  harmonic
bond_coeff  1 450 0.9572
angle_style harmonic
angle_coeff 1 55 104.52
kspace_style pppm/tip4p/omp 1.0e-5
pair_modify tail yes

thermo          ${out_freq}
thermo          1000
thermo_style    custom step temp pe etotal epair emol press lx ly lz vol pxx pyy pzz pxy pxz pyz enthalpy

restart 	${out_freq3} restart.lmp.${pid} restart2.lmp.${pid}
restart 	1000 restart.lmp.${pid} restart2.lmp.${pid}
restart 	1000 restart.lmp.0 restart2.lmp.${pid}
restart 	1000 restart.lmp.0 restart2.lmp.0


include         in.dump
dump            myDump all atom ${out_freq2} dump.water.${pid}
dump            myDump all atom 10000 dump.water.${pid}
dump            myDump all atom 10000 dump.water.0
dump            myDump2 all dcd ${out_freq2} dump.dcd
dump            myDump2 all dcd 10000 dump.dcd
dump_modify     myDump append yes
dump_modify     myDump2 append yes


variable natoms 	equal  "count(all)"                        # NUMBER ATOMS
variable H      	equal  "enthalpy/v_natoms"                 # ENTHALPY-per-atom
variable Vol      	equal  "vol/v_natoms"                 # volume-per-atom
fix AVG all 		ave/time ${out_freq} 1 ${out_freq} v_Vol v_H file vol_enthalpy.dat
fix AVG all 		ave/time 1000 1 ${out_freq} v_Vol v_H file vol_enthalpy.dat
fix AVG all 		ave/time 1000 1 1000 v_Vol v_H file vol_enthalpy.dat



fix 		1 all shake 1e-6 200 0 b 1 a 1
       0 = # of size 2 clusters
       0 = # of size 3 clusters
       0 = # of size 4 clusters
     336 = # of frozen angles
  find clusters CPU = 0.002 seconds
fix             2 all nph tri ${pressure} ${pressure} ${pressureDamp}
fix             2 all nph tri 7000 ${pressure} ${pressureDamp}
fix             2 all nph tri 7000 7000 ${pressureDamp}
fix             2 all nph tri 7000 7000 1000
fix             3 all temp/csvr ${temperature} ${temperature} ${tempDamp} ${seed}
fix             3 all temp/csvr 258.43 ${temperature} ${tempDamp} ${seed}
fix             3 all temp/csvr 258.43 258.43 ${tempDamp} ${seed}
fix             3 all temp/csvr 258.43 258.43 100 ${seed}
fix             3 all temp/csvr 258.43 258.43 100 745823


run             250000
PPPM initialization ...
  extracting TIP4P info from pair style
  using 12-bit tables for long-range coulomb (../kspace.cpp:340)
  G vector (1/distance) = 0.37821834
  grid = 24 27 32
  stencil order = 5
  estimated absolute RMS force accuracy = 0.0025733245
  estimated relative force accuracy = 7.7494902e-06
  using double precision FFTW3
  3d grid and FFT values/proc = 3825 384
Last active /omp style is kspace_style pppm/tip4p/omp
Neighbor list info ...
  update every 1 steps, delay 7 steps, check yes
  max neighbors/atom: 2000, page size: 100000
  master list distance cutoff = 10.8154
  ghost atom cutoff = 10.8154
  binsize = 5.4077, bins = 5 5 4
  1 neighbor lists, perpetual/occasional/extra = 1 0 0
  (1) pair lj/cut/tip4p/long/omp, perpetual
      attributes: half, newton on, omp
      pair build: half/bin/newton/tri/omp
      stencil: half/bin/3d/tri
      bin: standard
Per MPI rank memory allocation (min/avg/max) = 9.312 | 9.326 | 9.336 Mbytes
Step Temp PotEng TotEng E_pair E_mol Press Lx Ly Lz Volume Pxx Pyy Pzz Pxy Pxz Pyz Enthalpy 
12250000    262.10977   -4803.8276   -4279.5756   -4803.8276            0    5999.4032    18.079638    22.879207    19.479087    8057.4812    5041.5751    6605.2837    6351.3507   -45.230345    439.35583    1301.6307   -3574.5852 
12251000    266.83558   -4847.4715   -4313.7673   -4847.4715            0    9522.0399    17.964484    22.890916    19.276222    7926.8354     8883.305    9626.2802    10056.535    1851.6423    740.20295    173.80959   -3212.9742 
12252000    259.36495   -4823.8907   -4305.1287   -4823.8907            0    6184.2512    17.990423      22.9545    19.385083    8005.2864    5968.3679    4653.1094    7931.2762    -900.2557   -443.75049   -146.22583   -3583.1242 
12253000    252.38052    -4818.204   -4313.4117    -4818.204            0    6134.0481    17.997513    23.083003    19.290508     8013.984    6153.7876    5702.5761    6545.7807    182.06959   -763.93813   -8.9577299   -3596.4903 
12254000    238.53485   -4835.6231   -4358.5239   -4835.6231            0    5819.4336    18.110969    23.031658    19.307122    8053.4956    5743.2406    5811.3971    5903.6631    -193.8931   -128.00889   -267.05448     -3675.02 
12255000    258.74998   -4821.7014   -4304.1695   -4821.7014            0    7778.2045    18.002056    23.035529    19.207227    7964.9851    7032.1908    6872.5075    9429.9151   -675.57181   -352.24118    1552.2932   -3400.6444 
12256000     259.3491   -4800.3033   -4281.5731   -4800.3033            0    8406.1264    17.927411    22.963178    19.365085    7972.0307    8510.4169     8680.316    8027.6462   -782.35833   -1897.3127   -819.39425   -3304.2441 
12257000    255.00796   -4820.0937   -4310.0463   -4820.0937            0    7483.2013    18.016243    22.845031    19.380501     7976.658     7080.298    7118.4732    8250.8328    663.71342   -931.53589   -493.92916   -3439.5152 
12258000    254.26865   -4811.9183   -4303.3496   -4811.9183            0    7478.0228     18.07122    22.893812    19.329486    7996.9778    8097.4862     7130.494    7206.0882     1494.405     433.8944     266.0518   -3431.2048 
12259000    266.27637   -4808.1614   -4275.5758   -4808.1614            0    5771.8663    17.997176     22.93583    19.484129     8042.662    6057.6134    6278.8312    4979.1543   -1797.9588    761.51668    260.31844   -3598.5707 
12260000    262.56662   -4821.7043   -4296.5386   -4821.7043            0    6046.4061    17.969008    23.011988    19.382892    8014.8759    6460.6956    6408.4043    5270.1183    -776.1459   -58.492432   -1283.7658   -3589.7818 
12261000    262.67438   -4832.4141   -4307.0328   -4832.4141            0     6580.832    17.875505    23.184596    19.285528     7992.624    8000.4534    5507.3078    6234.7347    1097.0602    369.47522   -1122.4242   -3539.9433 
12262000    265.17012   -4792.8073   -4262.4343   -4792.8073            0     6679.723    17.968351    23.316403    19.155577    8025.3688     6891.341    4734.3288    8413.4993    -16.37208   -311.34553   -2249.1373   -3480.6277 
12263000     267.0603   -4796.7257   -4262.5721   -4796.7257            0    6668.3589     17.99399    23.257761    19.211973     8040.209    7664.8541     5192.731    7147.4914    1931.8583     829.3859    1996.5322   -3480.6524 
12264000    249.35891   -4807.5329   -4308.7843   -4807.5329            0    6728.3076     17.89695      23.2354    19.257508    8008.0958    5508.4986    6339.6625    8336.7617    368.31126   -551.06663    -2956.591   -3522.9861 
12265000    260.61031   -4819.6012   -4298.3484   -4819.6012            0    7736.9583    17.866957    23.171732    19.272381    7978.9265    7537.0264     6954.795    8719.0535    230.32723    490.20833   -626.69528   -3398.0415 
12266000    255.05589   -4804.0064   -4293.8631   -4804.0064            0    6817.0046    17.889047    23.179048    19.212896    7966.6479    5732.6192     7127.843    7590.5515   -433.69918   -812.78395   -918.98957   -3501.8268 
12267000    263.18646   -4827.8659   -4301.4605   -4827.8659            0    6623.5471    17.944205    23.127971    19.232415     7981.703    5411.2519    6331.0381    8128.3513   -771.17351   -52.158691    508.13527   -3530.4468 
12268000    259.19022   -4842.8409   -4324.4285   -4842.8409            0    6551.7281     17.94382    23.044253      19.3624    8006.3895    7893.3188    5715.5527    6046.3128    702.12506    -1446.911   -417.79839   -3559.4161 
12269000    248.34388   -4803.7952   -4307.0768   -4803.7952            0    6410.0687    17.954879    23.150637    19.240098    7997.4716     5945.848    8049.3075    5235.0506   -1008.7844   -521.86902   -105.76369   -3559.4389 
12270000    263.54296   -4836.0809   -4308.9624   -4836.0809            0    6854.8727    17.948897    23.301357    19.158851    8012.8763    4235.3464    7805.6845    8523.5872    4249.9129    779.19492    4867.2253   -3507.9048 
12271000    243.59719   -4821.5293   -4334.3048   -4821.5293            0    5500.2814    17.979652    23.195965     19.24185    8024.9172    6030.2916    4175.0871    6295.4655   -1274.6689     375.9249   -1235.0134   -3690.5784 
12272000    259.79368   -4821.8902   -4302.2707   -4821.8902            0    8491.7038    17.764909    23.197794     19.27909    7945.0421    9480.1199    6784.5676    9210.4237    3388.2554   -259.09269    2325.8497   -3318.3346 
12273000    253.16448   -4850.4735   -4344.1133   -4850.4735            0    5268.4194    17.965238    23.087613    19.398375    8045.9507    5823.5831    4400.4133    5581.2618   -401.91399    898.69732   -1365.2267   -3725.9067 
12274000    265.57886   -4795.0829   -4263.8924   -4795.0829            0    7922.9388    18.026963    22.815719    19.398402    7978.5264    5381.6441    9585.2292    8801.9431    1243.9015    587.36905    316.02249   -3341.9902 
12275000    256.32936   -4784.5639   -4271.8735   -4784.5639            0    8524.7988    18.100969    22.629367    19.438038    7962.0819    7819.9256    8867.3464    8887.1244    468.92036    683.49711    155.64898   -3281.9841 
12276000    261.92866    -4810.177   -4286.2874    -4810.177            0    6472.6466     18.18208    22.681251    19.479412      8033.16    4989.8838    7000.6477    7427.4084    1799.4965   -228.08401    100.36289   -3527.9819 
12277000    258.05241   -4783.8245   -4267.6878   -4783.8245            0    6604.4784    18.266699    22.577203    19.476624    8032.3734    6861.5134    8426.2767     4525.645    322.69179    726.09799   -1814.2764   -3494.0133 
12278000    257.54543   -4847.4915   -4332.3688   -4847.4915            0    5854.9812    18.159613    22.669681    19.565707    8054.6663    6328.5716    5839.9729    5396.3993   -1297.8136   -704.56875   -2342.7431   -3644.5897 
12279000    262.30032   -4826.2648   -4301.6318   -4826.2648            0    7149.2279    18.235434    22.465393     19.43921    7963.5872    7068.0104    7326.9634    7052.7099    1553.5888   -1164.1803    779.96146   -3471.3151 
12280000     272.0319   -4822.1664    -4278.069   -4822.1664            0    7168.4694      18.0996    22.686157    19.454062    7988.0395    7537.0496    6795.7046    7172.6539   -1400.1423   -801.88788   -64.419496   -3442.9613 
12281000    258.15421    -4789.964   -4273.6237    -4789.964            0      6696.06    18.333876    22.586953    19.439882    8050.1798     7015.375    7100.8957    5971.9093    247.69991   -1139.9207    742.17231   -3487.4821 
12282000    256.96253   -4813.7358   -4299.7789   -4813.7358            0    6464.1424     18.05405    22.797572    19.449523       8005.2     5378.451    7020.0322     6993.944    578.18181    33.833568     572.4562   -3545.1056 
12283000    258.34321   -4820.3788   -4303.6605   -4820.3788            0    8803.0928    18.141475    22.647939    19.333189    7943.3697    6542.2089    10629.162    9237.9079    998.49203    946.44043     955.5864   -3283.8583 
12284000    248.40221   -4835.9042   -4339.0691   -4835.9042            0    6734.9503    17.975577    22.948452    19.471962    8032.4112    6883.7383    6732.6749    6588.4377   -1496.7629    515.52397   -282.33065   -3550.1068 
12285000    252.98147   -4847.2272    -4341.233   -4847.2272            0    8307.7148    18.120341    22.753365     19.27888    7948.6579    8330.9541    8515.6148    8076.5754    -524.2444    170.94346    975.74137   -3378.1776 
12286000    254.21233   -4848.7285   -4340.2725   -4848.7285            0    5244.9431    18.068342    22.686513    19.613103    8039.5612    5730.6902    6492.8131    3511.3258    442.38647    1194.5386    1398.4751   -3725.3094 
12287000    263.21003   -4824.1042   -4297.6516   -4824.1042            0     7266.415    18.138377    22.913863    19.250117     8000.739    7092.3262    7549.9088    7157.0099   -1308.1223   -631.02614   -1455.3489   -3449.7876 
12288000    254.34097   -4816.7463   -4308.0329   -4816.7463            0    6195.5693    17.967202    22.858571    19.541454    8025.7644    7856.2234    6036.2957    4694.1889    614.14304    424.83468     546.3319   -3582.8567 
12289000    250.24291   -4818.0018    -4317.485   -4818.0018            0    6922.7228    18.290218      22.9029    19.186627    8037.2594    4753.7688    6561.5831    9452.8166    -791.6706    23.489913    753.99641   -3506.0368 
12290000    257.30551   -4818.2944   -4303.6516   -4818.2944            0    7594.7237     17.85545    22.990822    19.436533    7978.9195     9211.572    6794.9533    6777.6458   -1678.5202   -592.14189   -37.128565   -3419.8965 
12291000    256.60507   -4810.5575   -4297.3157   -4810.5575            0    5730.7273    18.093858    23.038168    19.218219    8011.1021    6578.1184     5016.903    5597.1604   -697.00231   -1072.8297   -372.16023   -3627.7736 
12292000    265.45756   -4826.5185   -4295.5706   -4826.5185            0    10276.702    17.817962    22.965587    19.316485    7904.3047    11651.433     9745.917    9432.7573   -959.25183    1062.3841   -193.15671   -3110.9117 
12293000    263.12263   -4809.4421   -4283.1644   -4809.4421            0    7409.9995    17.926793     23.13452    19.275035    7993.8919    7761.4045    7222.0574    7246.5365   -354.35267    616.38091    -1018.703   -3419.2865 
12294000     241.2484    -4822.357   -4339.8304    -4822.357            0    6476.8638    17.836059    23.238052    19.275992     7989.422     7118.676    6073.5873    6238.3282   -29.590555    414.95375    396.75268   -3585.1623 
12295000    255.86226   -4844.9472   -4333.1911   -4844.9472            0    7319.1704    17.733051     23.29257    19.218781    7938.2854    7346.3739    6615.8862    7995.2512    -984.8123    569.66915    1330.9775   -3485.8379 
12296000     245.3656   -4821.4301   -4330.6686   -4821.4301            0    5016.0232    17.946198      23.1019    19.395401    8041.1641    4198.1393    6215.9829    4633.9475    890.85664    838.51663    1209.8969   -3742.4289 
12297000    265.62216   -4843.5563   -4312.2792   -4843.5563            0    5112.1904    17.948598    23.096622    19.404512    8044.1789    6310.1958    5351.5079    3674.8677    846.58208    322.43261   -490.49117   -3712.5369 
12298000    246.52584   -4826.9431    -4333.861   -4826.9431            0    6654.8231    18.138225    22.847622    19.358294    8022.3735    5805.4753    7161.1712    6997.8228   -378.44847    1249.5991    1036.3061   -3555.2594 
12299000    268.48777   -4823.4256   -4286.4169   -4823.4256            0    8761.0135    18.047646    22.861688    19.292523    7960.0881    8850.5639    8516.6024    8915.8741    1182.9492    258.75832    163.90961   -3269.3533 
12300000    255.09542   -4839.2386   -4329.0162   -4839.2386            0    5824.5173    17.988993    22.910614    19.410311    7999.7438    6751.1109    4593.1436    6129.2973   -173.57036   -731.70517    675.27193   -3649.4811 
12301000    279.44023   -4807.0265   -4248.1115   -4807.0265            0    5655.5654    18.013822    22.848649    19.529207    8038.0557    6352.0882    5228.5548    5386.0532   -762.46366    -1970.734   -456.76507   -3585.1277 
12302000    249.79455   -4836.3264   -4336.7064   -4836.3264            0    7928.0617    18.171884    22.768867    19.242295    7961.5612    7416.2733    8415.4611    7952.4506   -2262.5699    210.05412   -392.96628   -3416.1696 
12303000    249.97257   -4838.8231    -4338.847   -4838.8231            0    7220.8573    17.981631    22.729819     19.50874    7973.5967    7351.6674    7021.1497    7289.7548    1360.2909    1068.8185    101.61276   -3499.1572 
12304000    259.51588   -4792.6618   -4273.5979   -4792.6618            0    6571.9738    18.164234    22.955755    19.219768    8014.1375    7337.7413    5653.7735    6724.4065    25.215326   -412.99842     1322.588   -3505.4789 
12305000    261.42256   -4807.6453   -4284.7679   -4807.6453            0    7377.8553    17.961653    22.786465    19.538697    7996.8482    7644.8989    8057.2349    6431.4321    1558.1335      761.389   -333.98694   -3424.3194 
12306000    267.24887   -4802.5325   -4268.0017   -4802.5325            0    6445.0201    18.058071    23.028387    19.327121    8037.1493    8948.0668    4919.5172    5467.4764    109.77281   -1048.0113   -3152.2699   -3512.5579 
12307000    253.25307   -4844.3439   -4337.8064   -4844.3439            0    8614.7193    17.946925    22.977204    19.281285    7951.0266    9380.3126     6995.361    9468.4843    1090.0137   -660.59717    813.77641   -3338.8646 
12308000    250.90837   -4810.1421   -4308.2943   -4810.1421            0    7028.3931     18.06796    22.861967    19.403582    8015.0204    7033.2109    7565.9719    6485.9964    533.00175     910.8488   -1227.9526   -3486.7395 
12309000    241.29692   -4805.3904   -4322.7668   -4805.3904            0    6357.2891    18.085248    22.971915    19.377409    8050.3984    6481.9686    6801.0272    5788.8716   -119.49634    525.75717   -310.11404   -3576.3778 
12310000    267.75651   -4842.9203   -4307.3742   -4842.9203            0    5550.3443    18.018581    23.081998    19.229274    7997.5487    5705.7979    4750.7017    6194.5334    1602.4473   -1255.0647    -580.5701    -3660.004 
12311000    255.55084   -4797.0083    -4285.875   -4797.0083            0    6454.8115    17.891474    23.017686    19.495084    8028.4719    7339.8686      5102.44     6922.126    -211.7334   -2209.7097    -1090.288   -3530.1003 
12312000    277.69385   -4815.9754   -4260.5534   -4815.9754            0    6550.7401    18.071308    23.038381    19.247109    8013.2193    7856.5675    4643.4629    7152.1898   -390.64044    566.16571   -1508.6616   -3495.0039 
12313000    263.40521   -4796.6589   -4269.8159   -4796.6589            0    8399.6406    17.858152    23.006773    19.361377    7954.7853    10117.169    6891.4456    8190.3068    519.82981   -435.83721   -2015.5198   -3295.3536 
12314000      254.936   -4827.3649   -4317.4614   -4827.3649            0    5669.2418    18.074051    23.093249    19.257297    8037.7755    5334.0921    5626.7094    6046.9239    646.99234   -1479.3799    1572.8577   -3652.8975 
12315000     252.0878    -4830.954   -4326.7473    -4830.954            0    8553.0678    17.921511    22.990086     19.32824    7963.5649    8872.9857    8900.5071    7885.7106    148.16286   -749.97485   -1484.5001   -3333.3903 
12316000    260.17604   -4794.4433   -4274.0591   -4794.4433            0    5357.4582    17.986792    23.149775    19.339879    8052.9359    7196.8756    4427.5319     4447.967    845.05154   -8.3836065    757.95791   -3644.8588 
12317000    264.07635   -4855.0735   -4326.8882   -4855.0735            0    5813.2568    17.960287    23.157724    19.241085    8002.7398    6234.1258     5787.978    5417.6664     87.41292    1005.2698    578.39642   -3648.4128 
12318000    259.85876   -4826.5748   -4306.8251   -4826.5748            0    7625.6242     17.83863    23.025248    19.389578    7964.0535    8826.0094    6593.4289    7457.4345    664.32321   -248.04862   -394.62422   -3421.1276 
12319000    258.48088   -4866.2703   -4349.2766   -4866.2703            0    6429.6792    18.011628    23.034125    19.227488    7977.1401    7399.0226    5604.6276    6285.3874    80.638401    -712.7783   -998.04272    -3601.258 
12320000    272.56146   -4842.3583   -4297.2017   -4842.3583            0    6846.3323    17.957728    23.073115    19.366177    8024.1957    8701.2981    5455.1631    6382.5358   -1559.8522   -654.17909    -2874.953    -3496.012 
12321000    258.14605   -4823.1942   -4306.8702   -4823.1942            0    8300.2426    17.925734     23.20033    19.149498    7963.9493    9899.7389    7676.7645    7324.2242    590.97851   -791.42649   -1196.2186     -3342.83 
12322000    262.24636   -4768.8375   -4244.3123   -4768.8375            0    7888.2266    17.779588    23.316371    19.306658    8003.6806    9501.3756    6897.1434    7266.1607   -364.83299   -486.53413    515.56041   -3323.5554 
12323000     257.6945   -4867.2736   -4351.8528   -4867.2736            0    6698.6841    17.886778    23.103552     19.35187    7997.1236    9211.1414    5025.8921    5859.0188   -1029.2049    -2024.286   -1784.7989   -3570.5863 
12324000    256.86529   -4857.7531   -4343.9908   -4857.7531            0    6844.6446     17.93083      23.0097     19.31779    7970.1922    8690.5772    5169.6604    6673.6963    784.77013   -206.59622    318.62476   -3548.3893 
12325000    255.06205   -4827.6614   -4317.5058   -4827.6614            0    7683.2862    17.977204    23.008842    19.329875     7995.506    8663.5396    7699.7944    6686.5244     1027.949   -792.69493    351.08943   -3421.5866 
12326000    254.02535   -4805.6912   -4297.6092   -4805.6912            0    7147.8526    18.098786    22.788567    19.469925    8030.2812    8309.5645    6368.0083    6765.9851   -1379.6044    421.93262    -355.4232   -3460.4997 
12327000    249.45541   -4861.5667    -4362.625   -4861.5667            0    4719.0582    18.220145    22.773893     19.35956    8033.1261    4395.3584    4844.3633    4917.4528   -31.369886    -59.25401    1033.4452   -3809.7642 
12328000    269.75574   -4797.1344   -4257.5896   -4797.1344            0    8166.0868     17.81755    22.876877    19.577873    7980.1351     9029.863     7887.032    7581.3655   -1731.8357   -320.09321   -2210.1227   -3307.2034 
12329000    251.45347   -4824.2758   -4321.3378   -4824.2758            0    7543.7923    18.064769    23.065024    19.088245    7953.3909     5373.961    7141.4157        10116   -1003.7683   -693.37671    2568.7404   -3446.3179 
12330000    263.03438   -4802.6072   -4276.5059   -4802.6072            0     8525.901    17.886834    23.011826    19.405066     7987.294    8987.5788    8828.9617    7761.1624   -601.45207   -233.74337    2167.7476   -3283.3536 
12331000    257.34613   -4815.6301   -4300.9061   -4815.6301            0    7443.8716     17.98986    23.178321    19.142921    7982.1149    8703.8238    6869.3237    6758.4672   -46.753345   -225.23765   -1052.4554   -3434.3579 
12332000      245.862   -4826.1668   -4334.4124   -4826.1668            0    7422.3835    17.890869    22.963048    19.332759    7942.4562    7628.0113    7490.8095    7148.3299   -405.16212    479.66881    124.48174   -3474.6586 
12333000    264.05069   -4818.5506   -4290.4166   -4818.5506            0    5021.3284     18.01346    23.073969    19.365683    8049.1916    3380.0646    4826.4081    6857.5125   -1732.5246    359.40518   -1552.9203   -3700.9668 
12334000    260.87031   -4802.4348    -4280.662   -4802.4348            0    5474.0551    18.192025    22.954923    19.288222    8054.6948    3962.1953    6379.7209     6080.249   -452.00836    234.18399   -716.98945   -3637.6277 
12335000    261.53604   -4843.7052   -4320.6008   -4843.7052            0    7167.0414    18.160499    22.585107    19.462793    7982.7974    7137.9307    7784.6494     6578.544   -248.84713    794.65141    836.60138   -3486.2073 
12336000    249.16938   -4821.7556    -4323.386   -4821.7556            0    6685.9216    18.119207    22.867686    19.387297    8033.0169    7219.2326    5663.4704     7175.062   -1063.7338   -1747.5801     24.06479   -3540.1082 
12337000     259.3433   -4840.5804   -4321.8617   -4840.5804            0    7278.6404    18.031324    22.744562    19.473741    7986.4649    5875.1781    7790.0473    8170.6957    2070.0175    109.03657    678.54153   -3474.0864 
12338000    268.42469   -4837.4405   -4300.5579   -4837.4405            0    7208.0887    18.185339    22.830432     19.22205     7980.594     6345.943    7981.3632    7296.9598   -97.446937   -1225.3607   -3608.5504   -3461.6173 
12339000    245.31614   -4851.8579   -4361.1953   -4851.8579            0    7026.7706    17.973428     22.87547    19.362799    7961.0271    6678.0293    7087.2503    7315.0323    639.94037    218.10136   -790.75995   -3545.3632 
12340000    251.48532   -4820.2845   -4317.2828   -4820.2845            0    8376.9845    18.012858     22.93173     19.22118    7939.6156    8534.6622    6985.2537    9611.0374    449.46612    204.98749   -1591.9164   -3347.3022 
12341000    250.70841   -4830.3558    -4328.908   -4830.3558            0    6121.9925    17.986514    23.003258    19.394511    8024.4483    7592.6687    5104.3299    5668.9788   -155.83244   -616.66665   -1214.7495   -3612.4613 
12342000    254.39785   -4829.0225   -4320.1953   -4829.0225            0    6074.9635     17.87502    22.987875    19.389744     7967.415    6372.1946    5986.4905    5866.2054   -99.853069   -1353.6942    593.38667   -3614.3054 
12343000    258.27346   -4804.0093   -4287.4305   -4804.0093            0     5824.164    17.993666    23.153763    19.289335    8036.3433     4517.523    7164.0285    5790.9404    657.94895    43.768043    331.67208   -3604.8279 
12344000      254.797   -4818.9952   -4309.3697   -4818.9952            0    6844.3688    17.859124    23.186036    19.268465      7978.73    6646.5901    7205.9044     6680.612    499.77916    578.83966    753.30899    -3512.948 
12345000    238.97401   -4833.9712   -4355.9937   -4833.9712            0    7094.7572    17.949801    23.201598    19.230758    8008.9196    8971.6415    5535.8045    6776.8256    28.912893    660.54859   -1381.5877   -3527.3127 
12346000    260.43288    -4813.191    -4292.293    -4813.191            0    7710.1666    17.954372    22.960682    19.371271    7985.7022    9049.9251    6856.5725    7224.0021   -1060.0098   -746.84695   -213.82568   -3394.3418 
12347000    252.90789   -4819.4898   -4313.6428   -4819.4898            0    6822.3022    17.952379    22.991985    19.334739    7980.6234    6164.7858    7136.0796    7166.0412    1652.9531   -716.20645   -380.02331   -3519.6004 
12348000    263.96895   -4843.2054   -4315.2348   -4843.2054            0    4891.7872    17.988438    23.146682    19.403001    8078.8788     6471.356    3929.8162    4274.1895    1188.9039   -247.87688    652.46581   -3738.8739 
12349000    260.17104   -4832.4386   -4312.0644   -4832.4386            0    9676.6463    18.004088    22.813996    19.262725    7912.0715    8743.4887    10064.813    10221.637     717.2532    1492.8062    214.42729   -3195.4815 
12350000     256.4701   -4820.8971   -4307.9252   -4820.8971            0     8022.066     18.10551    22.891184    19.197187    7956.3997    7814.4416    7302.8002    8948.9563     493.0111    580.39819   -698.77222   -3377.0773 
12351000    245.64391   -4848.6791   -4357.3609   -4848.6791            0     6346.502    17.997733    22.841079    19.461515    8000.3884    6045.3597    7692.1219    5302.0245    147.86475    1807.9415   -941.40284   -3616.8672 
12352000    260.44837   -4829.3335   -4308.4046   -4829.3335            0    5711.1936    18.011592     22.99714    19.334557    8008.6659    6485.4783    5235.8834    5412.2189  -0.34763683   -777.30754   -374.99136   -3641.3476 
12353000    268.48651   -4834.8765   -4297.8703   -4834.8765            0     7190.435    17.860229    22.840231    19.509574    7958.5749    7658.4173    8122.6647    5790.2231    745.73286    399.74383    624.38673   -3463.2934 
12354000    265.62049   -4818.3107    -4287.037   -4818.3107            0    7507.1925    18.038031    23.002325    19.210156    7970.6136    8384.6341    6902.0993     7234.844    1613.5925     374.9468    651.68537   -3414.3767 
12355000    278.24309   -4819.7111   -4263.1906   -4819.7111            0    6235.7159    18.000103      23.0202     19.40861    8042.2673    7916.6827    5391.7869    5398.6783    652.07075    739.01817    724.57565   -3531.8145 
12356000    248.18251   -4834.0616   -4337.6659   -4834.0616            0    6362.4102    18.123629    22.841285    19.368107    8017.7567    3979.4771    6978.0045    8129.7489   -98.136837    85.183895    1135.0047   -3593.7044 
12357000    269.79125   -4847.4744   -4307.8586   -4847.4744            0     5647.944    18.029137    22.942602    19.416902    8031.5167    5148.6779     5564.488     6230.666    120.01671    624.74862   -316.64389   -3646.3068 
12358000    267.01594   -4824.8148   -4290.7499   -4824.8148            0    6605.3751    18.125507    22.775625    19.379054    8000.0564    5873.1001    6306.1812     7636.844   -865.33311   -65.348079   -3060.2203   -3520.0835 
12359000     247.0715   -4809.9546   -4315.7811   -4809.9546            0    7518.7932    17.910275    22.932834    19.392641    7965.2044    6722.3018    7963.4009     7870.677    1646.3506     178.8836    607.62398   -3442.3655 
12360000    275.32458    -4835.571   -4284.8878    -4835.571            0    7919.7767    18.044533    22.914632    19.265991    7966.1758    8270.8158    7971.7068    7516.8073    144.15452    581.26855    212.32836     -3364.78 
12361000    276.51028   -4821.1213   -4268.0666   -4821.1213            0     6776.102    17.930844    22.854666    19.518499    7998.7481    7223.4274    7430.7632    5674.1154    910.85246    893.88551   -450.23839   -3477.6103 
12362000    261.86783   -4821.7899   -4298.0219   -4821.7899            0    8472.0427    18.122497    22.940393    19.163172    7966.8433    8012.5152    9187.9801    8215.6329   -425.25842   -334.45958   -368.42515   -3313.6702 
12363000    256.53843   -4835.6865   -4322.5779   -4835.6865            0    7001.2793    17.731082    23.065553    19.460556    7958.9238    7450.8265    6860.7989    6692.2125    135.11664    315.92065   -482.90813   -3509.9202 
12364000    263.40742   -4819.7984    -4292.951   -4819.7984            0    6641.3911    18.073068    22.994244    19.245201    7997.8542    7334.6393    5472.9982    7116.5359    -302.0669   -640.50635   -939.66577   -3518.2958 
12365000    251.71081   -4811.1046   -4307.6519   -4811.1046            0     6878.567    17.955244     22.84728    19.498927    7999.0153    9189.9777    5790.6666    5655.0566    924.38473   -861.86902    1159.3692   -3505.2159 
12366000    249.26423   -4835.7985   -4337.2393   -4835.7985            0    6296.7554    18.075189    22.918456    19.328938    8007.1173    5929.5678    6733.5888    6227.1095   -546.88042   -858.70046   -1064.2686   -3601.9319 
12367000    249.88632   -4850.4772   -4350.6737   -4850.4772            0    6450.3613    18.019647    22.642176    19.569883    7984.5907    7756.4712    7008.2187    4586.3941    116.39915   -403.64999    1104.4976    -3599.548 
12368000     259.9238    -4851.302   -4331.4222    -4851.302            0    7995.0193     18.29021    22.632675    19.174725    7937.4997    6314.0857    9407.3179    8263.6543    1007.8656    -288.8178   -599.98779   -3405.9165 
12369000    260.40251   -4854.3006   -4333.4634   -4854.3006            0    8524.6065    17.939043    22.798235    19.391034    7930.5162    8860.7458    8304.7357    8408.3382   -479.73189    257.08311   -716.97505   -3347.5207 
12370000    261.77845   -4840.0402   -4316.4509   -4840.0402            0    5831.1075    18.091955    22.818912    19.466501    8036.5255    5443.7141    5892.1583    6157.4501   -40.590802   -296.07576    1066.3116    -3633.019 
12371000    258.53457   -4849.1644   -4332.0633   -4849.1644            0    6189.4808    18.205855    22.648658    19.444489    8017.7051    5633.9729    7314.8706    5619.5988    453.46696    162.46093   -1134.7301   -3608.3273 
12372000    260.32862   -4802.4091   -4281.7197   -4802.4091            0    6425.4787      18.0681    22.705328    19.563345    8025.7084    7322.8342    5702.3164    6251.2854   -224.94068    -931.4844   -221.23513   -3529.6384 
12373000    251.00742    -4817.799   -4315.7532    -4817.799            0    8532.8166    18.211867    22.559751    19.427146    7981.7435    7963.4842    9336.9353    8298.0303    236.51706    285.92054    1071.1561    -3322.486 
12374000    266.98016   -4826.3864   -4292.3931   -4826.3864            0    9065.1502    18.133324    22.494688    19.530637    7966.6143     8049.075    10511.489    8634.8861     740.0308    745.19456    601.21274   -3239.1596 
12375000    262.60842   -4804.1614   -4278.9121   -4804.1614            0    8658.4003    18.211692    22.508194    19.506307    7995.8749    7892.8572    8898.8566    9183.4872   -460.27256    680.84668   -268.48012   -3269.2419 
12376000    257.13879   -4845.1323    -4330.823   -4845.1323            0    7407.0493    18.231626    22.540474    19.444952    7990.8928    7071.0818    7242.5282     7907.538    2065.4394    645.84624    1061.5942    -3467.613 
12377000     238.2511   -4800.6187   -4324.0871   -4800.6187            0    5139.0049    18.153483    22.779248    19.478453    8054.7824    6024.7085    5797.5317    3594.7744   -135.43574    648.33369    316.37061   -3720.4044 
12378000      252.931   -4836.5712   -4330.6779   -4836.5712            0    6975.5144    18.164812    22.755704    19.395892     8017.352    5952.5914    9012.3797    5961.5722   -566.44319    445.15067   -65.111337   -3515.0669 
12379000    253.84216   -4766.4108   -4258.6951   -4766.4108            0    7360.0134    18.125514    22.575567    19.539404    7995.4019    9072.6222    7747.6545    5259.7635   -220.86318    -1390.486    200.63725   -3400.4827 
12380000    255.84308   -4852.0598   -4340.3421   -4852.0598            0    6514.8508    18.161829    22.478636    19.520905    7969.4709    5659.8539    7394.6466    6490.0521    308.36048   -384.39259    763.37799   -3583.1434 
12381000     240.9962   -4829.7826   -4347.7604   -4829.7826            0    7018.8574    18.131172    22.621227    19.456787    7980.1882    6741.4502    7579.2408    6735.8811    1429.6703   -150.90916    -922.9834   -3530.8857 
12382000    269.58281   -4833.7066   -4294.5077   -4833.7066            0    6069.3225    18.099931    22.743608     19.55442    8049.7278    6488.1119    5016.0559    6703.7998    133.17355    130.81991    469.96734   -3581.9873 
12383000    263.14129   -4812.6381    -4286.323   -4812.6381            0    8160.0982    18.208884    22.652885     19.28421    7954.4235    6740.9871    8570.4439    9168.8637   -359.86006   -933.57372    -392.6629   -3339.6936 
12384000    246.26066   -4839.0881   -4346.5364   -4839.0881            0    5197.8262    18.143571    22.699336      19.5391    8047.1199    5574.2651    5978.6702    4040.5432   -417.77021     293.4272    1.4703353   -3736.5248 
12385000    260.71286   -4836.4196   -4314.9617   -4836.4196            0    7822.8716      18.3679    22.423585    19.304248    7950.9214    5669.9501    9117.5382    8681.1266    304.88424   -597.46549   -731.09148   -3407.8525 
12386000    263.80334   -4817.6811   -4290.0418   -4817.6811            0    8452.6216    18.029255    22.568758    19.596433    7973.7472    9280.9255    8432.4266    7644.5128   -1289.6995     195.1935   -108.93556   -3307.0956 
12387000     256.5406   -4831.7269    -4318.614   -4831.7269            0    6246.5005    18.228287    22.924999    19.184026    8016.6869    6422.7004    5377.6278    6939.1734      93.6472    337.59815   -800.56739   -3588.3034 
12388000    254.66789   -4820.3157   -4310.9485   -4820.3157            0    7053.5965    17.890025    22.779147      19.5993     7987.097    6449.0014    8511.1667    6200.6213    1394.4213    410.26156    1676.3061   -3489.3201 
12389000    257.47706   -4856.5418   -4341.5558   -4856.5418            0     7700.662    18.003582     22.85995    19.340034    7959.6035    6853.2855     7719.247    8529.4536   -1030.1937    75.234987    754.90347   -3447.6426 
12390000    269.95638   -4834.1224   -4294.1762   -4834.1224            0    6052.7243     18.18888    22.718686    19.413095    8022.0238    4631.0418    7510.4922    6016.6389    1525.5881    467.11703    1230.0087   -3586.0499 
12391000    259.69672   -4839.3536   -4319.9281   -4839.3536            0    6711.0526    17.996549    22.772582    19.505504     7993.899    6472.5181    6844.4948     6816.145   -1692.0599    912.08883   -2507.9836   -3537.5346 
12392000    256.28976   -4825.2264   -4312.6152   -4825.2264            0    8443.9633    18.094165    22.775323    19.358289    7977.5599    8894.9157    6784.9792    9651.9949     666.4708    -498.1009    2411.4707   -3330.2063 
12393000    269.07814   -4863.0086   -4324.8191   -4863.0086            0    5505.4404     18.27531    22.502851    19.474436    8008.7956     4384.892    6090.6838    6040.7453   -393.86693   -918.45167   -130.91586   -3681.7833 
12394000    253.52548   -4814.1738   -4307.0915   -4814.1738            0    7882.6711    18.056621    22.650722    19.480635    7967.4919    7585.6938    9128.9756     6933.344    1448.9752   -463.39043   -300.85553   -3391.1433 
12395000    261.97596   -4826.0979   -4302.1136   -4826.0979            0     7717.767    18.062609    22.701662    19.499948    7995.9783    7088.4089    8274.9007    7789.9914   -534.39383   -205.19424    296.20617   -3402.1206 
12396000    252.57507    -4825.896   -4320.7147    -4825.896            0    7199.1975    18.174987    22.682759    19.360656    7981.6019    6207.8161    8382.8504    7006.9259   -227.25569   -335.15904    -1156.944    -3482.703 
12397000    240.15341   -4822.7992   -4342.4627   -4822.7992            0    8094.4573    18.150511    22.672588    19.374009    7972.7739    7950.8652    8319.0416     8013.465    2211.2772   -158.79364    -1044.199   -3401.2818 
12398000    260.99535   -4843.1483   -4321.1253   -4843.1483            0    7459.2906    18.008348    22.738617    19.432558    7957.3399    5274.8582    9681.5524    7421.4612   -1355.4265   -587.80471   -1495.1754   -3455.4773 
12399000    267.55611   -4817.9908   -4282.8455   -4817.9908            0    6615.7811    18.160488    22.762403     19.40324    8020.8402    4172.3226    8313.6842    7361.3366    403.08554   -828.88877    244.64369   -3508.9597 
12400000    255.92051   -4833.0925   -4321.2199   -4833.0925            0    8204.4374    18.118024    22.455148    19.519305    7941.2907    7514.6395    7860.6285    9238.0443   -942.46767   -697.12117   -2059.2196   -3371.0182 
12401000    276.06233   -4815.6384   -4263.4797   -4815.6384            0    7835.9269    18.182407    22.563718    19.528226    8011.7025    6090.6738     8546.728    8870.3789    293.72678    -367.1066    654.31624   -3347.9107 
12402000    256.34491   -4814.2455    -4301.524   -4814.2455            0    7477.5466    18.161134    22.685377    19.386929    7987.2628    8615.2825    7337.0874    6480.2699   -1599.8764    1082.8956   -294.82592   -3430.4943 
12403000    265.33923   -4821.7901   -4291.0788   -4821.7901            0    7970.6725     18.09924    22.695573    19.376855    7959.4813     7355.838    7934.1871    8621.9923   -430.21746   -215.26459    -1628.177   -3365.8362 
12404000    252.47528   -4825.7811   -4320.7993   -4825.7811            0    6232.7507    18.228588     22.67548    19.457744    8042.7023    4722.5181    8004.4377    5971.2962   -330.67815   -169.37184   -600.53081   -3589.7316 
12405000    249.28987   -4823.3897   -4324.7791   -4823.3897            0     7333.125    18.055827     22.89502    19.356251    8001.6515    7213.3454    7280.6815    7505.3481   -39.809841   -555.79812   -2652.1684   -3469.0337 
12406000    238.64071    -4813.671   -4336.3601    -4813.671            0    6653.0208     18.02725    22.931935    19.300961    7979.0117     6771.997    6043.9081    7143.1572    1688.1574   -811.92012    1161.3596   -3562.1767 
12407000    248.17152   -4811.9952   -4315.6215   -4811.9952            0    6677.9855    17.811314    23.068631    19.496751    8010.8762    7190.4187    6791.3148    6052.2229   -77.441458    700.57608    549.00832   -3535.4297 
12408000    252.19765   -4853.5558   -4349.1293   -4853.5558            0    5466.2275    18.050298    23.072799    19.304003    8039.5556    4692.0413    4922.1776    6784.4637    13.665242   -950.96993   -2597.1279   -3708.2214 
12409000    249.13034   -4827.7593   -4329.4678   -4827.7593            0    6902.6688    17.805078    23.240525    19.289953    7982.1704    6975.9162    6326.7121     7405.378    584.44254   -459.96927   -793.79473    -3525.916 
12410000    267.93916   -4826.8516   -4290.9402   -4826.8516            0    7609.4655    17.893897    23.108634    19.300517    7980.8313    7143.9575    8411.4022    7273.0368    810.87201   -463.19927   -719.22422   -3405.2575 
12411000    252.00612   -4846.3047   -4342.2613   -4846.3047            0     6839.651    18.007353    22.939263    19.301642    7973.0337    5956.4225    7816.1551    6746.3753    461.44474    1027.7472   -1475.3177   -3546.9568 
12412000    251.70302   -4804.7212   -4301.2841   -4804.7212            0    6792.5428    18.055403    22.965686    19.315486    8009.2572    8629.0452     6572.954    5175.6291    192.94939    955.95611   -461.80585   -3507.8689 
12413000    247.55718   -4815.8939   -4320.7489   -4815.8939            0    7825.2418    18.032922    23.006004    19.226715    7976.5004     6589.006    8209.1345    8677.5848    400.55565    -483.1751   -789.01306   -3410.4458 
12414000    259.60791   -4838.3548   -4319.1069   -4838.3548            0    7745.2951    17.910118    22.948097    19.363875     7958.613    8911.8891    7098.8158    7225.1803    72.478256    -536.8724   -384.52718   -3420.1244 
12415000    255.94324   -4829.3068   -4317.3887   -4829.3068            0    6858.6712    17.969738    22.901951    19.418335    7991.4614    7982.1939     6065.061    6528.7588   -526.77433   -1288.1207   -1420.6606   -3518.0293 
12416000    260.91549   -4790.3737   -4268.5105   -4790.3737            0    6217.1843    18.063147    23.109295    19.187864    8009.5249    7842.6929    5982.4547    4826.4052    1989.3551   -603.80856    214.25931   -3542.2768 
12417000    254.70744   -4833.5225   -4324.0762   -4833.5225            0    7141.4783    18.072011    22.788944    19.371007    7977.7953    6360.9978    8195.8047    6867.6325    20.931905   -127.34557   -43.412898   -3493.1797 
12418000    244.02712   -4780.4352   -4292.3508   -4780.4352            0    8223.4305      18.0409    22.879357    19.455172    8030.3982    9264.6827    6816.1832    8589.4255    1345.8209    774.90843   -1264.2294   -3329.2628 
12419000    272.88552   -4814.1857    -4268.381   -4814.1857            0    8367.2161    17.910882    22.917938    19.358076    7946.1124    9472.0919    7067.9965    8561.5599    183.30591   -254.02545   -2449.4143   -3298.7386 
12420000    260.69937   -4811.4196   -4289.9887   -4811.4196            0    8022.3726    17.990263    22.873732    19.370063     7970.867    6299.6128    8774.5527    8992.9523     1914.812    1079.0049   -893.20209   -3357.4126 
12421000    257.97177   -4811.3031   -4295.3276   -4811.3031            0     6223.331    18.112764    22.946586    19.311432     8026.335    5975.0653     5767.706    6927.2217    156.51642   -853.48573    108.72565   -3566.8503 
12422000    261.27981   -4851.6649    -4329.073   -4851.6649            0    6402.0118    17.898139    23.030366    19.401801    7997.4355    6153.3461    7145.9013    5906.7882    397.85399   -1316.8771    954.60337   -3582.3782 
12423000    246.92966   -4829.6055   -4335.7157   -4829.6055            0    6190.9713    18.071644    22.864221    19.298882    7974.1834    6609.4297    5673.2909    6290.1932    437.91402   -1437.2059    1834.3727   -3615.7349 
12424000    257.32742   -4839.2618   -4324.5751   -4839.2618            0    7442.2304    18.057291    22.723013    19.401655    7960.8105    6926.5226    7842.3454    7557.8231    3.1053634   -338.31494   -179.56539   -3460.5303 
12425000    258.04327   -4843.1103   -4326.9918   -4843.1103            0    6545.8841    18.073875    22.754315    19.495197    8017.5681    9194.2809    5765.7956    4677.5756    447.32772   -477.03186  -0.93918162   -3561.5947 
12426000    272.67052    -4855.945   -4310.5703    -4855.945            0    9131.8828    18.180504    22.576309     19.25804    7904.4372    7063.1047    10749.499     9583.045    -896.2994    1663.7902   -247.59905   -3257.8641 
12427000    256.07311   -4789.8883   -4277.7105   -4789.8883            0    7727.8179    17.999971     22.60459     19.60511    7976.9656    8640.5231    7730.0873    6812.8434    514.17114   -1611.3141    2520.5587   -3378.6881 
12428000    253.07704   -4815.7899   -4309.6045   -4815.7899            0    6824.1384    18.041732    22.779665    19.597549    8054.2907    7307.5439     7524.885    5639.9863   -713.36719   -36.783344   -2783.5843   -3508.0169 
12429000    260.38609   -4821.7141   -4300.9097   -4821.7141            0    7582.3518    18.203023    22.771557    19.337923    8015.7849    6635.5605     8665.697    7445.7979   -361.79406    1088.7099     907.9507   -3414.5176 
12430000    255.77273   -4818.1293   -4306.5522   -4818.1293            0    6335.1959    18.132268    22.577139    19.628584    8035.4465    6666.1139    7042.3882    5297.0857   -1085.8342   -43.334304   -2043.0619   -3564.1386 
12431000     254.9049   -4826.6378   -4316.7965   -4826.6378            0    9594.9767    18.015564    22.727016    19.308681    7905.7465    6835.6908    10903.801    11045.438    289.03554    639.73882    170.20591   -3210.5225 
12432000    259.36979   -4816.8746    -4298.103   -4816.8746            0    8296.4076    18.089213    22.843593    19.297846    7974.3065    7516.6733    7211.8839    10160.666    387.24279   -200.84705   -26.384265    -3333.255 
12433000    240.40023   -4819.5737   -4338.7436   -4819.5737            0    7264.7848    17.992326    22.882651    19.412458    7992.3445    7631.6827    6974.5164    7188.1553    1546.8232   -162.88719    1563.3571   -3491.9592 
12434000    250.88486    -4853.226   -4351.4253    -4853.226            0    5598.3276    18.202548     22.85392    19.279099    8020.0968    5614.2524    5240.9796    5939.7508   -1157.9826   -1799.6321    -2478.615   -3696.6176 
12435000    272.08085   -4828.5256   -4284.3303   -4828.5256            0    7245.4316    18.032584     22.62495    19.638761    8012.3458    6248.3919    8600.9339    6886.9692    1319.9811    73.080674    1507.7253   -3437.6882 
12436000    257.60672   -4814.6609   -4299.4157   -4814.6609            0    6678.9517    18.184344    22.854757    19.238995     7995.702    7336.2735    6139.1807    6561.4009   -50.293379   -928.64907    237.46529    -3520.589 
12437000    261.69639   -4852.1416   -4328.7165   -4852.1416            0    7314.8104    17.950639    22.759289    19.506089    7969.0916    8123.5884     8195.348    5625.4949   -230.86922    407.78035    131.23644   -3478.5817 
12438000    257.92671   -4806.4953     -4290.61   -4806.4953            0    6709.5527    18.210671    22.923088    19.176255    8005.0283    8475.0634    6154.3668     5499.228    264.60173   -1039.0077    569.75092   -3507.3025 
12439000    240.11501   -4827.3177    -4347.058   -4827.3177            0    5966.7037    18.090184    22.762831    19.537256    8045.1258    7644.1761    5138.8069    5117.1282   -579.75714   -1212.9222   -1838.7783   -3646.9852 
12440000    280.55105   -4820.0053   -4258.8686   -4820.0053            0     8548.631    18.069408    22.841939    19.297409     7964.819    5386.8364    9816.7511    10442.306    1774.1325    621.02814    1431.9315   -3265.8706 
12441000    255.67449    -4806.045   -4294.6644    -4806.045            0    6654.9707    17.983186    22.919061    19.408714    7999.4517    7459.1792     6573.995    5931.7378    29.883546   -241.63715    1400.1626   -3518.2702 
12442000    250.81227   -4794.0744   -4292.4189   -4794.0744            0    6107.3483    18.383291    22.983381     19.03211    8041.2602    4788.3989    6428.9405    7104.7055   -106.82088   -702.58651    798.63415   -3576.1886 
12443000    258.90139   -4834.6121   -4316.7774   -4834.6121            0    6872.7957    18.070669    22.877268    19.420747     8028.683    7034.5501    6528.3367    7055.5002   -998.30819   -627.93075    668.23714    -3512.041 
12444000    264.47174   -4834.2897   -4305.3136   -4834.2897            0    7320.5267    18.006749    22.771085    19.400125    7954.6954    7319.6313    7746.3854    6895.5635   -1071.3419    403.38072    983.62388   -3456.0514 
12445000    264.24218   -4833.8044   -4305.2874   -4833.8044            0     7664.982    18.144173    22.888989    19.219947     7982.078    5450.6858    8527.6735    9016.5866    384.88333    531.49022    1703.2137   -3413.0036 
12446000    259.10122   -4839.6413   -4321.4069   -4839.6413            0    6507.3922    17.942899    22.911646    19.525789     8027.078    10222.762    5618.4578    3680.9568    -1874.478   -277.92358   -2166.0093    -3559.608 
12447000     254.5601   -4818.5699   -4309.4183   -4818.5699            0    7523.3448    18.225258    22.941854    19.066175    7971.9725    6390.5532     7602.736    8576.7454    470.95889    13.354956    487.75262   -3434.7313 
12448000     260.5982   -4829.6769   -4308.4483   -4829.6769            0      5457.25    17.967951    22.930288    19.583179     8068.471    6320.4889    5736.8764    4314.3847    280.14929    1463.2733    602.68967   -3666.2916 
12449000    268.17349   -4829.9545   -4293.5744   -4829.9545            0    5064.3349    18.155914    22.906745    19.374847    8057.8612    5622.6853     4793.908    4776.4114    2047.6455   -1133.5848    -60.51164   -3698.4358 
12450000    257.26753    -4847.214   -4332.6472    -4847.214            0    5875.0699    18.111055    22.815069    19.435783    8030.9622    6306.5347    5605.3757    5713.2994   -1441.2631   -280.97221   -549.53751   -3644.5393 
12451000    262.28708   -4840.7075    -4316.101   -4840.7075            0    6296.7482    18.200568    22.739632    19.377157    8019.7056    4415.5022    8088.6927    6386.0496    581.58502   -547.41952    782.97776   -3579.6385 
12452000    255.86909   -4832.6632   -4320.8935   -4832.6632            0    6965.2053    18.002668     22.80612     19.51047    8010.4332    8456.0793    6829.6023    5609.9342     1133.108   -80.899688   -664.48771   -3507.1907 
12453000    244.87375    -4836.758   -4346.9802    -4836.758            0    7426.9971    18.087735    22.819889     19.33018    7978.7269    6833.6817    7331.2516    8116.0581    803.17757   -204.37903    2078.7442   -3482.7634 
12454000    253.62405   -4842.0893   -4334.8099   -4842.0893            0    7620.0373      17.9474    22.822547    19.400995    7946.7523    8868.4998    6900.8027    7090.8093   -299.33268   -812.53318   -1779.6135   -3451.6839 
12455000    253.63395   -4844.3097   -4337.0104   -4844.3097            0      7437.81    18.073819    22.860267    19.277641     7964.988    5876.0058    8692.3997    7745.0246    1397.3246    647.78285    1104.9967   -3473.0256 
12456000    253.58799     -4829.05   -4321.8427     -4829.05            0    8463.6857    18.078619    22.791289    19.282239     7944.958    7558.0053    8581.3448     9251.707   -670.54376   -239.63062   -1520.5001   -3341.1633 
12457000    259.20492   -4832.6567   -4314.2149   -4832.6567            0    4509.6588    18.059296    22.748807    19.641747    8069.3689    6395.9362    3490.7036    3642.3365    923.01683   -1527.9048   -1075.1047   -3783.5026 
12458000    256.81789   -4800.9053   -4287.2378   -4800.9053            0    5469.0338    18.171818    22.787539    19.421192    8042.1411    5663.3087    5454.8275    5288.9652    574.98777   -2131.0995    -804.3777   -3645.7946 
12459000    255.28541   -4828.5098   -4317.9074   -4828.5098            0    5696.1934    18.037818    22.828273    19.456617    8011.6947    4597.5068    6370.3983     6120.675    1496.2646   -920.13753   -934.66151   -3652.3508 
12460000    271.22328   -4839.2614   -4296.7813   -4839.2614            0    6597.2713    18.187741    22.747202    19.331789     7997.952     6384.884    5888.2546    7518.6755    9.6488891   -721.82452   -150.48053   -3527.2629 
12461000    271.61239   -4849.9871   -4306.7288   -4849.9871            0    7660.0398    18.136558    22.754194    19.317665    7972.0672    5885.0064    8919.1083    8176.0049    1359.4487    1456.3754    385.50589   -3416.1386 
12462000    258.26052   -4827.4427   -4310.8898   -4827.4427            0    6968.0823    18.045018    22.773497    19.421156    7981.0884    7825.6263    6952.0482    6126.5723    44.286829   -348.06586   -488.55417   -3499.8329 
12463000    261.21437   -4839.7123   -4317.2513   -4839.7123            0    5707.2396    18.164156    22.801085    19.420702    8043.3255      6340.73    5969.4275    4811.5613    885.87199   -201.09503    514.31974   -3647.7712 
12464000    257.66314   -4824.0928   -4308.7347   -4824.0928            0    6624.3656    17.914626    22.664521    19.706988    8001.5576     7775.933     7719.346    4377.8179   -604.60714   -152.60497   -412.80144   -3535.7076 
12465000    252.01535   -4862.3001   -4358.2383   -4862.3001            0    7950.0169    18.160372    22.627948    19.346751    7950.1981    6768.9087    8755.5141    8325.6279    699.99596   -644.14151    1174.2461   -3436.4697 
12466000    255.97384   -4833.7793      -4321.8   -4833.7793            0    6444.4334    18.089433    22.807174    19.426043    8014.5801    6189.2444    6261.1605    6882.8952   -678.68707    65.340199   -655.92748    -3568.546 
12467000    257.48637   -4863.6525    -4348.648   -4863.6525            0    7055.6723    18.148401    22.702281    19.318564    7959.4436    5115.3865    8670.6929    7380.9377    601.17497    497.73756   -563.02907   -3529.6233 
12468000    255.24404   -4801.2982   -4290.7786   -4801.2982            0    5848.0163    18.033603    22.788983    19.560283      8038.64    6081.4835    6738.6641    4723.9013    930.79765    580.03382    90.850082   -3605.1846 
12469000    253.14027   -4821.5898    -4315.278   -4821.5898            0     7592.361    18.112926    22.785334    19.276105    7955.4234    6178.9644    9378.1171    7220.0016    1120.3644   -62.233085    2449.3908   -3434.3994 
12470000    250.27134   -4839.7944   -4339.2208   -4839.7944            0    8349.3481    17.987918    22.599023    19.488679    7922.3309    9172.5676    8954.6666    6920.8099   -1071.9027   -777.75281    1281.7547   -3374.5449 
12471000    254.00771   -4835.1073   -4327.0605   -4835.1073            0    6809.0696    18.212305    22.822661     19.35034    8043.0322    8250.9973    5787.9293     6388.282   -608.15432   -1120.3542    753.64685   -3528.3609 
12472000    246.07082   -4840.9204   -4348.7483   -4840.9204            0    6938.3775    18.066875    22.678711    19.574586    8020.3623     8185.104    6624.7649    6005.2635     1609.325    1831.1537    760.93786   -3537.1749 
12473000     245.7623   -4846.7604   -4355.2054   -4846.7604            0    5490.9737    18.238945    22.740041    19.413196    8051.7077    4691.9217    5538.1286    6242.8708    98.789732    530.70827   -115.63318   -3710.4229 
12474000    257.99994   -4828.9285   -4312.8967   -4828.9285            0    6502.1835    18.212535    22.637411    19.415785    8004.8299    5757.1734    7465.6461    6283.7309   -297.08653   -1154.0408   -637.79919   -3553.8173 
12475000    245.82975   -4825.3959    -4333.706   -4825.3959            0     8492.932     18.08282    22.623264    19.442977    7953.9745    8470.5147    8560.9823    8447.2989   -354.67722    166.33786   -1596.2244   -3348.5212 
12476000    251.64274    -4819.987   -4316.6704    -4819.987            0    7775.4851    18.086763    22.758132    19.394751    7983.2858     7259.115    8970.4129    7096.9275    648.94518    248.60544     368.0512    -3411.386 
12477000    271.75904   -4795.9931   -4252.4414   -4795.9931            0    7440.5418    18.133175     22.68907    19.462965    8007.5482    7303.0744    7532.1119    7486.4393    217.33898    343.12727   -1707.0217    -3383.521 
12478000    261.56517   -4803.7303   -4280.5677   -4803.7303            0    7618.7963    18.206059    22.539249    19.438647    7976.6663    6647.0777    9124.0702     7085.241     219.9547    906.60548    643.40464   -3394.2617 
12479000     257.4975   -4814.1122   -4299.0854   -4814.1122            0    6246.7132    18.171144    22.606648    19.605237    8053.6091    5080.1683    8473.0227    5186.9485    962.78521   -1313.7725    131.57528   -3565.3863 
12480000    269.73906   -4811.5757   -4272.0643   -4811.5757            0     7467.603     18.09864    22.615591    19.548509    8001.4286    8546.8215    8236.9154    5619.0722    348.09977   -1450.2587   -472.98457   -3400.6501 
12481000    276.93559   -4838.2078   -4284.3024   -4838.2078            0    8022.9894    18.096887    22.689331    19.446454    7984.8356     7838.119    9426.7785    6804.0707    1264.9122    557.38732   -230.75488   -3350.0202 
12482000    255.82314   -4820.0727   -4308.3948   -4820.0727            0    7064.9787     18.27515    22.675259    19.360035     8022.678    6473.4492    7157.0656    7564.4215   -324.65596    594.79144    873.02634   -3481.7744 
12483000    251.92968   -4825.3602   -4321.4697   -4825.3602            0     5846.833    18.233762    22.536653      19.5739    8043.4627    5846.5019    6367.7473    5326.2498   -614.70487   -154.00282    1108.4416   -3635.6031 
12484000    270.48181   -4832.6871     -4291.69   -4832.6871            0    7074.1833    18.159646    22.565094    19.528187    8002.1456     8014.704    8057.6443    5150.2017    381.56207   -461.42798     1744.941    -3466.111 
12485000    251.95911   -4849.8277   -4345.8783   -4849.8277            0    4944.2061    18.288597    22.498229    19.532303    8036.7817    4427.9129    5429.1108    4975.5945    2096.5901   -1077.8325   -1221.5377   -3766.3767 
12486000    247.33279   -4822.2606   -4327.5645   -4822.2606            0    5519.0725    18.007474    22.814628    19.549393    8031.5516    6099.3965    5302.2428    5155.5783     251.6023   -728.52953    259.77058   -3681.1048 
12487000    252.72832   -4832.6542   -4327.1664   -4832.6542            0     5328.504    18.309363    22.749066    19.261232    8022.7061    3778.4143    5392.7432    6814.3546    1198.4098   -327.60698    322.58099   -3703.7157 
12488000    265.32006   -4828.0996   -4297.4267   -4828.0996            0    6259.0522     18.06114    22.684263    19.565545    8016.0748    6722.0608    6898.8944    5156.2013   -84.864262   -479.29844   -1065.4448   -3565.7045 
12489000     259.2623   -4835.1123   -4316.5557   -4835.1123            0    6830.5719    18.153059    22.839648    19.268461    7988.8865    5716.3438    7155.6555    7619.7163   -186.65165     -627.118   -1394.3037   -3520.7277 
12490000    266.83116   -4819.8412   -4286.1459   -4819.8412            0    10494.075    18.176714    22.553593    19.314464    7917.9688    11012.297    10410.168    10059.761    1098.6943    1151.5813    118.90437   -3074.3378 
12491000    242.25747   -4822.0113   -4337.4664   -4822.0113            0    6416.5588    18.103369    22.750658    19.522707    8040.6916    7867.6587    6221.3507     5160.667    1217.1039    1227.4374   -993.91205   -3585.0271 
12492000    245.60246   -4817.2493   -4326.0141   -4817.2493            0    5921.6143     18.20108     22.68884    19.463343    8037.6092    3300.0763     6396.983    8067.7838   -388.95531   -339.59409   -1734.5518   -3631.8808 
12493000    258.36677   -4792.1215   -4275.3561   -4792.1215            0     8179.317     18.16526    22.562381    19.446852    7970.3218    5930.9476    9348.6998    9258.3035    121.44635   -365.38756   -706.25402   -3324.6007 
12494000     267.0636   -4831.3975   -4297.2373   -4831.3975            0    6435.6749    18.158694    22.543027    19.544127     8000.426    4797.3347    7560.5186    6949.1715   -219.99885    1684.5431    166.50691   -3546.3356 
12495000    266.05898   -4802.9364   -4270.7855   -4802.9364            0     7943.561    18.257473    22.537803    19.421085    7991.4529    8724.6842    7296.8397    7809.1591    1439.1321    467.01067   -183.28934   -3344.9862 
12496000     262.8837   -4843.6366   -4317.8367   -4843.6366            0    6624.5265    18.139488    22.648924    19.549543     8031.732    5838.3916     6605.098    7430.0899   -706.38154   -521.80281   -1407.7786   -3541.8756 
12497000    254.17499   -4815.1166   -4306.7352   -4815.1166            0    6872.6913    18.136053     22.79469    19.382109    8012.6745    8440.0472    6213.0279    5964.9989   -221.66334    140.09738    388.67042   -3503.6156 
12498000    262.25019     -4807.58   -4283.0473     -4807.58            0    8054.1704    18.112417    22.688343    19.497668     8012.386    7321.8987    8834.0842    8006.5282    435.43167   -100.49707    1339.0552   -3341.8979 
12499000     264.5418   -4849.1418   -4320.0256   -4849.1418            0    7381.4963    18.184994    22.462105    19.514996    7971.3541    5920.0998    9048.7751    7175.6141   -1403.1089   -36.626003   -1630.7796   -3461.8969 
12500000    273.04707   -4815.6899   -4269.5621   -4815.6899            0    6810.7007    18.169316    22.551132    19.563185     8015.793    5625.8435    7114.7599    7691.4986    509.06389   -353.55593    -28.24727   -3473.3767 
Loop time of 500.146 on 64 procs for 250000 steps with 1008 atoms

Performance: 86.375 ns/day, 0.278 hours/ns, 499.854 timesteps/s
99.2% CPU use with 64 MPI tasks x 1 OpenMP threads

MPI task timing breakdown:
Section |  min time  |  avg time  |  max time  |%varavg| %total
---------------------------------------------------------------
Pair    | 28.562     | 32.338     | 36.802     |  31.9 |  6.47
Bond    | 0.26399    | 0.28334    | 0.29466    |   0.9 |  0.06
Kspace  | 224.55     | 236.05     | 245.5      |  30.7 | 47.20
Neigh   | 4.2307     | 4.9566     | 5.608      |  16.4 |  0.99
Comm    | 97.539     | 106.16     | 115.5      |  43.8 | 21.23
Output  | 1.2851     | 1.2868     | 1.31       |   0.3 |  0.26
Modify  | 108.65     | 111.66     | 115.51     |  19.8 | 22.33
Other   |            | 7.412      |            |       |  1.48

Nlocal:        15.7500 ave          19 max          13 min
Histogram: 9 12 0 7 0 12 10 0 10 4
Nghost:        2498.86 ave        2515 max        2480 min
Histogram: 2 1 9 7 13 2 12 5 10 3
Neighs:        5224.08 ave        6369 max        4228 min
Histogram: 9 8 4 7 6 6 10 1 9 4

Total # of neighbors = 334341
Ave neighs/atom = 331.68750
Ave special neighs/atom = 2.0000000
Neighbor list builds = 9514
Dangerous builds = 0

unfix		3
unfix		2
unfix		1

write_data	data.final.${pid}
write_data	data.final.0
System init for write_data ...
PPPM initialization ...
  extracting TIP4P info from pair style
  using 12-bit tables for long-range coulomb (../kspace.cpp:340)
  G vector (1/distance) = 0.37899267
  grid = 24 27 36
  stencil order = 5
  estimated absolute RMS force accuracy = 0.0024730263
  estimated relative force accuracy = 7.4474453e-06
  using double precision FFTW3
  3d grid and FFT values/proc = 4050 480
Last active /omp style is kspace_style pppm/tip4p/omp
WARNING: Not all mixed pair coeffs generated from mixing. Use write_data with 'pair ij' option to store all pair coeffs. (../write_data.cpp:312)

write_restart   restart.lmp.${pid}
write_restart   restart.lmp.0
System init for write_restart ...
PPPM initialization ...
  extracting TIP4P info from pair style
  using 12-bit tables for long-range coulomb (../kspace.cpp:340)
  G vector (1/distance) = 0.37899267
  grid = 24 27 36
  stencil order = 5
  estimated absolute RMS force accuracy = 0.0024730263
  estimated relative force accuracy = 7.4474453e-06
  using double precision FFTW3
  3d grid and FFT values/proc = 4050 480
Last active /omp style is kspace_style pppm/tip4p/omp
Total wall time: 0:08:20
