#include		in.partitions
include		in.temp
variable        temperature equal 181.47
variable	tempDamp equal 100.0
include		in.pressure
variable        pressure equal 7416.9
variable        pressureDamp equal 1000.0 # This is 1 ps
include		in.seed
variable        seed equal 745823

units		real
atom_style	full
read_restart    restart.lmp.${pid}
read_restart    restart.lmp.0
Reading restart file ...
  restart file = 30 Jul 2021, LAMMPS = 30 Jul 2021
  restoring atom style full from restart
  triclinic box = (-3.1615456 -0.12749525 -0.024019553) to (14.771545 22.707494 19.254018) with tilt (-0.18476785 -6.5320427 0.18941615)
  2 by 4 by 4 MPI processor grid
  restoring pair style lj/cut/tip4p/long/omp from restart
  restoring bond style harmonic/omp from restart
  restoring angle style harmonic/omp from restart
  1008 atoms
  672 bonds
  336 angles
Finding 1-2 1-3 1-4 neighbors ...
  special bond factors lj:    0        0        0       
  special bond factors coul:  0        0        0       
     2 = max # of 1-2 neighbors
     1 = max # of 1-3 neighbors
     1 = max # of 1-4 neighbors
     2 = max # of special neighbors
  special bonds CPU = 0.002 seconds
  read_restart CPU = 0.007 seconds

include 	in.setup
variable	out_freq equal 1000
variable	out_freq2 equal 10000
variable	out_freq3 equal 1000

timestep	2.0

neigh_modify    delay 7 every 1

include		in.tip4p
# This is TIP4P/Ice

# create groups ###
group ox type 2
336 atoms in group ox
group hy type 1
672 atoms in group hy

# set charges - beside manually ###
set group ox charge -1.1794
Setting atom values ...
  336 settings made for charge
set group hy charge 0.5897
Setting atom values ...
  672 settings made for charge

# ### TIP3P Potential Parameters ###
pair_style lj/cut/tip4p/long/omp 2 1 1 1 0.1577 8.5
pair_coeff 1 1*2 0.000 0.000
pair_coeff 2 2 0.21084 3.1668
bond_style  harmonic
bond_coeff  1 450 0.9572
angle_style harmonic
angle_coeff 1 55 104.52
kspace_style pppm/tip4p/omp 1.0e-5
pair_modify tail yes

thermo          ${out_freq}
thermo          1000
thermo_style    custom step temp pe etotal epair emol press lx ly lz vol pxx pyy pzz pxy pxz pyz enthalpy

restart 	${out_freq3} restart.lmp.${pid} restart2.lmp.${pid}
restart 	1000 restart.lmp.${pid} restart2.lmp.${pid}
restart 	1000 restart.lmp.0 restart2.lmp.${pid}
restart 	1000 restart.lmp.0 restart2.lmp.0


include         in.dump
dump            myDump all atom ${out_freq2} dump.water.${pid}
dump            myDump all atom 10000 dump.water.${pid}
dump            myDump all atom 10000 dump.water.0
dump            myDump2 all dcd ${out_freq2} dump.dcd
dump            myDump2 all dcd 10000 dump.dcd
dump_modify     myDump append yes
dump_modify     myDump2 append yes


variable natoms 	equal  "count(all)"                        # NUMBER ATOMS
variable H      	equal  "enthalpy/v_natoms"                 # ENTHALPY-per-atom
variable Vol      	equal  "vol/v_natoms"                 # volume-per-atom
fix AVG all 		ave/time ${out_freq} 1 ${out_freq} v_Vol v_H file vol_enthalpy.dat
fix AVG all 		ave/time 1000 1 ${out_freq} v_Vol v_H file vol_enthalpy.dat
fix AVG all 		ave/time 1000 1 1000 v_Vol v_H file vol_enthalpy.dat



fix 		1 all shake 1e-6 200 0 b 1 a 1
       0 = # of size 2 clusters
       0 = # of size 3 clusters
       0 = # of size 4 clusters
     336 = # of frozen angles
  find clusters CPU = 0.000 seconds
fix             2 all nph tri ${pressure} ${pressure} ${pressureDamp}
fix             2 all nph tri 7416.9 ${pressure} ${pressureDamp}
fix             2 all nph tri 7416.9 7416.9 ${pressureDamp}
fix             2 all nph tri 7416.9 7416.9 1000
fix             3 all temp/csvr ${temperature} ${temperature} ${tempDamp} ${seed}
fix             3 all temp/csvr 181.47 ${temperature} ${tempDamp} ${seed}
fix             3 all temp/csvr 181.47 181.47 ${tempDamp} ${seed}
fix             3 all temp/csvr 181.47 181.47 100 ${seed}
fix             3 all temp/csvr 181.47 181.47 100 745823


run             250000
PPPM initialization ...
  extracting TIP4P info from pair style
  using 12-bit tables for long-range coulomb (../kspace.cpp:340)
  G vector (1/distance) = 0.37944175
  grid = 24 27 32
  stencil order = 5
  estimated absolute RMS force accuracy = 0.002431414
  estimated relative force accuracy = 7.3221311e-06
  using double precision FFTW3
  3d grid and FFT values/proc = 5355 672
Last active /omp style is kspace_style pppm/tip4p/omp
Neighbor list info ...
  update every 1 steps, delay 7 steps, check yes
  max neighbors/atom: 2000, page size: 100000
  master list distance cutoff = 10.8154
  ghost atom cutoff = 10.8154
  binsize = 5.4077, bins = 5 5 4
  1 neighbor lists, perpetual/occasional/extra = 1 0 0
  (1) pair lj/cut/tip4p/long/omp, perpetual
      attributes: half, newton on, omp
      pair build: half/bin/newton/tri/omp
      stencil: half/bin/3d/tri
      bin: standard
Per MPI rank memory allocation (min/avg/max) = 10.31 | 10.32 | 10.33 Mbytes
Step Temp PotEng TotEng E_pair E_mol Press Lx Ly Lz Volume Pxx Pyy Pzz Pxy Pxz Pyz Enthalpy 
16000000    184.44416   -4982.9266   -4614.0155   -4982.9266            0     6589.296     17.93309     22.83499    19.278037    7894.3933    6782.1657    5682.2064    7303.5159    322.76816    98.954361    -1363.978   -3855.3791 
16001000    175.88168   -4997.8474   -4646.0623   -4997.8474            0    8498.0594    17.996696    22.537843    19.358781    7852.0515     8299.033    8992.3214    8202.8237   -499.40375    490.60801   -694.24296   -3672.9146 
16002000     182.7752   -5018.5262   -4652.9532   -5018.5262            0    5788.8376    17.916736     22.76215    19.422073    7920.7764     4890.037    5620.9671    6855.5088   -2046.6295   -947.90068   -911.46964   -3984.2476 
16003000    172.74385   -4997.0331   -4651.5241   -4997.0331            0    7480.5113    17.848362    22.838266     19.27806    7858.2314    7698.9409    8003.1287    6739.4644    611.42803   -536.31395   -289.23965   -3794.2257 
16004000    174.95963   -5020.9104   -4670.9695   -5020.9104            0    8788.7331     17.88927    22.724311    19.265203    7831.7162    9308.2315    8797.0947    8260.8731    917.40153    255.76136   -852.56375   -3667.1419 
16005000    180.05147   -4998.8606   -4638.7354   -4998.8606            0    7514.9354    18.028093    22.717979     19.15553    7845.3738    7263.5884    6771.6713    8509.5464   -431.99782   -183.47525   -138.93192    -3778.901 
16006000    187.94157   -5010.9356   -4635.0293   -5010.9356            0    6014.1177    18.008994    22.766628     19.24064    7888.7409    5775.0705    7100.5112    5166.7715   -76.166681    984.49511    69.294506   -3943.1099 
16007000    176.81576   -5002.5143   -4648.8609   -5002.5143            0    7612.5487    17.957935    22.806582    19.178042    7854.5418    6310.1933     7453.499    9073.9539    290.60179    1150.9848    75.299683   -3776.8401 
16008000    185.66084   -5017.9011   -4646.5565   -5017.9011            0    5347.6798    17.969676    22.844678    19.296917    7921.6054    5889.7896    5030.7962    5122.4536     1830.318    115.86475   -359.75609   -4028.7471 
16009000    184.27885   -4988.4487   -4619.8682   -4988.4487            0    8313.4841    17.985816    22.520454    19.350888    7838.0524    8358.0874    8715.7438     7866.621   -471.31082   -509.52728    105.97678   -3669.5542 
16010000    184.76103   -5005.3286   -4635.7837   -5005.3286            0    7009.1907      18.0278    22.695156    19.221007     7864.155    4837.5459      7979.92    8210.1062    93.713149    12.508826    949.93373   -3831.8952 
16011000    182.32302   -5004.6889   -4640.0203   -5004.6889            0     8979.769    18.004138    22.816734    19.044647    7823.4578    9401.7142    8956.0409    8581.5519   -203.45199    835.10833    255.56686   -3615.4547 
16012000    186.60876   -4982.1358   -4608.8952   -4982.1358            0     8912.329    17.968049    22.997465    18.982229    7843.8284    8887.0513    7975.1405    9874.7953   -725.33147    357.79878   -846.70707   -3589.3766 
16013000    193.81144   -5004.6358    -4616.989   -5004.6358            0    8142.2243     18.03227    22.617256    19.281134    7863.6265    8975.2403    8177.2693    7274.1634    1159.5362    445.90688   -235.17599   -3683.2149 
16014000    182.34223   -5007.2732   -4642.5662   -5007.2732            0    7899.8538    18.000926    22.592757    19.265108    7834.9373    6640.5919    8427.7181    8631.2513   -222.17517    720.05496   -611.08889   -3739.8931 
16015000    182.78153   -5008.8209   -4643.2353   -5008.8209            0    6981.5313    17.901482    22.963574    19.136608    7866.7156    7474.4899    6086.8892    7383.2148    819.17148   -434.17422   -666.20823   -3842.2583 
16016000    173.57899   -4981.1455   -4633.9661   -4981.1455            0    9767.5555    17.799637    22.908027    19.123229    7797.5839    10663.079    9185.0432    9454.5441   -1531.0022    512.97436    -1273.308    -3523.202 
16017000    187.88251   -5020.7214   -4644.9332   -5020.7214            0    6708.2599    18.060193    22.563378    19.308237    7868.0865    5813.7572    8011.2065     6299.816   -2.7245467    671.89589    1004.2823    -3875.174 
16018000    183.49655   -5023.2591   -4656.2433   -5023.2591            0    7921.2537    17.986248    22.613522    19.262927    7834.8566    8200.1856     8241.868    7321.7074    1010.7258   -227.23395    276.50787   -3751.1343 
16019000    182.00808   -5010.1229   -4646.0843   -5010.1229            0    7615.4011    17.982193    22.745696    19.244707    7871.4219    6495.4521    8522.6835    7828.0676   -731.48756    389.62762    -489.7669    -3771.862 
16020000    182.93264   -5008.9421   -4643.0543   -5008.9421            0    7315.2012    17.913935    22.779976    19.257973    7858.7747    8398.9518    6518.4281    7028.2238   -120.84828   -77.165321   -132.03956   -3804.6432 
16021000    180.30625   -5022.6732   -4662.0384   -5022.6732            0    6875.3538    17.850681    22.947693    19.179643    7856.5949     7223.943    7032.3963    6369.7222   -1457.8591    1099.1362   -220.40929   -3874.2578 
16022000    178.42563   -4996.5582   -4639.6849   -4996.5582            0    9062.9329    17.894558    22.800543    19.190401    7829.7918    8857.9652    8586.8383    9743.9952    -334.3921    -468.2387    -1804.246   -3604.7933 
16023000    178.41451   -5018.6288   -4661.7777   -5018.6288            0    7115.7049    17.960172    22.694329    19.280868    7858.7672    7356.1399     6910.596    7080.3788    105.39561   -367.56247     1.119939   -3846.2321 
16024000    183.84712   -4974.1319   -4606.4149   -4974.1319            0    7722.2386    18.026486    22.605073    19.284759    7858.3472    6972.2688    8329.3244    7865.1227    129.82309     1125.099   -284.33875   -3721.4006 
16025000    194.50705   -5018.3555   -4629.3174   -5018.3555            0    6381.7541    17.963169    22.739785    19.276064    7873.8595    5569.8747    6327.4879    7247.8996   -443.37856    498.40952   -411.29231   -3896.4867 
16026000      190.854    -5014.182   -4632.4504    -5014.182            0    6155.3583    18.042757    22.852669    19.205409    7918.8732    7119.3267    5428.7869    5917.9614   -833.51384    625.74865    -226.9056   -3921.5764 
16027000    188.27279   -4999.1631   -4622.5943   -4999.1631            0    6756.7853    17.970625    22.817451    19.193607    7870.2205    6665.4889    7243.6825    6361.1845    1317.9036    273.92905    642.25534   -3847.0566 
16028000    181.46031   -5012.0797   -4649.1366   -5012.0797            0    9251.0465    17.911085    22.704346    19.216877    7814.7251    8110.1574    9316.3943    10326.588     770.6711   -136.56699    744.02453   -3594.7972 
16029000    182.88025   -5013.4853   -4647.7022   -5013.4853            0    7263.7817     17.92091    22.768141    19.284721    7868.6639    7529.2785    6817.2648    7444.8018   -795.45469    812.35998    703.14368   -3814.1368 
16030000    191.12494   -5009.4415    -4627.168   -5009.4415            0    7343.2148    17.862598    22.895961    19.274629    7882.9637    8146.0486    7618.2093    6265.3866    328.29632    295.02824    554.25867   -3782.9557 
16031000    178.28014   -4976.8362   -4620.2538   -4976.8362            0    7418.6841     17.94154    22.861974    19.199464    7875.2174    7402.5115    7725.6234    7127.9174   -526.27088    1486.3312   -956.05863   -3768.2034 
16032000    187.45184   -5013.3389    -4638.412   -5013.3389            0    6908.6679    17.965644    22.810424    19.196302    7866.7204     7076.534    7074.9947     6574.475   -84.201831    357.74513    173.19649   -3845.7941 
16033000    177.85073   -4996.0559   -4640.3324   -4996.0559            0    7121.5593    17.908089    22.830544    19.184105    7843.4484    6066.4803    8341.0309    6957.1667    438.40138    832.45084   -625.23184   -3825.7069 
16034000    173.90539   -5005.0996   -4657.2674   -5005.0996            0    8275.4327    17.813818    22.927806    19.173027    7830.8732    8621.8298    7271.9996    8932.4687   -63.044958   -70.116549   -373.83132   -3712.1695 
16035000    184.79257   -5038.0221   -4668.4141   -5038.0221            0    7205.0993    17.917808    22.524341    19.461872    7854.5549    6703.4651    8126.3349    6785.4981    775.48632   -812.56561    -988.8614   -3843.0655 
16036000    181.70516   -5022.7301   -4659.2973   -5022.7301            0    8039.4802    17.873731    22.759405    19.229959    7822.6607    6700.5124    8011.2467    9406.6817    1352.9815   -569.22326    708.66255   -3742.1093 
16037000    182.62506   -5003.7322   -4638.4595   -5003.7322            0    7373.9899    17.895349    22.957369    19.158622     7870.939    7931.9045    6795.7604    7394.3046    747.06072   -422.56282   -1647.2761   -3792.0023 
16038000    176.43376   -5002.0152   -4649.1259   -5002.0152            0    7490.8742     18.06303    22.663591    19.195446    7858.0997    7439.5026    6803.9361    8229.1838   -481.67961   -571.18315   -390.10346   -3790.6543 
16039000    179.77357    -5005.628   -4646.0587    -5005.628            0    6834.3693    18.004219    22.692517    19.281393     7877.626     5891.642     7226.104    7385.3619    564.93163   -453.26652    759.85771   -3860.8779 
16040000    183.51194   -5001.6377   -4634.5911   -5001.6377            0    7903.6135    17.773617    22.818975    19.303627    7829.0827    8473.6188    8882.5259    6354.6958    284.64311    401.95373    871.39558   -3732.1633 
16041000    177.81228    -4996.776   -4641.1294    -4996.776            0    6874.6435    17.778619    22.928651    19.362852    7893.0682    7629.5051     6319.792    6674.6335   -1336.3221   -781.21821   -1470.8824   -3849.7734 
16042000    181.80372   -5002.9373   -4639.3074   -5002.9373            0    8620.2916    17.924222    22.697909    19.259012    7835.3821    6558.3461    8806.8159    10495.713    64.609486   -391.60401    898.74438    -3654.258 
16043000    188.21369   -5002.9938   -4626.5432   -5002.9938            0    7827.8502    17.929596    22.748369    19.267247    7858.5138    7127.4773    8857.0183     7499.055   -313.26404    543.49555    578.47584   -3729.4061 
16044000    180.48269    -5018.087   -4657.0994    -5018.087            0    8404.9596    17.807503     22.82759    19.228045    7816.2461    8780.5982     7746.016    8688.2646   -824.57118    -1021.082    777.42725   -3699.0018 
16045000    180.38241   -5026.3509   -4665.5638   -5026.3509            0    7597.9208    17.765612    22.876285    19.295669    7841.9761    9859.1739    6749.0441    6185.5446    326.65588   -697.11155      746.161    -3796.611 
16046000     182.2448   -5019.2533   -4654.7411   -5019.2533            0    7946.5729    17.823388    22.841352    19.182797    7809.5137     7296.756    8304.1138    8238.8489    471.20302    159.22778    1570.0705   -3749.6762 
16047000    179.24268   -5005.4824   -4646.9749   -5005.4824            0    7047.5644    18.012677    22.601565    19.338891    7873.1467    7602.1214    6646.6478    6893.9239   -702.22746   -730.27555    -146.9638   -3837.7611 
16048000    171.29877   -5003.9168   -4661.2981   -5003.9168            0    6741.5521    18.038154    22.793742     19.14376    7871.0916     6352.268    6595.8344    7276.5538   -1296.9963   -315.05385   -1359.0375   -3887.4232 
16049000    187.94968   -5001.4792   -4625.5566   -5001.4792            0    7277.2499    17.728138    23.212693    19.099611    7859.8303    7938.3393    6083.3721    7810.0383   -799.44803    449.28881    254.27155   -3791.3831 
16050000    176.45727   -5011.9745   -4659.0381   -5011.9745            0    7757.5876    17.818276     22.76094     19.26925    7814.8503    8523.5604     7388.213    7360.9893     315.5811   -93.262671    292.81929   -3774.8937 
16051000    192.32782   -4983.4825   -4598.8031   -4983.4825            0    7124.0153    17.922918    22.711248     19.38115    7889.1323    6846.3144    6870.7531    7654.9783   -1815.7353   -410.77361   -470.40448   -3779.1503 
16052000    171.79079   -4999.8982   -4656.2954   -4999.8982            0    7297.6524    18.040652    22.924321    19.024943    7868.1399     8052.261    5771.9203     8068.776    15.036571   -1345.6872   -899.96177   -3818.8989 
16053000    171.75874   -5013.3643   -4669.8256   -5013.3643            0    7751.0682    17.958622    22.737995    19.170023    7827.9459    7264.7914    7945.9042    8042.5089   -444.25529   -892.76194    -1066.623   -3784.9438 
16054000    179.86283   -4987.7539    -4628.006   -4987.7539            0    5354.8151    17.987102    22.732976    19.365845    7918.7011    4280.6333    6440.3581    5343.4539    655.85033     -285.336    -363.7166   -4009.5991 
16055000    189.00267   -5005.5627    -4627.534   -5005.5627            0    7071.3298     17.83335    22.793585     19.33623    7859.9064    8080.2708    7064.4375     6069.281   -1661.3554    -1043.851   -403.25926   -3816.9569 
16056000    191.79186   -4991.3482   -4607.7408   -4991.3482            0    7639.2209    17.899528    22.727654    19.270472     7839.503    6372.4905    8903.1094    7642.0629    1.0671825   -506.21922    749.80014   -3734.3402 
16057000    162.42121   -4997.7094   -4672.8469   -4997.7094            0    6588.8194    17.851092    22.904438    19.321027    7899.7736    6373.1651    7264.2857    6129.0073    456.38224    598.79961    579.26439   -3913.7484 
16058000    185.11847   -5013.3372   -4643.0774   -5013.3372            0    7711.8544     17.79887    22.784076    19.371628    7855.7918    7414.6528     8189.612    7531.2983    35.578949   -461.55286   -1869.3558   -3759.5405 
16059000    174.91546   -5000.4948   -4650.6422   -5000.4948            0    6500.6007    17.965773    22.726489    19.328567    7891.8337    7174.2249    6327.4478    6000.1293    708.68113    673.89915   -776.98524   -3902.4602 
16060000    184.42241   -5016.2725   -4647.4049   -5016.2725            0    7391.3057    17.901647    22.802415     19.26759    7865.0456    7748.8376    8471.4018    5953.6778     431.5757   -208.14763   -488.19565   -3799.5953 
16061000     174.0914    -4980.983   -4632.7787    -4980.983            0     5969.213    17.974149    22.876529    19.245618    7913.5312    5315.2824    5062.6708    7529.6857    759.34151   -816.06162    349.27656   -3943.8674 
16062000    192.62429    -4993.775   -4608.5026    -4993.775            0    6781.2917    17.961802    22.765952    19.262027    7876.5804    7059.8231    6752.9431    6531.1088   -27.376953   -1620.5106    23.222917   -3829.5232 
16063000    194.53129   -5005.2416    -4616.155   -5005.2416            0    7566.3952    17.866808    22.836339    19.228705    7845.5517    7702.9247    7073.4904    7922.7706    600.61768   -980.03259   -828.06613   -3750.4131 
16064000    183.24725    -5017.679   -4651.1618    -5017.679            0    7835.3879    17.778424    22.862451    19.306872    7847.4394    9882.4748    7651.8777    5971.8114     290.9597    -25.55835    39.821572   -3754.4263 
16065000    179.88736   -5019.3588   -4659.5618   -5019.3588            0    6966.7553    17.852505    22.754726    19.338778    7855.9697     7388.977     7694.843    5816.4458   -603.42585   -51.418591    1237.4193   -3861.3719 
16066000    186.87456   -4989.1734   -4615.4012   -4989.1734            0    7300.8632    17.809213    22.769076    19.370592    7854.7623     7555.007     6615.741    7731.8416   -366.98371   -906.73405    146.83549   -3779.0606 
16067000    180.53366   -5014.4223   -4653.3327   -5014.4223            0    6394.2559    17.741786    23.025858    19.259631    7867.9416     6999.568    6595.2744    5587.9252   -225.05371   -33.949576    389.37922   -3919.6183 
16068000    180.98924   -5003.9211   -4641.9203   -5003.9211            0    7515.3328    17.889986    22.818344    19.263804    7863.8674    8367.3372    7565.9493    6612.7119   -462.92669   -147.73778   -630.19716   -3780.0135 
16069000    179.82267   -5023.8776     -4664.21   -5023.8776            0    9331.1993    17.919572    22.689223    19.192297    7803.2266    10344.064    8653.1699    8996.3641   -1010.1568   -1055.4311    413.94431   -3602.3004 
16070000    178.64201   -4989.7671    -4632.461   -4989.7671            0      7418.81    17.930268    22.792011    19.242652    7863.8341    6373.8785    7497.7987    8384.7528    1255.9218    306.55247     1304.483   -3781.6277 
16071000    181.28038   -5005.4624   -4642.8793   -5005.4624            0    6725.3229    17.920391    22.807909     19.25871    7871.5482    7697.6378     7123.613    5354.7179    767.55339   -713.55867    1523.5419   -3870.8226 
16072000    184.40192   -4971.4882   -4602.6616   -4971.4882            0    7899.9017    17.877834    22.738804    19.307186    7848.7684    8151.5591    7718.4039    7829.7422   -399.57021    44.339638   -76.933744   -3698.3895 
16073000    176.75571   -5024.6985   -4671.1652   -5024.6985            0    7857.9844    17.848376    22.677321    19.328673    7823.3456    8346.1662    8819.8073    6407.9796   -542.96692    1112.8188    1255.0809   -3774.6048 
16074000    171.87743   -5010.8018   -4667.0257   -5010.8018            0    9231.3556    17.830071     22.81865    19.216703    7818.4722    8844.7178    9799.1498    9050.1992    -1207.047    1082.3589    166.74571   -3614.4259 
16075000    173.34731    -4998.963    -4652.247    -4998.963            0    6908.4774    17.832176    22.876782    19.281632    7865.8029    7084.3026    6869.6726    6771.4569    721.07198    440.45138   -748.36384   -3859.7433 
16076000    181.92931   -5003.1935   -4639.3124   -5003.1935            0    7191.8138    17.847435    22.881915    19.296496    7880.3702    8735.0407    5545.8412    7294.5596   -15.178356   -1235.2616   -1338.5115    -3812.778 
16077000    176.06432   -5029.0093   -4676.8589   -5029.0093            0    6469.3956     18.05548    22.681607    19.216301    7869.5997    5083.8536    6907.9584     7416.375    183.64507   -262.98878    432.41837   -3934.3661 
16078000    188.13829   -4992.3204   -4616.0206   -4992.3204            0    8428.9501    18.006731    22.755474     19.14081    7842.9795    8081.6719    8385.0875    8820.0909     714.0841   -783.72882    1944.5169   -3651.9021 
16079000    181.33541   -5021.4173   -4658.7241   -5021.4173            0    6558.3516     17.99754    22.865952    19.154598    7882.7088    5554.5791    7762.9014    6357.5744   -1684.4328    596.90006    109.62273   -3904.7679 
16080000    188.55533   -5000.1647   -4623.0307   -5000.1647            0    7272.7366    17.823812    22.948635    19.265223     7880.096    8118.5096    6002.4429    7697.2572    -461.7599   -155.18683    21.429871   -3787.2251 
16081000    178.16564   -5001.7727   -4645.4194   -5001.7727            0    5799.8302     17.93915    22.919593     19.22274    7903.5839    6287.7899     5377.146    5734.5548    522.65667   -138.87388    966.53683   -3976.8982 
16082000    181.09486   -5023.2412   -4661.0291   -5023.2412            0    8065.5316    18.016508    22.614765    19.219697     7830.856    6632.2809    9135.6722    8428.6418    -1104.899   -634.11749   -1279.9119   -3739.9051 
16083000    178.40751   -4991.7293   -4634.8922   -4991.7293            0    7292.9009    17.952441     22.75913    19.239543    7860.9296    7990.8486     7418.486    6469.3682    46.420752   -992.90859    50.468533   -3798.8079 
16084000    191.49974   -4997.6024   -4614.5792   -4997.6024            0    8099.1526    17.930868     22.74355    19.240413    7846.4636    8531.6248    7950.3438     7815.489   -1049.2432   -933.46823   -1899.5666    -3687.772 
16085000    175.23849   -5002.9799   -4652.4813   -5002.9799            0    7232.4347    17.855983    22.814233     19.26262    7847.0243    5284.2976    8299.6429    8113.3636    1321.0682   -1067.3712   -27.247274   -3824.7957 
16086000    172.84393   -5002.2562    -4656.547   -5002.2562            0    5514.7014    17.869946    22.945605    19.279131    7905.1519     5160.186    5207.1165    6176.8018    205.36511   -567.48139   -439.58685   -4020.7652 
16087000    173.95431   -5004.9952    -4657.065   -5004.9952            0    6842.0461    17.866608    22.904637    19.236198    7871.9938    5835.2625    7692.2353    6998.6406    -927.0233    322.28747   -462.75253   -3871.5642 
16088000    183.45269   -5001.9282   -4635.0002   -5001.9282            0    7934.4788    17.843422     22.73625    19.306119    7832.3481    8138.4958    8833.9137    6831.0269    691.35275   -274.03022    1903.7153   -3728.6704 
16089000    175.78032   -5027.6347   -4676.0523   -5027.6347            0     8553.622    17.863977    22.669861    19.338314    7831.5116    10230.068    8501.4663    6929.3319    287.30549    317.21454   -35.126544   -3699.1041 
16090000    182.84617   -5018.2577   -4652.5428   -5018.2577            0    8491.9223    17.932119    22.585592    19.332811    7829.9339    8061.1199    8680.7324    8733.9145   -73.310959   -706.39263    399.84942    -3682.837 
16091000    180.42068   -5012.2522   -4651.3886   -5012.2522            0    6116.3056    17.900279    22.963928     19.19565    7890.5776    5020.7052    6044.7404    7283.4713   -1247.7306   -349.74846   -1148.6533   -3947.5487 
16092000    179.43075   -5008.7904   -4649.9067   -5008.7904            0    7933.9139     17.83158     22.91627    19.192795    7842.8152    8212.7886    7272.0442    8316.9091    356.79807    402.78171    871.90015   -3742.4303 
16093000    188.09757   -5004.1795   -4627.9611   -5004.1795            0    6457.9782    17.878463    22.798101    19.350205    7887.0471    6728.3668    6602.9394    6042.6284   -851.20388   -384.13565   -422.54421   -3885.1355 
16094000    184.52732   -5010.2673   -4641.1899   -5010.2673            0    8994.3636    17.834823    22.715244    19.287162    7813.6606    9928.2075    9067.8581    7987.0251    1687.9149   -40.824361    1389.9054   -3616.2442 
16095000    176.07149   -5025.9364   -4673.7716   -5025.9364            0    7768.8006    17.883449    22.763452    19.232171    7829.2061    6962.7269    8503.8422    7839.8327   -51.294703   -342.89181   -119.23396   -3786.7227 
16096000    184.24882   -5002.7853   -4634.2649   -5002.7853            0    7853.6364    17.775332    22.915025    19.222411    7829.7144    8983.6636    7905.4576    6671.7878   -866.98163   -1517.5855   -608.72616   -3737.4711 
16097000    178.73182   -4998.6111   -4641.1254   -4998.6111            0    8011.6382    17.829242    22.804445     19.23103    7819.0669    7964.5588    8369.4554    7700.9003   -605.61214   -89.907472   -1507.3334   -3727.5337 
16098000    184.67491   -5020.7175   -4651.3448   -5020.7175            0    5709.3231    17.896319    22.813833    19.370803    7908.7818    5394.9932    5966.2405    5766.7356    911.72137   -961.43607    455.53584   -3992.8231 
16099000    181.92423   -5015.5787   -4651.7078   -5015.5787            0    6979.6945    17.947917    22.770152    19.235589     7861.139    7872.9612    6314.9654    6751.1569     1155.547    -396.7925    968.98963   -3851.5092 
16100000    191.02703   -5023.4489   -4641.3713   -5023.4489            0     8325.799    17.911197    22.776466     19.14075    7808.5411    7897.8556    8327.0981    8752.4434   -417.18407   -93.392366   -98.340975   -3693.2329 
16101000    175.88037   -5031.0281   -4679.2456   -5031.0281            0    6998.6452    17.808949    22.957375    19.227793    7861.2203    7283.4758    7003.5185    6708.9413   -2122.0745   -793.31829   -1568.3108   -3876.8661 
16102000    175.49738   -4995.0409   -4644.0245   -4995.0409            0    7090.9084    17.819079    22.829403    19.348311    7870.8724    8303.7899    7031.8315    5937.1036    586.95357   -632.49617    1279.7829    -3830.069 
16103000    186.58399   -4999.9197   -4626.7287   -4999.9197            0    8631.3808    17.853216    22.663857    19.313742    7814.7791    8428.5343     7730.545     9735.063    593.62187   -1167.5866    2272.7776   -3643.0056 
16104000    182.96057    -5003.197   -4637.2533    -5003.197            0    6723.7121    17.909989    22.747002    19.340576    7879.3229    7791.5999    6151.6433    6227.8931    219.03408    689.82439   -18.787984   -3864.6191 
16105000     187.1863   -4991.9141   -4617.5184   -4991.9141            0    7241.5579    17.780383    22.917098    19.367106    7891.6071    7589.4472    7502.1907    6633.0357   -720.06695     832.7243    476.07884   -3784.0803 
16106000    171.92509   -5011.2922   -4667.4208   -5011.2922            0     6526.884    17.787605    22.963688    19.274566     7873.063     6725.596    6828.0645    6026.9916   -776.82255   -552.04746   -537.69362   -3918.0004 
16107000    180.51298   -5003.3047   -4642.2564   -5003.3047            0    7542.5953    18.011749    22.678305    19.201066    7843.1731    5851.9232    8201.1506     8574.712    118.42899   -387.86759   -374.53413   -3779.4994 
16108000    180.61193    -4993.398   -4632.1518    -4993.398            0     6969.502     17.98771     22.81509    19.180606    7871.5523     6699.423    7455.6879    6753.3952   -1085.3018   -515.45316   -605.32898   -3832.0633 
16109000    178.97018   -5011.9792   -4654.0167   -5011.9792            0     6476.979    17.884914    22.884333    19.281149     7891.472    6722.0733    6676.3511    6032.5126    1095.8056   -18.679247   -687.00418   -3908.5875 
16110000    186.93682   -4995.1312   -4621.2344   -4995.1312            0    8580.4981    17.771542    22.906732    19.156801    7798.5027    8887.6152    7698.8442    9155.0348    1073.5265   -1218.4232    2142.5856   -3645.3473 
16111000     189.0842   -4990.1799   -4611.9882   -4990.1799            0    7549.6835    17.983806    22.614058    19.283789    7842.4631    7107.5037     7459.266    8082.2809   -309.19459   -41.632529   -1153.8006   -3748.4985 
16112000    185.55397    -5015.413   -4644.2821    -5015.413            0    7222.3256    17.990455    22.805718    19.235003    7891.8375     6971.605    7263.1793    7432.1923   -541.89521    378.48209    22.474956   -3813.0332 
16113000    176.85835   -5004.1292   -4650.3907   -5004.1292            0     8562.575    17.880291    22.995111    19.045855    7830.8801    10312.355    6596.0003    8779.3693    1350.6102    76.348479    -556.9401   -3672.4988 
16114000    192.60529   -5018.1722   -4632.9379   -5018.1722            0    7397.9912    17.953796    22.821387    19.183741    7860.1642    8129.4381    6612.3092    7452.2262   -994.60526    151.65403    558.76353   -3784.8881 
16115000    180.50418    -5007.001   -4645.9704    -5007.001            0    6162.2898    18.056564    22.542233    19.363521    7881.6358     4650.848    8004.8191    5831.2022    1296.2977    882.41821    1347.7434   -3937.6424 
16116000    171.93428   -5010.8883   -4666.9985   -5010.8883            0    7171.5551    17.999902    22.749716    19.231844    7875.2991    7045.3554    7230.1973    7239.1127    458.45968   -745.00379   -811.45449   -3843.3228 
16117000    174.90663    -5019.129   -4669.2942    -5019.129            0    7219.3625    17.928127     22.92371    19.091711    7846.2958    7806.8926    6836.0877    7015.1071    1632.7279    68.136761    1180.8943   -3843.1812 
16118000    169.71366   -4998.5599   -4659.1116   -4998.5599            0     7698.009     17.87732    22.780287    19.283978    7853.4093    8872.6277    8340.5315    5880.8679     188.2434    740.59364     1135.528   -3777.4285 
16119000    176.06259   -5015.0461   -4662.8992   -5015.0461            0    8181.9073    17.882091       22.643    19.390432    7851.2674    8953.3582    8542.9268    7049.4367   -184.63454    578.20595   -2213.0697   -3726.0489 
16120000    183.74847   -5022.1008   -4654.5812   -5022.1008            0    6592.3302    17.932136    22.652689    19.413124    7885.8262    5183.5066    7320.1454    7273.3388   -1402.6516    410.12028   -864.90956   -3896.4192 
16121000    177.84511   -5021.2694   -4665.5572   -5021.2694            0    7363.0274    17.961111    22.873877    19.149521    7867.3938    6238.5176    6685.1814    9165.3832   -1448.2147    444.66707    442.71268   -3820.7392 
16122000    184.84236   -5002.7178   -4633.0102   -5002.7178            0    7865.9655    18.003689    22.842529    19.163393    7880.9413    7630.7746    7733.8681    8233.2538    631.49767    1650.7451    1200.5973   -3728.9319 
16123000    186.76462   -5017.9799   -4644.4276   -5017.9799            0    7575.7012    17.989092    22.705997    19.240519    7858.9877    7761.8713     7216.547    7748.6853    509.57121     847.4508   -1179.0582   -3776.1365 
16124000    186.42505   -5006.0033   -4633.1301   -5006.0033            0    8982.0095    17.931736    22.841684    19.067527     7809.888    8511.4498    7854.5269    10580.052   -42.522817    133.06851   -600.83503   -3610.0864 
16125000    188.19074    -5006.547   -4630.1423    -5006.547            0    7347.7438    17.980375    22.860395    19.127722    7862.2297    6246.3694    7681.9863    8114.8757   -1809.2738    218.70595    678.22197   -3787.6312 
16126000     176.9925   -5009.2786   -4655.2717   -5009.2786            0    7390.3138    17.854421    22.841594    19.261918    7855.4611    7497.4541    7042.4707    7631.0165    -667.9304   -3.3621192    812.01344    -3808.609 
16127000    180.85115   -5018.3322   -4656.6075   -5018.3322            0    8907.6981    17.803858    22.656752    19.364961    7811.3914    11822.243    7858.7206    7042.1305    674.21092    -980.2046    -2115.147   -3641.8325 
16128000    168.96564   -4995.3909   -4657.4387   -4995.3909            0    7969.9024    17.983168    22.562374    19.400348    7871.5545     8175.867    8915.9441    6817.8962   -964.99708    338.05672   -1132.7812   -3742.5055 
16129000    191.82449   -4991.9612   -4608.2885   -4991.9612            0    8142.9065     17.91357    22.607753    19.337147    7831.2654    9643.4855    7732.5365    7052.6975   -671.32371   -153.43435   -373.59058   -3678.2792 
16130000    176.47649   -5016.7087   -4663.7339   -5016.7087            0    8272.4413    17.741761    23.046033    19.147723    7829.0677    10102.361    7023.6509    7691.3124   -342.09566   -441.95581   -331.49871   -3719.1955 
16131000    174.50658   -5019.3547     -4670.32   -5019.3547            0    7125.6113     17.92191    22.761964    19.201069    7832.8433    6039.7836    8512.9274     6824.123    1234.3613    357.85095    292.93836    -3856.333 
16132000    188.28465   -5010.7771   -4634.1846   -5010.7771            0    6122.3001    18.121913    22.652384    19.319925    7930.9166    4608.9745    6367.7815    7390.1444    1168.3961    -292.1448   -240.54151   -3926.0531 
16133000    183.87211   -4990.3971   -4622.6302   -4990.3971            0    8776.7502    17.833754    22.805026    19.223802    7818.3054    10545.515    7946.9615    7837.7744   -1041.1963   -1470.1394   -285.42505   -3621.8879 
16134000    173.40835    -5008.294   -4661.4559    -5008.294            0    7090.3184    17.776808    22.971433    19.275592    7871.3568    8503.9071    6124.8813    6642.1667   -860.71217   -303.00421    -332.7684   -3847.5181 
16135000     179.8511   -5011.9069   -4652.1825   -5011.9069            0    7545.8749    17.860087     22.76481    19.283947     7840.496    9002.4456    6727.0233    6908.1557    219.32628   -432.42808    599.67173    -3789.345 
16136000    182.68008   -4997.1823   -4631.7996   -4997.1823            0    8303.2273    17.921562    22.743064    19.273566    7855.7365    8211.5199    8028.6569    8669.5051     1683.271   -540.86069    2364.9654   -3680.5166 
16137000    182.69231   -5021.0708   -4655.6636   -5021.0708            0    7817.5781    17.842127    22.902214    19.202058    7846.4255    8162.8104    7103.4464    8186.4776   -66.030822   -1219.2493    344.94564    -3761.082 
16138000    184.62767   -5013.0498   -4643.7717   -5013.0498            0    7678.2944    17.750337    22.809815    19.273459    7803.4749    8187.3873    7601.6423    7245.8535    289.13498   -808.88524     1236.809   -3769.9382 
16139000    174.16341   -5020.0742   -4671.7258   -5020.0742            0    7311.4341    17.803311    22.839537    19.252478    7828.4308    8916.4598    6437.6754    6580.1671    7.7181427   -153.70791   -415.89212   -3836.9821 
16140000    185.71471   -4998.7046   -4627.2522   -4998.7046            0    8389.8418    17.876042    22.790018    19.214512    7827.9021    7172.8812    9454.2912     8542.353   -385.18393   -174.65747   -941.93855   -3669.4517 
16141000    176.34105   -5002.9003   -4650.1964   -5002.9003            0    7168.9065    17.999031    22.666327    19.278551    7865.1079    7031.9661    7710.9584    6763.7948    172.12732    85.614836   -216.32268   -3827.8904 
16142000    187.23988   -5025.8112   -4651.3083   -5025.8112            0    6518.5385    17.982782    22.700522    19.299571    7878.4424    8005.4951    6020.3561    5529.7642   -264.51501   -708.04989   -1698.1625   -3902.3347 
16143000    178.37038   -5012.2704   -4655.5076   -5012.2704            0    6557.1755    17.907109    23.040327    19.127366    7891.6769    4610.8272    6567.7783     8492.921   -1006.0765   -81.700376    -1032.185   -3900.8291 
16144000    190.50944   -5021.2715   -4640.2291   -5021.2715            0    8738.3807    17.992772    22.820055    19.042515    7818.7814    7353.0075    9293.5954    9568.5394   -363.70412    -100.9613    1171.0592   -3643.8011 
16145000    172.45536   -4993.3322   -4648.4002   -4993.3322            0    7572.1947    18.101583    22.868731    18.995565    7863.4082    5243.4085    7823.1561    9650.0195   -848.62633    1466.9611    882.17845   -3780.0229 
16146000    181.27316   -5012.6965   -4650.1278   -5012.6965            0    8136.4323    18.012436    22.747477    19.123908    7835.7815    6240.3685    8050.9934    10117.935    169.90758     293.1026    458.16759    -3720.322 
16147000     179.1715   -5028.0238   -4669.6587   -5028.0238            0    7232.8783    17.991502    22.802394    19.180897    7868.9497    7248.4397    7093.8621     7356.333   -1761.1472    737.85695   -1533.6809   -3839.6095 
16148000     187.1695   -5023.0515   -4648.6894   -5023.0515            0    9674.0987     17.79749     22.78977    19.199413    7787.2953    9164.7055    10324.653    9532.9372    891.45934    893.17978   -906.85791   -3550.0048 
16149000    183.01764    -4995.496   -4629.4381    -4995.496            0    7747.3537    17.901558    22.760348    19.278787    7855.0585    7431.1697    8709.5139    7101.3775    513.38868    630.32232    400.97849    -3741.917 
16150000    177.21607   -5017.8771   -4663.4231   -5017.8771            0      7027.65    18.069941    22.573453    19.343526    7890.2428    5270.7391    8088.8839     7723.327    592.86077    998.89235    1039.1118   -3854.7437 
16151000    195.36989   -4998.6057   -4607.8418   -4998.6057            0    8527.7308    17.959398    22.749756    19.189764     7840.399    10227.832     6398.162    8957.1982    438.51763   -219.71444    1223.5365   -3632.7454 
16152000     180.1341   -5002.3052   -4642.0148   -5002.3052            0    7092.8675    17.848103    22.961309     19.20014    7868.5212    8093.7949     6293.449    6891.3585    1510.8649    434.40768    1226.6643   -3828.0776 
16153000    187.21554   -5002.5507   -4628.0965   -5002.5507            0    9607.3015    17.885738    22.753543    19.138571    7788.7079    8450.1889    9982.7843    10388.931   -22.736917   -302.84067    1125.1903   -3536.8001 
16154000    182.81887   -5021.6157   -4655.9554   -5021.6157            0    6414.2564    18.173717    22.455271    19.296261    7874.7219     4694.692    8345.9553     6202.122   -1353.2104    706.81378    434.45383   -3919.3118 
16155000    183.61184   -5020.5196   -4653.2732   -5020.5196            0    8060.7981    17.938054    22.849078    19.100696    7828.7642    8255.3013    7916.3941    8010.6988   -1524.4449    261.83452   -2333.1707   -3732.9356 
16156000     171.4035   -5015.2754   -4672.4472   -5015.2754            0    6929.8114    17.706583    23.230318    19.159122    7880.7131    8964.8407    5156.8514    6667.7421   -580.30717   -307.58465   -1022.4783   -3875.9893 
16157000    183.55059   -5021.1066   -4653.9827   -5021.1066            0    6903.2583    17.920234    22.650057     19.45326    7895.9673    7603.3013    6355.5342    6750.9393    1331.8013     -458.738    1980.8368   -3859.0409 
16158000    181.47599   -5025.2368   -4662.2625   -5025.2368            0    8479.6662    17.967461    22.464457    19.349306    7809.9458    8543.3997    9416.4206    7479.1783   -1925.8937   -628.96309   -1548.4175   -3696.4281 
16159000    180.57607   -5023.4078   -4662.2333   -5023.4078            0    7352.3639    17.903926    22.919857    19.162374    7863.3839    7765.7187    6543.0547    7748.3184   -85.843465   -562.02836    384.19323   -3819.0687 
16160000    184.84393   -5008.4115   -4638.7008   -5008.4115            0    7163.5292    17.851229    23.036423    19.065983     7840.475    8032.0234    5997.2086    7461.3555     239.5213   -497.44304   -563.38258    -3819.585 
16161000    176.15424   -5013.8003   -4661.4701   -5013.8003            0     8697.768    17.922356    22.692095    19.287128    7843.9938    8956.3489    8154.6105    8982.3447    644.71738   -382.58761    734.62849   -3666.4749 
16162000    182.27741   -5003.8972   -4639.3199   -5003.8972            0    7796.9515    17.948185    22.606827    19.319579    7838.9486    8888.7099    7255.4569    7246.6878   -979.92764   -1320.8677    -630.3714   -3747.9488 
16163000    179.56018   -5012.9455    -4653.803   -5012.9455            0    7375.4136    17.939437    22.667854    19.329053    7860.1312    7843.5781    7029.3205    7253.3422   -576.45363    -732.8184   -229.36695   -3808.3449 
16164000    178.64065   -5016.1447   -4658.8413   -5016.1447            0     6232.919    18.073074    22.828937    19.108641     7884.016    4386.5614    6701.3192    7610.8765   -515.55285   -584.94695    1416.3341   -3942.1785 
16165000    187.65688   -5023.0858   -4647.7489   -5023.0858            0    9023.1047    17.862998    22.820584     19.12779    7797.3296    10302.669     8653.777    8112.8681    226.71456   -264.40475   -1152.3456    -3621.677 
16166000    190.18904   -5004.4473   -4624.0457   -5004.4473            0    6576.2742    17.921524    22.923071    19.201933    7888.4688    6640.5407    5870.6515    7217.6304    -553.4603   -544.32785    279.63579   -3867.4768 
16167000    181.91916   -5019.7644   -4655.9037   -5019.7644            0    7421.4645    17.736135    22.866053    19.361634     7852.215     8087.439    7866.5894     6310.365   -2397.2873    157.96558   -1034.4359   -3806.0235 
16168000     188.7403   -5001.8192   -4624.3153   -5001.8192            0    8874.9573    17.843677    22.557217    19.411192    7813.0764    9973.5449    9410.9818    7240.3453   -1100.6303   -121.11142    298.13029    -3613.052 
16169000    199.01816   -5021.1384   -4623.0775   -5021.1384            0     6912.335    17.967176    22.475574    19.462188    7859.2716    6678.7423    8334.0357     5724.227    563.19424    869.78875     1317.101   -3830.7897 
16170000    180.99545    -5006.243   -4644.2298    -5006.243            0    8312.3094    17.889861    22.785055    19.257323     7849.698     8779.537    9139.0513    7018.3399    1701.2098   -112.37416   -523.64812   -3692.6383 
16171000    179.58424   -4997.8211   -4638.6305   -4997.8211            0     6420.165    17.835873    23.090243    19.152941    7887.8448    7322.0227     5352.631    6585.8412   -238.12636     410.0924   -2281.0113   -3900.0796 
16172000    177.87015   -5016.4836   -4660.7213   -5016.4836            0     8216.029    17.932723    22.756214    19.151747    7815.4616    8857.6793    7818.8272    7971.5803   -1253.6852   -559.74694   -1548.5031   -3724.2543 
16173000    183.53085    -5029.768   -4662.6836    -5029.768            0    7905.0852    18.104693    22.600664    19.125077    7825.5621    6615.4048    8356.6891    8743.1616   -1888.7138   -127.41072    363.91203   -3760.4937 
16174000    181.91304   -5013.6906    -4649.842   -5013.6906            0    8310.6316    17.935918    22.727018    19.190935    7822.7994    9067.1064    7610.4881    8254.3005   -94.074586    131.21239    106.57176   -3701.7028 
16175000    178.22859   -5011.2871   -4654.8079   -5011.2871            0    7523.3132    17.804533     22.96643    19.183572    7844.2883    7724.1795    7684.1854    7161.5746   -79.081912    767.75856    -1624.379   -3794.1341 
16176000    185.01083   -5021.6565    -4651.612   -5021.6565            0    8024.8842    17.911092    22.740047    19.263453    7845.9866    7781.1175    9366.3717    6927.1634    1173.2209    502.81982    257.79373   -3733.3593 
16177000    181.33003   -4992.1572   -4629.4747   -4992.1572            0    8089.8211    18.002735     22.60054    19.338201    7868.1634    6373.3568    9033.7567    8862.3499    252.46483    404.78092   -598.91679   -3701.1751 
16178000     176.3825    -4995.735   -4642.9482    -4995.735            0    7041.5204    17.952454    22.870829    19.211351    7887.9408    6233.0248    7381.4228    7510.1138   -526.71718   -742.29828   -486.18871   -3832.9091 
16179000    191.72844   -5013.2354   -4629.7548   -5013.2354            0     7469.162    17.823911     23.02098    19.087841    7832.1969    7299.9023    6144.7601    8962.8236    259.19884     -360.197    400.92826   -3776.5931 
16180000    179.67108   -5002.6278   -4643.2635   -5002.6278            0    6765.4282    17.847784    22.828301    19.324393    7873.4256    7660.8323    7100.2195    5535.2329    113.94715   -1318.1416    1432.7959   -3866.4175 
16181000    181.47969   -5021.0675   -4658.0857   -5021.0675            0     6779.754    17.870404    22.686836    19.387359      7860.08    6236.1969    7698.4266    6404.6384    31.112948   -427.32362    680.16717   -3880.9144 
16182000    184.27244   -5008.5084   -4639.9408   -5008.5084            0    7540.3051    17.926983    22.677386    19.340673    7862.7012     6440.066    7530.0143    8650.8351   -1147.2127    -435.3094   -161.91676   -3775.2983 
16183000    175.87887   -5017.5561   -4665.7767   -5017.5561            0    6590.1692    17.948172    22.736291    19.308261    7879.2164    6551.3098    6031.5322    7187.6657   -142.38654    -610.8863    291.43754   -3908.4984 
16184000    177.38583   -5016.9108   -4662.1172   -5016.9108            0    9004.9203    17.752724    22.684018    19.348638    7791.7568    8955.5715    8906.9096    9152.2797    312.25663    329.47034    200.76207    -3638.845 
16185000      185.474   -4997.4098   -4626.4389   -4997.4098            0    7719.4751    17.900052    22.812532    19.276478    7871.4632    9285.1176    6904.2226    6969.0852   -182.52194   -506.88502   -1265.3533   -3740.2647 
16186000    178.53138   -4996.9551   -4639.8703   -4996.9551            0     5677.861    17.979587    22.814851    19.296999    7915.6597    5175.1231    5892.0614    5966.3985    491.31488   -61.378699    327.22067    -3984.408 
16187000    185.62517   -5031.9772   -4660.7039   -5031.9772            0    6697.7256    17.946188    22.734245     19.24736    7852.7888    5005.8414    7246.4652    7840.8701    264.65191   -323.33365    138.99719   -3893.6478 
16188000    185.80596   -4997.3699    -4625.735   -4997.3699            0    8224.9463    17.822002    22.915264    19.216762    7848.0465    8854.2105    7843.2362    7977.3921   -132.68573    3.5695758    313.78288   -3684.3429 
16189000     173.5191   -5015.6146   -4668.5549   -5015.6146            0    7938.5614    17.830181     22.80752    19.255178    7830.3534    8190.3721    7645.1733    7980.1386    413.66018    881.90145   -407.22606   -3761.9897 
16190000    187.46199   -4986.6893   -4611.7422   -4986.6893            0    8151.0001    17.902752    22.766014    19.244049    7843.3798    7627.5999    7876.5094    8948.8911    898.67007   -1125.1423   -795.81032   -3679.3684 
16191000    185.56519    -5006.797   -4635.6437    -5006.797            0    7661.5889    17.975401    22.729483    19.225948    7855.1759    8275.0203    7681.1726    7028.5739    990.94152    254.91711     1233.156   -3757.9345 
16192000    187.18422   -5007.7744   -4633.3829   -5007.7744            0    8878.2831    17.879806    22.773477    19.183833    7811.3759    7983.5327    9061.5038    9589.8126   -268.31869    428.81165    1002.4234   -3621.9608 
16193000    178.07458   -5007.1767   -4651.0055   -5007.1767            0    6926.9049    17.953987    22.744968    19.301112    7881.8571    4514.4007     6497.323    9768.9909    719.84423   -1210.8407    1180.7471   -3854.7661 
16194000    182.83982   -5001.5445   -4635.8422   -5001.5445            0    7967.3174     17.93149    22.567262    19.361557    7834.9372    7427.1388    8436.3169    8038.4964   -499.49257    113.98549   -958.85762   -3725.4605 
16195000     179.6644   -5001.8077   -4642.4567   -5001.8077            0    7434.8915    17.881764    23.006642    19.089715    7853.4966    6524.2814    8487.1132    7293.2799    673.86549   -182.91438    95.062688   -3790.8999 
16196000    177.96645   -5014.9354   -4658.9806   -5014.9354            0    5563.9643    17.802229    23.097439    19.182428    7887.5439    6237.8972    5033.6538     5420.342   -704.72008   -274.94506    98.983825   -4018.9481 
16197000    187.66659   -5019.5288   -4644.1725   -5019.5288            0    6781.8635    18.089812    22.470863    19.400606    7886.2239    5658.0151    8317.1684    6370.4069   -786.90638    -136.5126    1077.9591   -3864.1735 
16198000    183.45298   -5014.5471   -4647.6185   -5014.5471            0    6462.9912    17.989926    22.664404    19.299646    7869.0628    5618.3895    7112.4716    6658.1126    585.59254   -74.106805    89.809372   -3905.9114 
16199000    187.75802   -5011.4268   -4635.8876   -5011.4268            0    5005.7866    17.857948    23.191296    19.098274    7909.5303    4103.8115    5449.0942    5464.4542     1318.757    -161.0348     875.6898   -4058.4582 
16200000    183.74698   -5025.1629   -4657.6463   -5025.1629            0    6954.2476    17.891454    23.008733    19.137191    7878.0104    6243.5156    7346.7001    7272.5272   -252.71931     684.0072    1346.2006    -3858.654 
16201000    179.53316   -5004.2418   -4645.1533   -5004.2418            0    7247.6485    17.903922     22.59568    19.434255     7862.153    9637.9578    6609.6012    5495.3865    98.288672   -814.63129   -1558.0367   -3814.1275 
16202000    174.33293    -4999.648   -4650.9606    -4999.648            0    6480.7543     17.91393    22.698164    19.358992    7871.6237    6009.7914    6782.4524     6650.019    1099.6424   -246.46962   -271.82987   -3906.9729 
16203000    183.74036     -5035.16   -4667.6566     -5035.16            0    8060.6951    17.766709    22.955966    19.224053    7840.5678    8911.4204    7305.7639    7964.9008   -1489.8081    745.92935   -1889.1385   -3745.9432 
16204000    180.24231   -5030.4264   -4669.9195   -5030.4264            0    8207.2552    17.868796    22.680556    19.265797     7807.931    7721.1161    8479.8523     8420.797   -611.74281   -899.59577   -3.5139568   -3735.3539 
16205000    178.45606   -5020.3948   -4663.4607   -5020.3948            0    8638.0872    17.823883    22.784501    19.236689    7812.1789    8380.4864    8205.0996    9328.6755   -20.566383   -1388.2958    -821.6997   -3679.3008 
16206000    177.54115   -5021.2317   -4666.1274   -5021.2317            0    6915.6115    17.979282     22.79603    19.243297    7886.9856     7269.039     6423.327    7054.4686   -429.79523   -1066.4807    334.80835   -3870.6689 
16207000     183.2704   -5008.1243   -4641.5609   -5008.1243            0    9286.0919    17.964122    22.822251    19.024998    7799.9013    8585.8797    8638.1734    10634.223    759.42032   -779.23681    1263.6862   -3585.2349 
16208000    184.74716   -4996.0342   -4626.5171   -4996.0342            0    7490.6154    17.959905    22.873255    19.107558    7849.4131    7824.8607    6852.2786     7794.707   -778.07512   -253.41726   -489.20949   -3769.0241 
16209000    183.31621   -5014.0531    -4647.398   -5014.0531            0    5455.9454    18.080159    22.759712    19.213343    7906.2753    3835.9075    5848.3008    6683.6278   -540.96885   -237.58449    1100.6071   -4018.3007 
16210000    182.35386   -5000.3586   -4635.6284   -5000.3586            0    7319.3586    17.889537    22.788714    19.255463    7850.0585    7673.8051    7383.1191    6901.1516    232.88738   -928.01156   -746.36036   -3797.6713 
16211000    178.22792     -5001.68   -4645.2022     -5001.68            0    5962.2044    17.893176    22.876228    19.263381    7885.0486    5805.8294    5725.7471    6355.0366   -57.303947   -95.697316    -105.7795   -3959.5764 
16212000    181.75433    -5008.247   -4644.7159    -5008.247            0    7211.8732    17.784664    22.820564    19.310505    7837.2856    7501.8425    7903.0074    6230.7699    -7.540617   -351.57144    1502.2195   -3820.4076 
16213000    180.07702   -4997.9894   -4637.8131   -4997.9894            0     8924.691    17.881171    22.502089    19.405065    7807.8939    10775.749    8618.6353    7379.6884    -1114.947   -283.59697   -374.30477   -3621.5575 
16214000    181.68892   -5015.0233    -4651.623   -5015.0233            0    7183.9061    17.951467    22.815565    19.171832     7852.262    6638.8745    6408.7887    8504.0552   -141.78789   -984.09448   -770.59207   -3828.9423 
16215000    170.77522   -5013.4971   -4671.9256   -5013.4971            0    8509.4752    17.844912    22.956988    19.041266    7800.5485    7855.8483    9961.6804    7710.8969   -1027.1034     838.5693   -55.655818   -3703.8622 
16216000    177.16537   -5004.0155   -4649.6628   -5004.0155            0    6673.9977    17.948203    22.694195    19.294465    7859.0216    7246.3392    6959.3761     5816.278    938.51796   -8.9472865     1462.886   -3884.7175 
16217000    171.43712   -5018.0189   -4675.1234   -5018.0189            0     7117.538    17.898067    22.731885    19.377337    7883.8014    7289.5778    6906.7797    7156.2565    238.89216    183.28551    136.79871   -3856.7692 
16218000    180.07786   -4995.2883   -4635.1103   -4995.2883            0    7605.7256    17.791787    22.814966    19.419706    7882.8278    8396.9312    7103.6663    7316.5793     272.3389    146.28641    2607.5499   -3760.7336 
16219000    176.13457   -5005.5197   -4653.2288   -5005.5197            0     7798.951    17.791612    22.941718    19.226152    7847.5411    9556.4721     6227.578    7612.8027    -544.9183   -216.44605   -1018.4942   -3760.6519 
16220000    169.76628     -5004.39   -4664.8365     -5004.39            0     8588.934    17.958438    22.691131    19.191111    7820.3253    7945.2665     9322.613    8498.9224   -699.39656    27.924967   -253.55938   -3685.2563 
16221000    177.97653   -5012.2384   -4656.2633   -5012.2384            0    6665.5354    18.019384    22.726697    19.254696    7885.2036     6360.221    7053.6379    6582.7472   -3.9994892    876.57491    -1256.852   -3889.7427 
16222000    174.29645    -5015.413   -4666.7985    -5015.413            0    10183.787    17.871312    22.652657    19.172438      7761.63    8915.1871    11160.073    10476.101    835.09656   -136.00587    1236.4946   -3514.0406 
16223000    172.81941   -5020.6379   -4674.9778   -5020.6379            0    4569.6935    17.829609    23.006754    19.311749     7921.707    5163.6761    4374.9089    4170.4953    785.84075     733.9361    -115.1623   -4147.0412 
16224000    177.06798   -4993.0017   -4638.8439   -4993.0017            0    9006.2304     17.87773    22.820659    19.125177      7802.72    7370.1893    9035.2068    10613.295    1480.8028   -894.62119   -347.90197   -3613.9829 
16225000    180.28321   -5022.4502   -4661.8615   -5022.4502            0    7523.7532    18.012273    22.555866    19.349037    7861.1733    7940.7033    7569.8884    7060.6679   -1276.2468    -272.6962    394.74786   -3799.2846 
16226000    184.09062   -5020.4396   -4652.2357   -5020.4396            0    7301.7449    17.950635    22.626922    19.294966    7836.9902    7798.2691    6687.5147     7419.451     186.9699   -630.62697    437.34462   -3817.6866 
16227000    186.05013   -4978.1734   -4606.0502   -4978.1734            0     6586.723    17.972737    22.978884    19.117334    7895.3337     6710.094    6209.7611    6840.3139    331.78364      277.577     -688.436   -3847.6197 
16228000    181.63827   -4995.5887   -4632.2897   -4995.5887            0     7501.834     17.85808    23.019891    19.099982    7851.8317    7014.4072     7639.821    7851.2737    442.48895      656.032    1052.7195   -3773.2478 
16229000    176.50594   -4995.0217    -4641.988   -4995.0217            0    5358.0704    18.020475    22.920756    19.194554    7928.1742    5200.1625    5376.3301    5497.7185    200.85165    487.81313    1032.2495   -4022.4649 
16230000     183.0785    -4986.734   -4620.5544    -4986.734            0    7759.8561    18.014251    22.609827    19.228993    7831.9517    7476.4953    9074.1893    6728.8836   -403.74749    1088.7073    1368.8688   -3734.2161 
16231000    186.17855   -4997.6696   -4625.2895   -4997.6696            0    7363.3654    18.069681    22.683478    19.114284    7834.6242    5895.8215    7715.9081    8478.3667    1125.4014    74.689701    2130.0216   -3783.9517 
16232000    177.56074   -4995.5233   -4640.3799   -4995.5233            0      8363.25    17.834049    23.101006    18.980322    7819.5976    9590.1469    6659.8093    8839.7936    -54.83594   -562.99835    923.72883   -3686.6281 
16233000    177.79787   -5013.4144   -4657.7967   -5013.4144            0    8503.7568    17.799382    22.756576    19.272244      7806.28     8150.059    8974.4052    8386.8062   -131.09245   -494.52226    906.09446    -3689.673 
16234000    186.61869   -5007.3376   -4634.0772   -5007.3376            0    7465.9514     17.98392     22.64869    19.337285    7876.3124    8739.1387    7198.3805     6460.335    558.81852   -233.53873   -296.40798   -3776.4787 
16235000    180.93318   -5034.2143   -4672.3256   -5034.2143            0    6086.4088    17.904259    22.878661     19.25642    7887.9202     6556.246    6144.6267    5558.3537    -392.5914    1006.9893    931.36066    -3972.162 
16236000    181.23615   -5009.2291   -4646.7344   -5009.2291            0    9161.6369     17.75438    23.125241    19.022413    7810.1142    8138.3296    8783.2909     10563.29   -1203.2436    347.16492   -1440.3705    -3603.201 
16237000    184.86991   -5029.6359   -4659.8732   -5029.6359            0    7349.9928    17.916283     22.79587    19.258411    7865.4675    7762.1377    7013.2907    7274.5499   -1005.3354    979.62471    464.76432   -3816.7572 
16238000    186.34403   -5006.1048   -4633.3937   -5006.1048            0    7266.3215    17.889242    22.849358    19.199968    7848.1348    7600.7057    6736.6464    7461.6125    261.08117    -268.6213   -285.42917   -3801.7124 
16239000    176.64803   -5001.8979     -4648.58   -5001.8979            0    8380.4409    17.948546    22.798498     19.16859    7843.7847    8950.2304    7338.8494    8852.2428    1216.2113   -415.49488    264.78658   -3689.9116 
16240000    186.65056   -5009.9811   -4636.6569   -5009.9811            0    5962.3949    18.032226    22.525185    19.386658    7874.4581    5449.9918    6972.5169    5464.6759   -353.90904   -251.50053   -898.16748   -3951.9302 
16241000    189.50909   -5046.6079   -4667.5663   -5046.6079            0    6115.2798    18.002081    22.738264    19.224329     7869.211    4525.5273    6938.9378    6881.3743   -286.81227    708.41105   -1481.4568     -3965.75 
16242000    183.24683   -5027.2224   -4660.7061   -5027.2224            0    6337.2025    17.981664    23.027362    19.082326    7901.4241    6230.3414    6239.8102    6541.4557    164.66734      892.758   -1060.2252   -3930.4439 
16243000    185.65088   -4997.4326   -4626.1079   -4997.4326            0    7856.8603    17.958136    22.850099    19.079998    7829.3851    7750.2307    7809.8811     8010.469     739.0553   -218.92072   -105.85129   -3728.9837 
16244000    182.32072   -4993.9911   -4629.3271   -4993.9911            0    7004.1655    18.067345    22.653802    19.217065    7865.4307    7269.5757    6856.6755    6886.2451   -1268.5887   -58.512947   -1491.8244   -3825.8846 
16245000    189.93669   -4997.7962   -4617.8994   -4997.7962            0    7384.2704    18.114941    22.631186    19.219442    7879.2528    6690.4566    8158.3646      7303.99    12.643646    323.85073    321.16171   -3769.3668 
16246000    177.17786   -5015.2215   -4660.8439   -5015.2215            0     6085.417      17.9182    22.792662    19.397976     7922.201    6682.1165    5972.4484    5601.6862    85.982706   -81.580633    329.14531    -3957.752 
16247000    184.37719   -5011.2035   -4642.4263   -5011.2035            0    8207.7223     17.76965    22.852993    19.237746    7812.2507    8347.9287    7677.9474    8597.2907    1038.7709   -284.27886    644.74343   -3707.2905 
16248000    178.57258   -4987.3787   -4630.2115   -4987.3787            0    9118.5309    17.897085    22.730021    19.256711    7833.6515    9281.9586    9032.0059    9041.6281   -550.85932    92.831361    2094.0636   -3588.4579 
16249000    181.31256   -5022.9751   -4660.3276   -5022.9751            0    6951.6844    17.920506    22.645758    19.365169    7858.8395    7761.1347    7234.6958    5859.2229   -1416.3389    248.46405   -1186.6404   -3863.5734 
16250000    185.01186   -4992.7976    -4622.751   -4992.7976            0    8557.3809    18.011176    22.495956    19.348626    7839.6498    9402.9195    8685.1773    7584.0459     256.4466   -784.51922   -1902.3983   -3644.3579 
Loop time of 453.927 on 64 procs for 250000 steps with 1008 atoms

Performance: 95.170 ns/day, 0.252 hours/ns, 550.750 timesteps/s
192.6% CPU use with 32 MPI tasks x 2 OpenMP threads

MPI task timing breakdown:
Section |  min time  |  avg time  |  max time  |%varavg| %total
---------------------------------------------------------------
Pair    | 37.277     | 39.878     | 44.833     |  22.5 |  8.79
Bond    | 1.0071     | 1.2226     | 1.5711     |  11.4 |  0.27
Kspace  | 217.93     | 223.76     | 229.62     |  19.4 | 49.29
Neigh   | 2.0172     | 2.1552     | 2.3465     |   6.0 |  0.47
Comm    | 73.342     | 78.437     | 83.628     |  29.9 | 17.28
Output  | 0.58606    | 0.58636    | 0.58773    |   0.0 |  0.13
Modify  | 89.398     | 91.177     | 92.633     |   9.8 | 20.09
Other   |            | 16.71      |            |       |  3.68

Nlocal:        31.5000 ave          36 max          26 min
Histogram: 2 0 4 2 3 4 5 2 6 4
Nghost:        2924.88 ave        2952 max        2903 min
Histogram: 2 2 7 4 5 1 6 3 1 1
Neighs:        10667.9 ave       12179 max        8735 min
Histogram: 2 0 4 2 4 6 2 4 5 3

Total # of neighbors = 341374
Ave neighs/atom = 338.66468
Ave special neighs/atom = 2.0000000
Neighbor list builds = 5077
Dangerous builds = 0

unfix		3
unfix		2
unfix		1

write_data	data.final.${pid}
write_data	data.final.0
System init for write_data ...
PPPM initialization ...
  extracting TIP4P info from pair style
  using 12-bit tables for long-range coulomb (../kspace.cpp:340)
  G vector (1/distance) = 0.38013177
  grid = 24 27 32
  stencil order = 5
  estimated absolute RMS force accuracy = 0.0023492499
  estimated relative force accuracy = 7.0746962e-06
  using double precision FFTW3
  3d grid and FFT values/proc = 5355 672
Last active /omp style is kspace_style pppm/tip4p/omp
WARNING: Not all mixed pair coeffs generated from mixing. Use write_data with 'pair ij' option to store all pair coeffs. (../write_data.cpp:312)

write_restart   restart.lmp.${pid}
write_restart   restart.lmp.0
System init for write_restart ...
PPPM initialization ...
  extracting TIP4P info from pair style
  using 12-bit tables for long-range coulomb (../kspace.cpp:340)
  G vector (1/distance) = 0.38013177
  grid = 24 27 32
  stencil order = 5
  estimated absolute RMS force accuracy = 0.0023492499
  estimated relative force accuracy = 7.0746962e-06
  using double precision FFTW3
  3d grid and FFT values/proc = 5355 672
Last active /omp style is kspace_style pppm/tip4p/omp
Total wall time: 0:07:34
