LAMMPS (30 Jul 2021)
  using 1 OpenMP thread(s) per MPI task
package omp 0
using multi-threaded neighbor list subroutines
echo both

include		in.partitions
variable        pid world 0
include		in.temp
variable        temperature equal 269.24
variable	tempDamp equal 100.0
include		in.pressure
variable        pressure equal 11750.0
variable        pressureDamp equal 1000.0 # This is 1 ps
include		in.seed
variable        seed world 745823

units		real
atom_style	full
read_restart	restart.lmp.${pid}
read_restart	restart.lmp.0
Reading restart file ...
  restart file = 30 Jul 2021, LAMMPS = 30 Jul 2021
  restoring atom style full from restart
  orthogonal box = (0.69627870 1.9116556 0.84945839) to (17.511294 21.717522 21.363737)
  4 by 4 by 4 MPI processor grid
  restoring pair style lj/cut/tip4p/long/omp from restart
  restoring bond style harmonic/omp from restart
  restoring angle style harmonic/omp from restart
  864 atoms
  576 bonds
  288 angles
Finding 1-2 1-3 1-4 neighbors ...
  special bond factors lj:    0        0        0       
  special bond factors coul:  0        0        0       
     2 = max # of 1-2 neighbors
     1 = max # of 1-3 neighbors
     1 = max # of 1-4 neighbors
     2 = max # of special neighbors
  special bonds CPU = 1.821 seconds
  read_restart CPU = 2.199 seconds
include 	in.setup
variable	out_freq equal 1000
variable	out_freq2 equal 10000
variable	out_freq3 equal 1000

timestep	2.0

neigh_modify    delay 7 every 1

include		in.tip4p
# This is TIP4P/Ice

# create groups ###
group ox type 2
288 atoms in group ox
group hy type 1
576 atoms in group hy

# set charges - beside manually ###
set group ox charge -1.1794
Setting atom values ...
  288 settings made for charge
set group hy charge 0.5897
Setting atom values ...
  576 settings made for charge

# ### TIP3P Potential Parameters ###
pair_style lj/cut/tip4p/long/omp 2 1 1 1 0.1577 8.5
pair_coeff 1 1*2 0.000 0.000
pair_coeff 2 2 0.21084 3.1668
bond_style  harmonic
bond_coeff  1 450 0.9572
angle_style harmonic
angle_coeff 1 55 104.52
kspace_style pppm/tip4p/omp 1.0e-5
pair_modify tail yes

thermo          ${out_freq}
thermo          1000
thermo_style    custom step temp pe etotal epair emol press lx ly lz vol pxx pyy pzz pxy pxz pyz enthalpy

restart 	${out_freq3} restart.lmp.${pid} restart2.lmp.${pid}
restart 	1000 restart.lmp.${pid} restart2.lmp.${pid}
restart 	1000 restart.lmp.0 restart2.lmp.${pid}
restart 	1000 restart.lmp.0 restart2.lmp.0


include         in.dump
dump            myDump all atom ${out_freq2} dump.water.${pid}
dump            myDump all atom 10000 dump.water.${pid}
dump            myDump all atom 10000 dump.water.0
dump            myDump2 all dcd ${out_freq2} dump.dcd
dump            myDump2 all dcd 10000 dump.dcd
dump_modify     myDump append yes
dump_modify     myDump2 append yes


variable natoms 	equal  "count(all)"                        # NUMBER ATOMS
variable H      	equal  "enthalpy/v_natoms"                 # ENTHALPY-per-atom
variable Vol      	equal  "vol/v_natoms"                 # volume-per-atom
fix AVG all 		ave/time ${out_freq} 1 ${out_freq} v_Vol v_H file vol_enthalpy.dat
fix AVG all 		ave/time 1000 1 ${out_freq} v_Vol v_H file vol_enthalpy.dat
fix AVG all 		ave/time 1000 1 1000 v_Vol v_H file vol_enthalpy.dat


timer           timeout 23:50:00 every 1000
New timer settings: style=normal  mode=nosync  timeout=23:50:00

fix 		1 all shake 1e-6 200 0 b 1 a 1
       0 = # of size 2 clusters
       0 = # of size 3 clusters
       0 = # of size 4 clusters
     288 = # of frozen angles
  find clusters CPU = 1.901 seconds
fix             2 all nph iso ${pressure} ${pressure} ${pressureDamp}
fix             2 all nph iso 11750 ${pressure} ${pressureDamp}
fix             2 all nph iso 11750 11750 ${pressureDamp}
fix             2 all nph iso 11750 11750 1000
fix             3 all temp/csvr ${temperature} ${temperature} ${tempDamp} ${seed}
fix             3 all temp/csvr 269.24 ${temperature} ${tempDamp} ${seed}
fix             3 all temp/csvr 269.24 269.24 ${tempDamp} ${seed}
fix             3 all temp/csvr 269.24 269.24 100 ${seed}
fix             3 all temp/csvr 269.24 269.24 100 745823

run             250000
PPPM initialization ...
  extracting TIP4P info from pair style
  using 12-bit tables for long-range coulomb (../kspace.cpp:340)
  G vector (1/distance) = 0.37504101
  grid = 24 24 24
  stencil order = 5
  estimated absolute RMS force accuracy = 0.0030732055
  estimated relative force accuracy = 9.2548672e-06
  using double precision FFTW3
  3d grid and FFT values/proc = 2535 216
Last active /omp style is kspace_style pppm/tip4p/omp
Neighbor list info ...
  update every 1 steps, delay 7 steps, check yes
  max neighbors/atom: 2000, page size: 100000
  master list distance cutoff = 10.8154
  ghost atom cutoff = 10.8154
  binsize = 5.4077, bins = 4 4 4
  1 neighbor lists, perpetual/occasional/extra = 1 0 0
  (1) pair lj/cut/tip4p/long/omp, perpetual
      attributes: half, newton on, omp
      pair build: half/bin/newton/omp
      stencil: half/bin/3d
      bin: standard
Per MPI rank memory allocation (min/avg/max) = 9.238 | 9.242 | 9.245 Mbytes
Step Temp PotEng TotEng E_pair E_mol Press Lx Ly Lz Volume Pxx Pyy Pzz Pxy Pxz Pyz Enthalpy 
31500000    281.88928   -3846.9089   -3363.7603   -3846.9089            0     9905.966    16.815015    19.805867    20.514279    6831.9923    9840.9114    9231.2803    10645.706    579.68543   -474.49985    1148.7123   -2376.7536 
31501000    272.78515   -3864.9586   -3397.4141   -3864.9586            0     11609.99    16.839928    19.835211    20.544673    6862.4042    14351.027     10275.51    10203.432    850.64541   -697.60074    554.95949   -2235.4733 
31502000    274.08028   -3853.4982    -3383.734   -3853.4982            0    10320.368    16.779925    19.764535    20.471469    6789.3097    10708.344    8317.5911     11935.17   -1993.5751    964.99122    1047.1321   -2361.8615 
31503000    271.93451   -3858.1955    -3392.109   -3858.1955            0    9349.9001    16.805664    19.794852     20.50287    6820.6002    10785.085    7845.8025    9418.8128   -1085.6638   -739.62245   -247.53962   -2462.0608 
31504000    248.79028   -3859.7214   -3433.3034   -3859.7214            0    9932.7527     16.79062    19.777133    20.484518    6802.3006    11869.078    8912.5275    9016.6527    1046.8198    -891.6014    1334.5748   -2447.9288 
31505000    271.55268   -3838.6725   -3373.2405   -3838.6725            0    10449.826    16.775735      19.7596    20.466357    6784.2252    11885.351    8162.1253    11302.003   -39.709125   -532.84998   -298.14498   -2339.3246 
31506000    279.91784   -3841.9856    -3362.216   -3841.9856            0     10332.42    16.779948    19.764562    20.471497    6789.3373    10760.594    10018.642    10218.024    114.50498   -661.77436   -1925.3271   -2339.1461 
31507000    271.55087    -3826.859   -3361.4301    -3826.859            0    10967.611    16.745799    19.724339    20.429835    6747.9707    9785.3311    11734.739    11382.762    557.12434   -1950.9048    234.78415   -2282.0831 
31508000    277.01273   -3832.9032   -3358.1129   -3832.9032            0    10164.171     16.82119     19.81314    20.521812    6839.5216    10417.329    11374.503    8700.6817    36.512163    1479.7221   -621.01217   -2344.2631 
31509000    287.69883   -3826.9265   -3333.8206   -3826.9265            0    11456.551    16.750614     19.73001    20.435709    6753.7931    12322.458    11423.764    10623.431   -1210.7659    -92.47567   -236.57553    -2205.383 
31510000    260.76565   -3788.8229   -3341.8795   -3788.8229            0     11123.11    16.761004    19.742248    20.448385    6766.3685    11934.076     10130.38    11304.875   -256.07862   -2241.5808     1247.439   -2244.2449 
31511000    271.39134   -3833.8554   -3368.6999   -3833.8554            0    12055.671    16.724477    19.699224    20.403822    6722.2273    10836.763    12037.233    13293.018    1077.0078   -1888.0108    174.96582   -2186.8006 
31512000    275.56514   -3818.6217   -3346.3125   -3818.6217            0    10660.032    16.829667    19.823124    20.532154    6849.8669    11951.129    11801.793    8227.1744   -2020.5298   -782.56655    -292.2792   -2281.3936 
31513000    275.37343    -3807.011   -3335.0304    -3807.011            0    12591.493    16.842464    19.838197    20.547766    6865.5042    11358.025    13421.154    12995.298    506.38002    35.440802   -60.285472   -2074.2903 
31514000    246.62289   -3797.4684   -3374.7652   -3797.4684            0    13329.156    16.713449    19.686236    20.390369    6708.9393     13581.91    12282.984    14122.574    801.69545   -406.82127   -599.45874   -2070.6007 
31515000    262.63792   -3806.9151   -3356.7627   -3806.9151            0    11807.901    16.784154    19.769516    20.476629    6794.4444    11911.871    12040.794    11471.037   -1407.1806    1036.3364   -618.42781   -2186.7178 
31516000    275.22451   -3829.8984    -3358.173   -3829.8984            0    11409.397    16.753994    19.733991    20.439833    6757.8823    13109.524    10304.665    10814.002    50.684856   -293.97672    534.03326   -2233.6995 
31517000     260.8688   -3802.9923   -3355.8721   -3802.9923            0    14500.335    16.696584     19.66637    20.369793    6688.6495    14450.254    14427.193    14623.557    951.37102    63.009772    680.70253   -1941.4066 
31518000    252.96089    -3838.172   -3404.6057    -3838.172            0    12240.068    16.773809    19.757332    20.464008    6781.8892    13830.277    11614.876     11275.05   -950.10212   -5.5231872   -376.80715   -2193.9785 
31519000    276.34926    -3836.483   -3362.8299    -3836.483            0    11818.715    16.755678    19.735975    20.441888    6759.9204    12354.215    10485.055    12616.874   -1674.9321    1816.5136    782.60258   -2197.6641 
31520000    259.93575   -3858.6508   -3413.1299   -3858.6508            0    9744.8131    16.819305     19.81092    20.519513    6837.2229    9182.8661    10214.393    9837.1803    568.17835   -990.25379    313.41803   -2441.4367 
31521000    273.10392   -3871.8692   -3403.7784   -3871.8692            0    11692.059    16.725312    19.700208    20.404841    6723.2344    11925.082    8996.2885    14154.807    442.91557   -321.65869    1039.0306   -2257.3548 
31522000    288.94059    -3866.238   -3371.0038    -3866.238            0    12107.357    16.747219    19.726012    20.431568    6749.6877    13691.009    12620.144    10010.918   -467.11633    651.79974    518.35798   -2179.1886 
31523000    269.28969   -3890.5284    -3428.975   -3890.5284            0    9740.5455    16.790177    19.776611    20.483977    6801.7617    11149.429    8010.3878     10061.82    1778.6307    805.12316      564.623   -2462.7449 
31524000    281.02419   -3817.3977   -3335.7319   -3817.3977            0    13349.652    16.750171    19.729489    20.435169    6753.2574    12829.208    15589.495    11630.254    683.26551    800.24238   -325.54713   -2020.9335 
31525000    261.65101    -3837.215   -3388.7541    -3837.215            0    11803.028    16.793803    19.780882    20.488401    6806.1697    10844.069    13032.825     11532.19    237.71141     462.3227      1481.27   -2217.1737 
31526000    269.45236   -3805.9379   -3344.1058   -3805.9379            0    10048.721    16.794963    19.782247    20.489815    6807.5793    7989.7957    9742.5892    12413.777   -1531.1914    237.81293   -149.18131   -2346.4531 
31527000    273.72221   -3835.1402   -3365.9897   -3835.1402            0    11343.657    16.788238    19.774326    20.481611     6799.405    8398.3284     11300.12    14332.521   -621.40637   -530.25176     317.1633   -2241.1261 
31528000    261.60386   -3866.7704   -3418.3904   -3866.7704            0    9841.1589     16.82022    19.811997    20.520629    6838.3383     9461.925    10418.013     9643.539   -62.562669    721.63343    249.37072   -2436.9301 
31529000    265.87297   -3867.8466   -3412.1495   -3867.8466            0    11555.564    16.735872    19.712647    20.417725    6735.9778    11497.246     10754.43    12415.017    223.95114    -151.5958   -165.24575   -2276.9617 
31530000     269.9687   -3808.2042   -3345.4871   -3808.2042            0    10917.018    16.774257    19.757858    20.464554    6782.4317    12076.269    10671.197    10003.589   -1530.6362    818.18131    1132.3889   -2265.6323 
31531000    295.29589   -3835.0202   -3328.8932   -3835.0202            0      11087.8    16.795631    19.783035    20.490631    6808.3927    9738.7094    12542.442    10982.249    1406.8666    884.63502    168.64354   -2227.9475 
31532000    266.87258   -3812.2554   -3354.8449   -3812.2554            0    11014.978    16.777667    19.761875    20.468714     6786.569    10491.947    10655.025    11897.963   -936.72483   -1071.2852   -1618.6779   -2264.6359 
31533000    268.26876   -3808.7725    -3348.969   -3808.7725            0    13325.133    16.711748    19.684231    20.388293    6706.8902    13103.942    11789.447     15082.01   -1232.3881   -595.29297    1739.9547   -2045.5962 
31534000    260.75694   -3854.9324    -3408.004   -3854.9324            0    12152.196    16.739903    19.717395    20.422643    6740.8461    12651.591    12041.196    11763.801   -382.97535     513.0166    -704.6133   -2213.3419 
31535000    256.22842   -3855.1494   -3415.9826   -3855.1494            0     13517.63    16.754636    19.734748    20.440617    6758.6598    13917.171    12984.833    13650.887    442.07209    1321.8965    1585.9997   -2083.5752 
31536000    267.13291   -3856.3482   -3398.4916   -3856.3482            0    10106.199    16.781055    19.765866    20.472847    6790.6812    10703.842    9838.1299    9776.6238   -261.39953    338.61406   -70.402199    -2397.623 
31537000    262.74823   -3823.7333   -3373.3919   -3823.7333            0    11327.813    16.849853    19.846901    20.556781    6874.5447    11632.289    10760.224    11590.925    1634.3659   -13.599703   -726.29586    -2237.686 
31538000    273.90239   -3845.4716   -3376.0123   -3845.4716            0    11139.476    16.846284    19.842698    20.552427    6870.1776    11347.666    10297.372    11773.391    159.47868   -624.51508     -360.954   -2259.8981 
31539000    264.29705   -3825.1599   -3372.1638   -3825.1599            0    11860.018    16.741424    19.719186    20.424498    6742.6837     10699.48    10884.946    13995.628    503.37064   -2490.2495    942.73067   -2205.9074 
31540000    253.36875   -3827.9834   -3393.7181   -3827.9834            0    10761.254    16.831295    19.825042    20.534141    6851.8554    10477.561    10282.317    11523.883    449.12986   -1241.0228     464.6272   -2318.3752 
31541000     263.3697    -3831.031   -3379.6243    -3831.031            0    12224.216     16.82354    19.815908     20.52468    6842.3889    12529.693    12656.581    11486.373    1452.0971    126.95475    276.13185   -2159.7794 
31542000    270.48331   -3858.7605   -3395.1614   -3858.7605            0    12541.997    16.782825    19.767951    20.475008    6792.8309    12608.918    13753.198    11263.875    417.41314    876.30198     266.6867     -2152.67 
31543000     261.0746   -3796.8818   -3349.4089   -3796.8818            0    10226.565    16.805584    19.794758    20.502773    6820.5027    10333.763    10500.423    9845.5099    273.53132     901.3077   -1892.1662   -2332.1721 
31544000    268.58004   -3812.2854   -3351.9484   -3812.2854            0    14735.854    16.713458    19.686246     20.39038    6708.9501    12874.072    14801.407    16532.084   -157.53903   -697.51494   -902.78828    -1910.146 
31545000    252.82714   -3871.1244   -3437.7874   -3871.1244            0    10836.356     16.72889    19.704423    20.409207    6727.5504    9989.5716    10747.444    11772.053     468.7675   -258.39331    800.74347   -2374.5845 
31546000    278.31032   -3849.6989   -3372.6846   -3849.6989            0    13611.604     16.71364     19.68646    20.390602    6709.1689    14186.124    11902.009    14746.678   -463.76942    251.77597    1115.0301   -2040.8389 
31547000    265.20351   -3872.5466   -3417.9969   -3872.5466            0    11532.453    16.767448    19.749839    20.456248    6774.1768    12904.393    9579.4646    12113.502   -116.80019     435.9926   -530.28808   -2278.6548 
31548000    270.89967   -3845.8269   -3381.5141   -3845.8269            0    12614.741     16.78299    19.768145    20.475208    6793.0304    12348.708     12514.83    12980.683    197.76101   -36.876727   -579.63918   -2131.7796 
31549000    280.29721   -3841.4478    -3361.028   -3841.4478            0    12127.846    16.774876    19.758588     20.46531    6783.1832    10902.055    11898.222    13583.259   -2113.0907    312.16931    454.33261   -2161.2715 
31550000    262.61601   -3840.5592   -3390.4444   -3840.5592            0    12210.647    16.782529    19.767602    20.474646    6792.4707    11550.398    13455.713     11625.83   -474.13993   -611.90601    1332.5114   -2180.8429 
31551000    270.44462    -3818.422   -3354.8891    -3818.422            0     11432.51    16.800362    19.788607    20.496402    6814.1468    11645.656    9851.2113    12800.662    60.491182    955.89272     140.3651   -2218.7567 
31552000    266.87059   -3851.2203   -3393.8132   -3851.2203            0    10572.314     16.79336     19.78036     20.48786    6805.6306    12369.891    7500.8535    11846.197   -587.14733    1635.6175    313.55835   -2344.4778 
31553000    265.06206     -3845.43   -3391.1227     -3845.43            0    12869.345    16.722762    19.697205    20.401731    6720.1602    10867.413     13985.76    13754.863   -1108.2079    572.81785   -1442.5777   -2129.8414 
31554000    273.85259   -3824.2285   -3354.8546   -3824.2285            0    12102.028    16.790985    19.777563    20.484963     6802.744    10383.633    11599.101    14323.349    -282.8981    761.61136    306.38361   -2154.1998 
31555000    267.36562    -3836.033   -3377.7775    -3836.033            0    11410.927    16.815404    19.806325    20.514753    6832.4662    11198.075    12544.022    10490.683    563.30736     1190.724    -829.7028   -2240.7413 
31556000    273.68634   -3808.3362   -3339.2472   -3808.3362            0    10079.334     16.86594    19.865849    20.576407    6894.2529    9364.7005    8476.9697    12396.331    1269.5673   -295.94793   -894.76804   -2325.8144 
31557000    267.10082   -3836.9309   -3379.1292   -3836.9309            0    11507.538    16.861691    19.860845    20.571224    6889.0445    12643.057     8312.395    13567.163    383.06344    803.78987   -751.56904   -2222.9709 
31558000    277.20412   -3834.5729   -3359.4546   -3834.5729            0    12415.277    16.801862    19.790374    20.498232    6815.9725    10282.914    12536.727     14426.19   -132.54998   -117.02957    1062.4544   -2125.3268 
31559000    273.37496   -3810.0029   -3341.4476   -3810.0029            0    13769.384     16.75346    19.733363    20.439182    6757.2364    11802.848    13916.835     15588.47   -1504.5409   -174.07462   -300.04041   -1984.5111 
31560000    262.60355   -3847.8424   -3397.7489   -3847.8424            0    11769.457    16.769796    19.752605    20.459112     6777.023    11280.919    11172.766    12854.686   -290.83703    255.96459    749.04421   -2234.5037 
31561000    270.54583   -3850.6564   -3386.9501   -3850.6564            0    10056.889    16.849254    19.846196    20.556051    6873.8118    8417.7012    10327.903    11425.062    322.79233     1023.393    70.185064   -2378.7722 
31562000    269.61007   -3822.7946   -3360.6921   -3822.7946            0    11174.691    16.850108    19.847202    20.557093    6874.8572    13123.536    8577.9973     11822.54    1683.9191   -920.52401    799.95143    -2240.287 
31563000    274.60963   -3790.1665   -3319.4949   -3790.1665            0    11336.797    16.797807    19.785598    20.493285    6811.0385    9461.5444    13087.848    11460.998    474.41543    164.64909   -732.17411   -2193.3881 
31564000    267.58402   -3786.6148    -3327.985   -3786.6148            0    12173.172    16.792576    19.779436    20.486903    6804.6772    11595.032    12133.261    12791.224   -1039.9676   -620.18891    1185.7426   -2119.9287 
31565000    259.68619   -3826.9116   -3381.8184   -3826.9116            0    11604.175    16.757562    19.738195    20.444187    6762.2014    12890.984    11410.503    10511.039    300.79314    1188.1402   -1299.9481   -2237.4173 
31566000    272.58629   -3792.8574   -3325.6538   -3792.8574            0    12552.422    16.764947    19.746893    20.453197    6771.1458    11459.219    13086.538    13111.508    923.23467     371.6847    153.02538   -2086.0995 
31567000    258.71434    -3835.056   -3391.6285    -3835.056            0     12258.63     16.72933    19.704941    20.409744    6728.0818    12077.403    12931.309    11767.177     41.59327    1804.0689    842.95137   -2188.7851 
31568000    271.33812   -3843.9902    -3378.926   -3843.9902            0    10442.231    16.806191    19.795473    20.503513    6821.2418    8687.5792    10691.958    11947.157   -498.62188    1016.4001   -724.36328   -2340.1243 
31569000    255.29044   -3873.4404   -3435.8813   -3873.4404            0    9143.8874    16.857647    19.856081    20.566289    6884.0882    7527.9553    11375.215    8528.4914    948.93601    361.49808    1017.4214   -2517.8591 
31570000    279.13325   -3812.8099    -3334.385   -3812.8099            0    10404.665    16.772079    19.755294    20.461897    6779.7909    10355.638    11771.944    9086.4127   -1106.8583    724.87982   -418.63318   -2305.6103 
31571000    273.74714   -3853.9595   -3384.7662   -3853.9595            0    10656.951    16.854504     19.85238    20.562456    6880.2391    7563.7915    13029.057    11378.004   -126.15193    257.41718    -855.2906   -2315.4347 
31572000    295.46803   -3810.2815   -3303.8594   -3810.2815            0    10572.038    16.817552    19.808855    20.517374     6835.085    10883.354    9878.9475    10953.814   -411.30445    945.85982      967.892     -2250.01 
31573000    257.65101   -3850.0103   -3408.4053   -3850.0103            0    13289.029    16.778059    19.762337    20.469193    6787.0451     14332.18    12058.718    13476.188   -429.33286   -913.19732   -135.57682   -2093.0295 
31574000    270.99467   -3846.7156     -3382.24   -3846.7156            0    12861.511     16.78829    19.774388    20.481675     6799.469    13324.964    11589.515    13670.055   -1358.0989   -174.60458    180.77373   -2106.8504 
31575000    267.84622   -3837.6888   -3378.6095   -3837.6888            0    13342.787    16.750573    19.729963    20.435661    6753.7445     12143.29    14813.167    13071.904    2308.5985    1839.2666    -847.5473   -2064.3926 
31576000    271.72784   -3841.8644   -3376.1322   -3841.8644            0    10394.786    16.790751    19.777287    20.484677    6802.4594    11375.131    10536.397    9272.8302    28.116498   -246.04444    1201.0099   -2344.8978 
31577000    274.56198   -3881.5539   -3410.9641   -3881.5539            0    11842.517    16.754388    19.734456    20.440315    6758.3599     10428.93    12057.212    13041.408    162.23954     494.1272    556.68251   -2243.7212 
31578000    280.66693   -3804.3586   -3323.3051   -3804.3586            0    13106.037    16.743295     19.72139    20.426781    6744.9448     12673.02    13071.096    13573.995   -814.35207    20.630375    1143.3536   -2034.0891 
31579000      278.645    -3866.971    -3389.383    -3866.971            0    10369.771    16.805049    19.794128    20.502121    6819.8518    12353.685    8254.9711    10500.656   -910.61386    551.87827    402.44597   -2357.9999 
31580000     285.9955   -3808.7605    -3318.574   -3808.7605            0    11244.083     16.82966    19.823116    20.532146    6849.8586    10692.049    12647.175    10393.026    3426.9192    1216.2539   -523.12978   -2195.3108 
31581000    264.85646   -3807.0632   -3353.1083   -3807.0632            0    11528.358    16.788147     19.77422      20.4815     6799.295    12243.491    11499.076    10842.508   -220.51491    195.33873    1198.6251   -2209.9477 
31582000    270.76038   -3848.3081   -3384.2341   -3848.3081            0    11831.909     16.74439    19.722679    20.428116    6746.2676    13363.737    9867.1585    12264.832    -885.0086   -68.284731     228.2841   -2220.1234 
31583000    242.78153   -3823.3645   -3407.2453   -3823.3645            0     10258.93     16.79094    19.777509    20.484907    6802.6889    10117.131    10062.466    10597.192   -791.91348     463.0235    2155.9156   -2389.4544 
31584000    288.34585   -3811.8129   -3317.5979   -3811.8129            0    10297.826    16.810178    19.800169    20.508378    6826.0977    8944.4728    11867.967    10081.038    -320.6599   -1244.9934   -385.92557   -2292.4325 
31585000    272.86107   -3836.2003   -3368.5257   -3836.2003            0    13872.393    16.729468    19.705103    20.409911    6728.2473    13035.698    13570.265    15011.216   -21.171264    -813.4857    1854.6412   -2007.3029 
31586000     276.3265   -3838.6725   -3365.0583   -3838.6725            0    10746.394    16.781471    19.766356    20.473356    6791.1868    12269.089    9218.0607    10752.032   -975.19427    98.379054     788.1483   -2300.7087 
31587000    258.70169   -3840.1713   -3396.7654   -3840.1713            0     13140.34    16.766775    19.749046    20.455427    6773.3608    12498.809    14067.929     12854.28    759.54018   -610.49408   -107.42632   -2098.7296 
31588000    264.93328    -3789.281   -3335.1944    -3789.281            0    12809.747    16.801604     19.79007    20.497918    6815.6586      12127.4    11928.273    14373.569    2258.6578    1068.2789    1387.1083   -2061.9134 
31589000    252.26622   -3839.0039   -3406.6283   -3839.0039            0     11433.77    16.800484    19.788751    20.496551    6814.2955    10550.617    12548.848    11201.845   -992.04979    -1624.287    1810.3926   -2270.3458 
31590000    270.03782   -3831.6045   -3368.7689   -3831.6045            0    10868.576    16.838433     19.83345    20.542849    6860.5768    9728.7909    11717.175    11159.762     188.0114   -331.51309    2988.4138   -2281.3193 
31591000    271.80913   -3855.8679   -3389.9963   -3855.8679            0     11244.89    16.777851    19.762092    20.468938    6786.7922    8955.5155    11140.692    13638.462   -51.244485     144.5195   -574.60903   -2276.9951 
31592000    269.95909    -3828.739   -3366.0384    -3828.739            0     12474.25    16.744193    19.722448    20.427876    6746.0297    12389.197     12291.41    12742.144   -1230.2845   -2494.6834    1241.1545   -2138.7727 
31593000     269.7805    -3826.947   -3364.5525    -3826.947            0    13523.776    16.744163    19.722412    20.427839    6745.9931    11116.937    14779.625    14674.765    1029.2266   -2366.3489   -607.38031   -2034.0375 
31594000    260.45475   -3826.0573   -3379.6468   -3826.0573            0    11983.021    16.839736    19.834985    20.544439    6862.1695    12879.629    10747.184     12322.25   -292.99409   -653.32874   -610.15638   -2180.4136 
31595000    267.23201   -3837.2363   -3379.2097   -3837.2363            0    12832.764    16.717101    19.690537    20.394824    6713.3376    13274.146     11935.05    13289.095    135.89295    1953.4573   -613.08379   -2122.7905 
31596000    280.25099   -3830.9439   -3350.6033   -3830.9439            0    12020.733    16.786175    19.771897    20.479095    6796.8998    12458.703    10855.923    12747.574   -1126.9462   -1716.0629    1306.0195   -2159.0384 
31597000    275.17612   -3822.4318   -3350.7893   -3822.4318            0    13521.812    16.684886    19.652592    20.355522    6674.6014    12776.643    15263.706    12525.086    2186.6113   -500.39284    740.28093   -2034.5463 
31598000    260.44176   -3859.4731   -3413.0848   -3859.4731            0    11050.616    16.795948    19.783408    20.491017    6808.7777    11320.616    9850.9495    11980.284    638.94608   -1326.0716    572.28916   -2315.7692 
31599000    270.56261   -3828.8461    -3365.111   -3828.8461            0    12319.919    16.729592     19.70525    20.410063    6728.3977    11522.959    13010.484    12426.313    1050.1197   -471.95874    1337.2022   -2156.1971 
31600000    264.54942    -3836.946   -3383.5173    -3836.946            0    12752.336      16.7157    19.688886    20.393115    6711.6495    14336.307    10345.857    13574.843   -18.683133   -1049.4373   -668.50841   -2135.2865 
31601000    271.28216   -3859.0162   -3394.0479   -3859.0162            0    13227.055    16.728679    19.704174    20.408949    6727.2959    12371.861    11525.723    15783.581     1189.278    -370.6774    207.55633   -2096.3321 
31602000    272.97378   -3833.1411   -3365.2734   -3833.1411            0    11293.755    16.792483    19.779326    20.486789     6804.564     10662.98    11012.822    12205.464   -1551.4965   -1529.3198   -1192.2342   -2244.5084 
31603000    273.56305   -3858.8635   -3389.9858   -3858.8635            0    10260.651     16.79381     19.78089    20.488409    6806.1777    8640.5557    10490.715    11650.682   -1177.3632   -865.25695   -60.038784   -2371.5021 
31604000    271.42016   -3853.0084   -3387.8035   -3853.0084            0    10265.897    16.856463    19.854687    20.564846    6882.6386    9873.1404    10061.509    10863.041     1070.422    2031.9559    1012.4466   -2357.3515 
31605000     287.5317   -3841.0252   -3348.2057   -3841.0252            0    11913.532    16.788464    19.774592    20.481886    6799.6795    12482.441    12689.782    10568.372   -201.42467     -1180.74   -32.252811   -2166.7843 
31606000     258.3328   -3855.7148   -3412.9412   -3855.7148            0    11968.377    16.791028    19.777613    20.485015    6802.7963    13319.119    10790.636    11795.377   -550.53811    486.80607   -989.72964   -2225.5368 
31607000    257.25932   -3859.1464   -3418.2128   -3859.1464            0    11651.713    16.736379    19.713244    20.418343    6736.5897      11107.5    11982.978    11864.661    1491.8541   -50.959389    1118.9064   -2273.4757 
31608000    273.05371   -3853.7913   -3385.7866   -3853.7913            0    11388.916     16.82048    19.812304    20.520946    6838.6557    12675.807    9370.6221    12120.318    -786.3872    905.40129     516.6198   -2249.9156 
31609000    261.97175   -3829.1272   -3380.1165   -3829.1272            0    10735.396    16.809158    19.798968    20.507134     6824.856    9628.6757    11435.528    11141.985    975.12406   -462.31929    942.17045   -2311.5847 
31610000    273.69677   -3871.7918   -3402.6849   -3871.7918            0    11858.508    16.818415    19.809871    20.518427    6836.1372    11215.269    12130.465     12229.79    150.85662    1954.2856   -430.87031   -2220.4148 
31611000    266.64897   -3803.7153   -3346.6881   -3803.7153            0    12126.577    16.792035      19.7788    20.486244    6804.0205    11126.232    13629.089    11624.409    959.46922    712.23044    1262.9825    -2143.372 
31612000    282.56583   -3870.6764   -3386.3682   -3870.6764            0    11831.243     16.78446    19.769877    20.477002    6794.8165     13158.54    9807.4849    12527.704   -820.75655   -2307.2191   -630.47035   -2213.9461 
31613000    278.84349   -3859.3295   -3381.4013   -3859.3295            0    12070.258    16.763926    19.745691    20.451951    6769.9088    9074.5307     14620.81    12515.433   -978.10595    273.49215   -2051.1469   -2189.6784 
31614000    276.72482   -3833.5476   -3359.2508   -3833.5476            0    10839.615    16.863286    19.862724     20.57317    6890.9996     10882.94    9512.9207    12122.985   -1027.1925   -99.036444    324.26481   -2269.8894 
31615000    266.82567   -3839.6694   -3382.3393   -3839.6694            0     10461.43    16.853858    19.851618    20.561667    6879.4478    9223.6385    11177.064    10983.588   -669.67388    144.79814    2677.8282   -2332.7473 
31616000    267.80986   -3864.0895   -3405.0726   -3864.0895            0    11853.187    16.771521    19.754636    20.461216    6779.1141    13030.287    11531.706    10997.569    533.06695    542.41018    547.88855   -2233.1903 
31617000    260.25191   -3896.7579   -3450.6951   -3896.7579            0    10749.909    16.819496    19.811145    20.519746    6837.4562    10100.668    11571.119    10577.941   -35.240715   -701.04864    1188.9109   -2378.7433 
31618000    277.48425   -3894.7997   -3419.2012   -3894.7997            0    10881.919    16.766247    19.748424    20.454782    6772.7207    11069.335    10180.092    11396.331    93.273565    651.36987   -905.66512   -2344.3594 
31619000    275.82143   -3869.1044   -3396.3559   -3869.1044            0    13615.081    16.756688    19.737165     20.44312    6761.1435    14217.007    13894.865     12733.37    1137.8253   -614.48238    107.77623   -2053.8497 
31620000    269.87436   -3866.0558   -3403.5004   -3866.0558            0    11618.016    16.776747    19.760791    20.467592    6785.4527    12296.901    11501.304    11055.844    229.20779   -1016.7203    203.35441   -2253.7947 
31621000    275.93931   -3836.3406     -3363.39   -3836.3406            0    14733.345    16.689512    19.658041    20.361166    6680.1545    15157.106    14519.565    14523.365   -226.20722    543.42001   -329.66763   -1928.0204 
31622000     266.6964   -3795.3222   -3338.2137   -3795.3222            0      10241.7    16.789617    19.775951    20.483294    6801.0814    11265.312    10320.354    9139.4335   -260.84737   -518.81981   -176.58491   -2322.3723 
31623000    267.79438    -3856.529   -3397.5386    -3856.529            0    12143.524    16.760384    19.741519     20.44763    6765.6185    11163.409    13157.717    12109.446    -1602.245     136.1515    826.19883   -2199.3418 
31624000    274.77166   -3802.2832    -3331.334   -3802.2832            0    14308.806    16.735936    19.712722    20.417803    6736.0548     14347.06    14445.664    14133.694   -245.49517   -12.476847      277.432   -1925.6591 
31625000    284.03725   -3837.0847   -3350.2546   -3837.0847            0    12372.642    16.824838    19.817437    20.526264    6843.9731    12264.492      12949.3    11904.133    1341.0598   -1010.8037    1036.8545   -2115.3125 
31626000    265.12342   -3841.3244    -3386.912   -3841.3244            0    10480.925    16.793533    19.780563    20.488071    6805.8408    8218.0061    11755.239     11469.53    141.29396   -2.8860626   -427.95548   -2346.6151 
31627000    275.95897   -3831.8911   -3358.9069   -3831.8911            0    12944.077    16.812077    19.802406    20.510694    6828.4113    11771.516    13841.268    13219.449   -1654.5622   -325.30957    1161.8857   -2069.8661 
31628000    285.58652   -3867.2263   -3377.7408   -3867.2263            0    13142.522    16.737585    19.714664    20.419814    6738.0459    11636.758     14373.65    13417.157   -20.464538    -1333.315    3197.0681   -2086.2582 
31629000    274.68314   -3823.1384   -3352.3409   -3823.1384            0    13696.124    16.751462     19.73101    20.436745    6754.8193    14838.607    12975.375    13274.389   -1957.4513    -316.6885    460.73998   -2003.1068 
31630000    264.49867   -3876.9255   -3423.5839   -3876.9255            0    10075.708    16.814508     19.80527    20.513661    6831.3748    10823.563    10129.302    9274.2602   -551.25163   -245.69583   -580.42048   -2419.7552 
31631000    279.38493   -3887.5092    -3408.653   -3887.5092            0    13164.042     16.70314    19.674093    20.377792    6696.5327    12769.654    15032.566    11689.907   -159.75496   -1813.9096    379.49089   -2123.0255 
31632000    274.49872   -3844.3011   -3373.8197   -3844.3011            0    12179.555    16.771174    19.754228    20.460793    6778.6933    13317.822    12659.173    10561.671    -43.44683   -1134.8112    -158.1407   -2169.7453 
31633000    266.21751    -3848.043   -3391.7553    -3848.043            0     11984.54    16.745151    19.723576    20.429045    6747.1873     12594.23    11887.198     11472.19   -509.50168    271.01765    392.68891    -2212.467 
31634000    269.30556   -3895.8517   -3434.2711   -3895.8517            0    9531.5977    16.797245    19.784936      20.4926    6810.3553    8551.6066    9386.0966     10657.09   -521.73477    94.404787   -1108.7255   -2487.5734 
31635000       258.62   -3867.6015   -3424.3357   -3867.6015            0    14108.528    16.700654    19.671165    20.374759    6693.5429    15012.105    16328.306    10985.173    839.67269   -82.244798   -1065.6702    -2047.083 
31636000    263.33397   -3851.3523   -3400.0068   -3851.3523            0     12483.06    16.720448     19.69448    20.398908    6717.3713    12768.579    12294.203    12386.399    485.56042   -529.82426   -624.10293   -2177.0917 
31637000    270.28569   -3884.5394   -3421.2789   -3884.5394            0     12521.41    16.762665    19.744206    20.450413    6768.3814     11923.08    10777.444    14863.706    592.99342   -1770.8673   -90.063845   -2185.2918 
31638000    274.18129   -3857.7483    -3387.811   -3857.7483            0    13439.355    16.752985    19.732804    20.438603    6756.6622    14286.491    11690.447    14341.127      737.868   -839.84127    2503.4634   -2063.5105 
31639000    254.36091   -3889.4774   -3453.5115   -3889.4774            0    11041.183    16.779479     19.76401    20.470925    6788.7684    10381.682    11251.442    11490.424    234.39857   -4.3375766   -885.84232   -2360.3546 
31640000    252.11967   -3810.4213   -3378.2968   -3810.4213            0    11856.725    16.804739    19.793763    20.501743     6819.475    11137.735     13104.72    11327.721    1003.9148   -232.25396    185.67965   -2199.0856 
31641000    259.87689   -3851.3367   -3405.9166   -3851.3367            0    13084.118    16.766071    19.748216    20.454567    6772.5069    13652.682    11957.661    13642.011   -721.72864    1061.8134   -31.230973   -2113.5974 
31642000    274.47801   -3883.7289    -3413.283   -3883.7289            0    9031.1559    16.840021     19.83532    20.544786    6862.5171    10073.482     8733.132    8286.8541    464.27836    153.07827    783.19219   -2509.4199 
31643000     270.0595   -3854.3008   -3391.4281   -3854.3008            0    9235.8965    16.855547    19.853608    20.563728     6881.516    11899.973    8780.6744    7027.0418   -403.26644    375.57751   -710.39545   -2464.5149 
31644000    266.52978   -3850.1362   -3393.3133   -3850.1362            0    13769.283    16.744072    19.722305    20.427728     6745.883    15745.321     13880.46    11682.068    268.61668     928.1353   -81.732216   -2038.6667 
31645000    274.00219   -3818.6554   -3349.0251   -3818.6554            0    11361.546    16.840893    19.836348    20.545851    6863.5843    12145.442    11238.348    10700.849   -98.823124    875.07403   -230.93246   -2211.7532 
31646000    256.10177   -3847.4826   -3408.5329   -3847.4826            0    11335.067    16.799457    19.787541    20.495298    6813.0459    8257.7619    11435.955    14311.486   -585.80011   -395.89568   -493.88119   -2282.2661 
31647000    258.82583   -3840.9177   -3397.2991   -3840.9177            0    12061.716    16.818038    19.809427    20.517967    6835.6779     11558.24    12455.746    12171.162   -1382.5677    746.45004   -26.648844   -2194.8503 
31648000    255.25797   -3859.6634     -3422.16   -3859.6634            0    12842.661    16.767094    19.749422    20.455815    6773.7468    13898.515    12551.324    12078.143   -957.28455   -195.77994   -1321.8173   -2153.4573 
31649000    276.07831    -3808.217   -3335.0282    -3808.217            0    12425.107    16.777142    19.761257    20.468074    6785.9326    12345.941    12666.984    12262.395   -181.09508    2391.0053    611.00456   -2105.3668 
31650000    262.73552   -3836.5724   -3386.2527   -3836.5724            0    11834.416    16.782162    19.767171    20.474199    6792.0262    10083.213    13175.046    12244.988   -355.35004   -1394.9093   -690.23143   -2213.9978 
31651000    272.58046   -3829.5509   -3362.3573   -3829.5509            0    11650.367    16.790137    19.776564    20.483928    6801.7132    10638.233    11853.135    12459.731    758.80226    548.55122   -2555.0191   -2206.6874 
31652000    267.16615   -3868.1111   -3410.1975   -3868.1111            0     10481.37    16.769543    19.752306    20.458803    6776.7153    9568.9334    11498.352    10376.825    87.322208    242.18856    1573.2272   -2374.3086 
31653000    283.33795   -3861.8285    -3376.197   -3861.8285            0    10656.003    16.800457     19.78872    20.496519    6814.2632    11833.713    11409.718    8724.5771    57.227859    2058.1036   -910.53563   -2317.2136 
31654000    263.54922   -3863.9687   -3412.2544   -3863.9687            0     13465.02     16.76051    19.741667    20.447783    6765.7708    13205.623    13527.664    13661.774    1218.1112   -127.49761    575.96125   -2083.6362 
31655000    272.76074   -3874.8024   -3407.2999   -3874.8024            0    13190.352    16.791123    19.777725    20.485131    6802.9111    13629.508     13156.05    12785.496    100.64765    1052.7554   -216.45708   -2098.6392 
31656000    257.64424   -3883.2947   -3441.7013   -3883.2947            0      10717.9    16.816548    19.807672    20.516149    6833.8611    10746.986    9432.8368    11973.877   -1215.3128   -111.20442   -2587.6114   -2373.5033 
31657000     261.5564   -3868.3932   -3420.0944   -3868.3932            0      12036.5    16.767854    19.750317    20.456743    6774.6684    9216.7073    15018.919    11873.874    696.55758   -664.89831    40.319778   -2230.8691 
31658000    274.59479   -3866.3365   -3395.6904   -3866.3365            0      10433.6    16.787746    19.773748    20.481011    6798.8081    10651.351    11272.495    9376.9529   -597.17865    745.67447    746.81653    -2361.161 
31659000    275.67547   -3856.2073   -3383.7089   -3856.2073            0    10861.104    16.810329    19.800348    20.508563    6826.2825    11019.865    11727.735    9835.7124   -280.97005   -1502.2257    208.24061    -2302.439 
31660000    277.05438   -3825.2338   -3350.3721   -3825.2338            0    11294.631    16.852709    19.850265    20.560266    6878.0409     10499.75    12601.763    10782.379    -2106.165   -555.78904   -785.59004   -2217.4171 
31661000    255.73463   -3828.9125   -3390.5921   -3828.9125            0    13276.787    16.807159    19.796613    20.504695     6822.421    13970.151    12876.903    12983.308    275.17566    1406.1841   -347.20766   -2069.5781 
31662000    262.95134   -3826.9099   -3376.2203   -3826.9099            0    10207.758    16.828776    19.822075    20.531068    6848.7797    9177.7389    11316.932    10128.603   -661.94092    406.15977    699.29396   -2356.6447 
31663000    276.93687   -3834.2274   -3359.5671   -3834.2274            0    14544.905    16.733582     19.70995    20.414931     6733.213    16360.327    13130.289    14144.098   -1325.4182    1419.8321   -338.54049    -1931.301 
31664000    275.02283   -3876.6535   -3405.2738   -3876.6535            0    10348.432    16.782781    19.767899    20.474953     6792.777    11093.917    10975.847    8975.5314    1696.8766    1496.8762   -324.99022   -2380.0993 
31665000    280.96273   -3870.5902   -3389.0297   -3870.5902            0    13614.165    16.736391    19.713258    20.418358    6736.6038    16417.508    12327.942    12097.045   -101.88698   -930.71556    2326.1915   -2051.4862 
31666000    280.47381   -3861.6183   -3380.8958   -3861.6183            0    11815.209    16.804757    19.793785    20.501765    6819.4968      11832.7    12164.945    11447.981    -1107.057    1006.7671    496.15571   -2205.8099 
31667000    258.57779   -3852.4074   -3409.2139   -3852.4074            0    10388.772    16.800982    19.789338    20.497159    6814.9017    11154.273    8044.3104    11967.734   -344.10971   -548.35672    621.05593   -2376.6909 
31668000    287.47341   -3852.4542   -3359.7346   -3852.4542            0     10737.23    16.815443    19.806371    20.514801    6832.5141    10966.169     11215.73    10029.792    247.81362    1895.0523     -193.213   -2289.8211 
31669000    272.88234    -3791.006    -3323.295    -3791.006            0    12491.736    16.795474     19.78285     20.49044    6808.2018    11720.149    13331.679    12423.379   -468.28612   -2606.6364    720.95793   -2082.9826 
31670000    278.12932   -3823.2311   -3346.5269   -3823.2311            0    12427.862    16.784005    19.769341    20.476447    6794.2636    12786.257    12498.993    11998.335   -627.09216   -1607.0308    1160.3959   -2115.0829 
31671000    254.66457   -3822.2805   -3385.7941   -3822.2805            0    11599.259    16.814468    19.805222    20.513611    6831.3253    10856.972    13113.937    10826.867    144.02843    -252.8884    243.61742   -2230.1846 
31672000    272.79135   -3853.1947   -3385.6397   -3853.1947            0    11676.335     16.77661    19.760631    20.467425    6785.2872    12693.533    11398.506    10936.964   -1735.7702   -720.44387    1256.9352    -2230.191 
31673000     265.8723   -3834.1811   -3378.4851   -3834.1811            0    11134.777    16.843102    19.838949    20.548545    6866.2846    10459.279    11109.326    11835.726   -2139.9941    1130.0511   -1730.6914    -2263.474 
31674000    260.52022    -3834.707   -3388.1843    -3834.707            0    10949.935    16.793313    19.780304    20.487802    6805.5732    10033.122    11063.548    11753.134   -327.19579    264.71881    1044.6728    -2301.378 
31675000    258.85958   -3816.1126   -3372.4361   -3816.1126            0    11014.576    16.835425    19.829907    20.539179    6856.9003    11253.622    10953.249    10836.856    1111.1591   -707.62457    441.80581   -2270.9691 
31676000    274.69479   -3830.6583   -3359.8408   -3830.6583            0    12512.212    16.727367    19.702629    20.407349    6725.7132    13241.432    12658.438    11636.765   -902.85722    1500.4877    239.15822   -2132.5476 
31677000    277.41128   -3808.2087   -3332.7352   -3808.2087            0    11561.695    16.756484    19.736925    20.442872    6760.8969    12870.757    12068.633     9745.695    781.05964    2151.0018   -1536.3406   -2192.7435 
31678000    278.56062   -3821.3375   -3343.8941   -3821.3375            0     10650.42    16.789892    19.776275    20.483629    6801.4153    11307.543    10551.701    10092.015    844.62813   -3638.4587   -731.42686   -2287.4613 
31679000    261.73955   -3847.8036   -3399.1909   -3847.8036            0     8817.698     16.81943    19.811067    20.519666    6837.3756    7222.7446     10348.28    8882.0697   -368.99292    890.85727    130.72529   -2519.9244 
31680000    269.89477   -3826.6589   -3364.0685   -3826.6589            0    12635.229     16.78761    19.773587    20.480845    6798.6425    12803.507    12395.154    12707.028    1112.3438    1755.1759   -1825.1659     -2111.27 
31681000     273.5052   -3818.8443   -3350.0657   -3818.8443            0    13406.412    16.774079     19.75765    20.464338    6782.2169    15046.585    13012.453      12160.2   -139.59379    1413.7649   -1892.2689    -2024.015 
31682000    285.06153   -3845.7787    -3357.193   -3845.7787            0    13060.846     16.83515    19.829583    20.538843     6856.564    12482.381    13810.674    12889.482    2114.6225    128.84948   -1284.6656   -2051.1613 
31683000     259.0981   -3878.7108   -3434.6255   -3878.7108            0    10859.128    16.885257    19.888602    20.599974    6917.9688    10274.734    10253.337    12049.314    1403.4144    498.85371     112.6367    -2339.032 
31684000    259.17614   -3860.0359   -3415.8168   -3860.0359            0    10598.722     16.81484     19.80566    20.514066     6831.779      9741.41     12971.18     9083.575   -563.05497   -152.16343   -2360.0125   -2359.8186 
31685000    276.96992   -3860.9115   -3386.1945   -3860.9115            0    9213.2105    16.859356    19.858094    20.568375    6886.1826    9332.4745    7914.9543    10392.203   -194.14788   -1295.2096    -1880.744    -2460.931 
31686000    280.61962   -3856.1881   -3375.2157   -3856.1881            0    10652.652    16.833021    19.827075    20.536247    6853.9637    9350.1424    10663.843    11943.972   -1345.4136   -127.05188    769.45127   -2310.3975 
31687000    277.87736   -3881.5724   -3405.3001   -3881.5724            0    12236.542    16.831565    19.825361     20.53447    6852.1853    10510.868    12806.045    13392.712    22.286138   -487.95554   -2534.2323   -2182.4768 
31688000    283.14054   -3827.5105   -3342.2173   -3827.5105            0    12705.051    16.781447    19.766328    20.473326    6791.1576    11912.374    11334.299    14868.481    367.04342   -74.017571    -2571.236   -2083.8827 
31689000    248.77093    -3843.116   -3416.7311    -3843.116            0    11090.492    16.830803    19.824463    20.533541     6851.255    9176.6318    10525.696    13569.149   -204.44372    115.46368    929.99046   -2308.5855 
31690000    275.95127   -3777.5435   -3304.5724   -3777.5435            0    13252.996    16.734667    19.711227    20.416255    6734.5226    13221.647     12267.35     14269.99   -62.559829    849.60403    -862.2044   -2002.9148 
31691000    266.66764   -3809.2912    -3352.232   -3809.2912            0    11011.839    16.760952    19.742187    20.448322    6766.3055    9503.9814    10902.785    12628.749   -1758.0474   -1261.0515   -1340.5714   -2265.5879 
31692000    266.23277   -3822.1082   -3365.7943   -3822.1082            0    13206.047    16.720237     19.69423     20.39865    6717.1162    14077.171    13080.942    12460.029   -1574.6524    999.34148    -81.03359   -2072.1002 
31693000    261.35458   -3837.0906   -3389.1378   -3837.0906            0    10407.762    16.802464    19.791083    20.498967    6816.7048    10290.057    10802.284    10130.945    1040.0122   -2114.0872    254.76649   -2354.4538 
31694000    278.31741   -3868.3575    -3391.331   -3868.3575            0    11302.631    16.793826    19.780908    20.488428     6806.197    12434.301    10502.471    10971.121    145.81688   -1359.9796    241.75176    -2269.416 
31695000    276.49932   -3875.6868   -3401.7765   -3875.6868            0    12865.367    16.705184      19.6765    20.380285    6698.9906    12179.313    12477.607    13939.181   -968.89857    1349.6357   -915.47558   -2144.8571 
31696000     266.7196   -3858.1236   -3400.9753   -3858.1236            0    10910.616    16.754819    19.734964     20.44084    6758.8811    12450.786    9024.2765    11256.786    949.17806    1325.9155    855.68097   -2325.5012 
31697000    271.95238   -3832.1428   -3366.0257   -3832.1428            0    11978.455    16.742182    19.720079    20.425423    6743.5991    10923.146    12815.465    12196.755    2607.3622   -189.21032    419.69905   -2187.9629 
31698000    271.24874    -3830.363    -3365.452    -3830.363            0    11308.084     16.77025    19.753139    20.459665    6777.5726    10514.735    12470.051    10939.466    888.32292    1431.0851    3347.2244   -2247.7163 
31699000    279.38088   -3835.8668   -3357.0176   -3835.8668            0    13251.338    16.801736    19.790226    20.498079    6815.8198    13193.345    12957.654    13603.016    -283.3353    1100.0997    -10.81229   -2039.8115 
31700000    266.26597   -3819.9389   -3363.5681   -3819.9389            0    11169.826     16.79697    19.784612    20.492264    6810.0206    8985.4943    12399.094     12124.89   -1619.0431    550.24912    1011.3089   -2254.2126 
31701000    276.21352   -3835.0812   -3361.6607   -3835.0812            0    12127.175     16.79517    19.782492    20.490068    6807.8315     15067.92    12078.692    9234.9132    175.60626    38.287257    839.85265   -2157.6112 
31702000    271.93871   -3811.4095   -3345.3159   -3811.4095            0    12362.266     16.73714    19.714141    20.419272    6737.5092    11099.229     13747.66    12239.909   -301.15285    978.71892     1796.224   -2130.6038 
31703000    265.72758   -3846.4434   -3390.9954   -3846.4434            0    13071.135    16.767996    19.750484    20.456916    6774.8405    13824.712     13235.83    12152.863    709.39694   -1097.0424   -280.74195   -2099.5137 
31704000    271.17208   -3854.4086   -3389.6289   -3854.4086            0    12388.355     16.75117    19.730666    20.436389    6754.4666    11209.713     14406.48    11548.874    1378.4068    1095.1161    196.06189   -2169.2896 
31705000    258.96405   -3847.4199   -3403.5643   -3847.4199            0    10225.841    16.793829    19.780913    20.488433    6806.2015    9551.9129    11730.102    9395.5089    773.49319    1170.5076    143.68507   -2388.5323 
31706000    258.56689    -3846.202   -3403.0272    -3846.202            0    11160.848     16.81669    19.807839    20.516322    6834.0338    9775.2829    11302.009    12405.252    487.61197    913.24505   -530.67495   -2290.6548 
31707000    268.68121   -3832.2446   -3371.7342   -3832.2446            0    11323.886     16.85047    19.847628    20.557535    6875.3004    12707.468     9992.418    11271.773    466.09985    135.51753    345.43554   -2236.2972 
31708000    273.94938   -3820.3819   -3350.8421   -3820.3819            0    12749.086    16.722849    19.697307    20.401837    6720.2651    13898.722    11354.674     12993.86   -2181.3436    1167.1252   -606.95304   -2101.3274 
31709000    279.67735   -3858.8069   -3379.4495   -3858.8069            0    11244.651    16.781837    19.766787    20.473801    6791.6306    10997.047    9624.2189    13112.688   -1098.9769   -358.16063    418.31723   -2265.6784 
31710000    278.77651   -3840.5837   -3362.7703   -3840.5837            0    10488.715    16.811531    19.801763    20.510029    6827.7467    10699.447    8123.2675    12643.432   -954.39987    -429.1316   -275.70392   -2318.3493 
31711000    272.57426   -3878.4627   -3411.2798   -3878.4627            0    12419.964    16.761045    19.742297    20.448436    6766.4184    12609.538    12482.951    12167.402    721.62977   -900.44866    248.46747    -2185.662 
31712000    271.60746   -3864.9716   -3399.4457   -3864.9716            0    10591.195    16.816803    19.807972     20.51646    6834.1717    9920.3914    11578.064    10275.131   -1534.1383    155.63362   -200.08668   -2343.8278 
31713000    278.43738   -3856.5479   -3379.3157   -3856.5479            0    11610.811    16.803867    19.792736    20.500678    6818.4129    13350.445    11198.777     10283.21   -1721.1696    306.92573   -369.74253   -2224.7418 
31714000    275.19461   -3893.9414   -3422.2673   -3893.9414            0    10992.996    16.819739     19.81143    20.520042    6837.7515    8394.0225    12083.695    12501.269    789.78227   -1228.1253    255.43072   -2326.0283 
31715000    255.54076   -3903.7028   -3465.7147   -3903.7028            0    12245.994    16.723912    19.698559    20.403134    6721.5467    10289.722    11767.432    14680.829    386.34424   -274.26749    885.29641   -2265.2782 
31716000    258.27877   -3859.1968   -3416.5159   -3859.1968            0     11674.97    16.792908    19.779827    20.487308    6805.0809    11477.603    13649.803    9897.5038   -204.15274   -810.35933    400.59496    -2257.832 
31717000     264.4736   -3859.1327    -3405.834   -3859.1327            0     11724.28    16.765191    19.747181    20.453494    6771.4414    11615.893    11007.235    12549.711   -161.10952    851.45207  -0.46689357   -2248.0083 
31718000    286.03856   -3854.4079   -3364.1476   -3854.4079            0    9353.8497    16.808709    19.798439    20.506586    6824.3091     9583.453    8624.7047    9853.3915    1194.8717   -1732.7696    350.80799   -2433.2005 
31719000    270.87881   -3815.8336   -3351.5566   -3815.8336            0    13460.198    16.755253    19.735475    20.441369    6759.4061    13401.359    14714.633    12264.603    80.970498    1259.7966      328.075   -2024.6637 
31720000    259.53381   -3848.6447   -3403.8126   -3848.6447            0     13033.82    16.742859    19.720876    20.426249    6744.4174    11708.043    12645.872    14747.546    -775.2004   -2083.6243    798.05999   -2121.8007 
31721000    269.95836   -3844.2325   -3381.5331   -3844.2325            0    12376.014     16.71282    19.685494    20.389601    6708.1814    12175.507    12965.727    11986.808    83.645633    1136.3511    623.05248   -2170.7636 
31722000    264.50444   -3863.9875   -3410.6359   -3863.9875            0    12207.113    16.767595    19.750012    20.456426    6774.3539    12205.466    11561.254     12854.62    1022.5381    501.16084   -675.73091   -2204.6097 
31723000    263.79513   -3880.2042   -3428.0683   -3880.2042            0     10210.67    16.789798    19.776164    20.483514    6801.3009    9213.8025    12108.699    9309.5094   -236.08911   -1329.4475     210.5856    -2415.272 
31724000    276.40194   -3850.5227   -3376.7793   -3850.5227            0    11681.669    16.781513    19.766406    20.473407     6791.238    12631.494    11162.231    11251.283    720.80562   -921.09679   -2798.0609   -2219.7889 
31725000    267.69238   -3862.0862   -3403.2706   -3862.0862            0    11959.692    16.777367    19.761522    20.468349    6786.2057    13670.745    11159.955    11048.376    558.13912    -319.7635    350.42327   -2219.6217 
31726000    276.58322   -3848.9784   -3374.9242   -3848.9784            0    11202.436    16.802102    19.790657    20.498526    6816.2651    11148.236    10529.034    11930.038   -1049.7499   -677.65581    465.11201   -2261.3098 
31727000    279.41395    -3801.411   -3322.5051    -3801.411            0    13371.984    16.771864    19.755041    20.461635    6779.5303    11936.547    15887.756    12291.648    245.94775   -915.13328    3170.5626   -2000.3837 
31728000    266.83516   -3832.3841   -3375.0378   -3832.3841            0     12939.66    16.797718    19.785493    20.493177    6810.9308    13624.383    13607.368    11587.228    355.95669   -694.07196   -1610.3526   -2089.7357 
31729000    283.03753   -3879.6642   -3394.5475   -3879.6642            0    8989.1744    16.831808    19.825647    20.534767    6852.4824     9102.445    7717.6524    10147.426   -49.179658   -911.53217   -21.742977   -2496.2015 
31730000    283.34506   -3827.7184   -3342.0746   -3827.7184            0    9981.4848    16.800919    19.789263    20.497082    6814.8247    10981.986    9190.7829    9771.6851   -1036.3113   -822.96649    68.334976   -2350.0425 
31731000    279.57606   -3848.8764   -3369.6926   -3848.8764            0    10258.225    16.818888    19.810429    20.519004    6836.7143     9833.398    9817.6947    11123.581    63.195214   -789.84847   -1195.0267   -2346.8813 
31732000     268.6749   -3841.9013   -3381.4017   -3841.9013            0    12413.973    16.716426    19.689741       20.394    6712.5239     13130.14    10975.108    13136.672   -1669.4282    621.49505    61.298767   -2166.1324 
31733000    264.34172   -3849.1458   -3396.0732   -3849.1458            0     12032.87    16.763785    19.745525    20.451779    6769.7378    12097.493     10362.02    13639.096   -1019.3613    31.885083   -230.07504   -2208.0718 
31734000    263.89795   -3816.8317   -3364.5197   -3816.8317            0    11799.903     16.74618    19.724788    20.430301    6748.4319    10368.096    13555.742    11475.869   -882.89496    1953.6126   -1922.8201   -2203.1856 
31735000    262.55464   -3841.4852   -3391.4755   -3841.4852            0    10924.203    16.769091    19.751774    20.458251    6776.1674    10092.134     11026.18    11654.296    923.97716   -1227.5874   -1869.6256    -2311.908 
31736000    266.10933   -3810.0395   -3353.9372   -3810.0395            0    10577.061    16.764236    19.746056    20.452329    6770.2846    11376.713    9536.9484     10817.52   -1627.2253   -1430.8462   -1414.2987    -2309.583 
31737000     272.9776   -3835.3612    -3367.487   -3835.3612            0    11221.484    16.780824    19.765594    20.472566    6790.4013    10420.972    11599.482    11643.999   -660.70078   -2744.4413   -254.19365   -2256.2117 
31738000    282.18677   -3823.3483   -3339.6898   -3823.3483            0    10627.698    16.802697    19.791358    20.499251    6816.9888     11244.27    10598.469    10040.355    1206.1132   -1381.6344      872.416   -2283.0969 
31739000     265.2388   -3825.0911   -3370.4808   -3825.0911            0    11178.542    16.748234    19.727208    20.432806    6750.9153    10250.554     11178.46    12106.611    1710.6184   -141.17823   -1016.5114   -2269.8956 
31740000    263.24456   -3845.1407   -3393.9485   -3845.1407            0    10848.895    16.823918    19.816353    20.525141      6842.85    11379.213     10319.26    10848.211    906.67625    1081.9747    276.80121   -2311.2728 
31741000    264.56103   -3842.6617   -3389.2132   -3842.6617            0    14074.814    16.645278    19.605939      20.3072    6627.1794    14701.693    14142.158    13380.591    1469.3921   -242.32953   -2349.6812   -2028.8738 
31742000    266.44638   -3838.1699   -3381.4899   -3838.1699            0      11114.9    16.748243    19.727218    20.432817    6750.9256    10759.804     11219.01    11365.887    733.63069    69.392569    514.05546   -2287.1688 
31743000    261.41004   -3801.5133   -3353.4654   -3801.5133            0    12473.786     16.75899    19.739876    20.445928    6763.9299    11620.756    11757.818    14042.785   -193.74655    827.60371    1212.7404    -2122.989 
31744000    273.04995   -3821.8135   -3353.8153   -3821.8135            0    13278.968    16.724272    19.698983    20.403572    6721.9801     11528.48    14758.888    13549.535   -1836.6177    33.430517    1224.9346   -2052.0358 
31745000    258.73911   -3804.5346   -3361.0646   -3804.5346            0    11920.191    16.845657    19.841959    20.551663    6869.4107    12229.004     12303.45     11228.12    1240.2574    460.39756   -1204.4652   -2166.8604 
31746000    268.43611   -3813.9104   -3353.8201   -3813.9104            0     10888.35    16.780438     19.76514    20.472095    6789.9328    11484.636    10294.568    10885.846   -1067.5534    454.04517   -567.91476   -2275.6099 
31747000    263.31319   -3806.2922   -3354.9824   -3806.2922            0    13041.288    16.760735    19.741932    20.448058    6766.0437    12294.835    13191.294    13637.737    964.91225    137.70423    977.87817   -2068.1228 
31748000    277.81849   -3785.4672   -3309.2958   -3785.4672            0    12239.406    16.752798    19.732583    20.438374    6756.4354    12753.317    12108.166    11856.733   -733.90131   -704.53088    491.41933   -2103.2777 
31749000    260.16922   -3844.0765   -3398.1554   -3844.0765            0    12506.226    16.812693    19.803132    20.511446    6829.1623    12716.935    12804.256    11997.488   -2037.2519     1777.992   -1061.4582   -2152.5812 
31750000    276.72424   -3817.6163   -3343.3204   -3817.6163            0    12513.184    16.811188    19.801359     20.50961    6827.3283    12098.557    12871.224    12569.772    815.75253   -729.30877   -365.76802   -2097.3879 
Loop time of 463.256 on 64 procs for 250000 steps with 864 atoms

Performance: 93.253 ns/day, 0.257 hours/ns, 539.658 timesteps/s
99.0% CPU use with 64 MPI tasks x 1 OpenMP threads

MPI task timing breakdown:
Section |  min time  |  avg time  |  max time  |%varavg| %total
---------------------------------------------------------------
Pair    | 22.51      | 28.24      | 33.061     |  47.0 |  6.10
Bond    | 0.27495    | 0.28585    | 0.30738    |   1.2 |  0.06
Kspace  | 198.65     | 206.57     | 217.06     |  31.5 | 44.59
Neigh   | 5.9159     | 6.4437     | 7.7772     |  20.8 |  1.39
Comm    | 95.011     | 107.05     | 113.36     |  40.2 | 23.11
Output  | 1.1951     | 1.1967     | 1.2053     |   0.2 |  0.26
Modify  | 105.73     | 108.68     | 111.36     |  13.2 | 23.46
Other   |            | 4.791      |            |       |  1.03

Nlocal:        13.5000 ave          17 max           9 min
Histogram: 2 3 3 11 0 10 18 6 8 3
Nghost:        2308.59 ave        2337 max        2286 min
Histogram: 4 2 9 15 12 7 7 4 2 2
Neighs:        4515.42 ave        6217 max        2471 min
Histogram: 1 3 4 3 9 20 12 8 3 1

Total # of neighbors = 288987
Ave neighs/atom = 334.47569
Ave special neighs/atom = 2.0000000
Neighbor list builds = 14742
Dangerous builds = 0

unfix		3
unfix		2
unfix		1

write_data	data.final.${pid}
write_data	data.final.0
System init for write_data ...
PPPM initialization ...
  extracting TIP4P info from pair style
  using 12-bit tables for long-range coulomb (../kspace.cpp:340)
  G vector (1/distance) = 0.37505971
  grid = 24 24 24
  stencil order = 5
  estimated absolute RMS force accuracy = 0.0030711266
  estimated relative force accuracy = 9.2486065e-06
  using double precision FFTW3
  3d grid and FFT values/proc = 2535 216
Last active /omp style is kspace_style pppm/tip4p/omp
WARNING: Not all mixed pair coeffs generated from mixing. Use write_data with 'pair ij' option to store all pair coeffs. (../write_data.cpp:312)

write_restart   restart.lmp.${pid}
write_restart   restart.lmp.0
System init for write_restart ...
PPPM initialization ...
  extracting TIP4P info from pair style
  using 12-bit tables for long-range coulomb (../kspace.cpp:340)
  G vector (1/distance) = 0.37505971
  grid = 24 24 24
  stencil order = 5
  estimated absolute RMS force accuracy = 0.0030711266
  estimated relative force accuracy = 9.2486065e-06
  using double precision FFTW3
  3d grid and FFT values/proc = 2535 216
Last active /omp style is kspace_style pppm/tip4p/omp
Total wall time: 0:07:49
