#include		in.partitions
include		in.temp
variable        temperature equal 188.27
variable	tempDamp equal 100.0
include		in.pressure
variable        pressure equal 8280.2
variable        pressureDamp equal 1000.0 # This is 1 ps
include		in.seed
variable        seed equal 745823

units		real
atom_style	full
read_restart    restart.lmp.${pid}
read_restart    restart.lmp.1
Reading restart file ...
  restart file = 30 Jul 2021, LAMMPS = 30 Jul 2021
  restoring atom style full from restart
  triclinic box = (-3.2347882 -0.0074823974 -0.013586931) to (14.844787 22.587481 19.243585) with tilt (0.23995502 -7.0180035 0.028774194)
  2 by 4 by 2 MPI processor grid
  restoring pair style lj/cut/tip4p/long/omp from restart
  restoring bond style harmonic/omp from restart
  restoring angle style harmonic/omp from restart
  1008 atoms
  672 bonds
  336 angles
Finding 1-2 1-3 1-4 neighbors ...
  special bond factors lj:    0        0        0       
  special bond factors coul:  0        0        0       
     2 = max # of 1-2 neighbors
     1 = max # of 1-3 neighbors
     1 = max # of 1-4 neighbors
     2 = max # of special neighbors
  special bonds CPU = 0.001 seconds
  read_restart CPU = 0.006 seconds

include 	in.setup
variable	out_freq equal 1000
variable	out_freq2 equal 10000
variable	out_freq3 equal 1000

timestep	2.0

neigh_modify    delay 7 every 1

include		in.tip4p
# This is TIP4P/Ice

# create groups ###
group ox type 2
336 atoms in group ox
group hy type 1
672 atoms in group hy

# set charges - beside manually ###
set group ox charge -1.1794
Setting atom values ...
  336 settings made for charge
set group hy charge 0.5897
Setting atom values ...
  672 settings made for charge

# ### TIP3P Potential Parameters ###
pair_style lj/cut/tip4p/long/omp 2 1 1 1 0.1577 8.5
pair_coeff 1 1*2 0.000 0.000
pair_coeff 2 2 0.21084 3.1668
bond_style  harmonic
bond_coeff  1 450 0.9572
angle_style harmonic
angle_coeff 1 55 104.52
kspace_style pppm/tip4p/omp 1.0e-5
pair_modify tail yes

thermo          ${out_freq}
thermo          1000
thermo_style    custom step temp pe etotal epair emol press lx ly lz vol pxx pyy pzz pxy pxz pyz enthalpy

restart 	${out_freq3} restart.lmp.${pid} restart2.lmp.${pid}
restart 	1000 restart.lmp.${pid} restart2.lmp.${pid}
restart 	1000 restart.lmp.1 restart2.lmp.${pid}
restart 	1000 restart.lmp.1 restart2.lmp.1


include         in.dump
dump            myDump all atom ${out_freq2} dump.water.${pid}
dump            myDump all atom 10000 dump.water.${pid}
dump            myDump all atom 10000 dump.water.1
dump            myDump2 all dcd ${out_freq2} dump.dcd
dump            myDump2 all dcd 10000 dump.dcd
dump_modify     myDump append yes
dump_modify     myDump2 append yes


variable natoms 	equal  "count(all)"                        # NUMBER ATOMS
variable H      	equal  "enthalpy/v_natoms"                 # ENTHALPY-per-atom
variable Vol      	equal  "vol/v_natoms"                 # volume-per-atom
fix AVG all 		ave/time ${out_freq} 1 ${out_freq} v_Vol v_H file vol_enthalpy.dat
fix AVG all 		ave/time 1000 1 ${out_freq} v_Vol v_H file vol_enthalpy.dat
fix AVG all 		ave/time 1000 1 1000 v_Vol v_H file vol_enthalpy.dat



fix 		1 all shake 1e-6 200 0 b 1 a 1
       0 = # of size 2 clusters
       0 = # of size 3 clusters
       0 = # of size 4 clusters
     336 = # of frozen angles
  find clusters CPU = 0.000 seconds
fix             2 all nph tri ${pressure} ${pressure} ${pressureDamp}
fix             2 all nph tri 8280.2 ${pressure} ${pressureDamp}
fix             2 all nph tri 8280.2 8280.2 ${pressureDamp}
fix             2 all nph tri 8280.2 8280.2 1000
fix             3 all temp/csvr ${temperature} ${temperature} ${tempDamp} ${seed}
fix             3 all temp/csvr 188.27 ${temperature} ${tempDamp} ${seed}
fix             3 all temp/csvr 188.27 188.27 ${tempDamp} ${seed}
fix             3 all temp/csvr 188.27 188.27 100 ${seed}
fix             3 all temp/csvr 188.27 188.27 100 745823


run             250000
PPPM initialization ...
  extracting TIP4P info from pair style
  using 12-bit tables for long-range coulomb (../kspace.cpp:340)
  G vector (1/distance) = 0.37858938
  grid = 24 27 32
  stencil order = 5
  estimated absolute RMS force accuracy = 0.0025520543
  estimated relative force accuracy = 7.6854358e-06
  using double precision FFTW3
  3d grid and FFT values/proc = 7875 1344
Last active /omp style is kspace_style pppm/tip4p/omp
Neighbor list info ...
  update every 1 steps, delay 7 steps, check yes
  max neighbors/atom: 2000, page size: 100000
  master list distance cutoff = 10.8154
  ghost atom cutoff = 10.8154
  binsize = 5.4077, bins = 5 5 4
  1 neighbor lists, perpetual/occasional/extra = 1 0 0
  (1) pair lj/cut/tip4p/long/omp, perpetual
      attributes: half, newton on, omp
      pair build: half/bin/newton/tri/omp
      stencil: half/bin/3d/tri
      bin: standard
Per MPI rank memory allocation (min/avg/max) = 12.46 | 12.47 | 12.48 Mbytes
Step Temp PotEng TotEng E_pair E_mol Press Lx Ly Lz Volume Pxx Pyy Pzz Pxy Pxz Pyz Enthalpy 
15000000    196.57558   -4976.1832   -4583.0077   -4976.1832            0     8172.387    18.079575    22.594964    19.257172    7866.6963    6827.1662    9151.7036    8538.2913   -815.76262    1433.2257    597.14032   -3645.4086 
15001000     181.9931   -4985.3275   -4621.3188   -4985.3275            0      6154.77    18.053612    22.759181    19.221494     7897.832    7971.1209    5461.6676    5031.5216    1059.4911   -504.41441   -690.59261   -3912.4014 
15002000    188.59397   -4990.9815   -4613.7703   -4990.9815            0    8311.0969    17.831369    22.716347     19.34636    7836.5054     10724.13    6981.3986    7227.7624    1084.7278   -243.34922   -1597.8903   -3663.9167 
15003000     190.1666   -5002.2589   -4621.9022   -5002.2589            0    7747.8029      17.8182    22.932156    19.180436    7837.3129    9150.1758    6500.8315    7592.4013   -925.55018   -922.56565   -1731.9707   -3736.3348 
15004000    178.38348   -5003.2566   -4646.4676   -5003.2566            0    7955.1227    17.956885     22.87546    19.125217    7856.1039    6857.3195    7353.4517    9654.5968   -151.20212    278.10374    853.82913   -3735.0236 
15005000    183.33312   -4980.6382   -4613.9494   -4980.6382            0    7338.9487    17.991369    22.755263     19.22764    7871.7636    6629.8152    7418.2471    7968.7836    -278.6593   -103.77779    1446.5702   -3771.4263 
15006000    191.98484   -4985.7215   -4601.7281   -4985.7215            0    9213.0965    17.822249    22.733903    19.282899    7812.8382    8234.4198    10447.084    8957.7861     1931.144    448.88744    874.77864   -3551.9674 
15007000    189.26069   -5000.2858   -4621.7411   -5000.2858            0    7344.8724    17.844949    22.867677    19.222829    7844.3085    7913.5426    7316.8957    6804.1788   -827.95077     557.6063   -1265.0375   -3781.4789 
15008000    189.44436   -4996.7548   -4617.8427   -4996.7548            0    6681.0202    17.947521    22.870655    19.254858    7903.5712    7404.4446    6261.1244    6377.4916     772.2771    103.38161    1185.5538   -3847.7517 
15009000    189.98975   -4976.5415   -4596.5386   -4976.5415            0    8176.2163    17.988867    22.664235    19.249306    7848.0172    9379.3465    7876.8013    7272.5011    -245.8995   -446.82274    824.68092   -3660.7274 
15010000    193.97315   -4991.6932    -4603.723   -4991.6932            0    7200.7499    17.969643    22.669933    19.372822    7891.9183    8235.3786     7487.914    5878.9571   -973.18726    433.99198    1062.8124   -3774.9488 
15011000    194.66773   -4999.5046   -4610.1451   -4999.5046            0    9834.9672    17.721605    22.894695    19.186233    7784.4448    11883.125     8848.192    8773.5844   -278.07343   -195.69351   -854.88132   -3493.5996 
15012000    195.18917    -4970.197   -4579.7945    -4970.197            0    9087.8164    17.751034     23.07025    19.125754     7832.394    9664.5897    9052.5638    8546.2958    381.86242    588.40282     235.7465   -3541.7166 
15013000    199.60609   -4989.1209    -4589.884   -4989.1209            0    6420.3199    17.917532    22.901836    19.189595    7874.3425    5149.3776    7726.1989     6385.383    301.77807    509.27649   -296.34631   -3852.5796 
15014000    187.01511   -4990.1858   -4616.1325   -4990.1858            0    9448.7717    17.850695    22.754058    19.250692    7819.1646    11522.703    7413.1028    9410.5094    1462.5788   -1770.5786   -638.19773   -3538.6466 
15015000    183.31822   -4982.2495   -4615.5904   -4982.2495            0    7503.2768    18.050047    22.466732    19.448635     7886.919    7323.8488    8132.9659    7053.0157    635.36824   -746.33337   -1023.3378   -3752.5438 
15016000    189.95236   -4987.9795   -4608.0513   -4987.9795            0      9887.61    17.946079    22.666106    19.235117    7824.2248    8869.4615     10276.91    10516.459   -407.25963    1496.5338    217.71241    -3479.793 
15017000    192.83916   -4997.1615   -4611.4593   -4997.1615            0    8672.7609    17.886502    22.923228    19.036904    7805.4419    7881.6131    8771.0151    9365.6544   -1646.9377   -83.843907    1399.2889   -3624.2011 
15018000    182.40185   -4994.9685   -4630.1423   -4994.9685            0    8784.1549    17.808681    22.940201    19.153736    7824.9661      8553.32    8838.7857     8960.359    603.75008    1182.0382   -657.24647   -3627.7024 
15019000    184.84898   -4982.1731   -4612.4523   -4982.1731            0    7996.8267    17.848404    22.781435    19.263421     7832.743    8244.3069    8407.3723    7338.8009    1026.9745   -37.260585      866.701   -3698.9546 
15020000    191.05709   -5004.0889   -4621.9511   -5004.0889            0    7864.6072    17.999055    22.828146    19.130525     7860.447    7778.5277    7091.5585    8723.7355    1551.9843   -244.59229   -1174.9836   -3720.3796 
15021000    187.53575   -5007.8948   -4632.8002   -5007.8948            0    8805.3211    18.083221    22.539572    19.221982    7834.6505    7512.5539    10007.627     8895.782    1670.9841    1398.9745    132.93673   -3626.7012 
15022000    189.01617   -4991.5129   -4613.4572   -4991.5129            0     9311.701    18.093904    22.569103     19.22113    7849.2022    8141.6357    9641.7255    10151.742    1139.2595    960.87335    1195.9852    -3547.523 
15023000    187.01989   -5007.4183   -4633.3554   -5007.4183            0    8597.5607    17.850945    22.959978    19.053788     7809.334    8100.7232    8372.1038    9319.8552   -1365.5729   -40.041431    426.09063   -3654.1696 
15024000    194.78637   -4969.6803   -4580.0835   -4969.6803            0    9363.6765    17.748735    23.126179    19.134008    7853.7525    9440.4552    9374.9485    9275.6259   -1817.8212   -568.70628    -2107.875    -3507.578 
15025000    194.69801   -4985.7633   -4596.3432   -4985.7633            0    7842.8662    17.749697    23.053432    19.211341    7861.1161    6344.2168    8123.9886    9060.3931   -421.90212    241.86796   -1868.1632   -3697.1875 
15026000    197.28381   -4992.3235   -4597.7315   -4992.3235            0    8051.3319    17.933229    22.757746    19.198781    7835.4039    8261.8298    7601.4325    8290.7333    199.55745   -8.7746652   -48.557686   -3677.6951 
15027000    202.05181   -4997.8153   -4593.6867   -4997.8153            0    8778.3948    17.962153    22.605028    19.296845    7835.1937    8838.7236    8996.9978    8499.4632   -39.858029   -325.67124    168.56004   -3590.5947 
15028000     188.4263   -5002.6442   -4625.7684   -5002.6442            0    7649.6668    17.999586    22.827258     19.06708    7834.3048    8860.5636    6832.5859     7255.851   -787.53347   -798.91149    1290.6341   -3751.7534 
15029000    184.31878   -4980.8092   -4612.1489   -4980.8092            0     8956.523    17.771619    23.134253    19.054566    7833.9636    8605.1436    8595.6421    9668.7834    30.198742    879.57892   -1750.6732   -3588.8632 
15030000    189.45718   -4979.5223   -4600.5845   -4979.5223            0    7703.7431    17.732874    22.983064    19.239958    7841.3562    7968.1275    7918.9885    7224.1134   -829.34007    1030.6965    693.70478   -3719.5988 
15031000    193.23898   -4976.3927   -4589.8909   -4976.3927            0    8085.5236    18.111035    22.434671    19.341503    7858.7451    5743.2064    8936.2753    9577.0891   -214.65591   -557.42816   -834.90795    -3663.195 
15032000    187.06486   -4976.7322   -4602.5794   -4976.7322            0    8336.0802    17.940923    22.649928    19.315608    7849.1027    7565.5757     9214.986    8227.6789    1033.7277   -597.99472     399.2209    -3648.339 
15033000    188.76595   -4982.2126   -4604.6574   -4982.2126            0    9698.4802    17.746886    23.158912      18.9519     7789.204    8908.7796     8719.343    11467.318    257.61988   -651.57402    718.80455   -3502.9338 
15034000     183.8263   -4998.0807   -4630.4054   -4998.0807            0    9739.2555    17.828813    22.872329    19.148877     7808.653    9278.5556    10652.243    9286.9679   -842.32839    641.83038    1009.4889   -3521.2874 
15035000    187.81062   -5012.5966   -4636.9522   -5012.5966            0    8024.7488    17.956502    22.590411    19.305488    7831.1699    6163.3197    8577.1267    9333.7999   -69.465871   -1512.3021    -187.1199    -3720.449 
15036000    183.73404   -5000.6118    -4633.121   -5000.6118            0    9263.3654    17.892238     22.72107    19.195753     7803.665    7199.3295    10039.941    10550.826    212.03854    -336.8671    124.28365   -3578.8718 
15037000    181.16872   -4973.8524   -4611.4925   -4973.8524            0    8832.6914    17.731457    23.177829    19.051708    7829.8076    7937.0488    8489.9778    10071.047    -547.4426   -161.75466    78.127148   -3602.8901 
15038000    191.47816   -4998.7478   -4615.7678   -4998.7478            0    7374.0607    17.861997    22.988349    19.128126    7854.3495    5838.5621    8441.8495    7841.7705    357.12941    416.53201     166.0618   -3771.0866 
15039000    193.96855   -5006.5364   -4618.5753   -5006.5364            0    8451.4138    17.927883    22.529413     19.38621    7830.1809    8022.9335    8795.5533    8535.7547   -367.99972    -13.22755    747.37061   -3653.4648 
15040000    187.98993   -4989.3247   -4613.3216   -4989.3247            0    6755.2884    17.935674    22.694204    19.355604    7878.4243    7522.5982    6773.8419     5969.425    152.01542   -462.58857    424.91651   -3837.1475 
15041000    190.81868   -4991.2202   -4609.5592   -4991.2202            0     8413.124    17.786381    23.018032    19.132597    7833.0284     9490.472    6802.1994    8946.7006    502.21101    47.052385   -75.652898   -3648.4718 
15042000    192.77992   -4995.4011   -4609.8174   -4995.4011            0    9427.0126     17.89459    22.886658    19.088754     7817.749    8327.4467    9260.3518    10693.239    800.33423    430.98204   -710.64715   -3535.0074 
15043000    192.31805   -4979.8209    -4595.161   -4979.8209            0    9601.6676    18.017937    22.684552    19.094122     7804.318     8463.993    9776.9415    10564.068   -304.24535     1017.499    365.93701   -3502.3187 
15044000    185.11694   -5004.7581   -4634.5013   -5004.7581            0    7271.5598    18.189634    22.424214    19.255902    7854.2559    5606.2153    7978.6935    8229.7705   -129.09868    300.80431   -192.30625   -3801.5713 
15045000    183.43484   -5003.5635   -4636.6712   -5003.5635            0    8824.0639    17.978702    22.517238    19.270748    7801.3905    8917.6843    9732.2847    7822.2226   -929.87567    361.22181   -507.34177   -3632.7108 
15046000    179.44946    -4986.808   -4627.8869    -4986.808            0    8814.2286    17.805931    22.882606    19.199639    7822.8179    7613.8319    8672.8203    10156.034    118.24105    193.60753   -555.02478   -3622.2912 
15047000    186.71222    -4990.781   -4617.3335    -4990.781            0    7806.9548    17.789544    23.148235    19.083557    7858.5428    8561.5324    7345.9661    7513.3659    334.40886    65.837326   -1015.2307   -3722.5879 
15048000    189.86273   -5009.9684   -4630.2194   -5009.9684            0    9572.7594    17.879005    22.634844    19.264928    7796.2942    11240.773    8787.9936    8689.5113   -254.18824   -2120.0378    777.41551   -3541.7876 
15049000    190.00623   -4979.2474   -4599.2115   -4979.2474            0    8427.8613    17.875718    22.681522    19.374743    7855.4602    8273.9065    8931.2937    8078.3836   -1415.4286    309.99972   -27.097073   -3633.6834 
15050000    183.27291   -4998.7956   -4632.2271   -4998.7956            0    9281.5442    17.818335    22.832377    19.230892    7823.7988    9314.9262    8372.1521    10157.554   -2119.7744   -625.88964     157.4412   -3573.1836 
15051000    195.88911   -4961.8232   -4570.0208   -4961.8232            0    7467.6793    17.974969     22.84501    19.159939    7867.8056    6440.2087    7452.0294    8510.7999   -921.39716    428.06898   -101.03751   -3713.1503 
15052000    189.29692   -5008.1772     -4629.56   -5008.1772            0     8049.756     18.12794     22.53557     19.18691    7838.3032    6456.6538    9389.2229    8303.3913    1047.6709    492.68725    532.04787   -3709.3633 
15053000     180.1491   -5003.2709   -4642.9504   -5003.2709            0    8078.8022    17.921911    22.710135    19.228066    7825.9963    8718.6467    8624.3773    6893.3827   -1449.3259     525.7431   -1221.8282   -3720.8834 
15054000    201.61053   -4998.4645   -4595.2185   -4998.4645            0    6828.6918    17.917849    22.880853    19.212488    7876.6525    8351.7648    5603.7798    6530.5307    -101.8698   -905.44386    1963.2937   -3810.7869 
15055000    191.73977   -4988.3781   -4604.8748   -4988.3781            0    7819.3272    17.908377    22.881983      19.1992    7867.4325    8035.2497     7070.218     8352.514    1664.6716   -430.08011    94.028984   -3707.6975 
15056000    199.27539   -4980.4823   -4581.9069   -4980.4823            0    9519.9073    17.807448    22.848236    19.253974    7833.8411    12302.829    8460.8532      7796.04   -598.60033    790.13133    792.63767   -3494.2714 
15057000     176.3504   -4984.9057   -4632.1832   -4984.9057            0    9542.7485    17.826395    22.711636    19.299373    7813.6714     9945.697    9692.9208    8989.6277    209.10972    418.30988    639.61483   -3544.7451 
15058000    186.97982   -4989.9636   -4615.9809   -4989.9636            0    7813.3035    17.845487     22.82321    19.272497    7849.5206    8132.2555    7900.8897    7406.7654    50.080423    943.72104   -138.55245   -3721.5357 
15059000    191.21904   -5007.2878   -4624.8261   -5007.2878            0    7331.2316    17.842083    23.086959    19.089509    7863.3398    6322.9325    7452.1521      8218.61    94.193035      336.158   -323.41947   -3784.0897 
15060000    186.52174   -4992.6854   -4619.6189   -4992.6854            0    8923.3331    17.911118    22.724987    19.257328    7838.3088     9946.577    8718.6116    8104.8106   -1036.7736     602.6565   -1797.1883   -3599.5598 
15061000    200.05235   -4998.1391   -4598.0097   -4998.1391            0    9188.3794    17.936806    22.438929    19.441027    7824.6775    10032.077    9964.2352     7568.826   -202.85108   -23.870904    1425.7458   -3549.4787 
15062000    193.24387   -4966.7864   -4580.2748   -4966.7864            0    8103.5065    17.941415    22.714064    19.310325    7869.3909    8797.4137    7562.3748    7950.7309   -1654.6447   -1643.2409     698.2818   -3650.2598 
15063000    196.50178    -4981.613   -4588.5851    -4981.613            0    6963.7072    17.892695    22.985305    19.111403    7859.9286    5625.0737    7352.1092    7913.9387     105.5008   -1405.9518    775.39302   -3790.3423 
15064000    183.17017   -4983.8113   -4617.4483   -4983.8113            0    7875.4404    17.769308    22.887436     19.27138     7837.553     8841.248    7288.2821     7496.791     471.1793   -1647.4969   -834.50641   -3717.2645 
15065000     184.6399   -5000.6613   -4631.3586   -5000.6613            0    9408.3476    17.897191    22.663158    19.265958    7814.4047    9579.7343     8709.959    9935.3493    501.17249   -712.29582   -1660.4275   -3559.1356 
15066000    190.58735   -4980.4694   -4599.2712   -4980.4694            0    6317.3309    17.990104    22.787009    19.232939    7884.3636    5191.0809     7121.241    6639.6708   -372.01054   -467.50565   -10.694465   -3872.8707 
15067000    186.17986   -4986.5397    -4614.157   -4986.5397            0     10150.39    17.787447    22.870282    19.088718    7765.3659    9193.5348     10603.55    10654.087   -165.68089    656.28198   -336.36773   -3464.6263 
15068000    189.78556   -4995.1226   -4615.5281   -4995.1226            0     7670.316    17.906035     22.88166    19.229837    7878.8449    9091.1555    7616.9657    6302.8267   -878.38373      303.303   -7.3663996   -3734.1714 
15069000    183.36001   -5009.0717   -4642.3291   -5009.0717            0    7607.3503    17.859092    22.886979    19.207116    7850.7293    8357.1105     7429.827    7035.1135    1045.8618   -355.29015    482.48546   -3771.3268 
15070000    188.21585   -4986.7581   -4610.3032   -4986.7581            0    7065.4943    17.937441    22.713777    19.352838    7884.8694    7478.7321    7348.5267     6369.224    1072.6092    1092.7619   -449.60644   -3797.8227 
15071000     193.4577    -4989.591   -4602.6517    -4989.591            0    10890.232    17.858542    22.616406    19.243065    7772.1973    11898.015    11395.341     9377.341    1310.0856    492.73013    1044.9376   -3368.2491 
15072000    191.91901    -4960.218   -4576.3563    -4960.218            0     8039.679    18.040844    22.657833    19.215035    7854.4613    5788.5034    9376.9765    8953.5571    368.56581    957.70777    298.10844    -3655.417 
15073000    182.94785   -5010.6832   -4644.7649   -5010.6832            0    7847.0596    18.039915    22.672523    19.201802    7853.7364    6579.6108    8612.5208    8349.0471   -1043.1488     458.2991   -310.14336    -3745.973 
15074000    189.05382   -5021.7513   -4643.6203   -5021.7513            0    8670.4915     17.88207    22.816509    19.166158    7819.9155    7777.9922    8413.7185    9819.7638    239.55164    114.41814   -566.22744   -3654.7902 
15075000    190.97349    -5003.058   -4621.0874    -5003.058            0    7490.6435    17.805906    22.887486    19.290956    7861.6901    8191.8028    7073.3354    7206.7924      1061.91    27.718375    190.96365     -3762.25 
15076000    198.61837   -4997.8457   -4600.5844   -4997.8457            0    10035.825    17.866157    22.651332    19.227929    7781.3939    8634.2556    11370.017    10103.201   -1219.6472    1233.1742    318.10067   -3461.6824 
15077000    181.41033   -5010.2991    -4647.456   -5010.2991            0    8566.3671    18.022169    22.630772    19.264471    7857.1224    9245.5564    9400.7736    7052.7713   -472.89365    697.85484   -1076.6363   -3665.8525 
15078000    193.72646   -4959.0131   -4571.5362   -4959.0131            0    10565.155    17.837376    22.879603    19.119056    7802.7178    10811.293    9925.9222    10958.251   -934.93482    376.59926    683.14072   -3369.2782 
15079000    184.41261   -4990.4096   -4621.5615   -4990.4096            0    8470.6853    17.784406    22.818016    19.231739    7804.3331     8574.898      9071.43    7765.7278   -477.76499    3.5066615   -145.47912   -3657.4435 
15080000    193.44907   -4982.9089   -4595.9868   -4982.9089            0    8305.7513    17.925613    22.881773    19.142518    7851.6832    5206.0905    8719.2211    10991.942     425.2216      360.806   -434.30854   -3644.9057 
15081000    189.99165   -4988.5066   -4608.4998   -4988.5066            0    8725.3085    17.960225    22.815173    19.127654    7837.8557    8787.6578    8250.1465    9138.1213    947.53577   -177.18416    -537.6658   -3611.1352 
15082000    185.41811   -5000.1793   -4629.3202   -5000.1793            0    8332.1027    18.084845    22.601212    19.129135    7818.8315     7255.304    8140.7307    9600.2735    254.94576   -230.05296    1720.1277   -3679.2135 
15083000    185.86416   -4978.1867   -4606.4354   -4978.1867            0    9297.4037    17.866666    22.694099    19.315987     7832.012    9908.8519    9214.9594       8768.4   -1501.5935    854.12299    1459.4073   -3544.4686 
15084000    189.57724   -4964.2717   -4585.0938   -4964.2717            0    9894.9991    17.777352    22.906337    19.191766    7815.1559    9508.5826    9470.9397    10705.475     1559.988   -134.76416    575.02425    -3457.301 
15085000    175.18489   -4978.8006   -4628.4091   -4978.8006            0    7829.4083    17.814394     23.09339    19.073816    7846.8674    9944.7268    6676.3786    6867.1195   -150.32161   -1170.2529   -1068.0376   -3732.4233 
15086000    182.37135   -4985.9908   -4621.2256   -4985.9908            0    9189.6409    17.836978    22.798973    19.186007    7802.2734    10418.803    9143.3103    8006.8098   -510.82694   -507.72764   -276.10188   -3575.5533 
15087000    187.97309   -5010.2634    -4634.294   -5010.2634            0    7473.6813    17.898487    22.780029    19.282441    7861.9919    7616.6954    7805.7774    6998.5712    200.94055   -560.73913    -49.18226   -3777.3685 
15088000    193.83206   -5006.9205   -4619.2325   -5006.9205            0    6946.8745    18.056762    22.693263    19.262714    7893.2215    4933.7723    8130.2522    7776.5988    738.45567   -22.622733    2296.5289   -3819.5462 
15089000    177.08474   -5000.0103    -4645.819   -5000.0103            0    8224.6193    17.769689    22.959085    19.151938    7813.5271    9575.0235     7986.742    7112.0925    656.33542   -899.10334    1106.5602   -3708.6049 
15090000    181.60986   -4982.7092   -4619.4671   -4982.7092            0    10165.334    17.734778    22.977683    19.130427    7795.7278    10381.303    9705.9521    10408.747    334.56329   -253.38566    253.26551   -3463.7429 
15091000    183.48839   -4985.3993   -4618.3999   -4985.3993            0    9225.2987    17.833126    22.789749    19.191112    7799.5073    9099.0144    9388.5118      9188.37   -244.83563   -174.26792   -473.42857   -3569.0423 
15092000    187.15879   -5004.1567    -4629.816   -5004.1567            0    7395.4624    18.019874    22.557719    19.313625    7850.7425    7249.4672    7705.8206    7231.0995    1007.5939    -332.3437    840.01911   -3783.0724 
15093000    201.23527   -4992.6596   -4590.1642   -4992.6596            0     8934.168    17.941932    22.614694    19.274992    7820.8532    8811.2093    10048.905    7942.3891    1395.5542   -41.418972    475.04249   -3571.1409 
15094000    188.40508   -4995.1029   -4618.2695   -4995.1029            0    7347.9523    17.861796    23.025009     19.06281    7839.9242    7933.9462     6150.634    7959.2768    209.02734   -368.32925   -481.63211   -3778.1248 
15095000    176.83939   -4993.2617    -4639.561   -4993.2617            0    7971.3142    17.869111    22.881064    19.059068     7792.572    8857.9096    7539.2235    7516.8095   -1090.8553   -155.39259   -46.015789   -3733.6477 
15096000    184.93316   -4975.4868   -4605.5977   -4975.4868            0    10093.411    17.851871    22.674637    19.238014    7787.2538    9410.4614    9809.4141    11060.357   -238.15168    30.844299    911.44347    -3459.298 
15097000     187.1173   -4988.1626   -4613.9049   -4988.1626            0    8528.2269    17.748985    22.823029    19.291266    7814.6138    8255.5069    8653.3546    8675.8191    -298.0194   -699.33588    1136.4767   -3641.9588 
15098000    192.56394   -4992.0984   -4606.9468   -4992.0984            0    11239.725    17.795268    22.756873    19.166106    7761.5953    13339.346    10150.225    10229.604   -56.417921   -1538.2001    977.26361   -3334.6671 
15099000    182.85316   -4981.4368   -4615.7078   -4981.4368            0    9863.1371    17.883619    22.871265    19.078073    7803.3321    10556.972    9760.4592    9271.9804   -1211.8265   -515.48957   -878.73525   -3493.2474 
15100000    188.61731   -5002.9355   -4625.6776   -5002.9355            0    6809.6998    17.949259    22.784201    19.277431    7883.6889    6086.6165    7085.5022    7256.9809    2089.6106    482.21262   -101.24846   -3842.7289 
15101000    178.77718    -5007.426   -4649.8495    -5007.426            0    7528.2305    17.924626    22.691018    19.254757     7831.449    7124.4622    6940.7621    8519.4672    138.87917   -1308.3552    417.04373   -3790.0229 
15102000    189.78083    -4995.041   -4615.4559    -4995.041            0     8492.153    17.882825    22.739854    19.268057    7835.4099    8631.7799    8463.9312     8380.748    763.69266    -1053.071    198.50763   -3645.0456 
15103000    190.07891   -4978.5208   -4598.3395   -4978.5208            0    9663.1378    17.826784    22.593194    19.345334    7791.6043      9871.81    9897.2157    9220.3877    246.45834   -895.55115   -689.91771   -3500.2925 
15104000    191.59721    -4994.713   -4611.4949    -4994.713            0    6523.2401    17.874055    22.743523    19.379718    7878.2236    7196.2981     6530.737    5842.6852   -179.03097   -902.33465    2553.0008   -3862.0019 
15105000    195.35976   -4972.5237   -4581.7801   -4972.5237            0    7916.8113    18.124837    22.582971    19.194115    7856.3947    7292.2463    7765.9105    8692.2773   -456.94522   -288.65726    561.79695   -3674.6919 
15106000    182.40068   -5002.7638   -4637.9399   -5002.7638            0    7177.4437    17.974782    22.717779     19.26048    7864.9617    7821.2992    7033.0472    6677.9848    189.41063    344.96818    608.72962   -3814.6699 
15107000    190.13274   -4988.0292   -4607.7402   -4988.0292            0    7515.5669    17.716562    23.017283    19.228776    7841.2473    7256.2374    5984.6854    9305.7778   -855.40328    129.08239   -300.96887   -3748.2859 
15108000    197.27685   -5002.0504   -4607.4723   -5002.0504            0    7162.8079    17.775691    23.103735      19.1654    7870.9394    7448.8055    7205.4222    6834.1961    1151.7339    489.79059    1867.1742   -3785.2566 
15109000    182.21047   -4995.9934   -4631.5499   -4995.9934            0    6070.9463    17.868069    22.829542    19.371403    7901.9793    7169.6057    5948.1482    5095.0849    862.44877   -903.55113    570.39432   -3931.9203 
15110000    189.18968   -4973.9047    -4595.502   -4973.9047            0    9397.0394    17.957063     22.52939    19.273384    7797.2727      10662.3    8109.2377    9419.5804   -478.29348    -514.5617    191.68486   -3526.9156 
15111000    189.10349   -4960.9338   -4582.7035   -4960.9338            0     8485.956    18.030098    22.610003    19.267267    7854.5052     9148.461    9002.0535    7307.3535   -1739.0061   -323.83571    -474.8101    -3610.638 
15112000    185.41662    -4980.437   -4609.5809    -4980.437            0    9033.1548    17.843638    22.629849    19.385857    7827.9866     10552.01    9364.8253    7182.6291   -410.94754    340.88073    1001.9896   -3578.3274 
15113000    185.16998   -5000.1434   -4629.7806   -5000.1434            0    8226.2593     17.86227    22.893307    19.178744     7842.695    8510.2577    8843.0617    7325.4585    414.37748    555.08816     385.7915   -3688.8803 
15114000     185.1657   -4973.4455   -4603.0913   -4973.4455            0    8872.2001    17.849196    23.062423    18.983909    7814.6445    9980.0646    7286.5777    9349.9581     530.9253   -1575.0437    245.39144   -3591.9393 
15115000    179.08634   -4972.6532   -4614.4584   -4972.6532            0    8641.4796    17.748548    22.970185    19.180648    7819.7093    9008.5508    8946.4164    7969.4717    790.42897   -118.99663    1911.2006    -3628.963 
15116000    180.89114   -5001.5523   -4639.7477   -5001.5523            0    8140.4113    18.021142    22.516769    19.385691    7866.2851    6137.2001    9395.3893    8888.6446    411.92307    680.48746   -2258.1515   -3705.8659 
15117000    178.84822   -5002.6201   -4644.9015   -5002.6201            0    8020.0207    17.947724    22.636312      19.2703    7828.9504    8862.6669    7761.4137    7435.9815    -242.8308   -798.25323   -279.49449   -3729.1979 
15118000    183.28794   -4996.3392   -4629.7407   -4996.3392            0    7760.0107    17.671606    22.906601    19.365204    7838.9655    9517.1892    7022.5937    6740.2493    462.32256   -202.95183    1790.0325   -3742.5909 
15119000    181.00067   -4998.9686   -4636.9449   -4998.9686            0    8314.3876    17.756156    22.967464    19.209058    7833.7204    8337.6653    8836.6597    7768.8378   -25.710083    521.92159    131.00669   -3687.0529 
15120000    182.74716   -4990.5308   -4625.0139   -4990.5308            0    7772.1234    17.947523    22.744786    19.254375     7859.878    7550.8269    7120.1197    8645.4237    213.74436   -520.96853      1687.87   -3734.1089 
15121000    183.86744    -4994.614   -4626.8564    -4994.614            0    9264.2064    17.924518    22.725923    19.165131    7806.9394    8363.0718    9480.8267    9948.7208    76.504597   -241.22726     1500.662   -3572.0691 
15122000    195.59894   -4984.7633   -4593.5413   -4984.7633            0    7512.8404    17.911671    22.741572     19.24077    7837.5268     6825.348    8232.1405    7481.0326   -46.915405   -611.30061   -1447.9086   -3734.8064 
15123000    189.06795   -4994.0108   -4615.8516   -4994.0108            0    8509.2683    17.825904    22.849888    19.183398    7813.7803    8076.3083    8705.5443    8745.9523    284.45582    124.48647    503.47121   -3646.1696 
15124000    196.47229   -5000.6318   -4607.6629   -5000.6318            0    7301.7362    17.818284    22.936304    19.208271    7850.1432    8514.9639    6762.5739    6627.6708   -276.55512     16.49929   -640.18937   -3771.7142 
15125000    193.07141   -4983.4744   -4597.3077   -4983.4744            0    9434.5402    17.772919    22.845496    19.243212    7813.3436    10418.653    9731.8737    8153.0941    157.07889    874.20004      -463.92   -3522.2456 
15126000    188.91906   -5006.6094   -4628.7479   -5006.6094            0    8193.5535    17.948206    22.586968    19.310696    7828.4703    8418.4207    9412.5912    6749.6487   -1655.7725    1160.2111   -533.75313   -3693.2882 
15127000    186.67257   -4996.7449   -4623.3767   -4996.7449            0    9418.1383     17.91432    22.716133    19.163542    7798.4897    7698.0482    9943.0504    10613.316   -1342.1172    604.87664   -674.16344   -3552.2238 
15128000    183.09366   -4994.8169    -4628.607   -4994.8169            0    10013.543    17.952277    22.672624    19.177989    7805.9254    10155.074     9765.323    10120.232    1179.1246    1565.3773   -1119.5685   -3488.6511 
15129000    199.03613   -4980.0012   -4581.9043   -4980.0012            0    9849.2162    17.923819    22.628658    19.226237    7798.0073    10403.641    9414.4948     9729.513    741.46383    340.76228    342.98866    -3461.793 
15130000    179.39117    -5000.234   -4641.4295    -5000.234            0    8200.5777    17.903189    22.819382    19.172267    7832.6326    8758.7315    7355.4267     8487.575    800.96218    62.751776   -104.35895     -3704.67 
15131000    180.32687   -5004.1121   -4643.4361   -5004.1121            0    8196.1404    17.848858    22.822361    19.216189    7827.7738    9968.9913    7251.0715    7368.3584   -382.17268   -47.820418    -306.7963   -3707.7643 
15132000    206.38299   -5010.3936   -4597.6021   -5010.3936            0    6225.0249    17.900236    23.010547    19.201063    7908.8068    8403.0208    5391.3293    4880.7245   -85.128268    497.04227   -609.48603   -3879.5963 
15133000    189.51012    -4978.644   -4599.6003    -4978.644            0     8904.452    17.962813    22.592322    19.316164    7838.9177    7919.6011    9479.7561    9313.9989   -709.37979    1404.6665   -404.86236   -3581.6205 
15134000    189.16156   -5013.0909   -4634.7444   -5013.0909            0    8112.6966    17.898335     22.58146    19.422372    7849.9501    8037.1791     7861.483    8439.4277   -909.20537   -273.89815   -66.639716   -3705.9747 
15135000    185.59789   -4992.7052   -4621.4865   -4992.7052            0    8763.6029    17.938966    22.664334    19.245001    7824.5311    8439.5299    10419.555    7431.7239    -1326.043    534.70821   -1488.6722   -3621.4476 
15136000    199.99531     -5001.71   -4601.6947     -5001.71            0    7621.9288    17.894928    22.813053    19.259996    7862.6609    7133.8877    7929.1895    7802.7093    -216.1587    106.31042   -869.62152   -3727.6969 
15137000    176.73595   -4981.8439   -4628.3502   -4981.8439            0    6968.8012    17.669674    23.134056    19.201771    7849.1316    7441.8644    6512.4726    6952.0666    842.76375    184.28399    627.07813   -3830.6208 
15138000    185.51886   -4986.7331   -4615.6725   -4986.7331            0    8190.4405    17.816771    22.897733    19.227096    7843.9565    7811.8335    8443.6358    8315.8522   -260.51546    272.65938    1950.0494   -3678.7184 
15139000    181.41417   -5010.1883   -4647.3376   -5010.1883            0    7872.4934    18.008254    22.747755    19.166916    7851.6762    8862.8555    7310.7454    7443.8794   -151.08571    149.72363    1920.2978    -3745.869 
15140000     192.7513   -4988.6689   -4603.1425   -4988.6689            0    8789.0197     18.02195    22.701945    19.133825    7828.2853    10146.131    8373.5279    7847.4003   -1050.2003    27.501766    545.78636    -3599.722 
15141000    183.68442   -4991.2723   -4623.8807   -4991.2723            0    8120.8789    17.970135     22.72002    19.218383    7846.5167    7279.5262    8462.3927    8620.7178    354.68863    147.40854     908.2857    -3694.581 
15142000    187.31506   -4997.7052   -4623.0519   -4997.7052            0    6871.7548    17.869335    22.870852    19.269493    7875.1894    7871.3589    5520.2114    7223.6942    343.21511   -293.79754   -334.29934   -3833.8202 
15143000     185.8207   -4997.9569   -4626.2925   -4997.9569            0    9000.2643    17.741707    22.805171    19.276796    7799.4431    10023.188    9053.7639    7923.8413    823.75115    668.94105   -405.83526   -3602.5405 
15144000    185.86941   -4988.3103   -4616.5485   -4988.3103            0    9145.3037    17.836159    22.878433    19.179168     7826.316    9745.6081     8634.918    9055.3851   -1718.8235   -439.98955   -1100.5037   -3572.7146 
15145000    190.26143   -5001.7277   -4621.1814   -5001.7277            0    6636.6159    17.878282    22.955377     19.22438    7889.7373    7583.3591    5090.6707     7235.818   -1372.4873   -463.46045    228.84652   -3857.5476 
15146000    184.17694    -4993.234   -4624.8573    -4993.234            0    7323.3855     17.86056    22.904384    19.191608    7851.0015     7570.931    7666.5135    6732.7121   -167.42528   -808.32479   -185.72993   -3786.3385 
15147000    190.41951   -5023.4062   -4642.5436   -5023.4062            0    9669.9844    18.028606    22.690762    19.070551    7801.4348    9357.1079    8837.4951     10815.35   -956.91404    -1551.519   -322.04718   -3542.3322 
15148000    188.55321   -5000.7125   -4623.5827   -5000.7125            0    8061.7776    17.884733     22.74909    19.238499     7827.403    6217.3263    9337.4231    8630.5833    679.63607    711.74496   -2222.8327   -3703.2934 
15149000    200.89263   -4996.4721    -4594.662   -4996.4721            0    8326.0191    17.708272    22.975853    19.266683    7838.8938    8831.7489     6906.517    9239.7913   -203.91365   -430.33897    1052.6782    -3642.813 
15150000    186.28609   -5003.3866   -4630.7914   -5003.3866            0    7941.1553    17.847737    23.081677    19.019973    7835.3863    8355.0424    6732.5501    8735.8736   -1033.7853   -299.52532    471.44592    -3723.347 
15151000    191.17831   -4963.8552   -4581.4749   -4963.8552            0    8055.1263    17.857402    22.976533    19.141723    7853.8715    8552.2523    7160.7256    8452.4009    487.26283   -206.46757    1288.5538   -3658.8354 
15152000    180.23801   -4977.0439   -4616.5456   -4977.0439            0    8317.4218    17.942351    22.673731    19.304975    7853.6505    9017.5292    8309.9905    7624.7456   -1305.3304     405.3059   -905.93778   -3663.8894 
15153000    184.87247    -4980.727   -4610.9593    -4980.727            0    7188.6151    18.066233    22.428493    19.451025    7881.5239    7111.1583    8778.3976    5676.2894    699.01838   -1073.1688   -1287.4806   -3784.6715 
15154000    194.40767   -5004.9412   -4616.1019   -5004.9412            0    9137.9095    17.816006    22.678434     19.27968    7789.7451     10237.52    8634.5861     8541.622     578.2666    -315.3985   -177.27423   -3577.9856 
15155000    183.76901   -4995.4562   -4627.8955   -4995.4562            0    8238.6603    17.796412    23.001634    19.159569     7842.904      9427.23    8335.3978    6953.3531    151.13398    289.31082   -181.19363   -3685.5517 
15156000     173.1206   -4984.0814   -4637.8188   -4984.0814            0    7380.0617    17.799837    23.037602    19.139665    7848.5171    8869.5325    6315.6082    6955.0444   -606.50612   -1010.8983    795.43926    -3793.078 
15157000    192.67993   -5008.1257    -4622.742   -5008.1257            0    8723.5889    17.769307    22.809969    19.316254    7829.2128    10620.002    8540.2603     7010.504   -526.67925    596.67263    71.808078   -3626.6736 
15158000    192.39763   -5027.8172   -4642.9982   -5027.8172            0    7134.2912    17.816871    22.759278    19.335541    7840.5446    8677.7371    7204.1777    5520.9588    149.14046    997.83678    176.20468   -3827.2184 
15159000    185.97092   -5006.1275   -4634.1627   -5006.1275            0     6568.926    17.912514    22.983772    19.169807    7892.1548    8309.5707    5938.3077    5458.8997    291.77076    566.70435   -59.492028    -3878.086 
15160000    184.90356   -4975.4619   -4605.6319   -4975.4619            0    10853.014    17.954357    22.663803    19.138021    7787.5288     10067.68    11219.008    11272.354    186.14292    -803.3639   -739.03293   -3373.0212 
15161000    181.52884   -4991.1576   -4628.0775   -4991.1576            0    8625.6788    18.037308    22.591651     19.15382    7805.0393    8913.1973    9112.5784    7851.2608     762.9759     361.7169   -1468.5448   -3646.2295 
15162000    193.35132   -5006.2789   -4619.5524   -5006.2789            0    7208.1378    17.857192     22.92364    19.237567    7874.9336    8161.6523    6919.5413    6543.2197   -21.013064    1162.1633   -233.70563   -3791.7134 
15163000    175.90603   -4974.1613   -4622.3275   -4974.1613            0    7928.1119    17.820075    22.912473    19.268759    7867.4727    7786.0211    7714.0805    8284.2341   -1513.1348    796.95602    349.80691   -3712.6637 
15164000     184.5319   -5002.2306    -4633.144   -5002.2306            0    6748.2107     17.93214    22.880673    19.188767    7873.1403    6223.6978    7209.0561    6811.8783   -290.94507    698.50836    315.57929   -3858.3032 
15165000    186.83573   -4999.1914   -4625.4968   -4999.1914            0     8417.127    17.939248     22.81765    19.176314    7849.4692    7719.8064    7590.8642    9940.7103   -134.04293   -183.89808   -421.31013    -3661.934 
15166000    202.15287   -4995.1524   -4590.8217   -4995.1524            0    7669.3759    17.928173    22.746712    19.318272    7878.1264    6634.3635    8702.7642    7670.9999   -708.51804    1127.1361   -531.89364   -3709.6534 
15167000    186.59729    -4998.401   -4625.1834    -4998.401            0    7235.7513    17.872567     22.78455    19.307344    7862.3058    6379.9271    8342.9424    6984.3844   -268.44109    1209.6696    -1045.527   -3795.5056 
15168000    188.85967    -4985.363   -4607.6204    -4985.363            0    7800.1201    17.889891    22.886914    19.251148    7882.2747    7901.0076    6993.1203    8506.2322    317.50961   -489.62779   -901.97722   -3710.9584 
15169000    195.36901   -4981.7759   -4591.0138   -4981.7759            0     8970.024    17.883724    22.904655    19.123113    7833.2197    7645.7068    8848.8288    10415.536    449.60712    2061.8323    450.12291   -3566.2829 
15170000    189.88304   -4994.2496   -4614.4601   -4994.2496            0    7632.4315    17.974174    22.979318    19.049889    7868.2566    7310.3956    7228.2833    8358.6156    157.41787    1393.5226   -475.82383   -3738.6351 
15171000    192.26444   -4986.8125   -4602.2599   -4986.8125            0    9049.0267    17.814002    22.709574    19.292616    7804.7969    9643.7749    9392.2135    8111.0916    227.38549     1461.116   -2178.0268   -3572.2548 
15172000    189.85141   -5003.9634   -4624.2371   -5003.9634            0    7787.5902    17.639805    22.896438    19.353907    7816.8245    8568.1299    7642.2192    7152.4216    1275.5123   -437.96142   -154.55768    -3736.449 
15173000    190.62209   -5012.8135   -4631.5457   -5012.8135            0    8884.4323    17.868734    22.731442    19.197109    7797.5221     9204.047    8802.5309     8646.719   -503.33916   -25.060021    600.03794   -3621.2182 
15174000     181.0451   -4990.6673   -4628.5547   -4990.6673            0    8027.2687     18.05426    22.615436    19.238964    7855.3649    7168.7344    8130.5554    8782.5164    794.57614   -299.60585    402.41885   -3708.9312 
15175000    185.92541   -4995.1455   -4623.2717   -4995.1455            0    7918.6956    18.066972    22.666743    19.148757    7841.7877    6785.1994    8316.2741    8654.6134   -206.77677    28.748133    150.99933   -3717.6546 
15176000     183.7494   -4992.0398   -4624.5183   -4992.0398            0    7789.7689    17.791498    23.170337    18.988009    7827.5222    8213.8565    6830.8321     8324.618    342.52155   -120.77237   -147.15422   -3735.2665 
15177000    189.19857   -4981.7155    -4603.295   -4981.7155            0    9297.8522    17.739101    22.953844    19.219688    7825.8832     12003.12    7881.9172    8008.5191    348.34085    271.37711    753.38109   -3542.1081 
15178000     192.1301   -4996.7873   -4612.5034   -4996.7873            0    7747.0024    17.908846    22.671414    19.347638    7855.5062    7071.6392    8073.9784    8095.3897    947.33021    -190.9808   -1054.4056   -3724.9719 
15179000    192.06379   -4988.7223   -4604.5709   -4988.7223            0    7826.2456    18.011441    22.613188    19.298344    7860.1401    6131.0834    8050.0062    9297.6471    1349.7563    427.74278    784.92358   -3707.4321 
15180000    187.58687   -4993.5124   -4618.3155   -4993.5124            0    7305.6073    17.919282    22.850004    19.237799    7877.0253    5036.8886     8484.546    8395.3874   -283.67848    511.04402   -1400.9399   -3779.0595 
15181000    189.48368   -5004.7326   -4625.7418   -5004.7326            0    9268.1075    17.835439    22.980576    19.097615    7827.5136    11277.253     8435.682    8091.3879    538.18176    365.59527    1395.1429   -3567.7293 
15182000    193.13159   -4982.2134   -4595.9264   -4982.2134            0    11780.775    17.832886    22.710381    19.125329    7745.5981    11297.059      11460.3    12584.965    1462.9835   -936.24528    799.41493   -3265.1512 
15183000    185.69701   -5012.7988   -4641.3818   -5012.7988            0    6825.4193    17.923972    22.749355    19.321788    7878.6291    6272.5612    7164.6112    7039.0855    951.57374   -818.84029    16.736854   -3857.1294 
15184000    180.18515    -5005.128   -4644.7355    -5005.128            0    7930.2111    17.968394    22.653853    19.290382    7852.2146    7269.3107    8192.3999    8328.9226   -1150.5768   -1110.8574   -1319.2233   -3736.5955 
15185000    188.66605   -4978.3707   -4601.0153   -4978.3707            0    7872.6525    17.898623    22.787213    19.311155    7876.2429    7683.0628    8174.6502    7760.2444   -687.22995   -335.38914   -582.67586   -3696.7079 
15186000    192.44585   -4991.3629   -4606.4475   -4991.3629            0     7161.426    17.794669    23.090616    19.147966    7867.7054    6258.2404    7286.9668    7939.0708    272.13804   -648.91789     78.85298   -3784.7282 
15187000    182.43982    -4991.861   -4626.9588    -4991.861            0    7878.2528    17.821881     23.11093    19.018015    7833.1443    7602.8733    7413.9837    8617.9015   -2093.3726   -498.47487    142.43811     -3726.96 
15188000    190.02922    -4977.614   -4597.5321    -4977.614            0     9088.375    17.942688    22.739009    19.095707    7791.0283    7306.6392    10101.096    9857.3896    1720.3704    523.63891    135.58766   -3564.8731 
15189000    180.66598   -5005.3336   -4643.9793   -5005.3336            0    7945.0721    17.935894    22.730908    19.231657    7840.7303    8740.2551     7853.925    7241.0361    -233.9591    140.15977    -1033.658   -3735.4682 
15190000    193.52975   -4967.5156   -4580.4322   -4967.5156            0     9174.332    17.716542    22.978557    19.228706     7828.017    10100.107    9466.6612    7956.2277    325.29339    368.72458    632.77391   -3533.0575 
15191000    195.36388   -4997.3539    -4606.602   -4997.3539            0    9780.8047     17.78687    22.719896    19.283636    7792.8228    10336.808    9511.3682    9494.2382   -168.83796   -264.24435   -1260.4562   -3495.0104 
15192000    195.03795   -4993.1218   -4603.0218   -4993.1218            0    8509.0371    17.965155    22.658623    19.211749    7820.4434    8558.6299    8133.8323    8834.6489   -691.73042   -109.83879   -1308.6611   -3632.5394 
15193000    187.98084   -5006.9706   -4630.9857   -5006.9706            0    5403.2818    18.064372    22.789107     19.22787    7915.5544    4675.8339    5418.8993    6115.1121    213.77677    218.79575    989.13685   -4007.2295 
15194000    178.99785   -4972.7056   -4614.6878   -4972.7056            0    7413.3629    17.908049     22.70486    19.327254    7858.4567    7861.3609    7412.1802    6966.5476   -655.26026    -104.7377   -544.34539   -3765.0606 
15195000    190.48141    -4998.905   -4617.9187    -4998.905            0     7178.086    18.045155    22.549866    19.366464    7880.5209    7056.8218    7600.3172    6877.1191    1096.3146     1056.964    100.49951   -3792.9462 
15196000    185.71556   -4995.9366   -4624.4825   -4995.9366            0    9267.0795    18.011657    22.710823    19.088117    7808.1765    9442.7851    9700.5979    8657.8554    1740.9895    352.42859    80.816599   -3569.2008 
15197000    185.62934   -4986.3643   -4615.0827   -4986.3643            0    8340.6333    17.855867    22.954544    19.148492    7848.4553    7370.9049    8358.3667    9292.6282    605.70488    817.78035     1150.473   -3660.3999 
15198000    183.50087   -4988.3233   -4621.2988   -4988.3233            0      9003.92    17.800912    22.694907    19.418065     7844.705    9709.3802    8987.3114    8315.0683    203.01937   -23.955854    710.83698   -3591.1876 
15199000    184.97087   -4977.1155   -4607.1509   -4977.1155            0     7156.151    18.017971    22.579913    19.377474     7883.613    8144.7789    6628.8573    6694.8168    74.696998    -48.77462    576.65311   -3784.3767 
15200000    193.00725   -5002.8493    -4616.811   -5002.8493            0    9873.2914    17.974365    22.551896    19.201342    7783.3794    10029.545    9934.8081    9655.5207    597.12053   -243.08584   -789.19334    -3496.068 
15201000    194.33499    -5005.904     -4617.21    -5005.904            0    8011.3797    17.885112    22.767513    19.253789    7840.1336     8177.023      8079.84     7777.276    1112.1204   -794.48642   -789.64719   -3701.1864 
15202000    189.20846   -4997.9537   -4619.5134   -4997.9537            0    9392.8821    17.830286    22.777906    19.227214    7808.8749    10737.934    8571.5727    8869.1392    836.97382   -30.510117    352.14106   -3549.8104 
15203000     180.1334   -4995.9747   -4635.6856   -4995.9747            0    7498.7352    17.950919    22.881147    19.089249    7840.6726    7906.6751     6590.034    7999.4966   -856.55667    -588.2839   -470.33821    -3778.219 
15204000    185.03291   -5011.2524   -4641.1637   -5011.2524            0     7873.699    17.938573    22.756159    19.118555    7804.4428    6565.9108    7182.7419    9872.4442     386.6071    -1023.215    1026.2578   -3744.9809 
15205000     180.1017   -4998.5012   -4638.2756   -4998.5012            0    9070.1766    17.898623    22.769682    19.251422    7845.8392      8857.04    9522.6604    8830.8293    188.50888    533.65443    332.71114    -3600.434 
15206000    182.55987   -4997.4708   -4632.3286   -4997.4708            0    8622.4278    17.882338    22.678816    19.309005     7830.772    7391.1589    8929.2419    9546.8825    -2060.347    -338.6718   -294.19442   -3647.6147 
15207000     192.3074   -5002.7469   -4618.1084   -5002.7469            0    7591.8515    18.036993    22.741542    19.163975    7860.8523    5162.0892    8582.3634    9031.1018   -702.42227    49.764682   -681.17236   -3747.7598 
15208000    196.08538    -4995.159    -4602.964    -4995.159            0    8325.3794    17.986536    22.758537    19.124231    7828.4517    7831.2308     8163.511    8981.3963    -75.19037   -696.36938     -617.057   -3652.4559 
15209000    186.83519   -4993.2786   -4619.5851   -4993.2786            0    6548.0603    17.967026    22.700137    19.308752    7875.1506    6072.5185    6686.9323    6884.7301    474.64993   -568.29651   -551.60858   -3867.5339 
15210000    195.08843   -4989.4739    -4599.273   -4989.4739            0    8955.7066    17.757065    22.803082    19.326257    7825.5067    10100.096    8294.2376    8472.7859    503.63186   -306.30447   -1890.8259   -3577.1851 
15211000    190.55654   -4991.5584   -4610.4217   -4991.5584            0    8733.7097    17.780709    22.829911    19.264125    7819.9246    11442.042    8143.5813    6615.5056    4.4830988   -131.59567   -296.26994   -3614.3808 
15212000    187.89666   -4994.8678   -4619.0512   -4994.8678            0    7621.8014    17.834954    22.835571    19.268829    7847.6421    8074.6902      7675.35    7115.3641    124.90753    1028.8216    2021.3335   -3746.7375 
15213000    190.33686   -4994.6705   -4613.9733   -4994.6705            0    9270.7183    17.881021    22.777141    19.186042    7814.0631    9411.2866    9991.6204     8409.248    859.56468   -189.59108      1781.82   -3557.4813 
15214000    188.37767   -4996.9954   -4620.2168   -4996.9954            0    9402.2404    18.008662    22.768389    19.064255    7816.8826    8602.9987     9452.499    10151.224    1021.0159    283.48727    123.24994     -3548.35 
15215000    171.87401   -4995.5688   -4651.7996   -4995.5688            0    7810.2804    18.080895     22.71103    19.082611    7836.0024    6552.0463    8377.4796    8501.3152   -530.23897   -403.98619   -872.85611   -3759.2403 
15216000    188.12805   -4997.6108   -4621.3314   -4997.6108            0    7446.4862    17.956377    22.702478    19.227488    7838.1673    6271.4844    6877.9413    9190.0328    738.01923   -3.6224226   -1136.0495   -3770.1114 
15217000    184.95713   -5008.4238   -4638.4867   -5008.4238            0    8471.9017    17.701854    22.828565    19.306561    7801.9346    11183.866    6614.3023    7617.5364   -646.75446   -956.88585   -824.40659   -3674.5265 
15218000    188.03003   -4977.6138   -4601.5306   -4977.6138            0    9486.1565    17.652059    22.949173    19.254697    7800.0808    11028.148    8615.9548    8814.3664   -721.02325   -113.66646    873.79018   -3522.4216 
15219000    183.43662   -4984.8811   -4617.9852   -4984.8811            0    8107.2542      17.8384    22.813299    19.176541    7803.9459    7836.1422     8797.752    7687.8686   -1038.8698    -42.49433    966.03602    -3695.278 
15220000    181.00178   -5004.4555   -4642.4296   -5004.4555            0    7155.9262    18.095114     22.53106    19.255111    7850.3494    6568.0061    6989.5687    7910.2038   -786.16187   -1361.4979    -392.1687   -3823.1527 
15221000    185.61193   -4986.4053   -4615.1585   -4986.4053            0    9464.4719     18.00236    22.573651    19.195861    7800.7943    7432.3475    10756.199    10204.869   -268.86959    693.76364    1289.0197   -3538.4179 
15222000    178.06595   -4997.6041   -4641.4502   -4997.6041            0    8188.4055    17.793144    22.913997    19.156144     7810.191    7888.4103     8467.014    8209.7922   -404.36632    369.38383    880.61328   -3708.7611 
15223000    178.37091   -5000.9692   -4644.2054   -5000.9692            0    7141.4651    17.731111    22.958244    19.313064    7861.8686    7270.2695    7039.0607    7115.0652     632.2875    141.85935    570.57868   -3825.3843 
15224000    188.01705   -4993.3501   -4617.2928   -4993.3501            0    8262.7979    17.787904    22.759368    19.339151      7829.29    9003.1002    9087.1245    6698.1689    310.27441    241.69934   -249.19609   -3673.8286 
15225000    187.47127   -5010.3853   -4635.4196   -5010.3853            0    8633.9425    17.985822    22.643358    19.211093    7823.8985    8903.0294     8572.271    8426.5269   -549.77871   -6.8651488   -158.10929   -3650.2563 
15226000    188.15211   -5003.8957   -4627.5682   -5003.8957            0    7547.2372    18.179043    22.667786    19.127033     7881.842    7428.8477     7046.944    8165.9198    715.79277   -1050.8899    446.54188    -3760.024 
15227000    203.09068   -4984.6997   -4578.4933   -4984.6997            0    6495.6605    18.066788    22.724251    19.236521    7897.6352    7385.8509    6194.8492    5906.2815    107.65643   -177.28274    1056.7842   -3830.3302 
15228000    196.58656   -4992.0737   -4598.8763   -4992.0737            0    8695.7866    17.794624    22.683561    19.384653    7824.5273    10476.972    8070.8106    7539.5768    1426.8356   -1377.3192     651.4346   -3606.5765 
15229000     196.3591    -4995.661   -4602.9186    -4995.661            0    8777.8701    17.863235    22.788206    19.294566    7854.2597    9604.9686    8598.1808    8130.4608    494.25923    702.97696    1081.9723   -3597.4458 
15230000    197.45545   -4984.4741   -4589.5388   -4984.4741            0    9402.6656    17.876118    22.985435     18.98784    7801.9202    8743.4979    9423.6681    10040.831   -673.95496    28.104349   -757.02357   -3519.6753 
15231000    193.54601   -4982.2503   -4595.1343   -4982.2503            0    9931.5579    17.906552    22.940256     18.98376     7798.166    8316.1139    10060.208    11418.352    1617.8914   -88.508068     716.2543   -3465.6356 
15232000    183.54205   -4984.7143   -4617.6075   -4984.7143            0    8229.9964    18.091869    22.537304    19.266831    7855.8956    7269.4581    9879.4445    7541.0865    201.80135    714.88994    327.30062   -3674.6954 
15233000     187.7813   -5002.0502   -4626.4644   -5002.0502            0    8329.3392    17.978085    22.609833    19.235247    7818.7722    8152.0701    8328.6935     8507.254    65.099968   -311.06945     -96.5018   -3676.6801 
15234000    192.99963   -4985.6864   -4599.6633   -4985.6864            0    7914.3073    17.923014    22.812039    19.183438    7843.3499    8203.6916    6408.5011    9130.7292    26.885379   -274.81811   -295.66828   -3694.3678 
15235000    179.98604   -4991.4953    -4631.501   -4991.4953            0    9346.3157     17.91651    22.924989    18.991884    7800.6465     8529.027    9351.1551    10158.765    615.14519    988.36183    729.53516   -3568.2227 
15236000    186.38018   -4994.5458   -4621.7625   -4994.5458            0    9152.7737    17.940255    22.843462    19.022144    7795.6079    7041.1355    10390.674    10026.511    910.19113    222.52617    7.1903075    -3581.175 
15237000    182.17234    -4988.006   -4623.6389    -4988.006            0    9205.3555    17.874299    22.912013    19.084755    7815.8978    8229.2106    9177.3632    10209.493    425.63195   -130.01544    218.23044   -3574.3494 
15238000    188.74101   -4984.1346   -4606.6293   -4984.1346            0    8573.6488    17.932975    22.685393    19.304394     7853.348    9732.1305     7999.529    7989.2868    382.28513   -935.74786   -93.468878   -3624.6634 
15239000    184.88821    -4988.567   -4618.7677    -4988.567            0    7557.8622     17.96818    22.491468    19.486861    7875.2395    7698.4296    8576.8769      6398.28    1331.2008    147.08662   -711.76496   -3750.7299 
15240000    189.74788   -4981.9156   -4602.3964   -4981.9156            0    10435.267     17.84892    22.767711     19.20072    7802.7705    12348.903    9516.8565    9440.0411   -192.90053    443.62677   -319.48296    -3414.911 
15241000     183.3327   -4997.1217   -4630.4336   -4997.1217            0    8684.1641    17.834685    22.980408    19.037479    7802.4793    8103.1754    9065.8821    8883.4348    936.31264    1091.1611    -1199.696   -3642.2526 
15242000    186.73153   -5001.6821   -4628.1959   -5001.6821            0    7127.1611    17.927877     22.81808     19.24196     7871.496    6623.3326    7670.1315    7088.0192   -966.24779   -412.58806   -2176.6248   -3810.0143 
15243000    202.17259   -5000.3897   -4596.0195   -5000.3897            0    8146.0209    17.879279     22.75307    19.319746    7859.4367    10023.608    7654.0749    6760.3802    -1446.904    271.93293   -99.970686   -3662.3077 
15244000     192.8008   -4991.4339   -4605.8085   -4991.4339            0    6235.3013    18.036766    22.562253    19.372105    7883.4796    5267.1953    7057.2619    6381.4469   -443.33941    -1062.799    1039.9673   -3888.9205 
15245000    201.39297   -4992.2165   -4589.4056   -4992.2165            0    8511.4934    17.910252    22.734139     19.25075    7838.4078    9474.4927    7305.6237    8754.3638    21.467999   -567.98419    1260.3935   -3616.4131 
15246000    181.04267   -4986.2712   -4624.1635   -4986.2712            0    7943.1347    17.753576    23.023201     19.19552    7846.0561    7719.1515    7489.9166     8620.336     369.1164   -154.20891    923.38882    -3715.257 
15247000    187.45149    -4993.082   -4618.1559    -4993.082            0    8997.7776     17.78821    22.915079    19.156115    7808.3819    10214.513    8460.7847    8318.0351    1370.2673   -259.74229    409.48688   -3593.5138 
15248000    195.86911   -4995.2041   -4603.4417   -4995.2041            0    7943.0644    17.956482    22.786793    19.152551    7836.6616    8186.4697    7962.7958    7679.9278    371.25859   -33.946672    600.56173   -3695.6314 
15249000     185.2453   -5001.7803   -4631.2668   -5001.7803            0    6711.0701    18.012877    22.493672    19.490714    7897.1647    7094.2119    6167.2669    6871.7315   -64.064626   -1551.9718    30.515368   -3858.3392 
15250000    195.37974   -4980.5496    -4589.766   -4980.5496            0    8530.5862    17.876247    22.602702    19.403902    7840.1754    9420.2544    9932.4179    6239.0864    -138.4961    309.51169    1948.3491    -3614.371 
Loop time of 578.019 on 64 procs for 250000 steps with 1008 atoms

Performance: 74.738 ns/day, 0.321 hours/ns, 432.512 timesteps/s
373.7% CPU use with 16 MPI tasks x 4 OpenMP threads

MPI task timing breakdown:
Section |  min time  |  avg time  |  max time  |%varavg| %total
---------------------------------------------------------------
Pair    | 41.315     | 44.673     | 51.702     |  37.1 |  7.73
Bond    | 1.6671     | 1.9897     | 2.9696     |  26.8 |  0.34
Kspace  | 280.63     | 290.48     | 301.97     |  30.0 | 50.26
Neigh   | 2.5366     | 2.6775     | 2.9045     |   6.8 |  0.46
Comm    | 74.97      | 87.1       | 92.242     |  50.2 | 15.07
Output  | 0.66015    | 0.66054    | 0.66217    |   0.1 |  0.11
Modify  | 117.03     | 122.11     | 125.55     |  24.1 | 21.12
Other   |            | 28.33      |            |       |  4.90

Nlocal:        63.0000 ave          72 max          51 min
Histogram: 1 0 0 0 4 2 6 2 0 1
Nghost:        3444.06 ave        3459 max        3424 min
Histogram: 1 0 1 2 1 3 3 1 1 3
Neighs:        21312.6 ave       24299 max       17246 min
Histogram: 1 0 0 0 4 2 6 2 0 1

Total # of neighbors = 341002
Ave neighs/atom = 338.29563
Ave special neighs/atom = 2.0000000
Neighbor list builds = 5286
Dangerous builds = 0

unfix		3
unfix		2
unfix		1

write_data	data.final.${pid}
write_data	data.final.1
System init for write_data ...
PPPM initialization ...
  extracting TIP4P info from pair style
  using 12-bit tables for long-range coulomb (../kspace.cpp:340)
  G vector (1/distance) = 0.37912457
  grid = 24 27 32
  stencil order = 5
  estimated absolute RMS force accuracy = 0.0024825783
  estimated relative force accuracy = 7.4762107e-06
  using double precision FFTW3
  3d grid and FFT values/proc = 7875 1344
Last active /omp style is kspace_style pppm/tip4p/omp
WARNING: Not all mixed pair coeffs generated from mixing. Use write_data with 'pair ij' option to store all pair coeffs. (../write_data.cpp:312)

write_restart   restart.lmp.${pid}
write_restart   restart.lmp.1
System init for write_restart ...
PPPM initialization ...
  extracting TIP4P info from pair style
  using 12-bit tables for long-range coulomb (../kspace.cpp:340)
  G vector (1/distance) = 0.37912457
  grid = 24 27 32
  stencil order = 5
  estimated absolute RMS force accuracy = 0.0024825783
  estimated relative force accuracy = 7.4762107e-06
  using double precision FFTW3
  3d grid and FFT values/proc = 7875 1344
Last active /omp style is kspace_style pppm/tip4p/omp
Total wall time: 0:09:38
