#include		in.partitions
include		in.temp
variable        temperature equal 102.99
variable	tempDamp equal 100.0
include		in.pressure
variable        pressure equal 7763.1
variable        pressureDamp equal 1000.0 # This is 1 ps
include		in.seed
variable        seed equal 745823

units		real
atom_style	full
box tilt large
read_restart	restart.lmp.${pid}
read_restart	restart.lmp.0
Reading restart file ...
  restart file = 30 Jul 2021, LAMMPS = 30 Jul 2021
  restoring atom style full from restart
  triclinic box = (-10.531349 -9.0878317 0.21043603) to (12.511349 12.077830 21.649563) with tilt (-9.2148632 2.0195970 2.7836037)
  2 by 4 by 4 MPI processor grid
  restoring pair style lj/cut/tip4p/long/omp from restart
  restoring bond style harmonic/omp from restart
  restoring angle style harmonic/omp from restart
  1296 atoms
  864 bonds
  432 angles
Finding 1-2 1-3 1-4 neighbors ...
  special bond factors lj:    0        0        0       
  special bond factors coul:  0        0        0       
     2 = max # of 1-2 neighbors
     1 = max # of 1-3 neighbors
     1 = max # of 1-4 neighbors
     2 = max # of special neighbors
  special bonds CPU = 0.002 seconds
  read_restart CPU = 0.008 seconds
include 	in.setup
variable	out_freq equal 1000
variable	out_freq2 equal 10000
variable	out_freq3 equal 1000

timestep	2.0

neigh_modify    delay 7 every 1

include		in.tip4p
# This is TIP4P/Ice

# create groups ###
group ox type 2
432 atoms in group ox
group hy type 1
864 atoms in group hy

# set charges - beside manually ###
set group ox charge -1.1794
Setting atom values ...
  432 settings made for charge
set group hy charge 0.5897
Setting atom values ...
  864 settings made for charge

# ### TIP3P Potential Parameters ###
pair_style lj/cut/tip4p/long/omp 2 1 1 1 0.1577 8.5
pair_coeff 1 1*2 0.000 0.000
pair_coeff 2 2 0.21084 3.1668
bond_style  harmonic
bond_coeff  1 450 0.9572
angle_style harmonic
angle_coeff 1 55 104.52
kspace_style pppm/tip4p/omp 1.0e-5
pair_modify tail yes

thermo          ${out_freq}
thermo          1000
thermo_style    custom step temp pe etotal epair emol press lx ly lz vol pxx pyy pzz pxy pxz pyz enthalpy

restart 	${out_freq3} restart.lmp.${pid} restart2.lmp.${pid}
restart 	1000 restart.lmp.${pid} restart2.lmp.${pid}
restart 	1000 restart.lmp.0 restart2.lmp.${pid}
restart 	1000 restart.lmp.0 restart2.lmp.0


include         in.dump
dump            myDump all atom ${out_freq2} dump.water.${pid}
dump            myDump all atom 10000 dump.water.${pid}
dump            myDump all atom 10000 dump.water.0
dump            myDump2 all dcd ${out_freq2} dump.dcd
dump            myDump2 all dcd 10000 dump.dcd
dump_modify     myDump append yes
dump_modify     myDump2 append yes


variable natoms 	equal  "count(all)"                        # NUMBER ATOMS
variable H      	equal  "enthalpy/v_natoms"                 # ENTHALPY-per-atom
variable Vol      	equal  "vol/v_natoms"                 # volume-per-atom
fix AVG all 		ave/time ${out_freq} 1 ${out_freq} v_Vol v_H file vol_enthalpy.dat
fix AVG all 		ave/time 1000 1 ${out_freq} v_Vol v_H file vol_enthalpy.dat
fix AVG all 		ave/time 1000 1 1000 v_Vol v_H file vol_enthalpy.dat


timer           timeout 10:00:00 every 1000
New timer settings: style=normal  mode=nosync  timeout=10:00:00

fix 		1 all shake 1e-6 200 0 b 1 a 1
       0 = # of size 2 clusters
       0 = # of size 3 clusters
       0 = # of size 4 clusters
     432 = # of frozen angles
  find clusters CPU = 0.001 seconds
fix             2 all nph tri ${pressure} ${pressure} ${pressureDamp}
fix             2 all nph tri 7763.1 ${pressure} ${pressureDamp}
fix             2 all nph tri 7763.1 7763.1 ${pressureDamp}
fix             2 all nph tri 7763.1 7763.1 1000
fix             3 all temp/csvr ${temperature} ${temperature} ${tempDamp} ${seed}
fix             3 all temp/csvr 102.99 ${temperature} ${tempDamp} ${seed}
fix             3 all temp/csvr 102.99 102.99 ${tempDamp} ${seed}
fix             3 all temp/csvr 102.99 102.99 100 ${seed}
fix             3 all temp/csvr 102.99 102.99 100 745823


run             250000
PPPM initialization ...
  extracting TIP4P info from pair style
  using 12-bit tables for long-range coulomb (../kspace.cpp:340)
  G vector (1/distance) = 0.36835609
  grid = 27 40 32
  stencil order = 5
  estimated absolute RMS force accuracy = 0.0043543361
  estimated relative force accuracy = 1.3112954e-05
  using double precision FFTW3
  3d grid and FFT values/proc = 6783 1120
Last active /omp style is kspace_style pppm/tip4p/omp
Neighbor list info ...
  update every 1 steps, delay 7 steps, check yes
  max neighbors/atom: 2000, page size: 100000
  master list distance cutoff = 10.8154
  ghost atom cutoff = 10.8154
  binsize = 5.4077, bins = 7 5 4
  1 neighbor lists, perpetual/occasional/extra = 1 0 0
  (1) pair lj/cut/tip4p/long/omp, perpetual
      attributes: half, newton on, omp
      pair build: half/bin/newton/tri/omp
      stencil: half/bin/3d/tri
      bin: standard
Per MPI rank memory allocation (min/avg/max) = 10.60 | 10.61 | 10.61 Mbytes
Step Temp PotEng TotEng E_pair E_mol Press Lx Ly Lz Volume Pxx Pyy Pzz Pxy Pxz Pyz Enthalpy 
 4500000    108.24906   -6749.7393   -6471.2752   -6749.7393            0     9171.178    23.042697    21.165661    21.439127    10456.161    8728.4242     9537.278    9247.8319    1784.3512   -831.11811    104.53933   -5072.7404 
 4501000    100.66403   -6742.5572   -6483.6051   -6742.5572            0    7775.5655    23.179566    21.172324    21.394734    10499.792    7619.1094     7259.812    8447.7752     -549.922    346.84827    572.82967   -5292.9429 
 4502000    105.37085   -6753.7126   -6482.6525   -6753.7126            0    7169.0567    23.091868    21.236589    21.441673    10514.836    7360.4682    6651.9724    7494.7294    1177.9999   -1030.3864    433.80664   -5383.2913 
 4503000    105.17077   -6757.1781   -6486.6327   -6757.1781            0    6883.2906    23.012921    21.299693    21.476557    10527.124    6960.8894    6504.4082    7184.5742   -309.92915      225.941    179.40327   -5429.8596 
 4504000    97.877514   -6746.7156   -6494.9316   -6746.7156            0    7691.9631    23.045389    21.311667    21.361686    10491.486    7943.7477     7030.576    8101.5656   -314.29519    286.10952    209.47475   -5318.0032 
 4505000    103.92945   -6751.8793   -6484.5271   -6751.8793            0    7545.2997    23.053499    21.270237     21.43087      10508.7    7857.6823    7830.3479    6947.8691   -881.68783   -10.793247   -257.86657   -5328.1449 
 4506000    106.63826   -6747.1991   -6472.8787   -6747.1991            0    8439.2054    23.096334      21.1784    21.433474    10484.043    8094.1056    8568.5139    8654.9967    970.90549    476.83827    -343.1701   -5182.5326 
 4507000    104.94692   -6751.4927   -6481.5231   -6751.4927            0    8411.7603    23.180039    21.065973    21.408492    10453.982    7291.2932    9004.4422    8939.5455    404.73168    587.00199    906.64705    -5199.061 
 4508000    102.60962    -6743.515    -6479.558    -6743.515            0    7610.5431    23.114218    21.182519    21.467387    10510.805    7361.5783    7552.5042    7917.5468    70.889157   -190.23816    869.55471   -5312.9431 
 4509000    110.62141   -6751.4714   -6466.9046   -6751.4714            0    7631.9804     23.17063    21.171786    21.437148    10516.285    6544.7478    8786.1178    7565.0757   -503.92934    872.72267   -607.02684   -5296.3936 
 4510000    103.17628   -6737.8557    -6472.441   -6737.8557            0    9099.2232    23.113814       21.157    21.379248    10454.858    7962.3596    10223.027    9112.2828     1126.062    140.44932   -497.75021   -5085.0518 
 4511000    103.68444   -6749.1953   -6482.4734   -6749.1953            0    7674.7868    23.003984    21.342412    21.401542    10507.312    7919.1335    7672.8295    7432.3976   -1028.0291    149.58647   -334.56535   -5306.4015 
 4512000     102.1901   -6728.7014   -6465.8236   -6728.7014            0     7402.704     23.03509    21.347926    21.371848    10509.636    7515.2286    7328.2647    7364.6187    211.55311   -18.780484   -271.67564   -5331.1943 
 4513000     103.2799   -6733.7646   -6468.0833   -6733.7646            0    8133.7751    23.074884    21.219948    21.423897    10490.165    8616.1102    8007.0502     7778.165   -1027.0143    1462.6041   -47.615669   -5223.7109 
 4514000    98.293159   -6746.3979   -6493.5448   -6746.3979            0    8322.5955    23.023866    21.229133    21.434839     10476.85    8016.0222    8557.5037    8394.2607   -377.62515    225.80574    886.86001   -5221.9011 
 4515000    102.97767   -6749.3825   -6484.4787   -6749.3825            0    7635.7116    23.099723    21.207427    21.479693    10522.594    7761.0079    7222.9209    7923.2059   -505.20268    639.21009    108.57017   -5312.6929 
 4516000    102.49689   -6748.8187   -6485.1517   -6748.8187            0    7557.5372    23.197556    21.188032    21.369005    10503.091    7470.9102    7375.7836    7825.9179    104.83454   -404.79047    58.106032   -5327.5122 
 4517000    102.44935   -6746.4682   -6482.9235   -6746.4682            0    7666.4815    23.125032    21.224399    21.433109    10519.689    7923.8896    8364.6665    6710.8885    -462.2505   -683.44841   -177.32017   -5306.7405 
 4518000    99.973374   -6756.4999   -6499.3245   -6756.4999            0    7757.5436    23.110347    21.192391    21.455693    10508.215    7440.1418    7812.4723    8020.0167    450.17417    151.48538   -208.28249    -5310.469 
 4519000    101.97907   -6747.2253   -6484.8903   -6747.2253            0    8210.9523    22.991431    21.277283    21.428522     10482.73    8841.7483    8388.1003    7403.0083    32.310448    235.60522   -391.11521   -5229.6011 
 4520000    101.10668   -6755.7557    -6495.665   -6755.7557            0    6725.5533    23.103441    21.301349    21.430451    10546.664    6814.8346    6435.4536    6926.3718   -106.99385   -99.671499    663.54595   -5461.1923 
 4521000     104.2859    -6762.704   -6494.4349    -6762.704            0    7606.9461    23.105478    21.138598    21.465425    10484.087    7739.2296    8208.9774    6872.6313    317.17605    314.10653    259.44021   -5331.3355 
 4522000    102.17724   -6742.0015   -6479.1568   -6742.0015            0    8146.4866    23.200042    21.126788    21.419047    10498.383    6980.7719    8933.6064    8525.0813    858.46386   -109.33476    599.50068   -5231.8634 
 4523000    103.93289   -6756.3452   -6488.9842   -6756.3452            0     8001.228    23.080583    21.182791    21.463922    10493.951    8627.9596    7831.8607    7543.8637   -754.30096   -151.00033   -389.36312   -5264.4481 
 4524000    110.79602   -6739.0181   -6454.0021   -6739.0181            0    8184.1486    23.149827    21.220976    21.363699    10495.172    8366.2212    7738.6457    8447.5789   -288.01143    388.43801   -229.00333   -5201.3255 
 4525000    103.78741   -6734.4682   -6467.4814   -6734.4682            0    6936.8296    23.166416    21.280459    21.354729     10527.71    7353.5094    5871.2696    7585.7098   -482.68201    678.22224    411.10398   -5402.4294 
 4526000    106.47581   -6737.4893   -6463.5868   -6737.4893            0    8699.8864    22.996635    21.213273      21.4743    10475.892    9272.0167    9023.2754    7804.3671   -1112.8273   -457.02124   -1295.6055    -5134.417 
 4527000    103.39671   -6746.1316   -6480.1499   -6746.1316            0     6828.603    23.085891    21.273799      21.4553    10537.226    6711.3746    6464.8394    7309.5952    -549.7797    1164.1947    249.18665   -5430.7668 
 4528000    100.12124   -6753.8717   -6496.3159   -6753.8717            0    7333.6636    23.147133     21.27772    21.306996    10494.084    6508.0262    6957.7478    8535.2169    531.86809   -86.397733     448.0143   -5373.9321 
 4529000    102.38908   -6755.2542   -6491.8645   -6755.2542            0    7612.5958    22.974833    21.294552    21.462482    10500.278    8157.5909     7195.679    7484.5173   -816.04671    1059.1426   -152.05486   -5326.1036 
 4530000    111.94924   -6753.2168   -6465.2342   -6753.2168            0     8105.037    23.127796    21.146025    21.452512    10491.586    8715.9209    7920.9642    7678.2258    242.80096   -227.73242     682.5823   -5225.0904 
 4531000    104.13513   -6740.4332   -6472.5519   -6740.4332            0    7996.0567    23.161207    21.163548    21.442368    10510.477     7898.988     7885.184    8203.9981   -74.221461    154.23791    690.00993   -5246.8801 
 4532000     106.2748   -6750.3301   -6476.9446   -6750.3301            0     7820.192    23.125087    21.116427    21.496002     10496.91    7411.5834    7854.9378    8194.0548   -71.083223    63.933483    92.694328   -5279.7775 
 4533000    103.70024   -6747.1826   -6480.4201   -6747.1826            0    7612.1399    23.061054    21.290494    21.402622    10508.286    9048.9535    5746.3806    8041.0856   -138.36879     -581.599   -240.20551   -5313.8401 
 4534000    102.83768   -6752.2593   -6487.7157   -6752.2593            0    7978.7715    22.994858    21.338702    21.389792    10495.553    8280.7661    7349.4719    8306.0766   -4.7978545     70.78494    447.71057   -5266.4301 
 4535000    101.82933   -6754.1386   -6492.1888   -6754.1386            0    7986.0748    23.052587    21.256223    21.407926    10490.117    8028.7206     8003.855    7925.6489    392.02372   -26.533405   -124.10319   -5270.4184 
 4536000    102.29585    -6753.067   -6489.9172    -6753.067            0    8018.3266    23.158567    21.143758    21.429603    10493.201    7439.3224    8305.7228    8309.9345    138.52757   -1.1416403    409.70013   -5262.8521 
 4537000    104.82082   -6748.2129   -6478.5678   -6748.2129            0    7785.5196    23.174059    21.122792    21.441139    10495.455    8135.5526    8540.5926    6680.4138   -140.03303   -1082.3028   -601.08756   -5286.8737 
 4538000    105.93707   -6749.5894   -6477.0727   -6749.5894            0    8477.3127     23.14454    21.079862     21.44116    10460.793    7963.8592    8779.8317    8688.2471    5.1383731   -44.065966    -271.6527   -5183.7745 
 4539000    102.47872   -6745.4119   -6481.7916   -6745.4119            0    7899.4081    23.055881    21.217345    21.456564    10496.221    8248.6293    7859.2273    7590.3678    416.64218    132.20809    571.14349    -5272.577 
 4540000    101.24097   -6749.6414   -6489.2051   -6749.6414            0    7576.1546    23.048189    21.252856    21.429949    10497.243     7401.589    7786.4182    7540.4565     724.0102    429.54455    360.52059   -5329.3601 
 4541000    102.63175   -6755.8425   -6491.8285   -6755.8425            0    7503.7429    23.134474    21.203809    21.422169    10508.409    6986.1986    8259.0141    7266.0159    578.16817    313.16676   -403.83061   -5341.8472 
 4542000    100.09635   -6741.1877   -6483.6959   -6741.1877            0    8456.0583    23.099737    21.193957    21.397861    10475.854    8399.5562    8436.3406    8532.2782        -1031    426.09896    -440.2703   -5191.7828 
 4543000    102.75956   -6742.8605   -6478.5178   -6742.8605            0     7425.879    23.181255    21.215312    21.401644    10525.276    7248.5755    7031.2379    7997.8235     403.0444   -740.47299   -115.37994   -5338.6427 
 4544000    107.72484   -6753.9527   -6476.8372   -6753.9527            0    7456.4582    23.151423    21.216966    21.384571    10504.164    7697.3157    7102.8166    7569.2423   -581.68898   -767.94823    153.94428    -5334.564 
 4545000     96.97201   -6756.9632   -6507.5086   -6756.9632            0    8482.5395    23.032095    21.231909     21.41325    10471.408    9349.5502    7868.8239    8229.2443    -347.6077   -275.57719   -497.15375   -5212.0998 
 4546000    102.17104   -6740.7481   -6477.9193   -6740.7481            0    7937.2112    23.003603    21.256968    21.469281    10498.197    8631.0693    7652.2054    7528.3589   -34.178056    208.67021    637.82735   -5262.6892 
 4547000    98.567483   -6746.1444   -6492.5856   -6746.1444            0    7810.0845     23.05964     21.29078    21.377681    10495.538    7844.0016    7345.7991    8240.4528     532.2546    89.327506    738.35074   -5297.1221 
 4548000       106.21   -6748.6832   -6475.4644   -6748.6832            0    7766.8572    23.118669    21.208468    21.412039     10498.57    7861.6297    7689.3581    7749.5839   -70.883345     43.08277    430.77525   -5286.2741 
 4549000    104.21715   -6739.9781   -6471.8859   -6739.9781            0    8666.0066    23.110122    21.096586    21.516888    10490.444    8736.5446    9059.0437    8202.4315   -247.55998    162.54844    118.31759    -5146.053 
 4550000    103.38339   -6747.9712   -6482.0237   -6747.9712            0    8281.7135    23.105002    21.214049    21.403468    10490.924    7526.2181     7801.444    9517.4785   -80.646861    642.21601     3.622382   -5214.9268 
 4551000     104.8352   -6738.7992    -6469.117   -6738.7992            0    7657.3033    23.140505    21.317551    21.277308    10496.072    7227.5054    6817.7695    8926.6349   -159.92929   -356.74923   -155.15422   -5296.9795 
 4552000    100.18407   -6752.5509   -6494.8335   -6752.5509            0      7470.57    22.970967     21.30572    21.485954    10515.505    8881.8769     6680.155    6849.6782   -411.62155    574.15251   -246.33776   -5349.1628 
 4553000    101.98665   -6752.8686   -6490.5142   -6752.8686            0     8553.861    22.927453    21.296003    21.477108     10486.48     9896.652    7879.0636    7885.8674   -167.75133   -516.24447   -12.497411   -5182.3333 
 4554000    100.43114   -6735.3272   -6476.9742   -6735.3272            0     7540.106     23.14738    21.192383    21.457803    10526.085    7782.3702    7571.3408     7266.607    88.196686    1055.3318   -622.69296   -5319.4763 
 4555000    106.27883   -6752.4709   -6479.0751   -6752.4709            0    7584.0019      23.2311     21.25236    21.271989    10502.315    7787.6002    6121.1686    8843.2369    86.762795    162.68139    94.234893   -5317.4677 
 4556000    106.41615   -6743.5989   -6469.8498   -6743.5989            0    7377.1545    23.117273    21.218553    21.424394    10508.988    6513.5808    8240.3033    7377.5793    -529.1631   -376.75399   -25.468544   -5339.2064 
 4557000    103.60612   -6747.0233   -6480.5029   -6747.0233            0    7588.7453    23.107288    21.115244    21.532723    10506.161    7076.9852    8010.1731    7679.0777    320.08829   -97.764087    133.73061   -5317.7433 
 4558000    103.15754   -6750.9043   -6485.5379   -6750.9043            0    8015.2862    23.174083    21.223899     21.32927    10490.682    6975.1982    8262.7104      8807.95    826.19699    152.30498    84.972233   -5259.2324 
 4559000    102.56493   -6743.0323   -6479.1903   -6743.0323            0    7974.1556    23.038572    21.268209    21.408555     10489.96    8209.4867    7310.3311    8402.6491   -1396.0624    669.45526    75.907082   -5259.2616 
 4560000    100.37845   -6759.9847   -6501.7673   -6759.9847            0    7323.6994       23.041    21.295145    21.439251    10519.413    8136.2069    6894.1421    6940.7492     140.2836   -151.87835   -934.73859    -5378.203 
 4561000    102.07541   -6751.5358    -6488.953   -6751.5358            0    7312.3651     23.16053    21.241537    21.404912    10530.473    6566.8745    6748.5375    8621.6833   -719.96319    739.62498    44.621436   -5365.9482 
 4562000    105.76516   -6747.1972   -6475.1228   -6747.1972            0    7412.8609    23.169008    21.219718    21.365064    10503.916     7378.814    7914.9035    6944.8653   -21.781387   -266.67205   -441.24446   -5339.5552 
 4563000     106.8495   -6743.4238   -6468.5599   -6743.4238            0    7575.6863    23.234438    21.018555    21.556016    10526.973    7150.6667    8428.3141     7148.078    -719.2383    927.01115   -392.18189   -5305.5019 
 4564000    103.08173   -6754.2437   -6489.0723   -6754.2437            0    7140.1632    23.143895    21.140145    21.482279    10510.533    6120.8507    8685.9557    6613.6832    457.14067     190.6999   -663.91055   -5394.5898 
 4565000    101.89047   -6764.0453   -6501.9383   -6764.0453            0    7548.6589    23.109518     21.26438    21.347224    10490.231    6579.2472    8127.0243    7939.7052   -246.60041    822.93755    328.44129   -5347.0746 
 4566000    104.97125   -6737.3045   -6467.2723   -6737.3045            0    8210.8144    23.020197    21.269313    21.431084    10493.169    9102.9781    7412.0299    8117.4351    532.80497   -260.04909   -421.06257   -5210.7541 
 4567000     99.47835   -6754.5212   -6498.6192   -6754.5212            0    8033.7201    23.026197    21.282452    21.404272    10489.248    8672.3517    7803.0655    7625.7432     266.2961   -773.53685   -105.18775   -5269.6615 
 4568000    96.824306   -6744.3378   -6495.2632   -6744.3378            0    7404.6414    23.214036     21.28857    21.272981    10512.971    6422.6497    7193.5474     8597.727   -35.015581   -267.36382    176.53286   -5359.9769 
 4569000    100.07797   -6760.7927   -6503.3482   -6760.7927            0    8070.2773    23.091501     21.19841    21.438821     10494.37    8180.0636     7427.406    8603.3622   -776.13895    173.88042   -406.21365   -5268.1953 
 4570000    102.10222   -6752.5448    -6489.893   -6752.5448            0    7151.7497    23.080099    21.246029    21.474552    10530.271    7371.4838    7118.3261    6965.4391   -262.12974   -534.91365    163.95384   -5391.5759 
 4571000    100.89592   -6737.4315   -6477.8829   -6737.4315            0     8206.539    23.119365    21.141857    21.441645    10480.383    8136.1221    8485.8273    7997.6676    609.27777    30.602704    19.178252   -5223.5493 
 4572000     109.0142   -6737.3301   -6456.8977   -6737.3301            0    8193.0767    23.146687    21.184212    21.390972    10488.942    8000.8838    7750.9132    8827.4329    1705.7244   -157.03403    527.07984    -5203.599 
 4573000    103.30061    -6763.731   -6497.9965    -6763.731            0    7128.2415    23.042841    21.229741    21.497259     10516.32    7710.1788      7406.35    6268.1958   -330.89261   -156.63444   -65.056832   -5404.7399 
 4574000    104.08826   -6751.7884   -6484.0277   -6751.7884            0    7432.2744    23.145678    21.210982    21.415785     10513.92    8075.6268    6633.0097    7588.1865    646.59455   -165.02062    718.63102   -5344.4019 
 4575000    104.43264   -6750.1102   -6481.4636   -6750.1102            0    7929.8199    23.085588    21.266527    21.383459    10498.215    8950.2968    7015.4648     7823.698    346.48483    107.88029    221.97695   -5267.3631 
 4576000    101.19275   -6747.3559   -6487.0437   -6747.3559            0    8060.1691    23.067711    21.266772    21.417095    10506.708    8399.3222    7805.6847    7975.5006   -88.714946   -398.47514   -680.08198   -5251.9876 
 4577000     102.3725   -6759.8505   -6496.5034   -6759.8505            0    6916.8289     23.15839    21.231645     21.43305    10538.432    6961.9357    6136.8443    7651.7067    343.79668   -52.931105   -185.64249   -5433.4407 
 4578000    106.05643   -6738.0437     -6465.22   -6738.0437            0    7669.2133    23.125103    21.261781     21.36605    10505.278    7880.9776    8003.8859    7122.7764   -163.57794   -361.52895   -994.79667   -5290.2297 
 4579000    100.11248   -6753.0626   -6495.5293   -6753.0626            0     7512.007    23.031341    21.330752    21.403245    10514.897    8561.2483    5396.2607     8578.512    -400.4821    -582.4343     727.5238   -5343.5706 
 4580000    108.75637   -6750.1863   -6470.4171   -6750.1863            0    7190.4892    23.067387    21.257917    21.456827    10521.668    8186.1323      6921.84    6463.4954   -629.39516    232.26902   -360.19255   -5367.0528 
 4581000    103.30444   -6751.1036   -6485.3592   -6751.1036            0    8339.8737     23.04333    21.241618    21.370892    10460.573     8229.036    7648.9421    9141.6429   -402.36086    18.260567    620.93392   -5213.0553 
 4582000     107.2596   -6764.5564   -6488.6376   -6764.5564            0    7426.0549    23.092887    21.249908    21.380655    10491.951    7108.9202    6723.9184    8445.3262   -313.86876   -264.51291    919.61257   -5352.3447 
 4583000    102.44945   -6748.4332   -6484.8883   -6748.4332            0    8139.7758    23.080569    21.148099     21.50309    10495.876    7985.1702    8605.2507    7828.9065     574.8715   -75.343933    340.04075   -5238.9198 
 4584000    108.27957   -6741.0825   -6462.5399   -6741.0825            0    7768.2787    23.219645    21.091186    21.419954    10489.991    6688.2649    8971.5875    7644.9839   -176.67007   -451.52775   -322.22515   -5274.1038 
 4585000    102.62529   -6752.3858   -6488.3885   -6752.3858            0    7783.1557    23.131783    21.243158    21.359196    10495.741     8416.636    7488.7329    7444.0981   -586.93645   -479.58175   -276.12533   -5297.0239 
 4586000    104.72931   -6760.6959   -6491.2861   -6760.6959            0      7324.71    23.004358    21.239152     21.51928    10514.171    8436.9002    7478.1155    6059.1144   -122.01075   -245.14367   -865.36757   -5368.1268 
 4587000    101.55178   -6757.0712   -6495.8354   -6757.0712            0    7841.8413    23.024647    21.328029    21.360072    10489.298    6929.5363    8084.3628    8511.6248      491.929    464.86247   -587.35822   -5296.2247 
 4588000    99.786599   -6738.4247   -6481.7298   -6738.4247            0    7239.6723    23.067067    21.378888    21.322803    10515.303     7310.692    6463.8793    7944.4455    339.51466   -440.93314    368.20219   -5371.4905 
 4589000    103.66673   -6772.3337   -6505.6573   -6772.3337            0    7197.6695     23.09881    21.086874    21.592119    10517.126    8260.2286    7707.3578    5625.4222    274.09009   -152.70925    287.68995    -5401.668 
 4590000    101.81289   -6756.2687   -6494.3612   -6756.2687            0    6937.7553    23.190966     21.18749    21.433204    10531.384    7119.9948    6136.1961    7557.0749   -573.07096   -671.09245    830.48813   -5428.7953 
 4591000     101.1182   -6759.6596   -6499.5392   -6759.6596            0    6561.3885    23.246498    21.175659     21.37627    10522.681     5879.397    6765.1402    7039.6284     -47.5919    569.54376    -122.3936    -5492.612 
 4592000    100.34361   -6741.0636   -6482.9358   -6741.0636            0    7657.9338    23.121497    21.195323    21.461532    10517.601    7895.0373    7751.7503    7327.0137   -416.49652   -525.63995   -338.65081   -5308.2974 
 4593000    103.77969   -6753.6086   -6486.6416   -6753.6086            0    7529.7439    23.054839    21.226138    21.481882    10512.486     7975.329    7451.9212    7161.9815   -37.017402   -350.68165   -210.54211   -5332.2278 
 4594000    104.08854   -6745.6775    -6477.916   -6745.6775            0    7822.3591    23.116551    21.261777    21.355587    10496.249    7430.1272     7835.962    8200.9882    381.25047    720.24849    366.35932   -5280.4926 
 4595000    97.036174   -6746.3791   -6496.7594   -6746.3791            0    8684.4661     23.01173     21.21314    21.423557    10457.931    8149.9622    8573.3078    9330.1283    624.07336    9.4412568    700.03187   -5172.2203 
 4596000    102.49878   -6741.3895   -6477.7176   -6741.3895            0    7053.8483    23.112089    21.183272     21.50484    10528.548    6904.1649    6890.4927    7366.8875   -235.77128    1064.5546    401.82458   -5394.6128 
 4597000    99.982295    -6743.854   -6486.6556    -6743.854            0    7394.7288    23.175996    21.159715    21.434413    10511.382    7368.1294    7127.8262     7688.231    -756.0848    556.86646     1305.139   -5353.0605 
 4598000     97.79196   -6747.1732   -6495.6093   -6747.1732            0    8859.7583    23.081738    21.086614    21.492733     10460.85    8265.9235    11036.747    7276.6039   -46.335347    801.47257   -964.73564   -5143.9578 
 4599000    107.88439   -6759.0806   -6481.5545   -6759.0806            0    7653.3065    23.158192     21.22276    21.352776    10494.478    6807.4791    7661.8563    8490.5842   -127.22602    495.98889    400.00687   -5310.2068 
 4600000    99.195909   -6749.7847   -6494.6093   -6749.7847            0    7603.6171    23.008694    21.343039    21.414913    10516.338    8822.9774    6916.2499     7071.624    440.08891   -1034.3789    -1160.753   -5328.4425 
 4601000     99.87912   -6756.0851   -6499.1521   -6756.0851            0    8087.0871    23.011385    21.282608     21.44036    10500.251    9245.4132    7578.2766    7437.5717    330.03912   -843.96213   -198.19796   -5260.7329 
 4602000    101.10539   -6743.1247   -6483.0373   -6743.1247            0     7900.158    23.114888    21.284017    21.296829    10477.564    7303.6934    7293.1676    9103.6128    452.28328    1148.5811    502.56838   -5275.8573 
 4603000    104.04212   -6733.8515   -6466.2095   -6733.8515            0    8849.0344    22.919261    21.247464    21.500504    10470.233    10608.114    8303.3846    7635.6048   -833.11807   -806.01372   -407.65771   -5114.9831 
 4604000    102.00913   -6747.7155   -6485.3032   -6747.7155            0     6833.735    23.085321    21.158573    21.580177     10540.89    7596.7682    6602.2636    6302.1734   -525.16409   -531.89166   -357.87088   -5434.7664 
 4605000    105.95396   -6749.2255   -6476.6654   -6749.2255            0    7672.5536     23.23714    21.140383    21.337358    10481.807    6689.6417    7903.1227    8424.8963    567.37446    204.70181    721.57426   -5303.7897 
 4606000    99.947593   -6752.4421    -6495.333   -6752.4421            0    7258.6306     23.06786    21.288279    21.434646     10526.02    8220.0713    6140.9485    7414.8719   -595.12562   -716.65934    426.66689    -5381.052 
 4607000    102.19731   -6750.5747   -6487.6784   -6750.5747            0    8302.6736    22.991519    21.226454    21.485598    10485.582    8403.1227    8207.8212    8297.0769   -706.26226    308.16686   -434.18984   -5218.0214 
 4608000    101.85664   -6750.4901   -6488.4701   -6750.4901            0    7482.7925    23.055872    21.351057    21.319351    10494.818    7879.2354    6013.3339    8555.8081    155.77589    519.28709    1041.5726   -5343.1826 
 4609000    100.01173   -6749.3587   -6492.0846   -6749.3587            0    7335.5925    23.112744    21.312787    21.324412    10504.341    6849.1905    7135.0091     8022.578   -569.79355    703.40266    147.72239   -5368.3083 
 4610000    99.213028   -6745.7628   -6490.5433   -6745.7628            0    8064.6168    23.073872    21.161523    21.490534    10493.361    8497.0201    8242.1995    7454.6309   -423.48342   -112.20871   -643.54537   -5256.3755 
 4611000    99.877727   -6741.1805   -6484.2511   -6741.1805            0    8111.2608    23.163346    21.137524    21.487804    10520.768    8072.0236    8125.2121    8136.5468    231.22151   -332.88282    139.03093   -5239.7029 
 4612000    104.14865   -6748.3832   -6480.4671   -6748.3832            0    7999.7279    23.183112    21.236791    21.311128    10492.212    8245.5208    7527.3754    8226.2874   -6.2599794   -772.33192   -628.08613   -5256.3636 
 4613000    103.73699   -6747.0881    -6480.231   -6747.0881            0    7660.7797    23.066196    21.199486    21.501165    10513.887      7496.47    7074.1412    8411.7279    484.03053   -298.51436     530.6807   -5305.5711 
 4614000    103.29911   -6746.0424   -6480.3117   -6746.0424            0     7553.785     23.03289    21.272401    21.485501    10527.141    8169.3073    7224.4358    7267.6119     766.1451   -574.70314    88.695998   -5320.5976 
 4615000     106.1383   -6754.1259   -6481.0916   -6754.1259            0    7369.7154     23.10659    21.266018    21.380621     10506.12    7086.4298    7150.0037    7872.7127    17.681942    -425.9498    651.18707   -5351.8966 
 4616000    100.19513   -6757.7266   -6499.9807   -6757.7266            0     8317.013    23.083286    21.120008    21.497426    10480.407    8646.5223    8239.6775    8064.8393    308.67931   -122.48389     60.52499   -5228.7586 
 4617000    98.666846   -6763.4942   -6509.6797   -6763.4942            0    7815.2684    23.097712    21.115641    21.494015    10483.126    7884.5426    8423.7954    7137.4672   -671.72652    498.52131    803.63449   -5314.8375 
 4618000    100.46344   -6756.8927   -6498.4566   -6756.8927            0    7310.2017    23.183195    21.167341    21.420149    10511.436    7166.1783    7875.7743    6888.6526    421.22029   -636.52274   -27.212842   -5377.8135 
 4619000    106.58307   -6760.7877   -6486.6092   -6760.7877            0    7592.2096    23.090711    21.192009    21.452987    10497.774    8086.4216    6934.3887    7755.8187    365.20003   -565.59111   -732.58516   -5324.2475 
 4620000    104.71665    -6758.571   -6489.1938    -6758.571            0    7461.6113    23.090022     21.34364    21.356011    10524.779    8171.2548    7428.8882     6784.691    -1672.859   -640.59753   -602.36905    -5343.888 
 4621000    102.46183   -6751.8969   -6488.3201   -6751.8969            0    7945.0752     23.05486    21.218552    21.457909    10497.011    7350.4991    8805.1232    7679.6032   -376.81568    595.80391   -321.22023   -5272.0234 
 4622000    109.75547   -6749.1443   -6466.8051   -6749.1443            0    8094.3322    23.045842    21.302287    21.367097    10489.731    8170.2676    7460.9655    8651.7636    165.56195   -107.81354   -305.55083   -5228.5182 
 4623000    100.19715   -6748.4867   -6490.7356   -6748.4867            0    7839.3604    22.991838    21.310634     21.43602    10503.021    7914.4355    8307.1474    7296.4983    82.550524    91.690081    448.64512   -5289.9354 
 4624000    103.03228   -6748.9571   -6483.9128   -6748.9571            0    7779.3119    23.086166    21.174557    21.523799    10521.679     8119.414    7197.8044    8020.7172    204.69517     344.4287    713.23108   -5290.1937 
 4625000    107.86714   -6753.4586    -6475.977   -6753.4586            0    8027.3054    23.143923    21.166007    21.434797    10500.145    7834.6124    8144.2747     8103.029    -449.4598    564.68588    1105.1354   -5246.7249 
 4626000    103.21997   -6750.9453   -6485.4182   -6750.9453            0    7682.2224    23.229669    21.080814    21.441692    10500.004    7915.7326    7518.8449    7612.0898   -762.30903    -580.7857    132.61849   -5309.0258 
 4627000    108.00204    -6763.746   -6485.9173    -6763.746            0    7743.5729    23.166489    21.135117     21.42205    10488.802    7518.9454     8260.993    7450.7803      200.157   -244.46442   -413.34229   -5301.3952 
 4628000    101.25287   -6745.7008    -6485.234   -6745.7008            0    7654.3771    23.029411    21.288103    21.449582    10515.711    8049.3159    7149.3327    7764.4827    169.70184   -1437.5692     326.0015   -5311.3522 
 4629000     106.0934   -6742.4099   -6469.4911   -6742.4099            0    7522.8795     23.05823    21.375755    21.333783    10515.146    7639.0342    6881.1916    8048.4126    328.64139    462.47446   -98.461972   -5315.8379 
 4630000     96.66328   -6751.0698   -6502.4094   -6751.0698            0    7856.8096    22.984587    21.318475    21.405119     10488.43    7849.0581    7911.8613    7809.5093    121.38421     639.1635   -133.78279   -5300.6083 
 4631000    103.19499   -6767.3877   -6501.9248   -6767.3877            0    7547.4252    23.130385    21.171886    21.453347    10506.002    6899.8047    7942.6702    7799.8007    4.5940654   -439.64417    796.30091   -5345.5139 
 4632000    105.91763   -6739.1882   -6466.7216   -6739.1882            0    8276.4916    23.146954    21.060964    21.490028    10476.328    8363.4925    8258.5681    8207.4142    87.267797    324.01544   -93.544468   -5202.1854 
 4633000    103.89006   -6745.1993   -6477.9484   -6745.1993            0    7829.3211    23.206407    21.169992    21.343026     10485.39     7475.364    8247.5987    7765.0005   -42.360375    1.0721331   -740.33569   -5280.6991 
 4634000      99.5869   -6757.1445   -6500.9633   -6757.1445            0    7410.8954    23.035793    21.345741     21.37546    10510.657    7913.0484    6933.0528    7386.5849   -592.39422     140.4965   -402.17364   -5364.9682 
 4635000    100.17537    -6755.442   -6497.7469    -6755.442            0    8387.4984    23.026993    21.252294    21.429649    10487.165    9372.7983    8180.6448    7609.0522   -477.31771    179.32622   -1021.6171   -5214.9248 
 4636000    104.34503   -6747.1197   -6478.6984   -6747.1197            0    7166.0304    23.120481    21.369935    21.310772    10529.294    7529.3023    5941.7256    8027.0632   -1596.4495      254.639   -705.59213   -5378.2903 
 4637000    104.95951   -6759.7353   -6489.7333   -6759.7353            0    7512.6659    23.155409    21.267617    21.332876    10505.596    6212.3434    7986.3345    8339.3197    633.41719    295.44272    305.75269   -5338.6927 
 4638000    100.87776   -6757.9135   -6498.4116   -6757.9135            0    7503.3276    23.161037    21.172201    21.454435    10520.614    7577.0517    7674.0952    7258.8359   -318.49146   -213.43172   -135.40996   -5347.1583 
 4639000    99.400929   -6744.7002   -6488.9973   -6744.7002            0    8627.9599     23.20613    21.043172    21.446807    10473.132    7925.1378    9434.4646    8524.2772    174.44746   -461.25772    236.39046   -5171.1638 
 4640000    105.80271   -6758.9758   -6486.8047   -6758.9758            0    7109.1881    23.275288    21.110331    21.382338    10506.191    6558.0416    7079.4012    7690.1216   -184.75763   -524.58101    740.90171   -5397.5206 
 4641000    100.59685   -6753.7735   -6494.9943   -6753.7735            0    7649.5011    23.049872    21.261363    21.452149    10513.091    7724.2702    7036.4643    8187.7688    3.9592112    808.32427    759.42367   -5322.1525 
 4642000    104.01059   -6754.0935   -6486.5326   -6754.0935            0    7771.5958    22.972623    21.324473    21.430234    10498.224     7901.913    7237.4982    8175.3764   -86.474567   -251.45073    426.41865   -5296.6561 
 4643000    102.25755   -6746.1397   -6483.0884   -6746.1397            0    7608.1294    23.002622    21.324557    21.422574    10508.217    7856.4008    7106.4239    7861.5636    482.77642    938.47838    618.36849   -5317.1307 
 4644000    103.51576   -6751.1123   -6484.8244   -6751.1123            0    8668.8007    23.118773    21.161691    21.387997      10463.7    9094.2901     8937.092    7975.0202    216.96151   -344.01381    8.6692242   -5161.9451 
 4645000    105.35205   -6742.6981   -6471.6864   -6742.6981            0    7763.8563    23.190733     21.14424    21.429906    10508.164    7956.0437      8099.71    7235.8153   -117.77676    513.74287   -713.35409   -5281.8693 
 4646000    101.64764   -6750.1354    -6488.653   -6750.1354            0    7619.9831     23.31672    21.038546     21.38254    10489.202    7023.7613    7738.2105    8097.9776    68.466297   -219.65275   -385.82735   -5322.9918 
 4647000    102.02492   -6754.3326   -6491.8797   -6754.3326            0    8700.8157    23.092127    21.173727     21.41969     10473.08     9222.066    8269.7551    8610.6259   -335.69458   -60.380714    340.93724   -5162.9247 
 4648000    98.923626   -6754.7931   -6500.3181   -6754.7931            0    6270.1214    23.199758    21.253151     21.37202    10537.859    5652.3693     6335.256    6822.7391    378.45519    710.04254    394.03634   -5536.7017 
 4649000    106.12167   -6744.9069   -6471.9154   -6744.9069            0    7731.0147    23.030194    21.275319    21.435257    10502.734    7831.3083    6910.6811    8451.0548   -988.01126   -283.46485    184.25861   -5287.7434 
 4650000    102.89602   -6754.7499   -6490.0562   -6754.7499            0     8852.429    22.963151    21.210248    21.495906     10469.67    9145.4138    9514.4553    7897.4178    381.71782    167.80923    381.58659   -5138.3841 
 4651000    105.45842   -6751.8465   -6480.5612   -6751.8465            0    6542.2028    23.031208    21.334808    21.437791     10533.81    7364.7763    6050.9721    6210.8601   -868.49182    552.30208   -308.33399   -5475.5165 
 4652000    100.54636   -6758.7714    -6500.122   -6758.7714            0    7023.7388    23.118496     21.29351    21.385242    10527.397    6016.9668    7405.7516    7648.4981    75.133117   -108.29699    359.63312   -5421.7584 
 4653000    108.34073   -6747.2854   -6468.5855   -6747.2854            0     7751.561    23.160064    21.085401    21.461059    10480.277    6902.0984    8895.4791    7457.1055    314.85525    107.02993   -811.92799   -5283.8052 
 4654000    100.99341    -6748.279   -6488.4796    -6748.279            0    7410.3243    23.232157    21.085492    21.489116    10526.689    6922.6217    8689.2606    6619.0904   -386.72976   -586.64644   -511.88976   -5350.8395 
 4655000    101.38033    -6757.095   -6496.3003    -6757.095            0    7418.6908    23.124213    21.162744    21.447857    10495.976    7844.0286    6818.2129    7593.8309   -404.79515   -143.70488    389.00994   -5360.6986 
 4656000    100.01724   -6762.6751   -6505.3868   -6762.6751            0    8429.3072    23.040526    21.271187    21.371915    10474.361    8272.8655    8136.7239    8878.3321    983.31089    719.77902   -309.04272   -5217.7443 
 4657000    100.41637   -6750.2602   -6491.9452   -6750.2602            0    7598.4136    22.931864     21.37631    21.423644    10501.841    8247.1857     7498.335      7049.72    266.64287    2.0917838   -286.16957    -5328.183 
 4658000    105.52941   -6766.5712   -6495.1032   -6766.5712            0    7775.7962    23.073102    21.227405    21.456757    10509.135    7661.1167    7730.0163    7936.2556    215.32744   -634.03836     294.3714   -5303.3461 
 4659000     105.6256   -6755.2626   -6483.5471   -6755.2626            0    7741.1703    23.210933    21.127211    21.407179    10497.702    7648.5079    6531.4344    9043.5687    51.000354    -800.1339    605.98218   -5298.3878 
 4660000    102.48946   -6756.1487   -6492.5008   -6756.1487            0    7607.2507    23.175429     21.13473    21.460272    10511.379    7503.8696    8109.7446    7208.1378    114.45284   -233.35251    775.89052   -5326.3269 
 4661000    97.454091   -6749.6173   -6498.9226   -6749.6173            0    8281.2799    23.066644    21.094168    21.535308    10478.471     8365.583    8196.8942    8281.3625   -348.91887   -20.869706    1146.3076    -5233.396 
 4662000    99.991604    -6746.128   -6488.9057    -6746.128            0    6800.1815    23.106454    21.258048    21.462864    10542.518    6921.5613    6345.4157    7133.5675    709.25001    334.56899    499.55463   -5443.3655 
 4663000     100.7219   -6740.9645   -6481.8635   -6740.9645            0      8675.07    22.952841    21.300009    21.403828     10464.24    8028.4326     8878.979    9117.7984    389.17742     664.2197    443.35055   -5157.9593 
 4664000    98.777773   -6748.6433   -6494.5435   -6748.6433            0    7945.2974    22.997791    21.289407    21.446954    10500.629     8516.135    8091.8334    7227.9237   -242.90152    566.95847   -184.36783   -5277.7935 
 4665000    102.71489   -6749.1957   -6484.9679   -6749.1957            0    8460.2035    23.110602    21.213928    21.422222    10502.601    7685.9021    8256.9607    9437.7476   -152.15961   -304.98229   -387.09553   -5189.1214 
 4666000    102.13993   -6731.7298    -6468.981   -6731.7298            0    8694.9093    23.161575     21.16407     21.37453     10477.65    7531.1289    10514.674    8038.9252       106.57   -411.76697   -1162.4052   -5140.3487 
 4667000    107.14677   -6768.8504   -6493.2219   -6768.8504            0    7407.5855    23.194323    21.162272    21.438456     10522.95    7809.1202    7257.9554    7155.6809   -453.47064   -743.78561   -200.07037   -5356.4062 
 4668000    105.13133   -6748.6228   -6478.1789   -6748.6228            0    7047.9209    23.199217    21.139798    21.469152    10529.047    6930.6093    7072.4923     7140.661    639.50658    -248.4336    103.13715   -5395.9329 
 4669000     104.5069     -6729.63   -6460.7923     -6729.63            0    7629.0313    23.028413    21.289016    21.409926    10496.264    7907.4353    7440.5301    7539.1284    391.83964    221.32229     84.98546   -5292.9612 
 4670000    100.50079   -6745.6203   -6487.0881   -6745.6203            0    8118.8403    22.983078    21.283867    21.428296    10482.053    8285.3039    7782.0606    8289.1565    507.62092    365.49184      538.996    -5245.961 
 4671000     99.64901   -6741.0473   -6484.7063   -6741.0473            0    7602.1617    23.020033    21.272576    21.437289    10497.742    8447.2718    6758.7082    7600.5052    264.71745   -201.23204   -617.37389   -5320.8245 
 4672000    103.82205   -6751.2914   -6484.2155   -6751.2914            0    7673.9719    23.107837    21.283035    21.377333    10513.477    7324.5381    7488.4353    8208.9425    438.75697   -280.46502    653.16589   -5307.5786 
 4673000    100.51277   -6752.8577   -6494.2947   -6752.8577            0    7373.2119    23.235049    21.121085    21.422695    10513.176    7762.8138    7315.9617    7040.8603   -624.22599    -588.8634    -265.3915   -5363.8052 
 4674000     104.4305   -6764.0271    -6495.386   -6764.0271            0    7610.4721    23.211566     21.08636    21.448842     10498.08    6610.7648     8400.874    7819.7775    465.62974   -310.93181    282.79484   -5330.1943 
 4675000    99.458372    -6738.745   -6482.8944    -6738.745            0    8016.1159    23.177825    21.154171    21.408662    10496.831    7393.1071    9002.0159    7653.2246    9.9178926    -475.7852   -577.26412   -5255.7433 
 4676000    99.377834    -6753.029   -6497.3856    -6753.029            0    7515.1222    23.090478    21.241503     21.44313     10517.35    7384.3242    7653.3903    7507.6522   -83.073866   -524.99933    198.27259   -5344.6803 
 4677000    105.14218   -6737.9387   -6467.4669   -6737.9387            0     7227.491    23.001115    21.366461    21.386004    10510.203    7970.7215    6477.2108    7234.5406    366.23916   -385.52586   -162.73814   -5359.6332 
 4678000    103.56022   -6741.8342   -6475.4318   -6741.8342            0    7873.9198    22.903729    21.361306    21.428602     10484.02    8837.4476    7416.2852    7368.0265    1156.2433   -387.49435   -141.59496   -5271.5198 
 4679000    104.62955   -6758.9344   -6489.7813   -6758.9344            0    7152.2151    23.121555    21.165133    21.500225    10521.582    6488.8029    8376.7456    6591.0969    273.69776    -18.80637    201.84099    -5392.299 
 4680000    106.31883   -6752.6352   -6479.1365   -6752.6352            0    7798.2446     23.17012    21.091505    21.445703    10480.358    7382.2212    7867.1754    8145.3372    34.756699   -145.87879    475.92884   -5287.2116 
 4681000    101.40659   -6747.3035   -6486.4412   -6747.3035            0    8163.2182    23.224091    21.107816    21.407471    10494.153     7963.744     8361.235    8164.6755    325.90902   -1092.0975   -8.5855003   -5237.0896 
 4682000    107.21683   -6753.3287   -6477.5199   -6753.3287            0    7834.2725    23.071332    21.261268     21.43106    10512.487    7532.0125    8112.5507    7858.2545   -92.644315   -413.82406    -1246.427   -5276.4175 
 4683000    99.190222   -6747.7042   -6492.5434   -6747.7042            0    7662.3193    22.968462    21.380701    21.372376    10495.585    7850.8932    7360.0463    7776.0185    552.71586   -106.76374    -28.23001   -5319.6925 
 4684000    100.17124   -6749.1169   -6491.4325   -6749.1169            0     8055.863    23.051473    21.241211    21.416214    10486.261    8323.2054    7793.3378    8051.0458    154.47395    23.228492    179.09048   -5259.4384 
 4685000    103.83802   -6742.8759   -6475.7589   -6742.8759            0    8184.8432    23.100963    21.185536    21.430186    10488.068    8167.2178    8354.8281    8032.4836   -653.51414    5.8339627    597.09148    -5223.824 
 4686000    104.80463   -6745.3845    -6475.781   -6745.3845            0    7342.6069    23.134042    21.145069     21.49452    10514.494    7041.9671     8498.099    6487.7547   -922.76685   -749.58988    523.56017   -5349.8428 
 4687000    98.958749   -6755.1461   -6500.5808   -6755.1461            0    7624.8122    23.159585    21.183058     21.39653    10496.941    7142.5893    6970.2203    8761.6269    73.986979    407.76683    1161.3083   -5333.3202 
 4688000    103.23891   -6737.4474   -6471.8716   -6737.4474            0    8183.2382    23.068218    21.303322     21.36532    10499.552    8057.2078    8353.6393    8138.8675   -850.93537    112.88306    -734.5109   -5218.8116 
 4689000    99.777509   -6761.4434   -6504.7718   -6761.4434            0    7218.3793    22.990611    21.310045    21.480828    10524.123    8600.4245    6461.8989    6592.8144   -178.45793    24.331127    400.21853   -5396.8695 
 4690000     108.6083   -6741.5078   -6462.1196   -6741.5078            0    7268.0365    23.107302    21.268987    21.388287    10511.678    7203.9368    7433.3252    7166.8474   -5.2564759    551.61632   -324.07929   -5347.9148 
 4691000    103.65303   -6738.9835   -6472.3424   -6738.9835            0    7880.9173    23.119049     21.22794    21.391385    10498.245    7262.6884    9193.1075     7186.956   -270.44168    493.95232   -559.39385   -5265.7256 
 4692000    102.45746   -6745.9664   -6482.4008   -6745.9664            0    7599.3433    23.154044    21.103406    21.505409    10508.171    7968.2622    7656.8648     7172.903   -595.44417   -76.909601   -133.67866   -5317.7946 
 4693000    99.683037   -6746.0174   -6489.5889   -6746.0174            0    8149.6183    23.258655    21.095745    21.372625    10486.663    7758.8769    7667.2132    9022.7648    73.704099   -236.96816     628.1218   -5243.2088 
 4694000    106.54312   -6757.2645   -6483.1888   -6757.2645            0    7523.9369     23.08004    21.222874    21.434955    10499.372    8288.8299    7362.9231    6920.0577   -543.00629    169.39268   -188.49933   -5331.1043 
 4695000    102.64179   -6744.0721   -6480.0323   -6744.0721            0    7494.7824    22.987306    21.345406    21.428271    10514.282     7672.587    7754.2981     7057.462    652.74576    218.87569   -542.29125   -5330.7822 
 4696000    102.23578   -6757.5963    -6494.601   -6757.5963            0    7264.6012    22.974637    21.394504    21.391454    10514.562    7287.3702    6442.4239    8064.0095    426.52171    533.34499    -288.5548   -5380.6172 
 4697000    105.28621   -6754.4498   -6483.6075   -6754.4498            0    7369.8271    23.180066    21.291218    21.279196    10501.961    6934.6639    6988.9207    8185.8968    93.076523   -1097.0248   -499.25595   -5354.8423 
 4698000    105.68759   -6751.0433   -6479.1684   -6751.0433            0    7993.5884    23.139752    21.079891    21.529906    10501.932    8108.7215    8103.9033    7768.1404     112.3611   -696.30723    195.74044   -5254.8711 
 4699000    106.85905   -6750.9041   -6476.0157   -6750.9041            0    8017.1127    23.130369    21.105867    21.476011    10484.298     8925.978    7588.4563    7536.9038   -282.09013   -458.21429    476.93187   -5250.1772 
 4700000    102.06364   -6753.4745    -6490.922   -6753.4745            0    7996.7404     23.19317    21.224005     21.32663    10498.075    6954.6872    7663.6386    9371.8955     1103.642    306.94983    69.622528   -5266.5918 
 4701000    103.50603   -6750.0717   -6483.8087   -6750.0717            0    7699.3955    23.012744    21.266161    21.460229     10502.48    8839.5419    7371.6657     6886.979    373.84163   -60.678767     74.07531   -5304.5085 
 4702000    104.92595   -6751.7773   -6481.8617   -6751.7773            0    8637.4879    22.971419     21.29458    21.399912    10468.125    8510.6876    8859.4227    8542.3534   -328.18834    221.51976    -694.4314   -5163.2035 
 4703000    97.331792   -6758.1881    -6507.808   -6758.1881            0    8162.4987    23.129065    21.163285    21.398551    10474.313     8329.481    7964.4137    8193.6013     491.7894    513.42693   -209.42773   -5260.9283 
 4704000    101.51081    -6752.244   -6491.1136    -6752.244            0    7428.9249    23.138277    21.148845    21.471288    10506.928    7382.6561    6414.8003    8489.3182    102.49845   -615.35581    139.11373   -5352.7589 
 4705000    101.37119   -6757.4995   -6496.7283   -6757.4995            0    6896.5976    23.154583    21.137913    21.529199    10537.242    6548.3317     7292.073    6849.3882   -719.10543   -28.124033    619.01852   -5436.8946 
 4706000    101.73474   -6760.0994    -6498.393   -6760.0994            0     8020.679    23.111127     21.19776    21.380542    10474.415    7975.5749    8071.6999    8014.7621    224.27041    380.74827   -4.3911692   -5273.1653 
 4707000    97.252423   -6747.3228   -6497.1468   -6747.3228            0    7693.3279    23.130541    21.254093    21.355201    10498.616    7698.7407     7630.044    7751.1991   -286.99156    326.56759   -534.83813   -5319.2096 
 4708000    102.15664   -6750.7466   -6487.9549   -6750.7466            0    7118.5558    22.890665    21.433345    21.482382    10539.762     8255.392    6349.4786    6750.7968   -560.63476    251.38382   -69.383249   -5393.7502 
 4709000    103.17587   -6744.1763   -6478.7627   -6744.1763            0    7719.9456    23.056493    21.286175    21.415035    10510.168    8902.7376    7337.9402    6919.1592   -630.07253   -222.45967   -577.97182   -5295.4493 
 4710000    100.43959    -6746.922   -6488.5473    -6746.922            0    7060.9435     23.16442    21.252631    21.362077    10516.654     7017.332    6035.1585    8130.3401    172.68552    378.86207    1055.1736   -5405.5778 
 4711000    105.45847   -6745.0438   -6473.7583   -6745.0438            0    8777.3618    23.071197     21.13063    21.470309    10466.968    9899.4612      8108.36    8324.2641   -843.26033   -628.06019    402.51716   -5133.8942 
 4712000    101.84676   -6753.6229   -6491.6284   -6753.6229            0    8055.7847    23.128866    21.147341    21.448725    10490.872    8674.5429    7286.0533    8206.7579   -59.117028    140.55649    412.01841   -5259.1045 
 4713000    101.58693   -6751.4902    -6490.164   -6751.4902            0    7265.9138    23.240405    21.184158    21.371356    10521.725     6826.617    7958.6062    7012.5181    678.10045   -415.75401    248.46937   -5375.2199 
 4714000     102.1822   -6746.3024   -6483.4449   -6746.3024            0     8188.732    23.076528    21.245138    21.366527    10475.239    7615.8333    8487.1892    8463.1735    380.93971   -586.44235    400.29133   -5232.4472 
 4715000    99.675103   -6760.6787   -6504.2705   -6760.6787            0    7429.7096    23.021687    21.305522    21.443715    10517.908    7744.5674    6872.7112    7671.8501   -479.97704    262.66704    100.33504   -5364.6059 
 4716000    101.60285   -6745.8924   -6484.5253   -6745.8924            0    8530.8812    22.964085    21.338522    21.367356    10470.424    8822.2294    7863.4381    8906.9763    256.23206   -312.69644    334.26923   -5181.8564 
 4717000    101.12013   -6745.6172   -6485.4918   -6745.6172            0    8004.1155    23.080971     21.17148    21.468512    10490.767    8499.5101    9002.3926    6510.4438   -594.21122   -861.87293   -278.69359   -5260.8855 
 4718000    106.71955   -6749.8568   -6475.3272   -6749.8568            0    7341.5847    23.264581    21.050251    21.443513     10501.43    6229.8387    7863.2313    7931.6842    -361.0828    810.68012    621.36239   -5350.9445 
 4719000    98.176069   -6744.7935   -6492.2415   -6744.7935            0    7173.4603    23.196512    21.157338    21.425765    10515.261    6565.9946    8496.3948    6457.9914    232.12053   -73.372261    304.60031   -5392.1606 
 4720000    100.07714   -6762.5402   -6505.0979   -6762.5402            0    6967.2684    23.045259    21.227176    21.514531    10524.602    6885.6465    7265.5257     6750.633   -53.836786    670.17507    329.92124   -5435.6881 
 4721000    101.40604   -6750.8617   -6490.0009   -6750.8617            0    8206.3922    23.019358    21.284309    21.403479    10486.658    9402.6097    7362.0242    7854.5427    111.91732   -687.68742   -579.83612   -5234.9386 
 4722000    104.35579   -6763.6031   -6495.1542   -6763.6031            0    7833.1637    23.040097    21.270902    21.385106    10480.491    7918.1298    7514.6136    8066.7477   -424.06149    308.08752   -224.75332   -5297.8769 
 4723000    102.51689    -6760.074   -6496.3555    -6760.074            0    7323.7604    23.205645    21.189528    21.383903    10514.821     6371.475    8264.4482    7335.3582    160.60651       94.783   -491.05257   -5373.2723 
 4724000    103.59321    -6735.878   -6469.3908    -6735.878            0    8235.5243    23.180487    21.024761    21.510302    10483.351    7938.2257    9436.2879    7332.0594   -503.66109   -599.60477   -702.17605   -5210.2703 
 4725000    102.84023   -6752.8438   -6488.2936   -6752.8438            0    8733.1367    23.087763    21.176283    21.405012    10465.188    9552.0902    7950.7911    8696.5287   -261.57478   -820.71508   -174.68544    -5155.407 
 4726000    101.75361   -6749.6393   -6487.8844   -6749.6393            0    7899.2271    23.100512    21.238227    21.381325    10489.976    7814.3711    7716.0093     8167.301   -64.795191   -437.83481    675.47389   -5279.4169 
 4727000    107.98573   -6743.2469   -6465.4602   -6743.2469            0    7386.7669     22.96362    21.361711    21.474013     10533.91    8180.9731    6166.7308    7812.5967     223.1507    -42.21652    798.81819   -5330.6588 
 4728000    107.75302   -6740.8531    -6463.665   -6740.8531            0    8338.7428    22.961151    21.380385    21.335347    10473.911    8679.5199    7754.2634     8582.445    805.37588   -198.96192    337.93878   -5189.9116 
 4729000    102.44009   -6740.7622   -6477.2413   -6740.7622            0    7937.2865    23.146554    21.143051    21.430086    10487.643    8153.8574    8360.4813    7297.5206    1067.2393    289.91308    64.153809   -5263.2213 
 4730000    105.24364    -6742.967   -6472.2342    -6742.967            0    8036.1589    23.150225    21.138382    21.479966      10511.4     7613.717    8380.5792    8114.1804    888.85675   -511.86292     422.3276   -5240.3073 
 4731000    106.22717   -6745.3424   -6472.0795   -6745.3424            0    7705.6369    23.176716    21.123624    21.460983    10506.787    7516.0632    8062.0069    7538.8407   -564.50605    178.39587   -691.10017   -5291.3392 
 4732000     103.6643   -6749.9766   -6483.3065   -6749.9766            0    7230.9784    23.195219    21.242449    21.364632    10526.851    7566.9941    6681.8112    7444.1297   -260.29536   -301.65764   -670.22231   -5373.1826 
 4733000    102.52952   -6756.4171   -6492.6662   -6756.4171            0    8152.5343    23.002432    21.255083    21.460638    10492.505    8187.0497    7704.3498    8566.2033   -143.54408    478.70844    609.65865   -5245.1456 
 4734000    105.03126   -6754.1104   -6483.9239   -6754.1104            0    7380.7241    23.014071    21.206115    21.506867    10496.191    7857.6955    7243.1435    7041.3332   -100.28092    228.20605    590.86085   -5354.1109 
 4735000    98.589124   -6739.3038   -6485.6893   -6739.3038            0    8475.2254    22.979441    21.302499    21.412493    10481.833    9125.1433    7103.1597    9197.3733    183.24483     721.0915    810.70124   -5190.1088 
 4736000    105.83745   -6760.4438   -6488.1834   -6760.4438            0    7915.3515    22.993184    21.271081    21.465041    10498.334    8112.4141    7302.9845    8330.6558    98.307549    345.33322   -90.667093   -5276.2842 
 4737000    97.576874   -6749.7777   -6498.7672   -6749.7777            0    7340.7723     23.18275    21.243848     21.37725    10528.099    6667.0218    7752.9831     7602.312    256.80162   -345.73293   -243.55723   -5371.6538 
 4738000    106.06191   -6747.6108    -6474.773   -6747.6108            0    7567.5383    23.200453    21.198012    21.401123    10525.147    6859.2544    8209.9856    7633.3748   -830.60936    229.73208   -454.25697   -5313.1674 
 4739000    102.22635   -6752.8747   -6489.9036   -6752.8747            0    7653.8238    23.163882    21.177163    21.419367     10507.17      7413.16    7487.0197    8061.2918   -410.36519   -468.39863   -208.02151     -5317.06 
 4740000    104.66143   -6753.7621   -6484.5269   -6753.7621            0    7119.4636    23.198756    21.164196    21.468485    10540.662    7023.0321    6588.6179    7746.7408   -304.45844    1142.7261   -712.01683   -5390.0892 
 4741000    101.82689   -6745.0625    -6483.119   -6745.0625            0    8408.7611    22.967185    21.278057    21.386092     10451.32    8522.8435    8513.2341    8190.2057    165.01552   -616.22853    473.12819   -5201.4406 
 4742000    102.24559   -6755.5625    -6492.542   -6755.5625            0    7090.1341    23.007106    21.299448    21.472141    10522.179    7058.4455    6381.5256    7830.4313    -332.8318    900.70883    257.89663   -5404.5241 
 4743000    98.685226   -6730.1103   -6476.2486   -6730.1103            0    8947.8724    23.016859    21.221489    21.404942    10455.287    10191.244    8705.0698    7947.3034   -327.88536   -418.36207   -241.81771   -5111.8802 
 4744000    103.04837    -6752.367   -6487.2814    -6752.367            0     7498.514    23.124276    21.213181    21.428611     10511.58    7164.3408    7433.2561     7897.945    -89.36393   -510.87851    246.00161   -5337.7546 
 4745000    109.47508    -6746.796    -6465.178    -6746.796            0      7854.57    23.201587    21.137967    21.413297    10501.817    7187.3693    8163.7429     8212.598    694.08525    77.364093   -323.50297   -5262.1859 
 4746000    103.30635   -6759.7807   -6494.0314   -6759.7807            0    7417.9443    23.161023    21.161033    21.468377    10521.892    7086.9838    7607.1647    7559.6843   -706.65438   -122.88272    467.04349   -5355.7405 
 4747000    97.891488   -6733.9016   -6482.0818   -6733.9016            0    8048.9981    23.117063    21.187513    21.414519    10488.683     7364.447    8703.2144    8079.3328   -770.82217    -60.60823    268.32356   -5250.8532 
 4748000    106.76847   -6757.9754     -6483.32   -6757.9754            0    7524.3851    23.072964    21.197981     21.48751    10509.546    7668.2886    7854.4658    7050.4009    665.28093     289.5547    -635.3489   -5330.0504 
 4749000    101.54294   -6752.2612   -6491.0481   -6752.2612            0    7871.5498    22.927769    21.357961     21.43224    10495.162    8600.8795    7238.3884    7775.3816    683.97543   -775.55445    269.78541   -5286.2195 
 4750000    105.22302   -6733.6045   -6462.9247   -6733.6045            0    8107.7238    23.044134    21.264263    21.419801    10496.057    8457.8509    7985.0887    7880.2318   -384.31889    362.28115    -241.8036   -5221.8413 
Loop time of 677.639 on 64 procs for 250000 steps with 1296 atoms

Performance: 63.751 ns/day, 0.376 hours/ns, 368.928 timesteps/s
194.0% CPU use with 32 MPI tasks x 2 OpenMP threads

MPI task timing breakdown:
Section |  min time  |  avg time  |  max time  |%varavg| %total
---------------------------------------------------------------
Pair    | 38.442     | 49.943     | 60.185     |  79.9 |  7.37
Bond    | 0.89938    | 1.1005     | 1.8061     |  19.7 |  0.16
Kspace  | 345.9      | 361.57     | 375.19     |  34.1 | 53.36
Neigh   | 1.4474     | 1.5959     | 1.7386     |   6.8 |  0.24
Comm    | 95.287     | 105.41     | 112.99     |  46.8 | 15.55
Output  | 0.56192    | 0.56232    | 0.56384    |   0.1 |  0.08
Modify  | 125.95     | 129.63     | 134.13     |  17.4 | 19.13
Other   |            | 27.83      |            |       |  4.11

Nlocal:        40.5000 ave          49 max          29 min
Histogram: 2 0 0 4 8 1 8 1 3 5
Nghost:        3159.75 ave        3181 max        3127 min
Histogram: 1 3 1 1 2 6 4 6 5 3
Neighs:        13308.3 ave       16169 max        9552 min
Histogram: 2 0 3 2 7 4 5 3 1 5

Total # of neighbors = 425866
Ave neighs/atom = 328.60031
Ave special neighs/atom = 2.0000000
Neighbor list builds = 2544
Dangerous builds = 0

unfix		3
unfix		2
unfix		1

write_data	data.final.${pid}
write_data	data.final.0
System init for write_data ...
PPPM initialization ...
  extracting TIP4P info from pair style
  using 12-bit tables for long-range coulomb (../kspace.cpp:340)
  G vector (1/distance) = 0.37009601
  grid = 30 40 32
  stencil order = 5
  estimated absolute RMS force accuracy = 0.0039656707
  estimated relative force accuracy = 1.1942499e-05
  using double precision FFTW3
  3d grid and FFT values/proc = 7752 1200
Last active /omp style is kspace_style pppm/tip4p/omp
WARNING: Not all mixed pair coeffs generated from mixing. Use write_data with 'pair ij' option to store all pair coeffs. (../write_data.cpp:312)

write_restart   restart.lmp.${pid}
write_restart   restart.lmp.0
System init for write_restart ...
PPPM initialization ...
  extracting TIP4P info from pair style
  using 12-bit tables for long-range coulomb (../kspace.cpp:340)
  G vector (1/distance) = 0.37009601
  grid = 30 40 32
  stencil order = 5
  estimated absolute RMS force accuracy = 0.0039656707
  estimated relative force accuracy = 1.1942499e-05
  using double precision FFTW3
  3d grid and FFT values/proc = 7752 1200
Last active /omp style is kspace_style pppm/tip4p/omp
Total wall time: 0:11:17
