#include		in.partitions
include		in.temp
variable        temperature equal 252.72
variable	tempDamp equal 100.0
include		in.pressure
variable        pressure equal 1412.2
variable        pressureDamp equal 1000.0 # This is 1 ps
include		in.seed
variable        seed equal 745823

units		real
atom_style	full

read_restart	restart.lmp.${pid}
read_restart	restart.lmp.1
Reading restart file ...
  restart file = 30 Jul 2021, LAMMPS = 30 Jul 2021
  restoring atom style full from restart
  orthogonal box = (0.033613597 -0.16339386 -0.25862678) to (19.966387 20.163395 20.958625)
  2 by 4 by 4 MPI processor grid
  restoring pair style lj/cut/tip4p/long/omp from restart
  restoring bond style harmonic/omp from restart
  restoring angle style harmonic/omp from restart
  972 atoms
  648 bonds
  324 angles
Finding 1-2 1-3 1-4 neighbors ...
  special bond factors lj:    0        0        0       
  special bond factors coul:  0        0        0       
     2 = max # of 1-2 neighbors
     1 = max # of 1-3 neighbors
     1 = max # of 1-4 neighbors
     2 = max # of special neighbors
  special bonds CPU = 0.002 seconds
  read_restart CPU = 0.008 seconds
include 	in.setup
variable	out_freq equal 1000
variable	out_freq2 equal 10000
variable	out_freq3 equal 1000

timestep	2.0

neigh_modify    delay 7 every 1

include		in.tip4p
# This is TIP4P/Ice

# create groups ###
group ox type 2
324 atoms in group ox
group hy type 1
648 atoms in group hy

# set charges - beside manually ###
set group ox charge -1.1794
Setting atom values ...
  324 settings made for charge
set group hy charge 0.5897
Setting atom values ...
  648 settings made for charge

# ### TIP3P Potential Parameters ###
pair_style lj/cut/tip4p/long/omp 2 1 1 1 0.1577 8.5
pair_coeff 1 1*2 0.000 0.000
pair_coeff 2 2 0.21084 3.1668
bond_style  harmonic
bond_coeff  1 450 0.9572
angle_style harmonic
angle_coeff 1 55 104.52
kspace_style pppm/tip4p/omp 1.0e-5
pair_modify tail yes

thermo          ${out_freq}
thermo          1000
thermo_style    custom step temp pe etotal epair emol press lx ly lz vol pxx pyy pzz pxy pxz pyz enthalpy

restart 	${out_freq3} restart.lmp.${pid} restart2.lmp.${pid}
restart 	1000 restart.lmp.${pid} restart2.lmp.${pid}
restart 	1000 restart.lmp.1 restart2.lmp.${pid}
restart 	1000 restart.lmp.1 restart2.lmp.1


include         in.dump
dump            myDump all atom ${out_freq2} dump.water.${pid}
dump            myDump all atom 10000 dump.water.${pid}
dump            myDump all atom 10000 dump.water.1
dump            myDump2 all dcd ${out_freq2} dump.dcd
dump            myDump2 all dcd 10000 dump.dcd
dump_modify     myDump append yes
dump_modify     myDump2 append yes


variable natoms 	equal  "count(all)"                        # NUMBER ATOMS
variable H      	equal  "enthalpy/v_natoms"                 # ENTHALPY-per-atom
variable Vol      	equal  "vol/v_natoms"                 # volume-per-atom
fix AVG all 		ave/time ${out_freq} 1 ${out_freq} v_Vol v_H file vol_enthalpy.dat
fix AVG all 		ave/time 1000 1 ${out_freq} v_Vol v_H file vol_enthalpy.dat
fix AVG all 		ave/time 1000 1 1000 v_Vol v_H file vol_enthalpy.dat


timer           timeout 02:55:00 every 1000
New timer settings: style=normal  mode=nosync  timeout=02:55:00

fix 		1 all shake 1e-6 200 0 b 1 a 1
       0 = # of size 2 clusters
       0 = # of size 3 clusters
       0 = # of size 4 clusters
     324 = # of frozen angles
  find clusters CPU = 0.001 seconds
fix             2 all nph aniso ${pressure} ${pressure} ${pressureDamp}
fix             2 all nph aniso 1412.2 ${pressure} ${pressureDamp}
fix             2 all nph aniso 1412.2 1412.2 ${pressureDamp}
fix             2 all nph aniso 1412.2 1412.2 1000
fix             3 all temp/csvr ${temperature} ${temperature} ${tempDamp} ${seed}
fix             3 all temp/csvr 252.72 ${temperature} ${tempDamp} ${seed}
fix             3 all temp/csvr 252.72 252.72 ${tempDamp} ${seed}
fix             3 all temp/csvr 252.72 252.72 100 ${seed}
fix             3 all temp/csvr 252.72 252.72 100 745823


run             250000
PPPM initialization ...
  extracting TIP4P info from pair style
  using 12-bit tables for long-range coulomb (../kspace.cpp:340)
  G vector (1/distance) = 0.37148537
  grid = 24 24 25
  stencil order = 5
  estimated absolute RMS force accuracy = 0.0035221881
  estimated relative force accuracy = 1.0606965e-05
  using double precision FFTW3
  3d grid and FFT values/proc = 3458 576
Last active /omp style is kspace_style pppm/tip4p/omp
Neighbor list info ...
  update every 1 steps, delay 7 steps, check yes
  max neighbors/atom: 2000, page size: 100000
  master list distance cutoff = 10.8154
  ghost atom cutoff = 10.8154
  binsize = 5.4077, bins = 4 4 4
  1 neighbor lists, perpetual/occasional/extra = 1 0 0
  (1) pair lj/cut/tip4p/long/omp, perpetual
      attributes: half, newton on, omp
      pair build: half/bin/newton/omp
      stencil: half/bin/3d
      bin: standard
Per MPI rank memory allocation (min/avg/max) = 10.19 | 10.19 | 10.20 Mbytes
Step Temp PotEng TotEng E_pair E_mol Press Lx Ly Lz Volume Pxx Pyy Pzz Pxy Pxz Pyz Enthalpy 
  500000    254.73352   -4657.6693   -4166.3943   -4657.6693            0    1013.5437    19.932774    20.326789    21.217252    8596.5786    1968.6198     703.2954    368.71576    81.270552    1562.4005   -726.65221    -4039.324 
  501000     248.1701   -4689.9595   -4211.3426   -4689.9595            0    2180.6676    20.217248    20.053134    21.033283    8527.2968    1198.5224    3564.9192    1778.5613    364.94062    -448.1868   -972.37475   -3940.1507 
  502000    260.48462   -4708.4436   -4206.0771   -4708.4436            0    1308.6592    20.209752    20.033743    21.119225     8550.688    1526.0433    1637.7254    762.20886   -571.47224    766.28864    -798.2337   -4042.8834 
  503000    255.90413   -4709.4628   -4215.9301   -4709.4628            0    326.26668     20.25076    20.166101    21.021213    8584.6193    1950.3272   -1105.7457    134.21857   -369.17534    1052.7883   -726.62605   -4175.0822 
  504000    248.26014   -4733.3218   -4254.5312   -4733.3218            0    1242.1925    20.121629    20.220427    20.905659    8505.8423    598.12566    537.63919    2590.8126   -216.22192    257.03617    985.14795   -4100.4385 
  505000    250.98813   -4693.0675   -4209.0158   -4693.0675            0    2489.1023    20.096475    20.235999    21.006914    8542.9291    3086.7981    2244.1461    2136.3627    -467.6514     469.5669    -659.6036   -3898.8989 
  506000     268.3179   -4714.3416    -4196.868   -4714.3416            0     864.6204    19.999406    20.127585    21.393265    8611.6394    964.31157    2092.8292   -463.27956    88.776622    476.79572    152.32028   -4088.2787 
  507000    248.53243   -4687.6517    -4208.336   -4687.6517            0    1793.4315    20.187783    20.092935     21.22025    8607.6084    1974.7407    2360.9664    1044.5874    610.76547   -89.289002     136.2449   -3983.2009 
  508000    259.11058   -4703.6133   -4203.8967   -4703.6133            0    623.46018    20.242649    20.265823    20.986381    8609.3258    1541.9831   -550.40982    878.80724   -341.19386   -257.37407   -357.04792   -4125.6162 
  509000    268.61285   -4701.7834   -4183.7409   -4701.7834            0     1957.139    20.344841    20.125546    20.776876    8507.1136    374.27698     2820.894     2676.246   -7.5582555   -730.61407    1048.3763   -3940.9235 
  510000     256.7592   -4684.9285   -4189.7468   -4684.9285            0    789.59501    20.144701    20.180112    21.307753    8662.0771    1467.8998   -611.29063    1512.1759    -408.2907   -711.80197    -633.7838   -4089.9992 
  511000    237.69918   -4671.9719    -4213.549   -4671.9719            0     1509.461    20.183547    20.249123    21.164771    8650.0232    1310.4351    1399.6364    1818.3114    -337.2406   -2.7447301   -1214.8959   -4023.1279 
  512000    253.11242   -4657.1236    -4168.975   -4657.1236            0     2766.184     20.14897    20.263535    20.918183    8540.6715      2035.98    3344.1794    2918.3925   -348.19185   -725.41906   -320.72086   -3824.4276 
  513000    271.88415   -4690.7119   -4166.3605   -4690.7119            0   -312.59277    20.165186    20.310672    21.063982    8627.1432   -395.69216   -592.06134    49.975179    464.71218    -997.5893   -198.19127   -4205.6903 
  514000    240.86874    -4681.569   -4217.0334    -4681.569            0    1067.2197     20.09948    19.934412    21.420076      8582.41    2552.8287     1003.326   -354.49552    259.32907   -1759.1652    681.48539   -4083.4541 
  515000    242.73436   -4689.3787    -4221.245   -4689.3787            0    2628.0541    20.052553    20.264289    21.120455    8582.3124    3050.0417    1919.8169    2914.3037   -506.40749   -147.07906    1554.1966   -3892.3067 
  516000    257.07742   -4710.5444    -4214.749   -4710.5444            0    2036.1256    20.228189    20.188173    20.917301    8542.0019    1267.1297    2231.2019    2610.0452   -12.030285   -1285.3051    740.05762   -3961.0959 
  517000    255.85129   -4698.5728   -4205.1421   -4698.5728            0    1275.8799    20.191162    20.342851    20.986724    8620.2091    1165.8495    88.055628    2573.7347    872.55596    210.65085    890.25063   -4044.7424 
  518000    248.22469   -4719.1524   -4240.4302   -4719.1524            0    1797.8497    20.223195    20.148533    21.153861    8619.5155    3321.2024   -352.61758    2424.9641   -356.41031   -813.15713    -55.34093   -4014.4283 
  519000    253.28496   -4701.6034   -4213.1221   -4701.6034            0    1596.5272    20.210235     19.89737    21.469069    8633.3678    119.42635    3313.9718    1356.1834    447.50945    2185.7337     381.0816   -4012.1052 
  520000    242.48669   -4687.4028   -4219.7468   -4687.4028            0    1790.0971    20.072909    20.223635    21.157082     8588.658    3224.3009    1092.5602    1053.4302    410.85752    407.06587     250.3413    -3995.525 
  521000    250.18616   -4724.4885   -4241.9835   -4724.4885            0    1848.1871    20.205634    20.231444    20.902628    8544.7679    2073.8094    1877.4852    1593.2668    625.98086     -576.003    101.89415   -4011.6685 
  522000    251.09897    -4689.787   -4205.5215    -4689.787            0    1302.0075    20.271081    20.215988    21.050146    8626.3482    1914.5595   -129.35114    2120.8142    653.12763    861.81263   -1031.8955   -4041.7206 
  523000    248.03966    -4716.953   -4238.5876    -4716.953            0    358.51878    20.105966     20.12476    21.253469    8599.7431    1875.9498   -1180.3316    379.93814    211.92781   -795.40889    -131.1974   -4193.6228 
  524000    265.69105   -4682.9653   -4170.5578   -4682.9653            0    1399.9808    20.169261    20.294646    20.989266    8591.4943     970.7373    1738.2908    1490.9144    205.52722    634.44018     1037.213   -3995.1428 
  525000    266.49814   -4694.2312   -4180.2671   -4694.2312            0    544.47551    20.183106    20.051568    21.321148    8628.7306     763.1155    919.54676   -49.235724    460.51889    -751.7673   -623.99958   -4111.7497 
  526000    265.90095   -4688.0698   -4175.2574   -4688.0698            0    2719.5173    20.090369    19.965131     21.14203    8480.2132    3171.4329    2173.8393    2813.2795   -163.91209   -477.74877    771.87317   -3838.9206 
  527000    267.27636   -4688.6508   -4173.1859   -4688.6508            0    2305.5428    20.315333    19.968388    20.964923     8504.724    2.4599806    4779.7504    2134.4181   -27.040315   -988.90792   -194.80605   -3887.2232 
  528000    255.08763   -4719.9651   -4228.0071   -4719.9651            0    750.49517    20.213757     20.09363    21.020076    8537.6771    942.62871    562.44117    746.41564    436.69869   -73.002785    -228.3267   -4134.5605 
  529000    252.97914   -4685.9757   -4198.0841   -4685.9757            0    1688.8946     20.40186    19.885727    21.186658    8595.5504   -197.59037    3261.7649    2002.5091   -108.26977   -124.27825   -214.57438   -3986.3689 
  530000    265.93608   -4701.2169   -4188.3368   -4701.2169            0    2385.0605    20.109916    20.127861    21.082436    8533.5292    2707.2865    3271.4956    1176.3993    590.79707    457.15031    449.40114   -3891.5095 
  531000    257.30106   -4689.6768   -4193.4501   -4689.6768            0    1732.6567     20.35474    20.238829    20.831196    8581.5385    1420.1768    1258.3112    2519.4822   -1104.2569   -410.88867    538.19253    -3976.603 
  532000    248.25143   -4676.4386   -4197.6648   -4676.4386            0     1041.126    20.159334    20.244816    21.091322    8607.8328    2870.1266   -67.644244    320.89568   -145.19139    514.75942   -862.37084   -4066.9656 
  533000    254.61612   -4699.7739   -4208.7253   -4699.7739            0    79.217118    20.406936    19.999055    21.135881    8625.9636   -124.23104   -78.498726    440.38112    -194.8412    510.87869   -673.11355   -4198.7598 
  534000    237.55114   -4688.9343    -4230.797   -4688.9343            0     1045.855     20.02727    20.179157    21.238856    8583.3315     2039.363    30.584883     1067.617   -10.877238   -746.65365    1257.7719   -4099.8778 
  535000    251.78329   -4745.9327   -4260.3475   -4745.9327            0    3231.6383    20.209488    20.019973    21.014427    8502.2987    3684.1414    2341.7839    3668.9896    94.792388   -654.66649    71.655377    -3859.633 
  536000    244.02445    -4710.648   -4240.0264    -4710.648            0    442.18236    20.160646    20.136882    21.302764    8648.3374    994.19694    412.16616   -79.816033     19.72361    116.31016    481.62507   -4184.2552 
  537000    256.91366   -4710.4305   -4214.9509   -4710.4305            0    785.60333    20.056029    20.090116    21.132629    8514.9266    1123.3771   -213.83215     1447.265   -418.27346     226.7511   -556.18993   -4117.3936 
  538000     257.4127    -4687.092     -4190.65    -4687.092            0    1286.4858    20.381731     20.17135    20.957931    8616.3715    552.28896    2307.7454    999.42299     84.09801    -921.8239   -67.090688    -4028.989 
  539000    248.07158   -4715.4934   -4237.0665   -4715.4934            0    547.13292    20.193107    20.085706    21.104184    8559.7054    1757.5694   -52.133628   -64.036972    156.94343     833.2442   -739.55392   -4168.7654 
  540000    246.02028   -4690.6964   -4216.2256   -4690.6964            0   -53.809269    20.258795     20.16347     21.07519    8608.9541   -1198.9342   -359.23886    1396.7452    504.75518   -1030.2995    405.58247   -4222.9815 
  541000    262.29335   -4707.6905   -4201.8357   -4707.6905            0    541.38232    20.086785    20.250799    21.173792    8612.9362    375.59633    1011.1938    237.35686   -908.51479   -418.94675   -288.63262   -4133.8322 
  542000    251.23967   -4708.2639    -4223.727   -4708.2639            0   -337.45724    20.293306    20.277629    21.045407    8660.1879   -72.465075    88.565495   -1028.4721    457.18519   -221.21275    12.646075   -4266.3479 
  543000    262.53757   -4698.1564   -4191.8306   -4698.1564            0    1059.3691    20.199399    20.250349    20.876294    8539.3413    441.64835    842.62013     1893.839    205.18013    2023.6964   -145.25395   -4059.8994 
  544000    253.74271   -4731.7297   -4242.3655   -4731.7297            0    2286.0416    20.139544    19.968048    21.280249    8557.7962    1816.5557    3312.4293    1729.1397    259.52886    385.24288   -563.45946   -3957.0523 
  545000    248.70711   -4727.8088   -4248.1562   -4727.8088            0    1016.4012    20.192262    19.960028    21.312156    8589.6109   -267.86112    2554.2624    762.80235    10.936991   -626.15061   -777.92626    -4120.831 
  546000    244.04858   -4697.3308   -4226.6625   -4697.3308            0    2710.2728    20.119211    20.180401    20.981119    8518.6228    2538.2173    2024.9556    3567.6456   -695.97932    1008.1345   -1068.6358   -3889.9508 
  547000    256.61233   -4709.0132   -4214.1147   -4709.0132            0    1620.6599    20.244734    20.147709    20.982632     8558.501    256.21147     2949.837    1655.9312     561.7977   -139.26109    1680.0831   -4011.8289 
  548000    244.74786   -4715.0774   -4243.0606   -4715.0774            0    278.58983    20.169397    20.202296    21.220439     8646.653    1287.6015   -419.11584   -32.716201    351.66552   -535.30175   -1026.3762   -4207.9297 
  549000     254.6732   -4684.4316    -4193.273   -4684.4316            0    2656.4512    20.053636    20.159343    21.251979    8591.4975    2173.7207     3302.101    2493.5319    70.888325   -360.49765    1219.3847   -3860.4245 
  550000    244.15415   -4708.2323   -4237.3605   -4708.2323            0    3077.8933     20.08115    20.254747    20.912633    8505.9751    3810.2059    2236.8167    3186.6574   -252.21975    693.34513   -146.07823    -3855.545 
  551000     271.1614   -4666.4017   -4143.4441   -4666.4017            0    835.77787    20.268401    20.355588     20.85372     8603.728    447.47297    115.82065      1944.04   -214.40106    122.70901   -276.89644   -4038.5736 
  552000    230.99027   -4685.1829   -4239.6987   -4685.1829            0    1782.1386    20.059992    20.221796    21.075707    8549.3408    1238.5497    3320.7926    787.07344    155.04091   -12.423298    641.94376   -4017.4957 
  553000    243.51981   -4719.6664   -4250.0179   -4719.6664            0     662.2739    19.998969     20.26823    21.237398    8608.4457    1443.9125    836.18417   -293.27492   -44.524097    853.25375    317.96682   -4166.8725 
  554000    255.51253   -4676.2878   -4183.5104   -4676.2878            0     1983.246    20.211716    20.133107    20.988626    8540.7888    1411.4224    1812.5545    2725.7611   -442.50893   -254.35035   -252.54806     -3936.48 
  555000    254.29415   -4696.8885   -4206.4608   -4696.8885            0    1280.5944    20.088889    20.430798    20.861072    8562.0525    2143.7654   -882.42035    2580.4383   -647.88271   -833.24115    899.20123   -4046.5546 
  556000    265.65862   -4676.0523   -4163.7073   -4676.0523            0    1631.7147    20.234708    20.176149    20.920792    8541.0907    2676.1573    580.11327    1638.8736   -325.13707    487.53065    1084.7189   -3960.4559 
  557000    241.06749   -4707.0887   -4242.1698   -4707.0887            0    1747.5634    20.356813    20.081231    21.075084    8615.2809    1472.5015    2763.5409    1006.6478    274.50946   -829.71889   -1013.9892   -4022.5971 
  558000    258.94878   -4717.9663   -4218.5618   -4717.9663            0    -373.6975    20.269321    20.053041    21.183332    8610.2093   -1034.2295    567.28126   -654.14429    434.72146   -1085.9315   -802.12358   -4265.4874 
  559000    254.41419   -4703.7569   -4213.0977   -4703.7569            0    3019.0407    20.057076    20.240696    21.013938    8531.0109    4213.8278    1705.7395    3137.5549   -945.03485    253.80456   -1139.3159   -3837.4806 
  560000    257.59007   -4715.4181   -4218.6339   -4715.4181            0    1387.1485    20.212191     20.22797    20.994146    8583.4902    1243.6157    1064.3733    1853.4564   -1128.9568   -1043.1665   -667.41925   -4044.9887 
  561000    251.71552   -4686.9111   -4201.4565   -4686.9111            0    3372.8032    20.149871    19.958365    21.224277    8535.5232    3735.4926    4334.5239     2048.393    463.20842    612.12652    563.49683   -3781.6037 
  562000    260.46579   -4666.4208   -4164.0906   -4666.4208            0    775.00699    20.135558    20.285301    21.172864    8648.1804    1409.7993    915.10598   0.11569952    495.24021    741.08105     -68.5441    -4066.343 
  563000    263.39716   -4691.7102   -4183.7266   -4691.7102            0    2006.0497    20.148323    20.266436    20.873196    8523.2499    992.08277    2356.1909    2669.8756    515.86161    283.18763   -105.29053   -3934.3689 
  564000    256.01966   -4705.0557   -4211.3003   -4705.0557            0    1246.7434    20.205632    20.195136    20.976947    8559.7585    1465.1163    917.93241    1357.1815    39.854567   -799.95021   -466.26127   -4055.6627 
  565000    256.45309    -4719.075   -4224.4837    -4719.075            0    1532.7169     20.07904     20.19077    21.211063    8599.2042    1369.9269    2318.3004    909.92344    37.092585    822.95743    -699.8551   -4032.2648 
  566000    260.94961   -4679.1692    -4175.906   -4679.1692            0    1454.7231    19.959466     20.37183    21.160208    8603.9698    3001.0809    193.49015    1169.5982   -181.74516    1980.9414    1438.3745   -3993.3672 
  567000     250.2647   -4712.1226   -4229.4661   -4712.1226            0    3221.2562    20.010995     19.93325    21.246552    8474.9128    3300.8967     3297.011     3065.861   -145.81538   -732.58411    1086.6651   -3831.3256 
  568000    250.25161   -4690.8809   -4208.2496   -4690.8809            0    687.98101    20.287887    20.105686    21.181158    8639.8343    1213.1507    378.11819    472.67417    437.97811   -328.79094   -611.24961   -4121.5619 
  569000    241.08882   -4708.3568   -4243.3967   -4708.3568            0    1967.4675    20.136986    20.277901    20.938344    8549.8755    1534.8557    1330.5698    3036.9769   -112.14293    234.95999    893.82314   -3998.0709 
  570000    242.30904   -4668.8406   -4201.5272   -4668.8406            0     1534.569    20.413615    19.996571    21.040684     8588.856    1539.3736    1653.7906    1410.5427   -290.99232    550.88593   -43.616625   -4009.3077 
  571000    256.74987    -4700.089   -4204.9253    -4700.089            0    1485.2473    19.916482    20.202149    21.313659    8575.6732    1595.6334    2851.8378    8.2705583   -64.456817    1953.2128   -930.43566   -4019.1693 
  572000     263.5099   -4666.4797   -4158.2787   -4666.4797            0     2201.761    20.237775     20.11133    21.197587    8627.5998    2189.8478    2690.4575    1724.9779    362.66803    1023.1913    211.94082   -3881.2428 
  573000    240.30639   -4714.4403   -4250.9892   -4714.4403            0    934.90081    20.190362    20.232385    21.048647    8598.3548    2121.2116   -420.50985    1104.0007   -688.17386    174.91143   -160.86985   -4133.7544 
  574000    238.23134   -4696.9469   -4237.4977   -4696.9469            0    892.64634    20.066263    20.389869    20.983467    8585.3537    1107.9152    1119.5563    450.46748    245.48535   -413.21227    376.99799   -4125.7308 
  575000    248.29837   -4700.9188   -4222.0545   -4700.9188            0    816.99297    20.207667    20.010917     21.28718     8607.981    728.03012     1580.009    142.93983   -19.959408   -1529.9847    1190.9571   -4119.4904 
  576000     257.1085   -4708.2306   -4212.3752   -4708.2306            0    775.25616    20.130741    20.152479    21.327784    8652.3477    1490.0457   -191.42515    1027.1479    17.088762    612.16563   -205.06016    -4114.549 
  577000    223.95405   -4690.6105   -4258.6962   -4690.6105            0    1715.5502    20.326556     20.28111    20.818762    8582.4326   -51.801251    2328.6136    2869.8382    39.202228    689.91383    340.47932   -4043.9677 
  578000    259.84859   -4672.1829   -4171.0431   -4672.1829            0    575.11184     20.36653    20.148688    20.977876    8608.4571    190.15063    108.90304    1426.2818    294.80676   -185.82706   -1061.4936   -4098.8403 
  579000    248.52957   -4725.9478   -4246.6376   -4725.9478            0   -271.26472    20.176773    20.259845    21.194193    8663.7257   -195.06116   -325.51874   -293.21428   -148.31016   -1211.0369    121.35422   -4280.9123 
  580000    259.16514    -4693.723   -4193.9012    -4693.723            0    2824.3415    20.078638    20.068875    21.204464    8544.4586    2272.0897    3973.0878     2227.847   -454.20877    1824.9495   -698.76191   -3841.9539 
  581000    260.24994   -4707.8729    -4205.959   -4707.8729            0    1903.8677    20.127503      20.1479    21.059897    8540.3551    2744.9795    993.75885    1972.8647   -468.69258    1686.7557   -1083.5442   -3968.8278 
  582000    256.18934   -4731.8662   -4237.7835   -4731.8662            0    1785.5353    20.168557    20.215354    20.987562    8556.9339    3609.7513   -620.55204    2367.4068   -477.88811     433.0821    1367.4676   -4014.9592 
  583000    250.90387   -4678.5753   -4194.6861   -4678.5753            0    2073.0261    20.168692    20.251633    20.953494    8558.4324    4303.3814    760.20099     1155.496    160.13799    611.08617    1698.2304   -3935.9393 
  584000    261.11587   -4670.0916   -4166.5077   -4670.0916            0    1389.1811     20.46402      19.8453     20.94327    8505.3683    561.57607    1087.1065    2518.8608   -20.381394   -827.40882   -536.39202   -3994.1908 
  585000    241.47572   -4704.5395   -4238.8333   -4704.5395            0    1509.3339    20.321281    20.011809    21.210003    8625.3787    1112.0981    2479.3538    936.54966   -57.414675   -349.93923    172.22921   -4048.9707 
  586000    242.24409   -4690.4146   -4223.2265   -4690.4146            0   -304.56159    20.085005    20.269819    21.352232    8692.9083    989.37375   -931.70418   -971.35435   -216.44052    -13.97639     136.0385   -4261.8379 
  587000    251.24655   -4704.5614   -4220.0113   -4704.5614            0    2132.5551    20.086837    20.156498    21.027381    8513.5718    2390.1558    2199.9793    1807.5302   -94.836587    378.44692   -1547.1111   -3955.2296 
  588000    247.30796   -4689.9651   -4213.0109   -4689.9651            0    577.49167    20.436531    20.199259    21.005441    8671.1045   -1541.3471    1367.0483    1906.7738    -289.8447    27.073705   -944.68029   -4139.9818 
  589000    245.47333   -4739.2802   -4265.8642   -4739.2802            0    2462.1569    19.980554    20.243025    20.976548    8484.3181    1619.9158     2690.966     3075.589   -454.39905    579.91053   -965.84166    -3961.209 
  590000    250.15818   -4710.9411     -4228.49   -4710.9411            0    2138.9337    20.278388    20.006584    21.124214    8570.1204    1590.2982    2003.3303    2823.1725   -121.88681   -1254.3893    452.92399   -3961.1523 
  591000    249.60018   -4705.1357   -4223.7607   -4705.1357            0    2836.8609    20.075978    20.091264    21.041823    8487.2566    2271.2844    4581.8313    1657.4671   -40.252071   -755.50318    -936.5533     -3872.62 
  592000    252.66901    -4707.595   -4220.3016    -4707.595            0    1381.0455    20.254076    20.273619    20.905849    8584.4309    1176.7727    1453.6222    1512.7416   -590.15851    292.01393    1816.7394   -4047.4015 
  593000    266.10761    -4698.556    -4185.345    -4698.556            0    1118.2926    20.096713    20.165111    21.125121    8561.0069    1999.3792    1037.1427    318.35582     495.1749    19.533421    457.92436   -4045.7223 
  594000    249.53574   -4693.2695   -4212.0189   -4693.2695            0    1523.8832    20.164331     20.04582      21.3427    8626.9444    2288.7812    1638.9141    643.95433    228.29054   -106.52247   -305.83953   -4020.2913 
  595000    246.17284   -4723.6638   -4248.8988   -4723.6638            0    2157.0964    20.125943    20.191371     20.86145     8477.475    1384.9157    2121.2345    2965.1389   -936.41052    412.22656    617.38336   -3982.2056 
  596000    255.17268   -4686.0799   -4193.9579   -4686.0799            0    703.71177    20.260897    20.205411    20.989505    8592.6782     1518.273     -475.754    1068.6163   -600.14522   -443.67803   -277.48046    -4105.772 
  597000    248.51205   -4692.0992   -4212.8228   -4692.0992            0    738.48363    19.976708    20.379564    21.104051    8591.8093    1865.0248   -627.95652    978.38256   -371.07487   -420.50979    -395.0102   -4120.2888 
  598000    252.50635   -4703.9139   -4216.9342   -4703.9139            0    1838.2063    20.099258    20.066565    21.090338    8506.2194    104.48016     3760.972    1649.1667     54.88407   -77.240675    430.17683   -3988.8964 
  599000    250.42567   -4703.0627   -4220.0958   -4703.0627            0    1789.5552    19.898609    20.335883     21.13415    8552.0565    4378.6255   -375.30618    1365.3463   -403.78299    1338.9766    -581.1208   -3996.8971 
  600000    250.99751    -4704.023   -4219.9532    -4704.023            0    2236.4417    20.031635    20.527952    20.801848    8553.8954    3298.2898    1363.4972    2047.5382   -638.44097    757.73447    288.88136   -3940.9576 
  601000    241.16851   -4718.8878    -4253.774   -4718.8878            0    1807.5705    20.147182    20.214411    20.935984    8526.4606    2560.4746     913.7871    1948.4499   -289.28961    1270.4532    477.23665   -4029.0032 
  602000    247.82072   -4694.1967   -4216.2536   -4694.1967            0    640.07444    20.302712    20.094156    21.029719    8579.4074   -1004.4076     1764.307    1160.3239    191.27426     78.64009   -1178.5294   -4136.1663 
  603000    254.58037    -4684.467   -4193.4873    -4684.467            0    2781.8452    20.219956     19.88776    21.288381     8560.689    1646.2689    4446.6868    2252.5799    2.2208698   -97.092679    2216.9502   -3846.1771 
  604000    253.97296   -4688.7711   -4198.9629   -4688.7711            0    1118.4896     19.97989    20.328849     21.14941    8590.2174    1133.1849    1985.2156    237.06811   -284.98454   -791.55212    108.37725    -4058.839 
  605000    261.71225   -4668.6597   -4163.9256   -4668.6597            0    2285.1951    20.345434    20.010283    21.200078     8630.931    2393.9672    1607.2762    2854.3417   -460.38102    491.18732   -1033.5724   -3876.2806 
  606000    252.21691   -4722.0118   -4235.5902   -4722.0118            0    1478.7623    20.147417    20.201818    21.028593    8558.9413    1603.0419   -572.37993     3405.625    363.64032     404.1465     315.0948   -4051.0061 
  607000    256.69891   -4701.6492   -4206.5838   -4701.6492            0    1180.0331    20.453413     19.92566    21.062928    8584.1493    1095.2234    450.62279    1994.2532    45.221733    521.73419     162.8674   -4058.8543 
  608000    265.78515   -4701.9585   -4189.3695   -4701.9585            0    1357.3108    20.241205    20.052959    21.237113    8620.0605    1927.2461    2305.6568    -160.9704    474.52069   -627.22946   -1639.5119   -4018.7355 
  609000    257.24464   -4701.2233   -4205.1054   -4701.2233            0    1491.6296    20.100545    20.465717    20.797778     8555.625    1637.5455    47.542987    2789.8003    424.40004     1310.554    140.98343   -4018.9873 
  610000    262.15783   -4690.6018   -4185.0084   -4690.6018            0    1261.7792    20.344845    20.048554    21.047284    8584.8659   -663.25324    3045.8432    1402.7478   -65.626958   -856.71817   -85.930623   -4027.0318 
  611000    258.64984     -4680.43   -4181.6021     -4680.43            0    1969.2531    20.016578    20.184577    21.188328    8560.6387    2042.7681    1326.5814    2538.4098    655.20461    746.29272    1263.4537   -3935.7445 
  612000    247.28718    -4677.166   -4200.2519    -4677.166            0    569.89441    19.837678    20.291443    21.346293    8592.6324    1381.4737    1137.8197   -809.61018    -138.8119    358.42021    1016.8748   -4128.8357 
  613000    255.60555   -4728.7759   -4235.8191   -4728.7759            0    319.75848    20.105225    20.338984    21.064017    8613.4946    2071.4323   -1651.8289    539.67206   -577.50358   -502.92689   -629.57869   -4195.6513 
  614000    253.43093   -4690.5225   -4201.7597   -4690.5225            0    1978.1492      20.3718    20.044907    20.856243    8516.6642    1163.5517    2570.7518    2200.1443   -396.45089   -1203.5569    157.94076     -3956.06 
  615000    252.83387   -4705.8435   -4218.2321   -4705.8435            0    885.34194    20.186854     20.20551    20.988493     8560.906    2894.9825   -1326.1847     1087.228   -466.09507   -189.46922    1442.6202   -4107.6954 
  616000    253.59767   -4732.6086   -4243.5241   -4732.6086            0    1318.7982    20.212678    20.189118    21.088983    8605.9105    1330.7127    1398.2478    1227.4341   -661.58106    113.97516     922.5642   -4078.0039 
  617000    232.91807   -4701.2386   -4252.0365   -4701.2386            0    2042.7547    20.171854    20.042764    21.110526    8534.9794    1793.2811    3898.1214    436.86151    -288.3468   -562.42985    568.46384   -3997.7668 
  618000    241.44846    -4698.146   -4232.4924    -4698.146            0    1194.2055     20.16625    20.310964    21.110298    8646.6931    1449.0495    796.71977    1336.8471   -434.47543   -907.05199    474.22056   -4081.8993 
  619000    245.59181   -4708.4747   -4234.8303   -4708.4747            0    2046.9326    20.198702    20.089203      20.8979    8479.8624    3197.5933    651.05604    2292.1485   -406.28894   -116.01581    409.84436   -3981.6859 
  620000     254.0229   -4704.2004   -4214.2959   -4704.2004            0    1376.5414    20.132659    20.342631     21.05818     8624.404    490.63113    1435.7223    2203.2707   -1012.0686   -451.22222    -361.5601   -4041.1572 
  621000    234.15189   -4696.4677   -4244.8861   -4696.4677            0    1144.2992    20.032154    19.862915    21.488801    8550.3287    783.49928    2786.7053   -137.30708    177.25366    533.30489   -1056.7674   -4102.1945 
  622000    255.39122   -4679.5052   -4186.9618   -4679.5052            0    696.86569    20.344884    20.101141    21.072802     8617.836    276.29066    861.72592    952.58049   -239.38373     972.8824    298.63953   -4099.3781 
  623000    257.96425   -4709.0006   -4211.4948   -4709.0006            0    1786.3271    20.200112    20.359144    20.645661    8490.6727    1877.6361    887.20769    2594.1375   -602.17405     -903.101     1473.701    -3990.298 
  624000    250.10165   -4686.7417   -4204.3996   -4686.7417            0    2561.0094    20.198826    20.005782     21.05747    8509.1829    3610.8164    1907.2865    2164.9255    -377.8856    282.99636   -534.59386   -3886.5842 
  625000    252.57696   -4669.9617   -4182.8457   -4669.9617            0     1181.492    20.067738    20.160407    21.313556    8622.9053    2755.7637    129.40755    659.30473   -1025.9897   -383.90513    183.79152   -4034.2658 
  626000    241.34446   -4710.0257   -4244.5726   -4710.0257            0    848.34954     20.27741    20.213959    20.976658    8598.0537    245.20936    1369.8754    929.96391   -685.78717   -871.62061   -626.21558   -4138.1949 
  627000    247.02551   -4699.1695   -4222.7601   -4699.1695            0    565.15141    20.277549    20.187846    21.069535    8625.0255   -347.26775    791.12454    1251.5974    627.44389   -1520.3157   -373.96193   -4151.6713 
  628000    252.47786   -4716.4164   -4229.4916   -4716.4164            0    2085.4511    20.396389     20.02587    21.029412    8589.5777    854.84203    3637.0577    1764.4536    28.186633    1496.5923    42.904776   -3968.2467 
  629000    256.12758   -4664.7935     -4170.83   -4664.7935            0     3137.891    19.973769    20.250218    20.932727    8466.7264    3224.1851    2248.5541    3940.9337   -486.67821   -466.37425   -73.049346   -3783.3678 
  630000     235.6644   -4700.6835   -4246.1849   -4700.6835            0    2447.2837    20.162961    20.034472    21.142508    8540.6065     1393.382    3447.1595    2501.3098    534.50096   -68.548197    166.46562    -3941.361 
  631000    242.80191   -4722.5842   -4254.3203   -4722.5842            0    2592.4824    20.100711    20.020808    21.116014    8497.7698    4185.4962    1528.5219     2063.429    13.115504     1136.879   -1058.6282   -3933.0307 
  632000    256.28624   -4676.6392   -4182.3696   -4676.6392            0    1380.3676    20.275154    20.288415    20.826098    8566.8306    1266.8914     521.5707    2352.6408   -343.74302   -241.04173    794.45179   -4009.9086 
  633000     268.9782   -4692.5248   -4173.7777   -4692.5248            0     2812.445    20.167647    20.300846    20.979294    8589.3483    3227.7783    2239.7187    2969.8381     39.39786    272.89167    998.82476   -3821.4716 
  634000     245.6938   -4709.1155   -4235.2744   -4709.1155            0    1677.7675    20.161234    20.151028    21.079816    8564.0881   -899.82112    4079.6611    1853.4625    43.969181   -268.56495    403.79636   -4025.7238 
  635000    251.75674   -4706.8234   -4221.2893   -4706.8234            0    2740.5255    20.261619    19.897904    21.203492    8548.4794    909.30092    5051.0007    2261.2749    533.61083    484.52019   -252.67746   -3879.6258 
  636000    255.80925   -4704.3238   -4210.9742   -4704.3238            0    714.38695    20.087438    20.328802    20.969076    8562.7964    947.99973    1156.4281    38.732997    82.181877    408.45004   -1590.1087   -4121.7618 
  637000    247.39643   -4711.6444   -4234.5196   -4711.6444            0    1691.6552     20.33938    20.154602    20.972912    8597.4702    1689.8872    1953.9289    1431.1494   -119.73527    931.09218     1149.925   -4022.4109 
  638000    244.40341   -4706.6371   -4235.2846   -4706.6371            0    1859.9331     20.25139    20.211253    20.945019    8572.9211    2288.8955    858.42203    2432.4819   -368.50482    964.71559    1000.2952   -4002.7422 
  639000     231.9694   -4705.8483   -4258.4758   -4705.8483            0    2950.9252    20.294516    19.931644    21.002829    8495.7091    1665.4415    2463.9738    4723.3603    350.34073    692.15294    1892.4664   -3892.8527 
  640000    259.34767    -4706.577   -4206.4032    -4706.577            0    1075.6243    20.019793     20.11123    21.416477    8622.7586    1946.6434    108.94427    1171.2852    -734.2707    571.68244    -121.5315   -4071.1391 
  641000    246.65766    -4695.717    -4220.017    -4695.717            0    1233.8052     20.40772    20.164157    20.941274    8617.4283    1275.9856    49.757057    2375.6731    166.55408    870.59663    734.69966   -4064.9568 
  642000    246.90681   -4689.3979   -4213.2174   -4689.3979            0    1347.3421     20.22785    20.090723    20.858438    8476.7049    1678.2751    245.71131    2118.0398   -341.84761    615.29483    441.11269   -4046.6535 
  643000    253.97754   -4711.5253   -4221.7082   -4711.5253            0    548.59557     20.14482    20.135828    21.183771    8592.8289    1408.9797    55.942702    180.86427   -167.08805    107.81613   -447.97795   -4152.9595 
  644000    260.14597   -4712.4569   -4210.7435   -4712.4569            0    1805.3265    20.139566    20.006546    21.210839     8546.338    4843.8725   -789.20868    1361.3155    76.700301    166.87773    72.790355   -3985.7284 
  645000     254.1716   -4706.7575   -4216.5662   -4706.7575            0    921.85318     20.15402    20.213397    20.917368    8521.3429    1608.8854   -708.42642    1865.1006   -135.70212    32.647787   -380.62616   -4102.0028 
  646000    238.54129   -4696.5678   -4236.5209   -4696.5678            0    1338.4657    20.240471     20.27298    20.806314    8537.5519   -144.47782     1312.987     2846.888    211.02651    491.80219    171.20735   -4069.8666 
  647000    256.95048   -4744.5133   -4248.9627   -4744.5133            0    1023.5797    20.211634    20.089715    21.069233    8555.0774    609.33192    1373.9613     1087.446    114.89318   -244.26665    465.81482   -4121.2536 
  648000    251.65897   -4714.2107   -4228.8652   -4714.2107            0    1886.8063    20.033276    20.053371    21.397026    8595.9279     2370.054    2756.0406    534.32438    -952.7738    995.50625   -1226.1938   -3992.3299 
  649000    249.03171   -4678.2859   -4198.0073   -4678.2859            0    1202.7559    20.050174     20.10802    21.272931    8576.5932    1711.1739    1758.6958    138.39812   -177.70078    560.90948    1162.3016   -4047.5656 
  650000    255.85625   -4719.7586   -4226.3183   -4719.7586            0     2471.129    20.111447    20.155485    20.982335    8505.3143    972.12477      3680.79    2760.4723   -626.17601    1551.8605   -1579.7913   -3919.7963 
  651000    261.62493   -4679.5984   -4175.0327   -4679.5984            0   -398.36479    20.335212    20.226761     21.03903    8653.6788   -1102.7509    191.28307   -283.62655     388.2398   -257.98447    334.31437   -4225.3083 
  652000     260.3838   -4698.0697   -4195.8977   -4698.0697            0    1862.7529    20.252509    20.030927    20.938855    8494.4023    1308.2731    1627.8982    2652.0875   -779.15461    487.61729   -75.007583   -3965.1358 
  653000    244.62662   -4695.9183   -4224.1353   -4695.9183            0    666.62577    20.274646    20.021993    21.059526    8548.8789    3415.2227   -1236.0867   -179.25871   -1133.2661   -767.15108   -368.22268   -4141.0227 
  654000    246.05144   -4687.9285   -4213.3976   -4687.9285            0     3106.024    20.228443    19.886965    21.051923    8468.8172    3164.7647    3942.2282     2211.079   -341.85104   -603.31867    619.46716   -3829.7756 
  655000    256.62975   -4722.6932   -4227.7611   -4722.6932            0    249.60541     20.16734    20.090097    21.204426    8591.2661      780.263    932.03231   -963.47908    274.47195    1014.4659    149.63377   -4196.4869 
  656000    255.28073   -4728.9165   -4236.5861   -4728.9165            0    1722.9451    19.996874    20.209547    21.203836    8569.0588     1234.285    2419.2861    1515.2643    342.92185    -68.81122    307.12131    -4021.268 
  657000    250.70495   -4693.8115   -4210.3059   -4693.8115            0    2019.6778    20.273852    20.193586      20.9586    8580.4879    2631.8841    1453.4123    1973.7371   -227.42571   -318.84167     74.87058   -3957.5683 
  658000    248.81558   -4735.2623   -4255.4005   -4735.2623            0     360.0567    20.167955    20.139038     20.92613    8499.4241   -676.47693    1703.0122    53.634829    184.01815    585.76623    55.767761   -4210.7695 
  659000    242.52007   -4711.4308   -4243.7104   -4711.4308            0    1123.6489      19.9363    20.323395    21.122548    8558.2923    2878.1115    1224.8246   -731.98931   -473.06421   -55.232988   -1986.8154   -4103.4634 
  660000    249.70789   -4696.1924   -4214.6097   -4696.1924            0   -294.54017     20.07483    20.148392    21.281912     8608.013    633.09219   -1097.9401   -418.77261   -841.88323    541.82016    281.36533    -4251.586 
  661000    245.98505   -4707.5248   -4233.1219   -4707.5248            0    1329.4121    20.241183    20.076406    21.274232     8645.214   -226.84177    2256.2786    1958.7995   -182.52149    242.74597   -787.22747   -4065.5076 
  662000     251.7697   -4700.8979   -4215.3388   -4700.8979            0    1462.7477     20.17592    20.279634    20.984222    8585.9102    2683.5413   -396.81006    2101.5119    -895.5872   -397.77919   -483.27696   -4032.1784 
  663000    250.24585   -4685.2815   -4202.6613   -4685.2815            0    1543.4181    20.217652    20.167394    20.870772    8509.7934    1737.0708    414.90278    2478.2807   -179.98191    522.77086    118.18191    -4011.113 
  664000    257.26123   -4732.5048   -4236.3549   -4732.5048            0    3155.0168    20.130488    20.148315    21.149088    8577.9732      2491.27    3099.0554    3874.7251    1005.6827   -46.953801    291.60258   -3841.6594 
  665000    246.53415   -4689.3319   -4213.8701   -4689.3319            0    2987.8302    20.087675    20.004812    21.237959    8534.4771    1853.9108    5146.1737    1963.4061   -162.57242    139.82873   -316.88697    -3841.985 
  666000    259.15561    -4697.704   -4197.9006    -4697.704            0   -268.58288    20.303726    20.287571    21.181965    8725.1328   -884.99849   -462.74764    541.99748   -602.84433   -277.51637    1263.2835    -4232.077 
  667000    256.85864   -4710.1187   -4214.7452   -4710.1187            0    986.70693    20.032106    20.228863    21.066537    8536.7237    1335.4818    462.74878    1161.8903    618.39277    189.13878   -559.44361   -4091.9008 
  668000     265.7555   -4689.8311   -4177.2993   -4689.8311            0    258.33128      20.3757    20.115825    21.158131    8672.1682   -780.94378    1173.7647    382.17297   -67.310604     221.3462   -1032.2392   -4144.6269 
  669000    269.30544   -4705.0253   -4185.6471   -4705.0253            0    1520.9337    20.027528    20.317323    21.015249    8551.2258    1526.7063    947.90601    2088.1888    529.37192   -69.505583   -130.18334   -3995.9701 
  670000    261.08541   -4706.1043   -4202.5791   -4706.1043            0    879.95585     20.29075    20.153458    21.036111    8602.2713    2069.6356    -45.54225    615.77419    272.23741    -1169.215   -1042.6327    -4092.184 
  671000    248.49198   -4673.0753   -4193.8376   -4673.0753            0    1905.5424     20.23597    19.983168    21.299567    8613.0931    -138.0235    3845.3045    2009.3462   -230.46071    502.33998   -585.30369   -3954.4765 
  672000    242.86655    -4695.846   -4227.4575    -4695.846            0    2013.7857    20.270177    20.203512    20.880816     8551.295     848.8144    2711.1553    2481.3875   -320.09415    447.17232   -213.34365   -3976.3145 
  673000    252.64569    -4727.083   -4239.8345    -4727.083            0    2556.8762     20.17172    20.228945    20.817419    8494.6022    2361.9378    1304.0702    4004.6206   -348.90441    532.43044    373.88963   -3923.0757 
  674000    250.58908   -4695.7641    -4212.482   -4695.7641            0    1131.2116    20.326238    20.128902    21.187433     8668.729    1525.7216    151.07497    1716.8382    220.39862    456.65126   -532.11632   -4069.4691 
  675000    249.24044    -4696.907   -4216.2259    -4696.907            0    2304.5503    20.029684    19.956672    21.241238    8490.6717    2846.6116      3608.83    458.20936   -1000.1205   -71.977722   -84.969946   -3930.8586 
  676000    255.35918   -4739.2239   -4246.7422   -4739.2239            0    706.75963    20.150965    20.213302    21.091152    8590.7962    404.32948     407.9169    1308.0325   -172.36635    259.35065    272.43193   -4158.1937 
  677000    255.08163   -4701.6465   -4209.7001   -4701.6465            0    1311.2159    20.117398    19.958596    21.242266    8529.0889    768.34058    1767.2081    1398.0989   -588.37097   -218.15221    437.59684   -4046.6005 
  678000    251.86769   -4701.5452   -4215.7972   -4701.5452            0    671.70199    20.158824    20.353063    20.916984    8582.1091    1043.4508   -1141.5685    2113.2236    1007.9795    138.41935    489.48457   -4131.7261 
  679000    256.37874   -4671.5001   -4177.0521   -4671.5001            0     837.7478    20.382597    20.195217    20.837038    8577.1702   -575.81476    572.63773    2516.4204   -247.70243    1287.6967   -213.86442   -4072.2589 
  680000    247.21958   -4669.6203   -4192.8366   -4669.6203            0    1731.3373    20.209475    20.160366    21.033127    8569.5356    913.80035    2956.6742    1323.5372    649.00217    1943.5631    2187.7893   -3976.4577 
  681000    253.42286   -4721.5531   -4232.8058   -4721.5531            0    854.45374    19.962505    20.267718    21.273795    8607.2586    684.00849    538.84141    1340.5113    114.70741   -452.70356    1083.6205   -4125.5479 
  682000    269.57286   -4742.1342   -4222.2403   -4742.1342            0    1016.2712    20.179764    20.109008      20.9823    8514.5134     1086.762    556.05878    1405.9928   -339.40554    430.19099    279.44332   -4096.0444 
  683000    244.11449   -4707.2049   -4236.4095   -4707.2049            0    1328.4807    20.226149    19.977916    21.131145    8538.5953   -710.59644    3474.9723    1221.0662    680.12274    -982.3109    80.998428   -4070.9783 
  684000    256.50448   -4740.7808   -4246.0904   -4740.7808            0    334.19183    20.500384    19.925684    21.093391    8616.3163   -2272.5142    2675.6352    599.45441   -318.59477   -197.47493    705.71025   -4204.0958 
  685000    257.92938    -4684.112   -4186.6735    -4684.112            0    3015.0289    20.076277    20.129667    21.049691    8506.7859    1213.3506    4250.9153    3580.8209   -222.69843   -52.588581   -30.899167   -3812.6207 
  686000    258.35111    -4679.008   -4180.7562    -4679.008            0    3892.1031     20.01852    19.902355    21.251314    8466.8571    4957.2289    3667.8514     3051.229    156.66694    476.89281   -1648.6575   -3700.1577 
  687000    251.72424   -4710.3672   -4224.8958   -4710.3672            0   -256.78877    20.180249    20.314849    21.110081    8654.2617   -889.25913    572.40151   -453.50867   -687.92605    644.93507    695.23252   -4257.3061 
  688000    254.09989   -4693.0276   -4202.9746   -4693.0276            0    2091.5414    20.160581    20.116594    20.969485    8504.4313    1955.1508    1594.4794     2724.994    199.51207    842.39965    546.07996   -3943.5641 
  689000    241.49871    -4713.341   -4247.5904    -4713.341            0    1695.1491    20.331168    20.027014    20.933449    8523.5267     1961.199    985.60777    2138.6406    296.27291   -330.07495    523.23335   -4036.8717 
  690000    248.09093   -4644.2714   -4165.8072   -4644.2714            0    2405.8705    19.830949    20.185285    21.438492    8581.6857    2515.0628    2338.4438    2364.1049    78.121135    1544.3746    143.90658   -3864.7002 
  691000    249.72631   -4691.3834   -4209.7652   -4691.3834            0    1296.9551    20.307365    20.103346    21.093585    8611.3713    2330.5631   -152.10791    1712.4102   -407.43945    1212.7985    863.95696   -4046.8831 
  692000    251.38488   -4688.3252   -4203.5083   -4688.3252            0     1514.289    20.071619    20.120106    21.133073    8534.4455    2158.2129    286.59999    2098.0541    111.34283   -212.66448   -61.443623   -4015.0306 
  693000    254.10069   -4693.7735    -4203.719   -4693.7735            0    691.86855    20.170144    20.347877    21.063287    8644.7862     1563.786   -311.23159    823.05121    670.02594   -516.78231    45.628335   -4116.4914 
  694000    257.03953   -4687.6502   -4191.9279   -4687.6502            0    1997.9911    20.365891    20.031961    21.047818    8586.8514    1048.7385    2466.9854    2478.2494   -423.71624    275.77546     906.6496   -3941.7186 
  695000    248.25558    -4696.655   -4217.8732    -4696.655            0    3042.3889    20.130733    19.932201    21.380147    8578.7802    3421.1981    3312.7564    2393.2122   -1277.7179    252.48629   -588.28674   -3837.2317 
  696000     248.2407    -4690.633   -4211.8799    -4690.633            0    1981.5256    20.134294    20.066806    21.221766    8574.2511    2451.6623    1658.6071    1834.3073   -553.77984    859.53588   -1114.1104   -3964.0968 
  697000    257.88275   -4718.6681   -4221.3195   -4718.6681            0    1869.0433    20.239275    20.110017     20.92908    8518.3901    1997.0701     1950.876    1659.1838   -300.14392   -274.40807    407.37812   -3989.1245 
  698000    250.89929   -4692.3431   -4208.4627   -4692.3431            0   -616.82199    20.513055     20.12381    21.006507    8671.5032   -1285.9051   -1227.4529    662.89194   -255.87892    1178.8156    663.50304   -4286.4691 
  699000    255.58524   -4682.6616    -4189.744   -4682.6616            0      2329.23    20.228786    20.220478    21.156639    8653.8215    4858.4369   -180.46489    2309.7181   -30.202088    1769.3589    68.892006   -3895.7786 
  700000    253.99266   -4717.7666   -4227.9204   -4717.7666            0    367.00534    20.141117    20.011383    21.258442    8568.2494    128.76648    1423.7846   -451.53511    103.74562    330.22134     645.0702   -4182.0597 
  701000    253.10617   -4709.9279   -4221.7913   -4709.9279            0     1098.057     20.21296    20.301718    20.982842    8610.4737    232.82781    1683.8842    1377.4589    1117.3142   -988.53033   -287.15563   -4083.9029 
  702000    263.14934   -4706.8168   -4199.3112   -4706.8168            0    1381.6864    20.251011    20.173637    20.836155    8512.3311   -94.710011    2110.6781    2129.0911    821.77921    527.24047   -844.27848   -4027.7836 
  703000    244.49651   -4720.6891    -4249.157   -4720.6891            0    1052.8665    20.237246     20.08758    21.087654    8572.4961    1503.4558    1293.9806    361.16313   -274.45313    390.37575    306.34922   -4117.5265 
  704000    240.51479    -4707.659    -4243.806    -4707.659            0    2589.3273    20.112784    19.968803    21.440861    8611.2548    1129.2758    4204.0983    2434.6079    -17.41197    632.62088   -9.3287483   -3918.6219 
  705000     239.1083   -4699.2334    -4238.093   -4699.2334            0    1548.9128    20.070311     20.15793    21.251557    8597.8683    408.74481     1230.078    3007.9155   -107.13146   -1224.4584    -166.4882   -4043.8731 
  706000    245.87152   -4719.7974   -4245.6135   -4719.7974            0    1494.7395    20.041079     20.11892    21.401596    8629.2275    714.69318    2490.6404    1278.8849    225.33209    233.98671    -75.08714   -4057.5029 
  707000    253.45162   -4699.4466   -4210.6438   -4699.4466            0    1259.4805    20.219934    20.090826    21.183866    8605.6318    1258.1742    883.08151    1637.1859   -120.77099    729.77632    595.28588   -4052.5736 
  708000    251.43092   -4691.0051   -4206.0994   -4691.0051            0    1168.4043    20.306103    20.107621    21.005642    8576.7596     1313.422    1214.8016    976.98933   -280.25219   -1362.3992    267.59266   -4059.9516 
  709000    252.47998   -4709.9708    -4223.042   -4709.9708            0    471.67759    20.341684    19.997918    21.029729    8554.7115   -651.20943    1239.7848    826.45739    465.98398    836.96866   -52.362746   -4164.1947 
  710000    261.50056   -4689.9107   -4185.5848   -4689.9107            0    2120.5063    20.154745    20.198448    21.119165    8597.4976    3924.3632    1831.8045    605.35115   -2.3958544   -10.378146    912.04321   -3919.7037 
  711000    260.63516    -4709.909   -4207.2522    -4709.909            0    1356.4541    20.115023    19.888813     21.43636    8575.9146    1416.7218    1559.6158    1093.0246    47.966942    -1268.973     671.3867   -4037.5992 
  712000    252.74858   -4702.5817   -4215.1348   -4702.5817            0    1452.5335    20.097346    20.342086    20.984742     8579.023    75.156768    3637.2273    645.21651   -294.83415    1729.2905    7.9465259   -4033.3992 
  713000    254.05368   -4679.2167   -4189.2528   -4679.2167            0    2401.2205    20.119532     20.21562    20.875961     8490.855    413.54437    2711.7178    4078.3992   -742.21357    961.52347   -333.95498   -3891.9087 
  714000    252.20567   -4691.4734   -4205.0735   -4691.4734            0    1995.0867    20.094157    20.148978    21.216039    8589.8806    2179.7573    1744.4215    2061.0814   -421.75138   -1158.1251   -1129.3295   -3955.1398 
  715000    240.43397   -4730.0339   -4266.3367   -4730.0339            0    2002.6417     20.07096    20.139801    21.181349    8562.0335    3613.2618    1395.0873    999.57603   -259.01696    425.52535    38.382845   -4016.2699 
  716000    245.68177   -4704.5551   -4230.7371   -4704.5551            0     1401.828     20.08191     20.41814    20.751641    8508.9045    2795.1975   -524.09601    1934.3826    233.32583   -366.57315    36.049583   -4056.7792 
  717000     243.1118   -4724.9819   -4256.1204   -4724.9819            0    1350.3441     20.28651    20.121382    20.898876    8530.7672    1041.4547    295.65988    2713.9176   -84.831521   -410.91006   -203.60754   -4088.1207 
  718000    251.58628   -4682.5901   -4197.3848   -4682.5901            0    3167.8272    20.052307    20.178518      21.1529    8559.0096     3493.697    2900.9695    3108.8149    56.807444   -586.35402    390.65269   -3801.9628 
  719000    272.92875   -4727.1314   -4200.7654   -4727.1314            0    933.46528    20.284813    20.103031    21.189761    8640.8929    680.98879    1315.3703    804.03679    450.80701    -56.34183    647.81029   -4083.1314 
  720000    240.35116   -4717.9211   -4254.3836   -4717.9211            0    1348.2056    20.124375    20.144536     21.07064    8541.9574    2567.2768    272.88846    1204.4515   -786.87633    1119.4382    547.54193     -4086.43 
  721000    245.39778   -4690.2238   -4216.9536   -4690.2238            0    833.87854    20.482617     20.11042      20.9429    8626.6741   -957.81459    1694.1352     1765.315   -527.98828    1373.3697   -454.39427   -4112.0423 
  722000    256.41473   -4733.5071   -4238.9897   -4733.5071            0    477.07964    20.009761    20.295581    21.060545    8552.8921     2584.156   -786.69725   -366.21978   -124.50536   -84.516536   -1082.0818   -4179.4811 
  723000    252.23262   -4726.7361   -4240.2842   -4726.7361            0    2984.4376     20.11342    20.189481    20.962339    8512.3764    3757.2295    2063.7718    3132.3114   -290.56727   -357.13127   -112.94896   -3869.7834 
  724000    253.63459    -4706.076   -4216.9203    -4706.076            0    880.32135    20.340534    20.058121    21.218257    8656.8984    146.43252    1058.4019    1436.1297   -420.51869    908.83364    -82.42745    -4105.778 
  725000    243.54017   -4701.1191   -4231.4314   -4701.1191            0    3672.7908    20.049746    19.979138      21.2214    8500.7972     3483.251    4331.9644    3203.1569    176.79093    760.32674   -1218.9518   -3776.0957 
  726000    252.13399   -4703.2984   -4217.0368   -4703.2984            0    2153.6843    20.017626    20.146953    21.275831    8580.4186    2688.5191     2861.984    910.54975   -120.82309   -698.27523    319.24238    -3947.532 
  727000    259.72316   -4658.2628   -4157.3649   -4658.2628            0    2919.2987    20.194479    19.927527    21.269571     8559.429    2628.9862    3932.4905    2196.4193    244.65519    -456.6516   -224.77806   -3792.9474 
  728000    253.36156   -4677.7622   -4189.1331   -4677.7622            0    2606.2319    20.010559     20.15701    21.046684     8489.244     3565.214    2359.3822    1894.0995     -507.761   -462.65489   -387.39354   -3866.4636 
  729000    273.08881   -4725.9599   -4199.2851   -4725.9599            0    2716.4927    20.398956    20.205574    20.720397    8540.3803     3401.941    1404.0903    3343.4468    351.44998   -831.96717   -995.07367   -3860.9387 
  730000    258.22724    -4669.134    -4171.121    -4669.134            0    2124.7565    20.214886    20.158127    20.977416    8548.1763    1106.8407    2421.6778    2845.7511   -835.04989   -1528.6082   -1623.6189   -3906.2353 
  731000    265.44005   -4703.5833   -4191.6598   -4703.5833            0    1093.0269    20.243026    20.075175    21.170678     8603.389    959.22968    1271.6146    1048.2364   -139.87154    543.18507    546.54191    -4054.516 
  732000    254.24289   -4705.1207   -4214.7919   -4705.1207            0     344.6998    20.317273     19.98914    21.183305    8603.0659   -1499.9985    1547.9497    986.14825   -403.12315    366.58004   -1341.8914   -4171.5435 
  733000    246.80593   -4708.1707   -4232.1847   -4708.1707            0   -98.002434    20.101452    20.232277    21.256965     8645.168   -199.41474   -579.69797    485.10541    1116.5279   -188.99178   -592.39435   -4244.5409 
  734000    262.69145   -4704.8387   -4198.2161   -4704.8387            0    917.96839    20.278914    20.205105    21.060358    8629.2202    2214.5909   -252.34636    791.66061   -369.49768   -110.22538   -280.56244   -4082.6914 
  735000    248.70828   -4722.2708    -4242.616   -4722.2708            0    1529.4225    20.267492    20.182108    20.841478    8525.0127    1550.2916    762.98801     2274.988    236.31544     1995.512    829.29325   -4052.4651 
  736000    244.92342   -4707.7985   -4235.4431   -4707.7985            0    1037.3064    20.047258    20.307174    21.018044    8556.5117    1587.8715   -729.07085    2253.1185    -168.9775   -668.11548   -145.85053   -4105.9997 
  737000    256.93857   -4703.6437   -4208.1161   -4703.6437            0     1897.047     20.14844    20.010478    21.308768    8591.2669    2502.4213    2061.6038    1127.1159    290.11793    506.18463    440.46778   -3970.4259 
  738000    253.23026   -4682.8585   -4194.4827   -4682.8585            0    949.96606    20.148075    20.226463    21.182801    8632.5059   -55.465652    1073.1681    1832.1958   -152.15971   -148.50085     501.3924   -4074.8855 
  739000     243.8319   -4691.3815   -4221.1312   -4691.3815            0    1579.2533    20.122046     20.31093    20.942854    8559.2919    2003.3222    1113.7782    1620.6595   -1298.2187    132.19652   -875.77957   -4023.9954 
  740000    251.23317   -4690.2774   -4205.7531   -4690.2774            0    355.60317    19.969679    20.169146    21.249163    8558.5545    1942.3947   -994.15998    118.57473   -405.03873    468.60888   -410.70476   -4161.3675 
  741000    247.61363   -4708.7291   -4231.1854   -4708.7291            0    425.78742    20.239017    20.073183    21.073865    8561.4998   -1283.0625      1258.52    1301.9048     -337.118    830.92808    243.08932   -4178.0212 
  742000    253.31095   -4709.9811   -4221.4497   -4709.9811            0    832.70373    20.172182    20.296993     20.97717    8588.7795    1740.2512   -1279.1619    2037.0219   -137.02537    750.55716   -85.032467   -4117.1464 
  743000    255.80792   -4690.0775   -4196.7304   -4690.0775            0    1684.2236    20.158527    20.191807    21.126232    8599.1594    2000.1362    1658.7622    1393.7724    -361.1428     568.2659    1503.1483   -3985.5121 
  744000    252.50922   -4688.5685   -4201.5833   -4688.5685            0    1456.4673    20.261509    19.961288    21.047356    8512.5152     -244.874    2632.3892    1981.8867    136.49709   -226.76069    1313.6995   -4020.7682 
  745000    262.88194   -4678.3534   -4171.3634   -4678.3534            0    1486.2496    20.221916    20.345182    21.015127    8646.0131    714.85349    2479.0887    1264.8065   -815.89896   -1570.9695    86.277916   -3983.9574 
  746000    260.13519   -4698.8377   -4197.1451   -4698.8377            0    2090.1888    20.240225    20.245522    20.765422    8509.1281    1789.4214    1485.2209    2995.9239    343.73913   -302.37003   -1178.8958   -3937.7591 
  747000    257.73568   -4723.6764   -4226.6115   -4723.6764            0   -864.52429    20.371471    20.204634    21.039314    8659.7423   -529.10956   -770.34828    -1294.115   -104.52119    314.36994    397.63823   -4335.7953 
  748000    260.21271    -4695.275   -4193.4329    -4695.275            0     1150.006    20.164365     20.13402    21.244927    8625.2223    939.76434    546.53503    1963.7185   -409.25079     692.9465   -23.674254   -4048.7736 
  749000    240.10153   -4691.5597   -4228.5037   -4691.5597            0    407.81576    20.163385    20.056455    21.485529    8688.8776    1058.7416    775.12924   -610.42353    298.04724    424.18196    95.468013   -4176.8259 
  750000    265.87957   -4679.8558   -4167.0847   -4679.8558            0   -26.393298    20.219424    20.083661    21.140892    8584.8941    16.657173    519.38676   -615.22383    186.92498   -688.79489   -435.25745   -4170.3892 
Loop time of 360.174 on 64 procs for 250000 steps with 972 atoms

Performance: 119.942 ns/day, 0.200 hours/ns, 694.109 timesteps/s
194.2% CPU use with 32 MPI tasks x 2 OpenMP threads

MPI task timing breakdown:
Section |  min time  |  avg time  |  max time  |%varavg| %total
---------------------------------------------------------------
Pair    | 27.976     | 34.535     | 41.443     |  65.4 |  9.59
Bond    | 1.02       | 1.1977     | 1.6145     |  10.4 |  0.33
Kspace  | 161.21     | 169.41     | 179.13     |  35.3 | 47.03
Neigh   | 2.4295     | 2.5494     | 2.7941     |   6.9 |  0.71
Comm    | 62.147     | 67.06      | 69.458     |  22.4 | 18.62
Output  | 0.7091     | 0.70988    | 0.71154    |   0.0 |  0.20
Modify  | 69.136     | 70.441     | 73.214     |  13.2 | 19.56
Other   |            | 14.28      |            |       |  3.96

Nlocal:        30.3750 ave          38 max          24 min
Histogram: 2 1 6 3 1 14 3 0 0 2
Nghost:        2529.53 ave        2561 max        2502 min
Histogram: 4 3 3 3 5 4 3 2 1 4
Neighs:        9186.06 ave       10984 max        7022 min
Histogram: 2 2 3 4 3 3 4 3 3 5

Total # of neighbors = 293954
Ave neighs/atom = 302.42181
Ave special neighs/atom = 2.0000000
Neighbor list builds = 7888
Dangerous builds = 0

unfix		3
unfix		2
unfix		1

write_data	data.final.${pid}
write_data	data.final.1
System init for write_data ...
PPPM initialization ...
  extracting TIP4P info from pair style
  using 12-bit tables for long-range coulomb (../kspace.cpp:340)
  G vector (1/distance) = 0.37153664
  grid = 24 24 25
  stencil order = 5
  estimated absolute RMS force accuracy = 0.003514882
  estimated relative force accuracy = 1.0584963e-05
  using double precision FFTW3
  3d grid and FFT values/proc = 3458 576
Last active /omp style is kspace_style pppm/tip4p/omp
WARNING: Not all mixed pair coeffs generated from mixing. Use write_data with 'pair ij' option to store all pair coeffs. (../write_data.cpp:312)

write_restart   restart.lmp.${pid}
write_restart   restart.lmp.1
System init for write_restart ...
PPPM initialization ...
  extracting TIP4P info from pair style
  using 12-bit tables for long-range coulomb (../kspace.cpp:340)
  G vector (1/distance) = 0.37153664
  grid = 24 24 25
  stencil order = 5
  estimated absolute RMS force accuracy = 0.003514882
  estimated relative force accuracy = 1.0584963e-05
  using double precision FFTW3
  3d grid and FFT values/proc = 3458 576
Last active /omp style is kspace_style pppm/tip4p/omp
Total wall time: 0:06:00
