LAMMPS (30 Jul 2021)
Processor partition = 0
  using 4 OpenMP thread(s) per MPI task
using multi-threaded neighbor list subroutines
variable        pid world 0 1
variable        phase world IceII IceIh

shell cd ${phase}
shell cd IceII
include Restart.lmp
echo both
log log.lammps
#include		in.partitions
include		in.temp
variable        temperature equal 82.60
variable	tempDamp equal 100.0
include		in.pressure
variable        pressure equal 2030.9
variable        pressureDamp equal 1000.0 # This is 1 ps
include		in.seed
variable        seed equal 745823

units		real
atom_style	full
box tilt large
read_restart	restart.lmp.${pid}
read_restart	restart.lmp.0
Reading restart file ...
  restart file = 30 Jul 2021, LAMMPS = 30 Jul 2021
  restoring atom style full from restart
  triclinic box = (-10.643317 -9.1467996 0.086525772) to (12.623317 12.136798 21.773473) with tilt (-9.2386860 2.0000489 2.8124246)
  2 by 2 by 4 MPI processor grid
  restoring pair style lj/cut/tip4p/long/omp from restart
  restoring bond style harmonic/omp from restart
  restoring angle style harmonic/omp from restart
  1296 atoms
  864 bonds
  432 angles
Finding 1-2 1-3 1-4 neighbors ...
  special bond factors lj:    0        0        0       
  special bond factors coul:  0        0        0       
     2 = max # of 1-2 neighbors
     1 = max # of 1-3 neighbors
     1 = max # of 1-4 neighbors
     2 = max # of special neighbors
  special bonds CPU = 0.001 seconds
  read_restart CPU = 0.006 seconds
include 	in.setup
variable	out_freq equal 1000
variable	out_freq2 equal 10000
variable	out_freq3 equal 1000

timestep	2.0

neigh_modify    delay 7 every 1

include		in.tip4p
# This is TIP4P/Ice

# create groups ###
group ox type 2
432 atoms in group ox
group hy type 1
864 atoms in group hy

# set charges - beside manually ###
set group ox charge -1.1794
Setting atom values ...
  432 settings made for charge
set group hy charge 0.5897
Setting atom values ...
  864 settings made for charge

# ### TIP3P Potential Parameters ###
pair_style lj/cut/tip4p/long/omp 2 1 1 1 0.1577 8.5
pair_coeff 1 1*2 0.000 0.000
pair_coeff 2 2 0.21084 3.1668
bond_style  harmonic
bond_coeff  1 450 0.9572
angle_style harmonic
angle_coeff 1 55 104.52
kspace_style pppm/tip4p/omp 1.0e-5
pair_modify tail yes

thermo          ${out_freq}
thermo          1000
thermo_style    custom step temp pe etotal epair emol press lx ly lz vol pxx pyy pzz pxy pxz pyz enthalpy

restart 	${out_freq3} restart.lmp.${pid} restart2.lmp.${pid}
restart 	1000 restart.lmp.${pid} restart2.lmp.${pid}
restart 	1000 restart.lmp.0 restart2.lmp.${pid}
restart 	1000 restart.lmp.0 restart2.lmp.0


include         in.dump
dump            myDump all atom ${out_freq2} dump.water.${pid}
dump            myDump all atom 10000 dump.water.${pid}
dump            myDump all atom 10000 dump.water.0
dump            myDump2 all dcd ${out_freq2} dump.dcd
dump            myDump2 all dcd 10000 dump.dcd
dump_modify     myDump append yes
dump_modify     myDump2 append yes


variable natoms 	equal  "count(all)"                        # NUMBER ATOMS
variable H      	equal  "enthalpy/v_natoms"                 # ENTHALPY-per-atom
variable Vol      	equal  "vol/v_natoms"                 # volume-per-atom
fix AVG all 		ave/time ${out_freq} 1 ${out_freq} v_Vol v_H file vol_enthalpy.dat
fix AVG all 		ave/time 1000 1 ${out_freq} v_Vol v_H file vol_enthalpy.dat
fix AVG all 		ave/time 1000 1 1000 v_Vol v_H file vol_enthalpy.dat


timer           timeout 10:00:00 every 1000
New timer settings: style=normal  mode=nosync  timeout=10:00:00

fix 		1 all shake 1e-6 200 0 b 1 a 1
Finding SHAKE clusters ...
       0 = # of size 2 clusters
       0 = # of size 3 clusters
       0 = # of size 4 clusters
     432 = # of frozen angles
  find clusters CPU = 0.000 seconds
fix             2 all nph tri ${pressure} ${pressure} ${pressureDamp}
fix             2 all nph tri 2030.9 ${pressure} ${pressureDamp}
fix             2 all nph tri 2030.9 2030.9 ${pressureDamp}
fix             2 all nph tri 2030.9 2030.9 1000
fix             3 all temp/csvr ${temperature} ${temperature} ${tempDamp} ${seed}
fix             3 all temp/csvr 82.6 ${temperature} ${tempDamp} ${seed}
fix             3 all temp/csvr 82.6 82.6 ${tempDamp} ${seed}
fix             3 all temp/csvr 82.6 82.6 100 ${seed}
fix             3 all temp/csvr 82.6 82.6 100 745823


run             250000
PPPM initialization ...
  extracting TIP4P info from pair style
  using 12-bit tables for long-range coulomb (../kspace.cpp:340)
  G vector (1/distance) = 0.36755035
  grid = 27 40 32
  stencil order = 5
  estimated absolute RMS force accuracy = 0.0044881802
  estimated relative force accuracy = 1.3516021e-05
  using double precision FFTW3
  3d grid and FFT values/proc = 10353 2240
Last active /omp style is kspace_style pppm/tip4p/omp
Neighbor list info ...
  update every 1 steps, delay 7 steps, check yes
  max neighbors/atom: 2000, page size: 100000
  master list distance cutoff = 10.8154
  ghost atom cutoff = 10.8154
  binsize = 5.4077, bins = 7 5 5
  1 neighbor lists, perpetual/occasional/extra = 1 0 0
  (1) pair lj/cut/tip4p/long/omp, perpetual
      attributes: half, newton on, omp
      pair build: half/bin/newton/tri/omp
      stencil: half/bin/3d/tri
      bin: standard
Setting up Verlet run ...
  Unit style    : real
  Current step  : 31500000
  Time step     : 2
  Walltime left : 9:59:59.96
Per MPI rank memory allocation (min/avg/max) = 12.66 | 12.67 | 12.68 Mbytes
Step Temp PotEng TotEng E_pair E_mol Press Lx Ly Lz Volume Pxx Pyy Pzz Pxy Pxz Pyz Enthalpy 
31500000    86.925903   -6788.3385   -6564.7269   -6788.3385            0    2233.4678    23.266633    21.283597    21.686947    10739.325    1394.6255    3164.7151    2141.0629   -71.475521    391.75859    -291.5572   -6214.9166 
31501000    81.239164   -6805.1889   -6596.2061   -6805.1889            0    1397.8826    23.168119    21.424994    21.688604     10765.72    1642.4367    1318.3326    1232.8787    52.955798   -309.04907    424.73441   -6376.7288 
31502000    84.550737   -6812.4098   -6594.9082   -6812.4098            0    1996.3419    23.204576    21.273161    21.750209    10736.657    2400.5038    2307.8817    1280.6403   -731.87445   -562.22679      230.204   -6282.3147 
31503000    80.423894   -6802.3329   -6595.4473   -6802.3329            0    1662.4341    23.145851    21.391854    21.716324    10752.461    2179.6947    1730.3475      1077.26   -420.03826    35.747345    229.54023    -6334.755 
31504000    76.771817   -6802.2101   -6604.7193   -6802.2101            0    2941.3463    23.235424    21.288484    21.637822    10703.083      2776.83    3313.0943    2734.1147    147.90031   -268.40276   -218.43027   -6145.5943 
31505000    81.901703   -6810.6691   -6599.9819   -6810.6691            0    1517.5812    23.229541    21.424085    21.605043    10752.217    1203.3043    1254.1754     2095.264    180.13283   -406.18495    -122.7771   -6362.0099 
31506000    85.909995    -6809.256   -6588.2578    -6809.256            0    2202.1909    23.277557    21.324099    21.618419    10730.798    2129.4064    2372.1369    2105.0294   -696.16484   -336.12744   -125.90326     -6243.62 
31507000    81.036755    -6810.782   -6602.3199    -6810.782            0    2518.9998    23.183612    21.398594    21.596522    10713.963    2676.8802    1839.9251    3040.1941    547.80623    471.26812   -110.14672   -6208.7207 
31508000    84.146635   -6806.7839   -6590.3218   -6806.7839            0    2142.8937    23.238738    21.306074    21.671298    10730.029    2169.7161    2210.5491    2048.4159    172.37892   -349.32459    206.95515    -6254.988 
31509000    87.503247   -6806.7172   -6581.6204   -6806.7172            0    2338.3846    23.129466    21.368944    21.689767    10720.216    2874.5887    2232.3737    1908.1915    359.16915    100.95712    195.66002   -6216.0295 
31510000    84.346169   -6807.5701   -6590.5947   -6807.5701            0    1832.0293    23.252568     21.27248    21.728734    10747.897    2360.8953    1718.4947    1416.6979    41.133836   -104.36022    449.87656   -6303.4295 
31511000    82.949952   -6807.4664   -6594.0827   -6807.4664            0    2329.7347    23.148411    21.366233     21.65199    10708.952      2949.11    1914.2267    2125.8672    141.06566   -353.90703   -95.957825   -6230.2269 
31512000    87.569101    -6808.467   -6583.2008    -6808.467            0    1998.2987    23.228751    21.281324     21.72748    10740.732    1946.8627    2576.8697    1471.1636   -269.62185     39.68689    145.85991   -6270.1822 
31513000    85.743766     -6806.75   -6586.1794     -6806.75            0    1576.0364     23.11537    21.446762    21.712772    10764.103    2765.2975    601.32462    1361.4871   -627.98307    500.69633    594.45209   -6338.7679 
31514000    81.760242   -6817.2191   -6606.8959   -6817.2191            0    1622.8338     23.21981    21.317271    21.705296    10743.752    1075.2443    2569.2093    1224.0478   -493.63594   -213.88987   -397.92533   -6352.6196 
31515000    84.347781    -6810.429   -6593.4495    -6810.429            0    2218.8623    23.199955    21.375081    21.624403    10723.562    2305.6247    1516.8947    2834.0676   -127.65579    344.82986     623.0063   -6246.4368 
31516000    82.493796   -6808.6533    -6596.443   -6808.6533            0    1711.6344     23.28447     21.36169    21.603913    10745.692    1240.2357     1721.721    2172.9464    194.84242   -115.20381   -264.85029   -6328.2044 
31517000    84.342252   -6810.1826   -6593.2173   -6810.1826            0    2339.5236    23.260579    21.354766    21.589173    10723.865     2730.757     1721.134    2566.6799   -706.28166   -268.50361     151.7328   -6227.3238 
31518000     81.78546   -6815.3201   -6604.9319   -6815.3201            0     1810.608    23.231908    21.371851    21.608253    10728.689    1718.2122    1548.0499    2165.5617    183.06518    -201.5574   -303.76267   -6321.6317 
31519000    83.340371   -6813.0141   -6598.6261   -6813.0141            0    1316.0025    23.269799    21.393897     21.59672    10751.532      444.984    1776.8057    1726.2179   -7.7806695    349.95148   -29.848524   -6392.2768 
31520000    83.268794   -6813.0164   -6598.8125   -6813.0164            0    2629.0529     23.20038    21.383843    21.560904    10696.651    2569.5633    2525.4547    2792.1407   -556.73589    178.83243    236.24982   -6188.6811 
31521000    81.706053   -6818.4532   -6608.2693   -6818.4532            0    1558.7289    23.270344    21.341217     21.65151    10752.518    1941.7769    1694.9867    1039.4231    111.19391    -462.2364   -94.071733   -6363.8381 
31522000    84.542308   -6810.0634   -6592.5835   -6810.0634            0    2406.3257    23.229528    21.384523    21.583462    10721.637    2090.6051    2473.9292    2654.4429   -32.280102   -281.69045   -179.57239   -6216.3206 
31523000    81.559621    -6810.241   -6600.4338    -6810.241            0    2481.6585    23.319245    21.297191    21.563141    10708.998    2345.8575    2390.7433    2708.3745   -579.08791    308.29537   -325.26817    -6212.849 
31524000    86.698275   -6793.8996   -6570.8736   -6793.8996            0    2610.8296    23.167249    21.389195    21.619746    10713.207    2126.6031    2396.5018     3309.384    76.377564   -211.32203   -148.12177   -6162.9546 
31525000    85.318113   -6799.9483   -6580.4726   -6799.9483            0    1812.1922    23.241493    21.299799    21.709991    10747.295    1404.7323    2055.0092    1976.8353   -158.52444    292.44272    90.460911   -6296.4327 
31526000    85.381197    -6803.587   -6583.9491    -6803.587            0    2028.3287     23.15774    21.347953    21.728211    10741.783    2679.7498    1696.4673     1708.769    473.32763   -409.95059    220.91629   -6266.1954 
31527000    83.485082   -6803.0469   -6588.2866   -6803.0469            0    2067.4641    23.235827    21.305148    21.673542     10729.33    1267.4437    3222.1037     1712.845    493.70367    115.67597    40.380794   -6264.7775 
31528000     79.51508   -6808.4858   -6603.9381   -6808.4858            0    2256.0404     23.21319     21.36465    21.604788    10714.715     2271.012     1893.954    2603.1552   -174.32816    367.59141   -372.37945   -6251.4022 
31529000    82.637597   -6815.2968   -6602.7166   -6815.2968            0     1866.502    23.229633    21.367589    21.617826    10730.251    2121.0271    1554.2916    1924.1875   -791.02272    49.902145   -187.03979   -6310.6283 
31530000    87.629754   -6807.9085   -6582.4863   -6807.9085            0     2720.218    23.242764    21.364292    21.566541    10709.193    3104.2204    1497.0438    3559.3898    296.40195   -1284.0783    70.977638   -6157.6356 
31531000    84.691063   -6802.8897   -6585.0271   -6802.8897            0    1810.6425     23.24174    21.359537    21.671783    10758.584     1002.974    2735.5644     1693.389    504.74511   -192.71917   -571.03355   -6300.9321 
31532000    82.736049   -6801.2368   -6588.4034   -6801.2368            0    2632.3102    23.175929    21.335791    21.680299    10720.404    3088.0038    2394.9813    2413.9456   -97.980274   -805.77488    -638.1256   -6176.8519 
31533000     85.09354   -6813.5617   -6594.6638   -6813.5617            0    1937.8662    23.132944     21.36114    21.739969     10742.72     2820.838    1596.7821    1395.9786   -679.12692   -267.19469     -491.956   -6291.0553 
31534000    82.737611   -6812.6936   -6599.8562   -6812.6936            0    1994.4366     23.20439    21.296779    21.710205    10728.722     2375.402    2173.0108     1434.897    36.704789    -751.0486    200.67148   -6287.7918 
31535000    80.107264   -6806.5033   -6600.4322   -6806.5033            0    2707.3775    23.159929    21.315554    21.682076    10703.719    3181.6543    2929.2817    2011.1965    745.41489   -609.70665    174.59508   -6177.8031 
31536000    83.721109   -6814.6805    -6599.313   -6814.6805            0    1862.4359    23.267848    21.261764    21.685899     10728.35    1660.4522    1738.8758    2187.9798    573.62837    47.385128    903.31383   -6307.9126 
31537000     83.03336   -6806.4878   -6592.8895   -6806.4878            0     1909.408    23.188699    21.374654    21.658617    10735.103    1837.9032    1600.2518     2290.069   -752.93887    280.00819    825.40474   -6293.9517 
31538000    82.559057   -6807.4608   -6595.0827   -6807.4608            0    1639.1163    23.275488    21.336574    21.634257    10743.987    1370.8969    2001.2956    1545.1565   -815.20647    556.18064    33.109585   -6338.2495 
31539000    80.026107   -6801.2818   -6595.4196   -6801.2818            0    1779.0897    23.189001    21.422906    21.628978    10744.752    2220.0119    1119.4412    1997.8161   -511.88442    -192.9927    375.63382   -6316.6341 
31540000    83.121215    -6813.994   -6600.1697    -6813.994            0    1939.3405    23.264821    21.310452    21.646602    10732.036    1706.4424    1514.5663    2597.0128    577.05789   -749.43818   -437.74322   -6296.6324 
31541000    81.418039   -6811.8565   -6602.4136   -6811.8565            0    1904.6044    23.215527    21.385037    21.646883    10746.918    2167.1372    2257.8119    1288.8641    656.51133   -536.29862   -192.71895   -6303.8997 
31542000    81.562442   -6807.7421   -6597.9277   -6807.7421            0    1725.7009    23.282104    21.336224    21.655364     10757.35     1648.405    2010.9239    1517.7739    557.73527    -125.9621   -514.53589   -6327.1913 
31543000    84.587024   -6809.4587   -6591.8637   -6809.4587            0     1994.543    23.216394    21.373989    21.619339    10728.099    2040.2439    2158.3745    1785.0106   -279.12226    34.920731   -822.17162   -6279.8009 
31544000    81.795012   -6800.2474   -6589.8347   -6800.2474            0    2591.4623    23.255313    21.295879    21.631244    10712.707    2033.5944     3233.352    2507.4405   -297.26812    999.26802   -628.83572   -6184.9606 
31545000    78.451317   -6818.1997   -6616.3885   -6818.1997            0    1943.4383    23.139645    21.397947    21.659993    10724.748    2607.2787    1824.0238    1399.0123   -236.14126    28.740802   -345.62557   -6312.4164 
31546000    82.579086   -6804.1594   -6591.7298   -6804.1594            0    2420.2096    23.302185    21.273307    21.645121    10729.802    1642.7808     3219.711    2398.1371    188.34285    177.42867   -351.60992   -6213.0077 
31547000     81.50695   -6814.0827    -6604.411   -6814.0827            0    1588.5446    23.128983     21.45546    21.670922    10754.042    1867.2086    1434.7056    1463.7195    55.932976   -617.97734    317.49815    -6355.269 
31548000    84.986315   -6804.5095   -6585.8874   -6804.5095            0    2663.8778    23.312813    21.196528    21.690158    10718.206     2882.572    2247.2538    2861.8076   -785.39723   -387.58042    4.2497997   -6169.4859 
31549000    82.622023   -6801.8227   -6589.2826   -6801.8227            0    1542.9059     23.10513    21.464223    21.686624    10755.127    2601.8198    1141.9875    884.91035   -568.62028   -293.83003   -310.80427    -6347.274 
31550000    81.521483   -6802.4949   -6592.7859   -6802.4949            0    2765.4332    23.285343    21.238564    21.670508     10717.09     2948.597    3392.5711    1955.1315   -485.13121   -683.83139   -584.90614   -6160.5548 
31551000    85.264664    -6806.004   -6586.6659    -6806.004            0    1811.4734    23.195671     21.40662     21.64143    10745.855    1844.2514    1545.0218    2045.1471   -165.43767    -141.2293   -24.450199   -6302.7767 
31552000    79.994329   -6807.8975   -6602.1169   -6807.8975            0    2591.0517    23.184675    21.278849    21.705399    10708.211    2162.9281    3497.5919     2112.635    552.56915   -283.12052   -70.924871   -6197.4769 
31553000    80.841538   -6807.1241   -6599.1642   -6807.1241            0    1950.8496    23.175021    21.246576    21.790934    10729.634    1759.9763    2793.8964     1298.676    171.05019    643.88419    874.07355   -6293.8938 
31554000    83.027277   -6802.8716    -6589.289   -6802.8716            0    2077.2864    23.157139    21.311019    21.740348     10728.91    2307.6766    2589.9697    1334.2129    244.46103    307.99318   -74.681703   -6264.2557 
31555000    84.274647   -6809.0383   -6592.2469   -6809.0383            0    1028.7072    23.271595    21.333373    21.706776    10776.581    1027.7945    1053.9746    1004.3524    139.78605   -470.88171   -106.21119   -6430.5697 
31556000    86.495332   -6806.8021   -6584.2981   -6806.8021            0    2070.5985    23.196698    21.408708    21.626738    10740.083    1696.2547    1687.4024    2828.1385    204.29577   -43.972005   -501.45048   -6259.9738 
31557000    86.161811    -6816.912    -6595.266    -6816.912            0    1788.6952    23.246275    21.333443    21.631478    10727.549     2581.596    1521.8858    1262.6038    -134.5763   -598.92574   -1099.8839   -6315.4241 
31558000     83.13232   -6809.3437   -6595.4909   -6809.3437            0    3115.5331    23.169998    21.382054    21.562149    10682.366     3420.767    2655.2132    3270.6192    85.581643    26.244852    -202.2869   -6110.1178 
31559000    82.032501   -6803.6334   -6592.6098   -6803.6334            0      1232.17    23.325393    21.363911    21.613403    10770.426    1338.2565    702.71296    1655.5405   -579.65876     355.5115    186.86158   -6399.0659 
31560000     79.45436    -6811.741   -6607.3495    -6811.741            0    2082.3106    23.175958    21.447243    21.575869     10724.51    1262.2221    1974.8448    3009.8648    456.01258    532.70779    491.44531   -6281.6637 
31561000     82.26627   -6806.9422   -6595.3172   -6806.9422            0    2858.3877    23.245311    21.271387    21.624319    10692.361    3276.5392    2796.9981    2501.6258   -668.63338    258.83382    427.33098   -6149.5885 
31562000    81.118617   -6800.0235   -6591.3508   -6800.0235            0    1573.4604    23.164422    21.421876    21.648397    10742.484    1594.9924    1998.0501    1127.3387   -229.61647    533.78793    538.37391   -6344.8397 
31563000    83.568284   -6794.7311   -6579.7568   -6794.7311            0    2468.5184    23.241205    21.323594    21.623602    10716.355    2372.0905    2238.0608     2795.404    287.81547   -465.17141    307.96319   -6193.9593 
31564000     81.62263   -6809.0442   -6599.0749   -6809.0442            0    1984.2304    23.184668    21.392943     21.63343    10729.928    2093.3659    2266.5113    1592.8139    399.04604   -854.06485    123.00821   -6288.5727 
31565000    76.867359   -6808.6185   -6610.8819   -6808.6185            0    1976.9102    23.277945    21.318152    21.648864    10743.092    890.05547    2515.7915    2524.8837   -408.70588    464.24648   -405.36569   -6301.1455 
31566000    86.524259   -6810.0033   -6587.4249   -6810.0033            0    1808.4839    23.213263    21.405159     21.63282    10748.993    2083.8548    1386.2072    1955.3897    79.772716    127.31841   -767.47094   -6303.9215 
31567000    80.593032   -6816.7574   -6609.4367   -6816.7574            0    957.46064    23.258019    21.362938    21.702715    10783.202    1094.9746    1330.5434    446.86383     203.4958    61.240359   -1072.4186   -6458.8646 
31568000    81.462892   -6812.5463    -6602.988   -6812.5463            0    3179.9102    23.156586    21.304252    21.657743    10684.495    3749.0535    2661.2844    3129.3927   -135.72225   -408.35273   -143.81074   -6107.4867 
31569000     75.60112   -6807.2092   -6612.7299   -6807.2092            0    1329.9811    23.234136    21.341837    21.693402    10756.872    1453.7614      1154.29    1381.8921    402.09934    -401.4222   -353.96353   -6404.0852 
31570000    83.238177   -6811.4703   -6597.3452   -6811.4703            0     2258.301    23.189784     21.29815    21.716103    10725.573    2037.2465    2562.1839    2175.4726    623.03195    335.67556    552.46387   -6244.0984 
31571000    82.618068   -6806.6552   -6594.1252   -6806.6552            0    2022.0173    23.184384    21.333415    21.694815      10730.3    1556.1789    2662.6326    1847.2403    231.55613    813.31394    272.18582   -6277.6989 
31572000    85.460503   -6796.2946   -6576.4526   -6796.2946            0     2277.106    23.166283    21.295558     21.72661    10718.582    2663.8115    2870.1379    1297.3687    212.80171    110.91573     52.66213   -6220.4965 
31573000    81.101486   -6814.2048   -6605.5761   -6814.2048            0    2301.1122    23.219286    21.278662    21.701212    10722.033    2630.3861    1943.8454     2329.105    495.18256    109.68911    450.32995   -6245.7515 
31574000    81.359657   -6805.9784   -6596.6857   -6805.9784            0     2346.508    23.142045    21.369845    21.701256    10732.181    1958.2799    3205.0793    1876.1647   -122.79536    747.06017   -342.49538   -6229.4153 
31575000    82.761106   -6808.1541   -6595.2562   -6808.1541            0    1620.1649    23.285302    21.322726    21.681838    10765.165      1908.56    1393.9819    1557.9527    85.797109   -431.76929    94.844651   -6340.8921 
31576000    85.150318   -6815.7694   -6596.7254   -6815.7694            0    2337.2585     23.12017    21.414301    21.672257    10729.983    2832.7339    1826.9986    2352.0429   -646.45833   -664.86146   -915.36789   -6230.9776 
31577000    78.986303   -6803.7242   -6600.5367   -6803.7242            0    2289.5996    23.207257    21.320372    21.671757    10722.911    2120.1972    1963.4628    2785.1389   -49.202186    -275.4798    599.84186    -6242.483 
31578000    84.894962   -6800.2058   -6581.8187   -6800.2058            0    2270.9694    23.115435    21.406817    21.692354    10733.982    3379.1466     2281.845    1151.9166   -289.24383   -531.59736   -892.02998   -6226.3118 
31579000    82.469331   -6816.5487   -6604.4014   -6816.5487            0    1792.9524     23.23265     21.33672    21.664434    10739.245    1411.6395    2072.0593    1895.1584   -538.99386    -178.4796     306.8831   -6323.5876 
31580000    84.845995   -6802.3498   -6584.0886   -6802.3498            0    1992.1315    23.165016    21.380094    21.705356    10750.016    2548.8231    1723.9429    1703.6285    1120.8742   -802.46751    268.93874   -6271.7663 
31581000    81.543958   -6813.0982   -6603.3313   -6813.0982            0    2032.5547    23.235945    21.335337    21.647924    10731.887    1800.2712    2413.1146    1884.2783    346.14223   -165.46016    470.80671   -6285.2089 
31582000    82.250667   -6811.0784   -6599.4936   -6811.0784            0    2072.5255    23.201027    21.333698    21.651358    10716.636    2302.5248    1791.8779    2123.1739   -104.72052    304.84154    177.43909   -6275.5762 
31583000    81.846315   -6808.8804   -6598.3358   -6808.8804            0     2110.423    23.286926    21.263895    21.667624    10729.173    2019.4197    1852.6261    2459.2231    532.64175    648.07234    136.80136   -6268.1095 
31584000    87.452736   -6804.0706   -6579.1038   -6804.0706            0    1741.9978    23.193605    21.403417    21.638912    10742.041    2233.0999    1351.8968    1640.9967   -509.04473    681.42595   -746.28191   -6306.1996 
31585000    87.503104   -6827.0755   -6601.9791   -6827.0755            0    1262.4391    23.324121     21.27928     21.65428    10747.463     717.8104    1473.1364    1596.3706    556.66792    217.87035   -430.94607   -6404.1035 
31586000    82.926813   -6813.4983   -6600.1741   -6813.4983            0    2100.5708     23.15968    21.383748    21.621678    10707.936    2587.9307    1967.7413    1746.0405    692.36327   -165.80536   -634.51914     -6272.14 
31587000    80.511495   -6813.6063   -6606.4954   -6813.6063            0    2138.9148    23.272022    21.283209    21.649001    10722.822     1768.364    2324.5373    2323.8429   -142.28905    386.61372   -39.151161    -6272.009 
31588000    84.626232   -6811.1486   -6593.4528   -6811.1486            0    2028.5099    23.174483    21.385177     21.64521    10727.159    2304.7655    1567.0181    2213.7462    633.12499   -12.762399     604.8403   -6276.1033 
31589000     79.14272   -6816.0519   -6612.4621   -6816.0519            0    1562.0284    23.314655    21.303247    21.628279    10742.288    847.22394     2200.458    1638.4032    776.46646    215.56426    313.11072   -6367.7465 
31590000    81.532459   -6811.7249   -6601.9876   -6811.7249            0    2169.5083     23.21292    21.342481    21.621054    10711.531    2013.6873    1734.9539    2759.8838    207.06645    148.04904    402.08779   -6263.0742 
31591000    80.555001   -6810.5165   -6603.2937   -6810.5165            0    3006.4347    23.236215     21.32022    21.579876    10690.697    2830.3836    3011.4221    3177.4985    367.89781    279.72198   -274.56573   -6134.5519 
31592000    82.811344   -6808.8942   -6595.8671   -6808.8942            0    1679.0531    23.275004    21.378039    21.608404    10751.779    1525.7089     1160.598    2350.8524   -75.982728    -377.3824    503.04271   -6332.5854 
31593000    81.673253   -6805.2739   -6595.1745   -6805.2739            0    2502.0481    23.205805    21.382135     21.59952    10717.458    2318.9962    1865.4373    3321.7108    514.94441   -260.58283   -101.58977   -6204.0965 
31594000    86.634991   -6818.1592   -6595.2959   -6818.1592            0    1403.3052    23.244742    21.398742    21.639061    10763.447    1056.4827    1050.8591     2102.574   -1020.0263    325.75632   -80.930653   -6375.0137 
31595000    81.927261   -6820.0927   -6609.3398   -6820.0927            0    2476.7866    23.159297    21.362768    21.642229    10707.421    2833.5652    2472.3634    2124.4311   -615.93204   -547.33593    -611.5288   -6222.5729 
31596000    83.725813   -6803.4174   -6588.0378   -6803.4174            0    1542.9372    23.233734    21.358366    21.687216    10761.947    1597.3574      2026.51    1004.9441   -142.72786    21.997091   -201.07935   -6345.8708 
31597000    81.870228   -6807.6306   -6597.0245   -6807.6306            0    2435.8956    23.199875    21.341365      21.6562    10722.353    2563.2727    2003.8126    2740.6017    362.36611   -249.44099   -23.484552   -6216.1125 
31598000    79.112433   -6815.8084   -6612.2965   -6815.8084            0    1688.7248    23.258738     21.29387    21.694734    10744.719    1901.4774     2128.218    1036.4789    1279.8818   -1550.5436   -226.87742   -6347.6721 
31599000    86.461231   -6815.5217   -6593.1055   -6815.5217            0    1486.7087    23.193559    21.362389    21.694079    10748.762      1255.54    1484.9141    1719.6721   -575.24298    229.29108    137.33367   -6360.0495 
31600000    84.689055   -6823.0196   -6605.1622   -6823.0196            0    1871.1253    23.236408    21.266107    21.732303    10738.973    1563.4348    2715.3083    1334.6328    827.23139    651.04558   -392.16917   -6312.1123 
31601000    83.953976   -6824.3553   -6608.3888   -6824.3553            0    1700.6827    23.111097    21.382448    21.732938    10739.806    2238.0246    823.18534    2040.8381    976.16153   -423.00816    151.10801   -6342.0125 
31602000    82.174534   -6809.4074   -6598.0184   -6809.4074            0    2323.4403    23.221741    21.249021    21.721342    10718.163     2407.219    3036.4782    1526.6236   -133.70303   -598.70366   -550.64162   -6234.8335 
31603000    82.782682   -6798.6218   -6585.6684   -6798.6218            0    2027.9873    23.166619    21.378834    21.682706    10738.909    1768.1916    2206.0018    2109.7686    19.095476     535.7149    987.21219   -6268.0532 
31604000     84.48317   -6811.2803   -6593.9525   -6811.2803            0    1317.5105    23.290035    21.300347    21.683211    10756.734    1340.9645    995.07623    1616.4908    312.43391          303    40.529639   -6387.2668 
31605000     84.14169   -6807.6682   -6591.2188   -6807.6682            0    2833.4679    23.148825    21.365227    21.612344    10689.031    3250.8761    2373.1008    2876.4268   -300.70687    283.04597    226.83708   -6149.5136 
31606000    83.400933   -6819.5828   -6605.0389   -6819.5828            0      1514.87    23.283908    21.280489    21.684161    10744.349    1097.5224    1789.1322    1657.9556    81.816033   -430.96118    33.277197   -6367.6659 
31607000    82.763214   -6813.1301   -6600.2268   -6813.1301            0     1476.032    23.185904    21.389236    21.690823    10757.103    1168.6246     1998.137    1261.3346    464.23982    196.31922    -524.2835   -6368.6649 
31608000    81.817944   -6810.1773   -6599.7056   -6810.1773            0    2425.3055    23.223763    21.325727     21.66451    10729.644    2688.4784    1822.9965    2764.4416    12.026861   -416.47933     130.5161   -6220.1918 
31609000    80.685863   -6811.1942   -6603.6348   -6811.1942            0    1930.3033    23.167704    21.384215    21.671829    10736.726    1709.8338     2415.854     1665.222   -146.92275   -598.78537   -162.76384   -6301.3799 
31610000    77.454872   -6799.4895   -6600.2415   -6799.4895            0    2369.3098    23.208102    21.274006    21.717565    10722.598    2065.3518    2728.4315     2314.146   -1145.4188    928.58515   -228.88226   -6229.7334 
31611000    81.652187   -6802.6683    -6592.623   -6802.6683            0    2185.8449    23.170673    21.371244    21.640523    10716.086    2327.9148    2205.7001    2023.9197   -140.93257   -474.17404   -93.822364   -6251.0123 
31612000    82.154442   -6805.2008   -6593.8635   -6805.2008            0    1755.9486    23.298548    21.267398    21.679382    10742.122    1341.9941    2632.7701    1293.0815    755.63391   -76.529089    780.93157   -6318.7717 
31613000    83.694605   -6809.2001   -6593.9008   -6809.2001            0    2254.8275    23.251831    21.332112    21.619677    10723.591    2444.7297    1989.9342    2329.8185   -221.84922     154.7486    116.60334   -6241.2626 
31614000    82.815079   -6804.2179   -6591.1811   -6804.2179            0    1975.4245    23.254573    21.315291    21.630224    10721.626    2031.3747    2060.4014    1834.4974    154.56688    239.89876    151.61602    -6282.296 
31615000    79.089472    -6794.519   -6591.0661    -6794.519            0    2323.5386    23.216945    21.349581    21.621287    10717.068    2397.9009    1451.8486    3120.8664    289.06782    573.00183    439.96481    -6227.903 
31616000    80.296406   -6815.1115   -6608.5539   -6815.1115            0    2212.2261     23.25244    21.336378    21.597777    10715.151    1679.6575    2792.6503    2164.3703   -100.48716    314.10504    -293.6574   -6262.8505 
31617000    78.267405   -6820.1841    -6618.846   -6820.1841            0    2053.5302    23.216431    21.387423    21.620724    10735.547    2297.9585    1448.5476    2414.0845    535.88903   -750.19295   -96.001645   -6297.3311 
31618000    80.186571     -6812.34   -6606.0649     -6812.34            0    1649.4448    23.236115    21.342729    21.684162    10753.655    2166.9718      1347.55    1433.8126   -86.732025   -474.39866   -416.21836   -6347.3808 
31619000    84.811605   -6819.4364   -6601.2637   -6819.4364            0    2887.0089    23.088177    21.354879    21.694228    10696.235    3405.8001    3093.4722    2161.7543    -90.78183    129.60157   -571.13459   -6150.9087 
31620000      84.1209   -6815.3616   -6598.9657   -6815.3616            0    2199.1388    23.170104    21.287633    21.720378    10713.287    2268.8122     2366.837    1961.7671   -181.54944    108.74822   -922.78765   -6255.3672 
31621000    81.880144   -6810.5371   -6599.9055   -6810.5371            0    1285.7645    23.249346    21.344945    21.688159    10762.879    1280.5168    665.29615    1911.4805    138.02157    474.34683   -228.08299   -6398.0847 
31622000    85.100324   -6803.7378   -6584.8224   -6803.7378            0    1950.9977     23.18746    21.379463    21.661687    10738.466    1897.4927    2179.1438    1776.3567   -247.11759    915.12316   -347.51688   -6279.2776 
31623000    81.876027   -6810.9518   -6600.3307   -6810.9518            0    1375.8545    23.276612     21.31932    21.662071     10749.62    1343.8828    1255.4352    1528.2456    52.017356   -247.50885    298.11715    -6384.635 
31624000    81.521804   -6800.0538    -6590.344   -6800.0538            0     3208.998    23.181293    21.327502    21.617053    10687.451    2907.0071     3785.882    2934.1049    623.38025   -592.16009   -304.25705   -6090.1718 
31625000    84.137457   -6805.7516   -6589.3131   -6805.7516            0    1690.0506    23.237158    21.342359    21.684881    10754.308    2739.4438    1126.0213    1204.6866   -66.781485   -530.73116    26.681977   -6324.2447 
31626000    83.657279   -6813.2423    -6598.039   -6813.2423            0    1759.0768    23.086434    21.442762    21.708218    10746.369    2561.8417    1613.5469    1101.8419    -1194.825    81.660115   -255.24418   -6322.3481 
31627000    83.519403   -6813.6911   -6598.8425   -6813.6911            0    1945.2729    23.235629     21.28576    21.681149    10723.236    1950.8344    1731.7862    2153.1982    60.700459     -213.296   -122.87273   -6294.6263 
31628000    83.845699   -6812.7311   -6597.0431   -6812.7311            0    2523.5364    23.133599    21.398513     21.63202    10708.382    2734.6236    1605.5277    3230.4578    387.83436   -83.623148    917.43937   -6202.9405 
31629000    82.346937   -6793.1236   -6581.2911   -6793.1236            0    1640.2167    23.328838    21.321323    21.640289    10763.916     1108.195     1580.038    2232.4171    307.02875   -162.53535     98.93832   -6323.8087 
31630000    78.784999   -6817.3046    -6614.635   -6817.3046            0     2210.143     23.20262    21.357419    21.641089      10724.2    2308.3003    1954.6747    2367.4541    256.74497   -23.481768   -40.560046   -6268.9654 
31631000    77.693386   -6809.9718   -6610.1103   -6809.9718            0    2534.1013    23.256202    21.272068    21.644754    10707.823    1575.7726    3085.6267    2940.9046    264.14202    467.43989    56.966711   -6214.3784 
31632000    85.020432   -6803.3465   -6584.6366   -6803.3465            0    2619.8351    23.161401    21.376723    21.583951    10686.535     2547.244    3053.8488    2258.4124    147.98694    1091.3754    8.0228242   -6176.3297 
31633000    82.618815   -6804.1363   -6591.6044   -6804.1363            0    1751.4604      23.3025    21.273782    21.657428    10736.287      1155.33    2241.9434    1857.1077   -249.48704    634.82931   -641.47123   -6317.3647 
31634000    81.850794    -6818.841   -6608.2848    -6818.841            0    2647.7791    23.197227     21.35902    21.615145    10709.657    2730.8312    2248.7022    2963.8039    989.16913    75.160435    290.08229   -6194.7299 
31635000    80.416885   -6817.7192   -6610.8517   -6817.7192            0    590.09525    23.281618    21.314381    21.732633    10784.456    465.49433    1263.2297    41.561709    627.33341    146.50501   -97.004477   -6518.0414 
31636000    85.187707   -6804.1065   -6584.9663   -6804.1065            0     3646.532    23.142161    21.301467    21.644097    10669.717    3807.0902    3733.7613    3398.7446    163.74609    640.30308   -163.21182   -6017.5408 
31637000    82.426724   -6811.2945   -6599.2568   -6811.2945            0    1529.9298     23.21164    21.343761    21.690629    10746.051    1733.5581    1894.6158    961.61553   -989.49454    444.03876   -410.45683    -6359.486 
31638000    79.465163   -6810.0448   -6605.6255   -6810.0448            0    2094.9482    23.204293    21.373865    21.662903    10744.051    2215.9151    1306.4895    2762.4398   -139.14028   -74.198678    543.00319    -6277.366 
31639000    82.655467   -6814.1955   -6601.5694   -6814.1955            0    1181.6336    23.352774    21.265304    21.655803    10754.355    1033.4979    1896.4735    614.92957   -55.843663   -6.4557483   -61.730485   -6416.2405 
31640000    83.896479   -6813.2037   -6597.3851   -6813.2037            0    2780.5637    23.146204    21.366245    21.608274    10686.318    2573.9586    2621.3674     3146.365    607.64429    -158.5587    206.91571   -6164.0371 
31641000    81.621566   -6812.1996   -6602.2331   -6812.1996            0     1944.341    23.261406    21.283998     21.66581     10726.65    2032.3595    1557.6172    2243.0462    -74.85718   -24.593805    477.14825   -6298.0658 
31642000    82.097279   -6806.1537   -6594.9635   -6806.1537            0    2874.6143    23.111838    21.394739    21.654144    10707.363    3125.6815    3020.8811    2477.2803   -456.47641    1144.5783   -213.11494   -6146.0755 
31643000    82.131691   -6807.5487   -6596.2699   -6807.5487            0    1417.1348    23.335812    21.318114    21.640964    10765.849    443.24961    1913.8905    1894.2643    802.66331    348.68236   -24.890205   -6373.7672 
31644000    81.303872   -6810.1013    -6600.952   -6810.1013            0    1236.4651    23.299319    21.399849    21.576284    10757.976    800.48136    1559.7022    1349.2117    395.65213    216.44045    46.099454    -6406.958 
31645000    87.693768   -6810.2664   -6584.6796   -6810.2664            0    2393.3749     23.27237    21.359945    21.545994    10710.439     1919.754    1938.1728    3322.1979    14.849327   -92.180831    179.53277   -6210.8326 
31646000    82.886642   -6812.6732   -6599.4524   -6812.6732            0    1735.4888    23.266064    21.385526    21.569998    10732.304    1931.0174    1176.7197    2098.7293   -381.60313    -455.2422   -326.68207   -6327.8143 
31647000    82.533171   -6815.8499   -6603.5383   -6815.8499            0    2669.2822    23.233747    21.301181    21.620039    10699.893     1950.936    3601.4185     2455.492    1471.6697   -602.27528     146.5254   -6187.0049 
31648000    81.545326   -6816.9828   -6607.2124   -6816.9828            0    538.73937    23.209234    21.424618    21.688948    10784.807    573.48847    661.91452    380.81511    145.38761    402.32824      288.567   -6522.4766 
31649000    84.612861   -6801.8949   -6584.2335   -6801.8949            0    2905.6243     23.17906    21.274503     21.72874    10714.941    3654.4069    2666.9983    2395.4679   -737.42066   -219.83355    99.200165    -6130.182 
31650000    79.666774   -6807.9483   -6603.0104   -6807.9483            0    1574.4538    23.166234    21.383611     21.73539    10767.228    2251.7561    1189.7976    1281.8076   -693.86924   -396.07559   -429.49108   -6355.7755 
31651000    83.660249   -6802.9135   -6587.7026   -6802.9135            0    1888.4825    23.190527     21.30103    21.770567    10754.271    2227.5062    1862.6029    1575.3383    -241.1105   -365.33335    155.22557    -6291.513 
31652000    78.097322    -6806.891   -6605.9904    -6806.891            0    1977.9179    23.054243     21.38827    21.800752    10749.741    2648.9442    1450.0724    1834.7371    -400.0952    256.14705    2.0536431   -6295.9044 
31653000    82.906591    -6800.381   -6587.1089    -6800.381            0    2003.4306    23.215871    21.292292    21.740782    10746.884    2371.7815    2649.5265    988.98373    677.26683    252.93061   -263.08853   -6273.1066 
31654000    82.567604   -6808.5357   -6596.1356   -6808.5357            0    2471.7355    23.126596    21.359334    21.703705     10720.95    2744.1186    2385.4736    2285.6141    307.73508    172.36699   -197.61264   -6209.6697 
31655000    80.095807   -6813.4951   -6607.4535   -6813.4951            0    1896.0967    23.249879    21.267997    21.703586    10731.954    2291.9427    1838.1518    1558.1955   -494.86687   -40.976927   -35.209914   -6310.6868 
31656000    78.491305   -6815.1668   -6613.2527   -6815.1668            0    2419.1741    23.191882    21.399997    21.591195    10715.844     2642.722    2036.4805    2578.3197   -419.98228    362.00477     -22.9089   -6235.1851 
31657000    78.794711   -6807.3356    -6604.641   -6807.3356            0    877.78886    23.345239    21.308716    21.644731    10767.325    548.40606    1567.4479    517.51263     28.40706    394.51164    51.963548   -6466.8015 
31658000    80.396754   -6810.0595   -6603.2437   -6810.0595            0     3498.049     23.10058    21.395262    21.586509    10668.981    4124.8656    2809.7004    3559.5811    523.46859    -393.5793    30.205636   -6058.9608 
31659000    82.463337   -6807.2187   -6595.0868   -6807.2187            0    1859.2753      23.3207    21.284992    21.626626    10735.044    1696.8065    1796.5585     2084.461   -212.41002     125.1987   -377.53284   -6303.9993 
31660000    82.902792   -6811.9299   -6598.6675   -6811.9299            0    2960.2514    23.154154    21.406753    21.575676    10694.097    3537.3757    2395.6179    2947.7607   -274.07465   -273.73292   -319.29714   -6136.9795 
31661000    83.160299   -6822.2411   -6608.3163   -6822.2411            0    1424.5842    23.320326    21.324857    21.629062    10756.189    450.32409    1588.4637    2234.9648   -153.00232   -15.738291    307.07029   -6384.8446 
31662000    82.468432   -6808.9724   -6596.8274   -6808.9724            0    2706.4589    23.100894    21.417331    21.664828    10718.879    3566.7312    2204.6342    2348.0112     71.51785   -546.00032   -314.57303   -6173.7433 
31663000    81.010921   -6807.4619   -6599.0663   -6807.4619            0     1574.992     23.28116    21.314211    21.672625     10754.38    1303.1258    1693.6545    1728.1958   -100.90571    -429.6511    421.43863    -6352.042 
31664000    81.964768   -6814.1755   -6603.3261   -6814.1755            0    2606.1877    23.066026    21.387673    21.666131    10688.523    2724.9498    2487.9882    2605.6251    285.00006    199.05361    820.30106   -6197.0706 
31665000    80.571843   -6803.7086   -6596.4424   -6803.7086            0    1825.1313    23.338413    21.204086    21.683751    10730.632    1610.4546     2323.069    1541.8704   -205.44662   -20.991748    20.174195    -6310.818 
31666000    83.361849   -6803.0896   -6588.6463   -6803.0896            0    1736.3067    23.185977    21.420064    21.643555    10749.166    1171.2948    1691.7018    2345.9235    652.28115    11.059446    202.79489   -6316.4532 
31667000    82.778018   -6810.9635   -6598.0221   -6810.9635            0    1916.0753    23.328357    21.215276    21.678978    10729.307    1095.5533    3163.7273    1488.9453   -210.60002    160.62315    -15.19978   -6298.2024 
31668000    83.306095   -6802.2398     -6587.94   -6802.2398            0     1305.476      23.1332    21.433441    21.704547    10761.637    2178.1149    872.77092    865.54217   -649.97907    781.31348   -715.94429   -6383.0489 
31669000    86.526257    -6798.904   -6576.3205    -6798.904            0      2757.98    23.220493    21.266122    21.673912    10702.791     2666.507    2826.9857    2780.4472   -992.12495    43.915388    139.53507   -6145.8295 
31670000     79.18344   -6801.0655   -6597.3709   -6801.0655            0    1638.7625    23.085898     21.46171    21.679187    10741.232    3085.6552    703.34475    1127.2876   -1144.0844   -93.401089   -471.49335    -6340.659 
31671000    83.607543   -6812.2926   -6597.2173   -6812.2926            0    2386.7804    23.273533    21.228005    21.711522    10726.592    2224.5613    3210.3408     1725.439   -51.633179   -862.23376   -195.21301   -6223.8381 
31672000    84.748333   -6812.2908   -6594.2809   -6812.2908            0    1975.5114    23.090717    21.477419     21.64114    10732.469    2404.5091    1573.6365    1948.3884   -18.724929   -691.51686   -228.16002   -6285.0698 
31673000    84.217462    -6819.075   -6602.4307    -6819.075            0    2291.8648    23.272991    21.280087    21.672674     10733.42     2259.397    2276.3013     2339.896   -1166.3501    624.89282    293.51862   -6243.6715 
31674000    81.889374     -6815.85   -6605.1946     -6815.85            0    1207.8708    23.092913    21.478015    21.672706    10749.444     1450.782    880.41618    1292.4142   -44.637158     315.4058   -494.54276   -6415.8372 
31675000     83.18786   -6806.7479   -6592.7522   -6806.7479            0    2130.7295    23.292049    21.218229    21.697994    10723.497    1567.7095    2635.5487    2188.9304    -57.14597    104.52484    744.29125   -6259.5248 
31676000    80.893392   -6811.3553    -6603.262   -6811.3553            0    2094.6753    23.139717    21.421987      21.6179    10715.965    2631.5988    1118.1473    2534.2799    363.41305   -282.98596    237.64538   -6275.9032 
31677000    84.439306   -6800.0597   -6582.8447   -6800.0597            0     1568.785    23.378101    21.231161    21.677305    10759.405    753.06892    2575.7684    1377.5177    216.72266   -179.17871    404.80442    -6336.679 
31678000    79.278643   -6794.8173   -6590.8778   -6794.8173            0    2432.8307     23.11334    21.433955    21.621155    10711.343    3129.4146    1015.4704    3153.6069     -60.7071    1291.0672    1401.9601   -6210.8358 
31679000    81.561856   -6806.6529     -6596.84   -6806.6529            0    2176.2388    23.313992    21.254988    21.630702    10718.848    1819.2296    2266.7354    2442.7514   -317.05641    604.53395    269.08228   -6256.6429 
31680000    81.998221    -6803.633   -6592.6975    -6803.633            0    2057.1596    23.194189    21.423293    21.627458    10746.595    2699.0114    1374.0784     2098.389    326.68445   -161.69964    533.26214   -6270.2829 
31681000    80.009156   -6805.4757    -6599.657   -6805.4757            0    1773.7304    23.392407    21.291118    21.599353    10757.569    1821.9188    1981.8461    1517.4263     71.78281   -1566.6559    57.743053   -6321.3798 
31682000    84.101067   -6806.3346   -6589.9897   -6806.3346            0    2096.4117    23.184177    21.452979    21.560692    10723.634    2642.7132    757.01013    2889.5116    -439.3903   -188.83373   -576.34817   -6262.1252 
31683000    82.602033   -6817.0282   -6604.5395   -6817.0282            0    2231.9196    23.304203    21.271273    21.631045    10722.727    2226.1004    2595.6195     1874.039   -369.60851   -301.44547   -481.58547    -6255.512 
31684000    85.609346   -6824.2819   -6604.0571   -6824.2819            0    1866.4119    23.146868    21.448373    21.627964    10737.476    2652.7348    1491.5431    1454.9578    -319.5676   -366.82226   -194.37586   -6311.7862 
31685000    83.455223   -6807.6392   -6592.9558   -6807.6392            0    2034.1987    23.285851    21.290121    21.680317    10748.203    1623.0645     2363.222    2116.3094   -72.408853   -336.72605   -64.717154    -6274.092 
31686000    84.365491   -6803.4919   -6586.4668   -6803.4919            0     1446.856    23.096277    21.429857     21.74049    10760.454    2170.7066    1609.4414    560.41998    459.57876   -155.22053   -371.40038   -6359.4114 
31687000     79.83144   -6813.3593   -6607.9978   -6813.3593            0     2300.301    23.256657     21.23271    21.712931    10721.885     1489.334    3099.4924    2312.0766    630.18048   -94.507566   -177.81757    -6248.305 
31688000    83.752939   -6802.8808   -6587.4314   -6802.8808            0    2087.9293    23.073067    21.423198    21.742183    10747.137    2678.3257    1858.8667    1726.5955   -32.053905    449.46264    559.33422   -6260.1778 
31689000    78.288141   -6814.3381   -6612.9466   -6814.3381            0    2247.1419    23.240226    21.202571    21.773093    10728.747    2284.1061    2871.1995    1586.1201   -522.97985   -640.25333   -136.16624   -6261.3413 
31690000    85.654616   -6799.5892   -6579.2479   -6799.5892            0    1847.5377    23.167014     21.41568    21.661647    10747.152    2487.2799    1106.2174    1949.1159   -313.61025   -100.30268   -278.63808   -6289.6719 
31691000    84.728159   -6806.8645   -6588.9065   -6806.8645            0    2251.1662    23.293813    21.265406    21.676023     10737.27     1666.936    3322.9066    1763.6558    561.64897    -290.5236    263.41903   -6236.3917 
31692000    84.496966   -6809.9726   -6592.6093   -6809.9726            0    1714.3008    23.184849    21.432003    21.648409    10757.046    2684.8826    1122.1741    1335.8459   -54.265234   -426.79817   -685.84454    -6323.669 
31693000    80.827528   -6810.3625   -6602.4386   -6810.3625            0    1725.0248    23.335883     21.30613    21.628885    10753.824     682.9164    2208.8443    2283.3137    435.83019     105.5978    453.29466   -6331.8969 
31694000    82.259013   -6809.1419   -6597.5356   -6809.1419            0    2685.2432    23.192556    21.367763     21.59001    10699.427    3090.7625    2780.7229    2184.2442   -340.24522   -363.63686   -425.85625   -6178.5298 
31695000    85.888443   -6810.9855   -6590.0427   -6810.9855            0    2134.1339    23.329021    21.294979    21.554456     10708.06    2295.1051    2088.2387    2019.0581   -62.465442   -215.38061    43.503249   -6256.7633 
31696000    80.829866   -6807.3579    -6599.428   -6807.3579            0     2596.775    23.204455     21.39661    21.561913    10705.418    2079.7847    3221.2699    2489.2703    72.990176   -565.20846   -95.246484   -6193.9999 
31697000    81.961205   -6807.5606   -6596.7204   -6807.5606            0    1350.7938    23.330574    21.346322    21.607276    10760.897    1060.2825    980.51163    2011.5872    58.721528    350.43773    227.38975   -6384.7314 
31698000    85.681411   -6811.3204   -6590.9102   -6811.3204            0    2951.2367    23.194971    21.366795    21.572083    10691.172    2942.5184     2278.337    3632.8548    135.57579    107.54346    1043.2788    -6130.754 
31699000    83.374701   -6803.8948   -6589.4185   -6803.8948            0      2183.72    23.336564    21.274674    21.574254    10711.138    1648.2793    2476.2817    2426.5989   -928.49332    202.20941    319.74647   -6248.2975 
31700000    80.149695   -6807.9354   -6601.7552   -6807.9354            0    2491.9335    23.225565    21.416777    21.525857    10707.322    2354.7851    1738.1365     3382.879    298.62014   -349.62736    931.58244   -6212.6266 
31701000    81.158762   -6802.4246   -6593.6486   -6802.4246            0    1950.3429    23.366442    21.365994    21.540843    10754.207    860.68631    2792.5687    2197.7736    119.53194   -198.26031   -581.64743   -6287.7586 
31702000    84.680706   -6818.8425   -6601.0066   -6818.8425            0    1970.0871    23.266435    21.407688    21.534564    10725.948    1938.7592    1574.8976    2396.6045    15.128996    -612.6831   -90.157482   -6292.8318 
31703000    81.208851   -6823.2953   -6614.3905   -6823.2953            0    2191.1725    23.324121    21.312095    21.544127    10709.282    1116.8558    3053.7734    2402.8882    463.41845   -584.94934   -627.16128   -6272.1647 
31704000    81.396232   -6808.8714   -6599.4845   -6808.8714            0    2301.4547    23.167596    21.511488    21.520163    10724.992    2601.3798    1224.5852     3078.399      232.145    261.83275    201.74553   -6239.5071 
31705000    80.758478   -6811.0374   -6603.2911   -6811.0374            0    1928.0672    23.320754    21.312466    21.603544    10737.453     1142.213    2473.2626     2168.726    44.756254   -353.68496   -378.89155   -6301.3659 
31706000    82.544391   -6822.6032   -6610.2627   -6822.6032            0    2131.2316    23.159448    21.391094    21.661135    10731.055    2219.2269     1472.966     2701.502    337.77781   -192.88195    225.61164    -6276.722 
31707000    80.200965   -6812.9605   -6606.6484   -6812.9605            0    1762.7094    23.193776    21.218762    21.846887    10751.797     2108.166     2321.272     858.6903    68.262236    149.59999    460.47342   -6330.2486 
31708000    80.465484   -6802.4346   -6595.4421   -6802.4346            0    2333.3527     23.12047    21.355791    21.737558    10733.048    2538.8052    2248.8513    2212.4015   -604.57278    812.91621   -68.611263   -6230.2012 
31709000    83.969028   -6810.0457   -6594.0405   -6810.0457            0    1225.6474    23.241521    21.296474     21.75454    10767.681    1652.1068    1127.5378     897.2975   -176.23384    131.18423   -60.102387   -6401.5702 
31710000    78.794676   -6801.6299   -6598.9354   -6801.6299            0    2235.6697    23.086958    21.366458    21.763255     10735.52    2546.3351    2720.0559    1440.6181     126.8472    406.21619    45.479691   -6248.9043 
31711000    83.191748    -6804.807   -6590.8013    -6804.807            0     2229.268     23.18108    21.227859    21.807988    10731.377    3421.0486    2622.3518    644.40366   -38.700733   -102.21541   -790.09366   -6241.9071 
31712000    81.848866   -6814.7114   -6604.1602   -6814.7114            0    1688.6361    23.138471    21.364861    21.746343    10750.309     1829.133    2212.1022    1024.6729    178.49628    519.43992   -570.11949    -6339.412 
31713000    82.064874   -6812.2707   -6601.1638   -6812.2707            0    1801.0427    23.238061    21.322115    21.667939     10736.13    2321.9478    1368.7373    1712.4429   -432.34478   -39.572923      171.674   -6319.1647 
31714000     83.56111     -6811.99   -6597.0341     -6811.99            0    2193.4339     23.11398    21.457488    21.617963    10721.816    3111.3211      1482.08    1986.9007   -528.87664   -559.86937   -229.35246   -6254.0541 
31715000     80.54226   -6816.8499   -6609.6598   -6816.8499            0    2090.2749    23.333676     21.29291    21.595862    10729.728    1291.6446    2769.5169    2209.6633   -768.55325   -81.050245    153.67752   -6282.5693 
31716000    82.753762   -6811.7893   -6598.9103   -6811.7893            0    1982.1429    23.197199    21.449889    21.582168    10738.798    1749.7547    1968.3915    2228.2826    98.031753    -107.8114    -119.3706   -6288.4783 
31717000    78.710537   -6801.5834   -6599.1053   -6801.5834            0     2371.047    23.286744    21.301286    21.608528    10718.642    2474.1905    2211.9158    2427.0347   -518.96608   -695.17142   -326.56351   -6228.4623 
31718000    84.709694   -6808.2478   -6590.3373   -6808.2478            0    2088.5594    23.123956    21.532141     21.53247    10721.195    2411.0375    1364.3942    2490.2463    326.54524     59.04434    242.65237   -6263.7751 
31719000    82.605379   -6810.7328   -6598.2355   -6810.7328            0    2199.0649    23.325001    21.281928    21.600496    10722.508    1931.1888    2163.4863    2502.5195   -239.22092    330.72352   -1.4742089   -6254.3528 
31720000    80.589983   -6817.9652   -6610.6524   -6817.9652            0    1516.2629    23.209586    21.453071    21.547976    10729.101    1813.5375    996.42709    1738.8243   -44.126164   -2.8092519    479.41759   -6373.3983 
31721000    78.764176   -6801.9968   -6599.3808   -6801.9968            0    2805.0988    23.324688    21.259796    21.571025      10696.6    2617.4536     2540.242    3257.6009      226.278    165.17081    511.03396   -6161.7883 
31722000    80.587436   -6812.4746   -6605.1683   -6812.4746            0    1654.4498    23.224338    21.372148    21.627992     10735.14    1696.7095     1376.759    1889.8808   -72.779293    85.250712     384.4847    -6346.146 
31723000    84.261083   -6819.8506   -6603.0941   -6819.8506            0    1496.5083    23.318347    21.227906    21.685525    10734.328    1227.6746    2243.7741    1018.0761    287.81959    17.489892    173.71921    -6368.817 
31724000    85.595334   -6809.0485   -6588.8598   -6809.0485            0    2413.9399    23.113961    21.392852    21.642381    10701.585    3126.2326    1754.1349    2361.4522    1033.3644    38.409827    176.26395   -6212.1122 
31725000    82.518867   -6813.8262   -6601.5514   -6813.8262            0    2034.1969     23.31825    21.185982    21.698745    10719.615    1709.5403    3144.1705    1248.8798    632.48814    -420.7126    25.523947   -6283.5361 
31726000     83.83445   -6813.9028   -6598.2438   -6813.9028            0    2295.1572    23.094413    21.410714    21.681009    10720.562    3090.0568    1572.8953    2222.5194   -293.14613    443.79695   -390.23397   -6239.3996 
31727000     85.66076   -6799.4834   -6579.1263   -6799.4834            0    1730.8753    23.280409    21.238785    21.773196    10765.705    1371.5682    2650.3469    1170.7109   -76.631377    215.85935   -868.39192   -6307.3671 
31728000    85.381948   -6802.2697   -6582.6299   -6802.2697            0    1982.1728    23.118504    21.429652    21.676284    10738.897     2583.936     1581.395    1781.1875    68.905074    13.883218   -262.56539   -6272.1903 
31729000    83.075914   -6806.2471   -6592.5393   -6806.2471            0    2183.6173     23.24291    21.288755    21.674364    10724.748    3038.6547    1918.8647    1593.3324   -859.23711   -934.98129   -776.20747    -6251.001 
31730000    87.082367   -6808.2892   -6584.2751   -6808.2892            0    2483.2058    23.042561    21.426635    21.703814    10715.706    2821.5521    2639.5868    1988.4784    483.70914   -428.50727   -315.05526   -6196.2057 
31731000    81.724119   -6796.5789   -6586.3485   -6796.5789            0    1997.4549    23.236018    21.304121    21.711304    10747.594    1582.5419    2616.0914    1793.7314   -913.03906    453.69615    402.27904   -6273.2622 
31732000    81.675459   -6805.1128   -6595.0076   -6805.1128            0    2210.7512    23.161458    21.407083    21.646908    10732.954    2437.2457    1564.7114    2630.2964   -241.65784   -182.78396    459.92161   -6248.9607 
31733000    80.102346    -6807.873   -6601.8146    -6807.873            0    2526.7271    23.201753    21.250996    21.734194     10716.27    2892.7665    2441.9141    2245.5006    207.74676    -319.5963    773.26428    -6206.923 
31734000    81.605513   -6806.9006   -6596.9754   -6806.9006            0    2666.3706    23.121829     21.35173    21.672606    10699.572    2817.3564    3083.0836    2098.6716    410.17878   -239.39107   -302.50707   -6180.9089 
31735000    81.130051   -6807.9376   -6599.2355   -6807.9376            0    1606.1574    23.271593    21.295652    21.677072    10742.805    1421.3414    2104.3803    1292.7504   -182.11425    -250.9395   -472.57645   -6347.5944 
31736000    80.912759   -6808.1375   -6599.9943   -6808.1375            0    2135.8178    23.208292    21.429295    21.593346    10739.177    3129.5304    1064.8839    2213.0391   -453.61156    238.48936    295.86725   -6265.4828 
31737000    79.147706   -6810.4686    -6606.866   -6810.4686            0    1515.6201    23.307217    21.349674    21.625264    10760.763    1048.7635    1751.1187    1746.9782    19.223697   -583.17125   -406.73976   -6369.0126 
31738000    84.994704   -6805.9357    -6587.292   -6805.9357            0     2722.895    23.256993    21.389071    21.518587    10704.324    1981.2175     2811.374    3376.0937   -780.01331    18.002964   -531.21889   -6162.2165 
31739000    83.948123   -6816.7691   -6600.8177   -6816.7691            0    1196.5074    23.288353    21.387584    21.602532    10759.824    1052.9713    1320.3199    1216.2311    472.37997   -255.07727   -485.22869   -6413.0605 
31740000    82.590211   -6806.3676   -6593.9093   -6806.3676            0    2224.9627     23.26981    21.363025    21.548343    10711.973    1836.4861     2424.969    2413.4331   -233.16935   -38.093119   -50.457477   -6246.3186 
31741000     80.70514   -6808.1069   -6600.4979   -6808.1069            0    1759.1119    23.262052    21.365108    21.600748    10735.491    1339.9904    2372.9296    1564.4157    156.85096    -169.8085   -124.87366   -6325.0805 
31742000    82.661798    -6813.539   -6600.8966    -6813.539            0    1730.2557    23.272535    21.403643    21.539685    10729.284    1910.7631    657.84582    2622.1582    537.44859   -88.517543    5.4566112   -6330.1538 
31743000    84.022191   -6807.2964   -6591.1544   -6807.2964            0    2775.3861    23.247609     21.29561    21.620898    10703.902    2560.1274    3039.6996    2726.3314   -769.62126   -229.51712    250.29854   -6157.9016 
31744000    81.194756   -6807.6021   -6598.7335   -6807.6021            0    1486.3917    23.195933    21.403972    21.665026    10756.362     1309.828    1303.6482    1845.6991    295.48605    677.63903    724.83161   -6365.5625 
31745000    86.845639   -6806.1305   -6582.7253   -6806.1305            0    2333.8046    23.177262    21.315897    21.695798    10718.682    3773.8365    1922.1773    1305.3999   -581.93881   -476.31859   -347.71386   -6217.9027 
31746000    77.410764    -6800.673   -6601.5385    -6800.673            0     2089.871    23.193754    21.334284    21.676899    10726.209    1776.4044    2212.4843    2280.7244   -109.09277    387.90494    316.09198   -6274.6184 
31747000    83.309439   -6810.1866   -6595.8782   -6810.1866            0    2118.8913     23.19464    21.331858     21.69087    10732.312    2795.7107    1334.1948    2226.7684    296.50386   -217.56215    101.45006   -6264.2298 
31748000     84.07103   -6809.0887   -6592.8211   -6809.0887            0    1903.9272     23.23773    21.320106    21.666328    10734.167    1253.6576     2139.835    2318.2891     885.7541    232.43172   -142.60024   -6294.7673 
31749000    81.067399   -6808.9327   -6600.3917   -6808.9327            0    1930.5871    23.257192    21.346544    21.607612     10727.33    1877.4719    1815.3812    2098.9081      674.983   -52.169743    145.02122    -6298.357 
31750000     86.43106   -6801.5644   -6579.2258   -6801.5644            0     2450.205    23.248325    21.365828    21.553344    10705.971    2592.9547    2412.2261    2345.4342   -82.626954    608.21576    105.04913   -6196.6616 
Loop time of 503.941 on 64 procs for 250000 steps with 1296 atoms

Performance: 85.724 ns/day, 0.280 hours/ns, 496.090 timesteps/s
391.1% CPU use with 16 MPI tasks x 4 OpenMP threads

MPI task timing breakdown:
Section |  min time  |  avg time  |  max time  |%varavg| %total
---------------------------------------------------------------
Pair    | 39.871     | 49.282     | 57.311     |  67.0 |  9.78
Bond    | 1.4571     | 1.7419     | 2.2998     |  15.5 |  0.35
Kspace  | 251.75     | 259.08     | 270.79     |  30.3 | 51.41
Neigh   | 0.64428    | 0.66705    | 0.67982    |   1.0 |  0.13
Comm    | 54.102     | 57.808     | 60.786     |  23.8 | 11.47
Output  | 0.55642    | 0.55672    | 0.55839    |   0.1 |  0.11
Modify  | 121.67     | 123.62     | 125.83     |  11.4 | 24.53
Other   |            | 11.18      |            |       |  2.22

Nlocal:        81.0000 ave          95 max          66 min
Histogram: 2 1 1 0 3 3 2 0 3 1
Nghost:        3701.00 ave        3732 max        3671 min
Histogram: 1 1 3 1 4 1 1 1 1 2
Neighs:        26091.6 ave       30624 max       21167 min
Histogram: 2 1 1 0 3 3 2 0 3 1

Total # of neighbors = 417466
Ave neighs/atom = 322.11883
Ave special neighs/atom = 2.0000000
Neighbor list builds = 1604
Dangerous builds = 0

unfix		3
unfix		2
unfix		1

write_data	data.final.${pid}
write_data	data.final.0
System init for write_data ...
PPPM initialization ...
  extracting TIP4P info from pair style
  using 12-bit tables for long-range coulomb (../kspace.cpp:340)
  G vector (1/distance) = 0.36790218
  grid = 30 40 32
  stencil order = 5
  estimated absolute RMS force accuracy = 0.0044101008
  estimated relative force accuracy = 1.3280888e-05
  using double precision FFTW3
  3d grid and FFT values/proc = 11832 2400
Last active /omp style is kspace_style pppm/tip4p/omp
WARNING: Not all mixed pair coeffs generated from mixing. Use write_data with 'pair ij' option to store all pair coeffs. (../write_data.cpp:312)

write_restart   restart.lmp.${pid}
write_restart   restart.lmp.0
System init for write_restart ...
PPPM initialization ...
  extracting TIP4P info from pair style
  using 12-bit tables for long-range coulomb (../kspace.cpp:340)
  G vector (1/distance) = 0.36790218
  grid = 30 40 32
  stencil order = 5
  estimated absolute RMS force accuracy = 0.0044101008
  estimated relative force accuracy = 1.3280888e-05
  using double precision FFTW3
  3d grid and FFT values/proc = 11832 2400
Last active /omp style is kspace_style pppm/tip4p/omp
Total wall time: 0:08:24
