LAMMPS (30 Jul 2021)
Processor partition = 1
  using 2 OpenMP thread(s) per MPI task
using multi-threaded neighbor list subroutines
variable        pid world 0 1
variable        phase world IceV IceIII

shell cd ${phase}
shell cd IceIII
include Restart.lmp
echo both
log log.lammps
#include		in.partitions
include		in.temp
variable        temperature equal 83.97
variable	tempDamp equal 100.0
include		in.pressure
variable        pressure equal 6877.0
variable        pressureDamp equal 1000.0 # This is 1 ps
include		in.seed
variable        seed equal 745823

units		real
atom_style	full

read_restart	restart.lmp.${pid}
read_restart	restart.lmp.1
Reading restart file ...
  restart file = 30 Jul 2021, LAMMPS = 30 Jul 2021
  restoring atom style full from restart
  orthogonal box = (0.20525759 0.082074449 0.083246546) to (19.794743 19.917927 20.616751)
  2 by 4 by 4 MPI processor grid
  restoring pair style lj/cut/tip4p/long/omp from restart
  restoring bond style harmonic/omp from restart
  restoring angle style harmonic/omp from restart
  972 atoms
  648 bonds
  324 angles
Finding 1-2 1-3 1-4 neighbors ...
  special bond factors lj:    0        0        0       
  special bond factors coul:  0        0        0       
     2 = max # of 1-2 neighbors
     1 = max # of 1-3 neighbors
     1 = max # of 1-4 neighbors
     2 = max # of special neighbors
  special bonds CPU = 0.002 seconds
  read_restart CPU = 0.007 seconds
include 	in.setup
variable	out_freq equal 1000
variable	out_freq2 equal 10000
variable	out_freq3 equal 1000

timestep	2.0

neigh_modify    delay 7 every 1

include		in.tip4p
# This is TIP4P/Ice

# create groups ###
group ox type 2
324 atoms in group ox
group hy type 1
648 atoms in group hy

# set charges - beside manually ###
set group ox charge -1.1794
Setting atom values ...
  324 settings made for charge
set group hy charge 0.5897
Setting atom values ...
  648 settings made for charge

# ### TIP3P Potential Parameters ###
pair_style lj/cut/tip4p/long/omp 2 1 1 1 0.1577 8.5
pair_coeff 1 1*2 0.000 0.000
pair_coeff 2 2 0.21084 3.1668
bond_style  harmonic
bond_coeff  1 450 0.9572
angle_style harmonic
angle_coeff 1 55 104.52
kspace_style pppm/tip4p/omp 1.0e-5
pair_modify tail yes

thermo          ${out_freq}
thermo          1000
thermo_style    custom step temp pe etotal epair emol press lx ly lz vol pxx pyy pzz pxy pxz pyz enthalpy

restart 	${out_freq3} restart.lmp.${pid} restart2.lmp.${pid}
restart 	1000 restart.lmp.${pid} restart2.lmp.${pid}
restart 	1000 restart.lmp.1 restart2.lmp.${pid}
restart 	1000 restart.lmp.1 restart2.lmp.1


include         in.dump
dump            myDump all atom ${out_freq2} dump.water.${pid}
dump            myDump all atom 10000 dump.water.${pid}
dump            myDump all atom 10000 dump.water.1
dump            myDump2 all dcd ${out_freq2} dump.dcd
dump            myDump2 all dcd 10000 dump.dcd
dump_modify     myDump append yes
dump_modify     myDump2 append yes


variable natoms 	equal  "count(all)"                        # NUMBER ATOMS
variable H      	equal  "enthalpy/v_natoms"                 # ENTHALPY-per-atom
variable Vol      	equal  "vol/v_natoms"                 # volume-per-atom
fix AVG all 		ave/time ${out_freq} 1 ${out_freq} v_Vol v_H file vol_enthalpy.dat
fix AVG all 		ave/time 1000 1 ${out_freq} v_Vol v_H file vol_enthalpy.dat
fix AVG all 		ave/time 1000 1 1000 v_Vol v_H file vol_enthalpy.dat


timer           timeout 02:55:00 every 1000
New timer settings: style=normal  mode=nosync  timeout=02:55:00

fix 		1 all shake 1e-6 200 0 b 1 a 1
Finding SHAKE clusters ...
       0 = # of size 2 clusters
       0 = # of size 3 clusters
       0 = # of size 4 clusters
     324 = # of frozen angles
  find clusters CPU = 0.000 seconds
fix             2 all nph aniso ${pressure} ${pressure} ${pressureDamp}
fix             2 all nph aniso 6877 ${pressure} ${pressureDamp}
fix             2 all nph aniso 6877 6877 ${pressureDamp}
fix             2 all nph aniso 6877 6877 1000
fix             3 all temp/csvr ${temperature} ${temperature} ${tempDamp} ${seed}
fix             3 all temp/csvr 83.97 ${temperature} ${tempDamp} ${seed}
fix             3 all temp/csvr 83.97 83.97 ${tempDamp} ${seed}
fix             3 all temp/csvr 83.97 83.97 100 ${seed}
fix             3 all temp/csvr 83.97 83.97 100 745823


run             250000
PPPM initialization ...
  extracting TIP4P info from pair style
  using 12-bit tables for long-range coulomb (../kspace.cpp:340)
  G vector (1/distance) = 0.37232429
  grid = 24 24 24
  stencil order = 5
  estimated absolute RMS force accuracy = 0.0034948015
  estimated relative force accuracy = 1.0524491e-05
  using double precision FFTW3
  3d grid and FFT values/proc = 3211 432
Last active /omp style is kspace_style pppm/tip4p/omp
Neighbor list info ...
  update every 1 steps, delay 7 steps, check yes
  max neighbors/atom: 2000, page size: 100000
  master list distance cutoff = 10.8154
  ghost atom cutoff = 10.8154
  binsize = 5.4077, bins = 4 4 4
  1 neighbor lists, perpetual/occasional/extra = 1 0 0
  (1) pair lj/cut/tip4p/long/omp, perpetual
      attributes: half, newton on, omp
      pair build: half/bin/newton/omp
      stencil: half/bin/3d
      bin: standard
Setting up Verlet run ...
  Unit style    : real
  Current step  : 35500000
  Time step     : 2
  Walltime left : 2:54:59.92
Per MPI rank memory allocation (min/avg/max) = 10.19 | 10.19 | 10.19 Mbytes
Step Temp PotEng TotEng E_pair E_mol Press Lx Ly Lz Volume Pxx Pyy Pzz Pxy Pxz Pyz Enthalpy 
35500000    89.363836    -5061.851   -4889.5053    -5061.851            0    7149.5363    19.589486    19.835852    20.533505    7978.7891    8296.7169    6392.2961    6759.5959   -5.1581365    929.09381     617.9978   -4057.5677 
35501000     84.55304   -5073.0644   -4909.9968   -5073.0644            0    7931.5677    19.572473    19.825496    20.471701    7943.7158     8618.271    7376.1944    7800.2379   -613.64292    275.28202   -278.62674   -3991.1172 
35502000    81.632884    -5066.173   -4908.7371    -5066.173            0    7352.4078    19.723594    19.689951    20.392526    7919.5719    7430.0301    7295.2275    7331.9658    280.32585     62.65003    594.69715   -4059.5426 
35503000    80.766875   -5072.3215   -4916.5558   -5072.3215            0    6633.8706     19.90452    19.801712    20.239815    7977.3932    6125.5546    6478.5398    7297.5175   -173.54515    187.98375    139.98036   -4144.7573 
35504000     81.59971   -5082.8807   -4925.5088   -5082.8807            0    6680.6459    19.771522    19.709315    20.466646     7975.507    6232.9877    7124.1603    6684.7896   -404.60298   -1266.2161   -317.70188   -4148.4522 
35505000    83.449944   -5078.5854   -4917.6452   -5078.5854            0    5711.6887    19.835505    19.764158    20.424572    8007.0869    4615.2347    6760.5708    5759.2605   -379.85964   -248.66395   -708.64254   -4250.6619 
35506000      83.7132   -5070.9237   -4909.4757   -5070.9237            0    6211.7334     19.74751    19.849285    20.376236    7986.9539    6444.5435    5692.3371    6498.3194    187.73955    191.57647      545.256   -4185.9235 
35507000    83.394112   -5072.4341   -4911.6015   -5072.4341            0    7156.5008    19.695978    19.735578    20.444719    7947.0971    7093.6279    7397.3581    6978.5163    5.3169233   -258.06801    741.31992   -4082.1612 
35508000    83.898059   -5068.0714   -4906.2669   -5068.0714            0    7643.2295     19.60143    19.894278    20.354012    7937.1754    7978.3378    6464.9997     8486.351   -124.80045   -422.81733     -44.1569   -4021.5206 
35509000    91.126895   -5076.3649    -4900.619   -5076.3649            0     7408.993    19.695668    19.710076    20.440627    7935.1153    7324.1186    8146.6839    6756.1765   -188.04315    -732.7418    106.26061   -4043.2095 
35510000    86.772894   -5075.3087   -4907.9598   -5075.3087            0    6835.1773    19.665151    19.880554    20.390209    7971.6355    6829.0149    6789.9153    6886.6015    13.273095    874.34854    934.83102   -4113.3149 
35511000     81.67899   -5068.0588    -4910.534   -5068.0588            0    7770.2411    19.692223    19.796836    20.346883    7932.1041    6906.7769    8133.1461    8270.8002   -223.52435   -98.141203   -1228.9678   -4011.6601 
35512000    88.653701   -5068.8574   -4897.8813   -5068.8574            0     6109.452    19.685745    19.779922    20.492754      7979.52    6140.9729     6049.495    6137.8881    4.5914635   -331.33411   -478.10379   -4186.9053 
35513000    86.047936   -5063.5407   -4897.5901   -5063.5407            0    7324.6771    19.703369    19.830419    20.337742    7946.4858    7471.3954    7502.1412    7000.4946   -348.73959    163.81325   -896.53418   -4048.7234 
35514000    80.745369    -5070.785   -4915.0608    -5070.785            0     6525.401    19.857672    19.727934     20.30963    7956.3144      5317.69    6750.4607    7508.0523    118.37361    166.59581   -134.76834   -4157.8879 
35515000    85.488567   -5084.0434   -4919.1716   -5084.0434            0    6251.1692    19.765706     19.80073    20.384727    7978.0808    5666.7477    6624.7116    6462.0483   -91.985829    1475.5992   -740.42305   -4191.8347 
35516000    83.167912   -5070.0422   -4909.6459   -5070.0422            0    7042.2292     19.61282    19.808884    20.446148    7943.4934    6707.4128    7527.4684    6891.8064    436.92888    1126.9631    296.59178   -4093.8198 
35517000    86.267637   -5077.5013   -4911.1269   -5077.5013            0     6748.779    19.741955    19.893559    20.234802    7946.9702    6280.4419    6869.1463    7096.7487   -86.590687   -85.268648    124.39765   -4128.9541 
35518000    82.617091   -5079.0822   -4919.7482   -5079.0822            0    6318.6194    19.753386    19.834571     20.33904    7968.8346    5420.7139      6937.19    6597.9544   -79.489659   -1143.9672    779.66847   -4185.4154 
35519000    82.973351   -5077.3946   -4917.3735   -5077.3946            0    5829.0561    19.750017    19.777215    20.450664    7988.0361    5984.9503    5536.6718    5965.5462    106.31477    664.00195      99.7002   -4238.3041 
35520000    83.974507   -5071.6227   -4909.6708   -5071.6227            0    8089.6053    19.610456    19.815477    20.371519    7916.1796    8067.0506    8418.1605     7783.605    -126.9372    563.23875   -705.01368    -3975.731 
35521000    84.953216   -5083.7062   -4919.8667   -5083.7062            0    6987.1665    19.782523    19.712315    20.360978     7939.953    7308.2039    6641.4789    7011.8167   -303.22016    1093.4495     452.5313   -4110.7803 
35522000    83.178418   -5072.3705    -4911.954   -5072.3705            0    6194.3857    19.808371    19.838074    20.281538     7969.832    6299.8022    5385.1216    6898.2334   -74.815999    -213.5644   -579.50733   -4191.9692 
35523000    83.480392    -5080.534   -4919.5351    -5080.534            0    6832.4267    19.682551    19.760751    20.439206    7949.6657    6361.6149    7521.7237    6613.9414   -190.98178     158.3763    423.64176   -4127.3991 
35524000    87.198299   -5066.1208   -4897.9516   -5066.1208            0     6589.063    19.780054    19.784834    20.424886    7993.1791    6260.8035    6974.7088    6531.6766   -132.13801    940.00346   -60.802042   -4129.8492 
35525000    87.678729   -5075.2101   -4906.1143   -5075.2101            0    6496.7919    19.885068    19.685252    20.419342    7993.0001    5883.3257    7576.6436    6030.4064   -479.94277    56.675807   -359.05609   -4148.7852 
35526000    87.771164   -5070.4224   -4901.1484   -5070.4224            0    6185.9651    19.694727    19.838719    20.347507    7950.1404    6735.4016    5336.9738      6485.52   -145.47177    671.75312   -827.82197   -4183.9189 
35527000    86.022745   -5067.4334   -4901.5313   -5067.4334            0     7050.987    19.741824    19.761547     20.41938    7966.1917    7999.8935    6078.3893    7074.6782   -158.65341   -469.77263   -664.15293   -4082.3565 
35528000    78.545942   -5073.9667   -4922.4843   -5073.9667            0    5304.5534    19.690301     19.85167    20.497119    8012.0234    5075.2917    4615.5506    6222.8178   -180.57463    917.78935  -0.90588351   -4302.6624 
35529000    86.308513   -5074.6935   -4908.2403   -5074.6935            0    7087.3777    19.779036    19.815035    20.275203    7946.3039     7700.649     6131.789    7429.6952    260.97723   -346.86866    172.04746   -4086.8934 
35530000    83.845829    -5069.369   -4907.6653    -5069.369            0    6356.7211     19.66271    19.749601    20.478804    7952.5477    6373.9104    7094.3822    5601.8708    427.10566    572.38899   -37.355925   -4170.4144 
35531000    84.745301   -5072.6032   -4909.1647   -5072.6032            0    5927.7949    19.740389    19.888178    20.453857    8030.1919    6519.1462    5289.7586    5974.4797   -231.56172   -354.28193   -17.368428   -4214.9482 
35532000    85.704555    -5068.792   -4903.5035    -5068.792            0    6550.0861    19.711516    19.710619    20.453772    7946.8261    6618.2464    6715.5656    6316.4464    366.56647   -310.59099    408.04199   -4144.3727 
35533000    79.978178   -5067.6454   -4913.4007   -5067.6454            0    6498.9035    19.760477    19.779017    20.474051    8002.1352    6364.4082    6231.6357    6900.6667   -23.546264   -1050.3127   -283.40213   -4154.9596 
35534000    83.661267   -5084.5856   -4923.2379   -5084.5856            0    6168.1336    19.831467    19.761531    20.462603    8019.2967    5465.7052    6261.5403    6777.1554   -109.89213   -1373.0164    191.46887   -4201.8548 
35535000    80.037841   -5084.8948   -4930.5351   -5084.8948            0    6590.8641    19.704145    19.862575    20.384753    7978.0841    8210.6972    5117.7101    6444.1849    169.57262    686.90947    986.40939   -4163.6738 
35536000    79.278891   -5077.4617   -4924.5657   -5077.4617            0    5504.2984    19.725315    19.882992    20.364598    7986.9602    5704.6268    5118.4914    5689.7769    11.831973    890.53006   -398.11589   -4283.4161 
35537000    83.024774   -5074.7206   -4914.6003   -5074.7206            0    6571.0913     19.85926     19.69403    20.400911    7978.9769    7721.5379    5519.0156    6472.7204   -125.54091    776.75775     762.6639    -4149.954 
35538000    82.517537   -5065.1498   -4906.0078   -5065.1498            0     6040.224     19.66323    19.916193     20.37212    7978.0622    5909.0017    5690.0675    6521.6027    -149.1901   -414.54066   -955.20665   -4203.2166 
35539000    82.534482   -5077.1089   -4917.9342   -5077.1089            0    7028.9874     19.70515    19.806088    20.389266    7957.5621    6670.7004    8019.2988     6396.963    -438.4812    360.90412   -921.12956      -4102.2 
35540000    82.220791    -5072.929   -4914.3593    -5072.929            0    6135.9395    19.739004    19.686761    20.503763     7967.702    5139.2591    7796.1962    5472.3633   -235.17498    152.95045    327.97825   -4201.3584 
35541000    83.511411   -5074.5206   -4913.4618   -5074.5206            0     6152.675     19.77358      19.8215    20.403483     7996.982    5900.2413     5990.984    6566.7997    139.69589    214.79317   -186.56513    -4195.889 
35542000    83.834746   -5078.2565   -4916.5741   -5078.2565            0    6067.5214    19.795738    19.796595    20.374033    7984.3433    6363.1237    5747.3045     6092.136    225.67393    913.92588   -178.41217    -4210.051 
35543000    86.161338   -5066.5753   -4900.4059   -5066.5753            0    7315.9595    19.628955     19.78116    20.375675    7911.5386    8515.0307    6386.7667    7046.0811    250.55059      988.831    611.73841   -4056.2783 
35544000     81.48155   -5079.9751   -4922.8311   -5079.9751            0    6269.3699    19.766945    19.750878    20.417176    7971.1621    6895.0253    6099.6348    5813.4497   -210.76557      669.859    456.44949   -4194.0092 
35545000    80.466467   -5079.5826   -4924.3962   -5079.5826            0    7230.5804    19.870153    19.782885    20.248015    7959.2712    5666.8678     8082.569    7942.3044    61.724912    188.74226   -140.87092   -4085.0863 
35546000    85.331751   -5080.1981   -4915.6287   -5080.1981            0    7313.9619    19.594233     19.85467    20.391255    7932.9536    6632.8354    7650.4115    7658.6388    50.060018   -230.16399    12.618625   -4069.4472 
35547000    82.722951   -5073.2425   -4913.7044   -5073.2425            0    6790.5205    19.766148    19.796787    20.368627    7970.3705    7506.1928    6306.7404    6558.6284   -288.84278     -259.494    227.27372   -4124.3764 
35548000    81.813293   -5080.7146   -4922.9308   -5080.7146            0    6309.2616    19.733738    19.760629    20.412528    7959.8877    6505.5155    6176.1423    6246.1269    -409.9059   -184.93652    315.99508   -4190.5088 
35549000    82.926939   -5074.3955    -4914.464   -5074.3955            0    6193.0164    19.783963    19.804619    20.382993    7986.3391    6339.9863    5586.1171    6652.9459    -91.17083    998.09397   -1062.6274   -4193.1475 
35550000    83.040309   -5085.6498   -4925.4996   -5085.6498            0    5857.3338    19.896471    19.602171    20.477701     7986.591    5515.8201    6393.2095    5662.9719    85.390023     811.5107   -336.50684   -4243.2594 
35551000    88.641328   -5060.7654   -4889.8132   -5060.7654            0    7369.6899    19.761071    19.803804    20.336589    7958.6097     7926.643    7013.2405    7169.1861    413.58619    -291.2995    494.84641   -4034.4268 
35552000    78.597749   -5068.0216   -4916.4392   -5068.0216            0    7664.5665    19.769383    19.819671    20.305138    7956.0131     7679.512    7131.2771    8182.9105    42.874655    -91.75627   -232.66198   -4027.1173 
35553000    80.079813   -5082.8043   -4928.3637   -5082.8043            0    5920.5349    19.803083    19.811867    20.417198    8010.4027    6433.4636    5146.4272     6181.714   -25.204336     444.9647   -277.19342    -4236.706 
35554000    85.171823   -5067.3274   -4903.0664   -5067.3274            0     6660.912    19.580912    19.819683    20.492978    7953.0676    7696.4662    5932.5835    6353.6864    123.65628    90.053027    102.88597    -4130.485 
35555000    85.767093    -5078.589   -4913.1799    -5078.589            0    6044.1509    19.783641    19.800479    20.391071    7987.7037    5963.5581    6189.0224    5979.8721   -237.84646    474.45799    690.24113   -4209.0819 
35556000    85.064484    -5065.181    -4901.127    -5065.181            0    6380.7979    19.648637    19.927662    20.445983    8005.6534    7023.1822    5706.5298    6412.6817    324.62247    423.18475   -542.11128   -4156.1418 
35557000    79.762526    -5074.989   -4921.1602    -5074.989            0    6941.8243    19.736402    19.797978    20.359738     7955.381    6251.4799    6521.2781    8052.7147    168.82246    598.74632   -251.30918   -4115.7623 
35558000    84.964258   -5073.9896   -4910.1289   -5073.9896            0    7715.8935    19.785892    19.688384    20.368546    7934.6132    6458.0801    9184.4257    7505.1746     289.5383    605.66669    374.49991   -4017.2596 
35559000    82.062419   -5071.0374   -4912.7731   -5071.0374            0    6908.0257    19.667514    19.797413    20.408065    7946.2046    7770.8074    6242.8706    6710.3992    -362.6411   -658.97399   -545.40111    -4112.221 
35560000    87.843213   -5083.7462   -4914.3332   -5083.7462            0    6761.1241    19.672188     19.76917    20.517112    7979.1631    6900.0283    6843.3371    6540.0067    262.23444   -507.65626    188.06542   -4127.5553 
35561000    83.431288   -5069.6474   -4908.7431   -5069.6474            0    7205.2551    19.758856    19.804424      20.3246    7953.2756    5382.6391    7882.1309    8350.9954   -150.81098   -264.29346    545.81268   -4073.0029 
35562000    90.339506   -5071.4389   -4897.2115   -5071.4389            0    7949.0697    19.740325    19.755165    20.349865    7935.9054    7715.5729    8733.6291    7398.0071   -8.5657323   -400.92346   -7.1893698   -3977.2097 
35563000    85.930301   -5070.0623   -4904.3385   -5070.0623            0    6244.7846    19.703709    19.783816    20.405298     7954.282    6088.0909    6480.1866    6166.0764    449.72982     621.4758    439.18113    -4179.912 
35564000    85.436532   -5077.6719   -4912.9004   -5077.6719            0      6803.24    19.645358    19.743848    20.555697    7973.0398    7434.5235    6920.0248    6055.1717   -703.50532   -135.36254   -757.14169   -4121.8291 
35565000    85.210616   -5083.3496   -4919.0138   -5083.3496            0    6751.8947    19.814291    19.830074    20.317143    7982.9881    6739.6369    6892.3764    6623.6708   -32.012379    333.55071    160.14194   -4132.9333 
35566000    85.626482   -5065.8153   -4900.6775   -5065.8153            0    6477.1916    19.732241    19.729234     20.47086    7969.3468    5766.1588    7363.3863    6302.0298   -103.36546   -230.72115   -396.62111   -4147.8675 
35567000     84.53053   -5082.2982    -4919.274   -5082.2982            0    6275.0937    19.859431    19.716193    20.394669    7985.5811    5788.7295    6831.5707    6204.9809    66.536891   -11.004325   -409.56743   -4188.4671 
35568000    85.022881   -5082.2282   -4918.2544   -5082.2282            0     7032.217    19.828826    19.767154    20.350955    7976.7492    6820.9589    7112.5614    7163.1308    351.74497    1159.4984   -187.12986   -4100.1776 
35569000    79.397338   -5077.3401   -4924.2157   -5077.3401            0    7688.8098    19.590313     19.75554    20.490852    7930.3127    7377.0526    8652.4746    7036.9023    17.450259     626.7655   -310.14906   -4034.9627 
35570000    83.584934   -5071.0442   -4909.8437   -5071.0442            0    7232.0808    19.740075    19.721163    20.450841    7961.4559    7040.4219    7229.2511    7426.5695   -230.98542    510.67189    1122.9206   -4070.1291 
35571000    86.353624   -5077.8303     -4911.29   -5077.8303            0    6905.1513    19.743352    19.716906    20.430159    7953.0073    7447.1643    6795.1399    6473.1497   -127.02381    328.05198   -50.681799    -4110.386 
35572000    86.549706   -5060.2059   -4893.2875   -5060.2059            0    7922.5279    19.740884    19.781204    20.357185    7949.4491    7392.1182    8203.6791    8171.7864   -68.081101    602.27677    300.50083   -3974.7927 
35573000    80.672594   -5085.2181   -4929.6342   -5085.2181            0    5337.2057    19.866062    19.824954    20.391109    8030.9114    4741.5729    5320.5712     5949.473   -188.70295      387.559    558.41198   -4304.5268 
35574000    77.350324   -5068.3057   -4919.1291   -5068.3057            0    6495.1383    19.679061    19.840204    20.416372    7971.2988    5865.9131    6358.9447    7260.5571   -569.33711    3.1264735   -23.782962   -4164.0484 
35575000    81.243171   -5077.4999   -4920.8157   -5077.4999            0    6557.9674    19.702356    19.818413    20.458632    7988.4701    6340.2784    6551.7933    6781.8305   -176.00104    -246.2163   -162.17107   -4156.7886 
35576000    86.510737   -5081.2452   -4914.4019   -5081.2452            0    6040.1496    19.775893    19.668368    20.491809    7970.4845    5403.7489    7332.6733    5384.0267    417.37745   -630.61888     318.6794   -4212.2868 
35577000    80.121931   -5080.5184   -4925.9966   -5080.5184            0    6936.5897    19.748836    19.836018    20.309709    7956.0901    5184.9553    8209.1381    7415.6757    419.91281    304.66448   -196.88559   -4121.1342 
35578000    87.990025    -5066.178   -4896.4818    -5066.178            0     7371.801     19.70887    19.699336    20.423573    7929.4859    7261.0872     7743.006    7111.3097   -44.895637    592.80977   -327.71267   -4043.9815 
35579000    84.189927   -5080.7713   -4918.4039   -5080.7713            0    8072.4403    19.626573    19.803362    20.460584    7952.4587      8314.93    7981.5216    7920.8694   -125.13488   -295.30197    666.90783   -3982.1748 
35580000     86.41309   -5072.5449     -4905.89   -5072.5449            0    7032.7733    19.836792    19.769473    20.317638    7967.8245    6620.1836    7018.7828    7459.3535   -74.189754    218.39465    818.86672   -4088.6638 
35581000    87.178741   -5081.4586    -4913.327   -5081.4586            0    6399.4579    19.751564     19.88376    20.343269    7989.5211    6686.3841    5401.1059    7110.8836    52.215988    274.00193    66.114952   -4167.6688 
35582000    81.700158   -5079.1199   -4921.5543   -5079.1199            0    6454.1887    19.674814     19.83906    20.425294    7972.6013    7239.3089    5762.0172      6361.24   -350.07082   -338.38424   -337.97849   -4171.1115 
35583000    86.058639   -5076.1559   -4910.1846   -5076.1559            0    6861.1568    19.752232    19.762959    20.410475    7967.4853    7692.9354    7071.8511    5818.6839    349.86856    1507.1596     1137.828   -4112.9346 
35584000    87.719507    -5066.792   -4897.6175    -5066.792            0    7265.3253     19.73599    19.813624    20.311255    7942.5434    7253.1571    6689.0455    7853.7733   -619.16545    1171.9648   -440.99382   -4056.0469 
35585000    82.090471   -5076.0778   -4917.7594   -5076.0778            0    6848.5835    19.691313     19.76976    20.374002    7931.4472    8451.3152    5332.0246    6762.4108   -227.42616    568.18392    531.34579   -4125.5699 
35586000    84.543773   -5076.5124   -4913.4626   -5076.5124            0    7334.5677    19.871161    19.805517    20.174507    7939.8511    7496.3093    6677.1954    7830.1983   -330.46266     493.7787   -616.40968   -4064.1594 
35587000    79.976862    -5072.724   -4918.4819    -5072.724            0    6685.1886    19.829031    19.717624    20.412601    7980.9466    6630.3239    6335.6158    7089.6262   -236.12779     749.1453   -519.43551   -4140.3666 
35588000    87.287074    -5082.707   -4914.3665    -5082.707            0    6105.7871    19.750317    19.653143    20.571732    7985.0369    5441.9034    7154.6898    5720.7683   -267.10127   -638.76835    703.37422   -4203.3258 
35589000    80.455679   -5081.4335   -4926.2679   -5081.4335            0    7375.1331    19.761375    19.735209     20.41479    7961.6633    7241.0255    7859.8832    7024.4904   -66.241341    455.76868   -431.39269   -4069.9214 
35590000    85.451376   -5078.8591    -4914.059   -5078.8591            0    6939.2107    19.731635    19.883519    20.248434     7944.156    6958.0098    6239.3192     7620.303    70.491455    151.10345    167.77065   -4110.1003 
35591000    80.909158   -5070.7286   -4914.6885   -5070.7286            0    6182.5234    19.723957    19.687474    20.452156     7941.877    5655.8743      7136.22    5755.4759      293.947    182.73197    687.41516   -4198.6031 
35592000     85.69561   -5079.9678   -4914.6966   -5079.9678            0    7179.5348    19.832877    19.780742    20.279893    7955.9852    6565.6793    7106.7338    7866.1913   -268.32973    -848.7043    822.29842    -4081.656 
35593000     85.80371   -5071.8793   -4906.3996   -5071.8793            0    6515.0338     19.81382    19.751285    20.417242    7990.2549    7189.3247    6135.1742    6220.6024    18.970307    402.81291    178.61552   -4147.2048 
35594000    81.111843   -5069.5949   -4913.1639   -5069.5949            0    6650.8446    19.599431    19.810061    20.554106    7980.4594    6841.2642    6428.6343    6682.6352   -85.223122    351.28275    1.6490124   -4139.0932 
35595000    79.300092   -5076.3901   -4923.4532   -5076.3901            0    6831.0789    19.904818    19.698565    20.300309     7959.677    5028.4962    8308.6995    7156.0411   -211.25803    218.52577    389.87282   -4130.4761 
35596000     87.21644   -5081.1504   -4912.9461   -5081.1504            0    6733.0899    19.735027    19.795631    20.428947    7980.9216    6456.6106    6657.2083    7085.4509   -461.15222   -233.27157    571.15965   -4129.2578 
35597000    84.527714   -5079.2725   -4916.2537   -5079.2725            0    6842.9537    19.703342    19.858245    20.421472    7990.3867    6822.4343    7024.7613    6681.6654    -251.3267   -585.49661   -337.81867   -4118.8334 
35598000      84.6754   -5076.5695   -4913.2659   -5076.5695            0    7808.3275    19.835529    19.805062    20.216503    7941.9297    8364.9104    6990.2962    8069.7758   -63.884551    522.50789   -745.39543   -4008.8671 
35599000    83.022432   -5072.0777    -4911.962   -5072.0777            0     7391.974    19.691464     19.84787     20.34709    7952.3264    8499.5926    6180.7733    7495.5562    48.497393   -53.559139    98.376227   -4054.6666 
35600000    84.206517   -5074.1221   -4911.7227   -5074.1221            0    6877.1189    19.681487    19.723407    20.430707    7930.9142    7233.3322    6878.7328    6519.2916    11.685487    1536.5235    331.25155    -4116.286 
35601000    80.924334   -5081.1966   -4925.1272   -5081.1966            0    7616.7919    19.595043     19.78701    20.440444    7925.3185    8098.7195    7706.5741     7045.082   -219.97222   -20.601678   -54.382538   -4044.7583 
35602000    84.048185   -5074.9301   -4912.8361   -5074.9301            0    6653.2358     19.72003    19.822822    20.392575    7971.5927    6664.1432    6174.3503    7121.2138     12.01878    221.43324    194.15559   -4139.3475 
35603000     86.80235   -5075.5833   -4908.1776   -5075.5833            0    7049.8489    19.760674    19.847096    20.351046    7981.5175    7360.6491    6790.9357    6997.9619    254.96964    955.05767    603.90971   -4087.5594 
35604000     84.22178   -5068.4039   -4905.9751   -5068.4039            0    7814.4431    19.747558    19.786649    20.377279    7962.1773    8824.5903    6905.2054    7713.5336   -794.23667   -304.87407    1175.3073   -3998.5605 
35605000    88.493073   -5068.7181   -4898.0518   -5068.7181            0    7405.6401    19.748099    19.690514    20.491372    7968.0742    7109.0128    8283.0208    6824.8868    29.529719    1107.7329    297.40735   -4037.4705 
35606000    80.518944   -5078.0627   -4922.7752   -5078.0627            0    7811.9699    19.809946    19.727782    20.408764    7975.8734    7333.6618    8343.2268     7759.021    24.520325    467.55703   -239.83744   -4014.0874 
35607000    86.666155   -5075.7806   -4908.6376   -5075.7806            0    7424.5652     19.66395    19.809326    20.368274    7934.0457    7579.5824    7212.5986    7481.5147    287.79813    724.13442   -267.92568   -4049.5418 
35608000    84.950237   -5071.3758   -4907.5421   -5071.3758            0    6645.3601    19.787917    19.752751    20.381944    7966.6047    7534.8397    5438.8789    6962.3617   -235.47564     482.7963    966.37116   -4135.4526 
35609000    81.668864   -5066.8079   -4909.3026   -5066.8079            0    7602.8335    19.647086    19.745242    20.461321    7937.6929    8519.1212    7242.8585     7046.521   -597.49273   -555.63083   -33.117402    -4029.175 
35610000    84.929636   -5066.6186   -4902.8246   -5066.6186            0    6238.9714    19.726987     19.82188    20.368202    7964.4961    5678.1652    6118.4191    6920.3298   -30.724949    532.17044   -336.39286   -4178.1431 
35611000    85.848125   -5068.2718   -4902.7065   -5068.2718            0    6519.2225    19.848008    19.692982    20.376806    7964.6098    6281.3134    6882.0352    6394.3187   -656.39517    490.36611    660.71767   -4145.4619 
35612000    84.951925   -5071.0164   -4907.1794   -5071.0164            0    7739.3066    19.802018    19.811228    20.256346    7946.6109    7125.2387    7715.6672     8377.014    138.43728    270.09758    12.627781   -4010.2466 
35613000    83.483936   -5082.4622   -4921.4564   -5082.4622            0    5655.4965    19.761711    19.710243    20.490237    7981.1137    7085.7127    5078.0464    4802.7304    602.90547    -45.71048   -536.70909   -4263.1772 
35614000     82.96315   -5074.2452   -4914.2438   -5074.2452            0    6240.7816    19.859958     19.75694     20.38751    7999.4884    5137.0502    6593.9821    6991.3125   -594.55439    958.90764   -185.75665   -4186.1672 
35615000    83.205441    -5076.122   -4915.6534    -5076.122            0    6247.1723    19.628611       19.881    20.498861     7999.402    6971.1814    5609.6667    6160.6687   -387.98626   -257.31297   -588.38927    -4186.839 
35616000    83.404067   -5083.3375   -4922.4857   -5083.3375            0    7227.2287    19.754423    19.667932     20.49722    7963.7568    6928.9086    7772.9366    6979.8409   -138.24365   -523.50102   -317.87073   -4083.0921 
35617000    82.714649   -5080.1166   -4920.5945   -5080.1166            0    6826.3288    19.678591    19.870591     20.28546    7932.1266    7342.9981    5852.5299    7283.4584   -66.113141    1306.0992    15.447575   -4130.9116 
35618000    81.302522   -5077.0479   -4920.2491   -5077.0479            0     6661.318    19.695569    19.752128    20.439906    7951.7243    7643.6846    6645.1271    5695.1423    347.63024    667.36193   -453.35211   -4147.7511 
35619000    80.538065   -5077.0567   -4921.7323   -5077.0567            0    6980.5207    19.781971    19.768673     20.37946    7969.6593    7158.5535    6305.7653    7477.2431    492.59617    883.06932    216.72083   -4110.3912 
35620000    80.862904   -5067.0152   -4911.0643   -5067.0152            0     6529.693    19.714326    19.785289    20.417639    7963.9742    6266.2266    5992.0444    7330.8079    287.41405    1006.3417    21.092549    -4152.664 
35621000    81.579309   -5082.1533   -4924.8207   -5082.1533            0    6790.1207    19.815584     19.85414    20.287478    7981.5274       6815.9    6371.4699    7182.9923   -275.31837    469.24773    1006.0557   -4134.4344 
35622000    85.235279   -5070.7746   -4906.3912   -5070.7746            0    6409.9303    19.744409    19.860096    20.374956    7989.5473    6089.3419     6721.746    6418.7031    107.63744   -112.15601   -129.38023   -4159.5102 
35623000    81.148037   -5067.7747   -4911.2739   -5067.7747            0    6560.4482    19.773035    19.742398    20.431077    7975.6209    6142.8693    6861.1023    6677.3729   -215.68186   -36.369644    756.11945   -4148.1872 
35624000    85.503205   -5080.2036   -4915.3034   -5080.2036            0    6330.7208     19.81173    19.761958    20.426495    7997.3521    6175.5664    6733.4554    6083.1407   -258.57462   -514.32958   -63.564682   -4176.9314 
35625000    89.128462   -5079.8807    -4907.989   -5079.8807            0    6318.8169     19.71582      19.8481    20.375108     7973.219    6549.3952    6118.7009    6288.3547   -120.04658    206.95964   -162.18316   -4173.2292 
35626000    83.743791   -5084.1484   -4922.6415   -5084.1484            0    6270.9914     19.74167    19.712874    20.439175    7954.2126    6974.3309    5287.7368    6550.9064   -140.24449   -64.028087    212.58027   -4195.1812 
35627000    79.670488   -5070.1201   -4916.4689   -5070.1201            0    7327.2707    19.685988     19.79142    20.454722    7969.4388    6979.3834    7372.0399    7630.3887   -550.73867    562.16924   -1046.2222   -4064.8489 
35628000     81.61398   -5070.9522   -4913.5527   -5070.9522            0    7324.1136    19.675642    19.688837    20.460448    7926.1836    7666.4529    7419.7624    6886.1255   -31.979376    818.18124    181.07575     -4066.92 
35629000    85.891993   -5065.2492   -4899.5992   -5065.2492            0    7554.1422    19.760779    19.712427    20.450961    7966.3228    6525.5527    8743.8469     7393.027     317.3124    1093.0807    -84.49948   -4021.9541 
35630000     81.71163   -5079.9258   -4922.3381   -5079.9258            0    6860.8269    19.759665    19.769778    20.336814    7944.4583    7054.5671    6973.4199    6554.4937   -162.24754    251.49658    339.33213   -4127.4305 
35631000    78.854375    -5081.441   -4929.3637    -5081.441            0    6228.5512    19.708186    19.768938    20.499261    7986.7155    5571.6095    7247.5291     5866.515    102.09014   -181.89522    38.103384   -4203.8742 
35632000    88.066683   -5071.5226   -4901.6786   -5071.5226            0    6783.3233    19.823163    19.779766    20.316356    7965.9926    6444.1594    6030.4821    7875.3285   -369.38562    -232.3327    519.02584   -4113.6204 
35633000    85.801565   -5069.3413   -4903.8658   -5069.3413            0    6429.4713     19.72384    19.863818    20.377286    7983.6326    5867.5325    6089.6704    7331.2109     16.24981   -8.5342166   -541.09543   -4155.2626 
35634000    80.586732   -5070.3281   -4914.9098   -5070.3281            0    6843.5282    19.657541    19.579102    20.605867    7930.7244    6267.8982    8559.3718    5703.3146    84.176193    193.93822   -256.27223   -4123.3772 
35635000    87.485855   -5083.5581   -4914.8343   -5083.5581            0    7913.6682    19.774661    19.754005    20.405944    7971.1483    8123.1425    7642.0162    7975.8459    299.60432    52.432332   -597.43979   -3994.8622 
35636000    85.360129   -5075.8972    -4911.273   -5075.8972            0    6355.3911    19.783361    19.713123    20.422663    7964.6717    6367.1936    6392.2311    6306.7484   -452.34373    456.29874    324.39115   -4173.0526 
35637000    86.522844    -5080.642   -4913.7754    -5080.642            0    7224.2869    19.650473    19.886864    20.240682     7909.781    7489.6666     7088.619     7094.575   -812.75626    429.59552    96.997682   -4080.4103 
35638000    84.830624   -5084.1821   -4920.5791   -5084.1821            0    6234.7252    19.835427    19.772635    20.356824    7983.9191     5579.955    6877.7341    6246.4867   -200.99268    541.04545    734.43075   -4194.6247 
35639000    80.532017   -5085.6726   -4930.3598   -5085.6726            0    6661.7572    19.782869    19.639412    20.526653    7975.0952    6984.0672    7517.8164    5483.3879   -367.37175    337.88052   -196.76699   -4155.5403 
35640000    83.925202   -5068.4715   -4906.6147   -5068.4715            0     6676.491    19.645777    19.712796    20.489579    7935.0646    6403.2837     7083.577    6542.6125   -561.43502   -176.25121   -665.99283   -4133.9793 
35641000     86.29123   -5081.6386   -4915.2187   -5081.6386            0    6761.5281    19.718065    19.920204    20.311374    7978.0615    7226.5134    4910.3664    8147.7046   -114.85385   -21.446548    472.93185   -4128.5024 
35642000    84.861255   -5076.8322   -4913.1701   -5076.8322            0    6553.2088     19.65209    19.854365    20.348676    7939.6414    7470.2921     5558.247    6631.0872   -76.393762    949.77064   -122.11139   -4154.3641 
35643000    81.228726   -5073.5214    -4916.865   -5073.5214            0    7164.4657    19.705372    19.713564    20.460707    7948.2301    8193.3905    6645.3916    6654.6149   -108.06569   -314.95382     -302.026   -4086.3832 
35644000    84.432393   -5074.1178   -4911.2828   -5074.1178            0    7082.8711    19.723302     19.68623    20.503026    7960.8629    7378.3097    7259.4971    6610.8067   -26.462596    80.063706   -395.23784   -4088.9542 
35645000    83.481844   -5069.8675   -4908.8657   -5069.8675            0    7495.1635    19.708298      19.6511    20.451047    7920.4802    7241.6068    7582.5402    7661.3435     -141.427   -157.64713   -141.98227   -4043.0838 
35646000    81.401429   -5071.3805    -4914.391   -5071.3805            0    7300.4573    19.605773    19.861176    20.328632    7915.8418    7977.9231    6213.9001    7709.5486    387.58676   -143.15917   -605.85087   -4071.5939 
35647000    83.085729   -5083.6142   -4923.3763   -5083.6142            0    6002.3446    19.698816    19.778302    20.410519    7952.1249    6673.7155    5608.3479    5724.9702   -35.065977     1038.972   -224.19387   -4227.2629 
35648000    82.191847   -5080.3259   -4921.8121   -5080.3259            0    7028.7676    19.762795     19.69273    20.505779    7980.5085    7156.8153    7459.0563    6470.4313   -3.5450626   -111.95195    13.472696   -4103.7511 
35649000     88.80362   -5075.9646   -4904.6993   -5075.9646            0    7035.8344     19.68729    19.807818    20.409973    7959.1192    6596.0957    7881.8272    6629.5805   -478.22754    155.83392   -123.87907   -4088.0107 
35650000    84.379971   -5078.7586   -4916.0247   -5078.7586            0     6726.478    19.672091     19.83982    20.384266    7955.7903    6179.8828    6567.3338    7432.2174    127.27416    181.91659   -49.818597   -4135.5714 
35651000    85.374821   -5067.4341   -4902.7815   -5067.4341            0    6548.8255    19.813888    19.797637    20.400709    8002.5484    7423.6481    5516.3963    6706.4319    5.4965934    557.71949    182.54051   -4138.4749 
35652000    86.482293   -5072.5838   -4905.7955   -5072.5838            0    8141.8135    19.604529    19.850416    20.375994    7929.4822    7408.4649    8265.2491    8751.7263   -159.13493   -488.93772    59.982245   -3964.2488 
35653000    81.476643   -5070.8795   -4913.7449   -5070.8795            0    7480.7362    19.912766    19.641323    20.335707    7953.5611    6666.5724    7886.8771    7888.7589   -299.03425    1053.2602   -427.79401   -4046.0204 
35654000    80.619501   -5067.3435    -4911.862   -5067.3435            0     7307.351    19.804924    19.723871    20.362514    7954.2042     7876.796    6766.2361     7279.021    -515.5892   -1108.3987   -450.00234   -4064.1807 
35655000     84.14831   -5081.5071     -4919.22   -5081.5071            0    6467.3758    19.721011    19.761555    20.532122    8001.7343    5792.3064     7242.394    6367.4269    208.76864    565.36781     857.4742   -4164.4961 
35656000    82.206671   -5080.9955    -4922.453   -5080.9955            0    6665.1143    19.883376    19.865854    20.208478    7982.3537    6043.0633    6489.4601    7462.8195   -350.48199    172.62628   -605.88395   -4146.5374 
35657000    86.148215    -5076.564   -4910.4199    -5076.564            0    6495.3436    19.630741    19.756612    20.531216    7962.7639    6654.5182    6832.7123    5998.8001   -314.61851   -55.820952    149.70638   -4156.1238 
35658000    79.758315   -5081.8642   -4928.0436   -5081.8642            0     5630.539    19.764768    19.729953     20.54735    8012.6022    6525.4096    5256.0948    5110.1125    -117.9321    297.34779   -934.93455   -4270.0837 
35659000    81.488023   -5077.8626    -4920.706   -5077.8626            0    6607.2116    19.707453    19.834073     20.34476     7952.341    6011.3674    7172.1332    6638.1341    269.58769    378.33573    862.13133   -4154.4232 
35660000    83.964214   -5075.1809   -4913.2489   -5075.1809            0    6034.3179    19.683127    19.856709    20.375257    7963.5085    6136.1218    6124.2595    5842.5724   -459.21694    156.42691   -388.04454   -4212.4256 
35661000     80.72934   -5069.9047   -4914.2114   -5069.9047            0    7566.9911    19.689202    19.709343    20.400383    7916.5977    6952.2986    8096.8728     7651.802    178.11424    342.17148    120.63174   -4040.5609 
35662000    80.729852   -5069.3441   -4913.6498   -5069.3441            0    7397.8178    19.607732    19.938135    20.400924    7975.5699    8256.4766    5921.6991    8015.2776    87.989516   -157.91328    95.855684   -4053.1689 
35663000    82.601392   -5071.9616   -4912.6578   -5071.9616            0    7346.3513    19.768404    19.769452    20.409594    7976.2837    6497.5295    8217.4759    7324.0485    -267.9768    11.763794    420.40367   -4058.0868 
35664000     84.65254   -5079.3429   -4916.0833   -5079.3429            0    7208.3641    19.769308     19.72514    20.338131    7930.9019    6739.6958    8074.6289    6810.7675    29.376858   -117.11411   -254.61053   -4082.3346 
35665000    83.521026   -5076.3455   -4915.2682   -5076.3455            0    6858.3318     19.65709    19.868758    20.354933    7949.8628    7375.7089    6389.5377    6809.7488   -266.65114    491.70972   -723.77743   -4120.1091 
35666000     82.83944   -5065.3769   -4905.6141   -5065.3769            0    7318.1668    19.759368    19.696767    20.445067    7957.1316    7453.6485    7252.0616    7248.7901    -53.64407   -431.00716      710.195   -4056.3657 
35667000    86.298083   -5074.6382   -4908.2051   -5074.6382            0    7503.3673    19.713249    19.741248    20.375735    7929.5054     7517.933    7442.0919    7550.0769    375.60847   -2.7898374    97.927002   -4040.4879 
35668000    86.778124   -5068.9208   -4901.5618   -5068.9208            0    6553.7557    19.612062    19.778308    20.556751    7973.8281    5705.5249    6873.2582    7082.4841    315.51217   -681.07967    271.31242   -4139.4249 
35669000     87.37365   -5071.4529   -4902.9455   -5071.4529            0    7336.0818    19.656765    19.817965    20.464908    7972.2497    8331.5604    6845.8416    6830.8433    97.899008    -437.4462   -179.20883   -4050.0007 
35670000    83.285726   -5070.2127   -4909.5892   -5070.2127            0    7727.1125    19.790263     19.72761     20.36535    7950.9296    8170.5799    7570.0167    7440.7408   -61.961757   -210.50415   -773.07391    -4013.583 
35671000    86.887722   -5074.9365   -4907.3662   -5074.9365            0    7146.2588    19.865089    19.688618    20.373189    7968.2833    6767.0376    7849.3239    6822.4148    -708.9999     170.8462     -90.9348   -4076.9049 
35672000    83.678251   -5081.3411   -4919.9605   -5081.3411            0     6655.163    19.652713    19.756016     20.50515    7961.3151      7895.21    5907.3338    6162.9453    49.193759    30.955082    548.05623   -4147.2454 
35673000    81.927438   -5083.2347   -4925.2307   -5083.2347            0     6301.268    19.770324     19.69441    20.509233    7985.5748    6205.2932    7028.1534    5670.3574     199.3508   -22.070873   -159.27295   -4191.3761 
35674000     84.55063   -5076.5021   -4913.4391   -5076.5021            0    7050.1419     19.81281     19.67237    20.458088    7973.8451    6977.4446     7232.245    6940.7362   -191.69755   -399.47363   -609.42319   -4093.5756 
35675000    82.651623   -5076.3628   -4916.9622   -5076.3628            0    6783.0325    19.761447    19.778687    20.346444     7952.519    6368.0002    7492.0199    6489.0775   -355.78636   -419.04526    -198.1994   -4130.2707 
35676000    82.182876   -5082.5864   -4924.0898   -5082.5864            0    6867.1094    19.749106    19.739397    20.461929    7976.7849    7546.8295    6417.7659    6636.7327    786.50489    944.48671   -219.19708   -4125.2168 
35677000    84.263661   -5074.9931   -4912.4835   -5074.9931            0    6665.1016    19.680221    19.847539    20.429545    7979.8611    7615.9473    5215.1649    7164.1927    483.71581   -281.62175   -640.19259   -4136.8118 
35678000    85.628743   -5078.1267   -4912.9845   -5078.1267            0    7835.5053     19.72482    19.776567    20.380835    7950.3442    8408.1883    7511.9233    7586.4042   -419.76258    985.16427    398.81436   -4004.4763 
35679000    83.921622   -5063.2423   -4901.3924   -5063.2423            0    6693.9516    19.616772    19.665862    20.598445    7946.4832    6717.7145    6807.0458    6557.0945    -194.5724    -420.3862    148.87208   -4125.6216 
35680000    85.243704   -5076.8418   -4912.4421   -5076.8418            0    6046.8659    19.852941    19.765838    20.393818    8002.7385    5418.0758    6032.4532    6690.0687    646.21375     593.2104    508.30396   -4206.7019 
35681000    84.165484   -5077.8278   -4915.5076   -5077.8278            0    6374.4749      19.7785    19.777392    20.311903    7945.3493    6549.6823    6585.6796    5988.0629   -330.96519    837.48321    420.84391   -4176.8667 
35682000    80.426883   -5068.6642   -4913.5542   -5068.6642            0    6816.1911    19.734365    19.802703    20.338067    7947.9899    7312.6219    5762.5896    7373.3617    -9.949908    1205.6182    641.19351   -4123.4672 
35683000    83.081773   -5085.1591   -4924.9289   -5085.1591            0    6578.8475    19.794476    19.659355    20.509662    7981.2656    7680.2803    6429.9861     5626.276    -43.92176    781.77261    49.069113   -4159.1605 
35684000    79.657885   -5075.1737   -4921.5468   -5075.1737            0    7039.3533     19.78534     19.68453     20.42998    7956.7645    7694.3943    6449.8909    6973.7746  -0.24100277    117.44385    12.368996   -4104.6914 
35685000    87.886763   -5073.5023   -4904.0053   -5073.5023            0    6542.3088    19.664346    19.924499    20.300647     7953.839     6763.898    5768.2486    7094.7799   -328.88867    40.143779    912.10551   -4145.1068 
35686000    86.352164    -5067.327   -4900.7896    -5067.327            0    8593.3056     19.74204    19.783836    20.234262    7902.9622    8659.9107    8244.1383    8875.8679    84.300847    1694.8128   -467.65602   -3910.3544 
35687000    79.934261     -5074.68   -4920.5201     -5074.68            0    6103.3846    19.769789    19.904503    20.274704    7978.2545    6496.9643    4614.8883    7198.3013    73.821423    838.63659   -447.36004   -4210.3629 
35688000    85.751284   -5073.2206    -4907.842   -5073.2206            0    7495.9621    19.735106    19.753724    20.375772    7943.3283    7934.7929     6757.791    7795.3024   -584.02035    447.32788    -200.1377   -4039.4701 
35689000     83.24132   -5084.5928   -4924.0549   -5084.5928            0    6898.4464    19.583051    19.726626    20.610309    7961.9177    7500.3524    6771.7852    6423.2016   -114.27171    252.26561    666.85106   -4123.0321 
35690000     89.05922   -5076.0472    -4904.289   -5076.0472            0    6405.8153    19.732888    19.828059    20.408113    7984.9774    7599.3336    4980.8381    6637.2743   -231.77547     803.5083    812.96079   -4158.3145 
35691000    81.985321   -5066.1644   -4908.0488   -5066.1644            0     7356.249    19.742816    19.777505    20.315017    7932.2759    6889.3286     6945.678    8233.7403   -346.63715     928.2421    470.53239   -4057.0477 
35692000    88.562463   -5081.3506   -4910.5505   -5081.3506            0    6664.5191    19.686025    19.722424    20.502354    7960.1646    7502.2131    6302.7815    6188.5626    161.00325    1026.8075    -375.8348   -4136.8609 
35693000    81.467158   -5073.6475   -4916.5312   -5073.6475            0    6048.4637    19.768295     19.77332    20.473645     8002.837    6528.6558    6081.2876    5535.4476   -185.77349    441.33696    27.030654   -4210.5959 
35694000    87.780199   -5077.8092   -4908.5177   -5077.8092            0    5876.4104    19.770055    19.716593    20.533241    8003.8189    6080.5441    5937.3334    5611.3536   -300.07568     -124.881      296.789   -4222.5791 
35695000    82.795369   -5072.1416   -4912.4638   -5072.1416            0    7456.2789    19.805198    19.755669    20.334479     7956.169    7296.7005    7121.0784    7951.0578    342.93168    701.86592   -918.17091   -4047.2926 
35696000    81.623041   -5069.9979    -4912.581   -5069.9979            0    7335.1911    19.667947    19.799944    20.379039     7936.092    8353.2961    6697.4448    6954.8322    188.42632   -313.17624   -133.18364   -4063.6078 
35697000    86.896606   -5081.8753   -4914.2878   -5081.8753            0    6756.5941    19.734373    19.812169    20.410246    7980.0131    6330.6121    7686.2276    6252.9425   -425.98662    1373.9718    316.18799   -4127.9534 
35698000    84.469441   -5074.9814   -4912.0749   -5074.9814            0     7813.438    19.824203    19.753609    20.339496    7964.9373    7035.6285    7919.9161    8484.7696   -475.00644    157.22026    191.49497   -4004.4625 
35699000    87.815969   -5078.4006   -4909.0401   -5078.4006            0    6475.2001    19.668112    19.761168    20.551728    7987.7349     6046.503    6603.8596    6775.2376   -304.12593    100.20923    89.420512   -4154.7251 
35700000    82.048155   -5072.0195   -4913.7827   -5072.0195            0    7540.7855    19.724413    19.704044    20.414971    7934.2927    7801.9937    7919.0951    6901.2676    149.06433    293.30638   -49.108355   -4041.2119 
35701000    83.619825   -5075.0142   -4913.7463   -5075.0142            0    7436.5781    19.685737    19.890839    20.231201    7921.8471    7431.6407    6777.8393    8100.2542    220.08677   -2.2931023    114.29581   -4054.5835 
35702000     84.29247   -5070.4746   -4907.9095   -5070.4746            0    7700.6683    19.654111    19.733492    20.412104     7916.717     6892.964    8466.7717    7742.2694     -97.5357    224.00998   -65.805839   -4018.8119 
35703000    82.991819   -5083.6932   -4923.6365   -5083.6932            0    6130.6427    19.749016    19.821108    20.372743    7974.8565    6282.9391    5997.2598    6111.7293   -134.05408    1445.0767    -355.9293   -4210.6115 
35704000     80.51492   -5076.7972   -4921.5174   -5076.7972            0    6630.7727    19.786446    19.701539    20.470579    7979.9116    5915.8082    7379.2914    6597.2184   -165.79276    852.28467   -85.391439   -4149.8358 
35705000    79.602698   -5084.8904   -4931.3699   -5084.8904            0     5668.385    19.769066    19.807872    20.516417    8033.8829    6172.8841    5172.6906    5659.5802   -21.983457    537.54102   -328.61912   -4267.2282 
35706000    81.882569   -5078.2889   -4920.3715   -5078.2889            0    7386.2727    19.782225    19.687524    20.405467    7947.1749    7141.3187    7155.4444    7862.0551    318.58656   -320.87946   -110.29617   -4064.2922 
35707000    84.117396    -5072.589   -4910.3615    -5072.589            0    6325.2119    19.630486    19.875899    20.307943    7923.6223    5686.7833    6303.2633     6985.589    352.94791    381.55701     583.8102   -4179.4332 
35708000    84.738189   -5077.8159   -4914.3912   -5077.8159            0    5954.7959    19.723619     19.81642    20.460967       7997.2    5824.5488    5391.5974    6648.2416   -290.98142   -25.009058    83.752966   -4219.8776 
35709000    82.300646    -5074.658   -4915.9343    -5074.658            0     6891.372    19.767818    19.724465    20.402978     7955.318    6994.2647    6645.4598    7034.3913    -307.8618    751.00034   -752.01532   -4116.3962 
35710000    86.243126    -5066.159   -4899.8319    -5066.159            0    7583.7533    19.780762    19.625124     20.43008    7930.9555    7540.8403    7810.2657    7400.1538   -127.58936    832.63439   -615.52998   -4022.6582 
35711000    87.071363   -5077.3198   -4909.3953   -5077.3198            0     7629.621    19.670334    19.842156    20.359345    7946.2897    7661.1967    7682.7486    7544.9177   -4.0667123    263.02361    907.71654   -4025.2101 
35712000    86.951411    -5082.047   -4914.3539    -5082.047            0    6087.9164    19.753817    19.794589    20.404683    7978.6124    5014.5825    7263.2653    5985.9013    107.01465     686.7156    37.160182   -4205.9647 
35713000    85.286049   -5068.2754   -4903.7941   -5068.2754            0    7707.6106    19.854808    19.727681    20.296584    7949.9553    7634.6532    7139.2907    8348.8879   -288.04558    231.57272    568.29618   -4010.1588 
35714000    85.916672   -5075.2749   -4909.5774   -5075.2749            0    7119.2938    19.760774    19.854319    20.289366    7960.2632    8739.4121    5074.6315    7543.8378    198.82283    271.56979    34.022242   -4083.0824 
35715000    79.431953   -5083.2432    -4930.052   -5083.2432            0    6405.7075    19.838761    19.685925    20.480181    7998.4195    7045.2005    6578.1326    5593.7893   -27.851846    824.64674    259.86569   -4182.8343 
35716000    82.163607   -5075.5177   -4917.0583   -5075.5177            0    7235.5315    19.717391    19.738561    20.427824    7950.3644    7768.8886    7033.4581    6904.2478    38.694389    671.32155    873.41253   -4078.1135 
35717000    82.266042   -5085.0938   -4926.4368   -5085.0938            0    6474.9697    19.672176    19.732837     20.46555    7944.4777    5464.0128    7757.9825    6202.9138   -111.57945    99.199298    210.29172   -4176.2335 
35718000    84.182398   -5069.4218    -4907.069   -5069.4218            0    6779.3474     19.66789    19.792012    20.454859    7962.4037    7670.8634    6104.9702    6562.2086    33.294376    639.81178   -217.94765   -4119.8275 
35719000    86.887468   -5077.1186   -4909.5488   -5077.1186            0    6929.5996    19.920713    19.747768    20.252296    7967.0434     5805.781    8138.0987    6844.9192   -25.686243    676.78888   -237.56632   -4104.3906 
35720000    81.174007   -5078.0856   -4921.5347   -5078.0856            0    6833.5479    19.673074    19.748735    20.492578    7961.7423    6396.6685    6679.4687    7424.5065    158.75382    479.41688   -714.06603   -4128.0652 
35721000    83.130552   -5076.5065   -4916.1823   -5076.5065            0    7179.7919    19.652197    19.926898    20.351834    7969.9269    8701.4787    5854.1671      6983.73    -339.8081     1490.438   -75.633618    -4081.652 
35722000    79.276456   -5073.2977   -4920.4064   -5073.2977            0    6689.3727    19.757688    19.756127    20.431288    7975.0547    6547.2211    7339.9044    6180.9925    93.271682   -132.06971   -17.698843   -4142.3789 
35723000    79.079175   -5073.7655   -4921.2547   -5073.7655            0    6284.4025    19.810234    19.810924    20.385873    8000.6204    6437.1512    6165.6513    6250.4051    296.05233    772.28196    320.77034   -4187.9853 
35724000    86.237545   -5081.7728   -4915.4565   -5081.7728            0    7525.8205    19.695897    19.878618    20.346122    7966.0605    7317.3782    7623.3688    7636.7145    40.679146   -391.42649    650.98053   -4041.1306 
35725000    81.072533   -5076.5899   -4920.2347   -5076.5899            0    6988.7067    19.788989    19.788911     20.34865    7968.5831    6180.7459    7760.1603     7025.214   -238.87547   -40.110736    263.95468   -4108.0519 
35726000    82.729541   -5074.9173   -4915.3664   -5074.9173            0    6547.4323    19.758188    19.831268    20.351322    7974.2569    6986.3361    6243.6156    6412.3452    48.677134     1027.384    598.99581   -4153.9239 
35727000    89.435753   -5061.7851   -4889.3007   -5061.7851            0    8025.8595    19.658517    19.714199    20.473304     7934.468    9053.3047    7957.2433    7067.0304    33.595332    18.699097    352.73398   -3960.5797 
35728000    85.758504   -5067.2302   -4901.8377   -5067.2302            0    7259.0883    19.659018    19.889837    20.288298    7933.0223    8566.0965    5457.3239    7753.8446    299.90778   -329.10577   -420.68967   -4061.9975 
35729000    85.446683   -5073.8883   -4909.0972   -5073.8883            0     7219.272    19.703241    19.795947    20.368983     7944.806    7886.6261    6213.0907    7558.0992    99.516023   -504.52686     676.0092   -4072.6229 
35730000    89.105886   -5077.3597   -4905.5115   -5077.3597            0    6294.6791     19.69084    19.828524    20.477931    7995.4095    7351.7886    5484.9182    6047.3304   -414.04206     484.3198    227.76362   -4171.5214 
35731000    87.191335   -5073.8273   -4905.6715   -5073.8273            0    6747.8119    19.818445    19.692561    20.408161    7964.8141    6862.1641    6546.6165    6834.6552   -549.41424   -16.040818    501.57962   -4121.8548 
35732000    86.241276   -5080.1006   -4913.7771   -5080.1006            0    6710.0913    19.716563    19.717432    20.475087    7959.8948    6669.8484     6764.661    6695.7645   -199.79393    964.37514    509.41402   -4134.8234 
35733000    84.504571   -5078.0424   -4915.0683   -5078.0424            0    7064.4644     19.72204    19.802542    20.315549    7934.1672    7014.6003    7719.0875    6459.7054   -259.38659    357.57456   -777.41951   -4097.6272 
35734000    86.712956   -5073.1626   -4905.9294   -5073.1626            0    7325.4571    19.695741    19.809924    20.358439    7943.2753    8177.4406    5956.9985    7841.9322   -301.65007   -79.315952   -538.64594   -4057.3153 
35735000    80.565962   -5075.6933   -4920.3151   -5075.6933            0    6990.5548    19.641488     19.81679     20.43167    7952.6441    7091.9293    6803.5793    7076.1559    566.13493    159.02224    162.47962   -4109.5425 
35736000    78.302416   -5068.2786   -4917.2658   -5068.2786            0     7545.859    19.564747    19.764528    20.499558    7926.9331    7730.0944    7855.6802    7051.8023   -86.377724    1491.2994   -137.61177   -4044.9178 
35737000    81.728284   -5073.7237   -4916.1039   -5073.7237            0    6776.9064    19.710037    19.850484    20.372948    7970.9927    5762.0421    7342.1552     7226.522   -367.30964    84.712533   -443.08345   -4128.2969 
35738000    84.260171   -5071.4376   -4908.9348   -5071.4376            0     6701.241    19.642553    19.816584    20.469488    7967.7136     8633.008     5397.866     6072.849   -702.22889    845.01737    714.90866   -4130.2444 
35739000    80.560582   -5070.2527   -4914.8848   -5070.2527            0    6489.0526    19.784134    19.763001    20.352291    7957.6209    6438.7696    6183.7514    6844.6367   -32.393122    674.54518    738.80387    -4161.806 
35740000    83.832182   -5069.7174     -4908.04   -5069.7174            0    7819.6263    19.801044    19.771746    20.271268     7936.226    7845.2434    7815.1549    7798.4806   -28.572397   -231.50244     -63.7536    -4002.983 
35741000    76.549926   -5068.5642   -4920.9313   -5068.5642            0    6150.9633    19.848687    19.684207    20.457326     7992.793    6834.5645    5533.5783    6084.7473    51.866212    58.089957    45.022719   -4203.9338 
35742000    83.876665   -5078.4729   -4916.7097   -5078.4729            0    6291.2034    19.755604    19.689089    20.518442    7981.0548    6689.0762    6407.3583    5777.1756   -76.340761    878.04268   -1513.3627   -4184.4419 
35743000    86.537703   -5073.4296   -4906.5344   -5073.4296            0    7763.3765    19.732832    19.696279    20.468176    7955.2302    7942.9092    8934.7688    6412.4516    47.855116   -811.64714    -788.1905   -4005.8362 
35744000    86.525109   -5073.3331   -4906.4621   -5073.3331            0    6453.3806    19.824942    19.764121    20.332053    7966.5567     6547.826    6507.5293    6304.7866   -55.164677   -81.582907    -233.4993   -4156.6822 
35745000    88.469922   -5068.2459   -4897.6242   -5068.2459            0    7231.0827    19.728733    19.780279    20.333912    7935.1027    7897.7824    6779.5415    7015.9242   -413.20941   -543.53229     857.4658   -4060.8048 
35746000    87.676841   -5077.0938   -4908.0017   -5077.0938            0    7864.6512    19.804856    19.773784    20.327632    7960.6451    7272.7153    8619.3064    7701.9318    628.07221   -306.63632    624.45588   -3994.9326 
35747000    83.218584   -5082.5703   -4922.0763   -5082.5703            0    5595.5748    19.768976    19.822438    20.442871    8010.9337    5133.7942     5130.229    6522.7014   -417.38402    371.44278   -117.24388   -4268.3383 
35748000    85.613918    -5071.381   -4906.2674    -5071.381            0     6188.404    19.702399    19.779468    20.451687    7970.0831    5887.8862    6381.1335    6296.1924    86.336193    384.87093   -80.077285   -4186.9553 
35749000    82.850242   -5084.8127    -4925.029   -5084.8127            0    6320.3794       19.826    19.773477    20.371573    7986.2465     6809.243    6184.6464    5967.2489    13.510391    42.221697    80.588286   -4188.8868 
35750000    84.710775   -5064.4559   -4901.0841   -5064.4559            0    6826.0856    19.796379    19.879563    20.277876    7980.2236    7618.6778    5410.3615    7449.2175    540.92986     192.4209      358.739   -4106.6412 
Loop time of 391.967 on 64 procs for 250000 steps with 972 atoms

Performance: 110.213 ns/day, 0.218 hours/ns, 637.809 timesteps/s
194.7% CPU use with 32 MPI tasks x 2 OpenMP threads

MPI task timing breakdown:
Section |  min time  |  avg time  |  max time  |%varavg| %total
---------------------------------------------------------------
Pair    | 29.487     | 36         | 45.961     |  75.4 |  9.18
Bond    | 1.0085     | 1.2369     | 2.1515     |  17.3 |  0.32
Kspace  | 170.6      | 182.46     | 194.5      |  46.5 | 46.55
Neigh   | 0.25664    | 0.29584    | 0.33467    |   5.1 |  0.08
Comm    | 64.588     | 72.599     | 81.115     |  53.6 | 18.52
Output  | 0.52409    | 0.52541    | 0.5274     |   0.1 |  0.13
Modify  | 77.54      | 80.455     | 85.57      |  18.9 | 20.53
Other   |            | 18.39      |            |       |  4.69

Nlocal:        30.3750 ave          37 max          26 min
Histogram: 3 6 6 4 4 1 4 0 2 2
Nghost:        2712.06 ave        2747 max        2687 min
Histogram: 2 5 8 1 3 6 1 3 2 1
Neighs:        9845.59 ave       12515 max        8202 min
Histogram: 4 7 3 4 1 6 3 1 1 2

Total # of neighbors = 315059
Ave neighs/atom = 324.13477
Ave special neighs/atom = 2.0000000
Neighbor list builds = 740
Dangerous builds = 0

unfix		3
unfix		2
unfix		1

write_data	data.final.${pid}
write_data	data.final.1
System init for write_data ...
PPPM initialization ...
  extracting TIP4P info from pair style
  using 12-bit tables for long-range coulomb (../kspace.cpp:340)
  G vector (1/distance) = 0.37240221
  grid = 24 24 24
  stencil order = 5
  estimated absolute RMS force accuracy = 0.0034798328
  estimated relative force accuracy = 1.0479413e-05
  using double precision FFTW3
  3d grid and FFT values/proc = 3211 432
Last active /omp style is kspace_style pppm/tip4p/omp
WARNING: Not all mixed pair coeffs generated from mixing. Use write_data with 'pair ij' option to store all pair coeffs. (../write_data.cpp:312)

write_restart   restart.lmp.${pid}
write_restart   restart.lmp.1
System init for write_restart ...
PPPM initialization ...
  extracting TIP4P info from pair style
  using 12-bit tables for long-range coulomb (../kspace.cpp:340)
  G vector (1/distance) = 0.37240221
  grid = 24 24 24
  stencil order = 5
  estimated absolute RMS force accuracy = 0.0034798328
  estimated relative force accuracy = 1.0479413e-05
  using double precision FFTW3
  3d grid and FFT values/proc = 3211 432
Last active /omp style is kspace_style pppm/tip4p/omp
Total wall time: 0:06:32
