LAMMPS (30 Jul 2021)
Processor partition = 0
  using 2 OpenMP thread(s) per MPI task
using multi-threaded neighbor list subroutines
variable        pid world 0 1
variable        phase world IceIII Liquid

shell cd ${phase}
shell cd IceIII
include Restart.lmp
echo both
log log.lammps
#include		in.partitions
include		in.temp
variable        temperature equal 263.98
variable	tempDamp equal 100.0
include		in.pressure
variable        pressure equal 4875.0
variable        pressureDamp equal 1000.0 # This is 1 ps
include		in.seed
variable        seed equal 745823

units		real
atom_style	full

read_restart	restart.lmp.${pid}
read_restart	restart.lmp.0
Reading restart file ...
  restart file = 30 Jul 2021, LAMMPS = 30 Jul 2021
  restoring atom style full from restart
  orthogonal box = (-0.044844811 -0.0021209172 -0.075566709) to (20.044846 20.002122 20.775565)
  4 by 2 by 4 MPI processor grid
  restoring pair style lj/cut/tip4p/long/omp from restart
  restoring bond style harmonic/omp from restart
  restoring angle style harmonic/omp from restart
  972 atoms
  648 bonds
  324 angles
Finding 1-2 1-3 1-4 neighbors ...
  special bond factors lj:    0        0        0       
  special bond factors coul:  0        0        0       
     2 = max # of 1-2 neighbors
     1 = max # of 1-3 neighbors
     1 = max # of 1-4 neighbors
     2 = max # of special neighbors
  special bonds CPU = 0.002 seconds
  read_restart CPU = 0.008 seconds
include 	in.setup
variable	out_freq equal 1000
variable	out_freq2 equal 10000
variable	out_freq3 equal 1000

timestep	2.0

neigh_modify    delay 7 every 1

include		in.tip4p
# This is TIP4P/Ice

# create groups ###
group ox type 2
324 atoms in group ox
group hy type 1
648 atoms in group hy

# set charges - beside manually ###
set group ox charge -1.1794
Setting atom values ...
  324 settings made for charge
set group hy charge 0.5897
Setting atom values ...
  648 settings made for charge

# ### TIP3P Potential Parameters ###
pair_style lj/cut/tip4p/long/omp 2 1 1 1 0.1577 8.5
pair_coeff 1 1*2 0.000 0.000
pair_coeff 2 2 0.21084 3.1668
bond_style  harmonic
bond_coeff  1 450 0.9572
angle_style harmonic
angle_coeff 1 55 104.52
kspace_style pppm/tip4p/omp 1.0e-5
pair_modify tail yes

thermo          ${out_freq}
thermo          1000
thermo_style    custom step temp pe etotal epair emol press lx ly lz vol pxx pyy pzz pxy pxz pyz enthalpy

restart 	${out_freq3} restart.lmp.${pid} restart2.lmp.${pid}
restart 	1000 restart.lmp.${pid} restart2.lmp.${pid}
restart 	1000 restart.lmp.0 restart2.lmp.${pid}
restart 	1000 restart.lmp.0 restart2.lmp.0


include         in.dump
dump            myDump all atom ${out_freq2} dump.water.${pid}
dump            myDump all atom 10000 dump.water.${pid}
dump            myDump all atom 10000 dump.water.0
dump            myDump2 all dcd ${out_freq2} dump.dcd
dump            myDump2 all dcd 10000 dump.dcd
dump_modify     myDump append yes
dump_modify     myDump2 append yes


variable natoms 	equal  "count(all)"                        # NUMBER ATOMS
variable H      	equal  "enthalpy/v_natoms"                 # ENTHALPY-per-atom
variable Vol      	equal  "vol/v_natoms"                 # volume-per-atom
fix AVG all 		ave/time ${out_freq} 1 ${out_freq} v_Vol v_H file vol_enthalpy.dat
fix AVG all 		ave/time 1000 1 ${out_freq} v_Vol v_H file vol_enthalpy.dat
fix AVG all 		ave/time 1000 1 1000 v_Vol v_H file vol_enthalpy.dat


timer           timeout 02:55:00 every 1000
New timer settings: style=normal  mode=nosync  timeout=02:55:00

fix 		1 all shake 1e-6 200 0 b 1 a 1
Finding SHAKE clusters ...
       0 = # of size 2 clusters
       0 = # of size 3 clusters
       0 = # of size 4 clusters
     324 = # of frozen angles
  find clusters CPU = 0.000 seconds
fix             2 all nph aniso ${pressure} ${pressure} ${pressureDamp}
fix             2 all nph aniso 4875 ${pressure} ${pressureDamp}
fix             2 all nph aniso 4875 4875 ${pressureDamp}
fix             2 all nph aniso 4875 4875 1000
fix             3 all temp/csvr ${temperature} ${temperature} ${tempDamp} ${seed}
fix             3 all temp/csvr 263.98 ${temperature} ${tempDamp} ${seed}
fix             3 all temp/csvr 263.98 263.98 ${tempDamp} ${seed}
fix             3 all temp/csvr 263.98 263.98 100 ${seed}
fix             3 all temp/csvr 263.98 263.98 100 745823


run             250000
PPPM initialization ...
  extracting TIP4P info from pair style
  using 12-bit tables for long-range coulomb (../kspace.cpp:340)
  G vector (1/distance) = 0.3721958
  grid = 24 24 25
  stencil order = 5
  estimated absolute RMS force accuracy = 0.0034336765
  estimated relative force accuracy = 1.0340415e-05
  using double precision FFTW3
  3d grid and FFT values/proc = 3458 576
Last active /omp style is kspace_style pppm/tip4p/omp
Neighbor list info ...
  update every 1 steps, delay 7 steps, check yes
  max neighbors/atom: 2000, page size: 100000
  master list distance cutoff = 10.8154
  ghost atom cutoff = 10.8154
  binsize = 5.4077, bins = 4 4 4
  1 neighbor lists, perpetual/occasional/extra = 1 0 0
  (1) pair lj/cut/tip4p/long/omp, perpetual
      attributes: half, newton on, omp
      pair build: half/bin/newton/omp
      stencil: half/bin/3d
      bin: standard
Setting up Verlet run ...
  Unit style    : real
  Current step  : 11750000
  Time step     : 2
  Walltime left : 2:54:59.93
Per MPI rank memory allocation (min/avg/max) = 10.19 | 10.19 | 10.21 Mbytes
Step Temp PotEng TotEng E_pair E_mol Press Lx Ly Lz Volume Pxx Pyy Pzz Pxy Pxz Pyz Enthalpy 
11750000     269.0291   -4667.5914   -4148.7462   -4667.5914            0     3654.197    20.089691    20.004243    20.851131    8379.6329    3433.1288    4114.1412    3415.3211    246.80896    263.29029   -959.78223   -3702.1728 
11751000    262.00272   -4692.1857   -4186.8914   -4692.1857            0    4018.4448      20.3145    19.811575    20.783644    8364.6316    3488.9446    5398.7217    3167.6682    482.75454   -29.459288   -140.27206   -3696.6831 
11752000    261.22458    -4682.749   -4178.9554    -4682.749            0     4791.266    20.133639    19.908258    20.763011    8322.3478    4936.6498    5448.8806    3988.2677    623.93367    901.82614    1756.1782   -3597.4255 
11753000    266.89557   -4695.1609   -4180.4304   -4695.1609            0    5013.0374    20.093434    19.953227       20.737    8314.0614    3766.8126    8323.1567    2949.1429    -250.1047    358.03947    227.74164   -3572.5893 
11754000    248.28333   -4695.7202    -4216.885   -4695.7202            0    5390.1326    19.895493    20.040079    20.736307     8267.716    5905.6827    4679.7041     5585.011    206.93036     327.6596   -813.38139   -3566.9635 
11755000     261.1709   -4688.6786   -4184.9885   -4688.6786            0    3535.0985    20.187939    20.054931    20.627129    8351.2586    1461.1873    4488.3783    4655.7299    179.04938    361.08782   -656.24363   -3754.4328 
11756000     276.1926   -4696.1747   -4163.5141   -4696.1747            0      5756.81     19.96348     20.26645    20.452353    8274.7945     4941.262    6277.1941    6051.9738   -274.07984     20.37655   -876.62362   -3468.7857 
11757000    270.99926   -4706.7022   -4184.0573   -4706.7022            0    5258.5684    20.078025    20.007676    20.708018     8318.714    3713.8653    6589.2208    5472.6192   -223.22544   -662.87707    1483.1935   -3546.0882 
11758000    267.07996   -4687.0801   -4171.9939   -4687.0801            0    5156.3514    20.001143    19.964882    20.817161    8312.7184      6353.38    4625.8924    4489.7817    225.55283   -904.15884    66.372308   -3546.8767 
11759000    286.30257   -4707.3756   -4155.2171   -4707.3756            0    5691.7555      19.8457    20.152046    20.899139    8358.2229    6066.3316    6496.5273    4512.4076    838.95224    217.91869   -254.20552   -3461.4142 
11760000    261.01054   -4659.9587   -4156.5779   -4659.9587            0     5573.936    20.179381    19.946712    20.692952    8329.1681    4966.7685    5393.4308    6361.6086    313.05393   -289.79821    623.07463   -3479.4987 
11761000    259.14697   -4685.9783   -4186.1915   -4685.9783            0    4780.2578    19.948086    19.903833    21.018499    8345.2556    6266.5348    3841.7735     4232.465   -912.63165    -1246.757    916.21768   -3604.4007 
11762000    273.82049   -4650.4079   -4122.3221   -4650.4079            0    5953.0965    20.079574    20.033397    20.634906    8300.6401    6864.7993    5927.7789    5066.7112   -119.77651    1593.1409    1143.0631   -3401.6621 
11763000     275.1534    -4672.271   -4141.6145    -4672.271            0    5464.6644    20.035559    20.110492    20.552617     8281.162    5407.3947    4993.9491    5992.6493    316.54437    290.25809      245.158   -3481.6347 
11764000    259.80786   -4690.4221   -4189.3608   -4690.4221            0    6183.1321    20.101712    19.864122    20.653303     8246.923    7984.5667    5150.8678    5413.9618    508.71606   -161.69192   -137.84943   -3445.6975 
11765000    268.20355   -4706.1607   -4188.9076   -4706.1607            0    4332.9412    20.049833    20.122692    20.747298     8370.635    3986.9521     4028.644    4983.2273    150.38829   -739.95961   -987.32056   -3659.9546 
11766000    276.50299   -4721.7781   -4188.5188   -4721.7781            0    4618.6221    20.057483     19.73796    21.058257    8336.8332    4487.4165    6109.0653    3259.3844   -201.74716    451.66323     227.8935   -3626.9676 
11767000     257.7461   -4686.2892   -4189.2042   -4686.2892            0    3730.0671    20.148648    19.948381    20.757019    8342.9286    3239.6507    4213.9551    3736.5956   -311.85008     -524.344   -182.16888   -3735.3555 
11768000    256.11103   -4703.6121   -4209.6804   -4703.6121            0     2893.048    20.031044    20.211626    20.480124    8291.5824    3385.3978    1912.3527    3381.3936    74.672259      1611.78   -132.70969   -3859.8408 
11769000    260.92519   -4695.2704   -4192.0542   -4695.2704            0    4843.1929    19.930106    20.219918    20.658378    8325.0186    5676.6283    3354.2984    5498.6521   -96.364467   -511.19352    963.09127   -3604.0331 
11770000    265.43765   -4704.3316   -4192.4128   -4704.3316            0    4662.4314    19.949732    19.955451    20.905792    8322.7193     2763.432    6557.4075    4666.4548    546.23511    285.53241   -805.07375   -3626.4947 
11771000    263.72303      -4719.1   -4210.4879      -4719.1            0    4169.8973    19.897744    20.102133    20.923949    8369.3095     6242.757    3683.8236    2583.1112   -597.20311   -274.09889   -566.69823   -3701.5195 
11772000    279.21185   -4720.2265   -4181.7429   -4720.2265            0     4315.028    20.197725    19.697596    20.836207    8289.6147    4456.7514    5619.5804    2868.7521    253.86029   -355.91805    338.67042   -3660.0754 
11773000    261.23535   -4720.7866   -4216.9722   -4720.7866            0    4505.8019    20.109194    20.090087    20.680902    8354.9904    4032.0981    3976.9333    5508.3742   -291.54681   -1810.0191    260.29823   -3667.9449 
11774000    277.65514   -4673.7928   -4138.3115   -4673.7928            0    3636.8138     20.20611    20.217418    20.408936    8337.3638    4990.1523    1867.7238    4052.5655     430.8117    520.09521   -1577.8276   -3696.1044 
11775000    269.13706   -4675.0499   -4155.9964   -4675.0499            0    6085.1673    20.121746    19.962295    20.653048    8295.8386    4750.5505    5724.4279    7780.5235      337.962   -1242.3365    361.95479   -3419.7746 
11776000    260.30532    -4645.263   -4143.2423    -4645.263            0    4992.6834    19.861893    20.031386    20.852838    8296.5359    6097.7044     3833.425    5046.9207     185.1225   -589.33638   -69.144507   -3539.1452 
11777000    272.00532   -4669.8749   -4145.2898   -4669.8749            0    7418.6967    19.798024    19.971807    20.827952    8235.4206    7116.7499    7842.1128    7297.2275   -483.31514    619.06886   -1051.5977    -3254.266 
11778000    258.94958   -4703.0606   -4203.6545   -4703.0606            0    3650.7628    20.096667    20.090604    20.628429    8328.8141    3201.3141    3006.4579    4744.5165   -336.72353    -1255.027    -80.66309   -3760.2066 
11779000    264.68262   -4689.8202   -4179.3575   -4689.8202            0    4391.5531    19.986744    20.180134    20.750128    8369.2564    4917.6726    2089.2837    6167.7031    66.310814    1930.3008   -127.11873   -3643.3376 
11780000    265.54765   -4663.3315   -4151.2005   -4663.3315            0    5938.7903     20.01108    19.851571    20.788415    8258.2267    5084.2895    6311.7942    6420.2874    -715.2516   -103.03274    1692.5589   -3435.9459 
11781000    282.57208   -4696.8927   -4151.9287   -4696.8927            0    3609.1221    20.351787    19.755654    20.742686    8339.8636     2653.933    6710.9628    1462.4706   -507.63448      847.843    799.42552   -3712.9571 
11782000    259.62848   -4668.9987   -4168.2834   -4668.9987            0    3343.5153    20.099313    20.151468    20.711604    8388.8345    4944.1948    1862.7213    3223.6297    33.709426   -102.85678   -359.47809   -3759.2292 
11783000     271.0136   -4691.3397   -4168.6672   -4691.3397            0    5785.7057    20.298831    19.681835    20.714001    8275.6213    2904.3062    9227.2145    5225.5965   -139.19485   -583.64458   -250.03169    -3470.382 
11784000    256.36036   -4695.1168   -4200.7043   -4695.1168            0    7111.5988    19.746514    20.090604    20.754549    8233.7321    8868.0649    5689.8837    6776.8478    -654.1254   -392.01775    294.27356   -3346.7397 
11785000    249.85794   -4712.3295   -4230.4574   -4712.3295            0    4756.8382    20.025278    20.118993    20.679333    8331.4639    5253.5669    5250.7236    3766.2241     173.3405   -1026.9416   -1565.0439   -3652.4737 
11786000    254.88863    -4703.143   -4211.5689    -4703.143            0     4132.671    20.216034    19.997014    20.620305    8335.9711    1434.6441    5856.5699    5106.7991   -365.55445   -143.32957   -161.01571   -3709.1535 
11787000    254.13377   -4682.8783   -4192.7599   -4682.8783            0    3982.3701    20.016283    19.949585    21.073182    8414.8701    6222.2101    2505.8988    3219.0014     725.4464    776.36126    1288.2859   -3704.0345 
11788000    261.79971   -4675.4392   -4170.5364   -4675.4392            0    5291.4761    20.077595    20.203306    20.670091    8384.4875    6264.0826    3643.7551    5966.5906   -189.48276   -456.33697   -79.376315   -3523.4992 
11789000    257.33627   -4686.5358   -4190.2412   -4686.5358            0    6249.5023    19.977367    20.056854    20.633311      8267.42    5957.5391    6262.9258     6528.042    185.03524    2159.6319    1566.8863   -3436.7272 
11790000    258.70043   -4685.6547   -4186.7292   -4685.6547            0     5446.638    19.975104    19.991244     20.82334    8315.3254    7057.7049     4238.683    5043.5261    107.35147    466.82854    798.42314   -3526.2127 
11791000    257.10463   -4676.8798   -4181.0319   -4676.8798            0    4418.6552    20.040341    20.168286    20.631938    8339.0029    3723.8308    5039.0234    4493.1114   -417.71348    280.07483   -1124.1945   -3643.6536 
11792000    261.95159   -4697.0292   -4191.8336   -4697.0292            0    5492.9763    20.113569    19.927528    20.720414    8305.0261     4684.942    6691.4794    5102.5074    226.86368   -142.90493   -442.29087   -3526.5227 
11793000    263.36313   -4676.7666   -4168.8487   -4676.7666            0    5145.1076    19.846887    20.224279    20.749951    8328.8019    5296.0341    4168.8603    5970.4286    598.70043    1118.7467   -845.15371   -3543.8877 
11794000    260.49026   -4707.0132   -4204.6358   -4707.0132            0    5748.3756     20.22026    19.846371    20.549596    8246.5278    5836.6667    5457.6069     5950.853     563.4232    1022.6936    -343.2038   -3513.2951 
11795000    258.99327   -4719.0147   -4219.5243   -4719.0147            0    4250.9744    20.068818    19.958071    20.677684     8282.134    2951.8249    4599.0492     5202.049    523.19294   -224.62117   -944.02811   -3706.0643 
11796000    259.58545   -4697.7869   -4197.1545   -4697.7869            0    3535.3154    20.052104     19.75308    21.043991    8335.3316    3255.8596     4913.739    2436.3477    482.50571    34.624368    352.58795   -3767.3936 
11797000     273.1674   -4717.1324   -4190.3061   -4717.1324            0    4516.4243    20.203907    19.939682    20.742161    8356.1761    2782.4396    5200.9022     5565.931    390.99577     361.2518    43.993941   -3639.9063 
11798000    261.71568   -4719.6286   -4214.8879   -4719.6286            0     4549.887    19.998167    20.292044    20.430045    8290.5878    4425.7865    2803.1658    6420.7088   -370.71674   -1484.5581   -1079.3427   -3664.7623 
11799000      275.134   -4700.9741    -4170.355   -4700.9741            0    6381.8943    19.945994    20.031875    20.837862    8325.8858    7068.5646    6075.1149    6002.0035   -221.73196    2765.0121    2147.4053   -3395.4366 
11800000    255.59255   -4708.9559   -4216.0241   -4708.9559            0    4276.4564    20.013776    20.054279    20.886005    8382.8452    4963.4295    4078.8051    3787.1347   -479.15646   -57.961969    1167.6944   -3693.2051 
11801000    283.03209   -4647.9156   -4102.0644   -4647.9156            0    5880.9616    20.253082    19.958073    20.475039    8276.2666     2699.886    7904.4537    7038.5452    1146.8466    724.35515   -268.30246   -3392.2273 
11802000    262.36956   -4714.4177   -4208.4159   -4714.4177            0    5346.6152    19.916785    19.974899    20.812643     8280.014    6703.5633    4969.9214    4366.3608   -117.49122   -234.15959    621.85175   -3562.7827 
11803000     252.4504   -4700.1298    -4213.258   -4700.1298            0    6542.7725    19.996587    19.885898    20.769749    8259.0927    6277.8161     6481.108    6869.3935    321.01942    1274.2345    227.75951   -3425.1785 
11804000    261.78097   -4661.4138   -4156.5472   -4661.4138            0    4851.1918    20.127613    20.044713    20.666153    8337.8054    4609.7401    5388.7487    4555.0867     332.0897    194.27918    -1231.546   -3566.6503 
11805000    278.17205    -4715.306   -4178.8278    -4715.306            0    5247.2137    20.096636    20.047267    20.603209    8300.6748    5831.2359    4850.2577    5060.1476    58.261821   -8.0453702    463.29764   -3543.6168 
11806000     267.2885   -4643.0998   -4127.6115   -4643.0998            0    9105.7953    19.846585      19.8166    20.893611    8217.2867    10562.457     9213.193    7541.7355    323.68559   -489.16334    881.52943   -3036.3666 
11807000    259.24312   -4715.2439   -4215.2717   -4715.2439            0    4311.3969    20.048522    19.854748    20.762186    8264.5612    2590.8673    6417.2126    3926.1106    710.28688    166.43261     626.8112   -3695.6184 
11808000    270.49866   -4695.1919   -4173.5125   -4695.1919            0    5761.6791    20.030961    20.119292    20.677304    8333.1345     5997.113    5083.1934    6204.7309   -433.69207   -507.56218    40.029419   -3473.2944 
11809000    273.78482   -4719.2471   -4191.2301   -4719.2471            0    3955.2474     20.17257    20.048122    20.550853    8311.2202    3431.0608    4016.5078    4418.1735   -511.76224    569.64294     625.1418   -3711.8121 
11810000    260.24519   -4694.4895   -4192.5848   -4694.4895            0     5110.262    20.183916    19.936082     20.75946    8353.3617    4674.5521    5397.1754    5259.0584    61.170858    1076.3371   -101.33648    -3570.026 
11811000    260.24349   -4680.2469   -4178.3455   -4680.2469            0    6375.9087    20.020605    19.894361    20.721437    8253.2893    5703.0003    6840.7545    6583.9712   -44.904325   -418.59935   -885.35709   -3410.9044 
11812000    285.27454    -4685.698   -4135.5221    -4685.698            0    4926.4335    19.889891    20.030416    20.924407    8336.3422    4842.8794    6355.1033     3581.318   -297.58208   -565.54132    430.86499   -3536.5811 
11813000    271.51255   -4676.0663   -4152.4315   -4676.0663            0    6952.1632    20.090692    20.049258    20.500056    8257.4935    7912.7777    5158.2541    7785.4577    52.653209   -580.25479   -2432.8501   -3315.2028 
11814000    264.31567   -4679.5718   -4169.8168   -4679.5718            0    5203.9671    20.118281    19.747061    20.755506    8245.6833     3348.906    8389.9852    3873.0101   -453.96924    597.31027    -25.10906   -3544.0146 
11815000    260.19037   -4689.7396   -4187.9406   -4689.7396            0    4798.2472    19.888105    20.063838    20.789547    8295.6887     3569.355    5124.4595    5700.9273    389.14294    155.25437     241.7512   -3607.4289 
11816000    278.80512   -4677.5377   -4139.8385   -4677.5377            0    3989.7022    20.263046    20.113595    20.604786    8397.7422     4881.275    2324.0545     4763.777    477.51357    773.73699    1534.5005   -3651.2099 
11817000    261.71945   -4705.3931   -4200.6451   -4705.3931            0    3089.1405    20.152845    20.193373    20.589679    8379.0505    4301.9899    1732.1881    3233.2434   -97.352787    331.33709   -115.75609   -3823.1526 
11818000    263.68937   -4699.2041    -4190.657   -4699.2041            0     3444.643    19.946365    20.228889    20.830668    8405.0245    2296.9902    4931.6159    3105.3228   -374.93049   -1499.0442   -22.060283   -3768.4173 
11819000    253.78674    -4717.272    -4227.823    -4717.272            0    3750.8941    20.164503     19.86154    20.804448    8332.1414    4099.9594    4481.4733    2671.2495     361.6755    645.11507   -320.81667   -3772.0303 
11820000    262.66097   -4676.9001   -4170.3363   -4676.9001            0    6620.0195    19.934979    20.196589    20.536834    8268.5106    7305.9824    4584.8252    7969.2509    -862.9793    -279.0064   -55.699439   -3372.0431 
11821000    275.97601   -4697.7574   -4165.5145   -4697.7574            0    5463.0393    20.028111    20.116356    20.492665    8256.3432    4586.5511    5345.0935    6457.4733   -621.12016    1326.7458   -1049.1002   -3507.7083 
11822000    288.13244   -4676.5323   -4120.8446   -4676.5323            0    5850.0779     20.16048    19.982236    20.696205    8337.4967    4408.2361    6005.8062    7136.1915    681.13507    1349.1901   -1007.3924   -3409.5112 
11823000    247.13327   -4702.5647   -4225.9474   -4702.5647            0    4177.1712    20.058637    20.048921    20.755245    8346.8056    4551.4298    4260.5024    3719.5813     243.7325    514.17693   -474.85323   -3717.4621 
11824000     248.0917   -4701.4528   -4222.9871   -4701.4528            0    3786.1212    19.991692    19.956288    21.029899    8390.0877    3695.4928    5751.8557    1911.0152    366.65637    41.814244   -590.01343   -3759.7142 
11825000    264.97786   -4709.8863   -4198.8542   -4709.8863            0     4096.402    20.070584    20.078903     20.68844    8337.3442    3925.0922    3448.9846    4915.1291     181.6362    730.48862   -1425.5993   -3700.7661 
11826000    265.58283   -4704.7589   -4192.5601   -4704.7589            0    4176.9065    20.158372    19.992249    20.608439    8305.4318    3505.0908    4748.8048    4276.8238   -23.197824   -990.10015   -265.20441   -3686.6273 
11827000    256.21374    -4718.682   -4224.5523    -4718.682            0     4334.386    20.024004    19.819689    20.936291    8308.9759    4826.6807    5329.0088    2847.4685   -257.28068   -112.04462    1227.3194   -3699.3205 
11828000    272.10382   -4670.0178   -4145.2427   -4670.0178            0    5951.2594    19.915918    20.020418    20.720006    8261.5844    5053.5135    6389.6712    6410.5935   -699.23248    -45.77929     49.01404   -3428.1949 
11829000    266.62512   -4719.7692   -4205.5602   -4719.7692            0    5352.1595    20.117597    20.073957    20.456378    8261.0993    4620.9015    5512.7622    5922.8148   -315.41366    1648.1677    175.88439   -3560.7339 
11830000    263.31569    -4663.002   -4155.1755    -4663.002            0    3739.6111    20.353055    19.883987    20.675858    8367.5175    3604.4543    3272.1702    4342.2088   -742.46986   -210.04622   -1212.2898   -3698.8245 
11831000    274.46925   -4705.9149   -4176.5779   -4705.9149            0    4177.1279    20.168268    19.905884    20.795609    8348.7552    4060.6617    3826.6937    4644.0282   -367.18478   -345.32011    -1339.043    -3667.979 
11832000    266.02433   -4726.5666   -4213.5163   -4726.5666            0     3267.279    19.909698    19.910892    21.058462    8347.9925    4525.5413    2746.8637     2529.432   -124.72373   -1232.4486    1046.2173   -3815.7352 
11833000    280.41281   -4718.7365   -4177.9368   -4718.7365            0    3733.7041    19.924417    20.199687    20.811965     8376.129    5333.2001    3034.0525    2833.8596   -762.19811   -85.173398   -923.00573   -3721.8378 
11834000    277.21198   -4669.0453   -4134.4187   -4669.0453            0    4776.7062    20.090163    19.905873    20.728262    8289.4855    3161.2345    6765.4918    4403.3923   -40.818196   -29.223068   -1615.2338   -3556.9453 
11835000    250.36296   -4685.9805   -4203.1345   -4685.9805            0    4659.2992    20.078086    20.179939    20.578674    8337.9549    5738.7455    3107.2405    5131.9117    16.132535    172.02336    375.38749   -3636.5613 
11836000    258.38287   -4689.4496   -4191.1365   -4689.4496            0    5249.3703    20.192173    20.016541     20.54053    8302.0192    3088.5309    6003.9381     6655.642    656.49545    380.23787   -317.57991   -3555.5615 
11837000    258.67032   -4701.0816   -4202.2142   -4701.0816            0     5155.699    20.048173    19.997539    20.718766    8306.4455    5631.2181    4099.1558    5736.7231   -414.69393    980.63215    503.98659   -3577.6477 
11838000    267.01628   -4692.3648   -4177.4015   -4692.3648            0    5035.9792    20.026492    19.816791    20.848651    8274.0122    5816.2706    4779.7667    4511.9004    332.21156    443.67849    446.07652     -3569.72 
11839000    248.56988   -4705.9282   -4226.5403   -4705.9282            0    4921.5186    20.119291    20.083402    20.609048    8327.3703     4551.503    4920.4679     5292.585   -192.87528   -108.54371    1749.7816   -3628.8407 
11840000    245.31333   -4664.3638   -4191.2564   -4664.3638            0    4180.6539    20.113436    19.883448    20.867421     8345.392    5026.4323    3792.5451    3722.9844    137.41697    53.476912    768.73031   -3682.4333 
11841000    249.94744   -4678.2807   -4196.2361   -4678.2807            0    4703.4211    19.877938    19.964331    20.765365    8240.7296    5523.5462    5266.4437    3320.2735    237.67758   -633.58799    531.56428   -3630.9667 
11842000     266.2677   -4706.1464   -4192.6268   -4706.1464            0    6427.5801    20.115064    19.974041    20.695706    8315.1025    7409.0059    6678.6171    5195.1172   -239.64777    936.77067    654.50967   -3413.1719 
11843000    270.75158   -4681.0236   -4158.8563   -4681.0236            0    5663.7016    20.029434    19.926131    20.776545    8292.1087    6662.3565    5810.5638    4518.1843     298.7004   -916.34573   -332.27539   -3473.9342 
11844000    261.89234   -4693.8653   -4188.7839   -4693.8653            0    3462.3805    20.217285    20.118163    20.726315      8430.11    3993.7637    2973.7849     3419.593    204.76223   -266.76261   -926.82751   -3763.1032 
11845000    254.10816   -4719.5237   -4229.4547   -4719.5237            0    5650.3229    20.115772    20.078568    20.522597    8288.9928    4807.0147    4606.1332    7537.8209    852.36773    1358.0881    83.094508   -3546.4072 
11846000    256.58868   -4667.9139    -4173.061   -4667.9139            0    4503.3311    19.993356    20.159438    20.641432    8319.6284    6112.9731     3007.458    4389.5622    377.45527   -295.00263   -617.47872   -3626.6573 
11847000    269.12179   -4706.1161   -4187.0921   -4706.1161            0    2964.7807    20.083203     19.96397     20.78076    8331.8475    2573.7915    3726.1912    2594.3593    -211.8987    135.75279   -290.30385   -3826.8373 
11848000    271.21361   -4719.1645   -4196.1062   -4719.1645            0    3049.3497    19.979928    20.080256    20.900739    8385.4197     2949.211    2764.2375    3434.6006    224.70251    795.78761    155.85776   -3823.1929 
11849000    256.21003   -4688.4004   -4194.2778   -4688.4004            0    3356.6087    20.095667    20.081981    20.646747    8332.2178    2860.1445    3326.2603    3883.4212    -15.65675     371.9455    337.09269   -3786.3933 
11850000     273.4846   -4699.2628   -4171.8247   -4699.2628            0    7084.8457    20.236512    20.014117    20.398448    8261.6963    7189.9668    5312.9505      8751.62    131.24195   -1703.5266   -714.75381   -3318.1833 
11851000    240.24114   -4690.7035   -4227.3783   -4690.7035            0    5159.7271    20.075572    19.990651    20.636781    8282.0302    5039.6647    4854.5334    5584.9834   -109.37123    677.75889   -310.76503   -3604.1611 
11852000    259.12671   -4676.8471   -4177.0994   -4676.8471            0    3900.8822      20.0201    19.900671    21.109824    8410.4371    4904.6001    3922.0215    2876.0251    537.13435   -58.210677   -651.55775   -3698.6265 
11853000    263.59784   -4678.3828   -4170.0122   -4678.3828            0     3619.064    19.987699    20.129599    20.729301    8340.3177    4075.7532    2687.5699    4093.8689   -288.57647    885.02968   -304.55494   -3729.8074 
11854000    272.87612   -4691.5652   -4165.3006   -4691.5652            0    4234.9788    19.985351    20.067569    20.661006    8286.2496    3887.7321    3007.9124     5809.292   -44.689683    462.42337    1792.8914   -3653.5185 
11855000     283.0384   -4679.9295   -4134.0661   -4679.9295            0    5673.3706    20.097821     20.12452     20.45137    8271.7404    3604.7481    6728.2673    6687.0964    911.71929   -1326.7585   -1029.6752   -3449.6599 
11856000    256.14158   -4702.9001   -4208.9096   -4702.9001            0    5299.7234    19.989339    19.997212    20.738672    8289.8912    4659.7051    5328.7936    5910.6714    421.09516    1405.9021    205.73064   -3568.1753 
11857000    257.34368   -4678.7252   -4182.4163   -4678.7252            0    4882.9482    19.974681    20.055179     20.90833    8375.7892    6433.6186    3999.6699    4215.5561    881.74501    -91.62913    870.40926    -3585.953 
11858000    262.43399   -4672.0946   -4165.9686   -4672.0946            0    4666.6756    20.197552    20.141249    20.547274    8358.7118    4487.3908    3776.9324    5735.7034   -579.75177   -60.052775    689.98452   -3597.0858 
11859000    260.92179    -4689.551   -4186.3414    -4689.551            0    5624.6302    20.115628     19.99454      20.5857    8279.6249    5968.7386    5657.0395    5248.1124   -504.51566   -181.96323   -595.72304   -3507.1682 
11860000    277.61283   -4704.6037    -4169.204   -4704.6037            0    3936.7386    19.859077    20.210788    20.839536    8364.3143      5201.44    3424.4801    3184.2956   -356.10689     1335.148    656.08352   -3688.9812 
11861000    274.24585   -4675.0802    -4146.174   -4675.0802            0    4885.3673     20.04436    19.994145    20.778323    8327.3254    5361.5953    3194.6516    6099.8551   -106.91082    40.644398   -1005.9514   -3552.8682 
11862000     258.5571   -4668.0865   -4169.4374   -4668.0865            0       4990.2    19.886226    20.190714    20.885184    8385.7583    6249.9931    2685.9188    6034.6882    334.03188   -1092.0512   -1315.0663   -3559.1475 
11863000    258.51203   -4707.9218   -4209.3596   -4707.9218            0    4823.3315    20.158201    20.080115     20.49948    8297.7589    5438.7773    3293.9988    5737.2184   -337.63347   -172.28966    491.80578   -3625.6675 
11864000    276.38491   -4710.5424   -4177.5109   -4710.5424            0    3738.2808    20.146983    20.024927    20.644519    8328.8633    3213.1095    4362.5435    3639.1893   -371.07192   -507.78738   -627.45887   -3723.4297 
11865000    251.39601   -4675.9132   -4191.0748   -4675.9132            0    5528.6942    20.047135    20.153903     20.56336    8308.1735    6539.0436    4440.1282    5606.9107    994.40958   -2002.8818   -1472.1655    -3521.184 
11866000    249.08256   -4704.7686   -4224.3919   -4704.7686            0    5141.2892    20.180632    20.001667    20.632462    8328.2164    4206.2544     4390.054    6827.5593   -469.65987   -316.57745   -1659.2924   -3599.9387 
11867000    256.43581   -4720.4943   -4225.9363   -4720.4943            0    3839.1328    20.191423    19.844195    20.817736    8341.3029     2400.611    4827.3212    4289.4663    561.17168     450.6264   -150.87412   -3758.9083 
11868000    250.84693   -4688.2707   -4204.4913   -4688.2707            0    4388.4889    19.593161    20.207244    21.028218    8325.5718    6092.6028    3712.2597    3360.6043   -265.86249    808.62941   -82.017574   -3671.6413 
11869000    249.37196   -4696.9684   -4216.0336   -4696.9684            0     5761.073    20.310138     19.86318    20.737626    8366.0546    4669.4851    7508.8555    5104.8785   -822.37186   -290.97278    55.270283   -3513.1232 
11870000     269.2925   -4701.9599   -4182.6067   -4701.9599            0    5323.9439    20.199477    20.125306    20.450888    8313.7083    6038.7226    4770.5004    5162.6088   -144.75854   -565.54344    -184.3816    -3537.095 
11871000    254.41836    -4706.401   -4215.7338    -4706.401            0    5808.1522     19.93657    19.906083    20.786783    8249.4223     5175.594    6335.1885     5913.674    -613.0348    494.32304     725.1679   -3516.9587 
11872000    265.95374   -4672.0286   -4159.1144   -4672.0286            0    4618.4259    20.220404    19.862268    20.828639    8365.2621    4865.3908    5215.4061    3774.4808    183.80985    278.20087    -672.3246   -3595.6721 
11873000    259.49782   -4690.0091   -4189.5457   -4690.0091            0     5855.653    20.097527    20.086794    20.632057    8329.0555     4933.443    5358.8997    7274.6162     80.75657   -254.35406   -1219.8748   -3478.2553 
11874000    271.63887   -4697.4041   -4173.5257   -4697.4041            0    3720.3982    20.251467    20.008947    20.543852    8324.5853    2905.7201    3839.1089    4416.3655   -586.33907    223.79375    1391.2789   -3721.8487 
11875000    270.72528   -4673.8881   -4151.7716   -4673.8881            0    3954.3982    19.954713    20.194074    20.738805    8357.0531    5608.0383    2496.2512    3758.9052   -853.11983    1030.5319    -41.74653   -3669.8133 
11876000    245.88436   -4690.7259   -4216.5172   -4690.7259            0    4850.1988    19.925597    19.925004    20.920675    8305.8763    4554.7046    6682.0783    3313.8134   -1386.0334    639.18183    462.19921   -3628.9996 
11877000     259.6773   -4677.1931   -4176.3836   -4677.1931            0    7171.5151    19.831225     19.86606    21.024416    8282.9537    8219.2686    7316.3758    5978.9008   -268.41205   -285.01953   -1874.9177   -3310.0762 
11878000    266.57061   -4721.7983   -4207.6945   -4721.7983            0    3968.9143    20.210909    20.010438    20.672282    8360.4734    4341.2332    2952.7559    4612.7539   -64.566865   -307.51452   -1431.0435    -3723.769 
11879000    275.92659   -4668.9974   -4136.8497   -4668.9974            0    4773.6409    20.083076    20.180618    20.511314    8313.0076    4187.1145    4879.3133     5254.495   -247.48177   -855.13052     -611.134   -3558.1093 
11880000     256.5333   -4729.9651    -4235.219   -4729.9651            0    2501.6253    20.152849    19.963075    20.749174    8347.6589    1871.8727    3651.1085    1981.8948    42.255307   -477.53385   -2185.5308    -3930.666 
11881000    253.67888   -4715.3968   -4226.1558   -4715.3968            0    5386.8019    20.081089    20.046207    20.662099    8317.5213    3611.2981    6359.2261    6189.8815   -462.06194    387.57109    -770.6108   -3572.7231 
11882000    269.05952   -4664.3765   -4145.4726   -4664.3765            0    3316.4293     20.26387    20.002526    20.583983    8343.2768    3459.6973    2203.4902    4286.1003   -513.10514    732.70702     268.5517   -3741.9357 
11883000    267.79238   -4648.7508   -4132.2907   -4648.7508            0    4800.6356    19.968303    19.939089    20.752329     8262.535    5497.2481    3662.4817    5242.1772     722.0388    884.38655    496.92653   -3553.8112 
11884000    260.71371   -4701.0211   -4198.2128   -4701.0211            0    5377.1602    20.052953     19.96353    20.662116    8271.6181    5833.4541    6166.0666    4131.9598   -32.179807    802.20365   -801.20662   -3549.5495 
11885000    268.61382   -4711.1603   -4193.1159   -4711.1603            0    4139.5442    20.090765    20.219578    20.662748    8393.7616    2783.5373     4971.462    4663.6334   -922.86515   -463.19773   -331.13657   -3686.3761 
11886000    271.60102   -4695.0874    -4171.282   -4695.0874            0    3437.1242    20.147702     20.07261    20.677762    8362.4376    4487.0734      2737.51    3086.7891    471.39543    688.89167   -259.86394   -3752.0987 
11887000    251.21779   -4690.8442   -4206.3495   -4690.8442            0     3071.503    20.016313    20.079761    20.742422    8336.8516    3898.5885    1629.7561    3686.1642   -31.254518   -685.01606   -7.1325325   -3832.9026 
11888000    269.82567    -4707.776   -4187.3945    -4707.776            0    5483.5936    20.113776    19.940356    20.703096    8303.5118    5034.4192    5515.9778    5900.3837   -43.621925    1361.5393    770.78726   -3523.3412 
11889000    263.16198   -4734.8876   -4227.3576   -4734.8876            0    4435.1242    19.899077    20.313411    20.581876    8319.5673     5470.249    3423.0488    4412.0747    -64.99365   -1435.2876   -218.61914   -3689.2335 
11890000    264.97291   -4679.6237   -4168.6012   -4679.6237            0    4696.4141    20.120651    20.036827    20.600414    8305.1395     2799.814    5694.4565    5594.9719   -540.19325   -723.18712   -8.6342022   -3599.7624 
11891000    260.90241     -4701.97   -4198.7978     -4701.97            0    5625.2045    19.899975    20.155752    20.628247    8273.9684    6655.8035    6070.4013    4149.4086    227.10129    440.39897    1051.9916   -3520.0193 
11892000    258.30099   -4683.5613   -4185.4061   -4683.5613            0    6562.1308    19.969293    19.888171    20.858301    8283.9307    7271.3279    6790.9161    5624.1484   -738.48664    545.18646   -401.50428   -3392.6178 
11893000    258.27086   -4697.0539   -4198.9568   -4697.0539            0    4303.3387    20.070084    19.955829    20.885872    8365.1085    3334.1794    6189.4887     3386.348    397.21607   -56.538241    -931.2552   -3673.9644 
11894000    256.80869   -4675.8403   -4180.5631   -4675.8403            0    5859.8885    20.107556    20.065192    20.493256    8268.2493    5553.7816    4962.9855    7062.8982    286.30133    1298.6694   -1393.3383   -3473.9547 
11895000    263.18561   -4702.4941   -4194.9185   -4702.4941            0    5900.3912    20.149553    20.070974    20.576462    8321.5563    5962.3681     5583.791    6155.0146   -347.35296   -384.56732   -155.63057    -3478.839 
11896000    260.69033     -4715.32   -4212.5567     -4715.32            0    5248.4093    20.162918    19.964325    20.684037    8326.1328    5660.0886    4411.4973    5673.6421    579.12499    -589.8742   -2066.4428   -3575.2523 
11897000     256.7717   -4707.2038    -4211.998   -4707.2038            0    7008.1788    19.832428    20.109083    20.867223    8322.0976    7414.6338    6906.6935    6703.2091   -55.901071     1158.289   -216.25412   -3361.4205 
11898000    266.47708   -4720.0485    -4206.125   -4720.0485            0    5163.1148    20.069951    19.763246    20.915893    8296.2341     4968.703    6247.5702     4273.071    367.41546    277.57254    157.07126   -3581.4291 
11899000    289.52821   -4715.7104   -4157.3309   -4715.7104            0    5076.3034     20.10598    19.932332    20.704724    8297.6057    5898.4835    6068.7995    3261.6272    257.29172   -1026.6324     381.8258   -3543.0369 
11900000    261.04121   -4698.5258   -4195.0859   -4698.5258            0    6080.6705    20.165091     20.25368    20.314352    8296.7326    5628.4055    5738.5272    6875.0787    -39.59672    227.80533   -617.55874   -3459.3288 
11901000    271.74974   -4664.0052   -4139.9129   -4664.0052            0    5160.6503    20.179477    20.034664    20.673324    8357.9981    4642.8509    5961.1512    4877.9488   -96.313109    -477.0772     409.0176   -3510.8667 
11902000    266.41933   -4686.5381    -4172.726   -4686.5381            0    4639.6188    20.079746    19.972725     21.00216    8422.8588    5513.4191    3754.3979    4651.0394    528.28816    249.51071    531.95346    -3602.801 
11903000    263.65151   -4691.6518   -4183.1777   -4691.6518            0    4947.2814    19.981602    19.754704    20.860093    8234.1176    5196.2875     5363.985    4281.5718    265.66381   -100.04409   -537.36732   -3589.0776 
11904000    279.47672   -4719.4867   -4180.4924   -4719.4867            0    4634.7051    20.106375    19.801896    20.853773    8302.8117    2876.7076    7056.0591    3971.3485     549.3521   -492.20359   -807.34876   -3619.2853 
11905000     259.5692   -4692.7714   -4192.1704   -4692.7714            0    6469.8395     20.04096    20.091764    20.480648    8246.7014    6745.6538    6677.9895    5985.8751   -392.03618    976.30397   -116.95219   -3414.0449 
11906000    254.25496   -4700.5099   -4210.1579   -4700.5099            0    5336.8542    20.147128    20.017513    20.531246    8280.1573    3859.2001    6365.2695    5786.0931     712.8822   -315.13618    1407.9078   -3565.6922 
11907000    267.23279   -4697.4837   -4182.1028   -4697.4837            0    5403.2694    19.845972    20.092747    20.920771    8342.3686    5719.5463    5586.9587    4903.3032   -418.65285   -32.073433   -162.14383   -3524.7146 
11908000     250.1962   -4703.1792   -4220.6548   -4703.1792            0    3451.3523    20.174839    19.969179    20.708558    8342.9599    4635.0313    2347.7589    3371.2668   -50.856297   -22.223003    112.13936   -3800.7166 
11909000    258.62788   -4707.9785   -4209.1928   -4707.9785            0    6008.2723    20.052461    20.121164    20.701882    8352.7716     4527.607    7527.0998    5970.1101    34.880215   -1117.4408   -609.19363   -3477.2855 
11910000    265.14077   -4697.6705   -4186.3242   -4697.6705            0    3727.6569    20.073592    20.043673    20.910816    8413.4356    2766.2945    4652.8898    3763.7863    658.58306   -158.85218   -338.07633   -3728.9358 
11911000    255.43589   -4702.0505   -4209.4209   -4702.0505            0    5538.2005    19.853347     20.13539    20.682854    8268.0719    6044.3875    4728.0923    5842.1216   -390.79547    273.50781   -1179.3286   -3541.6172 
11912000    265.06697   -4697.3055   -4186.1016   -4697.3055            0    3419.4054    20.188444    20.106608    20.675347    8392.5599    2610.3084    3161.7691    4486.1387    87.676053    128.73057   -901.16439    -3767.577 
11913000    264.52138   -4684.0146   -4173.8629   -4684.0146            0    5386.1033    20.168377    19.958039    20.550123    8271.8612    4660.5377     5910.679    5587.0932    384.08897   -1007.5224    827.76665   -3524.1016 
11914000    268.59299   -4709.7617   -4191.7575   -4709.7617            0    5810.0213    19.901662    20.096362    20.634829    8252.9205    6542.4572    6225.0366      4662.57    85.364767    698.31092    433.96846   -3492.4611 
11915000    271.09948   -4716.1931    -4193.355   -4716.1931            0    4723.9359    20.245119    19.871362    20.833915     8381.444     5387.192    4780.6795    4003.9363   -715.13805   -346.98431   -504.57851   -3615.9258 
11916000    269.77964   -4684.8441   -4164.5514   -4684.8441            0    6217.6434    19.983766    19.752596     20.89781    8249.0188    6916.4369    6623.6387    5112.8547   -597.73737    612.14019     911.8692   -3416.5473 
11917000    265.59211   -4690.9046   -4178.6879   -4690.9046            0    5464.8061    20.039027    19.995354    20.619057     8261.797    8087.4629    3730.8932    4576.0621    202.54359    100.37784   -34.847917   -3520.2343 
11918000    264.35284   -4661.4614   -4151.6347   -4661.4614            0    3396.0984    20.177498    20.162231    20.621097    8389.1442    1775.9176    5993.3275      2419.05   -312.26364    1433.7932    1353.7705    -3736.132 
11919000    270.57377    -4676.259   -4154.4347    -4676.259            0    4211.0475    19.981029    20.182855    20.770268    8376.1131    5249.9275    4256.9768    3126.2382    39.569239   -248.29958    1489.7331   -3640.0257 
11920000    267.51457   -4697.0376   -4181.1132   -4697.0376            0    3955.9617    20.179855    20.025646    20.774806     8395.403    4135.0881    3632.1782    4100.6189     57.64514    463.56048    935.22805   -3696.7518 
11921000    272.54713   -4690.5983   -4164.9682   -4690.5983            0    4527.1845    19.882102    19.885722    21.136828    8356.8669    6908.7756    3111.9332    3560.8447   -231.01809   -265.95766   -655.76482   -3613.2115 
11922000    260.35154   -4702.1275   -4200.0176   -4702.1275            0    5574.2054    20.092319    19.780214    20.803815    8268.0678    6287.3598    5220.3169    5214.9396    630.31238    2583.7875     628.3256   -3527.8727 
11923000    256.03842   -4703.5108   -4209.7192   -4703.5108            0    4293.2256    20.170447    20.072487    20.623769    8349.9667    2754.4581    4431.0376    5694.1811    178.69774    1206.9481   -1236.2946   -3686.9087 
11924000    275.87773   -4720.8451   -4188.7917   -4720.8451            0    4415.7492    20.154725    20.170574    20.528971    8345.6913    3765.1787    4801.7524    4680.3166    146.04951   -557.40439    401.32129   -3651.3361 
11925000    265.70524   -4706.4369    -4194.002   -4706.4369            0    4656.1666    20.073331    19.826781    20.734078    8251.9465    4286.8425     4217.818    5463.8392   -195.28613    943.96125    381.65149   -3633.6502 
11926000    262.52831   -4723.1501   -4216.8422   -4723.1501            0     5158.635    20.038976    19.872203    20.959793    8346.5791     6102.037    5772.7173    3601.1507   -792.14309     944.7675   -734.56746   -3588.9006 
11927000     267.5395   -4692.7752   -4176.8028   -4692.7752            0     4833.165    20.057051    20.247724    20.582545    8358.7701    6152.2217    4134.8765    4212.3968    386.96658   -238.40852   -976.01095   -3587.6202 
11928000    254.66961   -4685.8439   -4194.6922   -4685.8439            0    3635.9928    20.171032    20.100849    20.634182    8366.2298    6968.3321       186.01    3753.6362    198.13549   -711.71545    1937.2524   -3751.0542 
11929000    261.92819   -4659.9333   -4154.7827   -4659.9333            0    4480.2262    19.965144    20.025583     20.88881    8351.6312     4662.902     4039.672    4738.1047   -342.37047   -409.98409     17.57817   -3609.0913 
11930000    278.30166    -4699.405   -4162.6769    -4699.405            0    6030.3766    20.075888     19.76801    20.831335     8267.131    6084.4193    5847.2468    6159.4638   -456.92315    1267.9074    795.49829   -3435.6087 
11931000    258.91576   -4693.7062   -4194.3653   -4693.7062            0    5621.7928    20.040919    20.054555     20.65834    8302.8288    6808.1053    4288.9459    5768.3272    35.242818    1396.1428   -487.53194   -3513.6323 
11932000    262.87475   -4705.2104   -4198.2343   -4705.2104            0    3803.6892    20.298855     19.96634    20.596013     8347.437    1821.2365      5576.89    4012.9411   -237.01375      415.106   -105.18637   -3735.1777 
11933000    257.29706   -4709.0446   -4212.8256   -4709.0446            0    5582.9842    19.882225    19.989478    20.798589    8266.0935    4582.4011    7604.7894    4561.7622    770.42732    356.49716    163.30311   -3539.7829 
11934000    272.78765   -4737.8767   -4211.7827   -4737.8767            0    5800.2501    19.943025    20.005451    20.740865    8274.9663    6086.2195    5698.7399     5615.791    -876.0944   -317.98877    257.43959   -3511.7976 
11935000    264.56229   -4675.2063   -4164.9757   -4675.2063            0    5506.6274    19.935866    20.226714      20.8426    8404.5089    6134.9394    5724.5229    4660.4199   -230.55035    312.18748   -1387.9717   -3490.0221 
11936000    274.67568   -4687.8239   -4158.0888   -4687.8239            0    4249.8677    20.149979     19.89676    20.696481    8297.6185    4764.5568    3885.5079    4099.5385   -868.70415    785.30437    1472.5046   -3643.8027 
11937000    260.56195   -4699.7714   -4197.2558   -4699.7714            0    4025.6037    20.218332    20.073071    20.578433    8351.6339    3544.1521    3497.2015    5035.4575   -310.64157    1101.0113     372.8731   -3706.9372 
11938000    278.30179   -4714.5052   -4177.7768   -4714.5052            0    4790.3853    19.943048     20.14929    20.607903    8281.0436    6531.4303    2473.3284    5366.3971    1062.5131    1168.3058    108.23238   -3599.2394 
11939000     246.0997   -4687.1824   -4212.5584   -4687.1824            0    5904.4083    20.021342    19.842357    20.806473    8265.8004    5751.8539    6641.7352    5319.6357   -62.974248    623.93828   -511.70997   -3500.7925 
11940000    273.70509   -4672.5125   -4144.6493   -4672.5125            0    5397.3902    20.003558    20.030821    20.794846    8332.2386    5117.8211    6141.8188    4932.5309    1118.2041   -351.24522    755.80344   -3488.7738 
11941000    265.17543   -4687.5331     -4176.12   -4687.5331            0     3404.127    20.311213    19.897972    20.707995    8369.1765    3352.8204    2452.1781    4407.3825    411.78693    -639.5385    718.57675   -3760.6264 
11942000    278.44885   -4718.8728   -4181.8608   -4718.8728            0    3814.2413    20.033445    19.956735    21.096785    8434.5399    4962.4697    3011.2014    3469.0527     213.0876    436.18209    309.28103   -3712.6744 
11943000    264.60666   -4688.2985   -4177.9823   -4688.2985            0    4911.4399    20.071089    19.921935     20.84771    8336.0598     4677.668    4594.6244    5462.0274    186.09561    215.83178   -357.93744   -3580.8844 
11944000    263.38261   -4671.7777   -4163.8222   -4671.7777            0    4374.9114    20.284535    20.052884    20.595677    8377.5681    2964.0941    4234.9231    5925.7169   -389.06548   -1338.0946   -1070.5632   -3629.3032 
11945000    260.94909   -4684.9564   -4181.6941   -4684.9564            0    7822.5367    20.064894    19.898792    20.618773    8232.3987    7104.1722    9417.7973    6945.6406   -127.34506    1490.5244    -657.5663   -3242.5118 
11946000    252.01875   -4682.6254    -4196.586   -4682.6254            0    2853.9371    20.000838    20.025541    21.009688    8414.9598    3171.8606    3955.7957     1434.155    273.99842    1364.5017    561.26854   -3846.3407 
11947000    263.04911   -4698.7767   -4191.4644   -4698.7767            0    3698.4767    20.207026    19.869994    20.766761    8338.1341    3658.4996    4201.1914    3235.7392    61.412123    95.218503   -1126.3237    -3741.718 
11948000     266.6646   -4692.4852      -4178.2   -4692.4852            0    4792.6269    20.142637    20.126979    20.584419    8345.1385    4802.2874    4253.3811    5322.2122   -178.33021    1186.4357    484.16784    -3594.912 
11949000    273.20759   -4690.6554   -4163.7515   -4690.6554            0    4242.8396    19.993284    20.115752    20.830173     8377.478    3085.4646    4977.4333     4665.621   -773.16456    348.48098    1038.0587   -3645.3744 
11950000    248.80729   -4682.0389   -4202.1931   -4682.0389            0    3763.2856    20.079989    19.916788    20.867065    8345.3418    3898.5675    5709.2843    1682.0049   -532.26691    579.06663   -528.56351   -3744.1702 
11951000      262.686   -4709.2133   -4202.6013   -4709.2133            0    4465.9593    19.930117    20.082762    20.774142    8314.8879    4395.8201    3895.2151    5106.8427   -222.08508    520.60464    89.915356   -3661.0407 
11952000     266.1086    -4696.162   -4182.9492    -4696.162            0    3543.1403     20.32399    19.976681    20.608627    8367.2236    2237.6444    3569.1362    4822.6402    733.77128    904.03368    693.55524   -3750.5891 
11953000    255.80871   -4714.4923   -4221.1437   -4714.4923            0     4971.583    20.061679    20.147344    20.708422    8370.1277    4599.9234    3108.5007    7206.3249   -770.55331   -496.57808    1222.0724   -3614.2639 
11954000    258.32046   -4706.7482   -4208.5555   -4706.7482            0    3513.0624    20.048289    20.076668    20.818437    8379.4803    3660.1123    2963.4392    3915.6356   -377.21428    951.88783    666.27194   -3779.2377 
11955000     254.3191   -4716.4435   -4225.9677   -4716.4435            0    4132.0985    19.920325    20.025923    20.989178    8373.0633     3863.252    5507.2703    3025.7732    452.12861    902.48788    -1136.375   -3721.3867 
11956000    251.41079   -4698.2365   -4213.3697   -4698.2365            0    5947.5995    20.132283    19.929989    20.663538    8290.9594    5495.2796    5626.8774    6720.6416   -537.34719     614.9032   -819.96678   -3494.2149 
11957000    262.92907   -4702.6902   -4195.6094   -4702.6902            0    3457.9855    20.147648       20.303    20.625576    8437.0507    3336.1518    3135.0255    3902.7792    575.73839   -286.32603    387.72225    -3770.119 
11958000    265.51595   -4690.2206   -4178.1507   -4690.2206            0    3987.2473    20.037103     20.02502     20.74016    8321.8518    3315.4518    5607.7237    3038.5664    749.09769    1401.7293   -853.94758   -3694.2358 
11959000    258.40286   -4690.3787   -4192.0271   -4690.3787            0    4039.4974    20.188296     20.03875    20.632419    8346.8083    3852.6924    3658.9981    4606.8016   -417.49994   -702.21639   -45.092964   -3700.3005 
11960000    261.40901   -4655.5716   -4151.4224   -4655.5716            0    6093.9743    19.859085     20.17193    20.671343    8280.8592    6956.2761    5275.7231    6049.9238     170.2427    1475.7007   -1445.4058   -3415.4663 
11961000    263.05081   -4690.5048   -4183.1892   -4690.5048            0    4770.7477    20.170234    19.865751    20.716579    8301.0682    3077.0538    6161.5511    5073.6381   -313.65878    195.85238   -976.09314   -3605.6302 
11962000    263.79725   -4705.0718   -4196.3166   -4705.0718            0    3276.9392    20.122375    20.051182    20.860902    8416.9026    3909.8317    2576.2672    3344.7186   -318.86192    1188.5438    221.22548   -3794.0661 
11963000    279.01698   -4691.4076   -4153.2998   -4691.4076            0     5744.214    20.178563    19.909855    20.629864    8288.0945    6142.5241    5167.1119    5923.0061   -834.04939   -529.14042    736.08579   -3458.9774 
11964000      266.943   -4692.0228   -4177.2008   -4692.0228            0    6827.9749    20.057943    19.962822    20.701022    8288.9609    5511.2541    7451.3826    7521.2881   -149.09253    49.181538   -491.84922   -3351.7943 
11965000    253.97931   -4725.2056   -4235.3852   -4725.2056            0    5473.6032    19.994962     19.86094    20.978999    8331.1534      5987.47    5663.7605     4769.579   -71.059988   -125.87405    193.16416   -3570.3351 
11966000     248.4554   -4679.0612   -4199.8941   -4679.0612            0    6516.1069    19.978777    19.906427    20.665589    8218.8303    6492.3093    6361.4985    6694.5128    18.446612    -144.1201    1807.0414   -3418.8526 
11967000    254.43413   -4718.5307    -4227.833   -4718.5307            0     4770.165    20.125578    20.027645    20.583389     8296.504      6077.97    3917.5479     4314.977   -366.47725   -46.051167    1483.7243   -3650.6621 
11968000     277.6539   -4705.9758   -4170.4969   -4705.9758            0    4485.6214    20.040423     19.81011    21.017675    8344.0796    5349.8694    5505.1115    2601.8833    521.60672   -792.16833   -120.19269   -3624.6423 
11969000    270.57774    -4692.346    -4170.514    -4692.346            0    5274.6775    19.965262    19.964072    20.832491    8303.5795    6678.1212    3471.5633    5674.3479    489.51969    313.23444    43.243843   -3531.7549 
11970000    258.45287   -4716.1028   -4217.6547   -4716.1028            0    4485.0699    20.221014    19.976402    20.558181    8304.3356    5374.3637    3853.1651    4227.6807   -387.61255     1475.146    4.0039005   -3674.4669 
11971000    267.08496   -4704.7516   -4189.6558   -4704.7516            0     4898.985    19.950892    20.258339    20.535434    8299.8462    7020.6753     2815.369    4860.9106    367.91094    1117.5599     176.5423   -3596.6594 
11972000    251.97851   -4689.7373   -4203.7755   -4689.7373            0    5758.7598    20.074917    19.918742    20.737735    8292.3381    5779.7761    6096.3213    5400.1818    376.89808   -853.49655    -1280.975   -3507.3385 
11973000    253.19243   -4692.7907   -4204.4878   -4692.7907            0    5238.7812    20.017711    19.945153    21.011892    8389.1305    4976.3858    6799.0596    3940.8982   -64.709423   -785.86258    329.30239   -3563.5394 
11974000    259.08964   -4692.6019   -4192.9257   -4692.6019            0    6165.8234    20.088727    20.063839    20.583728    8296.4154    6310.4228    6145.4006    6041.6469    454.50885    1311.1028    1561.0438   -3446.8937 
11975000    258.13443   -4707.2809   -4209.4469   -4707.2809            0     5108.991    20.143805     20.04082    20.493589    8273.2281    4547.5707    5482.7962     5296.606   -42.663656    216.88481   -955.31683   -3593.0137 
11976000    253.47242   -4680.0196   -4191.1767   -4680.0196            0    4467.0247    20.061984    20.031138    20.709857    8322.5538    5232.7139    4679.3054    3489.0548   -111.98036    263.08129   -846.90671   -3648.9875 
11977000     269.0847   -4655.0482   -4136.0958   -4655.0482            0    4715.5885    19.937709    20.040866    20.989167    8386.6198    4651.8071    5983.1521    3511.8065    266.07422    348.84901   -424.28816    -3559.331 
11978000    270.06858   -4685.7562   -4164.9062   -4685.7562            0     4478.327    19.974398    20.174254    20.702406     8342.419    4921.3832    3749.3832    4764.2147    -320.8113   -27.154961    -596.7858   -3620.0478 
11979000    260.73646   -4675.7244   -4172.8722   -4675.7244            0    3753.5984    20.330972    19.955457      20.7633    8423.9581    3802.4827    3918.0534    3540.2589    94.665989    1680.6335   -1213.5731   -3711.7247 
11980000    269.87736   -4676.8181   -4156.3369   -4676.8181            0    5449.0992    19.948699    20.218296    20.687919    8344.0313    5464.2807    4073.3221    6809.6949    445.09424    102.24102    279.50643   -3493.2407 
11981000    277.79427   -4693.4081   -4157.6585   -4693.4081            0    6642.9468    19.877184    19.993441    20.704058    8228.0681    7864.0715    5360.8054    6703.9635   -827.39282    984.31939   -101.23713   -3360.5186 
11982000    262.62652   -4689.0741   -4182.5767   -4689.0741            0    4669.8259    20.123687    20.086028    20.689809     8362.923    3991.3011    5455.3599    4562.8168    508.09473    686.17031   -1917.2486    -3613.023 
11983000    261.02223    -4694.017   -4190.6137    -4694.017            0    6190.5116     19.98851    20.215405    20.466996    8270.2185     6923.097    4217.1548     7431.283   -1315.6131   -667.34057   -1767.6902   -3443.9597 
11984000    278.45941   -4709.6403   -4172.6079   -4709.6403            0    5309.4611    20.212695    19.851588    20.706054    8308.3888     6486.502    4176.7755    5265.1057   -469.71474   -727.46652    1057.3261   -3529.2641 
11985000    260.31052   -4708.5832   -4206.5525   -4708.5832            0    4706.8621    19.950729    20.029687    20.745216    8289.9311    4685.6812    4791.1501    4643.7549    331.87117    298.31007   -411.48452   -3637.4922 
11986000    255.91848   -4702.0026   -4208.4422   -4702.0026            0    3509.1239    20.017856    20.013913    20.809536    8337.0415    4623.8069    2553.8246    3349.7402   -572.79885    -1246.981    827.56902   -3781.7777 
11987000    256.45393   -4679.7991   -4185.2062   -4679.7991            0     4608.722    20.017717    20.107786    20.690128    8328.0241    5519.8928    3784.1008    4522.1723   -301.20964    458.47873     132.2629   -3625.4507 
11988000    274.70111   -4702.6459   -4172.8617   -4702.6459            0    4490.9228    20.248804    19.820162    20.758187    8330.9783     2443.411    6207.0944     4822.263    -138.4536    196.84646    136.54101   -3627.2201 
11989000    273.42463    -4714.308   -4186.9856    -4714.308            0    6488.7635     19.77664    20.378872     20.47465     8251.808    7224.5212    5826.1488    6415.6206    921.59447    1749.2989   -252.94744   -3406.1008 
11990000    261.35035   -4682.1243   -4178.0882   -4682.1243            0    3032.5407    20.121156    20.028594    20.906429    8425.2588    3396.6038     2763.305    2937.7134    153.35309   -471.55687    325.89002   -3805.4685 
11991000    261.22654   -4713.0009   -4209.2036   -4713.0009            0    4240.3053     20.11612    19.868931    20.812719    8318.5481      4021.94    4277.3011    4421.6747   -423.46685    876.88248    197.00398   -3694.7804 
11992000    256.51784   -4688.0114   -4193.2951   -4688.0114            0    4817.7074    20.165706    19.970331    20.710842    8340.5837    4533.0293    5110.1071    4809.9857   -40.634125    1253.3819   -507.30144   -3607.2747 
11993000    266.62345   -4668.8263   -4154.6205   -4668.8263            0    5757.4686    20.058491    20.039042     20.56088    8264.5064    6678.8766    4032.9822    6560.5471   -83.099263    690.75086    1065.5919   -3460.6766 
11994000    272.56205   -4704.8202   -4179.1614   -4704.8202            0    4237.7459    20.079716    19.987846    20.859018    8371.7726    4688.2427    5156.0329    2868.9622   -241.60591   -475.31155    1044.0812   -3661.7592 
11995000    286.64943   -4689.9849   -4137.1574   -4689.9849            0    3408.8698    19.994676    20.234758    20.728574      8386.52    2190.6253    3990.4272    4045.5571   -3.2278346    107.75973   -1208.2405   -3720.2227 
11996000    266.48673   -4678.7473   -4164.8053   -4678.7473            0    4880.7247    20.020372    20.162136    20.718108    8362.9361    5323.8433    2723.2469    6595.0841    574.49203      604.944   -417.65488   -3569.5284 
11997000    263.54243    -4702.175   -4193.9113    -4702.175            0    4671.4728    20.343127    19.968661    20.511202    8332.1632    5791.3199    4126.3412    4096.7575    181.60428     1655.405    768.60492   -3626.2523 
11998000    272.23673   -4676.7163   -4151.6849   -4676.7163            0    5007.6149    19.960223    20.064771    20.716902    8297.0631    5049.6368    5761.5241    4211.6838   -258.47993    850.57045   -1008.0197   -3545.7427 
11999000    257.57819   -4713.0763   -4216.3151   -4713.0763            0    4588.9111    20.009234    20.017129    20.864487    8356.7988    3442.2558    6394.9005     3929.577   -326.78931       2.1784   -986.85283     -3657.04 
12000000    268.47625   -4658.6555   -4140.8765   -4658.6555            0    5001.0787     20.01383    20.120071    20.776672    8366.3438    5723.0299    4637.8753    4642.3307   -781.59053    167.31722    184.54833   -3530.6721 
Loop time of 389.819 on 64 procs for 250000 steps with 972 atoms

Performance: 110.821 ns/day, 0.217 hours/ns, 641.324 timesteps/s
194.1% CPU use with 32 MPI tasks x 2 OpenMP threads

MPI task timing breakdown:
Section |  min time  |  avg time  |  max time  |%varavg| %total
---------------------------------------------------------------
Pair    | 24.822     | 35.016     | 46.805     |  84.0 |  8.98
Bond    | 0.82417    | 1.1606     | 2.1086     |  21.1 |  0.30
Kspace  | 165.19     | 178.8      | 190.51     |  38.2 | 45.87
Neigh   | 2.338      | 2.6228     | 3.0169     |  13.0 |  0.67
Comm    | 70.895     | 79.356     | 84.217     |  39.0 | 20.36
Output  | 0.48792    | 0.48827    | 0.48979    |   0.0 |  0.13
Modify  | 75.735     | 77.653     | 81.554     |  16.9 | 19.92
Other   |            | 14.72      |            |       |  3.78

Nlocal:        30.3750 ave          35 max          24 min
Histogram: 2 0 2 5 4 3 4 5 2 5
Nghost:        2611.28 ave        2641 max        2567 min
Histogram: 2 1 1 0 3 7 5 9 2 2
Neighs:        9404.59 ave       11485 max        6984 min
Histogram: 1 2 3 4 5 5 2 4 3 3

Total # of neighbors = 300947
Ave neighs/atom = 309.61626
Ave special neighs/atom = 2.0000000
Neighbor list builds = 8243
Dangerous builds = 0

unfix		3
unfix		2
unfix		1

write_data	data.final.${pid}
write_data	data.final.0
System init for write_data ...
PPPM initialization ...
  extracting TIP4P info from pair style
  using 12-bit tables for long-range coulomb (../kspace.cpp:340)
  G vector (1/distance) = 0.37222957
  grid = 24 24 25
  stencil order = 5
  estimated absolute RMS force accuracy = 0.0034301585
  estimated relative force accuracy = 1.0329821e-05
  using double precision FFTW3
  3d grid and FFT values/proc = 3458 576
Last active /omp style is kspace_style pppm/tip4p/omp
WARNING: Not all mixed pair coeffs generated from mixing. Use write_data with 'pair ij' option to store all pair coeffs. (../write_data.cpp:312)

write_restart   restart.lmp.${pid}
write_restart   restart.lmp.0
System init for write_restart ...
PPPM initialization ...
  extracting TIP4P info from pair style
  using 12-bit tables for long-range coulomb (../kspace.cpp:340)
  G vector (1/distance) = 0.37222957
  grid = 24 24 25
  stencil order = 5
  estimated absolute RMS force accuracy = 0.0034301585
  estimated relative force accuracy = 1.0329821e-05
  using double precision FFTW3
  3d grid and FFT values/proc = 3458 576
Last active /omp style is kspace_style pppm/tip4p/omp
Total wall time: 0:06:29
