LAMMPS (30 Jul 2021)
  using 1 OpenMP thread(s) per MPI task
package omp 0
using multi-threaded neighbor list subroutines
echo both

include		in.partitions
variable        pid world 0
include		in.temp
variable        temperature equal 236.03
variable	tempDamp equal 100.0
include		in.pressure
variable        pressure equal 1625.0
variable        pressureDamp equal 1000.0 # This is 1 ps
include		in.seed
variable        seed world 745823

units		real
atom_style	full
box tilt large
read_restart	restart.lmp.${pid}
read_restart	restart.lmp.0
Reading restart file ...
  restart file = 30 Jul 2021, LAMMPS = 30 Jul 2021
  restoring atom style full from restart
  triclinic box = (-10.745690 -9.3110743 -0.051189320) to (12.725690 12.301072 21.911188) with tilt (-9.4153637 2.0775382 2.7857355)
  4 by 4 by 4 MPI processor grid
  restoring pair style lj/cut/tip4p/long/omp from restart
  restoring bond style harmonic/omp from restart
  restoring angle style harmonic/omp from restart
  1296 atoms
  864 bonds
  432 angles
Finding 1-2 1-3 1-4 neighbors ...
  special bond factors lj:    0        0        0       
  special bond factors coul:  0        0        0       
     2 = max # of 1-2 neighbors
     1 = max # of 1-3 neighbors
     1 = max # of 1-4 neighbors
     2 = max # of special neighbors
  special bonds CPU = 1.231 seconds
  read_restart CPU = 1.525 seconds
include 	in.setup
variable	out_freq equal 1000
variable	out_freq2 equal 10000
variable	out_freq3 equal 1000

timestep	2.0

neigh_modify    delay 7 every 1

include		in.tip4p
# This is TIP4P/Ice

# create groups ###
group ox type 2
432 atoms in group ox
group hy type 1
864 atoms in group hy

# set charges - beside manually ###
set group ox charge -1.1794
Setting atom values ...
  432 settings made for charge
set group hy charge 0.5897
Setting atom values ...
  864 settings made for charge

# ### TIP3P Potential Parameters ###
pair_style lj/cut/tip4p/long/omp 2 1 1 1 0.1577 8.5
pair_coeff 1 1*2 0.000 0.000
pair_coeff 2 2 0.21084 3.1668
bond_style  harmonic
bond_coeff  1 450 0.9572
angle_style harmonic
angle_coeff 1 55 104.52
kspace_style pppm/tip4p/omp 1.0e-5
pair_modify tail yes

thermo          ${out_freq}
thermo          1000
thermo_style    custom step temp pe etotal epair emol press lx ly lz vol pxx pyy pzz pxy pxz pyz enthalpy

restart 	${out_freq3} restart.lmp.${pid} restart2.lmp.${pid}
restart 	1000 restart.lmp.${pid} restart2.lmp.${pid}
restart 	1000 restart.lmp.0 restart2.lmp.${pid}
restart 	1000 restart.lmp.0 restart2.lmp.0


include         in.dump
dump            myDump all atom ${out_freq2} dump.water.${pid}
dump            myDump all atom 10000 dump.water.${pid}
dump            myDump all atom 10000 dump.water.0
dump            myDump2 all dcd ${out_freq2} dump.dcd
dump            myDump2 all dcd 10000 dump.dcd
dump_modify     myDump append yes
dump_modify     myDump2 append yes


variable natoms 	equal  "count(all)"                        # NUMBER ATOMS
variable H      	equal  "enthalpy/v_natoms"                 # ENTHALPY-per-atom
variable Vol      	equal  "vol/v_natoms"                 # volume-per-atom
fix AVG all 		ave/time ${out_freq} 1 ${out_freq} v_Vol v_H file vol_enthalpy.dat
fix AVG all 		ave/time 1000 1 ${out_freq} v_Vol v_H file vol_enthalpy.dat
fix AVG all 		ave/time 1000 1 1000 v_Vol v_H file vol_enthalpy.dat


timer           timeout 10:00:00 every 1000
New timer settings: style=normal  mode=nosync  timeout=10:00:00

fix 		1 all shake 1e-6 200 0 b 1 a 1
       0 = # of size 2 clusters
       0 = # of size 3 clusters
       0 = # of size 4 clusters
     432 = # of frozen angles
  find clusters CPU = 0.424 seconds
fix             2 all nph tri ${pressure} ${pressure} ${pressureDamp}
fix             2 all nph tri 1625 ${pressure} ${pressureDamp}
fix             2 all nph tri 1625 1625 ${pressureDamp}
fix             2 all nph tri 1625 1625 1000
fix             3 all temp/csvr ${temperature} ${temperature} ${tempDamp} ${seed}
fix             3 all temp/csvr 236.03 ${temperature} ${tempDamp} ${seed}
fix             3 all temp/csvr 236.03 236.03 ${tempDamp} ${seed}
fix             3 all temp/csvr 236.03 236.03 100 ${seed}
fix             3 all temp/csvr 236.03 236.03 100 745823


run             250000
PPPM initialization ...
  extracting TIP4P info from pair style
  using 12-bit tables for long-range coulomb (../kspace.cpp:340)
  G vector (1/distance) = 0.36647454
  grid = 30 40 32
  stencil order = 5
  estimated absolute RMS force accuracy = 0.0046672912
  estimated relative force accuracy = 1.4055409e-05
  using double precision FFTW3
  3d grid and FFT values/proc = 5168 640
Last active /omp style is kspace_style pppm/tip4p/omp
Neighbor list info ...
  update every 1 steps, delay 7 steps, check yes
  max neighbors/atom: 2000, page size: 100000
  master list distance cutoff = 10.8154
  ghost atom cutoff = 10.8154
  binsize = 5.4077, bins = 7 5 5
  1 neighbor lists, perpetual/occasional/extra = 1 0 0
  (1) pair lj/cut/tip4p/long/omp, perpetual
      attributes: half, newton on, omp
      pair build: half/bin/newton/tri/omp
      stencil: half/bin/3d/tri
      bin: standard
Per MPI rank memory allocation (min/avg/max) = 9.434 | 9.439 | 9.444 Mbytes
Step Temp PotEng TotEng E_pair E_mol Press Lx Ly Lz Volume Pxx Pyy Pzz Pxy Pxz Pyz Enthalpy 
 2750000    249.18548   -6329.0525    -5688.038   -6329.0525            0    983.33894     23.47138    21.612147    21.962378    11140.787    25.562865    1231.5042    1692.9498     894.6279     200.1697     689.7298   -5528.2681 
 2751000    234.55482   -6345.5309   -5742.1529   -6345.5309            0    1869.9304    23.548351    21.490131    21.933874    11099.794    3112.8074    1649.1144    847.86923   -573.89877    134.75833   -155.14986   -5439.4503 
 2752000    241.61371   -6355.2796   -5733.7431   -6355.2796            0    1928.6328    23.538759    21.632164    21.817942    11109.571    1638.7039    2687.8249    1459.3697    54.811723     -242.023   -663.37502   -5421.2627 
 2753000    228.74803   -6322.8829   -5734.4426   -6322.8829            0    1552.8131    23.550336    21.575442     21.85703    11105.752   -503.54579    2457.7158    2704.2693    493.32256    973.69577   -1050.1847   -5482.9396 
 2754000    224.92859   -6359.6874   -5781.0723   -6359.6874            0     255.5355    23.515545    21.634207     21.97219    11178.136    657.71741   -587.13673    696.02582    -284.7972     30.43558   -71.003065   -5739.4145 
 2755000    234.45449    -6356.849   -5753.7291    -6356.849            0    1933.0721      23.4356    21.578616    21.963172    11106.948    3276.4661    918.72805    1604.0221   -986.47525   -645.91657    88.473641   -5440.6034 
 2756000    239.86086   -6343.0516   -5726.0241   -6343.0516            0    2793.0761    23.435755    21.521988    21.937298    11064.823    2743.0588    3358.7409    2277.4286   -967.02569    1182.4211    1144.9962    -5275.308 
 2757000    237.57185   -6367.0293   -5755.8902   -6367.0293            0    2551.4007    23.320931    21.496505    22.000196    11029.105    3259.9346    2325.6576    2068.6099    729.50942   -349.99164    621.86114    -5345.502 
 2758000    239.10785    -6345.417   -5730.3267    -6345.417            0    1257.9545    23.418748     21.52354    22.104765    11142.003    2114.4063    1615.5117    43.945372   -446.16625     584.4989    -120.7708   -5525.9158 
 2759000    244.99993   -6330.2763   -5700.0289   -6330.2763            0    1581.0184     23.59786    21.557054    21.835763     11107.86    705.89114    2325.5431    1711.6209    1101.9565    -43.22469   -218.63033   -5443.9091 
 2760000    242.98525   -6348.4189   -5723.3542   -6348.4189            0    1940.5043    23.336599    21.735795    21.823072    11069.525    1645.4199    2799.0365    1377.0564    466.86268    1435.0463    33.168478   -5410.0837 
 2761000    239.81114   -6357.0954   -5740.1958   -6357.0954            0    1582.8251    23.543086    21.372424    22.070634    11105.343    2519.0264    2148.8003    80.648508   -819.97118    554.70192    258.78023   -5483.8414 
 2762000      232.324     -6306.59   -5708.9507     -6306.59            0    1288.4686    23.361911    21.692462    22.004405    11151.334    1150.8103    1149.1719    1565.4234   -132.95849   -510.75432   -651.88663   -5499.4061 
 2763000    237.08124    -6330.822    -5720.945    -6330.822            0    2142.0623     23.54823    21.528194    21.818945    11061.133    1316.0814    2302.3565    2807.7491    249.37335   -1022.4669    450.61859   -5375.3976 
 2764000    230.75971   -6365.2333    -5771.618   -6365.2333            0    1707.4676    23.449342    21.758795    21.731644    11088.124    1144.4409    1255.8562    2722.1056   -684.67441    777.10237    107.09803   -5495.5053 
 2765000     233.4308   -6339.3968   -5738.9103   -6339.3968            0    848.91704    23.448318    21.549822    22.072507    11153.394    857.70325    265.42038    1423.6275    52.757145   -43.938973   -593.96338   -5600.8248 
 2766000    236.68768   -6355.9746     -5747.11   -6355.9746            0    2133.7773    23.347377    21.583604    22.013525    11093.068    1686.4369    2431.5452    2283.3498    826.68797    656.58808    608.48585   -5401.9054 
 2767000    239.67336   -6351.6195   -5735.0744   -6351.6195            0    2648.4958    23.519226    21.602427    21.701729    11026.049    1553.4352    1824.7277    4567.3245    187.13412    414.98386    1228.3093   -5309.1867 
 2768000    228.08385   -6357.4072   -5770.6754   -6357.4072            0   -1192.7467    23.584418     21.70187    21.922835    11220.676   -1580.8037   -117.17954   -1880.2569   -618.33168    153.88007   -295.90837   -5965.8589 
 2769000     243.1387   -6376.0808   -5750.6213   -6376.0808            0    1265.9416    23.415305    21.472454     22.16681    11145.118    1931.9566    1333.1955    532.67276   -872.95582    143.04634    715.43892    -5544.855 
 2770000    238.43877   -6374.2164   -5760.8472   -6374.2164            0    2796.4089    23.454361    21.489705    21.911643    11044.066      2008.24    2898.4726    3482.5142    752.85164    964.01975    269.61971   -5310.4398 
 2771000    226.66773   -6359.2573   -5776.1684   -6359.2573            0    2057.5594    23.377476    21.573754    21.921524      11055.9     2933.285    2697.6689    541.72429    1497.7657    483.12022   -161.04108   -5444.4096 
 2772000    237.85293    -6340.971   -5729.1088    -6340.971            0   -56.931577    23.585109    21.571371    22.034038    11210.107   -252.99198   -463.80038    545.99764      813.442   -151.22787    513.32826   -5738.4164 
 2773000    230.40612   -6354.1407    -5761.435   -6354.1407            0     759.3084    23.446337    21.682868    21.837134    11101.646    1504.4717   -291.26507    1064.7185    966.65176   -351.82163   -201.87985   -5638.4983 
 2774000    246.57939   -6308.1301   -5673.8196   -6308.1301            0    2091.3193    23.543509    21.505916     21.97041    11124.162    1275.6356    2680.3902    2317.9321   -1713.0861   -524.54398   -1300.5902   -5334.5355 
 2775000    247.08923   -6336.6556   -5701.0336   -6336.6556            0    534.32179    23.378911    21.727712    21.987094     11168.79    2182.3515   -229.50726   -349.87883   -1777.2437    -322.4573    607.99637   -5614.0004 
 2776000    236.22786   -6317.9137    -5710.232   -6317.9137            0    1833.7983    23.564682    21.495489    21.888496    11087.275    1696.1464    1320.6623     2484.586   -286.19017    454.35581    652.84528   -5413.7131 
 2777000    238.37902   -6334.3598   -5721.1443   -6334.3598            0    1983.2404    23.404149    21.635898    21.902609     11090.82    1680.8819    1390.9783     2877.861    181.78892    843.44552    811.74922   -5400.3587 
 2778000    227.15081   -6352.0369   -5767.7053   -6352.0369            0    1341.7137    23.535462    21.556247     21.92311    11122.388     1297.417    2002.6432    725.08091    767.91601     620.3838   -1360.4306   -5550.0678 
 2779000    232.31938   -6356.3854   -5758.7579   -6356.3854            0    1859.0694    23.471958      21.5853    21.898671    11094.945    2334.1521     1614.112     1628.944   -1105.9645    382.97955   -258.17266   -5457.9449 
 2780000    241.01294   -6327.9871   -5707.9959   -6327.9871            0    1511.7042    23.530454    21.596923     21.89516    11126.801    1618.3483    1924.8358    991.92857    1259.5138    72.699961   -299.82729   -5462.6872 
 2781000    230.48606    -6305.365   -5712.4537    -6305.365            0    518.73097    23.524083    21.580664    22.055428    11196.776    1043.4075    347.47594    165.30942   -747.26479   -1202.9542    881.59714   -5627.7483 
 2782000    241.12639   -6350.1729   -5729.8899   -6350.1729            0    1422.5882    23.393611    21.618404    21.979743    11115.871    2438.3769    432.03606    1397.3515   -570.84847   -138.10644    299.26546    -5499.269 
 2783000    240.43665   -6361.6101   -5743.1014   -6361.6101            0     1873.457    23.574368    21.541655    21.803785    11072.636     2386.382    1303.4266    1930.5624   -606.90127   -1094.9645   -979.97739   -5440.5699 
 2784000     232.6627   -6356.1837   -5757.6731   -6356.1837            0    1784.7085    23.450986    21.754477    21.707998    11074.638    1664.6105    1316.8844    2372.6308    1502.1186     971.0497   -212.45671   -5469.4208 
 2785000    227.07613    -6354.298   -5770.1585    -6354.298            0    1235.4483    23.501271    21.454394    22.043829     11114.62    976.59937    2474.0784    255.66703    411.78306   -277.43863   -1153.5627   -5569.8981 
 2786000    229.97673   -6360.6925   -5769.0913   -6360.6925            0    1403.6874    23.450922    21.585992    21.994421    11133.827    1130.7158    2379.3885    700.95802    190.03431    1314.3818    -494.7681    -5541.167 
 2787000    246.17455   -6360.8649   -5727.5959   -6360.8649            0    3204.7394    23.494978    21.593406     21.68738    11002.802    2289.1085    3196.2327    4128.8769   -423.14288     285.2009    1217.3607   -5213.3487 
 2788000    235.85718   -6347.3152    -5740.587   -6347.3152            0    934.63067    23.549574    21.635152    21.875766    11145.672    110.39478    451.12764    2242.3696     601.5473   -1069.1681    162.15352   -5588.6644 
 2789000    232.76061   -6340.3985    -5741.636   -6340.3985            0    487.31651    23.470471    21.608462    22.011268    11163.252    813.06893    840.06851   -191.18792   -43.369475   -1449.2161   -884.98722   -5662.2987 
 2790000    225.69417    -6336.702   -5756.1175    -6336.702            0     1203.144    23.525438    21.589078    21.881456    11113.427    1620.5805   -582.89659    2571.7481    1540.3791    -3.254082     1359.733   -5561.1144 
 2791000    236.92033   -6369.4705   -5760.0073   -6369.4705            0    1343.2081    23.518408     21.64159    21.824476    11108.129    1862.0671    412.54038     1755.017    1253.8934    152.99161    635.11732   -5542.4067 
 2792000    237.99073   -6365.3623   -5753.1456   -6365.3623            0     1434.958    23.462705    21.563134    21.930013    11095.039    959.76521    2115.5044    1229.6045    382.25594    730.35351   -543.63147   -5520.9554 
 2793000    237.63174   -6330.9773   -5719.6841   -6330.9773            0    1895.3481    23.549561    21.583521    21.792726     11076.86   -216.12759    2443.0983    3459.0737   -230.73707    -334.9811    1159.3146   -5413.5008 
 2794000    229.50295   -6322.1723     -5731.79   -6322.1723            0    1731.9738    23.516696    21.560445     21.95441    11131.554    1737.9123    924.24731    2533.7618   -492.56946   -984.99985    1692.1219   -5450.6174 
 2795000    228.75493   -6394.9692   -5806.5111   -6394.9692            0    1651.1655    23.384232     21.57681    21.908392    11054.036    1502.0529    1393.4959    2057.9478   -788.21841    724.15778   -49.061741   -5540.3238 
 2796000    232.50312   -6326.0872   -5727.9871   -6326.0872            0    1358.4887    23.490359    21.589159    21.953261    11133.313    1625.9256    2047.5401    402.00045    -204.4117   -19.947262   -452.75464   -5507.4121 
 2797000    238.77343   -6378.0265   -5763.7964   -6378.0265            0    1425.1383    23.492586    21.541218     21.96247    11114.304    1049.0538    2096.5127    1129.8483    423.16547    860.10147    86.461109   -5532.7947 
 2798000    239.70407   -6345.5964   -5728.9723   -6345.5964            0    1648.7248    23.312291    21.582289     22.05919    11098.698    3768.0767    1324.5605   -146.46281    117.16694    316.73161   -772.08461   -5462.1046 
 2799000    236.41807   -6326.1414   -5717.9703   -6326.1414            0    3160.2863    23.398751    21.473453    21.910529    11008.989    2569.4865    2901.9708    4009.4015    7.5040477    48.307248    1335.1307   -5210.5711 
 2800000    230.07909   -6327.8752   -5736.0107   -6327.8752            0    1837.2755    23.535627    21.517033     21.87952    11080.158     864.1704    1759.4575    2888.1984    844.32606    215.34575    1110.4319   -5439.1203 
 2801000    243.02766   -6344.0524   -5718.8785   -6344.0524            0     921.5256    23.511973    21.629947     21.96298    11169.553    628.43297    297.74902    1838.3948   -601.78166    710.40599   -114.73767   -5568.7653 
 2802000    232.86419   -6371.8671   -5772.8382   -6371.8671            0    2186.1354    23.433126     21.66745    21.825041     11081.36    2959.6005    1557.1641    2041.6415    -849.2863   -1081.1444   -588.82641   -5419.5362 
 2803000    237.30669   -6371.7773   -5761.3204   -6371.7773            0    3703.5553    23.452156    21.484066    21.833195    11000.604    2622.2506    4694.2386    3794.1767    -280.9341   -363.87472   -551.95372   -5167.1496 
 2804000    243.77249   -6348.4068   -5721.3169   -6348.4068            0    2083.6224    23.345969    21.668672    21.932016    11094.883     1270.281    2582.3706    2398.2157    2441.2729    479.61204    43.649242   -5384.1712 
 2805000    234.35671   -6336.0482   -5733.1798   -6336.0482            0    2002.3591    23.605908    21.472712    21.867454    11084.237     1408.231    2012.1853    2586.6611    1215.5655   -617.16575    552.51149    -5409.494 
 2806000    245.32739   -6342.0462   -5710.9565   -6342.0462            0    929.20288    23.353804     21.70377    21.958528    11130.022     1366.749    53.530885    1367.3287   -793.42978    708.71578    37.340694   -5560.1283 
 2807000    232.98624   -6343.3563   -5744.0134   -6343.3563            0    2244.9164    23.711314     21.34468    21.838468    11052.676    993.62553    2823.7932    2917.3305   -882.70099   -23.486722    876.33022    -5382.151 
 2808000    237.33376   -6353.0666     -5742.54   -6353.0666            0    2845.9797    23.381752    21.737525    21.735942    11047.541    3848.7283    2353.1715    2336.0393   -447.92056    41.600879    -807.0217   -5284.0041 
 2809000    231.95949   -6328.4793   -5731.7776   -6328.4793            0    1185.0284    23.502244    21.578601    22.025088    11169.925    1551.8129    1746.4294    256.84282    643.26793   -171.56715   -1323.0581   -5538.7343 
 2810000    233.24714   -6380.2128   -5780.1988   -6380.2128            0    613.43263    23.601672    21.361816    22.034614    11109.292    130.45321    1803.3076   -93.462889    1081.7832    652.34979    1140.4894   -5680.8119 
 2811000    236.35958   -6350.8286    -5742.808   -6350.8286            0    386.43549     23.46544    21.787767     21.78289     11136.71    267.77485   -692.43854    1583.9702    674.12488   -14.799115    306.33603   -5680.0441 
 2812000    240.60357   -6345.3681   -5726.4301   -6345.3681            0    1282.8538    23.522483    21.498308    21.987467    11118.921    896.89375    747.77034    2203.8973   -665.62067   -482.43088    1049.1124    -5518.405 
 2813000    255.64886   -6348.6753   -5691.0342   -6348.6753            0    -143.1587    23.502929    21.839711    21.843063    11211.983   -142.95386     -304.127    17.604773   -1155.5276    551.80706   -544.55435   -5714.4428 
 2814000    219.37709   -6317.2617   -5752.9275   -6317.2617            0    1753.1636    23.637306    21.434984    21.948923    11120.757    2255.4728    1920.0775    1083.9406   -1440.9544    486.04101   -198.72134    -5468.591 
 2815000    227.58502   -6377.7525   -5792.3039   -6377.7525            0    1213.1564    23.258855    21.688905    22.002863    11099.544    2131.9347    1128.9866      378.548   -8.2540651   -78.953993    99.206201   -5595.9237 
 2816000    248.56524   -6352.5675   -5713.1486   -6352.5675            0    928.11279     23.65609    21.519357    21.890734    11143.781    1729.0954    356.51188    698.73108    595.62794   -905.72527    -28.81485   -5562.3111 
 2817000    227.22769   -6368.8532   -5784.3238   -6368.8532            0    2076.0533    23.362412     21.66648    21.818218    11043.972     2666.923    1944.1325    1617.1044      395.236   -1241.7292   -1016.6013   -5449.9442 
 2818000    236.68131   -6376.9407   -5768.0925   -6376.9407            0     601.1724    23.640112    21.496756    21.943054    11151.147    1528.9008    644.23273   -369.61632   -439.00461   -1426.5785   -520.85737    -5670.325 
 2819000    225.05784   -6368.5267   -5789.5791   -6368.5267            0    124.60385     23.30362    21.744741    21.984992    11140.481     1065.892   -532.27368    -159.8068   -844.65547   -107.37287    185.00831   -5769.3344 
 2820000    242.08507   -6374.2431    -5751.494   -6374.2431            0    1534.8886    23.560901    21.451935    21.949833    11094.037    303.95521    1772.0995    2528.6112    805.35268    562.38178    1487.9898   -5503.1565 
 2821000    230.52693   -6327.4233   -5734.4068   -6327.4233            0     665.3741     23.53938    21.709614    21.835387    11158.557    683.47158    771.58499    541.06574    20.471073    569.86442   -403.59612   -5626.1264 
 2822000    238.98855   -6296.9109   -5682.1274   -6296.9109            0    1347.7814    23.528226    21.663677    21.929962    11177.875    1628.2256    403.84982    2011.2689   -574.82328    195.27841   -805.04048    -5462.415 
 2823000    229.55781   -6363.7733   -5773.2498   -6363.7733            0    1672.8158      23.4209    21.502226    22.005069    11081.785     1560.986    2074.7174    1382.7441    350.58874   -682.80962    -915.3133   -5502.8952 
 2824000    248.61216   -6387.9593   -5748.4197   -6387.9593            0    2297.5841     23.39738    21.536359    21.931154    11050.985    1574.9144    3625.6959    1692.1419    93.308633   -235.28915   -377.21323   -5378.1243 
 2825000    238.34056   -6352.8588   -5739.7422   -6352.8588            0    1067.5928    23.681995    21.475072    21.857688     11116.22    731.87552    1891.3879    579.51509    803.36047    411.87673    -862.5155   -5566.6655 
 2826000    239.74562   -6363.7255   -5746.9945   -6363.7255            0    1398.0943    23.308747    21.750733    21.900369      11103.1    3373.8559    106.18884    714.23821   -27.352542    -440.5296   -337.70706   -5520.6048 
 2827000    233.63742   -6363.8966   -5762.8786   -6363.8966            0    468.15186    23.661911    21.317806    22.150379    11173.094   -801.43621    1264.7094     941.1824   -257.69284    125.48943   -789.30904   -5686.5941 
 2828000    245.19155   -6339.0969   -5708.3566   -6339.0969            0    1673.5575     23.29703    21.866663    21.819394    11115.417    2012.9645   -88.184444    3095.8924    100.21401    236.88469    2375.5146   -5437.0613 
 2829000    236.58018   -6377.8607   -5769.2726   -6377.8607            0    2953.7741    23.660584    21.345153    21.820361    11020.128    2257.5256     3853.811    2749.9856    1308.3013   -811.13951    201.75544   -5294.5501 
 2830000    244.66029   -6337.5573   -5708.1836   -6337.5573            0    2652.1308    23.300026    21.669751    21.885517    11050.124    3647.6022    1443.2792    2865.5111   -264.90555    -576.0995    412.76295   -5280.7802 
 2831000    227.14565   -6347.0418   -5762.7234   -6347.0418            0    2137.2413    23.585368    21.571634    21.745642    11063.637    1665.4227    1853.5387    2892.7625    624.20238   -744.79064    316.44999   -5417.8757 
 2832000    231.33707   -6349.4777   -5754.3772   -6349.4777            0    710.77896    23.673248    21.718629    21.696862    11155.452    858.43624   -102.12189    1376.0225    155.28719   -978.66116    298.42089   -5638.7399 
 2833000    237.77306    -6362.037   -5750.3803    -6362.037            0    2181.6688    23.383231    21.561582    21.957076    11070.306    3046.4384    1939.7668    1558.8011   -691.38562   -250.47141    394.12089   -5398.1519 
 2834000    249.87797   -6330.8486   -5688.0527   -6330.8486            0    979.43971    23.515932    21.636956    21.941335    11164.041    1011.3342    722.70018    1204.2847    1391.3415   -192.41231    303.91655   -5528.5842 
 2835000    240.79833   -6379.6831    -5760.244   -6379.6831            0    899.78241    23.580203    21.573826    21.827766    11104.116    653.82921    714.72182    1330.7962     208.4081   -896.07756    623.62783   -5614.5313 
 2836000    238.18441    -6377.967   -5765.2521    -6377.967            0    1513.5108    23.428003    21.528735    22.073895    11133.527    2428.4152    1346.5018    765.61561   -252.29956   -916.60506   -326.04963   -5519.5017 
 2837000    235.89847   -6381.0402   -5774.2058   -6381.0402            0    2194.5671    23.435138    21.523347    21.911125    11052.029    1969.1713    1814.5107    2800.0194   -845.60824    223.55716   -845.94592     -5420.48 
 2838000     229.9556   -6327.4052   -5735.8584   -6327.4052            0    1942.6723    23.540277    21.586558    21.868374    11112.492    1985.2914    1907.3629    1935.3626   -362.66872    853.60316    173.07605   -5421.0205 
 2839000     231.2884   -6389.2881   -5794.3127   -6389.2881            0    1839.5847    23.440294    21.580786    21.846327    11051.182    1993.8768    1112.2701    2412.6071     -841.906    1565.7851   -334.19824   -5497.8266 
 2840000    238.91923   -6376.2859   -5761.6808   -6376.2859            0    2363.8901    23.419015    21.299467    22.141336    11044.376     3141.704    3088.9785    860.98786   -316.57704    787.41001    185.05551   -5380.9269 
 2841000     240.6667   -6387.6293   -5768.5289   -6387.6293            0    1378.6498    23.469061    21.694424     21.74907     11073.49    1512.8518     539.5958    2083.5019   -839.61648    102.10568    807.78247   -5545.8831 
 2842000    243.75648   -6372.4723   -5745.4236   -6372.4723            0    1170.4482    23.505208    21.524694    22.023877    11142.813    1510.3957    1815.6148     185.3341   -883.98215   -549.84961    293.13453   -5555.2182 
 2843000    232.99195   -6339.4025   -5740.0449   -6339.4025            0    1900.1771    23.424006     21.74758    21.822075    11116.502     2374.647    1944.8187    1381.0655   -695.04259   -548.21747    181.45217   -5431.9829 
 2844000    237.90699   -6346.9767   -5734.9755   -6346.9767            0    1861.2212    23.531341     21.59435    21.833667    11094.647    2033.0428    1704.5845    1846.0362    162.15089    -645.8687    880.07128   -5433.8224 
 2845000    228.66088   -6377.7763   -5789.5601   -6377.7763            0    2419.9084    23.446518    21.511241    21.937701     11064.58    3192.4659    1666.1603    2401.0989    543.12662   -379.75944    1217.4452   -5399.0703 
 2846000    244.77493   -6342.4705   -5712.8019   -6342.4705            0    2198.9562    23.362254      21.6424    21.935413     11090.88    2627.4233    1724.3983    2245.0471    56.563124   -360.67201    -162.1687   -5357.1227 
 2847000    229.84203   -6336.9402   -5745.6856   -6336.9402            0    2038.1717    23.591734    21.564571    21.811929    11096.723    1495.6957    1798.4079    2820.4116     646.6854   -1077.4834   -56.395831   -5415.8395 
 2848000    232.02023   -6377.0993   -5780.2414   -6377.0993            0    1726.5979    23.480193    21.598531    21.865209    11088.671    1986.4617    1727.2179    1466.1141    205.06348   -105.56485   -1713.9096   -5501.0214 
 2849000    240.29823   -6362.5911   -5744.4386   -6362.5911            0    299.73634    23.604471    21.506935    21.947469    11141.848   -488.70972    911.64795    476.27078   -36.158254    109.30809    836.74039   -5695.7337 
 2850000     226.6786   -6346.6738   -5763.5569   -6346.6738            0    3183.6967     23.44488    21.396211    21.965735    11018.707    3150.5029     3375.321    3025.2661   -128.35952    167.30935     1012.343   -5251.9479 
 2851000    230.92495   -6367.5667   -5773.5264   -6367.5667            0    1664.1976     23.38566    21.656997    21.863673    11073.146    2057.2036    744.57815     2190.811   -1586.6972    159.13696    595.57221   -5504.7743 
 2852000    239.36106   -6354.5387    -5738.797   -6354.5387            0   -879.71547    23.726486    21.467526     22.12838    11271.067   -1146.7651   -89.158245    -1403.223   -2041.8261    1051.0277   -617.61473   -5883.4019 
 2853000    240.78694   -6337.7742   -5718.3644   -6337.7742            0    1346.9698    23.351123    21.678659    21.946393    11109.726     516.5149    1502.0342    2022.3603   -516.86971   -421.84323   -194.89012   -5500.1231 
 2854000    237.26362   -6348.1546   -5737.8083   -6348.1546            0    1639.5248    23.537294    21.579797    21.806508     11076.18    1994.7423    836.38454    2087.4476   -854.70127    59.593417    452.15717   -5472.9681 
 2855000    234.76328   -6330.2999   -5726.3857   -6330.2999            0     2052.457    23.478783    21.594497    21.920178    11113.804    1053.2705    2651.1273    2452.9732     481.7049    1856.9235    371.68479   -5393.7164 
 2856000    239.25597   -6373.4191   -5757.9477   -6373.4191            0    1350.4963    23.397636      21.5581    22.069034     11131.81    2210.5979    1449.6876    391.20351    150.69398   -769.14643   -1284.0955   -5538.6999 
 2857000    238.19642    -6373.333   -5760.5873    -6373.333            0    892.70746    23.495007    21.652196    21.915698    11148.921    1244.5203   -225.56695    1659.1691    -324.0531   -614.27338    399.90896    -5615.437 
 2858000    234.44417   -6351.7014   -5748.6081   -6351.7014            0    1475.5088    23.570934    21.665668    21.770494    11117.757    2649.4068    1121.7473    655.37224    331.86293    169.71876   -30.342808   -5509.3675 
 2859000    223.02687   -6337.3115   -5763.5885   -6337.3115            0    536.59272    23.579664    21.518607     21.99365    11159.611    1143.1959    976.04773    -509.4655    552.56196   -1510.7413   -947.90873   -5676.2572 
 2860000    227.49517   -6341.2919   -5756.0745   -6341.2919            0    1354.8965    23.137661    21.751973    21.944096    11044.239    2762.1811    984.58471    317.92365    598.11642    -474.5038    1036.4811   -5537.8428 
 2861000    241.22342   -6358.1024   -5737.5698   -6358.1024            0    1043.2468    23.644325    21.370098    22.028762    11130.727   -43.539416    1979.3991    1193.8808    1033.8138   -115.53591    598.05636   -5568.2193 
 2862000    238.40232   -6361.9842   -5748.7087   -6361.9842            0    1350.5518    23.493963    21.761086    21.731717    11110.431    940.34359   -142.41672    3253.7287   -372.90114    845.55936   -334.57951   -5529.8731 
 2863000    231.41165   -6335.4041   -5740.1117   -6335.4041            0    2869.2289    23.500738    21.529266    21.874237    11067.349    1782.7303    3615.4712    3209.4851   -885.85362     706.2776   -1204.1525   -5277.0012 
 2864000    234.87851   -6330.4542   -5726.2436   -6330.4542            0    3804.8952     23.38783    21.546409    21.877904    11024.796    3789.0796    3673.1646    3952.4415    421.36077    437.16756   -478.88127   -5114.4722 
 2865000     238.1736   -6336.8544   -5724.1673   -6336.8544            0    258.28889    23.494021    21.749552    21.927169    11204.442    35.853927   -539.13059    1278.1433   -307.71993    249.30606    1064.5616   -5681.9616 
 2866000    228.25341    -6374.482   -5787.3141    -6374.482            0   -927.95627     23.62323    21.585697    21.986248    11211.313   -489.19347   -793.39078   -1501.2846   -1007.8502    183.76419    676.43523     -5939.04 
 2867000     220.2622   -6380.8234   -5814.2123   -6380.8234            0    2053.3697    23.227632    21.658789    22.041357    11088.619    3544.7582    889.11155    1726.2394    163.50572   -992.90903   -82.850184   -5482.1493 
 2868000    232.08959   -6372.0469   -5775.0106   -6372.0469            0    1694.8844    23.526256    21.510638    21.864135    11064.669    774.68796    2397.7785    1912.1869    119.11357   -57.598829    216.29524   -5501.5124 
 2869000    237.62824   -6362.2436   -5750.9594   -6362.2436            0    2067.3071    23.325245     21.74785    21.790438    11053.721    2422.4419    1107.3891    2672.0903    148.68003    854.65036   -737.22416   -5417.6947 
 2870000    235.92283   -6357.6178   -5750.7207   -6357.6178            0    402.01642    23.580168    21.472412     22.03713    11157.908    561.15806     1151.881   -506.98984   -97.831764   -128.99937    533.24471   -5685.3019 
 2871000    236.78767   -6363.1551   -5754.0332   -6363.1551            0    2295.9179    23.347586    21.625695     21.95871    11087.123    2675.5982    2930.3313    1281.8243   -592.95319    829.83542     511.9671   -5382.7963 
 2872000    233.75908   -6306.4299   -5705.0989   -6306.4299            0    2425.2079    23.478048    21.582648      21.9054     11099.87    2653.0267    1718.2917    2904.3054   -913.39954   -171.16494   -194.29121   -5312.5057 
 2873000    237.63365   -6380.0611    -5768.763   -6380.0611            0    1505.9376    23.492463    21.590022     21.86345    11089.203    1488.2075      606.155    2423.4504   -325.37388   -498.80215    78.886115   -5525.2158 
 2874000     234.4977   -6338.9448   -5735.7137   -6338.9448            0    1872.3035    23.342511    21.613209    21.999538    11098.911    2471.5961      1156.48    1988.8342     -142.433   -30.945214    357.55675    -5432.651 
 2875000    246.69348   -6350.5784   -5715.9744   -6350.5784            0    1616.1764    23.553566    21.477407    21.937573     11097.55    1838.0077    1894.7876    1115.7338    1107.7596   -804.21278   -639.42009   -5454.4021 
 2876000    235.86995   -6354.3336   -5747.5725   -6354.3336            0    908.83125    23.409168     21.68481    21.931587    11132.986    389.37383    473.32995      1863.79    602.52218   -71.056818    892.81883   -5600.0118 
 2877000    233.57075   -6356.1828   -5755.3363   -6356.1828            0    199.50548    23.660977    21.449364    22.075962    11203.836   -94.615321     618.8968    74.234962   -56.115066    424.74718   -618.76997   -5722.7378 
 2878000    239.32532   -6367.6134   -5751.9636   -6367.6134            0    1388.9425     23.34949    21.777646    21.861467    11116.489    1955.2398   -1120.0439    3331.6316    1082.8692   -859.03753    670.41081   -5526.7847 
 2879000    241.39547   -6332.5153   -5711.5402   -6332.5153            0    1704.2323    23.672334    21.497328    21.845767    11117.134    1302.5928    2204.1908    1605.9132   -1398.8602    88.099562   -868.50726   -5435.2296 
 2880000    220.17098   -6356.1758   -5789.7993   -6356.1758            0     1738.057    23.235686    21.764821    21.933399     11092.17    2952.5782    1389.7079    871.88474   -544.24868   -1049.4468   -442.99454   -5508.6375 
 2881000    221.91446   -6353.9739   -5783.1124   -6353.9739            0    1671.5971    23.665103    21.338481    21.960332     11089.47    1695.2871    2720.7695    598.73466   -264.34722    211.13883    754.85881   -5512.7675 
 2882000     243.2516   -6337.8915   -5712.1415   -6337.8915            0    427.10131    23.351172    21.799495    21.920908    11158.701    1252.0215   -240.56999    269.85244    67.410716    621.92678   -274.07437   -5642.6358 
 2883000    238.96793   -6349.8977   -5735.1673   -6349.8977            0    1808.6889    23.527377    21.386184    21.999917    11069.496    1408.3205    2276.4681    1741.2782   -706.81895    959.49487   -757.88562   -5443.1775 
 2884000    221.20708   -6349.5239   -5780.4822   -6349.5239            0    1643.2638    23.260968    21.843169    21.815317    11084.216    2552.5232    1817.3249     559.9434    323.88287    170.19997   -1621.9325   -5514.8454 
 2885000    220.92877    -6348.356   -5780.0302    -6348.356            0    2770.7719    23.515899    21.342335    21.958558    11020.653    3057.8421    4251.5895    1002.8842    696.27287    172.11109   -136.18531   -5334.6981 
 2886000     231.9133    -6315.333   -5718.7501    -6315.333            0    2227.1972    23.353454    21.746287    21.810122     11076.29    3032.7563     531.5483     3117.287    1117.8998   -951.39321    507.62396   -5358.9769 
 2887000    236.45509   -6363.2727   -5755.0063   -6363.2727            0    1670.8824    23.626614     21.36235     21.97765     11092.56    419.55707    3237.2293    1355.8608   -227.31731     13.23807   -354.30653   -5484.7017 
 2888000    228.36369   -6363.8957    -5776.444   -6363.8957            0    603.45936    23.156176    21.892305    22.005747    11155.639    1706.6686   -484.89824    588.60771   -419.39181   -1128.1424    19.969511   -5678.2651 
 2889000     228.3821   -6352.2471   -5764.7481   -6352.2471            0    2670.9529     23.59412    21.458399     21.78981    11032.007    1177.1821    3335.2318    3500.4449   -841.05778    189.73355    809.92533   -5335.0171 
 2890000    239.86303   -6366.2177   -5749.1847   -6366.2177            0    769.50494    23.392992    21.690497    22.025531    11175.879    690.51108    1039.8386     578.1651    673.19102    -167.5094   -510.63732   -5623.7641 
 2891000    241.78277   -6389.6866   -5767.7151   -6389.6866            0    1103.6937    23.536095    21.646553    21.786748    11099.811    1617.5114    310.37973      1383.19    464.67914   -586.97025   -234.39057   -5589.0499 
 2892000    238.20133   -6362.4283   -5749.6699   -6362.4283            0     2073.526    23.459704    21.557782    21.825788    11038.156    2005.6063    2065.4497    2149.5221     849.5311   -614.20533    882.05222   -5415.8732 
 2893000    231.96673   -6338.5802   -5741.8599   -6338.5802            0    2267.7419     23.33356    21.547998    22.012335    11067.615    2266.9979     3241.447    1294.7808   -1170.1307   -295.56039   -409.94951   -5375.8241 
 2894000    237.74436   -6368.4682   -5756.8853   -6368.4682            0    1021.0979    23.587465    21.616041    21.800634    11115.437   -372.45004    1043.0268    2392.7168   -4.6679161    187.06344   -452.76389   -5591.3579 
 2895000    244.55782     -6330.99   -5701.8799     -6330.99            0   -317.80073    23.545119     21.86456    21.873647    11260.633   -489.21009   -384.97892   -79.213173   -801.68429   -930.46674   -1488.9377   -5754.0707 
 2896000    231.98249    -6363.368   -5766.6072    -6363.368            0    429.24055     23.67684    21.443626    21.901305    11119.671   -142.26919   -333.48337    1763.4742   -780.60078    244.46538    501.57231   -5696.9977 
 2897000    238.63869   -6387.4332   -5773.5497   -6387.4332            0    2971.3676    23.170774    21.635953    21.954158    11006.098    4185.6495     1806.776    2921.6773   -104.84178   -418.48501    204.15639   -5296.6076 
 2898000     229.9912   -6367.8051   -5776.1668   -6367.8051            0    1629.7438    23.669499    21.294112    21.954518    11065.537    238.77488    3390.6331    1259.8234    306.96534    1460.0381    90.852513   -5513.1595 
 2899000    237.55745   -6327.6255   -5716.5235   -6327.6255            0    979.92945    23.422755    21.706784    21.945488    11157.803    698.24723    1118.4421    1123.0991    150.19086    329.98111   -83.105587   -5557.0643 
 2900000    229.09614   -6357.6495   -5768.3137   -6357.6495            0    2043.9158    23.617324    21.459244    21.854422    11076.038    668.02553    2785.4107    2678.3111   -597.60222   -279.02921   -363.13617   -5438.1545 
 2901000    242.14457   -6338.2909   -5715.3887   -6338.2909            0    1616.9612    23.270735    21.784444     21.86091     11082.17    2533.8637    1072.6114    1244.4086   -213.70712   -727.58638   -55.558772   -5454.0521 
 2902000    237.88447   -6386.7698   -5774.8265   -6386.7698            0    1060.8055    23.545092    21.394588    22.039734    11102.242    473.19378    1488.5569    1220.6659     737.6175   -925.00241    793.88029   -5603.0663 
 2903000    239.66858   -6332.0122   -5715.4794   -6332.0122            0    1202.4037    23.352399    21.669106    22.020122    11142.746    1042.8678    547.15013    2017.1932   -155.79386    813.85511   -329.30888   -5520.0822 
 2904000    240.81606   -6369.7045   -5750.2199   -6369.7045            0    2171.8873    23.586919    21.544117     21.76822    11061.724    1316.6734    2530.3691    2668.6193   -350.74743   -280.19362   -1240.0713   -5399.8425 
 2905000    228.38042   -6361.2951   -5773.8003   -6361.2951            0    2004.2986    23.497005    21.610318     21.85429    11097.122    586.67495    2865.0411    2561.1797    266.49333   -648.58291   -335.06858   -5449.4244 
 2906000    227.67161   -6383.2424   -5797.5711   -6383.2424            0     563.6313    23.445433    21.515726    22.057911    11127.014    421.77336    299.79211    969.32843    1119.8673    -274.3871    633.03813   -5706.1072 
 2907000    224.82898    -6345.747   -5767.3881    -6345.747            0    645.38958    23.514402    21.588374    21.997571    11166.796    1090.3181    650.22973    195.62093    636.84074    530.24457    1414.6595   -5662.2824 
 2908000      242.513   -6395.5425   -5771.6925   -6395.5425            0    1674.0773    23.436214    21.605972    21.867589     11072.92    1869.6907    2143.5063    1009.0351   -629.84708   -197.40211   -495.81187   -5501.3505 
 2909000    234.39605   -6342.5037   -5739.5341   -6342.5037            0    3478.4447    23.575661    21.450675    21.853442    11051.588    3742.5826    2895.2304     3797.521   -1212.1886   -562.20356   -708.50744   -5178.8921 
 2910000    233.35782   -6359.2253   -5758.9266   -6359.2253            0    1563.2951    23.473015    21.670084    21.837179    11107.747    -67.58511    2144.0453    2613.4252     700.2901    750.77732   -396.27817   -5505.6804 
 2911000    223.28437   -6354.0769   -5779.6914   -6354.0769            0    1004.7376    23.592434    21.476697    22.006414    11150.376    26.620367    2122.4905     865.1018    640.20107    135.34866    799.57649   -5616.3042 
 2912000    230.97046   -6339.8587   -5745.7012   -6339.8587            0    1895.0268    23.247746    21.707055    22.050013     11127.32    2298.7482    1524.0602    1862.2722    1635.3772    711.97431    903.04043   -5438.1752 
 2913000    238.06056    -6363.086   -5750.6897    -6363.086            0    1964.9867    23.673859    21.371566    21.882277    11071.282    395.94703    3429.9256    2069.0876     1886.743   -387.32365    558.39007   -5433.4165 
 2914000    235.58878   -6374.3794   -5768.3416   -6374.3794            0    2816.6619    23.245645    21.693703    21.844777    11015.974    2708.3919    2344.8087    3396.7852    305.32674    1078.0917    27.337926    -5315.826 
 2915000    234.33541   -6338.4485   -5735.6349   -6338.4485            0    2798.0662    23.688778    21.399692    21.837337    11070.057    3819.6324    2346.0928    2228.4734   -1292.7325    -1639.335   -846.30826   -5283.8999 
 2916000    232.61138   -6311.5486     -5713.17   -6311.5486            0    1850.1174     23.29733    21.855112    21.863398    11132.094    1416.8466    1487.4738    2646.0319    326.65939   -84.936627   -781.79579   -5412.8031 
 2917000    230.59253   -6355.5726   -5762.3874   -6355.5726            0     2262.895    23.499643    21.404619    21.971488    11051.678    1664.8344    2683.6254    2440.2253    609.72646   -343.49326     241.3594   -5397.6599 
 2918000    235.08215   -6321.6945     -5716.96   -6321.6945            0    2228.6526    23.346048    21.584094    21.964419    11067.943    2916.1156    1020.0569    2749.7853    1133.5739    40.487186    1469.8263   -5357.2229 
 2919000    247.00713    -6330.841   -5695.4302    -6330.841            0    1476.9332    23.545685    21.622514    21.843619    11120.956    2376.5799    176.30045    1877.9193   -627.85348   -424.70461    -18.54293   -5455.8898 
 2920000    235.19423   -6362.1897   -5757.1669   -6362.1897            0    2196.5473    23.442449    21.619382    21.822244    11059.759    2523.7788    2799.9277    1265.9353   -279.72536    230.30945    230.03414   -5402.8742 
 2921000    243.42819   -6370.3041   -5744.0999   -6370.3041            0    1719.2445    23.364866    21.570579    22.020382    11098.134    1947.6264    1597.0963    1613.0108    251.00453   -984.13907    105.00449   -5465.8318 
 2922000    241.18516   -6368.1289   -5747.6948   -6368.1289            0    1441.4379    23.653334    21.552708    21.765041    11095.674     267.7296    1562.2376    2494.3466    -281.1222    1147.1571    542.41669   -5514.4427 
 2923000     227.3402   -6346.3674   -5761.5486   -6346.3674            0    4097.8647    23.490549     21.61664    21.618764    10977.722    3374.0107    3714.8655     5204.718    213.28518   -533.03488    11.693854   -5105.4853 
 2924000    227.20364   -6346.5998   -5762.1323   -6346.5998            0    369.97602    23.531665    21.524044    22.066575    11176.645     748.4224    1154.7997   -793.29405    286.31271   -226.39164   -332.49643   -5701.8262 
 2925000    236.49857   -6358.2283   -5749.8502   -6358.2283            0    1145.6512    23.447025    21.687469    21.879081    11125.658    1367.7617    1324.6328    744.55904    84.216904   -441.88156   -136.51165   -5563.9611 
 2926000    229.29754    -6360.933    -5771.079    -6360.933            0    2434.2698    23.530195    21.540992    21.749752    11024.161    2303.7576    2115.9537     2883.098   -1317.1657   -871.78814   -170.25568   -5379.7067 
 2927000    239.31182   -6325.7791    -5710.164   -6325.7791            0    2967.2965    23.431446    21.651542    21.770978    11045.004    2850.4414    1873.3095    4178.1386   -876.46216   -94.110516    951.17659   -5232.1917 
 2928000    237.08553   -6346.7647   -5736.8767   -6346.7647            0    1534.4626    23.472995    21.561977     21.93008    11099.343    1460.0261    1016.2086    2127.1532    747.57986   -1372.0458   -1050.6283   -5488.4893 
 2929000    234.03404   -6349.9728   -5747.9345   -6349.9728            0    1088.3207    23.562135    21.605729    21.894064    11145.767    795.27345    405.42678    2064.2618    1143.1018    495.97305    25.044805   -5571.0284 
 2930000     236.9812   -6342.0058   -5732.3861   -6342.0058            0    1631.6775    23.481648    21.685723    21.831849    11117.138    377.99679    2505.6892    2011.3464    135.05521    1170.0062    322.03351   -5467.8389 
 2931000    232.13351   -6357.3239   -5760.1746   -6357.3239            0    2414.7021    23.432215    21.337285    22.116758    11057.933    2581.5211     4534.089    128.49618   -774.92811    94.714201     -369.833   -5370.7589 
 2932000    240.82956   -6344.2102   -5724.6908   -6344.2102            0    1870.8631    23.379531    21.694226     21.88897    11102.104    2018.0519    2073.9272    1520.6101    -29.28891    249.49865    50.330347   -5421.7741 
 2933000    230.51641    -6363.774   -5770.7845    -6363.774            0    1080.1625    23.666121    21.533636    21.848458     11134.36   -139.94479    1522.3976    1858.0348    135.78112    662.96863    1116.7656   -5595.3843 
 2934000     236.7017   -6378.1587   -5769.2579   -6378.1587            0    1747.5321    23.179845    21.665933    22.123625    11110.772    1413.5873    3370.3474    458.66152    1822.9882    1136.3948   -306.02429   -5486.0892 
 2935000    242.54793   -6349.3445   -5725.4047   -6349.3445            0      2410.28    23.573688    21.468008    21.886771     11076.46    978.99906    3561.0352    2690.8056    1009.8427    715.69345   -387.71464    -5336.051 
 2936000     245.5363   -6350.0614   -5718.4342   -6350.0614            0    1006.6145    23.553921    21.684697    21.703785    11085.417     1282.542    615.27758     1122.024   -248.58172    1012.4211   -1603.3938   -5555.6954 
 2937000    232.74813     -6380.78   -5782.0496     -6380.78            0    1948.4046    23.532329    21.479373    21.901719    11070.435    1911.1621    1452.1647     2481.887   -318.28135    -170.1117   -376.45736   -5467.4778 
 2938000    237.79894   -6336.0206   -5724.2973   -6336.0206            0    2128.2569    23.419529     21.56273    21.987618    11103.505    2251.5605    2598.3063    1534.9038    130.12895   -321.47401    86.936514   -5379.6618 
 2939000    226.19864   -6373.2984   -5791.4161   -6373.2984            0    2403.8606    23.519118    21.568095    21.788093    11052.284    1506.3316    2380.9976    3324.2526   -975.62952   -195.51034     762.2948   -5403.9469 
 2940000    250.64007   -6340.6317   -5695.8754   -6340.6317            0    1158.5557    23.565252    21.576905    21.908287    11139.601    855.48165    1508.9782    1111.2073   -934.00993    -1593.075   -407.96361   -5507.6568 
 2941000    238.38515   -6332.7088   -5719.4776   -6332.7088            0    2784.1028    23.482305    21.510341    21.968219     11096.42      2702.62    2940.8641    2708.8243    920.96711    211.52577    11.832295   -5268.9265 
 2942000    235.24197   -6344.9784   -5739.8328   -6344.9784            0    1635.8465    23.607263    21.639439    21.696479    11083.602    1996.0586    126.92727    2784.5536    951.98698   -726.59913   -1268.7299   -5475.4097 
 2943000    235.44022   -6364.6774   -5759.0218   -6364.6774            0    2151.8177    23.459593    21.464237     22.00537    11080.633    1910.0857    2206.9677    2338.3995    253.70874    94.614257   -688.78727   -5411.2887 
 2944000    234.22229   -6344.0689   -5741.5463   -6344.0689            0     2242.761    23.350839    21.607411    21.888844    11044.042    3081.3104    1344.6235     2302.349    184.26705   -43.288635   -230.04544   -5380.3137 
 2945000    233.66228   -6325.8079   -5724.7259   -6325.8079            0    2675.7931    23.524549    21.468267    21.872698    11046.397      1492.74    3420.7534     3113.886   -1010.3271   -677.87501    1371.1473   -5293.6547 
 2946000    234.71615   -6356.6086   -5752.8156   -6356.6086            0    740.37465    23.490931    21.760402    21.776915    11131.751    943.91372   -198.43522    1475.6455   -262.77766    564.50217    2456.4823   -5632.6193 
 2947000    237.85411   -6357.6067   -5745.7415   -6357.6067            0   -13.893296    23.559771    21.529701    22.026409    11172.561   -453.23333    1364.6084   -953.05493   -341.36545    605.75392     780.1389   -5748.0053 
 2948000    245.40745   -6365.8375   -5734.5418   -6365.8375            0    1384.7769    23.444344    21.652945    21.918383    11126.628    1213.3151    1275.7414    1665.2741    849.56179    996.76782    106.89143   -5509.8334 
 2949000    245.08677   -6349.6106   -5719.1398   -6349.6106            0    1905.1227    23.555621    21.515853    21.839378    11068.617    2104.3223    2236.6429    1374.4028   -321.64411    1594.3984   -1150.2085   -5411.6065 
 2950000    232.61104   -6359.0053   -5760.6276   -6359.0053            0    2496.5993    23.370853    21.694347     21.80266    11054.284    3140.6092    1757.7851    2591.4035   -1042.1923     486.4347   -972.40322   -5358.1373 
 2951000    236.88248   -6354.1301   -5744.7643   -6354.1301            0    1785.0706    23.408737    21.460533    22.104662    11104.586    1031.2855    1999.9505    2323.9757    907.02382    375.05321    547.95017    -5455.674 
 2952000    238.15433   -6366.6332   -5753.9957   -6366.6332            0    1148.5333    23.460868    21.419654    22.105395    11108.484    737.55524    1758.5516    949.49302   -314.32921   -520.35088    1236.4131   -5567.9266 
 2953000    224.95097   -6383.1696   -5804.4969   -6383.1696            0    1270.1434    23.418221    21.636988    21.816046    11054.185    1861.9369    537.47287    1411.0205   -517.16515   -317.63711    152.36168   -5599.7321 
 2954000    234.02476   -6363.9397   -5761.9253   -6363.9397            0    2172.1597    23.496527    21.411847    21.931586    11033.869     2989.854    2102.4175    1424.2076    310.78908    919.97823   -70.077403   -5412.3864 
 2955000    240.23181   -6383.7259   -5765.7442   -6383.7259            0    1845.6314    23.205824    21.739397    21.996358    11096.736    3930.2932    440.05108    1166.5501    315.02908   -239.79611   -534.54442   -5467.0573 
 2956000    241.71586   -6411.1693     -5789.37   -6411.1693            0    1146.9356    23.750272    21.410065    21.750336    11059.934    354.15166    1583.2159    1503.4391    22.554992   -321.50225   -85.508771   -5604.3718 
 2957000    232.21867   -6370.6044    -5773.236   -6370.6044            0    2440.1675    23.347252    21.603972    21.835725    11013.795    2249.4134    3083.7168    1987.3724    474.24496     -23.4908    579.24048   -5381.2843 
 2958000    229.27462   -6333.5309   -5743.7359   -6333.5309            0    707.95117    23.477143    21.450328    22.173333    11166.323    380.54931    2039.5123   -296.20812   -610.13772    583.45713   -16.912595   -5628.4465 
 2959000    241.06883   -6353.4823   -5733.3474   -6353.4823            0    1801.7041    23.356109    21.693963    21.906146     11099.55    2524.2532    722.44459    2158.4146    -50.75671    382.35876    428.61865   -5441.6955 
 2960000    244.23697   -6379.8372   -5751.5525   -6379.8372            0    835.16974     23.67295    21.557426    21.744188    11096.665    -651.0198    1617.6451    1538.8839   -315.96931    72.513591   -116.92095    -5616.394 
 2961000    238.69862   -6345.4095   -5731.3719   -6345.4095            0    385.08468    23.372947    21.669749    22.105539    11196.144    1094.7501    555.99755   -495.49355    174.47731    520.62449    470.12018   -5668.4936 
 2962000    227.90064   -6354.7037   -5768.4432   -6354.7037            0    2258.9878    23.446712    21.476471     21.92676    11041.277    2851.5585    1702.4468    2222.9581    -190.2087    1075.3443   -262.02258   -5404.6881 
 2963000     237.1382   -6362.2566    -5752.233   -6362.2566            0    2611.9484    23.539134    21.620574    21.667641    11027.304    2335.4387    2756.2828    2744.1239   -991.42913   -846.07822   -1023.5017   -5332.1745 
 2964000    237.41268    -6355.943   -5745.2134    -6355.943            0     2610.644    23.368475    21.563472    21.984257    11077.987     4411.194    1113.7909    2306.9472    -691.3925   -1278.7253    371.66118   -5323.4349 
 2965000    221.52786   -6362.1463   -5792.2793   -6362.1463            0    1614.5497    23.334259    21.610714    22.027359    11107.736    3227.0526    989.64947    626.94712   -822.55547    -237.1378   -274.96444   -5530.7305 
 2966000    225.66633   -6338.0994   -5757.5865   -6338.0994            0    1411.3374    23.599724    21.556679    21.792183    11086.374    1346.9321    1237.0012    1650.0789    262.79146   -151.49226   -75.514383   -5529.3967 
 2967000    240.65835   -6373.3423   -5754.2633   -6373.3423            0     1437.232    23.486932    21.677847     21.80378     11101.31    1970.9729    1355.8795    984.84374   -298.06148    197.51921   -516.60612   -5521.5737 
 2968000    241.83353   -6351.6694   -5729.5674   -6351.6694            0    2247.6397    23.437253    21.389176    22.136861    11097.287    2629.1812    2730.5634    1383.1746   -43.171385   -268.77406     347.8961   -5365.8036 
 2969000    236.43899   -6363.4648   -5755.2399   -6363.4648            0    1699.6318     23.39503    21.679609    21.944541    11130.164    2456.4432     735.8585    1906.5936   -1638.3007    83.138361   -430.09305   -5479.3522 
 2970000    223.87554   -6376.6776   -5800.7714   -6376.6776            0     910.6605    23.579097    21.570497    21.878007    11127.435    570.16082    1111.6469    1050.1738   -18.720687    315.44505    647.68619   -5652.9874 
 2971000    233.81198   -6366.4103   -5764.9432   -6366.4103            0     2827.007    23.495688    21.564569    21.783825    11037.306    3618.8611    2224.1704    2637.9894   -504.72323    384.88873   -221.55025   -5309.8861 
 2972000    232.73508   -6363.7056   -5765.0088   -6363.7056            0    2008.0851    23.409836    21.574576    21.954386    11088.222    2259.3466     2238.016    1526.8928   -205.82307    1167.6655   -369.49943   -5440.2806 
 2973000    237.09424   -6384.8833   -5774.9728   -6384.8833            0    127.25134    23.541017    21.658146     21.92409    11178.102   -129.14527   -675.96278    1186.8621    726.98454   -30.362418    828.09954   -5754.2282 
 2974000    242.05006   -6343.3512   -5720.6922   -6343.3512            0    1524.4983    23.536789    21.564205    21.883482    11107.008    606.70833    2039.4677    1927.3189   -681.88732    16.690727    930.42233   -5473.7473 
 2975000    230.53787   -6358.1098   -5765.0652   -6358.1098            0    1725.5933    23.428524    21.531336    22.012247    11104.022    1453.5809    2571.6186    1151.5805   -567.19728    503.51787    220.81639   -5485.6213 
 2976000    230.65061   -6347.3527   -5754.0181   -6347.3527            0    1439.9292    23.403764    21.631438    21.979958    11127.509    1398.3527     1477.504    1443.9308   -724.34956    626.62113   -787.11301   -5520.3416 
 2977000    235.58761   -6305.1738   -5699.1391   -6305.1738            0    1343.1934     23.57364    21.605557    21.890016    11149.059    688.38578    1226.8218    2114.3726   -184.06481     763.6815   -404.62807   -5480.7391 
 2978000    245.09472   -6334.0928   -5703.6016   -6334.0928            0    2935.9522    23.433443    21.627493    21.793399    11045.039    3271.8328    3112.5268    2423.4971     546.0451    133.55462   -596.21169   -5230.6768 
 2979000    234.26679   -6340.4626   -5737.8255   -6340.4626            0    1022.1621    23.532507    21.507685    22.002228    11135.982     393.9012    2580.0868    92.498194    511.31067    892.06686    583.93079   -5571.8194 
 2980000    240.34846   -6335.8757   -5717.5939   -6335.8757            0     135.4911    23.414908    21.733813    22.011835    11201.718    38.777687   -265.83026    633.52587   -370.64913    42.669366    553.15145   -5695.4594 
 2981000    241.68604   -6339.6109   -5717.8882   -6339.6109            0     3053.007    23.568812     21.46188    21.838225    11046.451    3031.1235    3361.8918    2766.0057   -924.87196   -514.69658    20.175437   -5226.0453 
 2982000    240.06041    -6351.238   -5733.6972    -6351.238            0    2193.1732    23.454656    21.639139    21.823154    11076.092    2530.7131    1174.1936    2874.6129    170.68691     357.0913   -57.611758   -5379.4264 
 2983000    229.14941   -6352.3916   -5762.9187   -6352.3916            0    1416.2054    23.474448     21.59828    21.918505    11112.851    2346.7895    985.46647    916.36022   -137.41353   -1275.8766   -519.97883    -5533.395 
 2984000    237.10484    -6358.205   -5748.2672    -6358.205            0    2764.4778     23.61029    21.539763    21.788107    11080.561    1759.6323    2842.7847    3691.0165    2872.5195   -306.97677    -142.4269   -5301.5314 
 2985000    237.56263    -6369.148   -5758.0327    -6369.148            0    1359.5212    23.481547    21.672074    21.817162    11102.619     2486.645    586.39661    1005.5219   -16.919035   -485.04045   -1273.6918   -5537.8986 
 2986000    233.67676   -6353.4543   -5752.3351   -6353.4543            0    1528.0162    23.518337    21.519121    21.991797    11129.915    2926.6145    701.78687    955.64727    389.98172   -464.44298   -166.74379   -5504.3099 
 2987000    226.40275   -6344.9453    -5762.538   -6344.9453            0    1249.0387    23.434253    21.667264    21.967552     11154.16    1168.8895    2282.8209    295.40568   -393.00823   -1535.6609    509.95287   -5559.3544 
 2988000    249.71929    -6364.071   -5721.6833    -6364.071            0    1765.0564    23.620139    21.527395    21.854932    11112.798    2435.2494    1125.0297      1734.89    -1008.815   -427.43155    47.174802   -5435.6228 
 2989000    223.88886   -6334.0465   -5758.1061   -6334.0465            0    1990.3345    23.437047    21.667492    21.839166    11090.409    2150.0558    2514.2965    1306.6512    227.00335    240.48175   -516.43191   -5436.1849 
 2990000    242.34965   -6354.4728   -5731.0431   -6354.4728            0    1887.2903    23.473859    21.402371    22.085965    11095.905     1699.735     4617.807   -655.67123    72.027997    -70.47528   -554.42865   -5425.6372 
 2991000    235.57867   -6361.7074   -5755.6957   -6361.7074            0    2312.9714    23.338644    21.792897    21.726856    11050.641     3103.429    1038.8654    2796.6199    293.73587    962.78937   -401.92579    -5382.932 
 2992000    225.89232   -6336.9243   -5755.8301   -6336.9243            0    417.23542    23.822707    21.427917    21.922928    11191.018   -1840.0889     1984.529    1107.2662    72.450117   -230.37445   -18.544637   -5687.7333 
 2993000    238.29471   -6350.2982   -5737.2996   -6350.2982            0    1593.0492     23.22313    21.730028    22.029138    11116.768    2943.1631    1160.3879    675.59656    1034.4569   -1220.5999    673.90079   -5479.0239 
 2994000     233.2255   -6349.6396   -5749.6812   -6349.6396            0    1496.7885    23.685619    21.374476    21.898616    11086.562    620.11552    2012.9789     1857.271    254.23324   -247.57512    866.05315   -5507.6713 
 2995000    246.37441   -6328.6882    -5694.905   -6328.6882            0    1953.7091    23.300007    21.861557    21.809583    11109.244     2420.196    547.48855    2893.4428   -125.00309    191.45999   -234.19385   -5378.3711 
 2996000    228.13991   -6347.5803   -5760.7043   -6347.5803            0    694.83321    23.777573    21.434637    21.919162      11171.4   -45.763175     2169.302   -39.039144   -464.27332   -396.79409   -975.34268   -5647.4997 
 2997000     239.9261   -6364.7628   -5747.5675   -6364.7628            0    2287.2475    23.398376    21.587057    21.883973     11053.64    2493.2085    1469.6086    2898.9254   -648.31322    486.97385    385.93344   -5378.8495 
 2998000    235.86425   -6333.3653   -5726.6189   -6333.3653            0    1632.8512    23.451278    21.440039    22.078256    11100.866    2109.1568    2202.8098    586.58705    504.14073    316.63204    470.69644   -5462.2688 
 2999000    232.13081   -6358.0727   -5760.9303   -6358.0727            0     274.5814    23.382634    21.599041    22.121216    11172.154   -747.34606    1191.1454    379.94484    992.81495   -45.036294    1348.5928   -5716.1915 
 3000000    241.89496   -6316.7067   -5694.4467   -6316.7067            0    1131.5415    23.554338    21.661137    21.842182    11144.181    519.48671    6.3411386    2868.7967   -634.03844    1202.2813    824.86551   -5510.5413 
Loop time of 588.478 on 64 procs for 250000 steps with 1296 atoms

Performance: 73.410 ns/day, 0.327 hours/ns, 424.824 timesteps/s
99.2% CPU use with 64 MPI tasks x 1 OpenMP threads

MPI task timing breakdown:
Section |  min time  |  avg time  |  max time  |%varavg| %total
---------------------------------------------------------------
Pair    | 28.971     | 38.043     | 46.784     |  95.1 |  6.46
Bond    | 0.27073    | 0.27828    | 0.2878     |   0.7 |  0.05
Kspace  | 305.33     | 317.44     | 337.47     |  40.9 | 53.94
Neigh   | 4.1312     | 4.5679     | 5.5672     |  15.1 |  0.78
Comm    | 91.007     | 103.66     | 109.95     |  42.7 | 17.62
Output  | 1.1346     | 1.139      | 1.1428     |   0.3 |  0.19
Modify  | 113.41     | 115.51     | 117.06     |   7.6 | 19.63
Other   |            | 7.831      |            |       |  1.33

Nlocal:        20.2500 ave          27 max          15 min
Histogram: 12 5 5 4 10 12 4 2 4 6
Nghost:        2527.56 ave        2550 max        2497 min
Histogram: 3 3 3 7 6 10 9 11 6 6
Neighs:        6256.05 ave        8333 max        4579 min
Histogram: 7 10 5 4 11 9 6 2 4 6

Total # of neighbors = 400387
Ave neighs/atom = 308.94059
Ave special neighs/atom = 2.0000000
Neighbor list builds = 8555
Dangerous builds = 0

unfix		3
unfix		2
unfix		1

write_data	data.final.${pid}
write_data	data.final.0
System init for write_data ...
PPPM initialization ...
  extracting TIP4P info from pair style
  using 12-bit tables for long-range coulomb (../kspace.cpp:340)
  G vector (1/distance) = 0.36692475
  grid = 30 40 32
  stencil order = 5
  estimated absolute RMS force accuracy = 0.0045557227
  estimated relative force accuracy = 1.3719424e-05
  using double precision FFTW3
  3d grid and FFT values/proc = 5168 640
Last active /omp style is kspace_style pppm/tip4p/omp
WARNING: Not all mixed pair coeffs generated from mixing. Use write_data with 'pair ij' option to store all pair coeffs. (../write_data.cpp:312)

write_restart   restart.lmp.${pid}
write_restart   restart.lmp.0
System init for write_restart ...
PPPM initialization ...
  extracting TIP4P info from pair style
  using 12-bit tables for long-range coulomb (../kspace.cpp:340)
  G vector (1/distance) = 0.36692475
  grid = 30 40 32
  stencil order = 5
  estimated absolute RMS force accuracy = 0.0045557227
  estimated relative force accuracy = 1.3719424e-05
  using double precision FFTW3
  3d grid and FFT values/proc = 5168 640
Last active /omp style is kspace_style pppm/tip4p/omp
Total wall time: 0:09:52
