LAMMPS (30 Jul 2021)
  using 16 OpenMP thread(s) per MPI task
package omp 0
using multi-threaded neighbor list subroutines
echo both

include		in.partitions
variable        pid world 0
include		in.temp
variable	temperature equal 230.0
variable	tempDamp equal 100.0
include		in.pressure
variable        pressure equal 2000
variable        pressureDamp equal 1000.0 # This is 1 ps
include		in.seed
variable        seed world 745823

units		real
atom_style	full
include		in.box
read_data       water.data
Reading data file ...
  orthogonal box = (0.0000000 1.0915313 0.0000000) to (18.207572 22.537647 22.213196)
  1 by 1 by 2 MPI processor grid
  reading atoms ...
  864 atoms
  reading velocities ...
  864 velocities
  scanning bonds ...
  2 = max bonds/atom
  scanning angles ...
  1 = max angles/atom
  reading bonds ...
  576 bonds
  reading angles ...
  288 angles
Finding 1-2 1-3 1-4 neighbors ...
  special bond factors lj:    0        0        0       
  special bond factors coul:  0        0        0       
     2 = max # of 1-2 neighbors
     1 = max # of 1-3 neighbors
     1 = max # of 1-4 neighbors
     2 = max # of special neighbors
  special bonds CPU = 0.000 seconds
  read_data CPU = 0.027 seconds
include 	in.setup
variable	out_freq equal 500
variable	out_freq2 equal 500

timestep	2.0

neigh_modify    delay 7 every 1

include		in.tip4p
# This is TIP4P/Ice

# create groups ###
group ox type 2
288 atoms in group ox
group hy type 1
576 atoms in group hy

# set charges - beside manually ###
set group ox charge -1.1794
Setting atom values ...
  288 settings made for charge
set group hy charge 0.5897
Setting atom values ...
  576 settings made for charge

# ### TIP3P Potential Parameters ###
pair_style lj/cut/tip4p/long 2 1 1 1 0.1577 8.5
pair_coeff 1 1*2 0.000 0.000
pair_coeff 2 2 0.21084 3.1668
bond_style  harmonic
bond_coeff  1 450 0.9572
angle_style harmonic
angle_coeff 1 55 104.52
kspace_style pppm/tip4p 1.0e-5
pair_modify tail yes

thermo          ${out_freq}
thermo          500
thermo_style 	custom step temp pe etotal epair emol press lx ly lz vol pxx pyy pzz pxy pxz pyz
thermo_modify   flush yes
restart 	${out_freq} restart.lmp.${pid} restart2.lmp.${pid}
restart 	500 restart.lmp.${pid} restart2.lmp.${pid}
restart 	500 restart.lmp.0 restart2.lmp.${pid}
restart 	500 restart.lmp.0 restart2.lmp.0


include         in.dump
dump            myDump all atom ${out_freq2} dump.water.${pid}
dump            myDump all atom 500 dump.water.${pid}
dump            myDump all atom 500 dump.water.0
dump            myDump2 all dcd ${out_freq2} dump.dcd
dump            myDump2 all dcd 500 dump.dcd
dump_modify     myDump append yes
dump_modify     myDump2 append yes


timer           timeout 00:55:00 every 1000
New timer settings: style=normal  mode=nosync  timeout=00:55:00

fix 		1 all shake 1e-6 200 0 b 1 a 1
       0 = # of size 2 clusters
       0 = # of size 3 clusters
       0 = # of size 4 clusters
     288 = # of frozen angles
  find clusters CPU = 0.000 seconds
fix             2 all nph iso ${pressure} ${pressure} ${pressureDamp}
fix             2 all nph iso 2000 ${pressure} ${pressureDamp}
fix             2 all nph iso 2000 2000 ${pressureDamp}
fix             2 all nph iso 2000 2000 1000
fix             3 all temp/csvr ${temperature} ${temperature} ${tempDamp} ${seed}
fix             3 all temp/csvr 230 ${temperature} ${tempDamp} ${seed}
fix             3 all temp/csvr 230 230 ${tempDamp} ${seed}
fix             3 all temp/csvr 230 230 100 ${seed}
fix             3 all temp/csvr 230 230 100 745823
velocity 	all create ${temperature} ${seed} dist gaussian
velocity 	all create 230 ${seed} dist gaussian
velocity 	all create 230 745823 dist gaussian

run             500000
PPPM initialization ...
  extracting TIP4P info from pair style
  using 12-bit tables for long-range coulomb (../kspace.cpp:340)
  G vector (1/distance) = 0.37144849
  grid = 24 25 25
  stencil order = 5
  estimated absolute RMS force accuracy = 0.0033118622
  estimated relative force accuracy = 9.9735747e-06
  using double precision FFTW3
  3d grid and FFT values/proc = 21120 7800
Last active /omp style is kspace_style pppm/tip4p/omp
Neighbor list info ...
  update every 1 steps, delay 7 steps, check yes
  max neighbors/atom: 2000, page size: 100000
  master list distance cutoff = 10.8154
  ghost atom cutoff = 10.8154
  binsize = 5.4077, bins = 4 4 5
  1 neighbor lists, perpetual/occasional/extra = 1 0 0
  (1) pair lj/cut/tip4p/long/omp, perpetual
      attributes: half, newton on, omp
      pair build: half/bin/newton/omp
      stencil: half/bin/3d
      bin: standard
Per MPI rank memory allocation (min/avg/max) = 24.33 | 24.33 | 24.33 Mbytes
Step Temp PotEng TotEng E_pair E_mol Press Lx Ly Lz Volume Pxx Pyy Pzz Pxy Pxz Pyz 
       0          230   -3852.2439   -3458.0318   -3852.2439            0    2755.3135    18.207572    21.446115    22.213196    8673.8464    2444.5367     3043.058    2778.3457    2027.8472   -2004.9713   -1686.3382 
     500     239.7547   -3971.5533   -3560.6219   -3971.5533            0    1280.1499     18.01436    21.218536    21.977477    8400.6345    769.29919    1893.8756    1177.2748    433.69784   -233.27139    792.69574 
    1000    218.01435    -3951.772   -3578.1028    -3951.772            0    2344.6932    17.977686     21.17534    21.932736    8349.4333    2746.6718    2239.1541    2048.2536    131.33607    102.10379   -63.002148 
    1500    233.10479   -3992.9491   -3593.4155   -3992.9491            0    2259.7318    17.939045    21.129826    21.885593    8295.7099    1643.1326    2305.5014    2830.5614   -694.20203   -57.682493    513.89782 
    2000    228.22947   -3972.7018   -3581.5243   -3972.7018            0    1662.1831    17.963778    21.158958    21.915768      8330.07    1622.0515    341.33536    3023.1624   -717.86347    330.63052    20.876285 
    2500    220.76537   -3965.4165   -3587.0322   -3965.4165            0     1261.002    18.057665    21.269544    22.030309    8461.3641    1501.8535    1906.3357    374.81664   -408.77605    446.85262   -453.81518 
    3000    235.68373   -3996.2739   -3592.3201   -3996.2739            0    2150.0548    17.981558      21.1799    21.937459    8354.8285    736.41265    1272.1448    4441.6071   -422.01415   -321.38392   -495.27296 
    3500     226.1419   -4004.1559   -3616.5564   -4004.1559            0    802.93416    18.046703    21.256632    22.016935    8445.9635    1161.6421    1865.1418   -617.98135   -264.38426     104.3115   -503.39433 
    4000    225.94201   -4001.6048   -3614.3479   -4001.6048            0    1179.4047    17.983077    21.181689    21.939311    8356.9454    693.67742    1196.4831    1648.0535   -783.27952    526.68167    2.0228971 
    4500    214.79908   -3976.1774   -3608.0191   -3976.1774            0    1737.2865    17.977979    21.175684    21.933092    8349.8403    2811.9879    1299.4624    1100.4094   -1420.4659    1533.3084   -742.58594 
    5000    225.09958    -3963.728    -3577.915    -3963.728            0    1868.8277    17.938877    21.129627    21.885387     8295.476    1835.2219    1245.6258    2525.6354    305.57361    725.21435     161.3434 
    5500    223.37934   -4020.7694   -3637.9048   -4020.7694            0    1731.5761    17.933276     21.12303    21.878554    8287.7083    492.89586    1151.7621    3550.0704   -560.49636    813.27087    472.77255 
    6000    228.52326   -3960.3003   -3568.6192   -3960.3003            0     1662.434    17.918199    21.105272    21.860161    8266.8239    1066.2959    3655.7001    265.30589    158.78473   -317.62821    243.94541 
    6500    231.45943   -3983.6318   -3586.9182   -3983.6318            0    2060.5703     17.87824    21.058205    21.811411    8211.6397    1997.8633     1433.975    2749.8726    1061.8165   -286.66088   -833.87962 
    7000    221.13966   -3954.9202   -3575.8944   -3954.9202            0    1630.1851    17.892993    21.075582    21.829409    8231.9845   -63.528717    2310.3997    2643.6843   -475.98886      1652.17   -935.59195 
    7500    218.68873    -3983.907    -3609.082    -3983.907            0    2670.2344    17.852673    21.028091     21.78022    8176.4608    3337.2766    4080.9504    592.47623    578.13374    1316.8376   -459.53127 
    8000     234.4884   -3977.3519   -3575.4468   -3977.3519            0    981.51677    17.880808     21.06123    21.814544     8215.179    1018.6656    694.78011    1231.1046   -138.00217     206.8603   -812.08083 
    8500    226.53878   -3968.0357    -3579.756   -3968.0357            0    1693.2282    18.001105    21.202924    21.961306    8382.1043      2943.43    1265.2712    870.98348   -256.85017   -445.67304   -316.79245 
    9000    231.52082   -3959.1796   -3562.3608   -3959.1796            0    2594.7418    17.935383    21.125513    21.881126     8290.631    2446.4281    1985.3862     3352.411    902.39566   -591.02393     919.8229 
    9500    239.51074   -3983.8595   -3573.3463   -3983.8595            0     2216.392     17.84141    21.014824    21.766478    8160.9948    2629.4417    1906.4426    2113.2916    415.24716   -183.97122    -208.5587 
   10000    237.10925    -4002.149   -3595.7518    -4002.149            0    1864.9582    17.873964    21.053168    21.806194    8205.7486    1113.9902    2202.5909    2278.2936    1223.4381   -528.36023    282.36243 
   10500    250.39806   -3980.2502   -3551.0765   -3980.2502            0    3794.0575    17.845594    21.019753    21.771583     8166.738    3322.5506    3584.4863    4475.1354   -836.15395     293.4432    218.05379 
   11000    234.71375   -4007.3521   -3605.0608   -4007.3521            0    1218.8678    17.897297    21.080652    21.834661    8237.9274    1096.0044    771.04015    1789.5588    610.28294    773.06726    524.85995 
   11500    221.43071   -3999.6282   -3620.1036   -3999.6282            0    1414.5546    17.796883    20.962377    21.712156    8100.0449    2871.4034    303.36274    1068.8976   -102.84562    90.297762   -1277.2426 
   12000    242.12405   -3972.3656   -3557.3733   -3972.3656            0    672.48485    17.858292     21.03471    21.787075    8184.1839     1299.944    583.65797    133.85257   -260.16853    271.54517   -364.41739 
   12500    224.59778   -3983.4862   -3598.5333   -3983.4862            0    531.36843    17.831193     21.00279    21.754014    8146.9823    754.17486    729.40853     110.5219    699.18331   -371.38315   -907.58573 
   13000    234.37162   -3963.9971   -3562.2921   -3963.9971            0    2419.3503    17.771368    20.932324    21.681027    8065.2561    2742.4099    2467.9914    2047.6496   -759.66084    480.02885   -285.74362 
   13500    216.63601   -3987.2227    -3615.916   -3987.2227            0    1445.9409    17.841763     21.01524    21.766909    8161.4794    2089.5191    1156.2292    1092.0743    451.31095    519.52792    743.24189 
   14000    233.49038   -4011.1297   -3610.9351   -4011.1297            0    2219.3218    17.783479    20.946589    21.695802     8081.756    1929.8454    2554.9801    2173.1399    438.93488    1054.6374    478.63236 
   14500    228.48063   -4008.2974   -3616.6895   -4008.2974            0    1379.7789    17.801983    20.968384    21.718377      8107.01    1099.9826    1775.9312    1263.4229    -243.2455   -997.31205   -252.19548 
   15000    223.43753   -3969.8203    -3586.856   -3969.8203            0    639.09973    17.822657    20.992736      21.7436    8135.2886    2143.6565   -1822.7813     1596.424    187.89122   -531.88521    -1363.024 
   15500    225.94268   -3982.0255   -3594.7674   -3982.0255            0    1020.4359    17.878727    21.058779    21.812005     8212.311    702.86338    1641.2829     717.1614    1086.4512    276.82299    308.94326 
   16000     241.0733   -3994.6133   -3581.4219   -3994.6133            0    2229.9719    17.818622    20.987983    21.738677    8129.7633    3001.8164     2267.092    1421.0072   -414.00342   -243.87281   -531.32295 
   16500    233.85033   -3961.9206   -3561.1092   -3961.9206            0    1310.4371    17.893987    21.076753    21.830622    8233.3571    1600.7241    1666.5707    664.01653    395.72172    1514.6867   -603.06769 
   17000    237.42609   -3994.1958   -3587.2556   -3994.1958            0     2856.665      17.7793    20.941667    21.690704    8076.0602    4332.2048    1929.3389    2308.4513    1233.5413   -1064.9937   -831.51804 
   17500    230.22261   -3978.5591   -3583.9654   -3978.5591            0    1717.0015    17.838121     21.01095    21.762466    8156.4822    1206.2384    1286.9258    2657.8403    497.02164    56.403078    1948.5335 
   18000    214.18555   -3987.2634   -3620.1567   -3987.2634            0    1763.1154    17.867152    21.045145    21.797884    8196.3706    980.61478    3108.4324    1200.2991   -304.56911    1008.4179   -637.29647 
   18500    219.97488   -3997.1318   -3620.1024   -3997.1318            0    2886.7434     17.90135    21.085426    21.839605    8243.5246    2430.9798    3322.7144     2906.536    -297.1543     584.3162   -637.35118 
   19000    234.30147   -4009.8112   -3608.2265   -4009.8112            0    2077.5054    17.903754    21.088257    21.842538    8246.8459    2463.3017    1838.0504     1931.164   -129.62461   -257.80988   -480.79984 
   19500    232.73829   -3976.9936   -3578.0881   -3976.9936            0    1746.9958    17.880745    21.061156    21.814467    8215.0921    2075.7367    2354.6821    810.56872    327.27656   -253.47128   -399.46671 
   20000    223.06341    -4003.775    -3621.452    -4003.775            0    3078.4156    17.859702     21.03637    21.788795    8186.1223    3559.5729    2194.1591    3481.5148   -193.67077    4.0561789    1018.4621 
   20500    230.05377   -3998.5042   -3604.1999   -3998.5042            0    1446.3698    17.982416    21.180911    21.938505    8356.0243    1755.6836   -93.485479    2676.9112    2288.5882    -1045.231   -97.461384 
   21000    217.01636   -3987.3544   -3615.3958   -3987.3544            0    2623.2965    17.858447    21.034892    21.787264    8184.3969    2827.5668    2347.1442    2695.1784   -1160.7587   -479.27474    354.80354 
   21500    225.59642   -4017.5141   -3630.8496   -4017.5141            0    3010.3248    17.848799    21.023527    21.775492    8171.1381    1985.1613    3235.8844    3809.9289   -737.16296    1752.3565   -65.253641 
   22000    232.13987   -3970.8172   -3572.9374   -3970.8172            0    1405.3513    17.862319    21.039452    21.791987    8189.7206    2902.0744    1125.3355    188.64402   -233.71631   -780.89881   -287.77308 
   22500    233.58426   -4001.6627   -3601.3073   -4001.6627            0    1530.3661    17.874276    21.053536    21.806574    8206.1781      1335.88    728.95783    2526.2605   -809.61898   -360.80614    743.81206 
   23000    226.57128   -4021.2203   -3632.8849   -4021.2203            0    1474.2213    17.829513    21.000812    21.751965    8144.6808    1416.6561    1867.3399     1138.668     1330.556   -478.62217    456.26944 
   23500    229.41185   -3982.8769   -3589.6728   -3982.8769            0    1561.0217    17.875104    21.054512    21.807585    8207.3193    1020.7507    2939.5006    722.81365    129.38231     502.8909     516.8374 
   24000    243.65009   -3972.3717   -3554.7638   -3972.3717            0    2548.2177    17.862314    21.039446    21.791981    8189.7139     636.2502    4527.7612    2480.6418    585.35135   -312.14817   -7.8905692 
   24500    231.63494   -4016.0155   -3619.0012   -4016.0155            0    1568.8157    17.852986    21.028459    21.780601      8176.89    676.92437     1302.386    2727.1367    804.62076   -284.87599    633.78297 
   25000    226.02078   -3994.0254   -3606.6336   -3994.0254            0     510.8859      17.9382     21.12883    21.884562    8294.5373    132.62251    669.21732    730.81786   -321.08191    171.05724    33.182226 
   25500      222.631   -4001.8039    -3620.222   -4001.8039            0    2337.9588    17.838105    21.010931    21.762446    8156.4605    1218.5096    2519.7028    3275.6638    1532.6049   -335.36603    217.30483 
   26000    229.77958   -3968.2187   -3574.3843   -3968.2187            0    3738.2338    17.843287    21.017035    21.768769    8163.5713    3151.3558    3479.7241    4583.6214   -4.3566604   -1092.1115    -1059.566 
   26500     217.4359   -4023.7552   -3651.0775   -4023.7552            0    1225.9889    17.859905    21.036609    21.789043    8186.4014    2362.1878    540.56284    775.21594   -633.22862   -945.32029   -235.69628 
   27000    237.65618   -3986.3107   -3578.9761   -3986.3107            0    1549.3726    17.855111    21.030962    21.783194    8179.8105    2510.9606    141.30814     1995.849   -379.05895   -1612.8721   -210.05924 
   27500    238.77729   -4004.8352   -3595.5791   -4004.8352            0    2400.2544    17.825661    20.996274    21.747265    8139.4022    2159.9038    2819.3163     2221.543    980.17087    45.977079    542.72465 
   28000     222.5617   -3991.4814   -3610.0183   -3991.4814            0     2037.559    17.927319    21.116013    21.871287     8279.452    647.26529    2659.1253    2806.2862   -341.41305    117.19883   -191.62516 
   28500    229.12781   -4000.7863   -3608.0691   -4000.7863            0    1113.9625    17.878897    21.058979    21.812213    8212.5449    1622.6607     726.8405    992.38631   -335.41446    -891.0602    647.69833 
   29000    213.22553   -3999.8907   -3634.4294   -3999.8907            0    3338.1377    17.760639    20.919687    21.667938    8050.6576    3543.8511    2378.5973    4091.9648   -614.13798   -521.03259    160.16202 
   29500    232.45269   -4008.7819    -3610.366   -4008.7819            0    227.96043    17.863925    21.041344    21.793947    8191.9301     -1282.68     1921.606    44.955287    347.02393   -806.87577    102.65857 
   30000    240.89125   -3999.0682   -3586.1889   -3999.0682            0    2248.3962    17.828448    20.999557    21.750665    8143.2206     4067.917    727.11716    1950.1546    419.24444   -1681.7586   -1170.1029 
   30500    226.65491   -4019.3447   -3630.8659   -4019.3447            0    1366.3658    17.824162    20.994508    21.745436    8137.3486    1373.1883    2317.7459    408.16332    1403.6157   -634.82463    221.99109 
   31000    237.44125   -3983.5693   -3576.6032   -3983.5693            0    1571.2588     17.76705    20.927238     21.67576    8059.3791    1276.7144    1150.8406    2286.2213    585.88371   -1221.8104    23.151179 
   31500    227.62169   -3990.2556   -3600.1198   -3990.2556            0    1527.0518    17.817339    20.986472    21.737112    8128.0077    2336.8784    1524.1131    720.16377   -262.13347   -870.04175   -1013.3007 
   32000    243.42749   -4001.7952   -3584.5688   -4001.7952            0    1997.7998     17.78551    20.948981     21.69828    8084.5256    3614.2805    2272.7878    106.33091     304.2012   -869.58895    63.730278 
   32500    248.44894   -4015.9323   -3590.0993   -4015.9323            0     2434.215    17.715416     20.86642    21.612766    7989.3173    1403.9514     3152.788    2745.9055   -188.95475    181.96336    855.42422 
   33000    231.29577   -3995.6491    -3599.216   -3995.6491            0    2873.0045    17.714962    20.865885    21.612212    7988.7028    4245.1712    3748.1984    625.64398   -404.37911   -12.051777   -708.07763 
   33500    230.49918   -4016.1183   -3621.0506   -4016.1183            0    961.66517    17.808499    20.976059    21.726327    8115.9158    1271.8213    1905.3086   -292.13435   -230.49449   -661.14175   -55.568559 
   34000    226.85664   -4035.5123   -3646.6878   -4035.5123            0    374.71264    17.873457    21.052571    21.805575    8205.0502    376.14454   -716.48757    1464.4809    547.23975   -211.53478   -326.82032 
   34500    222.88177   -4032.7814   -3650.7697   -4032.7814            0    3211.2712    17.806504    20.973709    21.723893    8113.1881    2376.2198    4344.7774    2912.8165    -209.1245   -90.163267   -241.90602 
   35000    217.55408   -4020.2585   -3647.3782   -4020.2585            0    974.91115    17.824739    20.995188    21.746139    8138.1388       607.65    968.86582    1348.2176    203.79495   -761.46272     -922.415 
   35500    232.61808    -4017.113   -3618.4136    -4017.113            0    2549.3462    17.751573    20.909008    21.656877    8038.3349    1870.4766    2914.1648    2863.3974    676.57556    524.74242    202.53811 
   36000    228.86889   -4019.2821   -3627.0087   -4019.2821            0    2422.6258    17.784445    20.947727    21.696981    8083.0733    1716.5608    1670.1619    3881.1546     910.3194    -559.5963     518.3807 
   36500    230.93103   -3974.7243   -3578.9164   -3974.7243            0    2027.3773    17.794438    20.959497    21.709172    8096.7063     1226.593    2442.9733    2412.5655    722.05908    869.15751    571.80368 
   37000    228.40107   -3983.6781   -3592.2065   -3983.6781            0    1691.9523    17.752027    20.909543    21.657432    8038.9526    2128.6905   -30.418644     2977.585    1264.0933   -114.99258    804.12483 
   37500      225.051   -4009.9153   -3624.1855   -4009.9153            0    1618.4372    17.831118    21.002701    21.753922    8146.8794    3080.3441   -537.08984    2312.0573    1105.8138   -1373.7949     192.5457 
   38000     225.9907   -3995.0507   -3607.7104   -3995.0507            0    2196.1374    17.830313    21.001753     21.75294    8145.7764     1758.682    2733.8199    2095.9104    1182.1318   -592.09021     649.9731 
   38500    230.94561   -4017.5433   -3621.7105   -4017.5433            0    1806.7369    17.813888    20.982407    21.732902    8123.2861    2020.6359    1805.0822    1594.4926    1614.7583    116.23237   -524.20374 
   39000    236.40252   -4023.8816   -3618.6958   -4023.8816            0    2610.6223    17.805627    20.972676    21.722823    8111.9893    2926.1745    2464.3417    2441.3508   -1.0075018    775.81834   -158.50735 
   39500    230.76717   -4021.3585   -3625.8314   -4021.3585            0    1503.5766    17.856305    21.032368     21.78465    8181.4512    1586.1596    1919.9136    1004.6566    306.18461   -694.25327   -1903.5817 
   40000    224.02924   -4010.1288   -3626.1503   -4010.1288            0     2708.847    17.828769    20.999935    21.751057    8143.6606    1741.5901    2779.6125    3605.3385    625.32075    151.08976      567.155 
   40500    213.21093   -4016.6906   -3651.2544   -4016.6906            0    878.67379    17.808182    20.975686     21.72594     8115.482    1426.8235   -408.58437    1617.7822   -409.17429    441.72144    -1041.649 
   41000     229.0487   -4012.8321   -3620.2505   -4012.8321            0    2407.9903    17.774009    20.935435    21.684249    8068.8523    1759.6936    3261.1662    2203.1112   -276.84402     434.2598   -1467.4236 
   41500    236.91879   -4017.5676   -3611.4969   -4017.5676            0    2153.4408    17.834158    21.006283    21.757631    8151.0477    4210.5089    1262.4986     987.3148   -91.651539   -87.495547   -364.99638 
   42000    234.91098   -4030.7409   -3628.1116   -4030.7409            0    3116.8858    17.738517     20.89363    21.640949    8020.6121    4017.1179    3616.4093    1717.1303    -337.8236    808.81572   -743.59234 
   42500     232.6522   -4037.7554   -3638.9974   -4037.7554            0    1553.7609     17.82947    21.000761    21.751912    8144.6215    1936.1115    2046.3144    678.85677   -1296.7063   -800.74644   -1565.8457 
   43000    233.05087   -4013.4657   -3614.0245   -4013.4657            0    1439.9863    17.814653    20.983309    21.733836    8124.3332    1112.4698    1437.2352    1770.2541    533.37128    613.41869    428.50349 
   43500    227.97299   -4042.6669    -3651.929   -4042.6669            0    2054.4828    17.836123    21.008597    21.760029    8153.7427    2222.2756    2724.5162    1216.6568    724.60338   -596.61275    286.95708 
   44000    237.14774   -4043.5641    -3637.101   -4043.5641            0    2253.9361    17.868179    21.046354    21.799136    8197.7836    1873.6207    2399.1277    2489.0598   -36.666738   -217.65499   -604.64088 
   44500    239.14798   -4021.5066   -3611.6152   -4021.5066            0    2512.6972    17.778039    20.940182    21.689167    8074.3427    1943.1147    3353.1459    2241.8311   -636.67358    565.32513   -354.96499 
   45000    219.72074   -4056.2226   -3679.6288   -4056.2226            0    2130.8446    17.796712    20.962176    21.711947    8099.8117    2528.1735    2720.9789    1143.3813   -50.181444    941.67972   -1237.7604 
   45500     216.4748    -4029.185   -3658.1546    -4029.185            0    2281.0158    17.847567    21.022077     21.77399    8169.4474    1915.7281    2467.1268    2460.1927    11.327526   -985.11855   -981.17458 
   46000     233.2283   -4028.3059   -3628.5605   -4028.3059            0    2711.7372    17.814646      20.9833    21.733827    8124.3233    3017.4572    3207.2759    1910.4785    36.001862    111.04155   -751.45992 
   46500    227.45592    -4036.707   -3646.8554    -4036.707            0    1340.5457    17.838168    21.011006    21.762524    8156.5475    1243.1383    2407.7109    370.78806   -915.24815   -761.50244   -395.53285 
   47000    230.62781   -4031.8698   -3636.5816   -4031.8698            0     2257.394     17.74859    20.905494    21.653238    8034.2833     3706.827    1549.6214    1515.7335   -401.24274   -589.30758    -1611.561 
   47500    231.80943   -4014.9624   -3617.6489   -4014.9624            0    1841.8548    17.798868    20.964716    21.714578    8102.7558     1849.117    828.97891    2847.4683   -357.32281   -27.077107   -477.66463 
   48000    247.12642   -4030.7984   -3607.2322   -4030.7984            0    1568.1126    17.808293    20.975817    21.726076    8115.6348    663.39968    3049.0748    991.86328    43.958106   -566.49174   -765.38766 
   48500    232.49972   -3990.0038   -3591.5072   -3990.0038            0    3148.8325    17.821162    20.990975    21.741776    8133.2413    2440.9113    1433.5655    5572.0206   -173.75332    1020.0161   -1136.4732 
   49000    236.87075   -3998.0544   -3592.0661   -3998.0544            0    3210.0389    17.754492    20.912447    21.660439    8042.3018    3876.3522    3257.4845      2496.28   -1202.5887    234.57675    175.79194 
   49500    241.32971   -3980.7097   -3567.0788   -3980.7097            0    -177.8168    17.820977    20.990756     21.74155    8132.9871    -262.3982   -1378.6105    1107.5582    400.28924    12.182334    148.44066 
   50000    216.41794   -3990.2072   -3619.2742   -3990.2072            0    1728.0079    17.730783     20.88452    21.631513    8010.1253    1747.3852    786.43281    2650.2057    226.55433    315.63621   -424.58969 
   50500    238.96743   -4006.6713   -3597.0893   -4006.6713            0    1828.4965    17.736159    20.890853    21.638073    8017.4144    1208.6952     3478.723    798.07143     1032.901    103.71675   -120.80441 
   51000    245.39818   -4013.1985   -3592.5945   -4013.1985            0    2085.7775    17.797425    20.963016    21.712817    8100.7855    2192.7423    1836.3491    2228.2413    142.41338   -1439.3692   -397.52727 
   51500    240.25958   -4019.9631   -3608.1664   -4019.9631            0    2011.6264    17.747686    20.904429    21.652135    8033.0556    1942.1323    2063.5298     2029.217    32.855424   -1016.3669   -779.70691 
   52000    225.04554   -4014.4449   -3628.7245   -4014.4449            0    2986.5179    17.703756    20.852686    21.598541    7973.5516    3589.6285    4105.4502    1264.4749   -463.37018    1218.6146   -2235.1391 
   52500    227.32888   -4005.3857   -3615.7517   -4005.3857            0    1098.9228    17.836941     21.00956    21.761026    8154.8633   -320.07103    1702.8039    1914.0356    156.66581   -461.98011   -120.86789 
   53000     233.2168   -4039.0394   -3639.3138   -4039.0394            0    2033.1557    17.797786    20.963441    21.713257    8101.2775    1674.5731    4048.3544    376.53951   -282.97065    924.66529   -928.21447 
   53500    232.38235   -4018.9602   -3620.6648   -4018.9602            0     3285.114    17.746646    20.903205    21.650866    8031.6438    3446.4058    3687.1509    2721.7852    794.48228   -71.442072   -911.72047 
   54000    234.85353   -4006.5336   -3604.0027   -4006.5336            0    1716.8779    17.808644     20.97623    21.726504    8116.1137    2166.9193    1347.5639    1636.1506    413.20101    453.87214    475.95162 
   54500     217.7836   -4026.5773   -3653.3036   -4026.5773            0    1014.1419     17.86635    21.044201    21.796906    8195.2673   -642.07391    2255.4516    1429.0479    1363.2292    1208.0488   -525.61448 
   55000    232.68024   -4007.3629   -3608.5569   -4007.3629            0    1433.1314    17.801821    20.968194     21.71818     8106.789   -567.83688    2758.9264    2108.3047     246.4577   -987.63928    1013.3263 
   55500     225.9661   -4023.7011    -3636.403   -4023.7011            0    659.37356    17.739077     20.89429    21.641633    8021.3718    1416.1092   -346.82441    908.83584    361.68059   -600.45665   -604.29093 
   56000     243.5348   -3992.6567   -3575.2464   -3992.6567            0    3422.5834    17.752499    20.910099    21.658008    8039.5937    3491.3088    2925.3049    3851.1367    1339.1706    747.11572   -962.89718 
   56500    227.64938   -3980.0193   -3589.8361   -3980.0193            0    2053.4886    17.679517    20.824136    21.568969    7940.8461    2115.2138     1285.115    2760.1371     1713.404    -1110.048   -1110.6283 
   57000    237.27214   -4016.8531   -3610.1767   -4016.8531            0    2716.5071     17.77023    20.930984    21.679639    8063.7071    3766.7971    1979.6804    2403.0438   -1509.3168    1660.2999   -1283.4817 
   57500    235.04581   -4006.4829   -3603.6224   -4006.4829            0    3363.7089     17.70706    20.856578    21.602572    7978.0177    2759.9525    5588.1663    1743.0079    408.08604     1066.421   -1007.2011 
   58000    231.24382   -4020.4833   -3624.1393   -4020.4833            0    1923.3246    17.692683    20.839643    21.585032    7958.5997    2077.7838    2351.4703    1340.7197    150.58031   -98.659979   -1865.8994 
   58500    228.27908   -4013.8112   -3622.5486   -4013.8112            0    1331.8033    17.725573    20.878384    21.625158     8003.067    1436.9502     1795.756    762.70372    293.91289   -421.98422    159.37553 
   59000     227.8623   -4006.8806   -3616.3324   -4006.8806            0    1299.1412    17.707731    20.857368     21.60339    7978.9239    1677.9991    903.24137    1316.1832    1264.9489   -385.30633   -165.28802 
   59500    236.30151   -4026.0313   -3621.0186   -4026.0313            0    2080.1955     17.68779     20.83388    21.579063    7951.9991    2173.1193    3110.7065    956.76078    1069.8012    410.16368   -702.43635 
   60000    224.48943   -4044.1346   -3659.3674   -4044.1346            0    333.52018    17.791617    20.956175    21.705732    8092.8573    1247.4058   -4.3462088   -242.49909    175.84475   -1294.5669    631.83107 
   60500    229.57704   -4051.3896   -3657.9024   -4051.3896            0    2010.9089    17.712408    20.862877    21.609096     7985.248    1282.3893    2753.1553    1997.1822    280.28506    990.16081   -1127.2216 
   61000    219.69433   -3995.9547   -3619.4062   -3995.9547            0    3777.2285     17.64241    20.780428    21.523699    7890.9504    3711.8733    3803.4903    3816.3219   -250.50524   -151.66251   -346.35419 
   61500     239.2714   -4019.5586   -3609.4556   -4019.5586            0    1347.6374    17.777957    20.940086    21.689066     8074.231    2535.6493    1157.4258    349.83705    451.21591    -195.1971   -743.01232 
   62000    227.37519   -3986.0069   -3596.2936   -3986.0069            0    813.25651    17.803505    20.970178    21.720235    8109.0904    2359.0146    272.66058   -191.90561    1681.2805    92.112178   -876.66579 
   62500    227.49855   -4017.3544   -3627.4297   -4017.3544            0    1260.4511    17.763681    20.923269    21.671649    8054.7945    1771.4927    1704.9933    304.86735    881.22628   -978.75216    653.31537 
   63000    235.94257   -3984.0102   -3579.6127   -3984.0102            0    2201.5957    17.792442    20.957146    21.706737     8093.982    2242.2325    3801.5777    560.97695    1625.9304   -551.39499   -1269.6913 
   63500    217.38675   -4022.7504    -3650.157   -4022.7504            0    603.03296    17.807467    20.974844    21.725068    8114.5048    495.18434     1712.757   -398.84244   -183.46321    512.96887   -893.34213 
   64000    230.55484   -4022.3116   -3627.1485   -4022.3116            0    2630.2782    17.744979    20.901241    21.648832    8029.3804    3246.7026    4419.6535    224.47846    873.35362    394.13666   -249.68441 
   64500    231.70825   -4032.7623   -3635.6223   -4032.7623            0    3066.0197     17.73424    20.888592    21.635731    8014.8118    3970.4948    2179.2991    3048.2652    674.69694   -240.27933   -1007.4765 
   65000    221.87605   -4028.1573   -3647.8694   -4028.1573            0    1698.1538    17.794901    20.960043    21.709738    8097.3391     1608.175    2538.4205    947.86598    1702.1535    79.634648    268.50163 
   65500    227.18919   -4020.3329   -3630.9384   -4020.3329            0    1850.3121    17.825116    20.995632      21.7466     8138.656     2258.008    2312.5632    980.36521    304.79104   -1101.8851   -1119.5241 
   66000    240.20931   -3995.4422   -3583.7316   -3995.4422            0    1408.3172    17.857716    21.034031    21.786372    8183.3914   -244.43499     1631.096    2838.2904    495.71252   -2107.8264   -395.26625 
   66500    238.59715   -4005.7799   -3596.8325   -4005.7799            0    838.05694    17.796533    20.961965    21.711729     8099.567    334.71989    1378.5431    800.90786    63.984679   -213.52643   -690.23243 
   67000    215.05632   -4027.6835   -3659.0843   -4027.6835            0    1215.7634    17.771416    20.932381    21.681086    8065.3219    1550.9888    193.51959    1902.7817    833.89885    270.52268   -680.26307 
   67500    232.07533   -4029.2156   -3631.4465   -4029.2156            0    1552.0111    17.754307    20.912228    21.660213    8042.0496    1422.1238    1588.8419    1645.0675   -332.89953   -48.741257   -32.209035 
   68000    238.91743   -4019.9515   -3610.4551   -4019.9515            0    1374.6566    17.782639      20.9456    21.694778    8080.6118    2075.3976    236.78571    1811.7865    881.09749    22.921162    529.17769 
   68500    224.58368   -3976.1558   -3591.2271   -3976.1558            0    1715.2541    17.845919    21.020135    21.771979    8167.1834    1100.0939    2156.0759    1889.5924    421.94457    -981.2849   -177.37471 
   69000    217.09303   -4023.7026   -3651.6126   -4023.7026            0    1382.1997    17.755117    20.913182    21.661201    8043.1502    890.09071    649.03677    2607.4718   -428.54906   -479.48554    158.17468 
   69500    225.76262   -4030.5721   -3643.6227   -4030.5721            0    1525.0834    17.811267     20.97932    21.729704    8119.7012    294.05602    2107.3355    2173.8586    852.16904    1036.7493    895.89259 
   70000    231.83928   -4008.5766    -3611.212   -4008.5766            0    3131.6253    17.720282    20.872151    21.618702    7995.9018    3063.6058    2012.4532     4318.817    997.25399    1726.0469    215.70177 
   70500    232.27343    -4015.967   -3617.8583    -4015.967            0    1865.9983    17.723018    20.875374     21.62204    7999.6064    2551.4541    1086.6689     1959.872    340.62822    592.34529     96.01563 
   71000    236.45627   -4028.6073   -3623.3293   -4028.6073            0    1940.1235    17.696053    20.843613    21.589143    7963.1487    1141.7804    3162.7919    1515.7982     1331.888   -1008.4204    1217.7141 
   71500    221.97402   -4012.5131   -3632.0573   -4012.5131            0     1901.218    17.785669    20.949168    21.698474    8084.7421    1188.4688    2311.6388    2203.5464   -464.09309     664.0194    397.31558 
   72000    250.65356    -3980.162   -3550.5503    -3980.162            0     2064.627    17.737951    20.892964    21.640259    8019.8447    2680.1635    1307.5443     2206.173    1036.1441     93.81381    862.81176 
   72500    236.27656   -4018.6017   -3613.6318   -4018.6017            0    2998.4234    17.700485    20.848834    21.594551    7969.1338     2795.125    2349.7477    3850.3976   -951.42887   -1435.7408    814.94642 
   73000    215.73542   -4019.3993   -3649.6362   -4019.3993            0    2757.3125    17.781191    20.943894    21.693011    8078.6374    2796.1184    1806.2401     3669.579   -1514.7427    822.68401    610.01618 
   73500    229.34916   -3992.9383   -3599.8417   -3992.9383            0    489.78191    17.900965    21.084972    21.839135    8242.9927    269.91462    -76.83172    1276.2628    786.40995    1124.5287    167.78207 
   74000    222.62017    -4008.519   -3626.9557    -4008.519            0    1808.5457    17.820732    20.990468    21.741251    8132.6518    1203.9741     3114.802    1106.8611    917.65865     12.14567    178.07508 
   74500    237.17691   -4010.7589   -3604.2458   -4010.7589            0     963.0355    17.824055    20.994382    21.745305     8137.202    528.95547    266.22239    2093.9286   -944.82335    287.45687    206.10679 
   75000    233.13674   -4018.9318   -3619.3434   -4018.9318            0    1614.4925    17.897707    21.081134     21.83516    8238.4923    2691.3719    256.57267    1895.5329   -932.38206    346.76305    88.655792 
   75500    225.12802   -4024.5497    -3638.688   -4024.5497            0    2069.1324    17.880977     21.06143    21.814751    8215.4121    1803.3898    2178.8843     2225.123    659.23782    328.71222    482.55567 
   76000    221.40784   -4003.1453   -3623.6598   -4003.1453            0    840.34715    17.867649    21.045731    21.798491    8197.0552    1231.9752    1782.2256   -493.15935    -817.0658    1317.2929    324.97673 
   76500    206.18916   -4048.3319   -3694.9308   -4048.3319            0    1463.3456    17.825425    20.995996    21.746977    8139.0792    469.51661    253.92877    3666.5914     115.4145    408.38772    264.53994 
   77000    222.70039   -4039.9955   -3658.2947   -4039.9955            0    2107.6525    17.897168      21.0805    21.834504     8237.749    2082.5127    1425.1339    2815.3108    516.35381    140.56101     1037.142 
   77500    238.95189   -4033.5441   -3623.9887   -4033.5441            0    2133.4147    17.778099    20.940252    21.689239    8074.4242    2975.7153    902.68297    2521.8458   -45.604644    85.269084    253.51434 
   78000    234.17254   -3980.2786   -3578.9149   -3980.2786            0    1369.2013    17.828989    21.000194    21.751325    8143.9623   -697.66698    1935.7499    2869.5208   -989.57908    1318.0624   -824.73365 
   78500    231.13995   -4038.5076   -3642.3417   -4038.5076            0    3728.1387    17.738327    20.893406    21.640717     8020.354    3014.7084    3392.1009    4777.6067    351.59218     760.7598   -1158.4484 
   79000    234.73548   -4021.8269   -3619.4983   -4021.8269            0    1520.9754    17.790557    20.954927    21.704438    8091.4107    1349.6787    499.19364    2714.0538    -178.6568   -1284.1062   -64.146292 
   79500    231.05965   -3997.2446   -3601.2163   -3997.2446            0    1663.2307    17.791355    20.955866    21.705411    8092.4989    1563.6163     1529.931    1896.1448   -571.21355   -193.05473   -389.05923 
   80000    239.12008   -3982.4959   -3572.6523   -3982.4959            0    2849.3232    17.730998    20.884774    21.631777    8010.4178    4446.3468    1818.7192    2282.9036   -359.47558    273.89048   -936.87427 
   80500    236.06324   -4014.1404   -3609.5361   -4014.1404            0    2844.1907    17.763038    20.922512    21.670865    8053.9202    3374.1388    3228.5878    1929.8454    149.38671    329.29262   -493.40283 
   81000    229.61472   -4026.7381   -3633.1863   -4026.7381            0     1488.493    17.908375      21.0937    21.848176    8253.2337    2238.0174    2031.0142    196.44739   -757.51276    540.11764    210.91952 
   81500    222.35078   -4007.4557   -3626.3541   -4007.4557            0    1136.5807    17.809552      20.9773    21.727612    8117.3558    47.080976    147.10371    3215.5573   -678.21948      395.862   -1161.9912 
   82000    233.32038   -4029.4424   -3629.5392   -4029.4424            0     1341.857    17.774236    20.935702    21.684527    8069.1619    597.97078    539.42568    2888.1745   -769.86258    197.28783   -15.989703 
   82500    234.51659   -3970.5502   -3568.5968   -3970.5502            0    3677.8553     17.79675    20.962221    21.711993     8099.863    3051.0667    4740.2975    3242.2017    -246.9708    1200.1191    -782.6296 
   83000    217.06263   -4013.0097   -3640.9718   -4013.0097            0    2614.1358    17.800737    20.966917    21.716858     8105.309    2365.4997    2125.1839    3351.7239   -674.63683    181.34447    1180.1378 
   83500    234.97094   -4016.3229   -3613.5908   -4016.3229            0    2039.0901    17.753519      20.9113    21.659251    8040.9789    1358.3765    1115.6792    3643.2145    792.23273    808.43172    443.90989 
   84000     244.8232   -4004.3815   -3584.7629   -4004.3815            0    1620.9359    17.785986    20.949542    21.698861    8085.1747    2594.4288    1591.3258    677.05316    70.093678    126.96493   -439.16392 
   84500     233.5384   -4037.5346   -3637.2578   -4037.5346            0    1785.1362    17.753945    20.911803    21.659772    8041.5585    2801.5394    337.13337    2216.7358    307.65816   -688.94598    664.86991 
   85000    231.41834   -4016.5031     -3619.86   -4016.5031            0    1298.3787    17.715179    20.866141    21.612477    7988.9961    713.42343    1446.1385    1735.5741    585.81869    325.26526    278.07166 
   85500    250.02084   -4009.0643   -3580.5372   -4009.0643            0    502.30167    17.714608    20.865468    21.611781    7988.2241    1080.8182    313.46326    112.62355    745.94955    619.86575     131.5216 
   86000    231.56459   -4007.0399   -3610.1462   -4007.0399            0    2632.6384    17.699682    20.847887    21.593571    7968.0486    3205.7108     2341.116    2351.0883    308.17498     442.6136   -411.92234 
   86500    220.12119   -4001.8884   -3624.6082   -4001.8884            0    1533.6844     17.64966    20.788968    21.532544     7900.683    1738.3496      2230.27    632.43372   -286.52947   -816.49268    1257.0748 
   87000    227.79524   -4016.3596   -3625.9263   -4016.3596            0    2579.5999     17.60444    20.735705    21.477376    7840.1115    2595.8027    1763.3832    3379.6139    1034.7372   -1043.3364    1100.9692 
   87500     230.9176   -4018.8818    -3623.097   -4018.8818            0    2170.6163    17.726949    20.880005    21.626837    8004.9313    1615.2125    1426.0473    3470.5892    458.21313    39.908507   -389.84837 
   88000    243.75415   -4004.7823    -3586.996   -4004.7823            0    2681.1476    17.723121    20.875495    21.622166    7999.7457     3058.167    2336.0027    2649.2733    913.34894    559.66286    86.030216 
   88500    232.91377   -4024.3328   -3625.1266   -4024.3328            0    2702.5255    17.658604    20.799503    21.543455    7912.6996    2649.7406    3100.4832    2357.3528   -400.94734   -1889.1021    68.534444 
   89000     223.3528   -4033.3722   -3650.5531   -4033.3722            0    2090.2835    17.647136    20.785996    21.529465    7897.2941    3127.8374    1940.6557    1202.3574    306.89865   -637.94171    664.02528 
   89500    220.61524   -4021.2113   -3643.0843   -4021.2113            0    2440.4496    17.704069    20.853054    21.598922    7973.9745     3081.265    1896.4092    2343.6747    591.28404   -222.82175   -255.65647 
   90000     230.6607   -4015.9773   -3620.6327   -4015.9773            0    1905.8912    17.710773    20.860951    21.607102    7983.0368    1121.5821    2878.0694    1718.0222    204.78155   -155.70792   -532.68099 
   90500     220.3767   -3996.0866   -3618.3685   -3996.0866            0    1582.3898    17.690894    20.837536    21.582849    7956.1857     3204.357    1890.5982   -347.78565    883.09192    402.40887   -812.21189 
   91000    222.22544   -4027.6312   -3646.7444   -4027.6312            0    1804.0633    17.719937    20.871746    21.618282    7995.4358    3299.8322    593.01406    1519.3436     43.21066   -206.16818    723.37316 
   91500     214.8115   -4033.8643   -3665.6848   -4033.8643            0    2784.5317    17.677357    20.821591    21.566334    7937.9355    2208.4659    2882.9471    3262.1823   -292.71371   -1572.3914    -135.7482 
   92000    234.04841   -4002.4566   -3601.3056   -4002.4566            0    1551.4215    17.720951    20.872939    21.619518    7996.8073    1663.4625    920.24053    2070.5616    -64.41117     211.8962   -31.534417 
   92500     231.1144   -4039.6091   -3643.4869   -4039.6091            0    2407.7148    17.713509    20.864174     21.61044    7986.7374    2387.2284     1867.505     2968.411   -7.7233493    1245.5959    453.27602 
   93000    231.75094   -4032.1433   -3634.9301   -4032.1433            0    2718.4981    17.667656    20.810166      21.5545    7924.8751    1153.7932    1893.6168    5108.0843    181.59962    1074.1046   -1917.9909 
   93500    219.80071   -4002.2087   -3625.4778   -4002.2087            0    1426.1647      17.6624    20.803974    21.548086    7917.8033    1646.3799    1250.1754    1381.9386    145.54943    1016.5816   -1191.7002 
   94000    222.24939   -4001.3353   -3620.4075   -4001.3353            0    873.49333    17.698345    20.846313     21.59194    7966.2438    1322.4104    439.78439    858.28523    609.19031   -1702.3033   -950.18397 
   94500    233.59679   -4019.5336   -3619.1566   -4019.5336            0    3383.2534    17.647948    20.786952    21.530456    7898.3842    4276.2812    2820.7081     3052.771    907.08659    25.338448    -112.5753 
   95000    229.16072   -4022.3865   -3629.6129   -4022.3865            0    2420.6458    17.688421    20.834624    21.579833    7952.8505    2893.8702    3139.2707    1228.7965   -372.60695   -44.312354    69.234573 
   95500    222.92677   -4008.7483   -3626.6594   -4008.7483            0    2338.2871    17.656999    20.797612    21.541497     7910.542    2494.0539    2190.7225    2330.0848    666.69314   -259.95666   -218.42165 
   96000    214.61755   -3960.5004   -3592.6533   -3960.5004            0    2456.9888    17.706571    20.856001    21.601975    7977.3558    2333.1949    1496.4518    3541.3196    1058.9218    847.78039    705.72713 
   96500    237.76691   -3998.4811   -3590.9568   -3998.4811            0    3184.7108    17.703715    20.852638    21.598491     7973.497    3495.6869    3526.2538    2532.1917     296.0389   -705.69798    220.60029 
   97000    229.73295   -3996.2737   -3602.5193   -3996.2737            0    2326.7649    17.716268    20.867424    21.613806      7990.47    3037.2149    2630.0592    1313.0204   -871.73434    -541.6913   -199.88745 
   97500    231.94823   -4010.0748   -3612.5234   -4010.0748            0    713.46026    17.751708    20.909168    21.657043    8038.5193    824.41292    273.73601    1042.2319   -316.67256    685.07535   -226.57605 
   98000     225.9298   -4034.2887   -3647.0527   -4034.2887            0    2093.3406    17.676718    20.820839    21.565555    7937.0755    3386.2855    2272.5058    621.23047    1256.8261    102.20018    802.33675 
   98500    232.92228   -3990.9672   -3591.7464   -3990.9672            0    661.74719    17.790228    20.954538    21.704036    8090.9609    341.91054    1170.4377    472.89335   -655.61242    446.32929    -1451.032 
   99000    222.38005   -3982.2149   -3601.0632   -3982.2149            0    42.869256    17.810289    20.978168    21.728511    8118.3631    733.85713    269.40611   -874.65547    644.72432    -347.6913   -238.70175 
   99500    242.88697   -3976.4029   -3560.1029   -3976.4029            0    3209.6866    17.656322    20.796816    21.540672    7909.6332    2897.3609    2345.0128    4386.6859    387.19202    479.35246    170.99347 
  100000    229.24486   -4004.2009    -3611.283   -4004.2009            0    2476.7119    17.686812    20.832728    21.577869    7950.6799    3766.9338    1527.9214    2135.2804   -291.38186   -354.70279   -89.269818 
  100500    229.65937   -3978.0803    -3584.452   -3978.0803            0    2905.7359     17.65894    20.799898    21.543865    7913.1511    3849.9132    3653.6191    1213.6754    663.91987   -425.38994    110.40007 
  101000    226.69986   -4011.5751   -3623.0193   -4011.5751            0     2167.704    17.693525    20.840635    21.586059    7959.7361    2980.7031    1635.3619    1887.0471     634.7318   -141.24625   -85.827449 
  101500    220.46925   -3984.7267     -3606.85   -3984.7267            0    1101.0289     17.65733    20.798003    21.541902    7910.9879    1155.9416    652.87157    1494.2736    592.66671   -514.64222   -229.92989 
  102000    241.53406   -4006.1104   -3592.1292   -4006.1104            0    1882.4771     17.69777    20.845636    21.591239    7965.4673    889.52712      2777.41    1980.4942    117.09986    257.26698   -618.52926 
  102500    226.14409   -4014.7023   -3627.0991   -4014.7023            0    1848.8104    17.663068    20.804761    21.548902     7918.702    1802.3526    2248.5448    1495.5338   -65.734884   -537.43311   -605.11024 
  103000    233.29586    -4008.986   -3609.1249    -4008.986            0     3187.023    17.731065    20.884852    21.631857    8010.5073    3050.8748    4099.8518    2410.3424    537.82234    304.53036   -272.63344 
  103500    230.84313   -4036.1351   -3640.4779   -4036.1351            0    1712.4831    17.818078    20.987342    21.738014    8129.0195    220.92132    4785.9808    130.54724   -72.583231    350.27577   -100.37336 
  104000    229.84603   -4012.1278   -3618.1796   -4012.1278            0    3674.9413    17.699286    20.847421    21.593087    7967.5138     3959.392    5259.4897    1805.9424    440.23574    1904.4911   -1170.5965 
  104500    232.55736   -4018.1717   -3619.5764   -4018.1717            0    25.355081    17.785686    20.949189    21.698496    8084.7665   -501.54537    1066.7631   -489.15247    211.75117    1271.6347    354.96971 
  105000    241.38008   -4014.3701   -3600.6529   -4014.3701            0    915.45331    17.806938    20.974221    21.724423    8113.7817    1402.6957    1311.6606    32.003585   -841.89085     1306.538     62.20648 
  105500    233.13659   -3992.8971   -3593.3089   -3992.8971            0    1781.4318    17.734773     20.88922    21.636382    8015.5349    1577.5154      2789.74    977.03994   -66.444169    187.83685   -475.82732 
  106000    217.51765   -4007.8583   -3635.0404   -4007.8583            0    2525.9343    17.703625    20.852531    21.598381    7973.3746    4045.4112    2059.8207    1472.5711    136.11008   -124.27397    162.63829 
  106500    221.25529   -3987.0038   -3607.7798   -3987.0038            0    2175.1087    17.714697    20.865573    21.611889     7988.344    2323.8202    2284.6905    1916.8155    414.83849    584.31659    229.58246 
  107000    215.52904   -4003.4079   -3633.9985   -4003.4079            0    1850.2325    17.773149    20.934422      21.6832    8067.6815    1403.8232    4134.1286     12.74588   -556.59209   -6.3208273    231.28126 
  107500    232.07157   -4014.8495   -3617.0867   -4014.8495            0    1848.9044     17.71418    20.864964    21.611258    7987.6444    1370.4064    3477.5888    698.71793    991.98074    207.77572   -382.90166 
  108000    223.18452   -3993.4189   -3610.8882   -3993.4189            0    1550.5315     17.71823    20.869735    21.616199    7993.1249    883.91016    1688.9604    2078.7241    62.691148     688.8768   -734.35527 
  108500      238.595   -4010.6962   -3601.7526   -4010.6962            0    1627.2594    17.786953    20.950681    21.700041    8086.4935    1415.0525    2472.4582    994.26737   -428.92489   -650.38274   -55.336968 
  109000    231.91966     -4029.96   -3632.4576     -4029.96            0    1147.8773    17.744924    20.901176    21.648766    8029.3061    1780.3736     1939.935   -276.67672   -939.87466   -432.35807   -870.57013 
  109500    238.87059   -4038.3709   -3628.9549   -4038.3709            0    1254.6475    17.728441    20.881762    21.628656    8006.9518   -334.19861    2753.9394    1344.2017    1182.3682    256.57916   -607.05708 
  110000    231.59559   -4022.5201   -3625.5732   -4022.5201            0    3005.2989     17.65432    20.794457    21.538229     7906.942    2670.3086    1143.9023     5201.686   -185.28268    469.08313   -662.61624 
  110500    234.72581   -4022.1134   -3619.8014   -4022.1134            0    1887.2132    17.714627     20.86549    21.611803    7988.2491    247.70867    2991.1256    2422.8052    82.448474   -767.12418   -1003.6874 
  111000    241.35866   -4013.4895    -3599.809   -4013.4895            0    1098.1759    17.733474     20.88769    21.634797    8013.7733    1170.4031    1442.0463    682.07834    1098.6807   -344.85762   -329.54594 
  111500    234.45475   -3988.9864    -3587.139   -3988.9864            0    1280.8953    17.661876    20.803357    21.547448    7917.0997    1344.3245    262.78841    2235.5731   -362.56754   -1945.2758    28.920431 
  112000    234.18843   -4018.1215   -3616.7305   -4018.1215            0    1680.0536    17.690419    20.836977     21.58227    7955.5454    1765.8534     1367.125    1907.1825   -413.99877   -956.66157   -1408.6815 
  112500    224.49564   -3999.9554   -3615.1776   -3999.9554            0    1987.0861    17.686574    20.832448    21.577579    7950.3588    2118.3955    2050.0276    1792.8352    1311.7217    2037.6385   -285.13009 
  113000    224.09535   -4003.2682   -3619.1765   -4003.2682            0    838.91091    17.642605    20.780658    21.523936    7891.2115   -258.65785    1767.1864    1008.2042   -472.96955    885.23838   -542.43312 
  113500    225.68981   -4001.9309   -3615.1063   -4001.9309            0    1722.3662    17.732301    20.886309    21.633366    8012.1839    1691.9276    2779.6373    695.53386    209.00381    416.82681   -672.42418 
  114000     234.4792   -3961.9206   -3560.0312   -3961.9206            0    1039.6314    17.697886    20.845772    21.591379    7965.6229    848.72366    2090.0558    180.11475   -610.00163    862.25842   -723.04993 
  114500    220.61262    -3987.869   -3609.7465    -3987.869            0    3050.7357    17.649119    20.788331    21.531884    7899.9562    3697.3968    2579.3251    2875.4853    486.41571    968.07864    120.99607 
  115000    247.08104   -4001.5479   -3578.0594   -4001.5479            0    3585.1003    17.706165    20.855523    21.601479    7976.8069    3873.4348    5040.3069     1841.559    274.37385    1112.0141    1101.7689 
  115500    220.51305   -3977.4836   -3599.5318   -3977.4836            0    2563.7656    17.661836     20.80331    21.547399     7917.046    2286.6081    2654.6187    2750.0702    -729.6636    107.54974     969.8193 
  116000    227.41253   -4001.4674   -3611.6901   -4001.4674            0    2661.1437    17.640961    20.778722    21.521931    7889.0062    3041.1692    2878.1954    2064.0666    137.24435    472.93429   -1256.1252 
  116500    237.39602   -3996.5852   -3589.6966   -3996.5852            0    1788.7392    17.667095    20.809504    21.553814     7924.119    1200.3041     2542.776    1623.1376   -989.78397    924.25952    28.870307 
  117000    241.79702   -4050.4271   -3635.9952   -4050.4271            0    3208.1124     17.60885      20.7409    21.482756     7846.005    2774.4382    3342.8469     3507.052   -268.72204    -488.1055   -644.35993 
  117500     216.5225   -4007.9853   -3636.8731   -4007.9853            0    814.02199    17.649618    20.788919    21.532493    7900.6267   -1103.5929     3575.509   -29.850119   -1016.0166    59.185343   -1139.8076 
  118000    227.59821   -4020.3682   -3630.2726   -4020.3682            0    2129.7303     17.64464    20.783055    21.526419    7893.9428    2383.4733    3519.0582    486.65936   -398.73692    64.348912   -1484.6742 
  118500    223.44219   -3994.3208   -3611.3485   -3994.3208            0     1330.118    17.715351    20.866344    21.612687    7989.2295     2326.561    1339.4158    324.37727    431.27531    303.36696   -1446.9386 
  119000    228.14963   -3981.3874   -3590.3467   -3981.3874            0    2806.5302    17.669145    20.811919    21.556316    7926.8789    1854.4915    4509.6605    2055.4387    364.71839    758.90211   -692.00296 
  119500    235.82463   -4014.0335   -3609.8381   -4014.0335            0    3359.7078    17.620925    20.755122    21.497487    7862.1564    2869.3444    4566.4066    2643.3724   -191.72887    999.38706   -26.313912 
  120000    232.99042   -4018.2949   -3618.9573   -4018.2949            0    3358.3304    17.664036    20.805901    21.550083    7920.0044    4138.4981    4001.2333    1935.2599    708.77231    120.68025   -1822.9864 
  120500    240.83542     -3999.24   -3586.4564     -3999.24            0     2704.037    17.742179    20.897943    21.645417    8025.5804    3424.0266    1697.0919    2990.9926    1085.9528    276.54856    2.4042535 
  121000     232.7584    -4020.587   -3621.6471    -4020.587            0    2643.9079    17.680899    20.825764    21.570656    7942.7089    3253.3235    2231.7782    2446.6219   -1100.6598   -386.23807    710.38427 
  121500    217.26439   -3999.3988   -3627.0151   -3999.3988            0     1536.519    17.675947    20.819931    21.564614    7936.0363     1768.789    336.57885     2504.189    1304.4478   -195.66829     449.0695 
  122000     230.5712   -3978.1884   -3582.9972   -3978.1884            0    1969.2301    17.632731    20.769028     21.51189    7877.9701    3832.9601    1687.6408    387.08959   -663.17969   -153.70882    525.31698 
  122500    236.99316   -3981.5252   -3575.3271   -3981.5252            0    1719.6811    17.682607    20.827775    21.572739    7945.0101    294.84884    865.23704    3998.9573    36.650117   -245.84554   -412.44546 
  123000    220.44213   -4008.7354   -3630.9052   -4008.7354            0    2138.8298    17.616557    20.749977    21.492158     7856.311    3026.8329    807.54195    2582.1145     260.2736     935.3843     168.5157 
  123500    234.66749   -4017.3934   -3615.1814   -4017.3934            0    610.82985    17.640791    20.778522    21.521724    7888.7787    1459.0215     876.4659   -502.99785    490.95768   -18.791742     217.0763 
  124000    230.40518   -3972.2108   -3577.3043   -3972.2108            0    2276.9442    17.662902    20.804565    21.548699    7918.4783    3077.4599    1181.6156     2571.757    941.62446     184.3834   -10.425786 
  124500    225.34984   -3975.1458   -3588.9038   -3975.1458            0    1067.9987    17.713535    20.864205    21.610472    7986.7727    1080.4349    2023.2415    100.31965    -201.2602   -142.38344   -661.51569 
  125000    241.89077   -3967.4565    -3552.864   -3967.4565            0    1183.4401    17.805351    20.972351    21.722486    8111.6121    1756.2679    739.32214    1054.7304    83.390677   -914.51481    141.88878 
  125500    225.87349   -3975.2898   -3588.1504   -3975.2898            0     1815.151    17.726718    20.879732    21.626554    8004.6177    2059.0842    2368.9972    1017.3715   -1.9503232    526.98665   -1490.6314 
  126000    234.98518   -3978.1516   -3575.3951   -3978.1516            0     2617.163    17.631953    20.768112    21.510942     7876.928    3224.2182    3612.0869     1015.184   -863.05157    542.37835    374.22043 
  126500    222.58184   -4018.7225   -3637.2248   -4018.7225            0    2439.7051    17.629458    20.765173    21.507898    7873.5842    1689.7975    3387.6598    2241.6581   -818.98144    138.19956    48.645205 
  127000    231.96127   -3964.7471   -3567.1735   -3964.7471            0    3462.4519    17.668596    20.811272    21.555646    7926.1394    2196.3458    4221.0519    3969.9581    28.272887   -227.91977   -357.11646 
  127500    240.26481   -3989.1048   -3577.2992   -3989.1048            0    1791.8149    17.659102     20.80009    21.544063    7913.3694    1776.1049    1613.4339    1985.9059    491.66906    290.68441   -65.671212 
  128000    234.91451   -3979.0618   -3576.4263   -3979.0618            0    2897.0559    17.672273    20.815604    21.560132    7931.0896    2329.3275     4671.195    1690.6452    759.54437   -908.85329    858.24173 
  128500    227.55308   -4000.5742    -3610.556   -4000.5742            0    1458.4285    17.695328    20.842759    21.588258    7962.1694     847.7347    2073.5993    1453.9515    281.25176    140.83459    1309.6065 
  129000    236.54475   -3972.8771   -3567.4475   -3972.8771            0     2033.143    17.757376    20.915843    21.663957     8046.221    2379.1784    1513.8349    2206.4156    105.94917    995.21843    1276.9327 
  129500    234.70752   -3979.2511   -3576.9704   -3979.2511            0     4225.117    17.606489    20.738119    21.479876    7842.8497    4035.7665    4788.5047    3851.0798   -69.585812    606.68575     1063.138 
  130000    221.41957   -3991.0986   -3611.5931   -3991.0986            0    2243.9146    17.667172    20.809595    21.553909    7924.2237    1784.7487    2978.4016    1968.5935    1166.2066   -226.35097    207.63514 
  130500    243.71873   -3990.0824   -3572.3569   -3990.0824            0     3271.533    17.613189     20.74601     21.48805    7851.8064    2397.1734    5001.6305    2415.7952   -416.74612   -24.036545    -228.3193 
  131000     226.5887   -4018.0227   -3629.6575   -4018.0227            0    1366.9886    17.642889    20.780993    21.524284    7891.5939    2148.5399    773.75154    1178.6744    1679.1803    166.72765   -711.63258 
  131500    227.89822   -3992.1919   -3601.5822   -3992.1919            0    2262.8679    17.696945    20.844664    21.590232    7964.3534    2192.0567    1432.5338    3164.0133    368.93545   -948.07161   -62.306556 
  132000    224.38993   -3961.9319   -3577.3353   -3961.9319            0    3276.4186    17.621468    20.755762     21.49815     7862.884     3481.019    4509.4754    1838.7614   -218.80419    12.197796    246.78391 
  132500      227.539   -3976.8908   -3586.8968   -3976.8908            0    1640.0113    17.662784    20.804427    21.548556    7918.3206    1560.0883     3481.506   -121.56028     909.0743   -57.608361     126.6165 
  133000    229.53727   -4005.2353   -3611.8163   -4005.2353            0    593.36628    17.662889     20.80455    21.548683    7918.4609    72.899946    2918.5504   -1211.3516    269.35573   -620.10549   -693.24581 
  133500    230.74653    -3997.727   -3602.2353    -3997.727            0    1279.6879    17.706855    20.856336    21.602321    7977.7395    151.69474    3913.4163   -226.04738     531.3824   -330.23438   -298.81245 
  134000    223.71012   -4010.6865    -3627.255   -4010.6865            0    2673.0659    17.664759    20.806752    21.550964    7920.9764    1304.4083     3881.867    2832.9224   -771.63331    509.51137     332.0475 
  134500     217.2091   -3978.3267   -3606.0377   -3978.3267            0    2374.0781    17.672507    20.815879    21.560418    7931.4044    2015.3151    2958.9042    2148.0148    317.73402    1610.7177   -1117.8476 
  135000    217.35995   -4016.5465    -3643.999   -4016.5465            0    997.39607    17.644879    20.783336    21.526711    7894.2635   -588.73432     1661.179    1919.7435     1725.949    458.33171   -661.35066 
  135500    218.61364    -4002.994   -3628.2977    -4002.994            0    1121.9515    17.752087    20.909614    21.657505    8039.0337    495.32932    2385.9378    484.58731   -582.23638    283.21342   -505.50511 
  136000    232.52052   -3999.1858   -3600.6536   -3999.1858            0    1927.7491    17.666322    20.808594    21.552871    7923.0793    1010.5926    1821.4608    2951.1941   -814.64724    1438.8987   -1030.6919 
  136500    236.90289   -3981.2711   -3575.2276   -3981.2711            0    2812.1541    17.733905    20.888197    21.635322    8014.3575    726.12954    3511.4126    4198.9203    769.24667   -1323.3367   -119.04698 
  137000    217.55855   -3997.2707   -3624.3828   -3997.2707            0    1919.2893    17.752404    20.909988    21.657892    8039.4648    408.09279    3452.3372    1897.4378    1085.7556   -1288.3974   -722.45833 
  137500    239.21332   -3963.1835   -3553.1801   -3963.1835            0    1589.1962    17.788976    20.953064     21.70251    8089.2538    536.14504    2750.9637    1480.4799   -205.52151    502.62844   -564.90362 
  138000    245.14751   -4030.4638   -3610.2893   -4030.4638            0    2399.8743    17.727235    20.880341    21.627185    8005.3178    2451.7115    2667.0781    2080.8332    581.77544    264.77737   -123.69141 
  138500    231.97964   -3996.3106   -3598.7055   -3996.3106            0    2187.2211    17.703502    20.852387    21.598231    7973.2093    3075.9944    1799.2196    1686.4494    781.48504    191.82033   -807.93648 
  139000    208.47242   -4016.0327   -3658.7181   -4016.0327            0    2340.4732    17.679032    20.823565    21.568378    7940.1929    1274.3709    3500.9907     2246.058    469.87539    369.32418   -673.81333 
  139500    236.07268   -3995.8927   -3591.2722   -3995.8927            0    2867.5474    17.699144    20.847253    21.592914    7967.3218    1206.3257    3603.1457     3793.171   -245.51372   -515.89003   -198.74223 
  140000    226.84755   -3994.7374   -3605.9284   -3994.7374            0    3515.3553    17.665915    20.808115    21.552375    7922.5324    1331.6627    5163.5692    4050.8339    17.733883   -393.70065   -199.16188 
  140500     235.4534   -3978.6841   -3575.1251   -3978.6841            0    2188.1951    17.715192    20.866156    21.612492    7989.0133    3182.1617    1100.3074    2282.1162   -240.06985    8.4653495   -598.76789 
  141000    226.23995   -4016.8515    -3629.084   -4016.8515            0    1100.3637    17.755446     20.91357    21.661603    8043.5982    923.07178    928.38488    1449.6345   -86.117641    347.88452   -1364.9097 
  141500     227.9517   -4011.5036   -3620.8022   -4011.5036            0    1346.3452    17.751155    20.908516    21.656367    8037.7673    1833.8941    876.91787    1328.2238   -186.20688   -237.85167    65.285609 
  142000    225.12903   -4009.2755   -3623.4121   -4009.2755            0    2875.4943    17.730564    20.884262    21.631246    8009.8286    3036.8626    2435.3475    3154.2729    254.67657   -412.27061   -84.309762 
  142500    234.72626   -4000.4869   -3598.1741   -4000.4869            0    314.85276    17.796944    20.962449     21.71223    8100.1278   -2577.5305    796.04174     2726.047    113.61047   -371.97595    168.06204 
  143000    224.20548   -4006.8253   -3622.5447   -4006.8253            0    1123.4565    17.816929    20.985989    21.736611    8127.4464    1431.7671    1272.8297    665.77284   -297.31109   -1515.3473    343.26988 
  143500    227.26409   -4013.6677   -3624.1448   -4013.6677            0    1627.4856    17.754099    20.911984     21.65996    8041.7678    411.22616    3035.2285    1436.0022    1694.0908    417.50242   -93.541216 
  144000    221.55376   -4004.9733   -3625.2377   -4004.9733            0    507.22756    17.767518    20.927789     21.67633    8060.0155     1196.945    460.31808   -135.58036    1550.7591   -399.44792   -710.35483 
  144500    223.38411   -4021.4633   -3638.5906   -4021.4633            0    4726.2128    17.630014    20.765828    21.508576    7874.3296     5171.126    4740.0535    4267.4588    234.05718   -935.97701   -397.89649 
  145000    230.40154   -3995.8073    -3600.907   -3995.8073            0    2140.1201    17.713747    20.864454     21.61073     7987.059     2502.283    2319.9118    1598.1655    12.506484    730.80706   -80.784627 
  145500    232.22485    -4004.398   -3606.3725    -4004.398            0    1240.8933    17.760123     20.91908    21.667309    8049.9564    1399.9434    1946.6489    376.08774    345.13431    259.43527    727.16941 
  146000    231.02394   -4030.8572     -3634.89   -4030.8572            0      2624.01    17.712416    20.862886    21.609106    7985.2586    3260.4857    2602.5608    2008.9835    -159.4246    618.74099     582.7041 
  146500    225.67121   -4003.3585   -3616.5657   -4003.3585            0    987.00403    17.869324    21.047703    21.800534    8199.3601     1066.382    332.46913     1562.161   -1134.0091    -613.8609    528.00388 
  147000     222.4173   -4032.6152   -3651.3995   -4032.6152            0    2135.5966    17.754782    20.912788    21.660793    8042.6958    1677.6197    2660.6835    2068.4866   -552.35501   -480.53823    264.90656 
  147500    228.75874   -4008.0266   -3615.9419   -4008.0266            0    2403.6091    17.760172    20.919137    21.667369    8050.0227    3860.8003    1081.2236    2268.8034    714.18374    17.744855    852.32279 
  148000    213.46282   -4009.1872   -3643.3192   -4009.1872            0    3913.7276    17.645322    20.783858    21.527251     7894.858    3211.1454    3957.2073      4572.83    201.36989   -379.32978   -1299.9407 
  148500    232.25039   -4031.2233   -3633.1541   -4031.2233            0     2056.266    17.704626    20.853711    21.599602    7974.7277    2763.6924    1221.2385    2183.8671    1818.4992   -193.92871    174.70991 
  149000    237.76458   -3998.1944    -3590.674   -3998.1944            0    2758.2141    17.737291    20.892186    21.639453     8018.949    1242.9988    3975.6382    3056.0053   -641.37337   -1703.0551    586.03583 
  149500    233.37208   -4014.8882   -3614.8965   -4014.8882            0    2958.6436    17.677121    20.821314    21.566047    7937.6185    3494.2147    2367.0538    3014.6622    485.39897   -585.45724    1715.5509 
  150000    223.40427   -4011.8169   -3628.9096   -4011.8169            0     2104.549    17.676241    20.820277    21.564973    7936.4327    2263.5233    1509.2417     2540.882     269.4063   -327.57145    1433.7022 
  150500     227.5495   -4019.7294   -3629.7174   -4019.7294            0     3376.076    17.721848    20.873996    21.620613    7998.0226     2382.413    4623.0899     3122.725   -124.12831   -1512.1875    358.05616 
  151000    244.70911   -4026.6269   -3607.2038   -4026.6269            0    1441.9588    17.723327    20.875738    21.622417    8000.0246    1585.4794    2690.3263    50.070748    355.53186    644.67333   -176.77804 
  151500    225.29563   -4019.3816   -3633.2326   -4019.3816            0    3311.1646    17.739724    20.895051    21.642421    8022.2489    2115.0331     4777.314    3041.1467   -323.77008   -818.75855   -29.804161 
  152000    221.26827   -4034.4265   -3655.1803   -4034.4265            0    2729.8948    17.663971    20.805825    21.550003    7919.9169    2056.1749    3813.5989    2319.9105   -1479.1925    -1145.686   -100.55936 
  152500    224.96916   -4038.8645    -3653.275   -4038.8645            0    2443.8868    17.732742    20.886828    21.633904    8012.7816    1867.5327    1975.8905    3488.2372   -1182.0753   -1765.7482    93.902004 
  153000    229.61813    -4032.962   -3639.4044    -4032.962            0    2516.9881    17.768923    20.929444    21.678044    8061.9272    2747.4458    1838.3779    2965.1406    474.28267    438.79426     418.4656 
  153500    229.13115   -4015.3094   -3622.5864   -4015.3094            0    3357.1336      17.7723    20.933421    21.682164    8066.5248    3608.0898    2329.3521    4133.9589   -488.16673   -1639.7074   -467.54664 
  154000    219.69604   -4027.1081   -3650.5566   -4027.1081            0    1900.7015    17.767053    20.927242    21.675764    8059.3833     2591.543    1085.2929    2025.2685   -575.64738   -1238.5081    533.31127 
  154500    222.55743   -4052.7571   -3671.3012   -4052.7571            0    -107.3095    17.800253    20.966347    21.716268    8104.6477   -881.30637    574.20695   -14.829083   -680.89987   -965.71692   -192.57001 
  155000    224.29515   -4025.7563   -3641.3221   -4025.7563            0    2478.6311    17.778787    20.941062    21.690078     8075.361    2637.2833    1352.9864    3445.6237    1839.9155    -265.2047   -238.84324 
  155500    230.60664   -4045.4356   -3650.1837   -4045.4356            0    3083.7314    17.756978    20.915375    21.663472    8045.6804    3195.7818    2800.7889    3254.6234    1202.6878   -525.86538    313.69016 
  156000    221.09301   -4060.4771   -3681.5313   -4060.4771            0    1545.2223    17.826738    20.997543    21.748579    8140.8777    1409.0876    1294.1435    1932.4358   -1110.5202   -907.70055    240.77064 
  156500    228.48179   -4044.9454   -3653.3354   -4044.9454            0    2135.5122    17.806369    20.973551    21.723729    8113.0048    1838.3909    1964.9853    2603.1604    430.40182     433.7239   -567.81432 
  157000    229.57978   -4047.5584   -3654.0665   -4047.5584            0    776.28447    17.868502    21.046735    21.799531    8198.2288    274.71045   -738.46834    2792.6113   -50.059629    334.35911    -23.24349 
  157500    236.89594    -4060.842   -3654.8105    -4060.842            0    2541.6503    17.795984    20.961318    21.711059    8098.8174    1565.1377    2587.1997    3472.6134   -65.408219    541.79543   -1162.8471 
  158000    224.50269   -4028.4062   -3643.6163   -4028.4062            0    2629.1151    17.767985    20.928339      21.6769    8060.6513    2566.6538    2219.0994    3101.5922   -709.45431    55.380771    456.93037 
  158500    220.38129   -4019.3238   -3641.5978   -4019.3238            0    909.71578    17.773296    20.934595    21.683379    8067.8811   -309.07592    1952.8168    1085.4064   -56.247549   -562.64845    732.18057 
  159000     226.7796   -4030.4156   -3641.7231   -4030.4156            0    1878.2841    17.779163    20.941506    21.690537    8075.8738    2878.5494    1743.3329      1012.97    1311.2277    210.33954    9.9563296 
  159500    230.71376   -4019.0099   -3623.5744   -4019.0099            0     1097.227    17.819239     20.98871     21.73943    8130.6086      986.955   -618.86301    2923.5891    1139.7389   -1213.1537   -351.11375 
  160000    227.35376   -3974.9031   -3585.2266   -3974.9031            0    2075.2152    17.783917    20.947105    21.696337    8082.3537    1632.3833    1988.9483    2604.3141   -544.13794    505.55097   -371.65179 
  160500    238.37926   -4040.9946   -3632.4207   -4040.9946            0    2862.4722    17.758698    20.917401    21.665571    8048.0189     2990.588    2260.8378    3335.9909   -412.92938   -1029.7994    918.75278 
  161000    223.17267   -4045.5162   -3663.0059   -4045.5162            0     1527.927    17.812489    20.980759    21.731195    8121.3725    4155.6256   -958.96915    1387.1244    379.78138   -115.24521    73.946119 
  161500    231.08556   -4041.2123   -3645.1395   -4041.2123            0    2773.5623    17.806494    20.973698    21.723881    8113.1746    3594.0898    2874.5383    1852.0588    1116.1557   -1015.0749   -790.52426 
  162000    230.28534   -4034.5934   -3639.8922   -4034.5934            0    3826.1188    17.752975    20.910659    21.658588    8040.2396    4937.9717    2418.5867    4121.7981    151.16552    1134.0493   -780.95672 
  162500    237.48393   -4051.7614   -3644.7221   -4051.7614            0    2010.4295    17.736786    20.891591    21.638838    8018.2646    1449.1779    774.82557    3807.2852    -118.4616   -510.03829    91.789622 
  163000    222.19149   -4020.1696    -3639.341   -4020.1696            0    712.11409    17.828017    20.999049    21.750139      8142.63   -741.11681    969.06633    1908.3928   -1192.5423   -1484.4362    821.81152 
  163500    219.99263   -4054.7276   -3677.6678   -4054.7276            0     1981.564    17.723762    20.876251    21.622948    8000.6142    1471.5018    2403.1164    2070.0738   -605.64218   -180.62402    552.13862 
  164000    225.17329   -4025.6364    -3639.697   -4025.6364            0    1404.3123    17.726007    20.878895    21.625687    8003.6548    1452.7291   -61.112913    2821.3207    220.11739   -714.95733   -35.048665 
  164500    233.32728   -4019.8007   -3619.8857   -4019.8007            0    1749.6511    17.774892    20.936475    21.685326    8070.0548    2908.7496    922.87744    1417.3263    1257.9162    -1200.407   -489.62165 
  165000    222.00673   -4016.3151   -3635.8032   -4016.3151            0     1383.909    17.761114    20.920247    21.668518     8051.304    470.25304    1822.4856    1858.9885    379.88042    618.25969    477.57561 
  165500    225.23956   -4015.4488   -3629.3959   -4015.4488            0    1930.4149    17.780586    20.943181    21.692273    8077.8127    2308.9743    2287.5401    1194.7302    274.00041   -563.50525   -1374.7297 
  166000    226.76226   -4006.8453   -3618.1826   -4006.8453            0    1415.9921    17.829004    21.000212    21.751344    8143.9832    185.13437    2588.7733    1474.0686    212.89787   -126.74567   -148.50131 
  166500    219.73018   -4034.5933   -3657.9833   -4034.5933            0    2454.9959    17.767244    20.927466    21.675996    8059.6422    278.21255    4223.2771    2863.4982    1130.7581   -2002.1636   -98.989472 
  167000    216.03343   -4040.8353   -3670.5614   -4040.8353            0   -555.18454    17.877127    21.056894    21.810053    8210.1061   -177.83916   -1616.6026    128.88819    526.89924   -1254.8531   -1052.8657 
  167500    224.31277   -4032.7398   -3648.2754   -4032.7398            0    1978.9414    17.742076    20.897822    21.645292    8025.4411    2226.2182    1464.0617    2246.5444    457.91665    415.89785    -247.0801 
  168000    249.30259   -4026.0217   -3598.7256   -4026.0217            0    1856.7435    17.732148    20.886128    21.633179    8011.9756    752.76129    3178.6684    1638.8009   -1376.0756    714.03871    487.96783 
  168500    231.24154   -4018.5037   -3622.1636   -4018.5037            0    1650.9414    17.694293     20.84154    21.586996    7960.7732    1360.9581     1989.441    1602.4249    1525.9817   -138.27079   -1151.3021 
  169000     231.1349    -3990.913   -3594.7557    -3990.913            0    2257.4181    17.759481    20.918323    21.666525    8049.0827    320.69024    4682.6366    1768.9275   -602.98681    542.73317   -125.10877 
  169500     220.5193   -4023.4068   -3645.4443   -4023.4068            0    1797.7043    17.739137     20.89436    21.641705    8021.4527    1537.4538    2564.7883    1290.8707   -924.52324    736.88826    313.82283 
  170000    228.18032   -4001.1107   -3610.0174   -4001.1107            0    2863.5859    17.736072     20.89075    21.637967    8017.2965    1096.4688    2848.8427     4645.446    879.41127   -32.805831   -1386.2358 
  170500    224.71162   -4036.7335   -3651.5855   -4036.7335            0    2231.6553    17.798382    20.964143    21.713984    8102.0917    1610.7834    2596.5153    2487.6673   -332.75341    331.19086   -1515.4946 
  171000    218.49064   -3995.3838   -3620.8983   -3995.3838            0    2148.2934    17.756318    20.914597    21.662666    8044.7825    1634.7765    2637.6981    2172.4055     -57.2163    -331.1451    774.69999 
  171500    231.87603   -4038.5087   -3641.0811   -4038.5087            0    2150.0303    17.751919    20.909416      21.6573    8038.8054    2650.6742    2101.8873    1697.5295   -617.77557    102.40246   -895.27751 
  172000    232.80065    -4029.102   -3630.0896    -4029.102            0    1737.8975    17.799912    20.965946    21.715851    8104.1818    2022.7621    1227.6196    1963.3109   -1199.1577    1150.6291    1148.9601 
  172500     237.8777    -4016.067   -3608.3528    -4016.067            0    2208.7194    17.840647    21.013926    21.765548    8159.9486    2176.0045    2284.1807    2165.9731    236.49738   -460.99285   -213.00839 
  173000    220.48943   -4005.8086   -3627.8972   -4005.8086            0    2730.8144    17.812336    20.980579    21.731008    8121.1627    2589.3193    2136.7256    3466.3983   -714.92855      -626.65    935.30845 
  173500    223.84535   -3999.9009   -3616.2376   -3999.9009            0    2264.7741    17.803268    20.969898    21.719946    8108.7666    3221.3739    1171.1325     2401.816   -17.020098    1674.7058    1724.3755 
  174000    220.45615   -4018.9569   -3641.1026   -4018.9569            0    1653.7445    17.812055    20.980248    21.730666     8120.779    2595.7764    844.39384    1521.0633    846.70642    207.07196    1571.9758 
  174500    240.89803   -4017.8216   -3604.9306   -4017.8216            0     2050.573    17.767797    20.928118    21.676671    8060.3955    1961.1488    2599.9521    1590.6179   -453.09323   -742.22233    566.81939 
  175000    237.02086   -4027.8031   -3621.5574   -4027.8031            0    2602.6024    17.759291    20.918099    21.666293    8048.8241    2754.6601     1595.148    3457.9992   -47.387565    1071.7884    1862.0118 
  175500    215.73828   -4033.7984   -3664.0304   -4033.7984            0    3184.6759    17.772645    20.933828    21.682586    8066.9952    2880.9391    3343.0513    3330.0372   -860.94705   -473.52379    361.19186 
  176000    218.22072   -4018.8437   -3644.8209   -4018.8437            0    2361.4671    17.771073    20.931976    21.680667    8064.8542    3083.7987    1814.0454    2186.5572   -63.736565   -213.83675    498.03986 
  176500    230.27572   -4028.7527    -3634.068   -4028.7527            0    2226.3015    17.818997    20.988424    21.739134    8130.2767    1632.7977    2339.3629     2706.744    165.48836   -301.25851   -146.08533 
  177000    226.64641   -3993.8468   -3605.3826   -3993.8468            0    2128.5027    17.830628    21.002125    21.753325    8146.2086    2410.7984    2483.5847    1491.1249   -206.81702    42.328526   -221.22483 
  177500    217.10743   -4005.8707    -3633.756   -4005.8707            0    920.21845    17.792953    20.957748    21.707361    8094.6799    638.22677    407.31715    1715.1114    172.33795    803.88765    493.62506 
  178000    230.63743   -4015.8466   -3620.5419   -4015.8466            0    2495.9363     17.81832    20.987628    21.738309     8129.351    2595.0959    2514.0369    2378.6762    1150.8422    1103.4812    166.79442 
  178500    210.56236   -4032.5941   -3671.6974   -4032.5941            0    2379.5321    17.749619    20.906707    21.654494    8035.6814    1233.6504    3095.2697    2809.6762   -322.05177    882.17328    -892.1232 
  179000    229.02072   -4030.3882   -3637.8546   -4030.3882            0   -23.651786    17.892276    21.074738    21.828535    8230.9957    750.19303   -913.42657    92.278181    1665.2338    502.96662    1122.5318 
  179500    228.50218   -4030.1069    -3638.462   -4030.1069            0    2647.3089    17.747213    20.903873    21.651559    8032.4143    2118.9229    1882.1343    3940.8696    272.05035   -143.43355    423.44024 
  180000    216.22224   -4005.0935    -3634.496   -4005.0935            0    2153.9461    17.756035    20.914263    21.662321    8044.3978    3529.5369    1756.8048    1175.4965   -171.47666   -292.90012   -137.61993 
  180500      232.304   -4031.8645   -3633.7034   -4031.8645            0    2531.5604    17.731677    20.885573    21.632604    8011.3373    2931.1099    1436.2262    3227.3451    467.84564    570.61546    656.74079 
  181000    236.69655   -4035.3814   -3629.6916   -4035.3814            0    3100.1587    17.687106    20.833075    21.578228    7951.0763    2096.8842    2521.1681    4682.4237   -555.70192    -166.6181    958.46154 
  181500    226.95372   -4018.8806   -3629.8897   -4018.8806            0    336.39414    17.753918     20.91177    21.659738     8041.521    617.87301    415.35162   -24.042216    -1117.702    57.623399    1598.0734 
  182000    224.14726    -3995.139   -3610.9583    -3995.139            0    1493.5572    17.751769    20.909239    21.657116    8038.6012     792.2979    1120.1709    2568.2029   -1322.8129    867.61922    1077.3772 
  182500    227.95697   -4025.6269   -3634.9165   -4025.6269            0    1801.5386    17.737596    20.892545    21.639825    8019.3623    1235.0552    1410.8065    2758.7541    331.27235    1503.5852    838.59188 
  183000     228.3927   -4037.3635   -3645.9062   -4037.3635            0    2493.1873    17.718001    20.869464    21.615919    7992.8144    2160.1949    3664.5455    1654.8215   -210.50801    629.46332    16.506825 
  183500     227.4881   -4019.8313   -3629.9244   -4019.8313            0    2288.4207    17.718226     20.86973    21.616195    7993.1197    2318.6741    3926.6306    619.95739      580.731   -485.92308   -315.45399 
  184000    237.29705   -4055.2318   -3648.5128   -4055.2318            0    2136.0649    17.708732    20.858548    21.604612    7980.2779    1347.5406    1553.4019    3507.2522    134.69711    500.64584   -1379.0954 
  184500    240.31652   -4015.6207   -3603.7264   -4015.6207            0    151.27171    17.882848    21.063633    21.817033    8217.9909   -374.51098     655.9097    172.41639    274.74655    250.37441    449.64041 
  185000    235.98511   -4014.0011   -3609.5307   -4014.0011            0    2904.9814    17.693324    20.840398    21.585813    7959.4645    3457.4326    2447.3058    2810.2057   -353.13836    1131.5208   -143.47967 
  185500    237.11679   -4021.3658   -3614.9557   -4021.3658            0    1880.5646    17.747374    20.904063    21.651755    8032.6329    1253.7085    1928.9521    2459.0331    619.10444    457.82881    -639.6005 
  186000    230.52431   -4013.5627   -3618.4519   -4013.5627            0     2814.768    17.716104     20.86723    21.613605    7990.2475    2659.1088    1406.1202     4379.075    855.08194   -974.42492    270.45518 
  186500    211.60554   -4023.8305   -3661.1458   -4023.8305            0    1242.0122    17.841469    21.014893     21.76655    8161.0754    1300.8788     1599.156    826.00173   -573.65213   -662.42165    1145.4002 
  187000    228.29432   -4042.2264   -3650.9377   -4042.2264            0    2271.9913    17.799178     20.96508    21.714955    8103.1784    3233.3216     2589.006    993.64634    657.48451    883.48922   -122.61594 
  187500    230.83553   -4014.7636   -3619.1194   -4014.7636            0    1929.7302    17.740674     20.89617     21.64358    8023.5378    1693.3006    1142.5167    2953.3732   -629.36893    35.666724    787.05866 
  188000    240.90684   -4019.9428   -3607.0367   -4019.9428            0    2405.2523    17.770904    20.931778    21.680462    8064.6251    2966.5869    3112.2162    1136.9538    548.78318    201.84989    409.72534 
  188500    230.34257   -4023.9423   -3629.1431   -4023.9423            0    1346.1567    17.731856    20.885784    21.632823    8011.5803      265.708    879.13912    2893.6229    1579.4297    674.91544    1312.3663 
  189000    218.86171   -4029.8325    -3654.711   -4029.8325            0    2486.6417    17.721037    20.873041    21.619624    7996.9247    4358.1181    838.26877    2263.5384    615.79995    -848.7492   -1069.3531 
  189500    230.39047   -4043.5399   -3648.6586   -4043.5399            0    4257.7146    17.690763    20.837382    21.582689    7956.0091    3492.6794    4716.0738    4564.3905    400.72615    741.80861   -498.69718 
  190000    230.14411   -3966.3896   -3571.9305   -3966.3896            0    2959.1338    17.676632    20.820737     21.56545     7936.959    2541.2076    3483.6164    2852.5773   -1117.9828    147.71657    664.55016 
  190500    234.44439   -3986.2073   -3584.3776   -3986.2073            0     2126.912    17.675531     20.81944    21.564106    7935.4758    2590.5348    3102.8844    687.31685   -621.75995   -626.91192   -49.245413 
  191000    241.69624   -4024.7617   -3610.5026   -4024.7617            0    1971.7957     17.68033    20.825093    21.569961     7941.941    2568.1262    1279.8627    2067.3984   -184.55639   -586.26438   -685.14885 
  191500    213.24842    -4010.342   -3644.8415    -4010.342            0    1745.2556    17.744793    20.901022    21.648606    8029.1282     2293.827    1430.0232    1511.9167    658.81606   -406.38566    -718.1096 
  192000    233.82885   -4023.7852   -3623.0105   -4023.7852            0    2573.8446    17.731916    20.885855    21.632897    8011.6618    2054.8984    2577.8075    3088.8279    1475.2268   -885.69626   -417.56455 
  192500    245.00508    -4002.393   -3582.4627    -4002.393            0    2036.4206    17.748956    20.905926    21.653685    8034.7811    2931.6899    1456.0784    1721.4936    823.45072   -854.29665   -878.75947 
  193000    224.44868   -4004.8791   -3620.1817   -4004.8791            0    2781.6361    17.721078    20.873089    21.619673    7996.9792    4068.0498    1890.6837    2386.1749     490.0208   -854.58865   -366.34815 
  193500     228.8939   -4029.1431   -3636.8268   -4029.1431            0    1659.1551    17.768535    20.928988    21.677572    8061.4002    746.92287    3353.0165    877.52597   -419.87947   -960.88956   -521.40989 
  194000    233.22775   -4012.7795   -3613.0351   -4012.7795            0    788.35586     17.77093    20.931808    21.680493    8064.6597     1440.046    289.56255    635.45899   -1749.3308   -740.21463    44.035807 
  194500    231.01525   -4020.9585   -3625.0062   -4020.9585            0    2778.1312    17.702738    20.851487    21.597299    7972.1768    4345.3448    1834.2319    2154.8168   -16.319753   -958.34107    547.02011 
  195000    227.24281     -4034.26   -3644.7736     -4034.26            0     1833.249     17.78928    20.953422     21.70288    8089.6685    2237.9895    1896.7284     1365.029   -181.78367   -1403.7071   -301.43349 
  195500    243.11152   -4022.1758    -3605.491   -4022.1758            0    1280.4188     17.76887    20.929382     21.67798    8061.8557    1093.5174    1215.7528    1531.9861   -456.71725   -1715.7975    171.25503 
  196000     221.8519   -3996.2164   -3615.9698   -3996.2164            0    1405.1663    17.772713    20.933909    21.682669     8067.088    844.98814    1184.0765    2186.4343    342.23811    -730.1573   -1085.1692 
  196500    235.69026   -4029.5817   -3625.6166   -4029.5817            0    2957.6272    17.718084    20.869563    21.616021    7992.9276    4045.9206    2217.2985    2609.6626   -312.68789    -344.8264    1832.5149 
  197000    232.52671   -4033.5078    -3634.965   -4033.5078            0    2175.7017    17.731806    20.885726    21.632762    8011.5126    3568.4454    629.56828    2329.0913     959.8156   -266.25082    405.40229 
  197500    235.10473   -4048.3285    -3645.367   -4048.3285            0    616.03938    17.799612    20.965592    21.715485     8103.772    1370.1634    681.53028   -203.57555    973.64058   -901.34333   -458.31398 
  198000    237.46494   -4027.5397   -3620.5329   -4027.5397            0    1873.6415    17.696219    20.843808    21.589346    7963.3726    3358.2164    1633.5735    629.13443   -1.3204877   -626.06877   -453.65886 
  198500    234.95373   -4041.9874   -3639.2848   -4041.9874            0    1646.1413    17.763923    20.923555    21.671945    8055.1247    2376.8425    1175.8562    1385.7251   -311.85679    -10.49518   -1413.0563 
  199000    242.82252   -4017.5941   -3601.4046   -4017.5941            0    1281.0139    17.774266    20.935738    21.684563    8069.2029    1543.6993    1086.0105    1213.3318    13.673947   -300.62223    563.83441 
  199500    237.50925   -4032.4125   -3625.3298   -4032.4125            0    2249.5124    17.820623     20.99034    21.741119    8132.5032     2901.434    1682.0181    2165.0852   -95.552663    976.02816   -155.77817 
  200000    236.01933   -4045.9471   -3641.4181   -4045.9471            0    1486.5025    17.777094    20.939069    21.688013    8073.0547    2480.2169    2525.0481   -545.75745   -531.62221   -105.13773   -450.67766 
  200500    229.19701   -4040.4742   -3647.6384   -4040.4742            0    735.35765    17.790466    20.954819    21.704327    8091.2863    1451.2967    856.65049   -101.87424    387.53873     955.1321    -67.22547 
  201000     229.9291   -4030.8578   -3636.7672   -4030.8578            0    2791.7877      17.7496    20.906684    21.654471    8035.6555    2947.3704      2707.87    2720.1227   -633.21943   -65.735918    309.67785 
  201500    233.69995   -4013.9247    -3613.371   -4013.9247            0    3372.2197    17.727596    20.880767    21.627626    8005.8077     4520.633    2656.7175    2939.3085    114.47699   -34.401077    826.87908 
  202000    229.18242   -4010.6113   -3617.8005   -4010.6113            0    1368.1971    17.807295    20.974642    21.724859    8114.2702    3399.9321    683.35626    21.302806    125.99517   -1025.5123    842.45085 
  202500    224.32731   -4012.9256   -3628.4363   -4012.9256            0    1645.9326    17.795965    20.961296    21.711036    8098.7918    2339.5835     2097.515    500.69939    13.999004   -304.94294    397.54097 
  203000    226.74702   -4048.1876    -3659.551   -4048.1876            0    2708.2008    17.713821    20.864541     21.61082    7987.1586    3268.7973    2844.9931    2010.8119    342.96518    262.05046   -385.73417 
  203500    244.08618   -4054.8273    -3636.472   -4054.8273            0    1914.4892    17.750844    20.908149    21.655988    8037.3447    2635.4115    1825.4089    1282.6473   -665.50477   -603.65968   -484.56809 
  204000    229.42327   -4041.0692   -3647.8456   -4041.0692            0     1445.736    17.754036    20.911909    21.659883    8041.6818    2663.9901    1400.5939    272.62383    910.69165   -315.34238    957.98052 
  204500    223.11662   -4040.3986   -3657.9844   -4040.3986            0    2799.2059    17.738001    20.893022     21.64032    8019.9119    2662.1043    1270.4421    4465.0713    277.96222    697.34076   -473.21979 
  205000    235.77589   -4070.8728    -3666.761   -4070.8728            0    1218.5646    17.806995    20.974287    21.724492    8113.8592    1869.2909     1441.244    345.15899    489.35771   -356.22045   -278.77609 
  205500    232.13813    -4010.792   -3612.9152    -4010.792            0    1614.1971    17.774184    20.935641    21.684463     8069.091    1628.8586    1438.4348    1775.2979    56.680761   -226.15275     874.4273 
  206000    216.22345   -4032.5115   -3661.9119   -4032.5115            0    2569.6954    17.717738    20.869156      21.6156    7992.4596     3002.095    2470.4094    2236.5819    -224.5043   -297.98466    318.67015 
  206500    235.76406   -4037.5333   -3633.4418   -4037.5333            0    1835.9238    17.795998    20.961335    21.711076     8098.836    3749.2692    932.35178     826.1506    -114.0444    1350.6607    261.93426 
  207000    225.25932   -4034.2297   -3648.1429   -4034.2297            0    241.33093    17.854976    21.030803    21.783029    8179.6253    652.39975    351.85658   -280.26353   -409.29198    713.92378   -528.45803 
  207500    232.03669    -4033.059   -3635.3561    -4033.059            0    1645.2916    17.814797    20.983477     21.73401    8124.5292    2699.8097    1685.9221    550.14313   -43.682142    1418.8417   -119.00781 
  208000    239.04193   -4043.2773   -3633.5676   -4043.2773            0    1683.2003    17.828451     20.99956    21.750668    8143.2242    1372.8672    2085.5429    1591.1908   -1098.3246   -338.09534    634.30507 
  208500    228.71982    -4050.881    -3658.863    -4050.881            0     1060.973      17.8738    21.052976    21.805995    8205.5234    1877.8526    1080.4943    224.57199    -397.6625   -450.32222     1202.637 
  209000      233.029   -4049.0005   -3649.5968   -4049.0005            0    728.92106    17.848089    21.022691    21.774627    8170.1637    2217.0417     -9.77649   -20.502014   -275.22187    1597.9441    2028.4585 
  209500    229.45621   -4025.9138   -3632.6337   -4025.9138            0    2786.9524    17.833932    21.006017    21.757356     8150.738    5092.8963     2006.879    1261.0818    672.89671   -536.41237    262.11591 
  210000    230.76426   -4006.7293   -3611.2073   -4006.7293            0    2883.9179    17.806387    20.973572    21.723751    8113.0289    4303.4316    2403.7275    1944.5947   -403.64298    736.32673    442.46644 
  210500    233.08814    -3997.173   -3597.6679    -3997.173            0    2348.0462    17.786821    20.950526     21.69988    8086.3138     3196.194     2629.094    1218.8505    573.14956    184.16542   -993.13785 
  211000    231.43345   -4050.5636   -3653.8946   -4050.5636            0    2340.3789    17.754625    20.912603    21.660601    8042.4824    2105.0051    2255.9803    2660.1512    1132.3464   -50.048698    1307.1932 
  211500    237.72687   -4026.8356   -3619.3799   -4026.8356            0    2126.7038     17.71466    20.865529    21.611843    7988.2938    2770.2521    1835.7082     1774.151   -527.96027   -24.216497    1673.5065 
  212000    249.05406   -4058.1925   -3631.3223   -4058.1925            0    3021.8142    17.639305    20.776771     21.51991    7886.7844    1928.9722     4321.567    2814.9033    472.00834     115.8721     1744.213 
  212500    243.42873   -4022.3654   -3605.1369   -4022.3654            0     2670.942    17.693526    20.840636     21.58606    7959.7371    2359.1904    2360.0608    3293.5748   -440.56288    972.49819    359.58833 
  213000    238.21721   -4020.7235   -3612.4273   -4020.7235            0    1305.1909    17.715413    20.866416    21.612762    7989.3128    753.37068    2827.6616    334.54057   -851.82475   -452.35377    -186.0594 
  213500    225.95682   -4049.7231   -3662.4408   -4049.7231            0    688.46913    17.736183    20.890881    21.638102    8017.4465    271.45524     948.1955    845.75667   -1489.5157   -284.49569    1036.2544 
  214000    216.56937   -4031.9007   -3660.7082   -4031.9007            0    213.64061    17.788349    20.952325    21.701744    8088.3976    1048.3011    337.89679   -745.27608    738.74036    -577.9696    550.64466 
  214500     230.6966    -4043.039    -3647.633    -4043.039            0    2525.4593    17.744823    20.901058    21.648643    8029.1695    2033.5061       3080.2    2462.6718   -778.29282    532.67393   -762.21585 
  215000    208.11204   -4052.5002   -3695.8033   -4052.5002            0    2276.8417    17.715771    20.866838    21.613199    7989.7975    1483.9628    1472.3816    3874.1806    1130.0028    630.20957      292.495 
  215500    233.68455   -4033.9077   -3633.3804   -4033.9077            0    1875.7051    17.791056    20.955514    21.705047    8092.0917    1495.2595    1675.7234    2456.1324    1528.1486    217.55387   -432.43332 
  216000    233.27664   -4052.1204   -3652.2922   -4052.1204            0    2471.2014    17.749943    20.907089    21.654889    8036.1217    3630.0387    1662.9466    2120.6188    101.55956    660.92094   -118.89604 
  216500    216.93941   -4013.8583   -3642.0316   -4013.8583            0    1015.4524    17.742266    20.898046    21.645523    8025.6987    377.39257    1596.3572    1072.6074    881.81843    413.36885    111.90225 
  217000    221.77009   -4042.8469   -3662.7406   -4042.8469            0    1271.1895    17.763521    20.923082    21.671455    8054.5779    1920.6257   -3.6587004    1896.6016    1006.9735   -665.88161   -222.08145 
  217500    227.29904   -4000.2873   -3610.7046   -4000.2873            0     2779.792    17.682921    20.828145    21.573122    7945.4337    3024.5177    2111.7528    3203.1056   -730.20594    -346.8539   -169.08875 
  218000    233.80698    -4018.043   -3617.3059    -4018.043            0    1037.9636    17.725525    20.878327    21.625099    8003.0014    1543.6252    1755.2414   -184.97569   -420.70459    676.75449    -812.2695 
  218500    221.51347   -3975.7967   -3596.1302   -3975.7967            0    2987.7868    17.679015    20.823544    21.568357    7940.1692    3252.6545    2141.5219    3569.1839   -1061.2598   -268.27897    149.89254 
  219000    231.61457   -3999.8294   -3602.8499   -3999.8294            0    3091.6555    17.709805    20.859811    21.605921    7981.7282     3807.962    3434.5905    2032.4141    181.20763    466.49607    29.250563 
  219500    232.75057   -3983.5249   -3584.5983   -3983.5249            0    2595.0536    17.720144    20.871989    21.618535    7995.7157     1904.266    5421.8157    459.07903     422.4414    470.23341    425.03042 
  220000    228.37588   -4035.9497   -3644.5212   -4035.9497            0    3403.4766    17.692894    20.839892     21.58529    7958.8852    3757.1104    4074.5989    2378.7207    -16.70552     777.8206   -1085.9354 
  220500    223.87325   -4023.3202   -3639.6092   -4023.3202            0    1735.9586    17.717637    20.869036    21.615476    7992.3223    1643.1136    1254.3872     2310.375    528.12088   -102.99729    59.731615 
  221000     228.2074   -4017.6962   -3626.5565   -4017.6962            0    2199.5181    17.710482    20.860609    21.606747    7982.6436    3945.1441    1468.0398    1185.3705    346.29707    568.29933   -807.89565 
  221500    211.82287   -4029.8606   -3666.8034   -4029.8606            0    1035.6735    17.709339    20.859263    21.605353    7981.0985    205.89502    1152.1996    1748.9258   -540.63163   -912.85165   -444.86027 
  222000    237.41053   -4038.1987   -3631.2852   -4038.1987            0     2110.067    17.654687    20.794889    21.538677    7907.4357    3020.5651    515.57226    2794.0636    570.31567    717.71987    426.25971 
  222500    230.21159   -3990.7906   -3596.2158   -3990.7906            0    1653.0808    17.724383    20.876982    21.623706    8001.4547    1158.2009   -313.52116    4114.5626    633.99933    649.52271   -703.56724 
  223000    231.52422   -4027.2566   -3630.4321   -4027.2566            0    3497.4366    17.543635    20.664085    21.403194    7759.1534    2601.2703    4160.2983    3730.7412     668.8227    842.95662   -113.12421 
  223500    235.99624    -4008.526   -3604.0365    -4008.526            0    1113.1637    17.686888    20.832818    21.577962    7950.7823    1376.5413    534.75191    1428.1977    405.73731    307.75373    -674.5184 
  224000    224.83282   -3999.6969   -3614.3412   -3999.6969            0    1867.5077    17.655552    20.795908    21.539732    7908.5972    1647.6092    690.28401    3264.6297   -211.01637    956.67053   -919.26895 
  224500    231.47122   -4020.4539   -3623.7202   -4020.4539            0    1305.5169    17.680192    20.824931    21.569793    7941.7558    2066.8332    1208.5189    641.19854   -321.32846    61.754172    554.17728 
  225000    223.51359   -4009.0936   -3625.9989   -4009.0936            0    3779.2199    17.578093    20.704672    21.445232    7804.9633    4745.0698    3340.0937    3252.4961    436.77387    499.06863   -285.76734 
  225500    248.55696    -3994.444   -3568.4259    -3994.444            0    2923.6684    17.649726    20.789046    21.532624    7900.7713    2593.9883    1599.1399    4577.8771    437.35961   -830.40477    679.89321 
  226000    228.48027    -3985.987   -3594.3796    -3985.987            0    3396.5505     17.58063    20.707659    21.448327    7808.3427    4176.8108    3349.9953    2662.8454    30.251675   -171.00822  -0.88421174 
  226500    234.50223   -3988.8899   -3586.9611   -3988.8899            0    1590.5076    17.665883    20.808077    21.552336    7922.4894    2261.5578    1924.8548    585.11032   -224.88447    956.60219   -30.590397 
  227000    237.39638   -3945.7851   -3538.8958   -3945.7851            0    1820.5063    17.688107    20.834254     21.57945     7952.427    2925.7845     471.8727    2063.8618   -16.773547     1144.533   -371.71398 
  227500    232.34573    -3976.714   -3578.4813    -3976.714            0    3294.8339    17.595259    20.724891    21.466174     7827.851    3047.7577    3770.2041      3066.54   -1709.2064   -145.59409   -126.27543 
  228000      235.285   -3974.6851   -3571.4147   -3974.6851            0    2107.5338    17.612644    20.745368    21.487385    7851.0776    2810.5613    2111.4992    1400.5409   -1126.0403   -431.48991   -458.53752 
  228500    224.22826   -3956.7462   -3572.4267   -3956.7462            0    1993.5596      17.6084    20.740369    21.482207    7845.4033    3783.3311    2338.2398   -140.89212    -694.9908   -426.84836   -250.69426 
  229000    233.23391   -3968.1267   -3568.3717   -3968.1267            0    1089.0717     17.59858    20.728802    21.470226    7832.2841    341.16637    2251.0847    674.96391   -74.985242    1432.5602   -119.33156 
  229500    238.54112   -3998.4477   -3589.5964   -3998.4477            0    1696.8448    17.625954    20.761045    21.503622    7868.8898    3474.5778   -522.97717    2138.9338   -1253.8385    800.38065   -293.11024 
  230000    237.77873   -3970.6177   -3563.0731   -3970.6177            0    2304.7993    17.605926    20.737455    21.479189    7842.0971    3373.6568    2406.2107    1134.5305    215.37372   -420.84068    379.73822 
  230500    233.84929   -3983.1978   -3582.3881   -3983.1978            0     868.6686    17.714226    20.865019    21.611315    7987.7074    1362.9698     1563.371   -320.33499   -629.47147   -594.07527   -386.11112 
  231000    225.54238   -3950.5133   -3563.9414   -3950.5133            0    3395.3132    17.587142     20.71533    21.456272    7817.0234    2416.0852    3610.3774     4159.477   -935.77426    533.25569    612.73159 
  231500    235.66708   -3986.5723    -3582.647   -3986.5723            0    2150.7749    17.656312    20.796803    21.540659    7909.6187    1896.1768     3340.966    1215.1817    735.29987   -122.99944   -1054.6192 
  232000    236.00447   -3993.4167   -3588.9131   -3993.4167            0    2427.3528    17.654638    20.794831    21.538617    7907.3692    3824.8045     2045.247    1412.0068    553.24931     -188.398    840.97246 
  232500    223.53499   -3955.5069   -3572.3755   -3955.5069            0    3355.8312    17.652715    20.792566    21.536271    7904.7857    3853.9858    2434.8369    3778.6708   -956.79833    505.84085    767.36132 
  233000     224.6921   -3995.7623   -3610.6478   -3995.7623            0     2029.198    17.624472      20.7593    21.501815    7866.9057     2658.831     1052.748     2376.015   -715.53273   -836.57788    835.17614 
  233500    236.13978   -3982.4295    -3577.694   -3982.4295            0    2427.3705    17.580268    20.707234    21.447886    7807.8613     2973.018      1555.57    2753.5235    1318.7584    672.82817   -818.27519 
  234000    225.58653   -3942.4387   -3555.7911   -3942.4387            0    2212.5404    17.668395    20.811035    21.555401    7925.8689    1049.4425    3360.4519    2227.7268    432.49294    352.04841   -308.42852 
  234500    233.75413   -3983.4741   -3582.8275   -3983.4741            0    1050.8487    17.692892     20.83989    21.585287    7958.8822    607.81221    1418.1124    1126.6215    832.85224    1146.1721    586.88278 
  235000    223.95599   -3990.2909    -3606.438   -3990.2909            0    2857.7414    17.626762    20.761998    21.504609    7869.9731    3633.4523    2199.1354    2740.6366    176.78969    423.21831   -1314.5887 
  235500    227.92583   -4015.5381   -3624.8811   -4015.5381            0    2747.3136    17.655712    20.796097    21.539928    7908.8134    2371.0153    3474.5694    2396.3562   -621.38928    502.40683    216.51194 
  236000     231.0102   -4008.1231   -3612.1795   -4008.1231            0    2965.5309    17.625243    20.760208    21.502755     7867.938    4046.5812    972.11591    3877.8956    1328.2545   -384.61641   -356.50403 
  236500    221.60126   -4015.4175   -3635.6005   -4015.4175            0     1033.436    17.667233    20.809667    21.553983    7924.3054     2089.506    102.11436    908.68772    53.564605    548.71861   -996.29802 
  237000    225.34207   -3998.1471   -3611.9185   -3998.1471            0    882.74257    17.695749    20.843255    21.588773    7962.7384    53.954651    363.86358    2230.4095    1362.9026   -326.80407   -374.98561 
  237500    229.46193    -4021.378   -3628.0881    -4021.378            0    2965.7103    17.650449    20.789897    21.533506    7901.7422    2814.4957    2493.3186    3589.3167    728.00678    792.19239   -1607.0494 
  238000    233.58341   -4000.6626   -3600.3086   -4000.6626            0    1855.9013    17.685229    20.830864    21.575938    7948.5455    3354.5668    589.85235    1623.2846     840.2499    1199.1332    444.51273 
  238500    222.87312   -3999.5382   -3617.5413   -3999.5382            0    3041.0245    17.621871    20.756236    21.498641    7863.4228    3284.9484    2124.9213    3713.2037   -692.49616    -984.6478   -1214.5002 
  239000    227.95996   -4006.4953   -3615.7797   -4006.4953            0    1155.2615    17.722191      20.8744    21.621032    7998.4868    301.30089    977.31184    2187.1719    169.10933   -607.99334   -742.28526 
  239500    243.63236   -3999.3967   -3581.8192   -3999.3967            0    885.43971    17.720738    20.872689    21.619259    7996.5196    1683.9498     686.0238    286.34552   -264.59838    340.97134   -512.31963 
  240000    228.67799   -3991.8137   -3599.8675   -3991.8137            0    2089.3059    17.689775    20.836219    21.581485    7954.6768    1409.1198    2651.9576    2206.8405    1413.4634    925.57117    443.67792 
  240500    227.79631   -3986.8513   -3596.4162   -3986.8513            0    2044.5418    17.680146    20.824877    21.569737    7941.6943    1957.3217    1284.8113    2891.4924    491.53224   -1332.7897       520.17 
  241000    212.83649   -4000.4669   -3635.6724   -4000.4669            0    1785.9077    17.756771     20.91513    21.663219    8045.3981     1368.118    1254.7914    2734.8138    1399.7959    190.74417    -37.97805 
  241500    231.88513    -3960.504   -3563.0608    -3960.504            0    1210.7628    17.679143    20.823696    21.568514    7940.3427    2195.5203    598.19178    838.57646   -680.24228    939.47626   -330.44789 
  242000    229.81924   -3983.4791   -3589.5767   -3983.4791            0    1910.4872      17.6932    20.840253    21.585663    7959.2982    1950.5792    2452.3464    1328.5358    1096.2897    1066.9145    551.86438 
  242500    238.23809   -3982.6928   -3574.3608   -3982.6928            0    2910.7006    17.609354    20.741493     21.48337    7846.6781    3341.9818    2624.2589    2765.8611    1438.3553    84.131061   -726.47958 
  243000    240.48563   -3988.8541     -3576.67   -3988.8541            0    2488.2146    17.591833    20.720855    21.461995    7823.2797    3198.1082    396.70335    3869.8321   -267.07045   -37.394235   -101.46441 
  243500    229.61732   -3999.9955   -3606.4392   -3999.9955            0    2317.8032    17.649879    20.789226    21.532811    7900.9762    1733.2994     1806.487    3413.6231   -1610.9869   -700.15367    -38.06828 
  244000    233.72095   -4005.6098   -3605.0201   -4005.6098            0    2104.7746    17.661732    20.803187    21.547272    7916.9052    3658.4886    415.85639    2239.9788    58.441505   -598.34375    -454.2338 
  244500    235.69557   -3975.5058   -3571.5316   -3975.5058            0    1534.9717    17.627307    20.762639    21.505273    7870.7023    2693.6712    771.37679     1139.867   -17.246088   -629.85591    573.37483 
  245000    241.78977   -3991.0021   -3576.5827   -3991.0021            0    199.63615    17.704104    20.853096    21.598966    7974.0227    1123.0356   -604.74745    80.620318   -313.05035    863.14172    124.02022 
  245500    230.03826   -3983.7872   -3589.5095   -3983.7872            0    2119.8465    17.572541    20.698132    21.438459    7797.5699    1314.2822    1222.9283    3822.3291   -97.286315    390.98266   -1002.0125 
  246000    228.67644   -3986.6303   -3594.6867   -3986.6303            0    1722.3641    17.642457    20.780484    21.523756    7891.0136    1782.7767    1086.4411    2297.8747   -1321.1347    1055.8261    1088.2454 
  246500    228.55741   -3986.0215   -3594.2819   -3986.0215            0    2721.2721    17.652276     20.79205    21.535736    7904.1966    3591.8628    1767.5016    2804.4519    314.98089     1457.345    180.70378 
  247000    234.83542   -4011.5347   -3609.0349   -4011.5347            0    1658.3728    17.699156    20.847267    21.592928    7967.3377    2023.7043    198.59984    2752.8143   -116.64094    1152.7571   -993.95574 
  247500     225.3441   -3990.9804   -3604.7483   -3990.9804            0    2449.9401    17.598734    20.728984    21.470414    7832.4904     1822.567    2996.6514    2530.6017   -230.08118   -231.43308    -578.4491 
  248000    229.59533   -3967.3229   -3573.8043   -3967.3229            0    1279.6083    17.671423    20.814603    21.559095    7929.9453    1197.5483   -281.77538     2923.052   -796.86018    240.67398   -675.39203 
  248500    216.37296   -4013.2342   -3642.3784   -4013.2342            0    1420.7822    17.692717    20.839684    21.585074    7958.6463    540.40547    1797.7282    1924.2129    285.05591    441.48786   -575.43295 
  249000    213.73657   -3994.4024   -3628.0653   -3994.4024            0    1373.6863    17.657565    20.798279    21.542188    7911.3031    1312.0046    877.90435      1931.15   -60.668788   -345.44495    -276.5902 
  249500    233.25673   -4016.5021    -3616.708   -4016.5021            0      537.277    17.752338    20.909909    21.657811    8039.3743    365.94436    -2.835306    1248.7219    648.48788    304.45483    91.635237 
  250000    254.39088   -4014.5681   -3578.5508   -4014.5681            0    412.29204    17.705687    20.854961    21.600897    7976.1615    413.51509    -737.4962    1560.8572   -528.58576    837.10498   -389.28744 
  250500    244.63822   -4020.5734   -3601.2719   -4020.5734            0    1880.7162    17.702462    20.851161    21.596962    7971.8032    1662.6224    818.89015    3160.6361   -524.04557    510.87378   -382.20303 
  251000    240.00651   -3971.7153   -3560.3524   -3971.7153            0    3122.9293    17.649638    20.788942    21.532517    7900.6531     3259.393    2779.9797    3329.4154     -2357.66     553.0597   -8.2297429 
  251500    225.74797   -3981.7819   -3594.8576   -3981.7819            0    2115.4457    17.701059     20.84951    21.595251    7969.9088    2469.9789    2215.6219    1660.7362    95.684954    429.61146   -124.39326 
  252000    226.90037   -4001.6962   -3612.7967   -4001.6962            0    1470.2977     17.65042    20.789863    21.533471    7901.7032    524.31013    2242.5597    1644.0234    359.76698   -141.78548   -1027.5408 
  252500    231.45738   -3980.8634   -3584.1533   -3980.8634            0    2624.9895    17.645432    20.783988    21.527386     7895.006    3641.4233    2491.4743     1742.071    768.81892   -680.77215   -164.44486 
  253000    228.32304   -3975.6332   -3584.2953   -3975.6332            0    2224.8747    17.640977    20.778741    21.521951    7889.0278     2753.921    2399.6485    1521.0546    1121.0805    -72.22144   -452.86382 
  253500    232.86173   -3969.4368   -3570.3197   -3969.4368            0    1045.6331    17.662176    20.803711    21.547814    7917.5028    1575.1885   -872.90936    2434.6202   -683.36969    -1094.544   -1664.9405 
  254000    233.17271   -3965.1236   -3565.4736   -3965.1236            0    1913.0269    17.610764    20.743154    21.485091    7848.5634    2224.1242    542.21288    2972.7437   -548.40432   -1093.8199   -303.48321 
  254500    238.67006   -3966.6599   -3557.5876   -3966.6599            0    2287.8976    17.668486    20.811142    21.555511    7925.9908    5399.4881    461.54073    1002.6639    1070.1257   -1169.0077    510.92815 
  255000    233.89441   -4017.2291   -3616.3421   -4017.2291            0    2530.0191    17.688052    20.834188    21.579382    7952.3517    3097.3259    2317.1963    2175.5352    1229.1671    586.85202  -0.43641698 
  255500    219.96249   -4009.1548   -3632.1466   -4009.1548            0     923.7537    17.776205    20.938021    21.686928    8071.8432    1678.5859    1314.7037   -222.02843   -573.46859    90.478937   -54.702491 
  256000    239.96214   -3986.4561   -3575.1692   -3986.4561            0    2119.0959    17.717003    20.868289    21.614702    7991.4645    2422.8638    863.37945    3071.0445    530.74988   -617.15223    67.228198 
  256500    231.40609   -3981.8999   -3585.2778   -3981.8999            0    2611.8141    17.702648    20.851382     21.59719    7972.0558    2826.2847    1598.9085    3410.2492    612.57835    520.54325     -286.109 
  257000    225.76412   -3991.7459   -3604.7939   -3991.7459            0    2344.8004    17.625855    20.760929    21.503502    7868.7576    3537.6222    1514.0304    1982.7488    23.306888   -970.98026     667.9283 
  257500    219.13453   -3985.3021    -3609.713   -3985.3021            0    1321.9541    17.753573    20.911364    21.659318    8041.0532    567.68836    1308.7229    2089.4509   -25.977691    650.87726    1134.1728 
  258000    224.50201   -3979.9871   -3595.1983   -3979.9871            0    2316.0448    17.758304    20.916937     21.66509    8047.4832    1938.4874    1322.9076    3686.7392    162.74987    1071.7022   -894.79765 
  258500    250.43049   -4017.0626   -3587.8333   -4017.0626            0    232.35955    17.727617    20.880792    21.627652     8005.836   -585.01596    1141.2571    140.83748    294.68256    158.47857    112.96359 
  259000    217.63845   -4017.5529    -3644.528   -4017.5529            0    2488.6954    17.731432    20.885284    21.632305    8011.0049    3126.6098     952.4022    3387.0743    327.62048     60.71169   -933.98837 
  259500    224.91836    -3998.948   -3613.4456    -3998.948            0   -85.025097    17.752263    20.909821     21.65772     8039.273    714.17218   -1562.8751    593.62765    656.49836    405.20623   -295.76191 
  260000    218.94744   -4017.5299   -3642.2614   -4017.5299            0    1910.6244    17.702414    20.851106    21.596904    7971.7393    1497.5906    1873.3084    2360.9743    319.86568    33.269228   -577.59963 
  260500    230.77169   -3980.8517   -3585.3169   -3980.8517            0    1570.8656    17.742003    20.897736    21.645202    8025.3414    1639.4374    610.56905    2462.5904    878.84033    409.89809     229.6208 
  261000    220.96228   -4018.1326   -3639.4108   -4018.1326            0    1780.5411    17.740648     20.89614    21.643549    8023.5028    2342.7683    1617.9975    1380.8575    666.13406   -95.082998    625.12361 
  261500    227.86572   -4013.5804   -3623.0264   -4013.5804            0    1668.7945    17.744591    20.900785     21.64836    8028.8548    1926.6188    1797.7704    1281.9942   -789.47793    891.83094    -783.7578 
  262000    238.71401   -4034.3475   -3625.1999   -4034.3475            0    1691.3239    17.715689    20.866742    21.613099    7989.6867    2676.6896    661.13957    1736.1426     469.5438   -277.87888   -115.35847 
  262500    233.64961   -4003.9069   -3603.4395   -4003.9069            0    1987.3761    17.681436    20.826396    21.571311    7943.4325     2579.469    1262.2859    2120.3734    451.50722    487.56007    1238.8205 
  263000     230.7447   -3997.8109   -3602.3224   -3997.8109            0    2648.7704    17.744788    20.901016    21.648599    8029.1211     3130.504    2171.9411     2643.866    792.73035   -126.47706   -10.364821 
  263500    240.70018   -3977.7493   -3565.1974   -3977.7493            0    1233.5018    17.737223    20.892106    21.639371    8018.8574    1845.0687    1235.2679    620.16876   -129.62669   -751.10285    965.57408 
  264000     232.2184    -3983.706   -3585.6916    -3983.706            0    2043.2858    17.694088    20.841299    21.586747    7960.4968    2709.0839    642.68972    2778.0839    -524.8738   -166.10546   -225.38608 
  264500    227.48007   -4002.2551    -3612.362   -4002.2551            0    2253.8035     17.64136    20.779191    21.522418    7889.5413    2531.7388    2559.8949    1669.7767    706.25484    549.18691   -349.99046 
  265000    224.79051   -3981.0088   -3595.7255   -3981.0088            0    480.12742    17.683492    20.828818    21.573819    7946.2032   -325.17531    175.56491    1589.9927   -12.115128    671.92011    125.95837 
  265500    230.18537   -4008.9769   -3614.4471   -4008.9769            0    2135.6928    17.720863    20.872836    21.619412    7996.6894    1675.4882    2579.7132    2151.8769    150.21469   -271.70636   -569.61224 
  266000     232.9465   -4006.2059   -3606.9436   -4006.2059            0    1940.8239    17.713732    20.864437    21.610712    7987.0392    2179.0443    3387.9987    255.42871    622.62619     41.88814    516.86312 
  266500    238.14194   -3972.5174   -3564.3502   -3972.5174            0    2229.8813    17.767031    20.927216    21.675737    8059.3533    1567.9485    3077.7011    2043.9944    595.12268    491.07816    1600.7403 
  267000    228.24346   -4017.1524   -3625.9509   -4017.1524            0    1851.7946    17.748982    20.905957    21.653717    8034.8163    2520.9409    1304.0389    1730.4041    424.94622    273.91731     988.7236 
  267500    243.54447   -3996.7134   -3579.2865   -3996.7134            0    765.22354    17.830973    21.002531    21.753746    8146.6814    15.219888    864.95975     1415.491   -364.27894    502.85894   -588.61605 
  268000    236.57799   -3990.6583   -3585.1717   -3990.6583            0    2015.6848    17.642581     20.78063    21.523907    7891.1794    2899.7812    2357.4256    789.84749    57.232492    311.86413   -471.35023 
  268500    212.01167   -3984.0096   -3620.6288   -3984.0096            0    1912.4694    17.692017    20.838859    21.584219    7957.7008    2735.0393    2168.0061    834.36263    791.26095   -223.93041    994.63927 
  269000    229.15714   -3989.8912   -3597.1238   -3989.8912            0    1253.0737    17.794099    20.959098    21.708759    8096.2439    1099.0128    1835.0961    825.11225    538.68323  -0.27770708   -44.947304 
  269500    223.18386   -3936.1155    -3553.586   -3936.1155            0    4300.2547    17.728343    20.881647    21.628538    8006.8198    2845.3951    4799.5503    5255.8186    -135.9184    -40.72893   -1897.8097 
  270000    236.69919    -3982.148   -3576.4537    -3982.148            0    2094.7886     17.77799    20.940124    21.689106    8074.2753    1831.2559    1299.0108    3154.0991   -57.378987    -218.7142     118.7405 
  270500    224.66124    -3990.461   -3605.3993    -3990.461            0    3134.3462    17.780148    20.942666     21.69174    8077.2167    2965.0981    2712.2753     3725.665   -820.27973    233.23995    802.25153 
  271000    231.91619   -3994.6067   -3597.1103   -3994.6067            0     722.2582    17.847913    21.022483    21.774412    8169.9213    921.68841   -158.74624    1403.8324    -589.7201   -866.42065    838.54777 
  271500    232.29289   -3970.4978   -3572.3557   -3970.4978            0    1955.7293     17.81833    20.987639    21.738321    8129.3642    2607.3835    1010.6014    2249.2029    360.67856   -591.20123    171.98797 
  272000    232.84982   -3962.3267   -3563.2301   -3962.3267            0    940.18499    17.767897    20.928236    21.676793    8060.5317    1899.9228   -994.65186     1915.284    149.02194    576.41485    -487.9073 
  272500    244.71761   -3978.7638   -3559.3262   -3978.7638            0    1795.8598    17.654521    20.794694    21.538474    7907.2123     3565.177    1123.9271    698.47539   -398.16136    85.001808      382.977 
  273000    234.66069   -3981.8499   -3579.6495   -3981.8499            0    966.00018    17.701691    20.850253    21.596021    7970.7619    486.09577    718.79505    1693.1097    950.48836    246.77446    190.36025 
  273500    238.95153   -3996.7923   -3587.2375   -3996.7923            0    1286.0437     17.70297     20.85176    21.597582    7972.4903    1291.5758    1522.6803    1043.8748    1202.0672   -1217.6535    427.33936 
  274000    245.10928   -3982.2297   -3562.1208   -3982.2297            0    2586.0228    17.670061    20.812998    21.557434    7928.1119    2147.9672    2587.7004    3022.4009   -117.31683    46.494982    139.78062 
  274500    240.06661   -3974.3172   -3562.8513   -3974.3172            0    1450.4302    17.678441    20.822868    21.567657    7939.3964    1502.2774    894.04045    1954.9728    323.77714     322.1378     58.36902 
  275000    220.02688   -3971.5104   -3594.3918   -3971.5104            0    2297.5365    17.699186    20.847303    21.592965    7967.3784    2153.2346    1717.2256    3022.1493    265.89699    89.314959   -985.46983 
  275500    223.88456   -3994.6257   -3610.8953   -3994.6257            0    1623.3504    17.678394    20.822812    21.567599    7939.3324    1569.0711    1180.4069    2120.5732   -1147.6103   -441.73176   -879.97153 
  276000    237.20761   -3962.2643   -3555.6986   -3962.2643            0    2975.4998    17.706035    20.855371    21.601322     7976.632    2798.1983    2574.0475    3554.2534    948.98945   -1385.4385    499.15609 
  276500    230.34415   -3979.6603   -3584.8583   -3979.6603            0    1441.6553    17.748249    20.905093    21.652822    8033.8203    1878.1832    951.34132    1495.4415    633.79082    752.70201    640.72246 
  277000    235.05481   -3962.9437   -3560.0678   -3962.9437            0    2309.5537    17.651977    20.791697    21.535371    7903.7949    2284.2262    2829.9995    1814.4354   -62.066384    158.73598    516.11388 
  277500    231.45896   -3992.5057   -3595.7929   -3992.5057            0    1312.1668    17.737614    20.892567    21.639848    8019.3876    1547.0619    383.43296    2006.0056   -1061.8792    530.77604      958.436 
  278000    233.18604   -3995.0188   -3595.3459   -3995.0188            0    3322.7651    17.662284    20.803838    21.547946    7917.6484    2941.3318    4568.1121    2458.8513   -163.12064   -1280.5043   -973.09345 
  278500    231.73834   -3986.2389   -3589.0473   -3986.2389            0   -786.46614    17.808287     20.97581    21.726069    8115.6264   -385.38532   -760.13919   -1213.8739    419.64323   -955.92405    873.89163 
  279000    228.99406   -4006.2807   -3613.7927   -4006.2807            0    2183.3319     17.67548    20.819381    21.564045    7935.4078    2362.7518    1805.5196    2381.7241    1206.1686   -432.46942   -813.63334 
  279500    220.27587   -3969.4507   -3591.9054   -3969.4507            0    978.35004    17.738205    20.893263    21.640569    8020.1894    675.28007   -454.17115    2713.9412   -871.46478    37.545695    1671.2193 
  280000    238.72268   -4017.5699   -3608.4074   -4017.5699            0    1706.7959    17.735104     20.88961    21.636785    8015.9832    1704.6427    1074.0226    2341.7225    1243.3326   -159.53181    -854.5552 
  280500    239.18815   -4022.0556   -3612.0953   -4022.0556            0    1532.2904    17.763132    20.922623    21.670979    8054.0479    1494.9383    834.79476    2267.1382    52.290881    105.34491    432.95162 
  281000    234.49103   -4003.2538   -3601.3442   -4003.2538            0    1803.6856    17.743412    20.899396    21.646922    8027.2543    2372.5878     433.2128    2605.2563    593.86371    839.73432    228.09716 
  281500    236.15417   -3976.4621   -3571.7019   -3976.4621            0    3263.4133    17.661151    20.802503    21.546563    7916.1245    1334.1217    3696.8994    4759.2189     177.1605   -1069.2329    903.07565 
  282000    216.53089   -3971.0338   -3599.9073   -3971.0338            0    1517.6242    17.758466    20.917127    21.665287     8047.703    2175.4654    647.51665    1729.8906    213.84572   -179.64232   -579.80857 
  282500     222.0778   -3968.7342   -3588.1005   -3968.7342            0    1407.6287    17.702112    20.850749    21.596535    7971.3305    2267.9195    520.11966    1434.8469    -132.4513    -887.3954    1027.7226 
  283000    217.97542    -3980.413   -3606.8106    -3980.413            0    3668.3546    17.622663    20.757169    21.499608    7864.4835    4252.4627    1650.4729    5102.1282    373.71587     487.8052   -921.48849 
  283500    214.35154   -3970.3164   -3602.9252   -3970.3164            0    3710.9227    17.664509    20.806459     21.55066    7920.6408    3549.8412     3248.823    4334.1039    639.26575     224.6792     1346.388 
  284000    217.72697   -3995.0171   -3621.8405   -3995.0171            0    904.75492    17.737032     20.89188    21.639137    8018.5975   -863.70537    781.31705    2796.6531    1064.6192   -234.75313   -151.43461 
  284500    244.41914   -3969.8812   -3550.9552   -3969.8812            0    -470.4792    17.872032    21.050893    21.803837    8203.0885   -425.32661   -1263.2035    277.09248   -90.645243   -735.79927    899.15071 
  285000    229.95518   -4009.5589   -3615.4236   -4009.5589            0    1656.9745    17.758351    20.916992    21.665147    8047.5468    1645.7509    1399.3868    1925.7857   -389.22188   -864.59013    1497.3485 
  285500    225.15309   -3986.1644   -3600.2597   -3986.1644            0    524.27082    17.794589    20.959675    21.709357    8096.9125    1253.1796   -72.782922     392.4158    375.59389   -85.918224   -623.43231 
  286000    220.82981   -4025.8738   -3647.3791   -4025.8738            0    590.76083    17.768899    20.929415    21.678015    8061.8945     2071.582   -1534.3836    1235.0841    787.05917    -843.3492    605.09637 
  286500    243.03805   -4002.7562   -3586.1973   -4002.7562            0    2404.4344    17.666991    20.809381    21.553687    7923.9792   -804.43707     4001.817    4015.9233    535.70754   -437.61852    84.556691 
  287000    224.68741   -4007.0301   -3621.9235   -4007.0301            0    3655.5669    17.690089    20.836588    21.581868    7955.1004    5251.6922    2559.7393    3155.2692   -756.22265    854.19055    -112.0488 
  287500    235.12476   -3980.8989   -3577.9031   -3980.8989            0    1797.6479    17.734067    20.888389    21.635521    8014.5779    1168.7753    2360.1605    1864.0079    1192.0056   -1.5811718   -568.02057 
  288000    210.22269   -4021.1007   -3660.7862   -4021.1007            0    2465.6125    17.595964    20.725721    21.467035    7828.7923    2315.4277    2478.5767     2602.833    672.89426    -919.3454     1027.015 
  288500    215.30422   -3999.1573   -3630.1332   -3999.1573            0    1492.4187    17.746059    20.902514    21.650151    8030.8471    849.96328    979.87313    2647.4198   -326.29494    -596.8955    464.62682 
  289000    228.00173   -3975.2752    -3584.488   -3975.2752            0    2537.2034    17.709582    20.859548    21.605648    7981.4261    3035.6676    508.22649    4067.7162     65.36797    342.17315    726.76809 
  289500    232.66663   -4000.4399   -3601.6572   -4000.4399            0      3812.59    17.657335    20.798009    21.541908    7910.9947    3276.7962     4733.358    3427.6158    521.52888   -333.36118    816.73974 
  290000    243.92861    -4005.568   -3587.4827    -4005.568            0    1569.2878    17.743432    20.899419    21.646945    8027.2804    1540.8467   -438.99099    3606.0077   -134.06356    135.34707    183.14816 
  290500    223.82712   -4003.4321   -3619.8001   -4003.4321            0    318.92865    17.687901    20.834011    21.579198    7952.1489    613.03124    140.45326    203.30145    2020.8429    497.93036    1088.1963 
  291000    246.07951   -3990.2231   -3568.4513   -3990.2231            0     960.9762    17.715717    20.866775    21.613134    7989.7248   -1168.2595    2564.9828    1486.2053    725.58118   -840.65539    827.66376 
  291500    225.57036   -3973.5161   -3586.8962   -3973.5161            0    1767.9081    17.691326    20.838045    21.583376    7956.7687    1442.0814    2010.7277    1850.9153    854.37875     1199.906     931.6112 
  292000    227.02641   -4019.4637   -3630.3482   -4019.4637            0    2813.0527    17.629954    20.765757    21.508503    7874.2486    2834.1586    3079.2032    2525.7963   -1940.2825    104.62393    369.10282 
  292500    229.64826   -4018.2782   -3624.6689   -4018.2782            0    2937.8679    17.638299    20.775586    21.518683    7885.4351    3671.2929    2661.3086    2481.0022    1188.2233   -475.11584   -303.19131 
  293000    204.01494   -4027.4616   -3677.7869   -4027.4616            0    3397.0658     17.67916    20.823715    21.568534    7940.3646    4201.5789    3665.8305    2323.7881     913.1681     -1202.68    749.53386 
  293500     235.4821   -4012.0455   -3608.4372   -4012.0455            0     2891.367    17.680857    20.825715    21.570605    7942.6524    3506.4325    3785.6616     1382.007   -1218.6567     1325.371    417.74349 
  294000    226.91391   -4029.9707    -3641.048   -4029.9707            0    1256.9146    17.720393    20.872283    21.618838     7996.053    1849.6433    1064.5996    856.50076    702.25856   -418.86954   -192.11861 
  294500    216.71987   -3989.5401   -3618.0897   -3989.5401            0    1783.0943    17.788893    20.952966    21.702408    8089.1404     238.7613    1258.1127    3852.4089   -210.35321   -87.509474   -484.93286 
  295000    235.89862   -4022.4817   -3618.1595   -4022.4817            0    2458.3571    17.744119    20.900228    21.647783    8028.2129    2047.6568    1803.3555    3524.0592   -471.29496    -0.318764    161.64415 
  295500    232.78558   -4005.1072   -3606.1206   -4005.1072            0    2660.5919    17.671137    20.814266    21.558746    7929.5601    2831.6645    3041.0174    2109.0938    1033.8813   -367.08403    626.08576 
  296000    226.63751   -4019.3092   -3630.8602   -4019.3092            0    4083.7832    17.629614    20.765356    21.508088     7873.793    4487.0924    4495.1047    3269.1525     492.0798    879.15619   -185.43254 
  296500    221.07865   -4009.2059   -3630.2847   -4009.2059            0    2251.3356    17.705385    20.854605    21.600529    7975.7537    1771.1687     1615.412    3367.4259   -357.01356   -829.20556    347.04812 
  297000     226.0665    -3992.127   -3604.6568    -3992.127            0    2763.6058    17.685697    20.831415    21.576509    7949.1761    4425.7864    2046.5695    1818.4615    119.26409    32.981336    380.47887 
  297500    233.20899   -3995.2998   -3595.5875   -3995.2998            0    2120.5108    17.748004    20.904805    21.652524    8033.4882    2572.9228    2785.4172    1003.1925    118.45108    536.99899   -1034.0057 
  298000    233.90315   -4015.0282   -3614.1262   -4015.0282            0    1329.8361    17.711163    20.861411    21.607578     7983.565    638.39283    945.28059    2405.8348   -1021.3514     534.8349    325.83428 
  298500    241.57439   -4023.0942    -3609.044   -4023.0942            0    689.44685    17.700046    20.848316    21.594015    7968.5402    1098.0215   -479.23465    1449.5537   -752.56863    442.00185   -967.35522 
  299000    230.80228   -4027.2721   -3631.6849   -4027.2721            0    858.43681    17.706507    20.855926    21.601897    7977.2698    1103.8207    717.63271    753.85705    608.39736    368.74195    89.802888 
  299500    221.72166   -4016.8297   -3636.8063   -4016.8297            0    2892.6792    17.679676    20.824322    21.569163    7941.0597    2967.6309    3609.8558    2100.5511   -291.68905   -185.93943    -560.4245 
  300000    234.90711   -4026.3401   -3623.7174   -4026.3401            0    3400.7792    17.664009     20.80587     21.55005    7919.9685    5213.8606    3070.9056    1917.5713   -317.81111   -364.51707   -591.21816 
  300500    233.49028   -4045.4412   -3645.2469   -4045.4412            0    1556.2783    17.676865    20.821012    21.565734    7937.2736    1689.7542    800.00247    2179.0781    474.80525    374.32076    207.83576 
  301000    221.34707   -4024.3438   -3644.9625   -4024.3438            0    887.70911    17.754248    20.912159    21.660141      8041.97    1211.2865    811.68917    640.15171    899.64439    1216.4659   -411.54025 
  301500    245.57399   -4028.5343   -3607.6288   -4028.5343            0    1682.0469    17.650157    20.789554    21.533151    7901.3507    373.35742    3460.9719    1211.8113   -2065.6825    782.95687   -60.257812 
  302000    230.22035   -4012.2325   -3617.6427   -4012.2325            0    3159.6194    17.612465    20.745157    21.487166     7850.838    3043.1272    3285.6439     3150.087    1001.3066   -1449.7566    645.32667 
  302500     233.9174   -4043.5044    -3642.578   -4043.5044            0    2393.2231    17.611779    20.744349    21.486329    7849.9206    1074.1603    3181.8912    2923.6178   -689.40931    847.43563   -309.33944 
  303000    227.79587   -3991.2145   -3600.7802   -3991.2145            0     1625.844    17.675498    20.819402    21.564067    7935.4324     750.4585     3217.928    909.14563     419.0035   -355.61981    1015.8731 
  303500    241.89042   -4023.7863   -3609.1944   -4023.7863            0    3072.8474    17.623159    20.757753    21.500213    7865.1473    4217.0858    3616.5747    1384.8817    682.79459    -1814.934    951.58469 
  304000    228.65369   -4033.0619   -3641.1573   -4033.0619            0     1512.717    17.636878    20.773912     21.51695    7883.5296    1126.4123    2154.6818     1257.057    907.36996    -547.7699    105.91476 
  304500    230.55329   -3996.9149   -3601.7544   -3996.9149            0    2100.6278    17.675871    20.819841    21.564521    7935.9344    1710.4165    2566.8122    2024.6546   -486.33145   -1009.3229   -112.10691 
  305000    242.19227   -4025.7943   -3610.6851   -4025.7943            0    2739.1588    17.575965    20.702165    21.442636    7802.1291    2334.4991    2767.8503    3115.1271   -438.08011   -1399.0528      60.5663 
  305500    235.41337   -4012.9718   -3609.4814   -4012.9718            0    935.68104    17.632473    20.768724    21.511576    7877.6241   -239.10807    2825.9475    220.20367   -1174.5022    196.23467    369.83256 
  306000    226.06698   -4002.0851   -3614.6141   -4002.0851            0    2931.0638    17.581834    20.709078    21.449796    7809.9472    3190.1866    2876.0274    2726.9773   -255.75747    -516.4676    317.55674 
  306500    228.65294   -4005.6199   -3613.7166   -4005.6199            0    2876.7062    17.583246    20.710741    21.451519    7811.8292    3794.6934    2015.9947    2819.4304    1042.5749    204.78967   -891.86818 
  307000    221.89522   -3975.6261   -3595.3053   -3975.6261            0    1487.2032    17.624205    20.758986    21.501489    7866.5486    1936.4432   -454.06548     2979.232    552.82543   -403.57529   -996.00857 
  307500    224.53847   -4002.4261   -3617.5748   -4002.4261            0    1972.3781    17.653661    20.793681    21.537425    7906.0571    1869.9404    1842.5189     2204.675    1423.0854    338.63886    1817.0899 
  308000    230.37676   -4006.7601   -3611.9022   -4006.7601            0    1621.1954    17.636323    20.773258    21.516272    7882.7852    2948.5596    620.70912    1294.3175    1864.5667   -20.243168   -699.65142 
  308500    238.39227   -3996.7379   -3588.1417   -3996.7379            0    1836.4505    17.597387    20.727398    21.468771    7830.6924    1567.1905    2314.7029     1627.458    851.46437    1084.0285   -1037.8792 
  309000    233.88911   -4009.9456   -3609.0677   -4009.9456            0     2633.377     17.58087    20.707943    21.448621    7808.6632    2968.5361    2315.2683    2616.3265    1190.9341   -2093.8426   -95.029812 
  309500    235.60803   -4020.5714   -3616.7473   -4020.5714            0    1421.1498    17.740369    20.895811    21.643209    8023.1245    1128.6584    1768.0809    1366.7102    291.34667   -129.85238    814.19576 
  310000    237.05739   -3996.1524   -3589.8441   -3996.1524            0      1659.91    17.734332      20.8887    21.635843    8014.9361    2580.7556    2138.2854    260.68886    180.00123     616.9611   -1383.4083 
  310500    243.52186   -3972.6035   -3555.2154   -3972.6035            0    2010.8285    17.702299     20.85097    21.596764     7971.584    2804.5848    1405.4649    1822.4359   -187.23931    607.76432     755.6463 
  311000     231.2354   -4010.3622   -3614.0327   -4010.3622            0    64.158749    17.706561     20.85599    21.601963    7977.3427    153.87496   -1624.3676    1662.9689    1105.4141    -25.07516   -194.83583 
  311500    228.41377   -4005.2502   -3613.7568   -4005.2502            0    2254.1019    17.661215    20.802579    21.546641    7916.2107    3017.8624    2167.9511     1576.492   -198.84238    290.88054   -772.73029 
  312000    229.98441   -3992.2261   -3598.0407   -3992.2261            0    1806.2727    17.666679    20.809014    21.553307      7923.56    2308.2453   -146.76724    3257.3402   -165.55621    239.70984   -480.93094 
  312500      223.511   -4014.5558   -3631.4656   -4014.5558            0    2368.4147     17.63264     20.76892    21.511779    7877.8478     3089.432    1978.6712     2037.141    800.41516       446.49   -1675.8165 
  313000    225.75059   -3995.9732   -3609.0444   -3995.9732            0    1747.2785    17.664941    20.806968    21.551187     7921.222    2561.0885    2232.3249    448.42214    -172.9293    417.07444   -530.66761 
  313500    234.52107    -4033.718   -3631.7569    -4033.718            0    2290.5158    17.708764    20.858584     21.60465    7980.3201    1785.8509    1760.5223    3325.1742   -5.8456229    1029.9242    213.58437 
  314000    240.13887   -3990.8142   -3579.2244   -3990.8142            0    3778.8292    17.604465    20.735735    21.477406     7840.145    2784.9747    4202.4157    4349.0971    2356.7628    170.70725    389.30397 
  314500    235.72585   -3995.5237   -3591.4977   -3995.5237            0    604.25614    17.675298    20.819167    21.563823    7935.1628    1798.6527   -982.54585    996.66154   -374.78032    137.87218   -964.62857 
  315000    224.72702   -4007.9309   -3622.7564   -4007.9309            0     1773.676    17.701462    20.849984    21.595742     7970.453   -6.3739114    1631.4419    3695.9599    958.51477    753.11501   -1364.6142 
  315500    242.73415   -4015.5213   -3599.4832   -4015.5213            0    1508.1827    17.679977    20.824677    21.569531    7941.4658    1926.9652    659.19176     1938.391   -1179.4864    1056.7688    289.14831 
  316000    237.85941   -3999.9121   -3592.2292   -3999.9121            0     2905.815    17.642812    20.780902    21.524189    7891.4895     2684.138    2441.2206    3592.0864    406.33596    1014.2077   -120.60397 
  316500    228.20728   -4008.3863   -3617.2468   -4008.3863            0    2682.8407    17.660966    20.802285    21.546337    7915.8754    4234.6951    2546.7682    1267.0589     551.4031    107.96322   -596.77755 
  317000    221.87342   -4021.0526   -3640.7691   -4021.0526            0    1329.7587    17.680927    20.825796    21.570689    7942.7456    3047.0995    1643.4397   -701.26319    420.64603   -293.81136    952.95155 
  317500    223.71261   -4039.1148   -3655.6791   -4039.1148            0    2750.6538    17.649763     20.78909     21.53267    7900.8211    2400.4074     2884.459    2967.0951    723.69343   -222.63552   -1140.4764 
  318000    224.90647   -4012.4193   -3626.9373   -4012.4193            0    851.47987    17.699117    20.847222    21.592881    7967.2857    1086.1731    639.23282    829.03364    1748.5528    859.44002   -1201.0328 
  318500    229.40659   -4014.6527   -3621.4576   -4014.6527            0    3593.7315    17.615508    20.748742    21.490879    7854.9081    3360.4617    4343.8794    3076.8533    592.67969   -1012.9291   -345.48445 
  319000    241.35719   -4027.8263   -3614.1483   -4027.8263            0    3655.5335    17.641571    20.779441    21.522676    7889.8252    4784.7071    3799.3804    2382.5129    305.03697   -1268.8156    270.45116 
  319500    226.42403   -4030.1395   -3642.0565   -4030.1395            0    2129.8349    17.736487    20.891239    21.638473    8017.8588    2124.7586     2236.353     2028.393    136.36836    332.85646   -233.70608 
  320000    232.12994   -4010.5064   -3612.6437   -4010.5064            0    3060.2504    17.676255    20.820293    21.564989     7936.451    2505.1234    1941.6964    4733.9313   -442.03203   -466.18738   -1550.7614 
  320500    245.63035    -4057.148    -3636.146    -4057.148            0    2187.9419    17.689808    20.836257    21.581524    7954.7203    1684.4418    1549.9941    3329.3897    599.30242     -4.27499   -1485.4719 
  321000    221.56666   -4043.4458   -3663.6881   -4043.4458            0    1304.2213    17.753201    20.910926    21.658864     8040.547    1323.4098    1163.4935    1425.7606    582.20003   -1309.7762   -929.59129 
  321500    224.83867   -4035.1369   -3649.7711   -4035.1369            0    2051.8936    17.761156    20.920295    21.668568    8051.3601    1068.3421    2136.4417     2950.897    -725.2702   -525.63512   -1471.2727 
  322000    241.38266   -4013.1165   -3599.3949   -4013.1165            0    1814.2861    17.730313    20.883967    21.630941    8009.4891    2016.5521    1414.5522     2011.754   -1111.6618    106.93143    30.741483 
  322500    234.66564    -4040.866   -3638.6572    -4040.866            0    1858.3431    17.706453    20.855863    21.601831    7977.1968    1991.3886    1448.9046    2134.7361    311.37635    733.61427   -1251.7602 
  323000    230.00618   -4013.4202   -3619.1975   -4013.4202            0    2048.6103    17.756585    20.914911    21.662992    8045.1453    2811.1734    2200.5609    1134.0965    1329.1038    281.33606   -731.89672 
  323500    232.68615   -4014.0639   -3615.2478   -4014.0639            0    1514.5752    17.716159    20.867295    21.613672    7990.3219    1359.9623    2825.3866    358.37677    1062.3328   -993.04175   -1388.1542 
  324000    225.26172   -4032.3831   -3646.2922   -4032.3831            0    2459.7942    17.679297    20.823877    21.568701    7940.5497    1781.3831    3784.3238    1813.6757   -1073.1741   -633.92043    739.06595 
  324500    236.85116   -4018.3338   -3612.3791   -4018.3338            0    3424.1926    17.660678    20.801946    21.545986    7915.4886    2044.6845     3284.913    4942.9802    640.25622   -316.12753   -739.85647 
  325000    227.20416   -4011.6327   -3622.2125   -4011.6327            0    3261.6314    17.671417    20.814595    21.559088    7929.9367    3693.0281    2698.0807    3393.7853   -602.34312   -373.91533    263.82386 
  325500    236.09959   -4003.0502   -3598.3835   -4003.0502            0    449.19636     17.66515    20.807213    21.551442    7921.5029    694.81846   -72.788178    725.55881   -150.90081   -910.93992   -924.01593 
  326000     220.8666   -4002.7452   -3624.1874   -4002.7452            0    1884.3331    17.661822    20.803294    21.547382    7917.0268    1941.1645    1602.0092    2109.8254    955.51922   -350.19161    26.690286 
  326500    228.62031   -3996.2277   -3604.3803   -3996.2277            0    1621.8852      17.7391    20.894317     21.64166    8021.4029    2532.8111    1828.9821    503.86247   -1466.1726    -766.3949   -1026.0768 
  327000     238.3916   -3987.3477   -3578.7526   -3987.3477            0    2354.8436    17.705665    20.854934     21.60087    7976.1313    1943.3053    1436.1608    3685.0646    -219.5391   -1150.5124    1049.7624 
  327500    216.62067   -3991.5515   -3620.2711   -3991.5515            0    1435.1008     17.72145    20.873527    21.620128    7997.4836    980.39721    1246.4296    2078.4755   -557.30809    48.395607   -349.44838 
  328000      234.605   -3976.6396   -3574.5346   -3976.6396            0    2179.0681    17.727834    20.881047    21.627917    8006.1302    2612.9186     1202.186    2722.0998   -27.104957    270.66017    288.39079 
  328500    235.46494    -3985.686   -3582.1072    -3985.686            0    1260.2089    17.681607    20.826598    21.571519    7943.6627    209.59598    1543.2733    2027.7573    -779.1241   -1154.5425    418.76666 
  329000    234.86551   -3992.1167   -3589.5653   -3992.1167            0     596.8282    17.747152    20.903801    21.651484    8032.3311    327.94624    508.91291    953.62546   -700.07717    -1133.083    980.60677 
  329500    218.73722   -3997.2157   -3622.3076   -3997.2157            0    2126.1053    17.651643    20.791304    21.534963    7903.3459    2410.3739    1687.5985    2280.3434    230.92772    322.90538   -346.13982 
  330000    227.48604   -3982.7976   -3592.8943   -3982.7976            0    1820.8371    17.658173    20.798996     21.54293    7912.1208    1802.5896     1729.036    1930.8858    725.17253   -1387.9656    345.24974 
  330500    238.00373   -3995.9908   -3588.0605   -3995.9908            0    1748.6126    17.659009     20.79998     21.54395    7913.2445    3597.6334    417.15214    1231.0522    737.53298     -1193.12   -1067.6564 
  331000    227.23416   -3997.6292   -3608.1577   -3997.6292            0    772.44992    17.727558    20.880722     21.62758    8005.7562    526.11169    1118.3517    672.88636    393.62686    381.85419    513.55899 
  331500    231.69105   -3967.7694   -3570.6589   -3967.7694            0    1061.8339    17.710693    20.860857    21.607004    7982.9285    177.63467    1996.3775    1011.4895   -573.24545    297.78289    1562.8734 
  332000    242.68029   -3994.9518    -3579.006   -3994.9518            0    1347.5976    17.686543    20.832411    21.577541     7950.317    3529.4244    927.43525   -414.06673    136.09238     92.26149   -293.66681 
  332500    231.50909   -3961.9222   -3565.1236   -3961.9222            0    2074.2585    17.600791    20.731407    21.472924     7835.237    133.70645    4682.6662    1406.4029   -472.68091   -918.22135   -1224.8513 
  333000    240.74558   -4012.9884   -3600.3587   -4012.9884            0    1585.0297    17.596149    20.725939    21.467261    7829.0394    3251.6918    654.01297     849.3844    149.45456    698.68322   -984.40871 
  333500    236.49079   -3964.7934   -3559.4563   -3964.7934            0    1434.5617     17.63818    20.775446    21.518538    7885.2761    1837.5476    1558.4528    907.68478    171.86572    116.74587   -710.38274 
  334000    241.30455   -3992.7599   -3579.1722   -3992.7599            0    3649.0583    17.580614    20.707641    21.448308    7808.3216    4292.2077    3819.8986    2835.0684    86.558647   -1100.1833    1107.7912 
  334500     234.5529   -3997.0319   -3595.0162   -3997.0319            0    2420.3289     17.57091    20.696211    21.436469    7795.3984    3569.4203     1207.018    2484.5483   -299.60861    258.22579   -528.45763 
  335000      223.931   -4013.2692   -3629.4591   -4013.2692            0    159.75752    17.667275    20.809716    21.554034    7924.3615      786.224   -813.30481    506.35336   -217.49813    55.483184     136.7235 
  335500    241.72045   -3979.7414   -3565.4408   -3979.7414            0    2075.1382    17.602309    20.733194    21.474775     7837.264    3207.6356    2685.7122    332.06693    634.84354    112.89398    -732.3847 
  336000    235.90182    -3962.958   -3558.6304    -3962.958            0    3229.1588    17.572694    20.698313    21.438646     7797.774    1282.0435    4486.6518    3918.7811    872.09219    246.90213   -1069.9782 
  336500    238.36211   -4005.5059   -3596.9614   -4005.5059            0    3583.8323    17.543005    20.663342    21.402425    7758.3173    2350.4622    3557.1421    4843.8925   -69.364415    -567.2229   -1222.4301 
  337000    236.48861   -3993.1052   -3587.7718   -3993.1052            0    727.84711     17.64803    20.787048    21.530555    7898.4937    1346.4955    964.54377   -127.49796   -419.63607   -1391.7708    131.74876 
  337500    241.14514   -3990.3162   -3577.0017   -3990.3162            0    2205.6483    17.603125    20.734156    21.475772    7838.3548    3459.3476    2080.7415    1076.8559    211.07138    33.351271   -661.23531 
  338000    213.21714   -4007.1856   -3641.7387   -4007.1856            0    1105.1863    17.620556    20.754688    21.497038    7861.6635    1604.7921     1782.616    -71.84906   -180.94624   -273.50529    179.95831 
  338500    220.96389   -3986.8429   -3608.1183   -3986.8429            0   -635.60497    17.666566    20.808881    21.553169    7923.4072      117.679    486.72846   -2511.2224   -1415.1903   -313.21637    630.40529 
  339000    244.94197   -4011.1662    -3591.344   -4011.1662            0    2781.3472     17.61856    20.752336    21.494602    7858.9913      2396.02    3137.9654    2810.0562    624.79894    178.41491   -851.55054 
  339500    219.38866    -3993.534   -3617.5094    -3993.534            0    962.54318    17.647542    20.786473     21.52996    7897.8386    1235.7548    1593.4231    58.451679    27.355266    773.41236   -123.49973 
  340000    234.23626   -3980.9194   -3579.4465   -3980.9194            0    1948.6406    17.689923    20.836393    21.581665    7954.8767    2634.0928    1850.0321    1361.7969   -28.672693   -390.17821   -777.56555 
  340500     223.2913   -3955.2693   -3572.5556   -3955.2693            0    1029.4982    17.683103    20.828359    21.573344    7945.6787    2088.9222    174.50672    825.06583    634.86256   -682.67533   -79.871386 
  341000    233.54332   -3993.1726   -3592.8873   -3993.1726            0    2017.5417    17.649578    20.788872    21.532444    7900.5731    1745.4178    1589.0268    2718.1807    1169.5781    415.73805   -462.31478 
  341500    229.83873   -4002.5449   -3608.6092   -4002.5449            0    2357.8621    17.683683    20.829043    21.574052    7946.4611    1408.3148    3485.0088    2180.2626    722.95325   -607.00096    491.43646 
  342000    217.74723   -3981.0382   -3607.8269   -3981.0382            0    749.01476    17.692978    20.839991    21.585392    7958.9979    735.81225    428.88406     1082.348   -369.25054   -398.08542   -632.27528 
  342500    220.87228   -4004.6002   -3626.0326   -4004.6002            0    2311.1853    17.717641     20.86904     21.61548     7992.327    2846.4734    2030.6018    2056.4807   -215.83362    274.62918    1157.8995 
  343000    215.37451   -3987.0552   -3617.9106   -3987.0552            0    1991.5577    17.720152    20.871999    21.618545    7995.7268    1686.8641    3042.1486    1245.6605    173.22956    503.48984    451.43688 
  343500    231.85989   -4021.9493   -3624.5494   -4021.9493            0    2125.1827    17.618997    20.752851    21.495135    7859.5757    2184.5787    2155.1348    2035.8347    -272.4095    304.71902    406.47604 
  344000    228.84503   -4011.7917   -3619.5592   -4011.7917            0    344.79079    17.755977    20.914195     21.66225    8044.3191    117.28822    704.29923    212.78493   -471.76152    630.83939   -225.24983 
  344500     224.3497   -4015.2123   -3630.6846   -4015.2123            0    2305.2594    17.713871      20.8646    21.610881    7987.2267    3631.1766    733.27465     2551.327     722.5332   -917.57288   -306.06699 
  345000    228.77204   -4024.4208   -3632.3133   -4024.4208            0   -81.750875    17.815433    20.984227    21.734787       8125.4    1193.8034   -227.36168   -1211.6943    284.87339   -868.33249    578.29676 
  345500    240.74319   -4041.6115   -3628.9859   -4041.6115            0    1872.8215     17.72521    20.877956    21.624715    8002.5748    2791.1396    1205.7995    1621.5256    393.24538    30.430327   -197.88429 
  346000    225.86095   -4001.0275   -3613.9095   -4001.0275            0    1044.4091    17.757572    20.916075    21.664197     8046.488    1812.0373    616.85869    704.33138    258.25372   -1389.9337    116.74644 
  346500    232.34813   -4036.4813   -3638.2446   -4036.4813            0    1352.6151    17.720675    20.872615    21.619182    7996.4344    1009.2886    1426.5843    1621.9723   -1075.6036   -662.58466     592.2896 
  347000    227.03237   -4000.9534   -3611.8277   -4000.9534            0    3279.8644    17.691628    20.838401    21.583745    7957.1761      4432.88     2486.911    2919.8021   -351.11812   -226.53916   -577.48004 
  347500    225.18723   -3994.4512    -3608.488   -3994.4512            0     1657.187      17.7193    20.870995    21.617505    7994.5731    957.31204     1502.548    2511.7009    1065.5749   -948.53488   -338.42168 
  348000    222.02365   -4036.7609   -3656.2199   -4036.7609            0      2548.14     17.65635    20.796848    21.540706    7909.6705    2822.1833    2814.2634    2007.9735   -187.39826   -1386.6678   -790.25559 
  348500    219.96326   -4025.1107   -3648.1012   -4025.1107            0    1975.5105    17.721908    20.874067    21.620686    7998.1036    4042.2344    1226.0173    658.27988    685.13836   -296.34296   -904.08382 
  349000    215.99013    -4033.625   -3663.4253    -4033.625            0    2357.5257    17.615756    20.749034    21.491182    7855.2404    1805.9064    3725.9532    1540.7174    36.511402    33.564545   -36.541995 
  349500    236.30577   -3975.1141   -3570.0941   -3975.1141            0    2389.3725    17.661824    20.803296    21.547384     7917.029    3413.4948    1840.4236    1914.1989    892.97836   -130.38867   -961.50905 
  350000    236.31381   -3997.9979   -3592.9641   -3997.9979            0    1743.6307    17.732526    20.886574    21.633641    8012.4889     1033.471    1958.3983    2239.0228   -601.68411    414.43115   -362.28968 
  350500    236.18925   -3999.3793    -3594.559   -3999.3793            0    2195.4057    17.732056     20.88602    21.633067    8011.8511    2621.1781    1858.0946    2106.9445   -332.03444    826.38815    199.14713 
  351000    237.83603   -4033.3508    -3625.708   -4033.3508            0    925.93537    17.690932    20.837581    21.582896    7956.2377     397.0917    740.56289    1640.1515    1147.8574    61.020678   -244.56553 
  351500    241.70542    -4032.189   -3617.9142    -4032.189            0    1306.5202    17.699528    20.847706    21.593382    7967.8402    1296.1616    1656.7542    966.64494    677.10677    -919.9616   -579.50591 
  352000    233.87092   -4002.7237    -3601.877   -4002.7237            0    550.43355    17.742837    20.898718     21.64622    8026.4736    184.91792    590.64978    875.73294    540.82785   -49.102157    576.11467 
  352500    236.47197   -4030.3321   -3625.0273   -4030.3321            0    2691.0018    17.638643    20.775991    21.519103    7885.8966    2741.6213    2430.8866    2900.4977    718.84816    561.87766   -1360.9376 
  353000    215.39512   -4005.6558   -3636.4759   -4005.6558            0    723.03528    17.763103    20.922589    21.670944     8054.009    1027.8562    587.21233    554.03729     9.079307    894.62484   -671.12672 
  353500    231.19556   -4039.4546   -3643.1933   -4039.4546            0     2436.143    17.694192    20.841421    21.586873    7960.6366    1741.2125    1869.1552    3698.0612   -996.34538    1377.0547   -1149.6223 
  354000    234.35145   -4016.7869   -3615.1165   -4016.7869            0    1713.2014    17.724993      20.8777     21.62445    8002.2808    1468.1893    1020.0075    2651.4074   -498.25989   -25.556204      -464.89 
  354500    224.17159   -3977.9997   -3593.7773   -3977.9997            0    692.77732    17.716247    20.867399     21.61378    7990.4417   -27.613484    303.44777    1802.4977   -410.09831    120.97916    -1032.451 
  355000     241.7235   -4020.9979   -3606.6921   -4020.9979            0    1887.9885    17.716466    20.867657    21.614047    7990.7374    724.73213    1919.8347    3019.3987   -626.64209     899.4529   -765.51322 
  355500    226.82406   -4005.7128   -3616.9441   -4005.7128            0    69.937235    17.700881      20.8493    21.595034    7969.6687   -488.74974    1193.5157   -494.95427   -30.698546   -1101.1963   -1413.8744 
  356000    236.08359   -4004.4323   -3599.7931   -4004.4323            0    1695.3967    17.693805    20.840965      21.5864    7960.1135    1872.9978    2927.2174     285.9749   -1799.5094   -920.10834   -633.89176 
  356500    226.80143   -4002.2584   -3613.5285   -4002.2584            0     973.3669    17.741942    20.897664    21.645128    8025.2592    1260.6918    1437.6823    221.72654   -227.15795    65.686802   -1022.8432 
  357000    231.77545     -3988.32   -3591.0648     -3988.32            0    2653.5182     17.60309    20.734115    21.475729    7838.3084    2441.6224    2339.2634    3179.6687    721.87439   -621.96547   -1245.7434 
  357500    229.55915   -3959.8664   -3566.4098   -3959.8664            0      1727.08    17.674244    20.817925    21.562537    7933.7435    1252.8444    2098.3884    1830.0071   -1433.6615   -1150.4356   -1705.2511 
  358000    224.53808   -3981.9441   -3597.0935   -3981.9441            0    984.56989    17.718815    20.870424    21.616913    7993.9166    1278.4616   -4.8901687    1680.1383    -991.5749    976.05745   -1269.0755 
  358500    234.17461   -3993.3607   -3591.9935   -3993.3607            0    1865.0836    17.695701    20.843198    21.588714    7962.6734    22.580218    3113.2099    2459.4606   -1044.6515    103.98052    -395.1698 
  359000    223.85899   -3986.4211   -3602.7344   -3986.4211            0    778.36839    17.686056    20.831837    21.576946    7949.6598   -1040.2964    2112.3935     1263.008    889.45668   -901.42018    1387.2568 
  359500    230.20578    -3986.248   -3591.6831    -3986.248            0    1822.6524     17.66989    20.812796    21.557224    7927.8809    2337.0435    672.67349    2458.2402    1159.3062   -524.27911   -610.06392 
  360000    219.66799   -4002.4628   -3625.9593   -4002.4628            0    1358.3965    17.699826    20.848058    21.593747    7968.2437    356.45396    968.88199    2749.8534    240.29786   -468.53952   -234.18907 
  360500    220.27094   -3984.9192   -3607.3824   -3984.9192            0     1344.104    17.698894    20.846959    21.592609    7966.9847    1250.2492     1012.839    1769.2238    868.16479   -262.22273   -1779.8862 
  361000    223.83151   -3998.2464   -3614.6069   -3998.2464            0     1017.883    17.750746    20.908034    21.655869    8037.2123    295.57751    492.28586    2265.7857    1047.7659   -340.29706     211.6186 
  361500    228.77375   -4008.5369   -3616.4265   -4008.5369            0    2232.4107     17.60818     20.74011    21.481938    7845.1089    1584.0094    2415.0193    2698.2035    1107.6668   -1251.9675   -1482.3362 
  362000    226.40948   -4015.5077   -3627.4496   -4015.5077            0     1088.164    17.599799    20.730238    21.471714    7833.9124    439.39429    1742.9218    1082.1758    1099.6155   -216.16464    381.73519 
  362500    228.50597    -4008.293   -3616.6416    -4008.293            0    1585.7562    17.654176    20.794287    21.538053    7906.7488    19.665722    2413.5803    2324.0226    648.87152    200.41054    457.61832 
  363000    234.24708   -3994.4399   -3592.9484   -3994.4399            0     4091.617    17.559474    20.682741    21.422518    7780.1885    2413.5906    4004.0431    5857.2174    251.55051   -1809.7986   -348.60912 
  363500    244.28001    -3994.363   -3575.6755    -3994.363            0    1651.8781    17.630626    20.766549    21.509323    7875.1498    1904.5211     1183.301    1867.8123   -137.12428   -746.56515    1173.1804 
  364000    254.02757   -4038.2669   -3602.8724   -4038.2669            0    2671.7021    17.599803    20.730243    21.471719     7833.918    3100.2763    1191.4021    3723.4279    633.71885   -928.33694    748.16595 
  364500    225.74731   -4019.0121   -3632.0889   -4019.0121            0    1409.0544    17.641168    20.778966    21.522184    7889.2844    -69.27511     2332.987    1963.4514    1654.8101    -1446.658    352.47606 
  365000    230.51698   -4023.0629   -3627.9647   -4023.0629            0    1249.8616     17.64299    20.781112    21.524407    7891.7292    690.91521    1594.7672    1463.9024    632.23644   -398.41954   -541.90579 
  365500    229.42358   -4022.0998   -3628.8756   -4022.0998            0    3301.4248    17.615093    20.748252    21.490372    7854.3525    2093.3033    3391.0737    4419.8976    585.93424    37.854391    1074.5307 
  366000    240.89397   -4005.0803   -3592.1963   -4005.0803            0    2323.6975    17.653773    20.793812    21.537561    7906.2068    1822.9535    3111.2663    2036.8728    10.041331    117.33599   -507.68679 
  366500    226.24744   -4021.9017   -3634.1213   -4021.9017            0    3197.2838    17.602261    20.733139    21.474718     7837.201    3104.0656    2745.2502    3742.5355   -384.43508   -742.69969   -907.33257 
  367000    234.43208   -4034.8825    -3633.074   -4034.8825            0    2940.4888    17.598329    20.728507     21.46992    7831.9492    801.66131    3117.4155    4902.3895    780.45563   -1046.1831     331.9032 
  367500    229.22684   -4005.3763   -3612.4894   -4005.3763            0    1537.4259    17.707561    20.857168    21.603184    7978.6949    1913.0892     1062.949    1636.2395   -599.75428   -1823.7764    288.73038 
  368000    243.02066   -4022.6861   -3606.1571   -4022.6861            0    963.41241    17.701302    20.849795    21.595547    7970.2366    746.50122    1649.4593    494.27669     239.3632   -493.16056   -393.84083 
  368500     236.4675    -4010.989   -3605.6918    -4010.989            0    3434.0168      17.6548    20.795023    21.538815    7907.5874    3294.2801    2071.7198    4936.0505    335.89767    85.842081    885.15887 
  369000     226.1382   -3993.9558   -3606.3626   -3993.9558            0    1361.6817    17.677659    20.821947    21.566702    7938.3424   -84.447568    1286.2269    2883.2658    750.57905    777.28442   -344.14961 
  369500    229.59099   -4016.3782   -3622.8671   -4016.3782            0    2454.4066    17.664057    20.805926    21.550108    7920.0323    1635.8632    3546.5706    2180.7861    43.909421     380.4323   -109.06675 
  370000    226.14921   -4000.2909   -3612.6789   -4000.2909            0    872.65503    17.708892    20.858735    21.604807    7980.4933   -608.98441    1229.3067    1997.6428      355.105   -1152.2471   -2146.3326 
  370500    224.80802   -4023.2464   -3637.9331   -4023.2464            0    1475.7029    17.697484    20.845298    21.590889    7965.0802    160.72097    2143.1422    2123.2455    1858.8225   -271.11283   -71.073708 
  371000    238.08772    -4031.381   -3623.3068    -4031.381            0    1635.1322    17.587938    20.716268    21.457243    7818.0845    1841.5553    714.85788    2348.9834    35.877141   -670.92771    1469.8977 
  371500    243.94465   -4029.7131   -3611.6003   -4029.7131            0    1946.1129     17.67884    20.823338    21.568143    7939.9338    2641.4544    2193.9659    1002.9183   -125.11281   -549.70727     563.2462 
  372000    228.32679   -4017.3031   -3625.9588   -4017.3031            0    1815.1543    17.702018    20.850639    21.596421    7971.2042    1734.1256    2343.0471    1368.2902     1318.834   -589.06788    641.36399 
  372500    226.50136   -4029.3147   -3641.0991   -4029.3147            0    1730.1839    17.696728    20.844409    21.589967    7964.0606    2304.0644    809.02716    2077.4601    -504.5118    347.11478     631.0552 
  373000    218.47217   -4024.5859   -3650.1321   -4024.5859            0    2017.0712    17.647079    20.785928    21.529395    7897.2165    1621.2392    1966.3785    2463.5958    1070.8455   -1533.5978    -276.1392 
  373500    241.05249    -4016.513   -3603.3573    -4016.513            0    2292.9558    17.618415    20.752166    21.494425    7858.7975    3038.8953    2736.0914    1103.8807    1494.5231    121.10918   -898.05124 
  374000    239.15928    -3997.661   -3587.7502    -3997.661            0    1681.1331    17.647707    20.786668    21.530162    7898.0609    468.75726     2841.214    1733.4282    392.43408   -1019.2881    1348.0823 
  374500    240.36223   -3973.3629   -3561.3902   -3973.3629            0    2903.9973    17.630693    20.766627    21.509404    7875.2383    1858.0046    2688.3023    4165.6849   -289.16876   -593.01359   -875.06413 
  375000    245.47221   -4004.8565   -3584.1256   -4004.8565            0    1495.1194    17.763824    20.923438    21.671824    8054.9893    1980.7909    2313.0017    191.56553   -217.46438   -1116.2727   -1039.6703 
  375500    218.80345   -3986.5986    -3611.577   -3986.5986            0    1667.7066    17.700581    20.848947    21.594668    7969.2636   -28.756627     1789.885    3241.9916    1257.3688    523.34359    1091.8949 
  376000    228.66242   -3977.4122   -3585.4927   -3977.4122            0    1965.7122    17.669247    20.812039     21.55644    7927.0157    758.33243    2988.0175    2150.7865    460.61238    -1109.066   -590.20429 
  376500    224.74019   -3948.0009   -3562.8039   -3948.0009            0    1652.7272     17.68636    20.832196    21.577318    7950.0707    1783.8975    2104.6896    1069.5945   -628.14117   -150.57388    1394.2724 
  377000    216.57141   -4009.0684   -3637.8725   -4009.0684            0     3521.743    17.647453    20.786368    21.529851    7897.7191    2884.4967    3595.8177    4084.9145    2097.9369    -52.12507   -153.10729 
  377500    222.39508   -3992.4577   -3611.2801   -3992.4577            0    2863.0335    17.629534    20.765263    21.507991    7873.6864    3297.1625    2275.5391     3016.399    488.90945    1470.6468    725.72026 
  378000    230.43163   -4000.6829    -3605.731   -4000.6829            0    1825.2469    17.665546    20.807679    21.551924    7922.0349    496.86968    2042.2121    2936.6591    276.70667   -11.655922    738.19749 
  378500    225.55851   -4024.8197   -3638.2201   -4024.8197            0    2329.3809    17.747536    20.904254    21.651953    8032.8529    1073.2804    3336.9115    2577.9506    538.38331    -914.2973    7.0051134 
  379000    226.29522   -4011.7708   -3623.9086   -4011.7708            0    1594.9638    17.698967    20.847046    21.592699    7967.0837    1559.9862    916.27442    2308.6307    455.90855   -711.43412    259.33813 
  379500    215.81964   -4007.3868   -3637.4794   -4007.3868            0    1259.8441    17.761971    20.921255    21.669563    8052.4684    679.16232    652.57939    2447.7907    358.07199    136.68734     1448.843 
  380000    221.89692   -4024.6585   -3644.3347   -4024.6585            0    2575.5986     17.63805    20.775293     21.51838    7885.1021    1533.9248    3426.5393    2766.3317    13.951251    240.08598    1785.3327 
  380500    244.81218   -4009.3499   -3589.7502   -4009.3499            0    4066.1905    17.689923    20.836392    21.581664    7954.8755    3851.5254    2397.7934    5949.2525    194.82918    580.93691   -1653.7769 
  381000    229.42382    -4020.407   -3627.1824    -4020.407            0    2218.6358    17.733129    20.887284    21.634376    8013.3061     2538.877     2219.374    1897.6564    1046.0968    386.01891    -225.5897 
  381500    245.23806   -3994.7023   -3574.3726   -3994.7023            0    2191.3986     17.72513    20.877861    21.624617    8002.4662    726.89728    2834.2369    3013.0616    333.39196    215.29738    -883.5376 
  382000    225.63901   -4006.3959   -3619.6583   -4006.3959            0    2537.9688    17.683291    20.828581    21.573573    7945.9321    2528.2394    2605.9182    2479.7486   -185.88068   -1191.4521   -678.91157 
  382500     225.3938   -3981.1622   -3594.8449   -3981.1622            0    513.22584    17.791279    20.955776    21.705318     8092.395    715.56277    488.81212    335.30263   -437.71812   -394.05674   -716.19203 
  383000    238.00783   -3993.6291   -3585.6918   -3993.6291            0    1290.8685    17.753893    20.911741    21.659708    8041.4871   -410.86586    3588.8142    694.65714   -232.38578   -323.63295   -1061.9219 
  383500     229.1191   -3956.0936   -3563.3913   -3956.0936            0    1934.3762    17.735291     20.88983    21.637013    8016.2367    1561.3293    2071.6696    2170.1297   -506.64456   -1380.9339    395.73855 
  384000    223.93891   -4012.5073   -3628.6837   -4012.5073            0    2723.9011    17.723555    20.876007    21.622696     8000.334    3415.1005      2017.31    2739.2929   -508.78176   -323.50277    693.26964 
  384500    240.01325   -4004.2543   -3592.8798   -4004.2543            0    3150.9402    17.603489    20.734585    21.476216    7838.8414     3490.317    2247.1594    3715.3442   -1173.9509   -286.40321   -45.781368 
  385000      233.745   -3998.9376   -3598.3067   -3998.9376            0    1554.1897    17.699778    20.848001    21.593688    7968.1787    683.48937    681.76279     3297.317   -464.80564    37.402124    374.25199 
  385500    246.08108   -4019.6512   -3597.8766   -4019.6512            0      2280.91    17.712502    20.862987    21.609211    7985.3748    2580.7786     2309.661    1952.2905   -167.54137    169.74388   -299.10623 
  386000    235.14081   -4006.5308   -3603.5075   -4006.5308            0     2977.407    17.643947    20.782239    21.525574    7893.0133    1637.8698    2631.4528    4662.8983   -71.039433   -271.19206   -692.66493 
  386500     223.3143    -4003.874   -3621.1209    -4003.874            0    883.24123    17.701131    20.849595    21.595339    7970.0062    255.54359    1244.8799    1149.3002    445.79232   -1743.3835   -234.00479 
  387000    230.96438   -4009.9664   -3614.1013   -4009.9664            0    450.57369    17.697196     20.84496    21.590538    7964.6923    682.50623    989.33574   -320.12092    693.69663     227.6387    99.744312 
  387500    234.30464   -3988.5259   -3586.9357   -3988.5259            0    2175.2799    17.640428    20.778095    21.521281    7888.2919    2770.1277    920.65759    2835.0544    389.10783   -111.33208    162.06592 
  388000    230.90235   -4003.3527    -3607.594   -4003.3527            0     2739.398    17.688779    20.835045    21.580269    7953.3326    3521.2785    2384.4026    2312.5128   -635.06451   -1166.9862    858.32608 
  388500    220.45808   -4028.2714   -3650.4138   -4028.2714            0    2014.4494    17.714308    20.865115    21.611414     7987.818    643.16615    2728.0852     2672.097    365.33243   -772.47617    816.29223 
  389000    235.41169   -4005.4462   -3601.9586   -4005.4462            0    1284.2165     17.70422    20.853232    21.599107    7974.1788    1606.1836     906.6247    1339.8412    262.87369    410.36022   -153.52289 
  389500    223.96144    -3998.606   -3614.7437    -3998.606            0    997.00351    17.803047    20.969637    21.719675    8108.4637    237.48781    931.37766    1822.1451   -364.35773    391.60174    1473.0536 
  390000    215.86892   -4016.7211   -3646.7291   -4016.7211            0    992.47957    17.778014    20.940152    21.689135    8074.3076   -129.03607     1419.303    1687.1717   -71.341207   -769.09208    615.76184 
  390500    232.54243   -3976.0487    -3577.479   -3976.0487            0    2912.4755     17.71611    20.867237    21.613612    7990.2553    2923.6688     3282.334    2531.4236   -625.25105    318.45482    739.26592 
  391000    220.64847   -3985.3616   -3607.1777   -3985.3616            0    1059.5499    17.710095    20.860153    21.606275    7982.1202    647.15047    1664.0528    867.44634   -173.04658   -734.08628   -112.90724 
  391500    244.98026   -4018.4181   -3598.5303   -4018.4181            0    2079.5578    17.739324    20.894581    21.641934    8021.7072    1843.9541    2929.0456    1465.6736     1191.668   -261.31699    9.1261573 
  392000    223.84421   -4055.0571   -3671.3957   -4055.0571            0    3171.1423    17.694125    20.841342    21.586791     7960.546    4071.0288    2396.9128    3045.4854   -100.36217   -33.914252   -128.38437 
  392500    219.79923   -4003.1257   -3626.3973   -4003.1257            0    1609.5592    17.766279     20.92633    21.674819    8058.3294     2678.181    1219.1729    931.32351   -469.99442   -90.269343   -227.05995 
  393000    231.52802   -3994.9223   -3598.0911   -3994.9223            0    2659.3659    17.707725    20.857361    21.603383    7978.9157    1811.7862    4135.9942    2030.3173    215.35267   -425.85783   -446.46113 
  393500    235.72469   -4000.6173   -3596.5933   -4000.6173            0    1134.2261    17.827404    20.998327    21.749391    8141.7898    1819.5212    708.85594     874.3011   -351.82367   -942.48661   -738.81088 
  394000    233.47523   -4032.7104   -3632.5419   -4032.7104            0    2195.2183    17.675248    20.819107    21.563761    7935.0951    1939.9685    3534.1335     1111.553   -383.53931   -1504.0567    97.838623 
  394500    226.31695        -4006   -3618.1005        -4006            0     2455.755    17.712925    20.863486    21.609727    7985.9471    2511.0554    3644.7259    1211.4836    741.12247    1084.0428    342.53951 
  395000    228.27334   -4004.8876   -3613.6349   -4004.8876            0    1435.7452    17.748905    20.905866    21.653623    8034.7114    1123.8268     1308.604    1874.8047   -1185.6148   -1135.9808   -538.77206 
  395500    224.89844   -4024.2716   -3638.8034   -4024.2716            0    2120.4591    17.746348    20.902854    21.650504    8031.2398    2195.3125    1509.4532    2656.6114   -1510.7221    1080.9327    513.53354 
  396000    237.54699   -4025.0484    -3617.901   -4025.0484            0    1768.4043    17.680893    20.825757    21.570649    7942.7008    2162.7569    1994.1224    1148.3337    -992.7637   -1075.8391    827.67435 
  396500    220.60899   -3999.9319   -3621.8156   -3999.9319            0    1625.5799    17.780006    20.942498    21.691565    8077.0222    2940.2319    582.93914    1353.5688    -595.2049    318.19581   -251.95609 
  397000     222.1539   -4030.0432    -3649.279   -4030.0432            0    2539.0723    17.783322    20.946404    21.695611    8081.5421    757.77034    3179.2749    3680.1716   -287.06479    735.09396   -50.204438 
  397500    223.07946   -3988.3714   -3606.0209   -3988.3714            0    3040.4272    17.701189    20.849663     21.59541    7970.0847    2969.2489    3868.5741    2283.4587   -1734.9047     24.08783   -35.617588 
  398000    225.69462   -4000.7359   -3613.9031   -4000.7359            0    2277.0087    17.691502    20.838253    21.583591    7957.0067    2422.4866    3951.1408    457.39871    206.35591   -334.92523   -1298.3199 
  398500    237.85262   -3988.8879   -3581.2166   -3988.8879            0    706.19507    17.758916    20.917658    21.665836     8048.315    1488.6893    689.70691   -59.810985    105.15643   -543.51222    24.128016 
  399000    214.66629   -4022.7506   -3654.8199   -4022.7506            0    2593.3831     17.72622    20.879146    21.625947     8003.943    3386.6544    1886.0401    2507.4547   -1374.2615   -42.395544     348.1302 
  399500     239.9398   -4052.4837   -3641.2351   -4052.4837            0     870.0006    17.729041    20.882469    21.629389    8007.7656    116.88082    823.20547    1669.9155    1029.7765    206.78662    1002.4098 
  400000    230.57293   -4004.8642   -3609.6701   -4004.8642            0    3884.5782    17.718683    20.870268    21.616752    7993.7378     4232.045    4182.9927    3238.6967   -512.57244   -935.35537   -420.23563 
  400500    242.62426    -4015.227   -3599.3773    -4015.227            0    1389.6163    17.763326    20.922852    21.671217    8054.3126    760.60707    2115.7426    1292.4992    86.654025   -19.372782    325.94085 
  401000    230.84627   -4007.5225   -3611.8599   -4007.5225            0    2705.1549    17.781219    20.943927    21.693046    8078.6761    2689.5036    1578.5423    3847.4187    1905.0715   -364.85127    184.89621 
  401500    231.43562   -4000.5183   -3603.8456   -4000.5183            0    1773.7275    17.748093    20.904909    21.652632    8033.6087    1834.0309    1675.0946     1812.057   -378.40654   -1400.8523    849.76233 
  402000    218.80939   -3984.6876   -3609.6558   -3984.6876            0    2513.9523    17.767923    20.928266    21.676825    8060.5668    2672.0157    2347.4195    2522.4216   -334.19555    706.92787    181.17272 
  402500    239.74898   -4016.2153   -3605.2938   -4016.2153            0     2595.199    17.714869    20.865776    21.612099    7988.5771    3102.0958    2660.4973    2023.0037    90.696831   -534.59287    613.58219 
  403000    229.10178   -4006.7706    -3614.098   -4006.7706            0    3028.5834    17.776197    20.938013    21.686919    8071.8334    2682.3922    2969.9452    3433.4129    595.82022   -411.79179   -549.91125 
  403500    228.60296   -4006.2329   -3614.4152   -4006.2329            0    1375.5541    17.781136     20.94383    21.692945    8078.5632    2126.7983    2112.6773   -112.81348   -783.70771   -126.37873    990.28722 
  404000    209.68096   -3989.9984   -3630.6124   -3989.9984            0    144.24763    17.816709     20.98573    21.736344    8127.1462    1249.2927   -731.76575   -84.784067    891.95332    211.25591    -645.3754 
  404500    236.75381   -4025.4398   -3619.6519   -4025.4398            0    2260.3829    17.770284    20.931047    21.679705    8063.7805    1657.9684    1996.3627    3126.8175   -695.86706   -518.63221    -192.1761 
  405000    233.85156    -4010.143   -3609.3294    -4010.143            0    2181.1748    17.750291    20.907498    21.655314    8036.5938    1194.6051    1693.4991    3655.4202    403.94444   -1153.5353   -121.78804 
  405500      247.645    -4001.143    -3576.688    -4001.143            0    2396.2657    17.713972    20.864719    21.611004    7987.3631    2259.4653    1846.9005    3082.4311    408.44838   -735.90304   -290.37629 
  406000     229.1651    -3987.331   -3594.5499    -3987.331            0    2913.8045     17.69773    20.845589     21.59119    7965.4133    3252.8626    2349.3908    3139.1601    1048.6835   -349.88347    635.49564 
  406500    224.90942   -3984.6351    -3599.148   -3984.6351            0    1983.0084    17.857801    21.034131    21.786476    8183.5085    853.91852    2892.0062    2203.1006   -282.49162   -386.44416   -31.159136 
  407000    229.46122    -4029.239   -3635.9503    -4029.239            0    1508.0061    17.840278    21.013491    21.765098    8159.4421    1577.5498    2110.9694    835.49915    463.51021   -1692.8986    389.68113 
  407500     227.7421    -3996.701   -3606.3588    -3996.701            0    2882.8367    17.797031    20.962552    21.712336    8100.2472    1872.0025    3237.5265    3538.9809    1678.2625   -140.62149    426.67873 
  408000     239.6699   -4032.1765   -3621.3905   -4032.1765            0    2753.8114    17.775223    20.936864     21.68573    8070.5054    3945.1221    3106.2501    1210.0622   -1090.9984   -386.77753   -659.75798 
  408500    229.89845   -4014.1432   -3620.1051   -4014.1432            0     3049.116    17.826881    20.997712    21.748754    8141.0744    2328.5636    2643.1901    4175.5942   -727.54338   -1397.7463    -554.1288 
  409000    229.54802   -4005.6509   -3612.2134   -4005.6509            0    2191.9881    17.800659    20.966825    21.716762    8105.2013    2247.1725    2258.7731    2070.0189    921.93979    499.52665   -1598.7426 
  409500    235.46986   -4025.4732   -3621.8859   -4025.4732            0    2251.1415    17.810714    20.978668    21.729029    8118.9444    4127.1524    876.39433    1749.8778    1114.8093    270.87221   -1492.9681 
  410000    226.56059   -4004.9382   -3616.6211   -4004.9382            0    1643.1037    17.843289    21.017038    21.768771    8163.5742    2102.5398    968.78603    1857.9854     587.3593   -1842.6025    -217.8895 
  410500    225.40182   -4008.4707   -3622.1397   -4008.4707            0    2165.4489    17.757119    20.915541    21.663644    8045.8716    3923.6684    1038.2322    1534.4461   -270.14594   -989.03579   -471.02327 
  411000    237.79658   -3990.2518   -3582.6766   -3990.2518            0    2456.9175    17.799977    20.966021     21.71593    8104.2697    1351.2995    2846.3483    3173.1047   -35.950134   -347.30931   -21.845885 
  411500    233.14824   -4025.1255   -3625.5174   -4025.1255            0    2787.5375    17.765201     20.92506    21.673504    8056.8626    3616.9631    1838.1493    2907.5001    206.51862    -1006.746   -1320.4332 
  412000    232.65365   -4017.9841   -3619.2237   -4017.9841            0    2527.1823    17.838801    21.011752    21.763296    8157.4158    3513.9302    2499.7237     1567.893    227.71989    -1295.949    572.31311 
  412500    229.48622   -3988.6898   -3595.3583   -3988.6898            0     1390.162    17.828108    20.999157    21.750251    8142.7554    2377.4615    971.96148    821.06311    1728.4843   -662.32598   -199.51109 
  413000    237.32575   -4028.7657   -3621.9975   -4028.7657            0    1845.8684    17.803169    20.969781    21.719824    8108.6306    2036.1785    1261.2299    2240.1967    719.67719   -561.16614   -536.46854 
  413500    227.45092   -3994.1817   -3604.3386   -3994.1817            0    3976.0828    17.740644    20.896135    21.643544    8023.4979    2913.7312    3341.3912     5673.126   -240.81756    221.42098   -220.48291 
  414000    239.01357   -4039.1505   -3629.4895   -4039.1505            0    2208.1746    17.791127    20.955598    21.705133    8092.1881    3426.8772    2803.3218    394.32483    757.08199   -858.55069    66.082563 
  414500    226.05937   -4027.1589   -3639.7009   -4027.1589            0    1762.4946    17.813651    20.982128    21.732613    8122.9624     2251.853    2161.2029    874.42791    234.20119    755.76665    1.9821596 
  415000    224.68006   -4001.1234   -3616.0294   -4001.1234            0    1653.9462    17.776395    20.938245     21.68716    8072.1022    2918.4384    1271.7524    771.64781   -747.52575   -499.88818   -374.56313 
  415500    231.54039   -4002.9791   -3606.1267   -4002.9791            0    2106.2182    17.787273    20.951059    21.700432     8086.931    2422.3034    1737.3696    2158.9815    1268.8539    -273.8681   -899.76688 
  416000    233.54116   -4009.6597   -3609.3782   -4009.6597            0    2360.5566     17.79031    20.954635    21.704136     8091.073    2214.7224    2372.4857    2494.4616   -45.784097   -1402.2437   -758.52865 
  416500    228.38071   -4005.5841   -3614.1473   -4005.5841            0    401.17212    17.783207    20.946269    21.695471    8081.3861   -55.756577   -258.76812    1518.0411    727.46288   -160.16597   -333.79711 
  417000    225.99398   -4022.0153   -3634.6694   -4022.0153            0    1366.1104    17.841767    21.015245    21.766914    8161.4851    1445.4904    815.30552    1837.5353   -1122.6367    314.48895    312.81485 
  417500    225.36114   -3973.2748   -3587.0135   -3973.2748            0    2427.8789    17.759983    20.918914    21.667137    8049.7651    2498.4813    1826.6913    2958.4642   -245.93016   -547.48827   -46.635181 
  418000    219.27698   -4012.9115   -3637.0783   -4012.9115            0    1977.3427    17.750106     20.90728    21.655087    8036.3421    2265.4354    2526.2305    1140.3622    611.01341   -1839.3027   -328.89582 
  418500    234.99862   -3976.0284   -3573.2488   -3976.0284            0    2007.2678    17.785792    20.949314    21.698625    8084.9106    1749.1484    2789.4973    1483.1576     194.7368   -251.79605    -789.9497 
  419000    221.89643    -3994.419   -3614.0961    -3994.419            0    3989.1697    17.691733    20.838524    21.583873    7957.3178    5122.6564    2092.8037    4752.0489   -526.34228    813.42292    1447.2468 
  419500    236.73063   -3995.0196   -3589.2714   -3995.0196            0    2657.9037    17.782062    20.944921    21.694075    8079.8256    2995.9248    2644.8744    2332.9119   -306.44865    1249.7473    -189.5558 
  420000    228.06204   -4007.5174   -3616.6269   -4007.5174            0    979.25457    17.794589    20.959676    21.709357    8096.9136     1146.241    1340.4638    451.05898   -265.75523      606.988    580.22514 
  420500    228.52099   -3987.4489   -3595.7717   -3987.4489            0    3288.7602    17.769593    20.930233    21.678862    8062.8394    2892.3945    4578.9994    2394.8868   -446.30465    280.91493    988.14938 
  421000    234.33086    -3959.159   -3557.5239    -3959.159            0    1927.9931    17.820472    20.990162    21.740934    8132.2965    2519.1134    728.89669    2535.9691   -1387.0233    -36.61455   -1310.3169 
  421500    229.80258   -3986.0683   -3592.1945   -3986.0683            0    1124.3837    17.848355    21.023005    21.774952    8170.5296   -103.89053    1547.9586    1929.0831   -1109.6279    286.72498   -888.94891 
  422000    227.45121   -3982.2916    -3592.448   -3982.2916            0    2812.1338    17.817498     20.98666    21.737306    8128.2262    2125.0634    2811.5927    3499.7452    875.91737    740.95225    552.25023 
  422500    216.15105   -3996.1569   -3625.6814   -3996.1569            0    917.61358    17.767887    20.928224     21.67678    8060.5176   -4.4794876    950.13833    1807.1819    799.23769    151.45575    627.25095 
  423000    243.93818    -4016.877   -3598.7753    -4016.877            0    478.06622    17.800306    20.966409    21.716332    8104.7196    844.52612   -772.78725    1362.4598    799.83179    537.04582    162.79111 
  423500    231.55715   -4005.8834   -3609.0023   -4005.8834            0    1609.2006     17.82694    20.997781    21.748825    8141.1547    2800.4351    2001.3772    25.789613   -1677.1614   -535.10341   -925.30188 
  424000    227.69794   -4018.7814    -3628.515   -4018.7814            0    4262.7327    17.738421    20.893517    21.640832    8020.4816     4364.686    3981.5409    4441.9713    526.27555   -195.55136   -227.92398 
  424500    229.90932   -3980.5662   -3586.5095   -3980.5662            0     2667.585    17.772379    20.933515    21.682261    8066.6329    3828.0002    1549.7074    2625.0475    450.75072    245.49044   -807.19433 
  425000    240.66808   -3986.3605   -3573.8637   -3986.3605            0    1564.6019    17.802495    20.968987    21.719002    8107.7095    2542.6404    742.77529    1408.3901   -1179.9518    560.20695    838.44925 
  425500    208.97051    -3990.708   -3632.5397    -3990.708            0    1538.4025    17.768219    20.928615    21.677185    8060.9693    1927.7565    353.61256    2333.8383    403.31168   -950.30157   -1445.7944 
  426000    238.81788   -4004.7049   -3595.3792   -4004.7049            0    2932.1806    17.726523    20.879502    21.626316    8004.3531    1497.5843    2437.0292    4861.9284    2106.2938    837.42724     1327.648 
  426500    225.10851   -3991.9099   -3606.0816   -3991.9099            0    2646.1236    17.759887    20.918801    21.667021     8049.635    3147.2928    1813.0881    2977.9898   -63.942231   -619.12965   -1013.8108 
  427000    229.63415   -4019.4626   -3625.8775   -4019.4626            0     2202.009      17.7115    20.861808    21.607989    7984.0207    2701.8062    2691.5308    1212.6901    -612.3348    1083.4682    1098.0977 
  427500    241.46763   -4000.7159   -3586.8486   -4000.7159            0    1895.3985    17.736571    20.891338    21.638575    8017.9729    2452.8601    1983.4746    1249.8609    194.54889   -154.88235   -507.47295 
  428000    223.12906   -3988.6767   -3606.2411   -3988.6767            0     1498.462    17.778164    20.940329    21.689318    8074.5125    605.30888     1450.142    2439.9352    204.43581    1512.2695    1425.1242 
  428500     242.4707   -3979.1683   -3563.5819   -3979.1683            0    3138.4887    17.671173    20.814308     21.55879    7929.6088    3028.2923    4877.5934    1509.5804    82.438195   -1696.6022    811.45691 
  429000    219.87528   -3991.6843   -3614.8256   -3991.6843            0    1072.0011    17.748335    20.905194    21.652927    8033.9371    896.31542    1169.6668     1150.021     3.312011   -690.17961   -788.91299 
  429500    225.40052   -3995.7744   -3609.4456   -3995.7744            0    204.50588    17.809693    20.977466    21.727784    8117.5484    476.52988   -752.82763    889.81541      496.102    648.05848    181.76153 
  430000     219.0038   -4026.2465   -3650.8815   -4026.2465            0    1941.2551    17.683072    20.828323    21.573307    7945.6376    2270.9629    1647.6219    1905.1805   -600.98263    55.401737    629.68839 
  430500    236.66086   -4022.8647   -3617.2361   -4022.8647            0    1788.1807    17.727812    20.881021    21.627889    8006.0995    1389.5378    2266.2139    1708.7904    1166.7178   -652.25654   -592.95632 
  431000    230.54963   -3969.8547   -3574.7005   -3969.8547            0     2391.931    17.757386    20.915855    21.663969    8046.2341    845.92783    2382.5999    3947.2654    1269.3366    81.398896    115.29048 
  431500    234.73338   -4015.5252   -3613.2002   -4015.5252            0     1548.225    17.715168    20.866128    21.612464    7988.9816    2809.2679    1.8077211    1833.5994    297.19589   -94.888238   -882.02907 
  432000    218.15782    -3973.333    -3599.418    -3973.333            0    2393.8606    17.642224     20.78021    21.523472    7890.7013    2241.7165    2480.1101    2459.7551   -151.94844    324.70269   -184.60904 
  432500    225.04708   -3994.3045   -3608.5815   -3994.3045            0    1489.8114    17.698187    20.846127    21.591747    7966.0305    2801.4343    1149.8417    518.15808   -1053.9122   -404.84713    -558.8603 
  433000    228.60888     -3999.75   -3607.9222     -3999.75            0    2816.6729    17.715447    20.866457    21.612804    7989.3594    2529.1197    2552.2815    3368.6176    767.62195    799.42212    118.06044 
  433500    234.56948   -4005.7357   -3603.6917   -4005.7357            0      1455.84    17.716517    20.867716    21.614109    7990.8062    247.20356    2120.0743     2000.242    319.49654   -351.39077   -960.82568 
  434000    226.58827   -4002.0494   -3613.6849   -4002.0494            0    2061.8481    17.722669    20.874963    21.621615    7999.1342    596.90323    1969.7754    3618.8655    190.62566   -1256.4929     399.4145 
  434500    249.67586   -4021.2168   -3593.2809   -4021.2168            0    1733.8306    17.741291    20.896897    21.644333    8024.3754    2983.5485    509.38886    1708.5544    342.72787    228.02595    26.837138 
  435000    230.46997   -4015.1985   -3620.1809   -4015.1985            0    1782.4809     17.73097     20.88474    21.631742    8010.3789     2370.182    1186.8445     1790.416    314.20564    25.518087   -282.13403 
  435500    215.15924   -4018.6077   -3649.8322   -4018.6077            0    1482.8075    17.682582    20.827746    21.572709    7944.9774    1410.9385    679.26076    2358.2232    2425.7642   -40.394103    340.39776 
  436000    238.81825   -4034.4464   -3625.1201   -4034.4464            0    464.82795    17.737054    20.891907    21.639165    8018.6281    -383.5378    238.19331    1539.8284   -659.83888   -626.07872    790.75882 
  436500    229.33254   -4025.3466   -3632.2785   -4025.3466            0    1453.8115    17.729035    20.882461    21.629381     8007.757    2093.5846   -12.076491    2279.9265   -230.24762    986.75443    633.45098 
  437000    229.10151   -3999.1707   -3606.4985   -3999.1707            0    2761.3497    17.673778    20.817376    21.561968    7933.1155    2624.7648    1783.4304    3875.8538     174.0571   -111.21382   -227.53261 
  437500    231.17538    -4013.052   -3616.8253    -4013.052            0    3043.0113    17.710703    20.860869    21.607016    7982.9423    2633.1626    1377.4394    5118.4319    464.33017     711.5314   -109.05671 
  438000    228.89186   -3999.6532   -3607.3404   -3999.6532            0    1828.6191    17.788691    20.952729    21.702162    8088.8649     2598.778    2325.7892    561.29016    178.60278   -634.43591    142.73999 
  438500    233.32543   -3986.7506   -3586.8388   -3986.7506            0    2831.3785     17.67743    20.821678    21.566424    7938.0346    3981.7432     1198.399    3313.9933   -437.65734   -478.93006    930.56542 
  439000    236.60775   -3977.3901   -3571.8525   -3977.3901            0    2810.9355    17.707108    20.856634     21.60263    7978.0816    4067.5888    651.87636    3713.3415   -556.38206   -966.75312    580.29472 
  439500    239.91714   -4004.9855   -3593.7757   -4004.9855            0    3423.6813    17.636493    20.773459     21.51648    7883.0135    3214.4966    4393.8344    2662.7129     -877.078    1109.8471   -421.02779 
  440000    243.76761   -4037.8252   -3620.0159   -4037.8252            0    3419.4403    17.623791    20.758497    21.500983    7865.9932     2475.904    3828.9703    3953.4465   -813.30556   -115.33527   -363.66663 
  440500    223.56466    -4033.612   -3650.4299    -4033.612            0    832.96775    17.687701    20.833775    21.578954    7951.8785    787.76856    1328.6775    382.45721    1149.7391    238.44739    591.65081 
  441000     206.0765   -4016.7251   -3663.5171   -4016.7251            0    2266.9167    17.675475    20.819375    21.564038    7935.4011    1058.6182    2719.1701     3022.962   -933.12151    149.64806   -360.38864 
  441500    220.22067   -4030.4711   -3653.0204   -4030.4711            0    2969.0027     17.63083    20.766789    21.509571    7875.4226    2705.7644     1480.079    4721.1646    279.22155   -465.28719     780.6824 
  442000    230.10242   -4027.3044   -3632.9167   -4027.3044            0    2509.9586    17.624271    20.759063     21.50157    7866.6366    1675.2474    1111.2013    4743.4271    169.38431   -1055.6623    861.81978 
  442500     224.3639   -4024.6766   -3640.1246   -4024.6766            0    1341.1876    17.690474    20.837041    21.582337    7955.6191   -182.68318    1556.2576    2649.9884    407.55745    835.73591    646.74489 
  443000    231.32172   -4021.8143   -3625.3368   -4021.8143            0    1963.1991    17.695231    20.842645     21.58814     7962.039    2765.4361    1475.4431     1648.718     318.0645    295.42567   -1559.3037 
  443500       225.59   -4008.3698   -3621.7163   -4008.3698            0    967.39146    17.699852    20.848087    21.593778    7968.2779     434.5233    704.57376    1763.0773   -184.11025   -32.113759    227.82716 
  444000    227.40026   -4042.8948   -3653.1385   -4042.8948            0    1716.2094    17.693404    20.840492    21.585911    7959.5726    1429.9856    1123.3489    2595.2937   -265.98898   -1431.9379     653.8912 
  444500    219.33584   -4046.6128   -3670.6787   -4046.6128            0    2144.2362    17.688478    20.834691    21.579902    7952.9271    2197.2639    1270.5819    2964.8629   -88.600473    871.18232    191.64655 
  445000    218.23034   -4004.6978   -3630.6584   -4004.6978            0    3400.1705    17.634888    20.771568    21.514522    7880.8614     3677.608    2500.7831    4022.1204   -1220.4097   -1323.8784   -1167.2977 
  445500    233.21304    -3985.834   -3586.1148    -3985.834            0    3123.2636    17.624488    20.759318    21.501834    7866.9265    3234.4345    2369.0371    3766.3192    788.63841    282.28056   -496.62999 
  446000    225.66513   -4003.9374   -3617.1551   -4003.9374            0     883.9878     17.71855    20.870111    21.616589    7993.5574    2107.8465   -545.37996    1089.4968   -261.80324     600.2267   -1131.2765 
  446500    232.09341    -4009.185   -3611.3848    -4009.185            0     1631.569    17.691657    20.838435     21.58378    7957.2157      1229.37    127.13329    3538.2038    166.69701    120.12033   -1195.2115 
  447000    234.09961    -4007.519   -3606.2803    -4007.519            0    1783.6715    17.672669     20.81607    21.560615    7931.6228     1345.738    1702.7775    2302.4989     55.21832    239.75147   -819.95314 
  447500    233.09933   -4005.8013   -3606.2771   -4005.8013            0    899.35061    17.734059     20.88838    21.635511    8014.5672    1229.3225    86.087174    1382.6421    515.97508   -1629.8127   -1241.5427 
  448000    236.07653   -4036.7141    -3632.087   -4036.7141            0    3487.8963    17.640937    20.778693    21.521902    7888.9738    4290.0874    3470.1215      2703.48   -258.90652    104.59768    -1017.706 
  448500    217.84467   -4018.0493    -3644.671   -4018.0493            0    850.32504    17.668077     20.81066    21.555012    7925.4405    273.16026    649.95258    1627.8623    1121.1966   -279.85538   -1301.5871 
  449000     226.2224   -4013.6113   -3625.8738   -4013.6113            0    1864.8098    17.691111    20.837792    21.583114    7956.4783    2163.3989    2224.2848    1206.7457   -1216.8571   -539.89418   -165.40645 
  449500     239.1238   -4018.9035   -3609.0535   -4018.9035            0    2021.7657    17.577112    20.703516    21.444036    7803.6567    1564.2512    1836.8997    2664.1463    353.90946   -1302.2076   -1045.8942 
  450000    231.12471   -4032.7856   -3636.6458   -4032.7856            0    2305.5329    17.615259    20.748448    21.490575    7854.5748    1771.6069    1530.3706    3614.6212    240.03149    438.20398   -146.04013 
  450500     240.3147   -4023.8198   -3611.9286   -4023.8198            0    1840.0097    17.636523    20.773494    21.516516    7883.0534     1849.606    756.23474    2914.1883   -112.56102   -1082.9095    349.58497 
  451000    219.30664   -4016.6488   -3640.7647   -4016.6488            0    1736.5344     17.59442    20.723902    21.465151    7826.7312    2575.2308    2275.1752    359.19731    -1089.355   -1694.9368   -743.45097 
  451500    234.30965   -4001.1096   -3599.5109   -4001.1096            0    2739.3939    17.606907    20.738611    21.480386    7843.4082    2098.5925    3271.4058    2848.1834   -123.05195     -657.863    5.2216933 
  452000    222.28609   -4009.5738   -3628.5831   -4009.5738            0    1408.4702    17.607334    20.739114    21.480907     7843.979    2994.4244    1046.5793    184.40696   -743.75408   -869.42142   -407.32447 
  452500    232.28278   -4011.1651   -3613.0403   -4011.1651            0     1067.851    17.695087    20.842475    21.587965    7961.8444    645.27092    1039.7565    1518.5255   -386.87015    941.59147    1117.8192 
  453000    218.48367   -4008.5825    -3634.109   -4008.5825            0     1765.632    17.607524    20.739338    21.481139    7844.2331    2921.4981    1263.0989    1112.2991    818.18279   -693.86543    960.25371 
  453500      230.931    -3990.734   -3594.9262    -3990.734            0    1505.5337    17.647211    20.786083    21.529556    7897.3937    1345.1266    1174.4003    1997.0742   -823.31104   -644.17188    111.60456 
  454000     252.4156   -3997.8134   -3565.1817   -3997.8134            0    2676.3536    17.618084    20.751776    21.494022    7858.3551    1176.3987    3328.7263    3523.9359    849.37066    347.60512    1586.1854 
  454500    236.42001   -4032.9556   -3627.7398   -4032.9556            0    2863.8264     17.66764    20.810147     21.55448    7924.8534    2554.7442    1707.7337    4329.0013   -31.445197    104.96644   -282.76338 
  455000    236.38791   -4033.0115   -3627.8507   -4033.0115            0    4358.9117    17.594462    20.723952    21.465203    7826.7881    3743.9441    3560.7524    5772.0385   -1081.3311   -335.21343   -450.26055 
  455500    220.56469   -4040.0556   -3662.0153   -4040.0556            0     940.5504    17.746842    20.903436    21.651106    8031.9107     1454.271    632.87636    734.50388    -204.0723    998.91749    371.64407 
  456000    237.96749   -4039.7425   -3631.8744   -4039.7425            0    1982.3493    17.635769    20.772606    21.515597    7882.0426    2835.6808     1592.829    1518.5379    1115.8427   -977.69362   -1298.2454 
  456500    227.95578   -4028.7946   -3638.0862   -4028.7946            0    2590.8797    17.617632    20.751243    21.493469    7857.7491    2388.0221    2551.4475    2833.1693   -184.73437    -828.6059    150.11037 
  457000    231.12047   -4034.5995   -3638.4669   -4034.5995            0    3254.6491    17.566828    20.691403    21.431489     7789.967    3779.8392    3600.2961     2383.812   -329.57902   -328.34229    546.12724 
  457500    227.51474   -4011.8854   -3621.9329   -4011.8854            0    1866.7465    17.613437    20.746302    21.488352    7852.1377    2225.2115     1785.644    1589.3838   -359.99369    135.60353     -603.039 
  458000     238.0259   -4039.6882     -3631.72   -4039.6882            0    1309.0813    17.630888    20.766857    21.509642    7875.4996    1699.0889    1192.3523    1035.8028   -299.76012   -452.98143    674.06143 
  458500    222.58187   -4010.8178   -3629.3201   -4010.8178            0    1488.7226    17.674361    20.818063    21.562679    7933.9006    1284.2374    1159.8017    2022.1287    -562.4206   -116.71987   -211.18175 
  459000    223.57288   -4020.2728   -3637.0766   -4020.2728            0    2863.3546    17.618937    20.752781    21.495062    7859.4964    3384.4638    1653.7119     3551.888   -506.98477    806.03888    167.58238 
  459500    217.36201   -4047.4958   -3674.9447   -4047.4958            0    1659.1959    17.633568    20.770014    21.512912    7879.0919    2163.1873    1420.3007    1394.0997    795.20213   -244.58629    918.61344 
  460000    234.20242   -3994.8541   -3593.4392   -3994.8541            0    1566.3901    17.670977    20.814077    21.558551    7929.3448    3004.1001    388.53757    1306.5326    731.63844    765.50069    864.98861 
  460500    225.65722   -4012.9106   -3626.1418   -4012.9106            0    1773.6763    17.650146     20.78954    21.533137    7901.3351    2594.0558    1832.8715    894.10168   -973.08363     1022.898   -555.98206 
  461000    232.37386   -4024.6849    -3626.404   -4024.6849            0    2873.7213    17.599134    20.729455    21.470902    7833.0239    2210.9978    3493.1121     2917.054   -496.34677   -299.51215    399.40789 
  461500    223.59012   -4022.4791   -3639.2533   -4022.4791            0    1793.1216    17.632008    20.768177    21.511009    7877.0016    2338.0277    1391.0181    1650.3191     -523.936    119.66226     582.8822 
  462000    241.28815   -4015.1434   -3601.5838   -4015.1434            0    820.56698    17.671286     20.81444    21.558927    7929.7597   -18.896354    1489.8217    990.77563   -426.96311    -1250.016   -1408.9085 
  462500    244.01616   -4011.5195   -3593.2841   -4011.5195            0    2132.4336    17.610833    20.743235    21.485175    7848.6562    1673.7673    2091.7774    2631.7562    30.749324    1117.6998   -731.55787 
  463000    233.92152   -4023.3585    -3622.425   -4023.3585            0    2434.4671    17.572783    20.698417    21.438754    7797.8916    3857.0735    2034.8064    1411.5213   -1347.3788   -578.11397   -452.37448 
  463500    240.77024    -4023.195    -3610.523    -4023.195            0    1649.2058    17.692457    20.839377    21.584756    7958.2944    -144.8834    2070.3552    3022.1457    -155.5972   -324.51921    355.09371 
  464000    232.88833   -4022.3569   -3623.1942   -4022.3569            0    3327.3961    17.610513    20.742858    21.484784    7848.2277    2917.6995    2865.6249    4198.8638   -889.56585   -226.10307    762.10329 
  464500    213.71427   -4057.8091   -3691.5102   -4057.8091            0    106.91734    17.683156    20.828422    21.573409    7945.7509    847.81251   -244.10696   -282.95354   -277.72332    822.20433    700.22936 
  465000    220.84005   -4018.0192   -3639.5069   -4018.0192            0    445.75793    17.562542    20.686355     21.42626    7784.2671    1924.4288    1105.6268   -1692.7818    191.86491   -745.13391   -454.46268 
  465500    222.52718   -4016.5321   -3635.1281   -4016.5321            0    2344.5119    17.576831    20.703185    21.443693    7803.2823    2609.8167    3186.1728    1237.5461    1569.2722   -1639.6526    200.75348 
  466000    234.84389    -4013.449   -3610.9346    -4013.449            0    1875.4572    17.558648    20.681768    21.421509    7779.0897    1653.6419    1962.1953    2010.5344    79.024102    559.85142    566.14783 
  466500    222.98865   -4005.0075   -3622.8126   -4005.0075            0    2437.7969    17.555238    20.677751    21.417349    7774.5586    3720.6311     1492.421    2100.3385   -243.51555   -1715.0357   -384.47022 
  467000    238.61795   -4026.3633   -3617.3803   -4026.3633            0    1601.4105    17.634802    20.771467    21.514417     7880.746    2358.1065    1050.3311     1395.794   -512.72899   -182.68663    773.28421 
  467500    218.93932   -4006.3271   -3631.0726   -4006.3271            0     3420.236    17.515877     20.63139     21.36933    7722.3821    4492.2545    3133.8874    2634.5662   -372.24231     266.2649    670.48289 
  468000    225.05386   -4026.9172   -3641.1826   -4026.9172            0     1848.284    17.593553    20.722882    21.464094    7825.5751    4379.3528    179.42659    986.07264   -496.67205   -534.86709   -314.58223 
  468500    228.42207   -4010.9041   -3619.3965   -4010.9041            0    3418.4725     17.54841    20.669709    21.409019    7765.4909    3441.6938    4283.8541    2529.8698    584.01919   -442.37467    207.49364 
  469000    227.57703   -4020.5078   -3630.4486   -4020.5078            0    1825.4428    17.603041    20.734057    21.475668    7838.2419     2620.276    1789.1524    1066.8999    195.78056    344.27265    450.51881 
  469500    232.09885   -4035.0791   -3637.2696   -4035.0791            0    2049.8802    17.610838    20.743241    21.485181     7848.662    2704.5646    1933.8868    1511.1893   -592.82757   -1645.9433     -407.195 
  470000    242.57255    -4037.509   -3621.7479    -4037.509            0    648.11072     17.64642    20.785152    21.528592    7896.3329    1822.9042    1288.5215   -1167.0936    582.54296   -1057.4545   -642.04479 
  470500    226.54597   -4027.6757   -3639.3837   -4027.6757            0    1182.3477    17.626899    20.762159    21.504776    7870.1559    610.75412    1210.6035    1725.6856    141.29446    560.88162    1131.8631 
  471000    249.08375   -4012.4035   -3585.4824   -4012.4035            0    2733.3733    17.577054    20.703448    21.443965    7803.5799     4114.035    2787.9932    1298.0917    832.18622    893.68404   -208.31724 
  471500    233.10405   -4017.1437   -3617.6113   -4017.1437            0    1372.2506    17.586332    20.714376    21.455283    7815.9425    -666.7972    1820.9013    2962.6478   -936.43442   -30.376963   -811.88469 
  472000    240.41506   -3995.0921   -3583.0289   -3995.0921            0    2606.0275    17.578432    20.705071    21.445646    7805.4153     2359.264    2768.8197    2689.9989    67.428212   -1018.2354    694.52156 
  472500     228.6985   -4012.8064    -3620.825   -4012.8064            0    2452.5535    17.580622    20.707651    21.448318    7808.3327    3217.6248    3150.1815    989.85425   -1771.6345    513.18895   -1314.6764 
  473000    238.73538   -4030.1498   -3620.9655   -4030.1498            0    827.48581    17.655373    20.795698    21.539514    7908.3579   -309.16134    1440.5581    1351.0606   -1323.9135    196.51107   -1711.6886 
  473500    230.00722   -4036.4349   -3642.2104   -4036.4349            0     2975.299    17.575913    20.702103    21.442572    7802.0592    1742.8203    4511.8394    2671.2375    -389.7232   -849.84901   -688.30871 
  474000    223.45338   -4046.8088   -3663.8174   -4046.8088            0    1769.8523    17.652063    20.791799    21.535476    7903.9106    1429.1023    2246.5603    1633.8943    101.89465   -1109.0383   -618.11852 
  474500    233.28584    -4021.341   -3621.4971    -4021.341            0    2205.1741    17.570168    20.695337    21.435564     7794.412    1059.8603     3163.301     2392.361   -1169.4912    698.42498    162.62177 
  475000    236.23668   -4033.0241   -3628.1225   -4033.0241            0    975.76156    17.678345    20.822755    21.567539    7939.2666    429.67597    2031.6371    465.97157    1303.9646    472.19002    1184.3491 
  475500    224.32956   -4065.2382    -3680.745   -4065.2382            0    1738.5492    17.622356    20.756808    21.499234    7864.0729     2112.863    1809.3761    1293.4084   -538.83937   -2.9251335    587.62733 
  476000    236.19684   -4008.5827   -3603.7494   -4008.5827            0    2670.6501    17.538355    20.657866    21.396752    7752.1502    3043.3617    3045.0251    1923.5635    269.82046   -508.02593   -456.73223 
  476500    228.20864   -4058.1279   -3666.9861   -4058.1279            0    1032.5208    17.585555    20.713461    21.454336    7814.9071    2825.7923    538.91706   -267.14687   -263.50377    259.88323   -355.33986 
  477000    224.22413   -4004.4165    -3620.104   -4004.4165            0    1478.1987    17.671115     20.81424    21.558719    7929.5303    3168.6467    1454.2818   -188.33216    164.08889   -570.33247   -557.38541 
  477500    233.57051    -4008.188   -3607.8562    -4008.188            0    1907.4284    17.647483    20.786404    21.529888      7897.76    837.84705    2986.4963    1897.9417   -176.80645   -217.86344   -600.15675 
  478000    229.31124   -4047.6302   -3654.5986   -4047.6302            0    1344.8561    17.725164    20.877902    21.624659    8002.5132      3706.06    291.49984    37.008405   -868.63349   -185.02928   -843.08411 
  478500    237.14269   -4038.0755    -3631.621   -4038.0755            0     2590.474    17.581087    20.708198    21.448885    7808.9523    1577.5076    4448.4001    1745.5144   -778.69332    115.93978    1554.2805 
  479000    237.59284   -4043.5768   -3636.3508   -4043.5768            0    2117.4989    17.626041    20.761149    21.503729    7869.0073     3171.221    621.75042    2559.5251   -872.03104   -1504.7388   -447.75762 
  479500    217.45689   -4061.8841   -3689.1705   -4061.8841            0    1334.6237    17.639511    20.777014    21.520163    7887.0617    2012.9703   -289.10062    2280.0015    1321.0715   -197.09158    208.04707 
  480000    232.87244   -4013.8319   -3614.6965   -4013.8319            0    1521.0504    17.618543    20.752317    21.494582     7858.969     823.3583    1791.0017    1948.7912     -848.687   -443.05365   -974.86061 
  480500    229.32393    -4005.799   -3612.7456    -4005.799            0    1707.2684     17.60761    20.739439    21.481243    7844.3478    1837.2295    1851.6277    1432.9479    -119.6844   -930.07423    338.78762 
  481000     221.9515   -4046.3865   -3665.9692   -4046.3865            0    2984.2419    17.603744    20.734885    21.476526    7839.1813    1602.0688    3383.0088    3967.6482   -515.90833    601.40914    440.70694 
  481500     216.8013   -4024.8482   -3653.2582   -4024.8482            0    1413.2511    17.621148    20.755385    21.497759    7862.4551    619.84711    1514.4225    2105.4837    653.28115    398.52197   -54.306994 
  482000     232.7831   -4064.2363   -3665.2541   -4064.2363            0    3891.7283    17.503758    20.617115    21.354544    7706.3634    3770.3939    3927.6793    3977.1117   -902.51903   -584.64993    525.72502 
  482500    234.95952   -4004.4801   -3601.7676   -4004.4801            0    1601.4452    17.659909     20.80104    21.545048    7914.4541    2601.6171    2274.4551   -71.736584    511.09925    109.53163    1275.3274 
  483000    223.63806   -4042.7175   -3659.4095   -4042.7175            0    2668.4702    17.552559    20.674596    21.414081    7771.0003    3181.2064    3973.7359     850.4685    798.34582    453.38173    737.48283 
  483500    234.86324   -4031.9731   -3629.4255   -4031.9731            0    1872.8128    17.678832    20.823329    21.568134    7939.9235    2880.5617    1327.2797    1410.5972    48.917929   -443.25901    622.13422 
  484000    231.01607   -4048.4749   -3652.5212   -4048.4749            0    3774.0331    17.548848    20.670225    21.409554    7766.0723    3197.2623    4525.1175    3599.7194    77.379932   -412.14297   -961.01471 
  484500    225.33685   -4010.6803   -3624.4606   -4010.6803            0    1278.2999    17.604857    20.736196    21.477885    7840.6689    2161.5818     1215.434    457.88389     1190.197   -960.86293   -458.63688 
  485000    234.00477   -4017.7588   -3616.6827   -4017.7588            0     2369.581    17.589633    20.718264    21.459311    7820.3452    2350.4799    2337.5411    2420.7219    273.48062    963.01431   -719.51071 
  485500    227.47717   -4029.0965   -3639.2085   -4029.0965            0    1420.5853    17.634557    20.771178    21.514118    7880.4175    1736.4962    818.19356    1707.0661    1276.0518    542.69795    1302.9385 
  486000    225.51146   -4051.0726   -3664.5537   -4051.0726            0    1883.0164    17.610998     20.74343    21.485377    7848.8766    2294.4877    2126.4155    1228.1459   -179.87109   -1418.9597    1063.6016 
  486500    239.99745   -4049.5967   -3638.2492   -4049.5967            0    2274.3454    17.564097    20.688187    21.428158    7786.3353    1613.3523    3129.1416    2080.5421    335.73858    399.74361    176.47952 
  487000    238.06898   -4022.6769   -3614.6348   -4022.6769            0    1822.4518    17.606333    20.737935    21.479686    7842.6413    2134.4074    1787.5561    1545.3918    2.9493854   -306.86139    610.67423 
  487500    225.95848   -4043.7338   -3656.4487   -4043.7338            0    1637.4029    17.665928     20.80813    21.552391    7922.5498    3072.9167    364.98215    1474.3097    247.55915     -678.971   -216.03479 
  488000    245.99565   -4048.7224   -3627.0943   -4048.7224            0    1224.8933    17.648811    20.787969    21.531509    7899.5431     1518.881    320.00902    1835.7901    714.79686   -663.04475    388.66526 
  488500     234.3471    -4026.014   -3624.3511    -4026.014            0    2862.3547    17.568724    20.693637    21.433803    7792.4903    4337.6469    2017.1064    2232.3109   -1822.4804   -794.88545    -843.1121 
  489000    224.09274   -4061.8874   -3677.8001   -4061.8874            0     743.7112    17.581202    20.708334    21.449026    7809.1057    1829.1606    713.56738   -311.59435    482.41205   -553.38103   -1376.2954 
  489500    245.60539    -4065.352   -3644.3928    -4065.352            0    2303.5748    17.588493    20.716921     21.45792    7818.8246    1717.1319    1925.2872    3268.3054    -606.5334    586.62511   -462.11641 
  490000    217.20571   -4014.7535   -3642.4703   -4014.7535            0    1564.9517     17.60461    20.735905    21.477583    7840.3379    1709.9919    1253.2073    1731.6559    548.76939   -630.46505   -1057.6393 
  490500      233.437   -4045.7906   -3645.6876   -4045.7906            0     1491.643     17.56182    20.685504    21.425379    7783.3069    2634.3162    130.51618    1710.0968    2285.6282   -1378.3925    444.22145 
  491000    232.05551   -4045.8063   -3648.0711   -4045.8063            0    545.77498    17.611332    20.743822    21.485783    7849.3225    529.87119    1042.7197    64.734022     221.8313    114.84767   -351.62288 
  491500    229.59379   -4038.9902   -3645.4743   -4038.9902            0    2264.5468    17.496561    20.608637    21.345763     7696.861    2298.3207    3174.4807    1320.8391 -0.011529402   -443.30603    344.14884 
  492000    231.33917     -4011.06   -3614.5526     -4011.06            0     2363.112    17.522602     20.63931    21.377533    7731.2793    1546.3741    3362.3535    2180.6085   -599.65731   -101.74701    874.27727 
  492500    214.41361   -4044.5941   -3677.0965   -4044.5941            0     2113.499    17.544075    20.664602     21.40373    7759.7367    2793.2878    2035.9715    1511.2375   -682.38146   -501.01991    635.78688 
  493000    218.95485   -4035.5375   -3660.2564   -4035.5375            0    1765.4489    17.550471    20.672137    21.411534    7768.2276   -529.82914     3389.728    2436.4479    1653.9238    24.065125   -426.76665 
  493500    225.47798   -4042.2211   -3655.7596   -4042.2211            0    2153.7171    17.594145    20.723579    21.464816    7826.3651    2486.8557    1834.4682    2139.8275   -75.866102   -25.799484   -462.03549 
  494000    223.79763   -3995.2327   -3611.6512   -3995.2327            0    1630.0663      17.5894     20.71799    21.459027    7820.0341    1963.6069    590.68462    2335.9073   -110.32679   -660.86969    194.02068 
  494500    229.29592   -3999.0053   -3605.9999   -3999.0053            0    1556.5136    17.588988    20.717504    21.458524    7819.4847     510.2851    1696.1093    2463.1463   -356.87741   -461.89432    1202.9361 
  495000     222.8437   -4024.3425    -3642.396   -4024.3425            0    3020.6191    17.499822    20.612479    21.349742    7701.1663    3276.3338    1926.8024    3858.7212    669.51803    796.08081    1202.3517 
  495500    216.20681   -4064.1395   -3693.5684   -4064.1395            0    1425.0567    17.553651    20.675882    21.415413      7772.45    2150.6084    1283.5093    841.05221   -818.22721   -81.371332   -88.575234 
  496000     230.5378   -4021.8731   -3626.7392   -4021.8731            0    3096.9962    17.501085    20.613966    21.351283    7702.8334    2956.2358    3365.1866    2969.5662    119.02128   -495.71445   -178.88176 
  496500    230.91187   -4008.8788   -3613.1038   -4008.8788            0    1484.9022    17.599099    20.729414    21.470859    7832.9773    1469.1787    2800.9905    184.53748   -372.74954   -554.30912    92.545769 
  497000     230.0543     -4032.28   -3637.9748     -4032.28            0    2123.1895    17.590196    20.718928    21.459998    7821.0966    1246.8287    2083.7039     3039.036   -132.83308    330.99056    118.64291 
  497500     226.5232   -4020.4818   -3632.2288   -4020.4818            0    2304.6547    17.581121    20.708239    21.448927    7808.9977    2960.4625    1856.3337     2097.168    87.766884   -332.78874   -913.04595 
  498000    230.10574   -4034.9222   -3640.5288   -4034.9222            0    875.67813    17.518347    20.634299    21.372343    7725.6491   -14.803376    1259.5301    1382.3077    600.83492    83.030912    1018.6474 
  498500    237.92487   -4045.4068   -3637.6117   -4045.4068            0    1402.9906    17.523586     20.64047    21.378734    7732.5823    1145.2835    1936.3106    1127.3778     785.4567     24.67579    333.79175 
  499000     224.5041   -4052.2379   -3667.4456   -4052.2379            0     3187.944    17.515686    20.631165    21.369096    7722.1292    3698.3935    2882.2901    2983.1486    309.31245    416.92156    210.54383 
  499500    216.21325    -4007.361   -3636.7789    -4007.361            0    566.42906    17.582469    20.709826    21.450572    7810.7943    903.31145    677.67021     118.3055    837.90404   -678.18193    50.469284 
  500000    226.33316   -4038.7077   -3650.7804   -4038.7077            0    788.82545    17.546142    20.667038    21.406252    7762.4803    920.12476    836.29074    610.06087   -97.727187   -805.98882    1300.6765 
Loop time of 1038.65 on 32 procs for 500000 steps with 864 atoms

Performance: 83.185 ns/day, 0.289 hours/ns, 481.394 timesteps/s
1583.7% CPU use with 2 MPI tasks x 16 OpenMP threads

MPI task timing breakdown:
Section |  min time  |  avg time  |  max time  |%varavg| %total
---------------------------------------------------------------
Pair    | 116.45     | 121.09     | 125.73     |  42.2 | 11.66
Bond    | 9.9938     | 10.65      | 11.307     |  20.1 |  1.03
Kspace  | 626.34     | 631.95     | 637.56     |  22.3 | 60.84
Neigh   | 6.209      | 6.2408     | 6.2726     |   1.3 |  0.60
Comm    | 81.108     | 85.692     | 90.277     |  49.5 |  8.25
Output  | 2.8134     | 3.1044     | 3.3955     |  16.5 |  0.30
Modify  | 173.54     | 175.63     | 177.72     |  15.7 | 16.91
Other   |            | 4.29       |            |       |  0.41

Nlocal:        432.000 ave         442 max         422 min
Histogram: 1 0 0 0 0 0 0 0 0 1
Nghost:        5518.00 ave        5559 max        5477 min
Histogram: 1 0 0 0 0 0 0 0 0 1
Neighs:        127305.0 ave      132125 max      122485 min
Histogram: 1 0 0 0 0 0 0 0 0 1

Total # of neighbors = 254610
Ave neighs/atom = 294.68750
Ave special neighs/atom = 2.0000000
Neighbor list builds = 19433
Dangerous builds = 0

unfix		3
unfix		2
unfix		1

write_data	data.final.${pid}
write_data	data.final.0
System init for write_data ...
PPPM initialization ...
  extracting TIP4P info from pair style
  using 12-bit tables for long-range coulomb (../kspace.cpp:340)
  G vector (1/distance) = 0.37309391
  grid = 24 24 25
  stencil order = 5
  estimated absolute RMS force accuracy = 0.0032038856
  estimated relative force accuracy = 9.6484064e-06
  using double precision FFTW3
  3d grid and FFT values/proc = 20460 7488
Last active /omp style is kspace_style pppm/tip4p/omp
WARNING: Not all mixed pair coeffs generated from mixing. Use write_data with 'pair ij' option to store all pair coeffs. (../write_data.cpp:312)

write_restart   restart.lmp.${pid}
write_restart   restart.lmp.0
System init for write_restart ...
PPPM initialization ...
  extracting TIP4P info from pair style
  using 12-bit tables for long-range coulomb (../kspace.cpp:340)
  G vector (1/distance) = 0.37309391
  grid = 24 24 25
  stencil order = 5
  estimated absolute RMS force accuracy = 0.0032038856
  estimated relative force accuracy = 9.6484064e-06
  using double precision FFTW3
  3d grid and FFT values/proc = 20460 7488
Last active /omp style is kspace_style pppm/tip4p/omp
Total wall time: 0:17:19
