#include		in.partitions
include		in.temp
variable        temperature equal 275.82
variable	tempDamp equal 100.0
include		in.pressure
variable        pressure equal -3125.0
variable        pressureDamp equal 1000.0 # This is 1 ps
include		in.seed
variable        seed equal 745823

units		real
atom_style	full
read_restart	restart.lmp.${pid}
read_restart	restart.lmp.1
Reading restart file ...
  restart file = 30 Jul 2021, LAMMPS = 30 Jul 2021
  restoring atom style full from restart
  orthogonal box = (-0.54010664 0.45535700 -0.65892883) to (18.747679 23.173821 22.872125)
  2 by 2 by 4 MPI processor grid
  restoring pair style lj/cut/tip4p/long/omp from restart
  restoring bond style harmonic/omp from restart
  restoring angle style harmonic/omp from restart
  864 atoms
  576 bonds
  288 angles
Finding 1-2 1-3 1-4 neighbors ...
  special bond factors lj:    0        0        0       
  special bond factors coul:  0        0        0       
     2 = max # of 1-2 neighbors
     1 = max # of 1-3 neighbors
     1 = max # of 1-4 neighbors
     2 = max # of special neighbors
  special bonds CPU = 0.001 seconds
  read_restart CPU = 0.006 seconds
include 	in.setup
variable	out_freq equal 1000
variable	out_freq2 equal 10000
variable	out_freq3 equal 1000

timestep	2.0

neigh_modify    delay 7 every 1

include		in.tip4p
# This is TIP4P/Ice

# create groups ###
group ox type 2
288 atoms in group ox
group hy type 1
576 atoms in group hy

# set charges - beside manually ###
set group ox charge -1.1794
Setting atom values ...
  288 settings made for charge
set group hy charge 0.5897
Setting atom values ...
  576 settings made for charge

# ### TIP3P Potential Parameters ###
pair_style lj/cut/tip4p/long/omp 2 1 1 1 0.1577 8.5
pair_coeff 1 1*2 0.000 0.000
pair_coeff 2 2 0.21084 3.1668
bond_style  harmonic
bond_coeff  1 450 0.9572
angle_style harmonic
angle_coeff 1 55 104.52
kspace_style pppm/tip4p/omp 1.0e-5
pair_modify tail yes

thermo          ${out_freq}
thermo          1000
thermo_style    custom step temp pe etotal epair emol press lx ly lz vol pxx pyy pzz pxy pxz pyz enthalpy

restart 	${out_freq3} restart.lmp.${pid} restart2.lmp.${pid}
restart 	1000 restart.lmp.${pid} restart2.lmp.${pid}
restart 	1000 restart.lmp.1 restart2.lmp.${pid}
restart 	1000 restart.lmp.1 restart2.lmp.1


include         in.dump
dump            myDump all atom ${out_freq2} dump.water.${pid}
dump            myDump all atom 10000 dump.water.${pid}
dump            myDump all atom 10000 dump.water.1
dump            myDump2 all dcd ${out_freq2} dump.dcd
dump            myDump2 all dcd 10000 dump.dcd
dump_modify     myDump append yes
dump_modify     myDump2 append yes


variable natoms 	equal  "count(all)"                        # NUMBER ATOMS
variable H      	equal  "enthalpy/v_natoms"                 # ENTHALPY-per-atom
variable Vol      	equal  "vol/v_natoms"                 # volume-per-atom
fix AVG all 		ave/time ${out_freq} 1 ${out_freq} v_Vol v_H file vol_enthalpy.dat
fix AVG all 		ave/time 1000 1 ${out_freq} v_Vol v_H file vol_enthalpy.dat
fix AVG all 		ave/time 1000 1 1000 v_Vol v_H file vol_enthalpy.dat


timer           timeout 23:50:00 every 1000
New timer settings: style=normal  mode=nosync  timeout=23:50:00

fix 		1 all shake 1e-6 200 0 b 1 a 1
       0 = # of size 2 clusters
       0 = # of size 3 clusters
       0 = # of size 4 clusters
     288 = # of frozen angles
  find clusters CPU = 0.000 seconds
fix             2 all nph iso ${pressure} ${pressure} ${pressureDamp}
fix             2 all nph iso -3125 ${pressure} ${pressureDamp}
fix             2 all nph iso -3125 -3125 ${pressureDamp}
fix             2 all nph iso -3125 -3125 1000
fix             3 all temp/csvr ${temperature} ${temperature} ${tempDamp} ${seed}
fix             3 all temp/csvr 275.82 ${temperature} ${tempDamp} ${seed}
fix             3 all temp/csvr 275.82 275.82 ${tempDamp} ${seed}
fix             3 all temp/csvr 275.82 275.82 100 ${seed}
fix             3 all temp/csvr 275.82 275.82 100 745823

run             250000
PPPM initialization ...
  extracting TIP4P info from pair style
  using 12-bit tables for long-range coulomb (../kspace.cpp:340)
  G vector (1/distance) = 0.37173555
  grid = 24 27 27
  stencil order = 5
  estimated absolute RMS force accuracy = 0.0029892569
  estimated relative force accuracy = 9.0020584e-06
  using double precision FFTW3
  3d grid and FFT values/proc = 5985 1296
Last active /omp style is kspace_style pppm/tip4p/omp
Neighbor list info ...
  update every 1 steps, delay 7 steps, check yes
  max neighbors/atom: 2000, page size: 100000
  master list distance cutoff = 10.8154
  ghost atom cutoff = 10.8154
  binsize = 5.4077, bins = 4 5 5
  1 neighbor lists, perpetual/occasional/extra = 1 0 0
  (1) pair lj/cut/tip4p/long/omp, perpetual
      attributes: half, newton on, omp
      pair build: half/bin/newton/omp
      stencil: half/bin/3d
      bin: standard
Per MPI rank memory allocation (min/avg/max) = 12.20 | 12.23 | 12.24 Mbytes
Step Temp PotEng TotEng E_pair E_mol Press Lx Ly Lz Volume Pxx Pyy Pzz Pxy Pxz Pyz Enthalpy 
12500000    276.71931   -3756.7863   -3282.4989   -3756.7863            0   -3630.3457    19.287786    22.718464    23.531053    10311.046     -3426.65   -3340.8707   -4123.5165   -776.81464   -692.42315   -47.254474   -3828.4158 
12501000    269.19782   -3764.1031   -3302.7073   -3764.1031            0   -3834.0169    19.297302    22.729672    23.542663    10326.315   -5140.5765   -3112.1918   -3249.2824    777.96636    693.55588   -160.68847   -3880.1052 
12502000    277.81897   -3791.1501   -3314.9779   -3791.1501            0   -4155.6631    19.287064    22.717614    23.530174    10309.889   -4093.7005   -4270.8057   -4102.4829    552.35536    1802.4624    748.04267   -3939.8199 
12503000    267.86647   -3766.4279   -3307.3139   -3766.4279            0   -3214.8396    19.294087    22.725885    23.538741    10321.154   -4962.3997   -2793.0044   -1889.1146   -681.91529    580.22344   -454.94844   -3791.2227 
12504000      270.467   -3808.0914   -3344.5203   -3808.0914            0   -3492.9988    19.373599    22.819541    23.635746    10449.284   -5267.0078   -2256.9467   -2955.0421    38.136854   -1259.4478   -13.136548   -3876.8256 
12505000    273.48744   -3765.2747   -3296.5266   -3765.2747            0   -4421.9706    19.431609    22.887869    23.706518     10543.43   -5895.3521   -3420.5388   -3950.0208    158.42498    226.81305    297.30635   -3976.4714 
12506000    270.34724   -3737.1462   -3273.7802   -3737.1462            0   -2883.0848    19.392995    22.842386    23.659409    10480.699   -4027.7201   -1642.6822    -2978.852   -668.17253    176.32796     50.58596   -3714.4604 
12507000    262.90572   -3718.9936   -3268.3822   -3718.9936            0   -2634.9106    19.392944    22.842327    23.659347    10480.617   -3127.3776   -2355.1242   -2422.2301   -722.48061    121.67066    269.93136   -3671.1258 
12508000    266.18411   -3721.8051   -3265.5746   -3721.8051            0   -2653.9227       19.407    22.858883    23.676495    10503.422   -3709.6593   -1209.9094   -3042.1993    346.34971    188.37794    1410.1316   -3672.1069 
12509000    296.43901    -3745.979   -3237.8926    -3745.979            0   -3303.4995     19.49582    22.963501    23.784855    10648.296   -4558.7348   -2533.1552   -2818.6087    120.42751   -145.34592    536.06457   -3750.9078 
12510000    277.09693   -3743.8382   -3268.9035   -3743.8382            0   -4068.5859    19.463518    22.925454    23.745447    10595.455   -5688.2089   -2909.9033   -3607.6454    747.73917    407.37977    1016.4239   -3897.5971 
12511000    282.73744   -3785.4655   -3300.8632   -3785.4655            0   -2653.0361    19.297869     22.73034    23.543355    10327.225   -3402.7306   -2032.7943   -2523.5833   -995.27271    1262.3489   -948.23616   -3700.4422 
12512000    291.81315   -3745.0743   -3244.9165   -3745.0743            0   -3390.0093    19.351237    22.793201    23.608463    10413.141   -3530.2655    -3967.812   -2671.9504   -743.02589    827.49614    43.852761   -3759.7402 
12513000    294.28308   -3755.5309   -3251.1397   -3755.5309            0   -4340.5025    19.424726    22.879761     23.69812    10532.229   -5205.3158   -4479.3696    -3336.822    134.03406    335.74376    265.51132   -3917.8485 
12514000    287.08076   -3831.5705   -3339.5239   -3831.5705            0   -2763.5572    19.198726    22.613564    23.422401    10168.873   -3541.3776   -2429.3889   -2319.9052   -604.77164   -211.76914    134.20869   -3749.3666 
12515000    276.92193   -3782.3308   -3307.6961   -3782.3308            0     -2632.66    19.247955    22.671548     23.48246    10247.298   -3523.5847   -2381.2795   -1993.1159    196.82024    83.452788    389.71612   -3701.1375 
12516000    284.76032   -3815.2658   -3327.1963   -3815.2658            0   -3356.0568    19.147899    22.553696    23.360392    10088.323   -3155.3223   -3802.6728   -3110.1752    436.91148    416.45305   -411.91092   -3820.9658 
12517000    278.94755   -3784.5649   -3306.4584   -3784.5649            0   -3621.5264    19.212415    22.629687    23.439101     10190.64   -2903.1722   -3903.6485   -4057.7584    640.95238    273.09054    309.81766   -3844.6897 
12518000    268.15214   -3830.5828   -3370.9792   -3830.5828            0   -3223.1696    19.168565    22.578037    23.385604    10121.022   -3676.4087   -3667.6637   -2325.4365    16.142631    831.87447    270.35064   -3846.7342 
12519000    274.53986   -3790.2125   -3319.6606   -3790.2125            0   -3502.2002    19.289794    22.720829    23.533503    10314.267   -3766.9257   -3772.7896   -2966.8854    544.48678    256.69425   -57.586002    -3846.472 
12520000    269.97321     -3820.96   -3358.2351     -3820.96            0   -3615.5203    19.208005    22.624493    23.433721    10183.624   -4013.5737   -4081.8401   -2751.1473    446.42208    371.28614    216.18657   -3895.2039 
12521000    275.00761   -3844.1745   -3372.8208   -3844.1745            0   -2416.7255    19.193838    22.607806    23.416438    10161.108   -2109.1382   -3215.3859   -1925.6524    239.92738   -297.25687     673.9725   -3730.9538 
12522000    277.38329   -3810.0755   -3334.6501   -3810.0755            0   -2688.1119    19.234932     22.65621    23.466573    10226.513   -4231.6796   -1848.8943   -1983.7619   -498.69741    786.21043   -532.64721   -3735.5637 
12523000    274.04439   -3864.5525   -3394.8498   -3864.5525            0   -2985.6668    19.252095    22.676425    23.487511    10253.912   -3114.8839   -2236.8638   -3605.2526    573.36846   -383.36842    855.16832   -3841.3348 
12524000    287.66804   -3794.1482    -3301.095   -3794.1482            0   -3049.1999     19.27403    22.702262    23.514272    10289.001   -2669.0548   -2790.6954   -3687.8494   -1543.4039    767.97495    718.68383   -3758.6413 
12525000    276.02046   -3817.4539   -3344.3643   -3817.4539            0   -3618.6888    19.227968    22.648006    23.458076    10215.409   -2952.5693   -3371.9896   -4531.5074     1173.555    142.73352   -278.71876   -3883.4811 
12526000    278.89984   -3776.7135   -3298.6887   -3776.7135            0   -2642.3391    19.176828    22.587771    23.395686    10134.117   -2526.4181   -2637.7748   -2762.8244    570.42745    289.82019    486.70343   -3689.2151 
12527000    279.37472   -3800.2172   -3321.3785   -3800.2172            0    -3739.783    19.182068    22.593942    23.402078    10142.427    -4357.419    -3305.029   -3556.9008    563.41055   -1001.6753   -773.44727   -3874.5556 
12528000    274.59535   -3849.3647   -3378.7177   -3849.3647            0   -3213.5159    19.055379    22.444719    23.247518    9942.7919   -2086.7239    -4255.324   -3298.4998    17.944743    26.242117    73.523571   -3844.6949 
12529000    262.85391   -3852.7649   -3402.2423   -3852.7649            0   -4482.5554    19.197723    22.612382    23.421177    10167.279   -5316.3001   -3416.0055   -4715.3605    1115.1402   -122.73889   -226.94385   -4066.9127 
12530000    267.17069   -3750.1699   -3292.2484   -3750.1699            0   -4035.8841    19.319995    22.756402    23.570349    10362.788   -3913.7513   -3338.3831   -4855.5179    499.55014   -401.61492   -401.94734   -3902.1942 
12531000    271.74266    -3770.766   -3305.0084    -3770.766            0   -2678.1276     19.19819    22.612932    23.421747    10168.022   -1759.0872   -3478.7538   -2796.5419    498.60474   -131.37314   -954.58428   -3702.1484 
12532000    281.88479   -3791.2995   -3308.1586   -3791.2995            0   -2613.9993    19.197295    22.611877    23.420655    10166.599    -2273.842   -2649.9113   -2918.2447    312.91943    164.63774    785.14733   -3695.7347 
12533000    276.92041   -3816.0134   -3341.3812   -3816.0134            0    -3714.334    19.099941    22.497208    23.301884    10012.711   -2324.3315   -4026.1295   -4792.5412    916.46801   -41.398196    224.00544   -3883.7673 
12534000    270.16971   -3842.9741   -3379.9125   -3842.9741            0   -4102.1172     19.16046    22.568491    23.375717     10108.19    -5407.723   -2988.3028   -3910.3257    634.49218   -614.05061    874.44325   -3984.6367 
12535000     263.1438   -3858.5477   -3407.5283   -3858.5477            0   -3845.1333    19.129332    22.531827    23.337741    10059.005   -4322.0452   -3893.1328    -3320.222   -361.55968   -93.263068    75.031313   -3971.6104 
12536000    271.50879   -3844.3107   -3378.9539   -3844.3107            0   -2853.7005    19.150722    22.557021    23.363836    10092.786   -2206.2607   -3837.2434   -2517.5975    13.915764    -774.5932   -309.86324   -3798.9985 
12537000    285.01694   -3827.1198   -3338.6105   -3827.1198            0   -2352.9385    19.126753    22.528789    23.334594    10054.937   -2100.4031    -2433.027   -2525.3855    138.03791   -125.19312    1403.0356   -3683.6477 
12538000    260.97896   -3744.5528   -3297.2438   -3744.5528            0   -4025.2293    19.455753    22.916307    23.735973    10582.779   -2747.4584   -4416.8758   -4911.3536    376.08993    304.14957    1163.3649   -3918.4935 
12539000     282.2324   -3828.0585   -3344.3219   -3828.0585            0   -2675.5926     19.10251    22.500234    23.305018    10016.752   -3221.3231   -3872.0848   -933.36981   -1247.8897    100.19618   -582.06544   -3735.1833 
12540000    282.02532   -3845.5796   -3362.1978   -3845.5796            0   -3225.7983    19.179111    22.590459     23.39847    10137.736   -3602.7365   -3695.2139   -2379.4445   -178.06968   -59.874658    298.65438   -3839.1272 
12541000    257.28955   -3783.2904   -3342.3049   -3783.2904            0    -2732.957    19.343831    22.784478    23.599429     10401.19   -2754.3757   -3707.0885   -1737.4069     -1039.89   -687.47221   -76.108189    -3756.869 
12542000     268.6504   -3832.6676     -3372.21   -3832.6676            0   -2004.1557    19.201061    22.616314     23.42525    10172.584   -2272.7481   -2604.0819   -1135.6372   -625.47828    368.36726    -604.3807     -3669.54 
12543000    285.37615   -3828.9568   -3339.8319   -3828.9568            0   -2921.0691    19.143614    22.548649    23.355165    10081.552   -4085.7244   -2202.2173   -2475.2657   -606.56427    276.80925   -28.208966    -3769.314 
12544000     279.1809   -3836.7476   -3358.2411   -3836.7476            0   -2032.8181    19.194577    22.608676    23.417339    10162.281   -184.59014   -3872.7735   -2041.0908   -370.83495    -697.2784   -899.86594   -3659.5178 
12545000     264.0843   -3874.5668   -3421.9353   -3874.5668            0    -1374.988    19.112678    22.512211    23.317423    10032.756    6.2986876   -1830.1743   -2301.0883    722.24043    81.454623   -1303.6607     -3623.12 
12546000    277.28732     -3824.61    -3349.349     -3824.61            0   -3083.8598    19.249749    22.673661    23.484648    10250.163   -2682.1776   -4132.5064   -2436.8953   -119.35911    227.55403   -170.94555   -3810.3494 
12547000    284.77624   -3862.3343   -3374.2376   -3862.3343            0   -3625.0408    19.100953      22.4984    23.303118    10014.302   -3850.5668   -3308.9745   -3715.5811   -385.87708     163.1173   -301.12259   -3903.6688 
12548000    285.05831   -3847.1733   -3358.5931   -3847.1733            0   -2641.2249    19.125188    22.526945    23.332684    10052.468   -3382.5343   -3152.6906   -1388.4498    283.22553    712.56309   -1146.7846   -3745.8097 
12549000    282.75491   -3791.1396   -3306.5073   -3791.1396            0   -4413.5015    19.243418    22.666204    23.476925    10240.053   -5648.1761   -5099.6152   -2492.7132   -1481.6537   -211.83423    497.26858   -3965.6226 
12550000    286.12034   -3848.5324    -3358.132   -3848.5324            0   -3109.8605    19.147403    22.553112    23.359788     10087.54   -3915.4273   -2689.3723   -2724.7818    226.71136   -343.53491    19.050566   -3815.6435 
12551000      273.395   -3787.6799   -3319.0903   -3787.6799            0   -3500.3143    19.119538    22.520291    23.325792    10043.562   -3655.9251   -3818.4937    -3026.524   -214.52246    66.116417   -690.87919    -3831.799 
12552000    268.20667   -3850.3288   -3390.6317   -3850.3288            0   -3247.7971    19.082205    22.476317    23.280246     9984.844   -3633.2421   -3474.6201   -2635.5291   -1321.3408    150.25559    153.23221   -3863.5718 
12553000    276.04466    -3877.708   -3404.5769    -3877.708            0   -2583.7249    19.098925     22.49601    23.300643    10011.112   -2667.6933   -3627.6759   -1455.8055    51.943211    1145.6804   -439.84635   -3781.8054 
12554000    296.21377   -3850.4417   -3342.7414   -3850.4417            0   -3216.6485    19.189078    22.602199    23.410631     10153.55   -3325.1806    -2893.333    -3431.432   -528.61953    1097.9292   -532.39471   -3819.0599 
12555000    262.14964    -3827.884   -3378.5684    -3827.884            0   -3592.0684    19.168083    22.577469    23.385016    10120.259   -3905.1481   -4297.1345   -2573.9225    159.19117     247.7574    395.28139   -3908.7347 
12556000    289.37288   -3826.6245   -3330.6493   -3826.6245            0   -4400.6361    19.180051    22.591567    23.399617    10139.227   -4784.1461   -4169.9674   -4247.7948    814.93449   -154.56516   -1213.7868   -3981.3724 
12557000     277.5069   -3821.5797   -3345.9423   -3821.5797            0   -2175.5874    19.180542    22.592145    23.400216    10140.006   -1269.7355   -2561.6925   -2695.3343    -39.56746   -738.15827   -1061.8536   -3667.6717 
12558000    278.04793    -3821.503   -3344.9384    -3821.503            0   -4176.8237    19.233568    22.654602    23.464908    10224.337    -3123.433   -4205.4978   -5201.5403   -106.77025    875.07342   -28.450414   -3967.7507 
12559000    288.77637   -3845.2512   -3350.2984   -3845.2512            0   -3321.6262    19.145815    22.551241     23.35785    10085.029   -3248.5345   -2665.2029   -4051.1413    252.82472    487.06322   -814.06405   -3838.8425 
12560000     269.7664   -3828.9664    -3366.596   -3828.9664            0   -3367.5069    19.105463    22.503712     23.30862    10021.398    -3039.821   -4115.5092   -2947.1903    594.06571   -229.17148   -454.99952   -3858.7632 
12561000    274.04033    -3807.051   -3337.3552    -3807.051            0   -3008.8899    19.077312    22.470553    23.274276    9977.1643   -3833.5513   -3854.5614   -1338.5571   -290.90657    378.34726   -232.10692   -3775.1689 
12562000    271.87073   -3765.9896   -3300.0124   -3765.9896            0   -3256.6411    18.978795    22.354514    23.154086    9823.3931    -3556.616   -3319.8837   -2893.4235   -147.33585    67.966462   -481.38595   -3766.5722 
12563000    291.15809   -3754.2347   -3255.1997   -3754.2347            0   -3412.6369    19.063271    22.454016    23.257146    9955.1515   -3970.0292   -3446.6693   -2821.2123     468.7295    791.07199   -1309.1958   -3750.6657 
12564000    287.42882   -3799.4701    -3306.827   -3799.4701            0   -2859.9772    19.160887    22.568994    23.376237    10108.865   -3435.9271   -3230.8924   -1913.1121    593.99908   -842.70132    683.39526    -3728.466 
12565000     279.0606   -3833.9554    -3355.655   -3833.9554            0   -2524.2937    19.030458    22.415366    23.217115    9903.8334    -3127.819   -2444.4089   -2000.6532    99.733044    91.970629    740.26707   -3720.2571 
12566000    288.76217   -3748.3303   -3253.4018   -3748.3303            0   -3332.9102    19.225371    22.644947    23.454908     10211.27   -3688.6836   -2216.4355   -4093.6115    27.401304   -747.15566   -827.76864   -3749.7418 
12567000    256.81226   -3770.1381   -3329.9707   -3770.1381            0   -4287.6456    19.146032    22.551496    23.358114    10085.371   -4551.3486   -5127.6561   -3183.9319    1123.5865   -703.36212   -688.25328   -3960.6182 
12568000    269.53625   -3767.8743   -3305.8984   -3767.8743            0   -2336.5829    19.113526    22.513209    23.318457    10034.091   -2518.5565   -2187.7342   -2303.4579    495.81701    194.28753   0.70295906   -3647.8267 
12569000     261.3768   -3800.1119   -3352.1211   -3800.1119            0   -2991.6715    19.260759    22.686631    23.498082    10267.762   -2838.1521   -3794.3757   -2342.4867    1121.7109   -420.89913    621.06175   -3800.1083 
12570000    262.22854   -3746.9322   -3297.4814   -3746.9322            0   -3518.1002    19.360453    22.804056    23.619707    10428.027   -3358.7042   -2933.1142   -4262.4823    262.47416   -374.02071    182.60225   -3832.5214 
12571000    273.19629   -3806.9003   -3338.6512   -3806.9003            0   -3191.7418    19.244675    22.667685    23.478458     10242.06    -4191.858   -3128.2229   -2255.1443   -313.97308     827.2008   -87.136706   -3815.4015 
12572000    286.11932   -3729.7736   -3239.3748   -3729.7736            0     -2796.97    19.352084    22.794199    23.609498     10414.51   -3646.1325   -2592.6761   -2152.1013    422.93554    234.68989   -47.889138   -3664.1925 
12573000    270.40301   -3805.9015     -3342.44   -3805.9015            0   -3929.6824    19.209344     22.62607    23.435354    10185.754   -4203.6792   -3776.3564   -3809.0117    -557.0431    471.64406    396.80186   -3926.1895 
12574000    279.35185   -3780.3737   -3301.5742   -3780.3737            0   -3087.1693     19.29743    22.729824     23.54282    10326.521   -3423.8494   -3009.8404   -2827.8181    -590.7925    1140.7338    -361.5975   -3766.5072 
12575000     265.3264   -3760.0137   -3305.2533   -3760.0137            0   -3363.7834    19.225881    22.645548     23.45553    10212.083   -3167.9256   -2878.7812   -4044.6433    1857.1992    -292.1842   -480.15378   -3806.2308 
12576000    282.39083   -3802.7135   -3318.7053   -3802.7135            0    -3782.827    19.243708    22.666546    23.477279    10240.516   -4712.6072   -4122.6571   -2513.2167    304.58233    586.24698    485.05556   -3883.6608 
12577000    256.23324   -3766.5194   -3327.3444   -3766.5194            0      -4259.6    19.263515    22.689876    23.501443     10272.17   -4721.8117   -4721.4306   -3335.5577   -69.925718    -1050.077   -7.3787008   -3965.4711 
12578000    300.41929   -3792.4357   -3277.5273   -3792.4357            0   -3155.3603      19.3328    22.771485    23.585971    10383.407   -4575.8685   -1447.4163   -3442.7963     276.3843    376.09816    718.75886   -3755.3477 
12579000    286.21908   -3830.0448   -3339.4751   -3830.0448            0    -1794.582    19.111017    22.510254    23.315396     10030.14   -1425.5533   -2294.7729   -1663.4198    34.988492    435.82892     1177.736   -3601.9853 
12580000    288.40309   -3756.5376   -3262.2245   -3756.5376            0   -3180.2802     19.36895    22.814065    23.630074    10441.763   -3727.8559   -2019.2185    -3793.766    728.37427    1355.1774   -699.59804   -3746.5252 
12581000    282.70617   -3797.5607   -3313.0119   -3797.5607            0   -4043.9911    19.362626    22.806616    23.622359    10431.539   -4115.1947   -4337.6875   -3679.0912    619.70716   -125.46113   -151.80969   -3928.2376 
12582000    286.91611   -3830.2125   -3338.4481   -3830.2125            0   -4066.6261    19.407415    22.859371    23.677001    10504.095   -5135.0973    -2964.546   -4100.2352    269.32359    699.48564    1142.9609   -3961.4204 
12583000    273.72345   -3792.1698   -3323.0172   -3792.1698            0   -3069.3232    19.283652    22.713595    23.526011    10304.418   -3518.8642   -2748.2184   -2940.8869    325.27994    261.90082    516.60897   -3784.2731 
12584000    284.07272   -3712.9188   -3226.0279   -3712.9188            0    -4193.271    19.543834    23.020055    23.843432    10727.163    -4513.841   -3500.3506   -4565.6213     1080.647    193.76168    447.26764   -3882.0428 
12585000    288.97203   -3795.1291   -3299.8409   -3795.1291            0   -3542.0623    19.282902    22.712711    23.525095    10303.215   -2924.1357    -3728.245   -3973.8062    -287.5561    116.16478   -375.89306   -3832.0777 
12586000    278.88969   -3788.0497   -3310.0423   -3788.0497            0   -3835.6261    19.370069    22.815383    23.631439    10443.572   -3831.2496   -4061.8669   -3613.7618     770.2539   -508.23594   -152.73846   -3894.2419 
12587000    272.61315   -3796.2952   -3329.0456   -3796.2952            0   -3079.5701    19.357111     22.80012     23.61563    10422.627   -3341.6094    -2720.785    -3176.316   -695.89437   -308.96196    268.12459   -3797.1505 
12588000    293.88494   -3772.2187     -3268.51   -3772.2187            0   -3160.0663     19.37638    22.822816    23.639138    10453.783   -2519.3653   -4532.4118   -2428.4218   -74.085219   -271.39155    1105.2722   -3750.2864 
12589000    271.68195   -3833.7496   -3368.0961   -3833.7496            0    -2475.611    19.169852    22.579553    23.387175    10123.061   -2518.1159   -2474.9741    -2433.743    32.433123    646.58615   -587.30609   -3733.5816 
12590000    267.97034   -3763.7966   -3304.5046   -3763.7966            0   -2678.3302    19.396268    22.846242    23.663402    10486.007   -2928.9796   -2781.3032    -2324.708   -1312.7862    142.85707    -314.4973   -3714.0953 
12591000    272.70303     -3786.99   -3319.5864     -3786.99            0     -3637.53    19.469616    22.932636    23.752886    10605.417   -3219.1056   -3205.5583   -4487.9262    279.67556   -75.883203    232.23814      -3882.2 
12592000    271.07041   -3746.2729   -3281.6674   -3746.2729            0   -2759.6595    19.281641    22.711226    23.523557    10301.194   -2126.0616   -2748.6423   -3404.2746    726.12429    76.169326   -741.20311   -3696.2576 
12593000     271.8289   -3809.3177   -3343.4123   -3809.3177            0   -2632.8996    19.319784    22.756154    23.570091    10362.448   -1729.7107   -3191.9092   -2977.0789    22.042998    560.91045    48.326553    -3741.311 
12594000    279.58151   -3783.9582    -3304.765   -3783.9582            0   -3135.2445    19.373539     22.81947    23.635673    10449.187   -3052.4703   -3793.2123   -2560.0508   -91.974403    597.49895    156.54668    -3782.547 
12595000    266.08666    -3797.685   -3341.6215    -3797.685            0   -2926.7407    19.368393    22.813408    23.629394    10440.862   -2313.7461   -4431.0171    -2035.459   -347.69867    257.75711    473.74196   -3787.2742 
12596000    274.87956   -3705.8808   -3234.7466   -3705.8808            0   -3856.0707    19.650289    23.145445    23.973307    10903.412   -3755.9742   -3160.1843   -4652.0536    14.415308     77.52429   -276.25019     -3847.92 
12597000    270.16942   -3755.0523   -3291.9912   -3755.0523            0   -3023.9634    19.439932    22.897672    23.716672    10556.983   -3798.2169   -3108.1692   -2165.5043    437.61799    1257.9465    -715.7046    -3757.569 
12598000    263.85236   -3806.1071   -3353.8732   -3806.1071            0   -3824.3898    19.430709    22.886808    23.705419    10541.963   -3892.8532   -4123.0216   -3457.2945    78.399281    722.66773   -31.321262   -3941.8491 
12599000    294.08635   -3813.8644   -3309.8105   -3813.8644            0   -3122.8718    19.352639    22.794852    23.610174    10415.405   -3997.8618   -2237.3364   -3133.4172   -506.75771    491.80358   -866.99223   -3784.1685 
12600000    280.79243   -3840.7077   -3359.4391   -3840.7077            0   -2995.9143    19.371637     22.81723    23.633352    10446.109   -2742.3915   -2334.7043    -3910.647   -1070.7386    766.68303    166.70276    -3815.854 
12601000    265.40456   -3829.3386   -3374.4443   -3829.3386            0   -2403.0586    19.279756    22.709006    23.521257    10298.173   -3172.3568   -2970.5287   -1066.2904    627.11592    343.79658   -32.360065   -3735.3555 
12602000    278.51516   -3799.7636   -3322.3981   -3799.7636            0   -2342.6803    19.275053    22.703467     23.51552    10290.639   -1634.8461   -2778.4589   -2614.7358    -1268.021    263.21635    231.63432   -3673.9838 
12603000    276.63767   -3776.9297   -3302.7822   -3776.9297            0   -2389.6176    19.312056    22.747051    23.560663    10350.019   -3326.5818   -1667.1688   -2175.1021   -106.79166   -188.74894   -456.06755   -3663.4816 
12604000    274.64611   -3759.1535   -3288.4194   -3759.1535            0   -2367.6607    19.329697     22.76783    23.582185    10378.408   -1261.8022   -3051.6409    -2789.539    1164.3388    269.27353   -78.375953   -3646.7848 
12605000    304.20944   -3803.9433   -3282.5387   -3803.9433            0   -3054.9536     19.31717    22.753075    23.566902    10358.243   -2712.0296   -3541.0839   -2911.7471    81.705498    323.16744   -863.37803   -3744.0333 
12606000    275.03117   -3858.5442   -3387.1502   -3858.5442            0    -1495.231    19.179498    22.590915    23.398942     10138.35   -1115.6895   -605.79278   -2764.2105    389.93236    221.37562    253.00136   -3608.2312 
12607000    274.67899   -3834.1431   -3363.3527   -3834.1431            0   -3972.8387    19.269784     22.69726    23.509091    10282.201   -4299.4506   -4399.3051   -3219.7604    -155.7971    432.62551    90.276821   -3959.1012 
12608000    268.04013   -3779.8419   -3320.4302   -3779.8419            0   -3593.0614    19.304426    22.738064    23.551355    10337.756   -3720.7662   -3048.1216   -4010.2965   -233.66131   -812.44299    269.13237   -3862.1402 
12609000    275.37657   -3832.8144   -3360.8284   -3832.8144            0   -3898.3801    19.126304    22.528259    23.334046    10054.228   -3518.0115   -4566.0023   -3611.1263      37.2741   -31.644786   -779.69478   -3932.4502 
12610000    259.22857   -3810.9377   -3366.6288   -3810.9377            0   -2967.3471    19.162244    22.570593    23.377893    10111.014   -3319.6423   -2909.1953   -2673.2039   -659.90253    230.22845    391.91623   -3804.1901 
12611000    269.97105   -3764.4391    -3301.718   -3764.4391            0   -3752.3683    19.371386    22.816933    23.633045    10445.702   -3541.5825   -2856.9975   -4858.5248     1108.604    714.05976   -51.726097   -3873.3532 
12612000    282.31095   -3794.3398   -3310.4685   -3794.3398            0    -2995.068    19.232002    22.652758    23.462997     10221.84   -2318.6697   -3628.4175   -3038.1167    985.81899     489.1644   -974.25934   -3756.9584 
12613000    279.84104   -3834.7706   -3355.1327   -3834.7706            0   -1971.9388    19.018357    22.401113    23.202351    9884.9526   -2711.7811    -1262.114   -1941.9211   -686.25611   -196.43973   -672.58315   -3639.4111 
12614000    291.17052   -3792.8683    -3293.812   -3792.8683            0   -2573.8907    19.214536    22.632185    23.441689    10194.015   -2759.8704   -2670.8133   -2290.9883    333.80081     984.2306   -153.95888   -3676.4704 
12615000    286.06621   -3796.1125   -3305.8048   -3796.1125            0   -3122.3152    19.155113    22.562192    23.369193    10099.729   -2955.1329   -3952.1245   -2459.6881    -810.9488   -779.70584    535.15596   -3765.7037 
12616000    270.40475   -3833.1206   -3369.6561   -3833.1206            0   -3177.9088    19.255846    22.680843    23.492087    10259.906   -2893.5322   -3689.4461    -2950.748   -1220.9278    280.06244    133.93784   -3845.1673 
12617000    266.94411     -3833.15   -3375.6169     -3833.15            0   -2429.0485    19.210547    22.627487    23.436823    10187.668   -3059.6566   -1658.1145   -2569.3744    931.27418    353.14919    1274.2344   -3736.5169 
12618000    283.13769   -3855.0767   -3369.7884   -3855.0767            0   -2769.4833    19.195617    22.609902    23.418608    10163.934   -3967.6917   -1846.0931    -2494.665    35.886226   -271.82417   -40.109778   -3780.3104 
12619000    272.48144   -3799.9396   -3332.9158   -3799.9396            0   -2164.6776    19.217451    22.635619    23.445246    10198.656   -2785.9842    -1866.978   -1841.0705   -240.53777   -448.13547    -699.0297   -3654.8833 
12620000    261.68266   -3806.6966   -3358.1815   -3806.6966            0   -3200.3282     19.26143     22.68742    23.498899    10268.834   -2794.3897   -4391.2854   -2415.3095   -509.56323   -651.93849   -557.91573   -3837.4639 
12621000    275.01701   -3846.7585   -3375.3887   -3846.7585            0   -2462.3784    19.129569    22.532106     23.33803    10059.379   -1794.0653   -3560.5087   -2032.5612   -113.30705   -754.22445    -340.9138   -3736.6337 
12622000    285.54396   -3781.9794   -3292.5668   -3781.9794            0   -3165.6645    19.357499    22.800577    23.616104    10423.255   -3189.8091    -2718.264   -3588.9204   -393.72491   -348.31142   -379.99605   -3773.7873 
12623000     255.4872   -3811.1618   -3373.2654   -3811.1618            0   -3301.1173    19.301382    22.734479    23.547641    10332.867   -2667.4667   -4513.3318   -2722.5536    798.72393    606.69998   -569.39743   -3870.7249 
12624000    287.43181   -3817.6014   -3324.9531   -3817.6014            0   -1707.7986    19.223058    22.642223    23.452085    10207.585   -2047.4489   -2379.7927   -696.15419    241.54587    43.616208   -216.65367   -3579.1882 
12625000    291.59893   -3778.0611   -3278.2705   -3778.0611            0   -2693.8632    19.390089    22.838964    23.655864    10475.989   -1693.2298   -4636.1333   -1752.2264   -298.91734    145.13044   -134.44873   -3689.8431 
12626000    274.60334   -3833.4597    -3362.799   -3833.4597            0   -2293.7726    19.318429    22.754557    23.568438    10360.268   -2303.3249    -2793.418   -1784.5749    308.23838    95.383266   -151.55478    -3709.374 
12627000    280.12482   -3808.2198   -3328.0954   -3808.2198            0   -1806.2775    19.328595    22.766532    23.580841    10376.633   -980.08671   -1864.8122   -2573.9336    83.780941    379.38427   -130.78806    -3601.444 
12628000     278.5169   -3796.7091   -3319.3407   -3796.7091            0   -2255.7198    19.404703    22.856178    23.673693    10499.694   -370.09867   -2725.3304   -3671.7305    175.88766    499.33115    207.39198   -3664.7529 
12629000    278.49597   -3748.9407   -3271.6081   -3748.9407            0   -3858.4649    19.542104    23.018017    23.841321    10724.314   -3875.3836   -3759.7229   -3940.2882   -779.02276     352.7846    16.830032   -3875.0841 
12630000     259.0449   -3801.0795   -3357.0853   -3801.0795            0   -2182.9875    19.357778    22.800905    23.616444    10423.705   -2464.5528   -2380.4566   -1703.9531   -1351.1629    789.35009     -202.441    -3688.941 
12631000    275.23479    -3814.701   -3342.9579    -3814.701            0   -2740.9368    19.510568    22.980872    23.802847    10672.479   -2884.8498   -2014.6696   -3323.2911    574.71968    78.936612   -447.89385    -3769.577 
12632000    289.73735   -3797.7248   -3301.1249   -3797.7248            0   -2781.1087    19.474802    22.938744    23.759213    10613.894   -2213.5106   -3795.1498   -2334.6656   -277.04923    575.41794   -1047.6765   -3731.6203 
12633000    269.73018   -3787.4832   -3325.1749   -3787.4832            0   -3765.9387    19.507634    22.977416    23.799267    10667.665   -3628.4804   -3686.6375   -3982.6981    371.74437   -486.82834   -228.46829   -3911.0682 
12634000    262.08254    -3815.985   -3366.7845    -3815.985            0   -2332.6949    19.389257    22.837984    23.654849     10474.64   -3687.8549   -1878.2328   -1431.9971     629.5631   -694.80077    36.322567   -3723.1314 
12635000    261.96359    -3837.604   -3388.6073    -3837.604            0   -3683.0235      19.2566    22.681731    23.493007    10261.112    -4234.946   -3797.9237   -3016.2007   -442.27353     874.6174   -677.07028   -3939.7637 
12636000    287.41257   -3803.7381   -3311.1228   -3803.7381            0   -3994.7539    19.427146    22.882612    23.701073    10536.166   -4053.0905   -4356.7005   -3574.4706   -383.68408   -23.193439     63.48416   -3924.9533 
12637000    282.18722   -3810.0099   -3326.3506   -3810.0099            0   -3478.1076    19.588392    23.072539    23.897793    10800.702   -4670.1173   -3093.4507   -2670.7549    321.48599     543.8615   -1084.2878   -3874.2122 
12638000    275.16081   -3783.5819   -3311.9657   -3783.5819            0   -2001.1613    19.392886    22.842258    23.659276    10480.523   -1760.1572   -2063.0508   -2180.2758    315.91609    552.70285    424.32092   -3617.8385 
12639000    249.51029    -3795.254   -3367.6019    -3795.254            0   -3731.1479    19.472078    22.935536     23.75589    10609.441   -4884.3036   -3820.0958   -2489.0444   -58.997649     0.455761    364.63713   -3944.9142 
12640000     263.9337   -3773.0914   -3320.7181   -3773.0914            0   -2448.0555    19.405944    22.857638    23.675206    10501.707   -1876.8443   -2934.5239   -2532.7983    1067.0866   -43.792226    1105.2604    -3695.654 
12641000    263.68304    -3801.619   -3349.6753    -3801.619            0   -3330.5185     19.31027    22.744947    23.558484    10347.147   -2642.6068   -3283.4978    -4065.451    307.98525   -390.11993   -388.31202    -3852.259 
12642000    268.84093    -3748.831   -3288.0469    -3748.831            0   -3718.7359    19.356296     22.79916    23.614636    10421.312   -4403.0285   -3817.1982   -2935.9809   -21.362361   -159.10803   -405.97928   -3853.2357 
12643000    263.01327   -3766.3913   -3315.5955   -3766.3913            0   -2842.6084    19.232614    22.653478    23.463744    10222.815   -3531.8878    -2620.025   -2375.9124    107.84432    1545.0264   -118.61493    -3739.398 
12644000    277.39925   -3779.4737   -3304.0209   -3779.4737            0   -3150.9536    19.239867    22.662022    23.472593    10234.386    -3107.011   -3546.0204   -2799.8293    154.20856   -95.852329    590.08612    -3774.326 
12645000    284.27441   -3717.2273   -3229.9907   -3717.2273            0   -3800.5841    19.429871    22.885822    23.704397      10540.6   -2653.2526   -4784.1734   -3964.3264    87.320431   -242.40551   -771.24403   -3814.2311 
12646000    260.21783   -3759.5172   -3313.5127   -3759.5172            0   -2968.3663    19.393198    22.842625    23.659656    10481.028   -2977.2926   -3376.4874   -2551.3189   -1202.6558   -1204.5394    52.371489   -3767.2425 
12647000    273.18671    -3787.819   -3319.5863    -3787.819            0    -2403.263    19.236861    22.658481    23.468925    10229.589   -2827.7692   -3376.5097     -1005.51   -464.83468    736.02169     75.65337   -3678.1245 
12648000    261.07683   -3781.8375   -3334.3607   -3781.8375            0   -2572.6282    19.353146    22.795449    23.610792    10416.223   -2578.8452   -2873.2459   -2265.7936   -565.84217    517.34698    -114.7331   -3725.1685 
12649000    284.07085   -3754.3378   -3267.4501   -3754.3378            0   -2516.2429    19.276837    22.705567    23.517696    10293.496    -3140.642   -2718.2972   -1689.7895    45.362517   -398.65852    884.34163   -3645.1887 
12650000    279.64315   -3787.1448    -3307.846   -3787.1448            0   -3455.6086    19.422502    22.877142    23.695407    10528.611   -3643.8663   -2964.3024   -3758.6572     -555.314    519.90662    286.13251   -3838.4513 
12651000    277.54383   -3779.3984   -3303.6978   -3779.3984            0   -3448.3881    19.374047    22.820068    23.636292    10450.008   -2896.0598   -2647.7569   -4801.3477    592.53149    -355.6018   -1232.2184   -3829.2413 
12652000    264.63737    -3797.726   -3344.1466    -3797.726            0   -2720.4605    19.413062    22.866022     23.68389    10513.267    -2833.789   -3365.0796   -1962.5127   -71.313173    136.91636   -64.480743   -3761.2618 
12653000    266.33975   -3776.0639   -3319.5666   -3776.0639            0   -2573.5067     19.36318    22.807268    23.623034    10432.433   -2416.7272   -3072.6053   -2231.1876    437.66243    275.84076   -119.15351   -3711.1163 
12654000    262.95087   -3789.4374   -3338.7486   -3789.4374            0   -4947.4593    19.448792    22.908108    23.727481    10571.424    -4860.493   -5473.2747   -4508.6102    450.79019   -697.59888   -186.12097   -4101.5151 
12655000    257.50202   -3763.0395   -3321.6898   -3763.0395            0    -2993.898    19.363538     22.80769    23.623472    10433.013   -3236.8175   -2863.7639   -2881.1126    501.20724    63.377315    213.87668   -3777.2258 
12656000    251.65173   -3776.4469   -3345.1245   -3776.4469            0   -3718.5494    19.614249    23.102994    23.929338    10843.529   -4471.1625   -3572.0908   -3112.3949    30.972983   -343.88027   -211.94902   -3933.1824 
12657000     281.7937   -3790.8023   -3307.8176   -3790.8023            0   -4300.6414     19.44708    22.906092    23.725392    10568.633   -5416.0882   -3830.3666   -3655.4695    -767.0358   -600.75179   -483.47133   -3970.6869 
12658000    275.92659   -3793.9431   -3321.0144   -3793.9431            0   -2620.2749    19.451253    22.911007    23.730483    10575.437   -2934.4719   -3235.9716   -1690.3812    219.05004   -192.10675    38.753557   -3725.1444 
12659000    278.38153   -3794.7607   -3317.6243   -3794.7607            0   -3301.1744    19.465876     22.92823    23.748323    10599.306   -2893.3542   -3900.6336   -3109.5354   -77.371418    361.41529   -532.20467   -3827.9198 
12660000    281.07625   -3759.1808   -3277.4257   -3759.1808            0    -3375.206    19.491997    22.958998    23.780191    10642.033    -3194.803   -2882.0205   -4048.7944     156.7028    254.80896    648.19258   -3801.2683 
12661000    252.25278   -3739.8912   -3307.5386   -3739.8912            0   -3703.6513    19.664619    23.162323    23.990789    10927.283    -4272.387    -3393.151   -3445.4158   -582.59771    282.93843   -1108.0065   -3897.7644 
12662000    273.97548   -3781.9587   -3312.3741   -3781.9587            0    -3127.084    19.429468    22.885347    23.703906    10539.944   -3331.6959   -2612.7793   -3436.7768    174.58251   -411.38348   -135.15765   -3793.0516 
12663000    271.20274   -3752.3686   -3287.5364   -3752.3686            0   -3546.4863     19.72039    23.228015     24.05883     11020.52   -4415.5553   -3846.0698   -2377.8336   -229.51672   -378.02839   -81.419142   -3857.5382 
12664000    267.97076   -3757.1082   -3297.8155   -3757.1082            0   -3937.3343     19.73485    23.245047    24.076471    11044.781   -3625.4166   -4103.5479   -4083.0383   -476.45504    92.715196   -801.29792   -3932.0287 
12665000    268.19638   -3771.8404    -3312.161   -3771.8404            0   -1776.6216    19.525937    22.998975    23.821597     10697.72   -1525.6081   -2194.5908   -1609.6658   -505.79021    115.73313    -932.8705   -3589.3411 
12666000     274.8086   -3716.4906    -3245.478   -3716.4906            0   -3978.9833    19.702217    23.206609    24.036658     10990.08   -3917.7159   -4596.2467   -3422.9872   -886.15542    194.72512    -425.0075   -3883.2257 
12667000    274.59005   -3792.1254   -3321.4874   -3792.1254            0   -3450.3908    19.592608    23.077504    23.902936    10807.676   -3153.9247   -3231.1954   -3966.0523   -280.20731   -706.69581   -800.77956   -3865.3341 
12668000    291.00629   -3755.4498    -3256.675   -3755.4498            0   -3736.9915    19.523411    22.995999    23.818516    10693.569   -4111.8241   -3385.0528   -3714.0975    104.05859    269.78809   -362.71781   -3839.4765 
12669000    272.53497   -3732.2922   -3265.1766   -3732.2922            0   -4237.3336    19.448653    22.907944    23.727311    10571.197   -4365.7922   -3498.4222   -4847.7864   -144.68781      745.446    67.648677   -3918.4466 
12670000    262.50164   -3723.3644   -3273.4456   -3723.3644            0   -3942.5304    19.536323    23.011208    23.834269      10714.8   -4125.4807   -4374.0435    -3328.067   -96.480706   -93.581867   -110.96367   -3889.5226 
12671000    262.45355   -3739.3707   -3289.5343   -3739.3707            0   -3467.9918    19.532057    23.006184    23.829065    10707.783   -3657.6215   -3241.1925   -3505.1613    65.000689    623.94075   -177.61828   -3831.1029 
12672000    272.07644   -3760.2156   -3293.8859   -3760.2156            0   -3091.5693    19.544763    23.021149    23.844565    10728.693   -2883.2941   -3885.2162   -2506.1976    175.40256   -443.63532   -828.85149   -3777.6145 
12673000    271.48094   -3777.6064   -3312.2974   -3777.6064            0   -3183.7794    19.497344    22.965296    23.786714    10650.793   -3235.5989   -2371.7703   -3943.9689   -19.386073    402.39878    80.381141   -3806.8367 
12674000    266.74549    -3771.942   -3314.7493    -3771.942            0   -3841.3235    19.551847    23.029493    23.853207    10740.363   -4064.3509    -3459.358   -4000.2616     99.03476     91.14833    212.43101   -3916.4434 
12675000    278.01763   -3772.7717    -3296.259   -3772.7717            0   -1836.3975    19.531617    23.005665    23.828527    10707.059   -2872.1938   -1328.7032   -1308.2955   -581.78255    154.17903    359.57347   -3583.0152 
12676000    275.19739   -3812.0904   -3340.4115   -3812.0904            0    -4027.536     19.66288    23.160275    23.988667    10924.384   -3574.6999   -4551.4038   -3956.5042      24.2772    468.66244   -13.943067   -3982.0823 
12677000    290.09939   -3771.8302   -3274.6097   -3771.8302            0   -2900.8572    19.531301    23.005293    23.828142    10706.539   -3567.1224   -3750.4018   -1385.0475   -596.87251     694.5264   -59.015728   -3727.5609 
12678000    278.79381    -3778.515    -3300.672    -3778.515            0   -1913.8572    19.513302    22.984093    23.806183    10676.968   -2906.0257   -1441.9171   -1393.6288   -626.33814    243.53669    310.68937   -3598.6837 
12679000    267.04558   -3754.8574   -3297.1504   -3754.8574            0   -4047.7758    19.713941    23.220419    24.050962    11009.712   -3454.4591   -3828.6181   -4860.2502   -681.33087    511.96396   -4.0177944   -3947.0829 
12680000    271.48922   -3817.8687   -3352.5455   -3817.8687            0   -3535.8179    19.367575    22.812446    23.628397     10439.54   -3970.2717    -3850.777    -2786.405   -40.172891   -145.17827   -53.739573   -3890.8737 
12681000    291.82006   -3809.9846    -3309.815   -3809.9846            0   -4364.3327    19.555472    23.033763    23.857631    10746.339   -3799.7537   -5108.3546   -4184.8897    775.05791    544.55922   -55.932819   -3993.8121 
12682000    290.14696   -3775.1284   -3277.8265   -3775.1284            0   -2825.9261     19.54547    23.021982    23.845428    10729.857   -2718.9922   -3109.9837   -2648.8025   -1380.3323    485.30469    387.07799   -3720.0386 
12683000    271.23328   -3809.1295    -3344.245   -3809.1295            0   -3084.0893    19.465521    22.927813     23.74789    10598.727   -3182.4483   -3653.1791   -2416.6404   -121.50363   -966.09321    759.07764   -3820.9575 
12684000    269.90266   -3803.1322   -3340.5283   -3803.1322            0   -3001.8308    19.526873    23.000077     23.82274    10699.259   -3721.5509   -1512.4279   -3771.5137   -376.78358   -896.38474    118.64752   -3808.9271 
12685000    281.19996   -3782.6405   -3300.6734   -3782.6405            0   -3733.2324    19.614717    23.103546    23.929909    10844.305   -4192.3416   -3383.7146   -3623.6411    93.308131    439.97308   -550.39692   -3891.0955 
12686000    288.82627   -3781.1241   -3286.0858   -3781.1241            0   -4388.8679    19.562723    23.042303    23.866476    10758.296   -3130.6113   -5062.1941   -4973.7982    69.699086    551.56193    -433.6073   -3974.6935 
12687000    268.84983   -3834.1436   -3373.3442   -3834.1436            0    -2280.413    19.376037    22.822412     23.63872    10453.229   -1548.8422   -2298.1289   -2994.2678    402.18065   -341.82203   -483.75633   -3720.9923 
12688000    293.25741   -3803.8126   -3301.1795   -3803.8126            0   -3810.7169    19.617344     23.10664    23.933114    10848.663   -2638.2612   -4029.4017   -4764.4878    542.41435      -282.06   -231.88312   -3904.0982 
12689000    263.38138   -3835.7988   -3384.3722   -3835.7988            0   -2855.0779    19.591042     23.07566    23.901026    10805.085   -3134.6448   -2847.2171    -2583.372    526.43846    172.83888   -807.44922   -3834.2784 
12690000    294.83793   -3778.2751    -3272.933   -3778.2751            0   -3799.4376    19.694028    23.196964    24.026668    10976.383   -4147.0494   -2896.0973    -4355.166     56.93558   -270.28129   -1194.8358   -3881.1443 
12691000     285.5972   -3825.7582   -3336.2544   -3825.7582            0   -3026.3241    19.508768    22.978751    23.800651    10669.525   -2169.4412   -3415.1605   -3494.3705    529.44255   -457.97841   -456.89576   -3807.1627 
12692000    271.67626   -3785.4937   -3319.8499   -3785.4937            0   -3126.5763    19.583734    23.067051    23.892109    10792.997   -3320.7111   -2298.4423   -3760.5755    973.40079   -207.74575   -353.16051    -3811.988 
12693000     270.3232   -3766.9489   -3303.6241   -3766.9489            0   -3947.4068    19.715788    23.222594    24.053215    11012.807   -2916.4632   -4040.6477   -4885.1095    21.352258    336.58472   -422.22471   -3937.6191 
12694000    292.20853   -3819.5719   -3318.7365   -3819.5719            0   -2860.2384    19.553543     23.03149    23.855276    10743.158   -3090.2704   -2255.7233   -3234.7215    771.00353   -343.35248   -1293.4135   -3766.8727 
12695000    274.54518   -3817.7116   -3347.1506   -3817.7116            0   -2540.9304    19.528504    23.001999     23.82473    10701.941    -2067.337   -2086.5211    -3468.933   -180.15508    954.10949   -164.98024   -3743.7309 
12696000    279.51304    -3806.667   -3327.5912    -3806.667            0   -2646.5899    19.523204    22.995756    23.818264    10693.229   -2986.6832   -1643.5537    -3309.533     197.8185    753.15129   -202.96184   -3740.3263 
12697000    273.49899   -3833.1467   -3364.3788   -3833.1467            0   -3811.7863     19.50919    22.979249    23.801167    10670.219   -3837.7891   -3391.6835   -4205.8861     362.4235    671.51301   -811.95184   -3957.5469 
12698000    290.27007   -3814.1333   -3316.6203   -3814.1333            0    -3113.261    19.574311    23.055953    23.880613    10777.425   -3286.6448    -3324.475    -2728.663    459.88154   -239.81956   -1026.5077   -3805.9555 
12699000    284.75237    -3793.628   -3305.5722    -3793.628            0   -4753.3238    19.661064    23.158136    23.986452    10921.358   -5321.8202    -3837.258   -5100.8932   -604.93863   -298.64718   -588.42752   -4062.6664 
12700000    274.41147   -3831.8494   -3361.5176   -3831.8494            0   -3607.0917    19.537022    23.012031    23.835121     10715.95   -2342.4845   -4158.1057    -4320.685   -1246.4724    1098.7894   -575.24662    -3925.238 
12701000    274.64941   -3822.5999   -3351.8602   -3822.5999            0   -2715.4367    19.521246    22.993449    23.815874    10690.012    -2708.558   -2708.6611   -2729.0911   -524.81721   -149.85423   -660.24857   -3775.2045 
12702000    269.23851   -3787.9593   -3326.4937   -3787.9593            0   -2657.5992    19.482975    22.948371    23.769184    10627.263   -3106.1522   -2646.7308   -2219.9147    256.02251   -135.91153   -645.30598   -3738.3889 
12703000    262.43644   -3841.0302   -3391.2231   -3841.0302            0   -2470.0787    19.453994    22.914236    23.733828    10579.909   -2635.4701   -2241.8988   -2532.8672    37.281868   -316.15802   -273.59321   -3772.3491 
12704000    274.07399   -3840.2171   -3370.4636   -3840.2171            0   -3827.7626    19.377845    22.824542    23.640926    10456.156   -4401.5205   -2799.0346   -4282.7329   -766.50337    376.17056    610.87236    -3954.168 
12705000    274.88649    -3833.326     -3362.18    -3833.326            0   -3921.5194    19.544706    23.021082    23.844496      10728.6    -4372.495   -4272.5512   -3119.5119   -723.72001    936.95997    735.58603   -3975.7629 
12706000    269.91449   -3825.3005   -3362.6763   -3825.3005            0   -3306.9027    19.507958    22.977798    23.799663    10668.197   -2948.2941   -3858.2082   -3114.2059    148.15537    829.64678    405.56807   -3877.1798 
12707000    282.41975   -3842.4679   -3358.4101   -3842.4679            0   -3715.5245    19.396719    22.846773    23.663952    10486.738   -2972.0076   -3655.1193   -4519.4467   -529.31316   -441.23842    486.97444   -3926.6561 
12708000    271.27597   -3772.3397   -3307.3819   -3772.3397            0   -4018.8493    19.547167    23.023981    23.847498    10732.653   -5027.0518   -3534.7614   -3494.7346   -517.76218   -372.14572    249.78071   -3936.4312 
12709000     277.9043   -3836.3696   -3360.0511   -3836.3696            0   -2300.6434     19.27771    22.706596    23.518761    10294.895   -1975.6911    -2335.308   -2590.9312   -337.52857   -293.69708   -437.58962   -3705.4709 
12710000    289.19503     -3798.15   -3302.4796     -3798.15            0   -2986.3836    19.483651    22.949167    23.770009    10628.369   -2929.6619   -3258.6257   -2770.8632    197.80011    865.53289   -10.901326   -3765.3806 
12711000    271.33065   -3834.5381   -3369.4867   -3834.5381            0   -3108.5509    19.449698    22.909176    23.728587    10572.902   -3011.5886   -2497.3756   -3816.6886    409.76086    46.908236   -616.30966   -3848.8094 
12712000    274.44956   -3820.2041    -3349.807   -3820.2041            0   -2541.3533    19.414019     22.86715    23.685058    10514.823   -3198.7489   -2809.4789   -1615.8321    507.75083   -773.82385   -757.50037   -3739.5182 
12713000    295.17056   -3844.8217   -3338.9095   -3844.8217            0   -3262.6931    19.455379    22.915866    23.735517    10582.168   -2983.1248   -3397.4212   -3407.5332   -95.211355   -262.25732   -363.34902   -3842.4411 
12714000    271.60614    -3837.131   -3371.6074    -3837.131            0   -3280.3962    19.366274    22.810913     23.62681    10437.436   -3350.7313   -3697.0104   -2793.4469    853.64184    356.80433   -147.64022    -3870.947 
12715000    242.09856   -3833.4107    -3418.462   -3833.4107            0   -2285.7503    19.352877    22.795133    23.610465     10415.79   -2358.3462    -2754.023   -1744.8816    122.00931   -466.80235    393.93729   -3765.6758 
12716000    267.64795   -3807.5022   -3348.7628   -3807.5022            0   -3214.9178    19.496989    22.964878    23.786281    10650.211    -2596.281   -3716.0781   -3332.3943      416.004   -66.760681   -324.21873   -3848.1116 
12717000    274.71004   -3861.1496    -3390.306   -3861.1496            0    -3319.279    19.367574    22.812444    23.628395    10439.538   -4363.9512   -3052.4403   -2541.4455    215.20782   -417.03411    501.07301   -3895.6661 
12718000    287.11646    -3840.274   -3348.1662    -3840.274            0   -2966.7463    19.376798    22.823309    23.639649    10454.461   -3499.1773   -2686.1784    -2714.883   -482.55741   -161.90896   -507.60464   -3800.4989 
12719000    289.26271   -3856.0415   -3360.2551   -3856.0415            0    -2410.482    19.338553    22.778261    23.592989    10392.679   -2126.2101   -3215.6393   -1889.5967    830.72596    -428.1257    944.25028   -3725.6036 
12720000    278.74653     -3892.43    -3414.668     -3892.43            0   -1482.5038    19.177005    22.587979    23.395901    10134.397   -1453.2124    -2290.445   -703.85389   -85.115075   -783.76796   -419.74031   -3633.7817 
12721000    269.50719    -3827.197   -3365.2709    -3827.197            0    -2985.013    19.296574    22.728815    23.541775    10325.146   -2649.2689    -3452.824   -2852.9461   -62.248113    498.96286    76.227827   -3814.7591 
12722000     269.1762   -3849.0168    -3387.658   -3849.0168            0    -3298.824     19.36738    22.812216    23.628159    10439.224   -2950.4215   -3996.7706   -2949.2797   -148.56259   -98.711173   -498.84863   -3889.8887 
12723000    272.82492   -3859.1996   -3391.5871   -3859.1996            0   -3962.5291    19.391459    22.840577    23.657535    10478.209   -3369.1968    -4382.693   -4135.6975    354.48522     425.8755    -838.1901   -3997.1167 
12724000    272.83053   -3823.6466   -3356.0244   -3823.6466            0   -2171.8253    19.315722    22.751369    23.565136    10355.914   -2834.9292   -1648.5338   -2032.0128   -654.09703    18.638699    -491.6849    -3684.036 
12725000    279.70922   -3869.6961   -3390.2841   -3869.6961            0   -3386.9741    19.350088    22.791847    23.607062    10411.286   -4631.9612   -4471.4616   -1057.4995   -482.45987    192.48111    556.64754   -3904.5552 
12726000    273.75882   -3841.0054   -3371.7921   -3841.0054            0   -3006.2395    19.292626    22.724165    23.536958     10318.81   -2445.1809   -3246.7761   -3326.7615   -127.91128    190.16893    618.79043   -3824.1989 
12727000    297.52546   -3800.6284     -3290.68   -3800.6284            0    -1308.914    19.303608    22.737101    23.550357    10336.442   -2185.7212    -1486.185   -254.83601    220.23394     172.1583   -419.66168   -3487.9941 
12728000    286.15882   -3819.0582   -3328.5918   -3819.0582            0   -2749.6705    19.373439    22.819352     23.63555    10449.024   -2298.5182   -3147.5089   -2802.9842    -514.9512    211.94179    688.37945   -3747.6094 
12729000    284.00935   -3812.8682   -3326.0859   -3812.8682            0   -2995.6921    19.318891    22.755102    23.569002    10361.011   -2754.3007   -3913.8267   -2318.9489     446.7812   -322.89901   -184.04124   -3778.7491 
12730000    275.23651   -3782.2692   -3310.5233   -3782.2692            0   -3998.5885    19.391078    22.840129     23.65707    10477.592   -3558.7625   -4273.7781   -4163.2249    104.10962   -272.41695    187.03112   -3921.5273 
12731000    278.26731   -3815.7006     -3338.76   -3815.7006            0   -2926.7837    19.355814    22.798592    23.614047    10420.532   -2217.6531   -3205.4543   -3357.2437    1097.1619    265.34703   -744.01276   -3783.5514 
12732000    276.21891   -3798.8669   -3325.4371   -3798.8669            0    -4127.347    19.409238    22.861518    23.679225    10507.056   -3842.5742   -3635.5666   -4903.9002    540.47857   -81.434959   -342.18658   -3957.8896 
12733000    280.09321   -3815.7483   -3335.6782   -3815.7483            0   -3523.6508    19.419473    22.873574    23.691712    10523.687   -2690.9922   -3835.8578   -4044.1024    46.077892   -225.16371   -347.92019   -3876.4782 
12734000    279.70163   -3772.7387   -3293.3396   -3772.7387            0   -4066.3432    19.412975     22.86592    23.683784    10513.126   -4898.9686   -3522.3291   -3777.7319   -676.23925    279.33625   -271.19388   -3916.8042 
12735000     267.4387   -3813.4245   -3355.0437   -3813.4245            0   -4131.9534    19.414452     22.86766    23.685587    10515.527    -4281.388   -4198.6782   -3915.7939   -187.05182    161.62359   -593.08168   -3988.7125 
12736000     274.2351   -3821.5482   -3351.5187   -3821.5482            0   -3237.6347     19.28857    22.719387     23.53201    10312.303   -1797.1531   -3917.5096   -3998.2414    83.990812    109.38782   -235.29987   -3838.4406 
12737000    281.79712   -3826.1076    -3343.117   -3826.1076            0   -4068.6593    19.296753    22.729027    23.541994    10325.435   -4261.4493   -3302.3242   -4642.2043   -89.123745    -262.3024    110.00926   -3955.7996 
12738000     290.8938   -3817.2359   -3318.6539   -3817.2359            0   -3419.5778    19.317977    22.754025    23.567887    10359.542   -5173.6544   -3072.2105   -2012.8684    14.201351    510.47224   -546.46339   -3835.2949 
12739000    286.93955   -3824.3372   -3332.5326   -3824.3372            0   -2991.3033    19.347608    22.788926    23.604036    10407.284   -3585.0998   -2362.1632   -3026.6468    648.79548   -367.93045   -277.02678   -3786.5513 
12740000    273.22907   -3770.5036   -3302.1984   -3770.5036            0    -3549.198    19.451837    22.911695    23.731196     10576.39   -3804.4357   -3659.4263   -3183.7319   -526.80048    789.78437    424.41293   -3849.6472 
12741000    272.46389   -3833.4627   -3366.4689   -3833.4627            0   -3486.9081    19.216163    22.634101    23.443674    10196.605   -4510.6101   -2874.2091   -3075.9051   -1154.0386    90.571263   -701.35516   -3884.9966 
12742000    277.36682   -3799.8143    -3324.417   -3799.8143            0   -3710.7122    19.424251    22.879202    23.697541    10531.457   -5133.5765   -2622.6283   -3375.9316   -858.12705   -355.83939   -491.64111   -3894.3471 
12743000     294.6123   -3824.4694    -3319.514   -3824.4694            0   -2508.9826    19.227845    22.647862    23.457926    10215.213   -3296.6761   -2054.0282   -2176.2436    98.804897    346.53623   -1303.5182   -3693.2982 
12744000    290.58367   -3816.3288   -3318.2784   -3816.3288            0   -3029.3493    19.331107    22.769491    23.583906    10380.679   -4035.3776   -2294.7665   -2757.9038    339.59344     35.50121   -383.12448   -3776.8963 
12745000    282.38466   -3754.4924   -3270.4947   -3754.4924            0   -3055.7543    19.359104    22.802467    23.618061    10425.847   -4226.6252   -2220.5789   -2720.0589    16.036514   -35.891635    213.58089    -3735.123 
12746000    261.00317   -3776.4332   -3329.0827   -3776.4332            0   -2844.7311    19.310761    22.745525    23.559083    10347.936   -3280.0888   -2286.9143   -2967.1902    49.208646    392.24958    494.14048   -3758.3926 
12747000    266.28323   -3765.7915   -3309.3911   -3765.7915            0   -4273.9357    19.477131    22.941487    23.762054    10617.702    -4056.868   -3922.9558   -4841.9834    748.26297    597.31345   -881.36773   -3971.2028 
12748000    271.88389   -3737.3426   -3271.3429   -3737.3426            0   -3497.3157    19.442367     22.90054    23.719642     10560.95   -3226.6038   -3205.6859   -4059.6573     509.0642    800.68219   -286.91725   -3810.0016 
12749000    268.68683   -3809.0427   -3348.5227   -3809.0427            0   -2265.0268    19.250962     22.67509    23.486129    10252.102   -2727.8558   -2385.3272   -1681.8973   -1118.4029   -312.19071   -1267.0555   -3687.1813 
12750000    284.28417   -3758.2269   -3270.9735   -3758.2269            0   -2842.0547    19.302909    22.736277    23.549503    10335.318   -2254.1163   -2072.7201   -4199.3277   -409.80904    658.40502   -955.35491   -3699.3565 
Loop time of 414.829 on 64 procs for 250000 steps with 864 atoms

Performance: 104.139 ns/day, 0.230 hours/ns, 602.658 timesteps/s
367.3% CPU use with 16 MPI tasks x 4 OpenMP threads

MPI task timing breakdown:
Section |  min time  |  avg time  |  max time  |%varavg| %total
---------------------------------------------------------------
Pair    | 22.85      | 25.189     | 31.19      |  37.7 |  6.07
Bond    | 1.6721     | 1.9221     | 2.6757     |  20.9 |  0.46
Kspace  | 210.25     | 219.45     | 225.27     |  24.2 | 52.90
Neigh   | 3.6902     | 3.8273     | 4.0269     |   5.8 |  0.92
Comm    | 59.443     | 68.673     | 75.046     |  53.6 | 16.55
Output  | 0.46907    | 0.46932    | 0.47065    |   0.1 |  0.11
Modify  | 64.749     | 74.068     | 82.101     |  61.9 | 17.86
Other   |            | 21.23      |            |       |  5.12

Nlocal:        54.0000 ave          62 max          50 min
Histogram: 3 2 3 3 1 1 2 0 0 1
Nghost:        2317.50 ave        2380 max        2263 min
Histogram: 2 1 1 1 4 2 3 0 1 1
Neighs:        11931.7 ave       13462 max       10943 min
Histogram: 1 2 7 1 1 1 0 0 1 2

Total # of neighbors = 190907
Ave neighs/atom = 220.95718
Ave special neighs/atom = 2.0000000
Neighbor list builds = 14504
Dangerous builds = 1

unfix		3
unfix		2
unfix		1

write_data	data.final.${pid}
write_data	data.final.1
System init for write_data ...
PPPM initialization ...
  extracting TIP4P info from pair style
  using 12-bit tables for long-range coulomb (../kspace.cpp:340)
  G vector (1/distance) = 0.37167085
  grid = 24 27 27
  stencil order = 5
  estimated absolute RMS force accuracy = 0.0029961968
  estimated relative force accuracy = 9.0229578e-06
  using double precision FFTW3
  3d grid and FFT values/proc = 5985 1296
Last active /omp style is kspace_style pppm/tip4p/omp
WARNING: Not all mixed pair coeffs generated from mixing. Use write_data with 'pair ij' option to store all pair coeffs. (../write_data.cpp:312)

write_restart   restart.lmp.${pid}
write_restart   restart.lmp.1
System init for write_restart ...
PPPM initialization ...
  extracting TIP4P info from pair style
  using 12-bit tables for long-range coulomb (../kspace.cpp:340)
  G vector (1/distance) = 0.37167085
  grid = 24 27 27
  stencil order = 5
  estimated absolute RMS force accuracy = 0.0029961968
  estimated relative force accuracy = 9.0229578e-06
  using double precision FFTW3
  3d grid and FFT values/proc = 5985 1296
Last active /omp style is kspace_style pppm/tip4p/omp
Total wall time: 0:06:54
