#include		in.partitions
include		in.temp
variable        temperature equal 5.10
variable	tempDamp equal 100.0
include		in.pressure
variable        pressure equal 1991.2
variable        pressureDamp equal 1000.0 # This is 1 ps
include		in.seed
variable        seed equal 745823

units		real
atom_style	full
#include		in.box
read_restart	restart.lmp.${pid}
read_restart	restart.lmp.1
Reading restart file ...
  restart file = 30 Jul 2021, LAMMPS = 30 Jul 2021
  restoring atom style full from restart
  orthogonal box = (0.18062310 0.16606375 0.17127339) to (18.026949 23.463114 22.041922)
  2 by 4 by 2 MPI processor grid
  restoring pair style lj/cut/tip4p/long/omp from restart
  restoring bond style harmonic/omp from restart
  restoring angle style harmonic/omp from restart
  864 atoms
  576 bonds
  288 angles
Finding 1-2 1-3 1-4 neighbors ...
  special bond factors lj:    0        0        0       
  special bond factors coul:  0        0        0       
     2 = max # of 1-2 neighbors
     1 = max # of 1-3 neighbors
     1 = max # of 1-4 neighbors
     2 = max # of special neighbors
  special bonds CPU = 0.001 seconds
  read_restart CPU = 0.005 seconds
include 	in.setup
variable	out_freq equal 1000
variable	out_freq2 equal 10000
variable	out_freq3 equal 1000

timestep	2.0

neigh_modify    delay 7 every 1

include		in.tip4p
# This is TIP4P/Ice

# create groups ###
group ox type 2
288 atoms in group ox
group hy type 1
576 atoms in group hy

# set charges - beside manually ###
set group ox charge -1.1794
Setting atom values ...
  288 settings made for charge
set group hy charge 0.5897
Setting atom values ...
  576 settings made for charge

# ### TIP3P Potential Parameters ###
pair_style lj/cut/tip4p/long/omp 2 1 1 1 0.1577 8.5
pair_coeff 1 1*2 0.000 0.000
pair_coeff 2 2 0.21084 3.1668
bond_style  harmonic
bond_coeff  1 450 0.9572
angle_style harmonic
angle_coeff 1 55 104.52
kspace_style pppm/tip4p/omp 1.0e-5
pair_modify tail yes

thermo          ${out_freq}
thermo          1000
thermo_style    custom step temp pe etotal epair emol press lx ly lz vol pxx pyy pzz pxy pxz pyz enthalpy

restart 	${out_freq3} restart.lmp.${pid} restart2.lmp.${pid}
restart 	1000 restart.lmp.${pid} restart2.lmp.${pid}
restart 	1000 restart.lmp.1 restart2.lmp.${pid}
restart 	1000 restart.lmp.1 restart2.lmp.1


include         in.dump
dump            myDump all atom ${out_freq2} dump.water.${pid}
dump            myDump all atom 10000 dump.water.${pid}
dump            myDump all atom 10000 dump.water.1
dump            myDump2 all dcd ${out_freq2} dump.dcd
dump            myDump2 all dcd 10000 dump.dcd
dump_modify     myDump append yes
dump_modify     myDump2 append yes


variable natoms 	equal  "count(all)"                        # NUMBER ATOMS
variable H      	equal  "enthalpy/v_natoms"                 # ENTHALPY-per-atom
variable Vol      	equal  "vol/v_natoms"                 # volume-per-atom
fix AVG all 		ave/time ${out_freq} 1 ${out_freq} v_Vol v_H file vol_enthalpy.dat
fix AVG all 		ave/time 1000 1 ${out_freq} v_Vol v_H file vol_enthalpy.dat
fix AVG all 		ave/time 1000 1 1000 v_Vol v_H file vol_enthalpy.dat


timer           timeout 23:50:00 every 1000
New timer settings: style=normal  mode=nosync  timeout=23:50:00

fix 		1 all shake 1e-6 200 0 b 1 a 1
       0 = # of size 2 clusters
       0 = # of size 3 clusters
       0 = # of size 4 clusters
     288 = # of frozen angles
  find clusters CPU = 0.000 seconds
fix             2 all nph aniso ${pressure} ${pressure} ${pressureDamp}
fix             2 all nph aniso 1991.2 ${pressure} ${pressureDamp}
fix             2 all nph aniso 1991.2 1991.2 ${pressureDamp}
fix             2 all nph aniso 1991.2 1991.2 1000
fix             3 all temp/csvr ${temperature} ${temperature} ${tempDamp} ${seed}
fix             3 all temp/csvr 5.1 ${temperature} ${tempDamp} ${seed}
fix             3 all temp/csvr 5.1 5.1 ${tempDamp} ${seed}
fix             3 all temp/csvr 5.1 5.1 100 ${seed}
fix             3 all temp/csvr 5.1 5.1 100 745823


run             250000
PPPM initialization ...
  extracting TIP4P info from pair style
  using 12-bit tables for long-range coulomb (../kspace.cpp:340)
  G vector (1/distance) = 0.37221804
  grid = 24 27 25
  stencil order = 5
  estimated absolute RMS force accuracy = 0.0031025569
  estimated relative force accuracy = 9.3432578e-06
  using double precision FFTW3
  3d grid and FFT values/proc = 6300 1296
Last active /omp style is kspace_style pppm/tip4p/omp
Neighbor list info ...
  update every 1 steps, delay 7 steps, check yes
  max neighbors/atom: 2000, page size: 100000
  master list distance cutoff = 10.8154
  ghost atom cutoff = 10.8154
  binsize = 5.4077, bins = 4 5 5
  1 neighbor lists, perpetual/occasional/extra = 1 0 0
  (1) pair lj/cut/tip4p/long/omp, perpetual
      attributes: half, newton on, omp
      pair build: half/bin/newton/omp
      stencil: half/bin/3d
      bin: standard
Per MPI rank memory allocation (min/avg/max) = 12.26 | 12.29 | 12.31 Mbytes
Step Temp PotEng TotEng E_pair E_mol Press Lx Ly Lz Volume Pxx Pyy Pzz Pxy Pxz Pyz Enthalpy 
47250000    5.3115136   -4730.8938   -4721.7901   -4730.8938            0    1997.9355    17.846326     23.29705    21.870649    9093.0889    2077.8396    1890.1675    2025.7995   -157.83083   -75.614711    71.594032   -4456.8371 
47251000    5.0759667   -4731.3301     -4722.63   -4731.3301            0    1975.0993    17.854633    23.291541    21.879959    9099.0414    2001.1961    1872.3811    2051.7206   -92.099704   -17.437829     50.98651    -4460.534 
47252000    5.1490786   -4731.4394   -4722.6141   -4731.4394            0    1980.1401    17.885872    23.267468     21.85695    9095.9654    1992.8684    1959.1376    1988.4142    33.420158    71.969303    2.8468472   -4459.9379 
47253000    4.9289517   -4731.0693   -4722.6213   -4731.0693            0     1978.276    17.910871    23.228179    21.856199    9092.9855    1923.2745    2007.7452    2003.8083   -212.99038   -156.70897    62.315047   -4460.2784 
47254000    4.6472034    -4731.028   -4723.0629    -4731.028            0    2004.0657    17.934433    23.208641    21.843853    9092.1502    1894.4683    2097.6763    2020.0524   -21.194519   -38.012289    86.108745   -4457.3244 
47255000    5.1160795     -4731.08   -4722.3112     -4731.08            0    1995.3645    17.922559    23.202086    21.873329    9095.8219    2001.3847    2046.4646    1938.2441   -21.837181    75.364466   -84.226368   -4457.6197 
47256000    5.2483203   -4731.1855   -4722.1901   -4731.1855            0    2005.8571    17.889976    23.232824    21.875472    9092.2049    1931.0908    2099.3253    1987.1551   -183.11979    -157.3307    152.03423   -4456.2125 
47257000    5.1807373   -4731.3934   -4722.5138   -4731.3934            0    1993.9831    17.861789    23.278106    21.874673    9095.2403    2137.6196    1901.2683    1943.0614   -45.763542   -33.098035   -58.711008   -4458.0224 
47258000    5.3351603   -4731.2116   -4722.0674   -4731.2116            0    2017.7941    17.821166    23.342227    21.857589    9092.4444    2125.4282    1903.5958    2024.3583   -29.810798    19.255135    77.845223   -4454.4998 
47259000    5.2714234     -4730.81    -4721.775     -4730.81            0    2000.0406    17.818902    23.283719    21.913493    9091.6957    2191.9512    1868.0945    1940.0761   -97.480991   -43.136195    190.24964   -4456.5835 
47260000    5.1510315   -4731.0251   -4722.1964   -4731.0251            0    1992.6163    17.845052    23.296387    21.873891    9093.5284     2057.085     1974.258    1946.5059   -186.63957   -67.416134    -27.49407    -4457.936 
47261000    5.0141395   -4731.2339   -4722.6399   -4731.2339            0    2021.6872    17.868394    23.280407    21.855984    9091.7284    2036.8841    1961.8866    2066.2907    50.652168   -43.167727    125.63158   -4454.5772 
47262000     5.266194   -4730.6529   -4721.6268   -4730.6529            0    1980.6689     17.90552    23.240418    21.855973    9094.9648    2005.1248     2026.403    1910.4789    10.047874   -93.023271    21.719266   -4458.9094 
47263000    5.0552652   -4730.5915   -4721.9269   -4730.5915            0    1978.4708    17.921896    23.178085    21.895456    9095.2675    1845.9852    2104.5065    1984.9208   -102.92684    114.13604   -36.829215   -4459.4923 
47264000    5.1727916   -4731.9549   -4723.0889   -4731.9549            0       1975.7    17.918998    23.240667    21.841863    9096.0323    1813.8064    2030.3326     2082.961    57.620036   -29.232139    118.68222   -4460.9998 
47265000    5.2795113   -4731.6325   -4722.5836   -4731.6325            0    1962.6639    17.878092    23.249285    21.882095    9095.3553    1926.8951    1978.1685    1982.9281   -108.46195   -14.513894    46.041085   -4462.2432 
47266000    4.9678402   -4730.8974   -4722.3827   -4730.8974            0     1989.247    17.847089    23.289311    21.879612     9094.182    2089.0703    2077.7448    1800.9258    -127.5555    41.455349   -44.248408   -4458.5502 
47267000    5.1769446   -4731.2482    -4722.375   -4731.2482            0    2006.0029    17.864064    23.289052    21.860592    9094.8177    2051.0832    1881.6679    2085.2575   -80.814784   -78.831335    109.08411   -4456.3017 
47268000    4.8497325   -4731.3674   -4723.0551   -4731.3674            0    1983.2259    17.843539    23.311707    21.863129    9094.2605    2126.7655    1845.3398    1977.5724   -158.49536   -24.511481   0.36363296   -4460.0189 
47269000    5.0933961   -4731.1361   -4722.4062   -4731.1361            0    2005.4482    17.865118    23.286662    21.858624    9093.6023    2016.6057      2036.21    1963.5287   -52.634744   0.85207816    24.696426   -4456.4419 
47270000    5.0915549   -4731.7551   -4723.0283   -4731.7551            0    1985.0292     17.89405    23.257719    21.852171    9094.3224    1975.0816    1918.2686    2061.7373    117.56614   -36.648682    44.154178   -4459.7512 
47271000    5.1311363    -4731.783   -4722.9885    -4731.783            0    1967.7912    17.914595     23.22271    21.864052    9096.0018    1861.5886    2072.8689     1968.916   -66.668285   -38.849166   -6.0648388   -4461.9494 
47272000    5.2975079   -4731.1511   -4722.0714   -4731.1511            0    1993.2154    17.911884     23.20826    21.877019    9094.3571    1935.0188    2075.9405    1968.6871    32.006508   -1.7054567    164.44985   -4457.7075 
47273000    4.8533378    -4731.183   -4722.8646    -4731.183            0    1984.6985    17.929641    23.215962    21.848607    9094.5672    1942.9262    2072.0713    1939.0982   -143.01766    23.810939  -0.32104377   -4459.6242 
47274000    5.5281131   -4731.0665   -4721.5915   -4731.0665            0    1996.8553    17.891688    23.246035     21.86701    9094.7257    1997.4198    2043.6368    1949.5094   -174.32245   -13.631712    72.296443   -4456.7341 
47275000    5.0730626   -4731.0405   -4722.3454   -4731.0405            0    1955.1841    17.853564    23.282375     21.88599    9097.4234     2017.233     1925.803    1922.5163   -49.288816     5.084126    56.303308   -4462.9383 
47276000    5.3231333   -4731.0257    -4721.902   -4731.0257            0    1994.8055    17.840715    23.295537     21.88838    9097.0082    2075.7482    1952.3288    1956.3394    93.987893   -31.821123   -27.355264   -4457.2501 
47277000    5.2023536   -4730.8987   -4721.9821   -4730.8987            0    1995.7004    17.831716     23.30084    21.882916    9092.2195     2140.179    1905.7763    1941.1459   -50.198949      22.7577    150.37708   -4457.3508 
47278000    5.0049189   -4731.2962   -4722.7179   -4731.2962            0    1999.9936    17.850001    23.296767    21.875755    9096.9737    2102.0639    1906.8613    1991.0556    5.8686528    64.103902    7.7549795   -4457.3787 
47279000    4.9677125    -4731.461   -4722.9465    -4731.461            0    1990.2213    17.875535    23.242339    21.883159    9091.7792    1939.0518    2037.8939    1993.7181   -68.824222   -150.87936    102.41462   -4459.0545 
47280000    5.0815917   -4730.6239   -4721.9142   -4730.6239            0    1976.7259    17.907434    23.215474    21.876756     9094.814    1908.9344    2061.2685    1959.9748   -292.18609    83.396103    136.06316   -4459.7242 
47281000    5.3206685   -4730.9659   -4721.8464   -4730.9659            0    1963.1452    17.912827    23.194161    21.890689    9094.9901       1900.4    2061.6527    1927.3831   -85.955302     23.20141   -86.730649   -4461.4527 
47282000    5.0025718   -4730.6014   -4722.0272   -4730.6014            0    2007.6521    17.911786    23.227699    21.858894    9094.3835    1862.8591    1986.8721    2173.2253   -52.481408   -92.068553    113.24255   -4455.7477 
47283000    5.4079292   -4731.6233   -4722.3543   -4731.6233            0    1992.6653    17.884324    23.262864    21.855762    9092.8843    2033.2691    1942.4967    2002.2302   -135.53019    43.800678    52.435993   -4458.1061 
47284000    4.9303879   -4731.4322   -4722.9817   -4731.4322            0    1951.7565    17.859222    23.282232    21.875615    9095.9363    2042.8019    1884.2707     1928.197   -1.8027289   -55.967646    50.065625   -4464.0716 
47285000    4.9665036   -4731.4758   -4722.9633   -4731.4758            0    1998.2185    17.814502    23.293757    21.917102    9094.8667    2125.5619    2038.9828    1830.1107   -72.158773   -110.71689    55.035029    -4457.921 
47286000    4.7959071   -4731.1027   -4722.8826   -4731.1027            0    1981.0866    17.841948     23.33123    21.848791     9095.097    2076.9956    1770.3661    2095.8981   -107.85155    114.71263    41.237916    -4460.106 
47287000    5.1921749   -4731.0428   -4722.1436   -4731.0428            0    1975.0292    17.849568    23.285463    21.877931    9093.2438    2019.2107    1917.9411    1987.9357    114.87841   -86.781988     53.67837   -4460.2239 
47288000    5.2816064   -4731.6343   -4722.5818   -4731.6343            0    1990.5308    17.903287    23.246403    21.853603    9095.1859    1874.9906    2061.3692    2035.2326  0.080525161    9.0430344    90.329962     -4458.55 
47289000    5.2133128    -4731.246   -4722.3105    -4731.246            0    1976.8955    17.913599    23.224369    21.854146    9092.0248    1926.4546    1969.9703    2034.2617   -38.754958     24.15717    25.543584   -4460.1784 
47290000    4.9339571   -4731.2445   -4722.7879   -4731.2445            0    1969.7189    17.936313    23.212612    21.847088    9096.0061     1853.339    2074.6504    1981.1673   -19.766072    37.034431    149.02469    -4461.493 
47291000    5.0722972   -4731.4827   -4722.7889   -4731.4827            0     1984.428     17.90051    23.232567    21.867051    9093.9553    1874.4544    2091.2609    1987.5686   -146.60867   -74.796354    47.116654   -4459.6022 
47292000    5.0135602   -4731.4349   -4722.8419   -4731.4349            0    1973.7065    17.878169    23.267498    21.867096    9096.2801    1986.3493    1946.8798    1987.8903   -139.14323    55.730914   -32.571159   -4461.0101 
47293000      5.16926   -4731.1719    -4722.312   -4731.1719            0    1991.7827    17.849879    23.275389    21.893791    9096.0571    2019.8687    1968.7947    1986.6849   -114.20513   -53.383245    59.760426   -4458.0888 
47294000    5.1761296   -4731.2418   -4722.3701   -4731.2418            0    1975.6495    17.840682    23.313921    21.865229    9094.5417    2050.4763    1879.0021    1997.4702    57.527316   -47.248051    40.575918   -4460.3307 
47295000    5.0435602   -4731.9339   -4723.2894   -4731.9339            0     1984.843    17.845447    23.280773    21.893768    9095.8928    2058.4136    1960.1667    1935.9486    35.292189    65.947457     147.0924   -4459.9915 
47296000    5.1560763   -4731.0154   -4722.1781   -4731.0154            0    1964.9657    17.865723    23.264946    21.885757    9096.7077    2028.2289    1972.1435    1894.5246   -34.303057   -90.164259    68.602557   -4461.4936 
47297000    5.1670794   -4731.6697   -4722.8135   -4731.6697            0    1977.5437    17.891754     23.25513    21.859588    9095.2294     1897.311    2065.2007    1970.1193   -82.443179    40.355754    55.981593   -4460.5031 
47298000    5.1362737   -4730.9301   -4722.1267   -4730.9301            0    1975.3109    17.898585      23.2527    21.852114    9094.6405    1991.5023    2011.4452    1922.9853    -319.4925   -50.860241   -58.491389   -4460.1293 
47299000    5.1499173   -4730.9458    -4722.119   -4730.9458            0    1988.1093    17.922863    23.197253    21.877228    9095.7021    1871.8289    2020.8848    2071.6142   -143.23821   -1.3222095    28.509956   -4458.3933 
47300000    5.2195021   -4731.7062   -4722.7601   -4731.7062            0    1978.5924    17.901576    23.226856    21.876321     9096.116    1861.6299    2009.8403    2064.3071    119.48053    5.2618211    26.504914   -4460.2849 
47301000    5.2928059   -4731.2707    -4722.199   -4731.2707            0    1984.1372    17.908197    23.229108    21.864558    9095.4686     1872.912    2053.5911    2025.9086   -63.472641    89.332858     100.2804    -4459.007 
47302000    5.0731972   -4731.2631   -4722.5678   -4731.2631            0    1996.4734    17.862579    23.306005    21.848193    9095.5195    1967.8741     1906.768    2114.7779   -94.183978   -95.581605   0.48170229    -4457.738 
47303000    4.9556772   -4731.0115   -4722.5176   -4731.0115            0    1996.1577    17.823532    23.304408    21.897793     9095.618    2165.3153    1951.3951    1871.7627   -56.684332    34.481551    54.122753   -4457.7268 
47304000    5.0543906   -4730.7414   -4722.0783   -4730.7414            0    2003.8855    17.840415    23.301672     21.87468    9093.5556    2144.5414    1864.5438    2002.5713    84.203391   -77.452079    60.701182   -4456.3227 
47305000    5.2141868   -4731.6698   -4722.7329   -4731.6698            0    1982.5735    17.869607    23.308166     21.83594     9094.839     1994.763    1905.7512    2047.2063   -22.905294     -12.4508    62.948563   -4459.7665 
47306000    5.1118333   -4730.3757   -4721.6142   -4730.3757            0    2005.4508    17.902212    23.229187    21.866193    9093.1401     1993.558    2070.8306    1951.9637   -167.28462   -68.024389     73.78412   -4455.6631 
47307000    5.2968557   -4731.4775   -4722.3988   -4731.4775            0    1976.9506    17.917961    23.207043    21.869704    9093.9236     1942.749    2011.9249     1976.178   -66.666153    11.600121    59.817291   -4460.2047 
47308000    4.9930286   -4731.0333   -4722.4754   -4731.0333            0    1986.8642    17.923592    23.185714    21.889266    9096.5504    1890.4865    2184.7525    1885.3535    17.179941   -41.417241    62.955249   -4458.8904 
47309000    4.9288155   -4731.1376   -4722.6897   -4731.1376            0     1995.982    17.929312    23.243945    21.829674    9097.4713    1858.5503    2017.7436    2111.6521   -202.01602    11.776984    85.297288   -4457.8683 
47310000    4.8227871    -4731.848   -4723.5819    -4731.848            0    2000.5985     17.89517    23.278245    21.832258    9094.6231    2026.5751    2027.9156    1947.3047   -1.7344756    -134.5235    90.049046    -4458.231 
47311000    5.0371583   -4731.2715    -4722.638   -4731.2715            0    1961.6419    17.849344    23.290782    21.880241    9096.1672     2014.158     1894.382    1976.3857   -34.764485     48.31628    59.082497   -4462.4099 
47312000    4.7649049    -4730.217   -4722.0501    -4730.217            0    2006.5288    17.823345    23.320802    21.878119    9093.7428    2170.6036    1909.2328    1939.7498    -217.7025    25.847313    88.697507   -4455.9384 
47313000    5.0485523   -4730.2962   -4721.6431   -4730.2962            0    2024.2567    17.841344    23.286918    21.892346    9095.6112    2098.9781    1995.0738     1978.718   -45.925458   -111.25001    24.154576   -4453.1252 
47314000    5.2255759   -4731.4294   -4722.4729   -4731.4294            0    1980.6968    17.859778    23.278814    21.871638    9093.2312     2015.154    1966.6307    1960.3056   -60.198198   -31.463652    63.584919   -4459.8019 
47315000    4.8564597   -4731.4058    -4723.082   -4731.4058            0    1987.5648    17.881768     23.26097     21.85657    9091.1807    1954.9949    1993.7368    2013.9628   -156.75733   -88.373307   -14.510554   -4459.5596 
47316000     5.214323   -4730.9542    -4722.017   -4730.9542            0    1997.4379     17.90169    23.233463    21.866718    9094.7671    1962.9401    1971.9673    2057.4065     10.16681    11.487329    159.46496   -4457.0812 
47317000    5.0031146   -4731.8155   -4723.2403   -4731.8155            0    1986.6003    17.923818    23.211027    21.864822    9096.4267    1847.7236    2137.3761     1974.701    44.797704    59.277156   -19.847412   -4459.6938 
47318000    4.9810652   -4731.1557   -4722.6183   -4731.1557            0    1980.7302    17.899472    23.218388    21.879423    9093.0202    1979.9512    2012.1385     1950.101    5.0779526   -100.39395     41.86478    -4459.949 
47319000    4.8284455   -4731.4344   -4723.1586   -4731.4344            0    1991.2778    17.868147    23.270053    21.870786    9093.7138    1986.0393    1972.0746    2015.7196   -18.713586   -88.668845    182.20398   -4459.0703 
47320000    5.1751851   -4731.2778   -4722.4077   -4731.2778            0    2006.0961    17.833851    23.301825    21.880954    9092.8772     1978.706     1928.021    2111.5612    -19.32283   -87.522624   -58.986094   -4456.3787 
47321000    4.9304417     -4730.86   -4722.4094     -4730.86            0     1974.121    17.839468    23.313455    21.870403    9095.8925    2081.2308    1948.2509    1892.8814    96.658944    -75.86613    125.79021   -4460.5338 
47322000    5.3736362   -4730.7572    -4721.547   -4730.7572            0    2016.3043    17.856637    23.310154    21.852519    9095.9136    2116.5294    1927.0989    2005.2844   -89.022685   -100.17847      11.1534    -4454.075 
47323000    4.6864095   -4731.0448   -4723.0124   -4731.0448            0    1979.4807    17.855549    23.289242    21.873133    9095.7715    2053.0699    1995.6912    1889.6811   -221.76085    77.998473   -15.827076   -4460.4294 
47324000    5.1041224    -4731.434   -4722.6857    -4731.434            0    1984.1942     17.88503    23.265321     21.86138    9096.5414    1998.8552    2009.7202    1944.0073   -18.925722   -12.301965    178.65204   -4459.4551 
47325000    5.1349634   -4731.1952    -4722.394   -4731.1952            0    1984.6693    17.920187    23.208322    21.864097    9093.2226    1843.9827    2115.8347    1994.1904    -2.871329    2.6566286    29.131486   -4459.1965 
47326000    5.0234989   -4731.3971    -4722.787   -4731.3971            0    1962.4099    17.953051    23.178715    21.860918    9096.9543    1859.6413      2032.03    1995.5583   -17.438018    7.3401868     180.9839   -4462.4346 
47327000    5.0973621   -4731.6048   -4722.8681   -4731.6048            0    1984.5965     17.88082     23.25113    21.877134    9095.4027     1961.569    2019.6882    1972.5322    92.356959   -27.798082    163.36298   -4459.6171 
47328000     5.352649   -4730.6308   -4721.4566   -4730.6308            0    1995.3009    17.877825    23.262138    21.866577    9093.7938    1986.2176    2028.1225    1971.5626   -95.794715   -25.089491   -58.321175   -4456.8325 
47329000    4.9446844   -4731.3209   -4722.8459   -4731.3209            0    1990.0752    17.859599      23.2891    21.865783    9094.7224     2037.722    1896.6476    2035.8559   -185.86568    19.790517    145.82613   -4458.8879 
47330000    5.3636767   -4731.0456   -4721.8524   -4731.0456            0    1986.9068    17.848422    23.296734    21.876635    9096.5223    2060.6382    1894.8846    2005.1977    -12.54569   -45.480446    22.200514   -4458.2625 
47331000     5.161019   -4731.6255   -4722.7797   -4731.6255            0    1946.8362    17.836885    23.320819    21.866806    9095.9521    2039.7836    1764.3648    2036.3603    104.60957   -4.1780214    81.627659   -4464.5218 
47332000    4.8164042   -4731.2724   -4723.0172   -4731.2724            0    1980.9738    17.857055    23.283976    21.873369      9094.58     2052.133    1997.7716    1893.0167    110.09154    29.218479     240.7855   -4460.2705 
47333000    4.9836196   -4731.5387   -4722.9969   -4731.5387            0    1989.6943    17.891319    23.223834    21.885232    9093.4241    1884.9946    2110.9404    1973.1478   -21.916684   -122.14393   -30.707111   -4459.1271 
47334000    5.3533833   -4730.8632   -4721.6877   -4730.8632            0    1945.4611    17.922637    23.219295    21.862539    9098.1169    1842.5669    1960.2366      2033.58   -8.8873136  -0.43134174    149.39751   -4463.5509 
47335000    5.1816944   -4731.3409   -4722.4597   -4731.3409            0    2003.2027    17.933744    23.214994    21.841151    9093.1647    1882.7309    2077.7593     2049.118    42.592333    18.029584     60.64166    -4456.806 
47336000    5.1400937   -4731.4416   -4722.6317   -4731.4416            0    1971.1965    17.921137    23.222851    21.847232    9092.3789    1869.0713    1967.4581    2077.0601    -195.3119      -167.89    30.075393   -4461.2451 
47337000    5.2151743   -4732.2402   -4723.3015   -4732.2402            0    1973.4953    17.888621    23.274003    21.845522    9095.1603    1959.7105    1962.7206    1998.0548   -98.735914   -60.391516    269.04186   -4461.5301 
47338000     5.271569   -4730.7698   -4721.7345   -4730.7698            0    2006.8414    17.861935    23.258879    21.889462    9093.9456    2069.6729    1920.4757    2030.3756   -126.66999   -3.3237495    1.8142781   -4455.5754 
47339000    4.7487601    -4731.276   -4723.1368    -4731.276            0    2013.3071    17.828923    23.307147    21.880198    9092.1264    2034.9767    1954.0933    2050.8515   -92.942038   -31.786045    134.53716   -4456.1736 
47340000    5.2008026   -4731.4649   -4722.5509   -4731.4649            0    1984.0248    17.845762    23.319786    21.855352    9095.3092     2106.939    1939.3512    1905.7842   -6.3905851    26.108666    85.342495   -4459.3784 
47341000    5.0067376   -4731.5856   -4723.0042   -4731.5856            0    1966.7538    17.870419     23.26286     21.87967    9095.7517    1975.9515    1995.3209    1928.9891   -34.417001    -25.12287   -94.976815     -4462.11 
47342000    5.1067349   -4730.8602   -4722.1074   -4730.8602            0     1970.686    17.899377    23.214041    21.891639    9096.3454    1873.9613    2133.3564    1904.7402   -106.87142   -88.912613    250.44614   -4460.6745 
47343000    4.8566395   -4731.3501    -4723.026   -4731.3501            0    2011.3479    17.921148    23.228158    21.849467    9095.3924    1936.6549    2024.9835    2072.4054    28.026213   -41.758437   -35.473164   -4456.2268 
47344000    5.0015927    -4731.275   -4722.7025    -4731.275            0    1960.8152    17.937639    23.201328    21.858972    9097.2025     1801.756    2083.1862    1997.5035   -82.316072    54.885309    136.84025   -4462.5545 
47345000    5.1100405    -4731.598   -4722.8396    -4731.598            0    2019.7814    17.892873    23.237541     21.87025    9093.3521    1951.4899    2057.4754     2050.379    -128.8224    13.929637    106.29488   -4454.9818 
47346000    5.2535566   -4731.1228   -4722.1184   -4731.1228            0    1977.1288    17.889411     23.26157    21.856664    9095.3398    2007.0536    1993.0041    1931.3286    113.08155    29.898602   -6.7707432   -4459.8597 
47347000    5.1922827   -4731.1897   -4722.2903   -4731.1897            0    1980.0931    17.850772    23.304159    21.860687    9093.9857    2065.3809     1883.103    1991.7955   -185.58985   -92.243928    135.92126   -4459.6776 
47348000    5.1504771   -4731.9462   -4723.1184   -4731.9462            0    1995.8068    17.839305    23.307753    21.871694    9094.1217    2050.8941    1821.4774    2115.0488   -182.31529   -60.314029   -4.0947602   -4458.4177 
47349000     5.339279   -4731.6888   -4722.5374   -4731.6888            0    1957.9074    17.849071    23.300799    21.878822    9099.3498    2008.4451    1885.8566    1979.4206    25.787918   -32.852867    83.521688    -4462.714 
47350000    5.0851795   -4731.6572   -4722.9414   -4731.6572            0    1992.3365    17.856567    23.303214     21.85089    9092.4915    2020.0765    1960.8654    1996.0675   -100.12198   -45.123822   -61.218384   -4458.7483 
47351000    5.0605994   -4731.9573   -4723.2837   -4731.9573            0    1965.0332    17.893774    23.272464    21.838788    9094.3748    1953.0285    1904.5803    2037.4908    37.782977   -62.385817    26.675896   -4462.6571 
47352000    5.2602923   -4731.2158   -4722.1999   -4731.2158            0    1966.2874    17.920806    23.206202    21.875684    9097.5246    1816.2118    2079.7811    2002.8691   -58.560648    56.339913    255.93937   -4461.3167 
47353000     5.168421   -4731.1704   -4722.3119   -4731.1704            0    1998.0526    17.918731    23.197564    21.884468    9096.7366    1951.2407    2060.9938    1981.9234   -167.53953   -86.635136   -51.109847   -4457.2372 
47354000    4.9263093   -4730.9319   -4722.4884   -4730.9319            0    2010.9495    17.891099    23.241995    21.866195    9092.5065    1977.2016     2049.073    2006.5739    -45.32221   -33.005135    177.16332   -4455.8267 
47355000     5.134894     -4731.03    -4722.229     -4731.03            0     1977.682    17.894385    23.252783    21.858408    9095.1578    1971.8009    1986.8645    1974.3806   -39.808237   -86.896387    18.838645   -4459.9022 
47356000    5.0172767   -4731.4999   -4722.9004   -4731.4999            0    1977.9775    17.869811     23.29151    21.849502    9094.0881    2074.4029    1943.1723    1916.3573   -35.442859    -83.27325    7.2649533   -4460.5653 
47357000     5.155309   -4731.8713   -4723.0353   -4731.8713            0    1977.4476    17.834991    23.309582    21.881811    9096.8416    2003.2164    1894.7215    2034.4049   -45.808174    45.263702    153.05166    -4460.691 
47358000    5.1320609   -4731.3476   -4722.5514   -4731.3476            0    1994.3054    17.850729    23.308129     21.85527    9093.2589    2046.3089    1924.9897    2011.6178   -167.38848   -103.10628   -10.063986   -4458.0749 
47359000    4.9512847   -4730.8991   -4722.4128   -4730.8991            0    1990.9107    17.855765    23.289007    21.864162    9092.0594    2081.2943    2013.8907    1877.5472   -53.566983   -11.996423    173.46711   -4458.4213 
47360000    4.8518486   -4731.0825   -4722.7666   -4731.0825            0    1992.2184    17.891507    23.265605    21.848909    9094.7555    1910.3027    1980.6355    2085.7169    31.623143    27.155559    97.147461   -4458.5233 
47361000    5.3231219   -4731.5425   -4722.4189   -4731.5425            0    1969.0676    17.923822    23.210781    21.865034    9096.4201    1868.3679    2114.8436    1923.9912   -14.779724   -23.070596   -84.796394   -4461.1985 
47362000    5.2023702   -4731.3757    -4722.459   -4731.3757            0    1961.8348     17.92596    23.199743    21.872032    9096.0898    1803.0805    2081.6041    2000.8197   -9.0274637    30.435632     172.9525   -4462.2076 
47363000    5.1762585   -4731.3941   -4722.5222   -4731.3941            0    1985.1365    17.914534    23.236353    21.847159    9094.2824    1930.1994    1985.7458    2039.4644   -86.375662     16.67817   -22.053927    -4459.232 
47364000    5.3989163   -4731.0592   -4721.8057   -4731.0592            0    1994.2514    17.871999    23.271472    21.862689    9092.8608     2038.302    1964.2789    1980.1733   -160.91751   -59.539632     62.68842   -4457.3479 
47365000    5.3685757   -4731.2588   -4722.0572   -4731.2588            0    1974.7176    17.847443    23.292248    21.878302    9094.9648    2088.7706    1896.2659    1939.1164    40.115723    74.124188    106.36748   -4460.1292 
47366000    5.1166474   -4731.6692   -4722.8994   -4731.6692            0    1983.8642    17.827522    23.296966    21.899156    9095.3146    2090.8976      1894.49     1966.205   -19.704805   -86.168374    41.199018   -4459.7481 
47367000    4.9025598   -4731.6041   -4723.2013   -4731.6041            0     2006.681    17.838992    23.313404    21.869917    9095.4277    2147.9279    1947.6527    1924.4625    95.513577   -65.492454    107.64627   -4457.0201 
47368000    4.9554855   -4731.4862   -4722.9927   -4731.4862            0     1981.955    17.867602    23.279763    21.856265    9091.1908    2005.7158    1975.6675    1964.4816    104.82894    29.216388     1.275232   -4460.2138 
47369000     5.155732   -4731.2772   -4722.4404   -4731.2772            0    1986.1013    17.912345    23.239969    21.846511    9094.3167    1965.2096    2059.7553    1933.3389   -253.14405   -109.66113      78.2667   -4459.0213 
47370000     5.110283   -4731.5247   -4722.7658   -4731.5247            0    2011.4316    17.923906    23.198795    21.875574    9096.1485    1920.5534    2142.4035    1971.3378    58.505396    40.979415    211.75603   -4455.9333 
47371000    4.9132578   -4730.9293   -4722.5081   -4730.9293            0    1997.0233    17.896839    23.217263    21.880399    9091.6473     1960.143     2058.124    1972.8029   -241.69998    59.410596    -28.50123   -4457.7181 
47372000    5.3513043   -4731.0258   -4721.8538   -4731.0258            0    2008.6539    17.913252    23.225932    21.846986    9089.4819    1985.7202    2041.4154    1998.8262   -272.62798   -67.441733    142.56666   -4455.5851 
47373000    4.6294366   -4731.3547     -4723.42   -4731.3547            0    1991.9788    17.869543     23.28926    21.854034    9094.9587    2059.5618    1951.9228    1964.4518    221.26305   -65.705646    68.150716   -4459.2027 
47374000    5.2498457   -4731.1771   -4722.1791   -4731.1771            0    1996.0985    17.847621    23.281916    21.889459    9095.6573    2046.7075    1914.4021    2027.1859   -89.052671   -3.3986028    54.790414    -4457.395 
47375000    5.2490158   -4730.7347   -4721.7381   -4730.7347            0     2018.729    17.828717    23.316201    21.872357    9092.2941    2153.6376    1925.8236    1976.7257   -50.489163   -120.68495    126.40527    -4454.051 
47376000    4.9023132   -4730.9349   -4722.5325   -4730.9349            0    1992.8943    17.856686    23.281569    21.877684    9095.2461    2087.8821    1986.6829    1904.1178    11.989188    7.2999807    7.2416321   -4458.1853 
47377000    5.2401714   -4731.4178   -4722.4363   -4731.4178            0    1981.7401    17.867837    23.298435    21.851494    9096.6159    1942.2736    1928.5892    2074.3576   -84.183455   -85.190908    124.87618   -4459.5291 
47378000    5.2674277   -4731.4251   -4722.3969   -4731.4251            0    2005.4251    17.914099    23.232809    21.852895    9095.0622    1951.8431    2021.3389    2043.0934   -8.9682552   -63.271599    76.819968    -4456.393 
47379000    5.4039624   -4731.3133   -4722.0511   -4731.3133            0    1964.2871    17.938792    23.169979    21.879624    9094.0783    1846.6413    2156.9171    1889.3029    117.02401    14.172896    18.196603    -4461.532 
47380000    4.9022472   -4731.4946   -4723.0923   -4731.4946            0    1966.5689    17.912682    23.224084    21.861026      9094.31    1839.9468    2136.6105    1923.1494    119.90101    65.013665    152.20476    -4462.264 
47381000    5.0250999   -4732.1615   -4723.5487   -4732.1615            0    1944.5349    17.907757    23.246186    21.854027    9097.5487    1885.6354    1977.0606    1970.9088   -86.118926   -27.913467   -10.451689   -4465.5509 
47382000    5.1149237   -4730.8609   -4722.0941   -4730.8609            0    1989.3355     17.88342    23.277147    21.846787    9094.2709    2064.9522    1950.8705    1952.1838   -103.61443   -3.1827474    33.015338   -4458.2473 
47383000    4.9691304   -4731.4524   -4722.9354   -4731.4524            0    1986.9773    17.829921    23.314577    21.876955    9094.1858     2158.827    1838.6011    1963.5039    15.653478   -100.05974    137.51761   -4459.4039 
47384000    4.9244253   -4731.3984   -4722.9581   -4731.3984            0    2011.2811     17.84597    23.289544    21.882245    9094.7971    2158.8434    1900.5006    1974.4992    3.1937866   -19.444124   -60.102408   -4456.1852 
47385000    4.8664395   -4731.6507   -4723.3098   -4731.6507            0    1978.6587     17.85898    23.266087    21.887288    9094.3563    1942.1055    1936.8304    2057.0402   -208.35496    51.305054    97.440882   -4460.8766 
47386000    5.0749214   -4731.3078   -4722.6095   -4731.3078            0    1983.6216    17.872187    23.266429    21.872639    9095.1238    1957.5059    2000.6962    1992.6626   -160.40653   -113.55598    74.174949   -4459.4959 
47387000    5.1168758   -4731.9011   -4723.1309   -4731.9011            0    1963.4439     17.92237    23.227075    21.848612    9095.2331    1818.3305    2023.3335    2048.6678   -79.100003    48.945088    149.56652   -4462.6906 
47388000    5.1771766    -4731.264   -4722.3905    -4731.264            0    1990.5356    17.919532    23.197142    21.874639    9092.8921    1895.8726    2082.3554    1993.3788   -121.55806    -73.51157    38.661198   -4458.4246 
47389000    4.8948973   -4731.9861   -4723.5964   -4731.9861            0    1983.0929    17.929041    23.236692    21.830521    9094.8485    1857.6477    1993.0486    2098.5824   -88.759953   -83.815745   -15.056102   -4460.5609 
47390000    5.1993782   -4731.7124   -4722.8008   -4731.7124            0    1972.0423    17.904543     23.26583    21.834899     9095.634    1909.7702    1926.1236    2080.2331    -272.3017 -0.014371004    77.961819   -4461.2084 
47391000    5.0633673   -4731.7206   -4723.0422   -4731.7206            0    1958.5607    17.857562    23.288215    21.869689     9094.964    1958.9393    1930.7686    1985.9742    22.831628   -15.663589   -25.577017   -4463.2573 
47392000    5.0690696   -4731.3553   -4722.6671   -4731.3553            0    2004.3389    17.831202    23.288957    21.901606     9095.082    2059.4161    1935.5972    2018.0034   -200.47691    110.71155    124.47924   -4456.8067 
47393000     4.853203    -4731.381   -4723.0628    -4731.381            0    2004.5057    17.845065    23.303991    21.866353    9093.3688     2092.007    1899.7887    2021.7213   -54.261771    40.083398    60.291972   -4457.2303 
47394000    4.9852073   -4731.3208   -4722.7763   -4731.3208            0    2010.5996    17.870125    23.272294    21.863714    9092.6549    2091.6188    1945.4938    1994.6863   -68.290545   -58.137295    17.640141   -4456.1567 
47395000    5.3769527    -4731.301   -4722.0851    -4731.301            0    1971.8765    17.900574    23.249964    21.849483    9093.4861    1949.4209    1879.4051    2086.8035   -13.289276   -62.330902    79.137034   -4460.5765 
47396000    4.9639521    -4731.515   -4723.0069    -4731.515            0    2002.9661    17.920661     23.22144    21.860389    9097.0602     1968.593    2016.0103     2024.295   -63.181389   -2.7476249    49.895764   -4457.2708 
47397000    4.9227685   -4731.7941   -4723.3567   -4731.7941            0    1996.7485     17.92916    23.204358    21.854297    9092.1446    1896.1711    2210.7061    1883.3682   -72.942877   -47.835827    72.561705   -4458.5886 
47398000    4.9719333   -4731.9008    -4723.379   -4731.9008            0    2001.7901    17.896943    23.244611     21.85498     9091.835    1922.7067    1991.9989    2090.6647   -18.755123    50.458376   -22.456717   -4457.9515 
47399000    5.3113088   -4731.1164    -4722.013   -4731.1164            0    1957.5784    17.891879    23.246044     21.87292    9097.2845    1982.0426     2065.039    1825.6537   -256.21303   -61.980861    69.847811   -4462.2921 
47400000    4.9129483   -4731.3062   -4722.8855   -4731.3062            0    1982.8504    17.858788    23.269864    21.882639    9093.8029    2012.7163    1936.8952    1998.9396    44.831195   -45.073095    80.391262   -4459.9124 
47401000    5.2327348    -4731.008   -4722.0393    -4731.008            0    2000.6654    17.817086    23.323208     21.87766    9091.2968       2178.4     1834.902    1988.6943   -40.449694    56.755802   -28.959957   -4456.7766 
47402000    4.6518851    -4731.007   -4723.0338    -4731.007            0    2004.6553    17.842911    23.283979    21.888056    9093.4794    2208.3671    1889.0385    1916.5601    35.501923    4.6368595    164.75452   -4457.1783 
47403000    5.2188646    -4731.408   -4722.4631    -4731.408            0    1975.9858    17.870054    23.275376    21.868414    9095.7782    2011.6658    1931.9789    1984.3127   -101.30266   -80.635722    25.680197   -4460.3434 
47404000    4.8349591   -4731.2737   -4722.9867   -4731.2737            0    1974.7401    17.875082    23.240848     21.88779    9092.8896    1893.9031     2012.347    2017.9703   -52.796432    36.379973    48.051996   -4461.1155 
47405000    5.1404147   -4731.6392   -4722.8287   -4731.6392            0    1988.9273    17.935296    23.200497    21.856171    9094.5226    1865.2252    2111.6441    1989.9125    90.873708    29.113472    62.011015   -4459.0287 
47406000    4.7332554    -4731.671   -4723.5584    -4731.671            0    1995.5302    17.922795    23.214161    21.857778     9094.205    1878.6993    2046.7315    2061.1599   -19.656592   -98.979633   -5.5921755   -4458.8919 
47407000    5.1201883   -4731.7127   -4722.9369   -4731.7127            0    1999.3368    17.901433    23.225692    21.870426    9093.1363    1903.1882    2135.4208    1959.4016   -47.807107    65.825259    139.81916   -4457.7967 
47408000     5.166021   -4731.6148   -4722.7604   -4731.6148            0    1991.1585    17.881629    23.251426    21.864824    9090.8114    2034.8921    2016.8546    1921.7288   -10.087852   -44.545691   -91.543249   -4458.7723 
47409000    4.9408245   -4730.7596   -4722.2912   -4730.7596            0    2018.6822    17.857002    23.285386    21.870994    9094.1168    2018.7772    1983.2169    2054.0526   -108.43407    3.1296073   -2.4827109   -4454.5567 
47410000    5.1393966   -4730.8506   -4722.0419   -4730.8506            0     1960.004    17.845933     23.27703    21.891866    9093.8881    2020.9552    1917.9268    1941.1301   -214.90482   -134.63294    154.83884   -4462.0963 
47411000    4.8546086    -4731.616   -4723.2953    -4731.616            0    1977.9428    17.849077    23.319572     21.85201    9095.5241     2112.593    1827.6822    1993.5533    127.06992   -24.533217   -17.938788   -4460.9234 
47412000    4.9130477    -4731.392   -4722.9712    -4731.392            0    1959.7295    17.849253    23.308632    21.862326    9095.6386    1982.5071    1826.5285    2070.1529   -185.90058     45.85937    117.13472    -4463.012 
47413000    5.1407975   -4731.5545   -4722.7434   -4731.5545            0    1971.8862    17.882623    23.260773     21.86846    9096.4841    1969.9958    2017.4663    1928.1966   -104.11875   -50.594869    80.893037   -4461.1473 
47414000    4.8805601   -4731.1551     -4722.79   -4731.1551            0    1988.5204    17.917805    23.206723      21.8689    9093.3848    1865.5793    2126.5748    1973.4071   -110.61124   -72.622823   -21.622239    -4459.077 
47415000    5.1435495   -4731.4512   -4722.6353   -4731.4512            0    1971.2102    17.941202    23.192454    21.859137    9095.5978    1869.1509    2050.8362    1993.6436   -78.965054    30.759735    54.034989   -4461.1543 
47416000     5.081122   -4731.2582   -4722.5493   -4731.2582            0     1990.654    17.910921    23.225248    21.866629    9096.2029    1947.6293    2017.1456    2007.1873     167.7204   -108.52615    85.554956   -4458.4716 
47417000    4.9035996   -4731.4616    -4723.057   -4731.4616            0    2020.5109    17.869215    23.244157    21.886179    9090.5303    2100.1505    2029.0475    1932.3347   -50.139089    21.728636     25.19749   -4455.1856 
47418000    5.5899659   -4731.5851   -4722.0041   -4731.5851            0    1979.4459    17.876301    23.275506    21.856135    9093.8995    2081.9495     1946.423    1909.9653    21.108557    -12.10166    88.195227   -4459.4797 
47419000    5.2672942   -4730.8931   -4721.8652   -4730.8931            0    1984.7412    17.826391    23.296236    21.900001    9094.8034    2094.4206     1929.435    1930.3679   -175.77953    -51.95019     21.37738   -4458.6123 
47420000    4.8651165   -4730.9819   -4722.6432   -4730.9819            0    1975.0276    17.846095    23.299886     21.87648    9096.5024    2079.9505    1890.3442     1954.788   -183.63484    55.589258    123.13818   -4460.6298 
47421000     5.171104   -4731.3306   -4722.4675   -4731.3306            0    2009.1655     17.83669    23.307879    21.869167     9091.787    2133.5557    1901.3625    1992.5782    35.816817   -45.185718    51.687195   -4456.0635 
47422000    4.9826187   -4731.2657   -4722.7257   -4731.2657            0      2006.89    17.870582    23.262132    21.873143    9092.8368    2063.0865    2060.0984    1897.4852   -124.37583   -50.078835   -15.185025   -4456.5926 
47423000    5.0498281    -4731.561   -4722.9058    -4731.561            0     2016.353    17.893595    23.221038    21.877469      9090.26    1912.0369    2158.1887    1978.8334   -188.45432   -16.099139    171.08793   -4455.5936 
47424000    4.8554011   -4731.1911   -4722.8691   -4731.1911            0    1998.7976    17.910833     23.23482    21.850767    9093.3057    1930.3513    2091.6116      1974.43   -111.14839   -77.596751    53.666508   -4457.7955 
47425000    5.1578241   -4731.2493    -4722.409   -4731.2493            0    1986.5234    17.927103    23.231344    21.836267    9094.1653    1811.4947    2082.6742    2065.4013   -41.903182    106.21099   -52.617238   -4458.9382 
47426000    5.0124395   -4731.2841    -4722.693   -4731.2841            0    1979.6227    17.881223    23.250402    21.878726    9095.9845    2027.2914    2038.8193    1872.7573     9.279081   -82.545741    143.96385   -4460.0849 
47427000    5.3341626   -4731.0963   -4721.9537   -4731.0963            0    1994.9943    17.845539    23.286774    21.881545    9093.2054    2061.0675    1876.2273    2047.6882   -19.257261   -44.106481   -20.401969   -4457.3874 
47428000    5.2212285   -4731.2532   -4722.3042   -4731.2532            0    1967.6299    17.857169    23.297626    21.865207    9096.5738    2033.4101    1900.4174    1969.0624    76.563106    112.32557    30.065553   -4461.2702 
47429000    4.9817644   -4731.0986     -4722.56   -4731.0986            0    1989.3067    17.850171    23.281492    21.878935    9092.4177    2033.7965    2009.4309    1924.6928   -83.214512   -111.18367      28.6465   -4458.7708 
47430000     4.922569   -4731.1676   -4722.7305   -4731.1676            0    1997.5144    17.846344    23.302301    21.873816    9096.4645    2058.1458    1975.4731    1958.9243   -186.38996   -52.205244    36.220262   -4457.7351 
47431000    5.3490529   -4731.6056   -4722.4375   -4731.6056            0    1989.8479    17.886686    23.254232    21.868728    9096.1032    1941.5413    2031.0433    1996.9591   -111.89401    10.916055    95.620011   -4458.4696 
47432000    5.6148265   -4731.7885   -4722.1649   -4731.7885            0    2005.0347    17.906622    23.255389    21.837759    9093.7989    1967.7397    1953.8789    2093.4855    -15.80277   -73.589057    47.256216   -4456.2497 
47433000    4.9380019   -4731.3837   -4722.9202   -4731.3837            0    2011.0558    17.930995     23.20421    21.855415    9093.4826    1917.2593    2158.4116    1957.4966    50.968149   -6.8926188    94.269371   -4456.2157 
47434000    4.9998901   -4731.6705   -4723.1008   -4731.6705            0    2020.7873    17.914698    23.212509     21.86593    9092.8398    1894.8861    2098.1028     2069.373    -132.9832    75.734637    112.48775   -4455.1247 
47435000    5.0714763   -4730.8334   -4722.1411   -4730.8334            0    1994.1846    17.910729    23.233455    21.852203    9093.3158    2034.9506    2028.0668    1919.5362   -60.215389    -75.33758    137.28292    -4457.679 
47436000    5.3018737   -4731.4383   -4722.3511   -4731.4383            0    2004.0691    17.869569    23.295924    21.848996    9095.4777    2006.5798    1996.1732    2009.4543    7.6049742    127.38593    106.14063   -4456.5149 
47437000    5.2016745   -4731.5753   -4722.6598   -4731.5753            0    1980.8888    17.847924    23.311524    21.856351    9093.6038    2046.5351    1918.1052    1978.0262    77.604785    -56.69283    72.691306   -4459.9526 
47438000    5.2531456   -4730.8617    -4721.858   -4730.8617            0    1999.3977    17.832594    23.299646    21.890518    9095.3598    2121.3693      1906.26    1970.5637    -73.13351   -136.56597    98.103918   -4456.6449 
47439000    4.8738077   -4731.4289   -4723.0754   -4731.4289            0    2003.0574    17.836031    23.305281     21.87514    9092.9207    2107.9777    1886.0685    2015.1259    90.175286    61.058328    29.754605   -4457.4481 
47440000    5.2568652   -4730.8009   -4721.7908   -4730.8009            0    1983.1473    17.872374    23.243411    21.891479    9094.0474    1986.5005    2075.9791    1886.9622   -8.5907337   -79.625385    68.322634   -4458.7712 
47441000    5.2332169   -4731.1176    -4722.148   -4731.1176            0    1982.6321    17.886906    23.254076    21.865353    9094.7505    1920.5992    2004.5403    2022.7567    136.85149   -53.356986    47.256991   -4459.1765 
47442000    4.9893007   -4730.8133   -4722.2618   -4730.8133            0    1999.5743    17.909425    23.207472    21.880453    9094.2271    1877.5284    2187.0611    1934.1335    48.733718    111.53388    66.278612   -4457.0583 
47443000    5.1181271    -4731.157   -4722.3847    -4731.157            0    1986.1647    17.926724    23.197694    21.870701    9095.1207    1905.5777    2065.5842    1987.3322    168.52843   -112.27272    91.297734   -4458.9338 
47444000    5.1970686   -4730.9142   -4722.0066   -4730.9142            0    2020.2742    17.882883    23.248059    21.877936    9095.5841     1975.771    1937.9635    2147.0882   -143.63817    50.181989    83.143437   -4454.0177 
47445000    5.1886797   -4731.4214   -4722.5282   -4731.4214            0    2026.1606    17.858441    23.280422    21.869785     9092.408    2082.5505    1959.5139    2036.4173   -84.064991    18.176038   -24.398267   -4453.8523 
47446000    5.1910191   -4731.3453   -4722.4481   -4731.3453            0    2007.0104    17.837006    23.324027    21.858499    9093.8091    2178.5067     1907.891    1934.6336   -75.833566   -12.485517    196.34207   -4456.2706 
47447000     5.121127   -4731.1276   -4722.3501   -4731.1276            0    2023.6595    17.836256    23.317474    21.867319      9094.54    2094.6031    2008.1733     1968.202    13.734391    15.188531    36.267513    -4453.943 
47448000    5.0335928   -4731.1904    -4722.563   -4731.1904            0     1969.143    17.851987    23.297188    21.872102    9096.6311    2033.9667    1894.4452    1979.0171   -48.439834   -59.625747    47.714798   -4461.3266 
47449000    5.4085158    -4731.349    -4722.079    -4731.349            0     1987.972    17.889909    23.257363    21.859205     9095.005    1985.5108    1975.1569    2003.2484   -159.13516   -82.430981    189.76653   -4458.3918 
47450000    4.9992627   -4731.3396    -4722.771   -4731.3396            0    1972.7711    17.909229    23.234018    21.858129     9095.241    1898.1227    2065.5422    1954.6484   -119.44995    81.429338    34.175199   -4461.0933 
47451000    4.6876427   -4730.4751   -4722.4406   -4730.4751            0    2035.5074    17.907307    23.217022    21.875112    9094.6728    1975.1488    2067.8762    2063.4973    68.866315   -155.64955    91.529021   -4452.4581 
47452000    5.2090061   -4731.6126   -4722.6845   -4731.6126            0    1957.5475    17.917011    23.225097    21.861575    9097.1332    1874.4766    2023.8762    1974.2897   -55.401333   -25.894287    85.865463   -4462.9721 
47453000    4.8890814   -4731.3641   -4722.9844   -4731.3641            0    1994.8347    17.889953     23.23244    21.872598    9090.8479    2001.1034    1973.4623    2009.9385   -30.224835    34.137297    18.382246   -4458.5078 
47454000    4.9223489   -4731.5281   -4723.0913   -4731.5281            0    1960.0388    17.866538    23.279531    21.871471    9096.8837    1982.2727     2026.318    1871.5256    61.055227   -76.274076    111.18336   -4463.0555 
47455000    5.0709859   -4731.7916   -4723.1001   -4731.7916            0    1978.1046    17.816372    23.330163    21.880168    9094.6855    1993.4286    2010.2947    1930.5904   -12.351975    79.669781    73.744247   -4460.7309 
47456000    5.0986046   -4731.7152   -4722.9764   -4731.7152            0    1967.9143    17.827154    23.338636    21.854656    9092.8802    2124.1006    1771.5976    2008.0447   -92.275609   -35.217418    86.576299   -4462.0106 
47457000    4.9764522   -4731.3039   -4722.7744   -4731.3039            0    2001.3181     17.85192    23.283564    21.877057    9093.3371    2047.9199    1963.6376    1992.3968    46.408204   -152.40378    77.347313   -4457.3656 
47458000    5.2018792    -4731.066   -4722.1502    -4731.066            0     1992.672    17.841221    23.270579     21.90246    9093.3658     2041.404    1967.6635    1968.9486    46.915786     64.81022   -96.734717   -4457.8872 
47459000    5.0856835    -4731.475   -4722.7583    -4731.475            0    1994.8539    17.901561    23.225848    21.871086    9093.5365    1932.6676    2063.7049    1988.1892    51.567394    11.922058    95.356142    -4458.201 
47460000    5.2325431   -4730.8581   -4721.8897   -4730.8581            0      1972.05    17.902906    23.234207     21.85651      9091.43    1844.1906    2113.7301    1958.2292    29.955179     -112.933    90.519694   -4460.4172 
47461000    4.9804081   -4731.1428   -4722.6066   -4731.1428            0    2010.4004    17.900505    23.206563    21.885588    9091.4743    1888.7104    2145.6906    1996.8003   -135.72785    59.861608   -5.4312189   -4456.0479 
47462000    5.2607554   -4731.4305   -4722.4138   -4731.4305            0    1984.9743    17.899799    23.233978    21.874264    9097.1467    1938.5513    2055.6082    1960.7633   -17.124808   -73.980888    87.277752   -4459.0622 
47463000    5.1291401   -4730.9551   -4722.1639   -4730.9551            0    1990.8831    17.883609     23.26202    21.862968    9095.1888     2031.074    2037.9879    1903.5872   -170.25311   -121.37774    72.292565   -4458.0852 
47464000    5.2997246   -4731.8453   -4722.7618   -4731.8453            0    1988.6746    17.862864    23.265261    21.880786    9093.3083    1955.9511    1981.3526      2028.72    -78.88995    76.688562    104.77353   -4459.0305 
47465000    4.8494751   -4731.9527   -4723.6409   -4731.9527            0    1992.6983    17.832277    23.324035    21.869766    9096.0874    2157.5115    1909.1495    1911.4338    119.10587    -103.9393    150.63422   -4459.2953 
47466000    5.1521562   -4731.4964   -4722.6658   -4731.4964            0    1992.2171    17.838246    23.292484    21.885063    9093.1796    2157.1242    1927.1233    1892.4037   -48.193357   -40.093229    61.504909   -4458.4686 
47467000    4.8383359   -4731.1557   -4722.8629   -4731.1557            0    2008.2442    17.837958    23.278596    21.901574    9094.4671    2027.3723    2004.1899    1993.1704   -15.875553    105.06422    112.52277   -4456.5025 
47468000    5.0627268   -4731.1043    -4722.427   -4731.1043            0    1997.5286    17.897236    23.230556    21.874986    9094.8045    2011.9511    2030.7845    1949.8503   -27.205489   -96.182857    80.771358    -4457.478 
47469000    5.2956154   -4731.5749   -4722.4984   -4731.5749            0    1977.2102    17.920656    23.228276    21.854269     9097.188    1866.1968     1998.994    2066.4399    210.53135    31.019558   -18.153027   -4460.1756 
47470000    4.9645864   -4731.6004   -4723.0913   -4731.6004            0    1998.6808    17.925332    23.210348    21.855949    9093.2372     1853.188    2063.3875     2079.467    85.187673   -23.309469    95.283672   -4458.0352 
47471000     5.051341   -4731.2676   -4722.6098   -4731.2676            0    1984.9188    17.936209    23.211091    21.845207    9094.5743    1820.2336    2139.2101    1995.3127    122.56345    -120.6284    108.80882     -4459.34 
47472000    4.9656828   -4731.1786   -4722.6676   -4731.1786            0    1991.1299    17.880395    23.239439    21.882887    9093.0039    2025.4847    2035.3324    1912.5726   -62.842407    114.14097    108.06701   -4458.6196 
47473000    4.9191215   -4731.2905   -4722.8593   -4731.2905            0    1968.7492    17.891192    23.275923    21.840363    9095.0701    1942.5603    1891.1146    2072.5727    -204.6151    -104.2761     69.53601   -4461.7199 
47474000    5.1944096   -4731.4417   -4722.5387   -4731.4417            0    1977.7448    17.830628    23.310674     21.87593    9092.5979    2144.0354    1812.0592    1977.1396    39.207064   -18.864858    61.317214   -4460.2774 
47475000    4.8443365     -4731.17   -4722.8669     -4731.17            0    2000.3763    17.846606    23.303559    21.866762    9094.1552    2061.9641    1900.2823    2038.8826    91.855222    57.149286    142.90483   -4457.5592 
47476000    5.1696624   -4731.1475   -4722.2869   -4731.1475            0    1993.7735    17.858969    23.269416     21.88395    9094.2643    1997.9827    1918.3276    2065.0103   -160.14357   -198.58084    5.8873147   -4457.8517 
47477000    5.4258061   -4731.0228   -4721.7231   -4731.0228            0     1993.249    17.900129    23.236112    21.862146    9093.1092    1916.9159    2043.0273    2019.8038   -83.918198    132.27506    47.554967   -4457.3911 
47478000    5.2174702   -4730.9578   -4722.0153   -4730.9578            0    2018.6763    17.911402    23.223639    21.856997    9091.8095    1968.8555    2032.9125    2054.2609    176.57555    19.388732    61.828941   -4454.3495 
47479000    5.0835985   -4731.1279   -4722.4148   -4731.1279            0    1983.8613    17.917783    23.204268      21.8776    9096.0286    1839.0434    2134.4925     1978.048   -153.12989   -32.040359    101.29781   -4459.2432 
47480000    5.3205364   -4731.3324   -4722.2132   -4731.3324            0    1973.1204    17.910601    23.230626    21.855409     9093.478    1881.4743    1999.6762    2038.2107   -11.369269    83.891157    26.285552   -4460.5398 
47481000     5.104804   -4730.8055    -4722.056   -4730.8055            0    1999.3939    17.871801    23.265529    21.871139    9093.9515      2042.03    2010.6118    1945.5398    1.8715079   -95.373855    53.432078   -4456.8845 
47482000    4.9563969   -4731.0083   -4722.5132   -4731.0083            0    1992.1125    17.833055    23.315695    21.873038    9094.5923    2046.1076    1807.8241    2122.4059   -47.211111    53.244217    153.36797   -4458.2888 
47483000    4.8762663   -4731.1694   -4722.8117   -4731.1694            0    2017.9678    17.821447    23.301556    21.897487    9093.3134    2213.1376    1949.5245    1891.2412    70.097023    74.865779   -26.981895   -4455.1956 
47484000    5.1639597   -4731.0265   -4722.1756   -4731.0265            0    1986.7612    17.842414    23.303839    21.870831    9093.8207      2006.81    1872.0802    2081.3934   -8.8149205   -118.89448    107.26582   -4458.6833 
47485000    4.9913868   -4731.6443   -4723.0893   -4731.6443            0    1999.6006    17.877045    23.260919    21.869954     9094.325     2034.027    2011.8073    1952.9676   -78.668664    41.927646    64.485651   -4457.8794 
47486000    5.2139796   -4731.6313   -4722.6947   -4731.6313            0    1992.5296    17.908533    23.235007    21.859935    9096.0258    1957.2842    1956.3131    2063.9915   -32.669236    2.9740322   -12.276051   -4458.3733 
47487000    4.8666417   -4731.0693    -4722.728   -4731.0693            0    2020.9954    17.923842    23.215797    21.853251    9093.4935    1917.0284    2176.7172    1969.2405    26.581664   -136.83862    178.40989   -4454.7051 
47488000    5.1416225   -4731.2546    -4722.442   -4731.2546            0    1987.6081    17.940248    23.199507    21.852229     9095.005    1876.8326    2146.1502    1939.8415    -276.3789     118.9456   -89.524523    -4458.803 
47489000    4.9796789   -4731.0057   -4722.4707   -4731.0057            0    1987.2503    17.901034    23.255924    21.846924    9094.9855    1984.8924    1970.5437    2006.3146      62.9522    57.705367    75.890464   -4458.8798 
47490000    5.0031176   -4731.1178   -4722.5427   -4731.1178            0    1993.8471     17.88091    23.268404    21.855066     9093.024    1945.6695    2029.1003    2006.7714   -45.566292       17.666    99.761403   -4458.1338 
47491000    5.1713243   -4731.9973   -4723.1338   -4731.9973            0    1972.0604    17.854499    23.282941    21.881762     9096.363    2032.9755    1966.7882    1916.4176   -158.87471    36.520562  -0.79272564    -4461.518 
47492000    5.0013913   -4730.9937   -4722.4215   -4730.9937            0     1985.174     17.83305    23.297716    21.889132    9094.2629    2094.8548    1952.9199    1907.7473   -29.806618   -106.47497    151.72431   -4459.1269 
47493000    5.1410466   -4730.9231   -4722.1115   -4730.9231            0    2018.8997    17.830572     23.31316    21.877486    9094.1861    2120.8359    1962.9547    1972.9085   -158.15166    5.8551987   -72.941455   -4454.3461 
47494000    5.2561247   -4731.2552   -4722.2464   -4731.2552            0    2004.4664    17.866371    23.259819    21.885556    9094.9492    1996.9923    2008.1119    2008.2949   -7.1656343    33.909431     95.09462    -4456.373 
47495000    5.1446195   -4730.9425   -4722.1248   -4730.9425            0    2005.8353     17.90156    23.258471     21.84359    9094.8607    1910.1477    2082.3758    2024.9823   -124.18343   -64.682221    158.41394   -4456.0723 
47496000    5.0934922   -4731.1361    -4722.406   -4731.1361            0     1990.813    17.905192    23.211001    21.884606    9095.1857    1967.6561    1978.6246    2026.1583   -35.344618    29.980011    40.776346   -4458.3367 
47497000    5.0320908   -4731.2176   -4722.5928   -4731.2176            0    1999.0797    17.912972    23.203369    21.872807    9091.2422    1975.3506    2026.2485      1995.64    1.6267757    63.067972    42.229491   -4457.5419 
47498000    5.0978454   -4730.8087   -4722.0712   -4730.8087            0    1990.2452    17.905073    23.221528    21.873649    9094.6951    1894.1431    2099.2148    1977.3777   -10.882149   -179.78462    158.62209   -4458.0915 
47499000    5.0511888    -4731.893   -4723.2354    -4731.893            0    1948.3712    17.898127    23.242581    21.865565    9096.0459    1911.0731    1959.8829    1974.1578   -44.851847    117.44203    101.52907   -4464.7713 
47500000    5.1953703    -4730.827   -4721.9223    -4730.827            0    2015.1152    17.866392    23.279413    21.863824    9093.5823    2060.9047    2012.9084    1971.5326   -215.54468    7.5574238    129.14898   -4454.6765 
Loop time of 329.134 on 64 procs for 250000 steps with 864 atoms

Performance: 131.254 ns/day, 0.183 hours/ns, 759.570 timesteps/s
387.9% CPU use with 16 MPI tasks x 4 OpenMP threads

MPI task timing breakdown:
Section |  min time  |  avg time  |  max time  |%varavg| %total
---------------------------------------------------------------
Pair    | 22.238     | 26.147     | 28.955     |  36.8 |  7.94
Bond    | 1.5605     | 1.7268     | 2.0225     |  11.7 |  0.52
Kspace  | 175.9      | 180.96     | 185.87     |  21.6 | 54.98
Neigh   | 0.056994   | 0.064373   | 0.071004   |   1.6 |  0.02
Comm    | 40.659     | 45.951     | 50.321     |  43.3 | 13.96
Output  | 0.43365    | 0.43392    | 0.43534    |   0.1 |  0.13
Modify  | 54.022     | 59.599     | 64.337     |  48.2 | 18.11
Other   |            | 14.25      |            |       |  4.33

Nlocal:        54.0000 ave          61 max          47 min
Histogram: 4 0 3 1 0 0 1 3 0 4
Nghost:        2596.62 ave        2623 max        2581 min
Histogram: 5 3 0 2 1 1 0 0 2 2
Neighs:        13376.7 ave       15079 max       11855 min
Histogram: 4 2 2 0 0 0 2 1 3 2

Total # of neighbors = 214027
Ave neighs/atom = 247.71644
Ave special neighs/atom = 2.0000000
Neighbor list builds = 250
Dangerous builds = 0

unfix		3
unfix		2
unfix		1

write_data	data.final.${pid} nocoeff
write_data	data.final.1 nocoeff
System init for write_data ...
PPPM initialization ...
  extracting TIP4P info from pair style
  using 12-bit tables for long-range coulomb (../kspace.cpp:340)
  G vector (1/distance) = 0.3722348
  grid = 24 27 25
  stencil order = 5
  estimated absolute RMS force accuracy = 0.0030996598
  estimated relative force accuracy = 9.3345333e-06
  using double precision FFTW3
  3d grid and FFT values/proc = 6300 1296
Last active /omp style is kspace_style pppm/tip4p/omp

write_restart   restart.lmp.${pid}
write_restart   restart.lmp.1
System init for write_restart ...
PPPM initialization ...
  extracting TIP4P info from pair style
  using 12-bit tables for long-range coulomb (../kspace.cpp:340)
  G vector (1/distance) = 0.3722348
  grid = 24 27 25
  stencil order = 5
  estimated absolute RMS force accuracy = 0.0030996598
  estimated relative force accuracy = 9.3345333e-06
  using double precision FFTW3
  3d grid and FFT values/proc = 6300 1296
Last active /omp style is kspace_style pppm/tip4p/omp
Total wall time: 0:05:29
