LAMMPS (30 Jul 2021)
  using 1 OpenMP thread(s) per MPI task
package omp 0
using multi-threaded neighbor list subroutines
echo both

include		in.partitions
variable        pid world 0
include		in.temp
variable        temperature equal 247.97
variable	tempDamp equal 100.0
include		in.pressure
variable        pressure equal 4125.0
variable        pressureDamp equal 1000.0 # This is 1 ps
include		in.seed
variable        seed world 745823

units		real
atom_style	full
box tilt large
read_restart	restart.lmp.${pid}
read_restart	restart.lmp.0
Reading restart file ...
  restart file = 30 Jul 2021, LAMMPS = 30 Jul 2021
  restoring atom style full from restart
  triclinic box = (-10.585881 -9.3624516 -0.0076903687) to (12.565881 12.352450 21.867689) with tilt (-8.9916551 1.8760860 2.6383931)
  4 by 4 by 4 MPI processor grid
  restoring pair style lj/cut/tip4p/long/omp from restart
  restoring bond style harmonic/omp from restart
  restoring angle style harmonic/omp from restart
  1296 atoms
  864 bonds
  432 angles
Finding 1-2 1-3 1-4 neighbors ...
  special bond factors lj:    0        0        0       
  special bond factors coul:  0        0        0       
     2 = max # of 1-2 neighbors
     1 = max # of 1-3 neighbors
     1 = max # of 1-4 neighbors
     2 = max # of special neighbors
  special bonds CPU = 0.006 seconds
  read_restart CPU = 0.073 seconds
include 	in.setup
variable	out_freq equal 1000
variable	out_freq2 equal 10000
variable	out_freq3 equal 1000

timestep	2.0

neigh_modify    delay 7 every 1

include		in.tip4p
# This is TIP4P/Ice

# create groups ###
group ox type 2
432 atoms in group ox
group hy type 1
864 atoms in group hy

# set charges - beside manually ###
set group ox charge -1.1794
Setting atom values ...
  432 settings made for charge
set group hy charge 0.5897
Setting atom values ...
  864 settings made for charge

# ### TIP3P Potential Parameters ###
pair_style lj/cut/tip4p/long/omp 2 1 1 1 0.1577 8.5
pair_coeff 1 1*2 0.000 0.000
pair_coeff 2 2 0.21084 3.1668
bond_style  harmonic
bond_coeff  1 450 0.9572
angle_style harmonic
angle_coeff 1 55 104.52
kspace_style pppm/tip4p/omp 1.0e-5
pair_modify tail yes

thermo          ${out_freq}
thermo          1000
thermo_style    custom step temp pe etotal epair emol press lx ly lz vol pxx pyy pzz pxy pxz pyz enthalpy

restart 	${out_freq3} restart.lmp.${pid} restart2.lmp.${pid}
restart 	1000 restart.lmp.${pid} restart2.lmp.${pid}
restart 	1000 restart.lmp.0 restart2.lmp.${pid}
restart 	1000 restart.lmp.0 restart2.lmp.0


include         in.dump
dump            myDump all atom ${out_freq2} dump.water.${pid}
dump            myDump all atom 10000 dump.water.${pid}
dump            myDump all atom 10000 dump.water.0
dump            myDump2 all dcd ${out_freq2} dump.dcd
dump            myDump2 all dcd 10000 dump.dcd
dump_modify     myDump append yes
dump_modify     myDump2 append yes


variable natoms 	equal  "count(all)"                        # NUMBER ATOMS
variable H      	equal  "enthalpy/v_natoms"                 # ENTHALPY-per-atom
variable Vol      	equal  "vol/v_natoms"                 # volume-per-atom
fix AVG all 		ave/time ${out_freq} 1 ${out_freq} v_Vol v_H file vol_enthalpy.dat
fix AVG all 		ave/time 1000 1 ${out_freq} v_Vol v_H file vol_enthalpy.dat
fix AVG all 		ave/time 1000 1 1000 v_Vol v_H file vol_enthalpy.dat


timer           timeout 10:00:00 every 1000
New timer settings: style=normal  mode=nosync  timeout=10:00:00

fix 		1 all shake 1e-6 200 0 b 1 a 1
       0 = # of size 2 clusters
       0 = # of size 3 clusters
       0 = # of size 4 clusters
     432 = # of frozen angles
  find clusters CPU = 0.001 seconds
fix             2 all nph tri ${pressure} ${pressure} ${pressureDamp}
fix             2 all nph tri 4125 ${pressure} ${pressureDamp}
fix             2 all nph tri 4125 4125 ${pressureDamp}
fix             2 all nph tri 4125 4125 1000
fix             3 all temp/csvr ${temperature} ${temperature} ${tempDamp} ${seed}
fix             3 all temp/csvr 247.97 ${temperature} ${tempDamp} ${seed}
fix             3 all temp/csvr 247.97 247.97 ${tempDamp} ${seed}
fix             3 all temp/csvr 247.97 247.97 100 ${seed}
fix             3 all temp/csvr 247.97 247.97 100 745823


run             250000
PPPM initialization ...
  extracting TIP4P info from pair style
  using 12-bit tables for long-range coulomb (../kspace.cpp:340)
  G vector (1/distance) = 0.36914124
  grid = 30 40 32
  stencil order = 5
  estimated absolute RMS force accuracy = 0.0040768835
  estimated relative force accuracy = 1.2277414e-05
  using double precision FFTW3
  3d grid and FFT values/proc = 5168 640
Last active /omp style is kspace_style pppm/tip4p/omp
Neighbor list info ...
  update every 1 steps, delay 7 steps, check yes
  max neighbors/atom: 2000, page size: 100000
  master list distance cutoff = 10.8154
  ghost atom cutoff = 10.8154
  binsize = 5.4077, bins = 7 5 5
  1 neighbor lists, perpetual/occasional/extra = 1 0 0
  (1) pair lj/cut/tip4p/long/omp, perpetual
      attributes: half, newton on, omp
      pair build: half/bin/newton/tri/omp
      stencil: half/bin/3d/tri
      bin: standard
Per MPI rank memory allocation (min/avg/max) = 9.434 | 9.439 | 9.445 Mbytes
Step Temp PotEng TotEng E_pair E_mol Press Lx Ly Lz Volume Pxx Pyy Pzz Pxy Pxz Pyz Enthalpy 
12750000    259.56645   -6310.4381   -5642.7192   -6310.4381            0    4446.0762    23.151762    21.714901     21.87538    10997.589     4561.927    4254.5673    4521.7343   -928.06856    459.74418   -347.66812   -4929.6195 
12751000    244.61582   -6317.6799   -5688.4206   -6317.6799            0    4332.6676    23.592094    21.334996    21.800544    10973.026    3431.4877       5672.9     3893.615    -245.8943    626.91862    734.86828   -4995.0624 
12752000    252.93632   -6343.5481   -5692.8848   -6343.5481            0    3170.8688    23.465111    21.633349    21.749062    11040.453    2315.9346    2194.3368    5002.3349   -937.22016    309.82535    1143.9537   -5182.3315 
12753000    239.24487    -6298.088   -5682.6451    -6298.088            0    5744.3336    23.164978    21.540938    21.885859    10920.942    6632.6259    5638.3177    4962.0571    1058.5254   -354.93091   -395.54387   -4767.7409 
12754000    244.92009   -6354.4284   -5724.3864   -6354.4284            0    2935.8505    23.645922    21.353525    21.778198     10996.33    1667.0328    3068.0227     4072.496    58.651437    103.50925     280.6352   -5253.5634 
12755000    249.85856   -6341.2546   -5698.5087   -6341.2546            0     2974.206    23.367797    21.578705    21.866902    11026.316     3281.068    3914.3215    1727.2284    345.20382    343.50675   -781.31641   -5220.2341 
12756000    249.57951   -6311.7084   -5669.6803   -6311.7084            0    4204.7434    23.339538    21.481012    21.900699    10980.066    4260.9755     4890.972    3462.2826    -366.2863    865.10862    67.892236   -4996.3621 
12757000    253.92178   -6351.1442   -5697.9459   -6351.1442            0    3828.9699    23.574849      21.3505    21.721595    10933.235    2687.5378    4982.0193    3817.3525    339.40336    1464.3588    405.83951   -5087.4166 
12758000    249.99452   -6314.9661   -5671.8705   -6314.9661            0    4481.9962    23.394952    21.484936    21.733847    10924.279    3648.8953     5174.433    4622.6603    78.197517     108.0863    830.35279   -4957.8015 
12759000    251.41037   -6294.6843   -5647.9464   -6294.6843            0    4482.1344    23.352928    21.497356    21.851404    10969.978    5178.1663    4050.5638    4217.6731   -1029.1573     320.2452    304.84646   -4930.8682 
12760000    257.37458   -6338.0932   -5676.0127   -6338.0932            0    2462.7815    23.495057    21.484126    21.869303    11038.985     2188.382    3519.8188    1680.1438   -321.84787    86.721626   -137.29231   -5279.5239 
12761000    244.76533   -6319.3064   -5689.6625   -6319.3064            0    3416.0586    23.373311    21.612867    21.819892     11022.63    3986.6347     3451.153    2810.3881   -496.74667   -880.88188    564.82876   -5140.5183 
12762000    261.03977   -6319.9298   -5648.4209   -6319.9298            0    4488.8191    23.407755    21.431967    21.868378    10970.802    6200.6982    4764.0394    2501.7197   -751.09197   -75.638801   -902.20862   -4930.2192 
12763000    251.92229   -6306.6494   -5658.5947   -6306.6494            0    4284.1916    23.357917    21.552608    21.755455    10952.219     3623.243    5005.8678    4223.4641   -461.32729    191.64771   -137.90717   -4974.2941 
12764000    244.79565    -6342.003   -5712.2811    -6342.003            0    3464.1296    23.333169     21.59009    21.805636    10984.921    3590.8954     3783.028    3018.4655     456.7603    930.15806   -591.78394   -5157.3144 
12765000    245.20944   -6314.0627   -5683.2764   -6314.0627            0    3693.8313    23.427411    21.404586    21.977369     11020.64    3260.4372    6056.6928    1764.3639    1023.2644    627.61674   -918.18963   -5089.5863 
12766000    250.57843   -6332.9203   -5688.3225   -6332.9203            0    4566.4167    23.459115    21.504279    21.705394    10949.749    4614.1289    3809.4017    5275.7196   -70.998898    136.40995    618.55192   -4959.1075 
12767000    244.84018   -6317.9379   -5688.1014   -6317.9379            0    4048.2532    23.432763     21.52423    21.800533    10995.582    4173.3137    4332.0322    3639.4137    314.69891   -503.29189    278.90197   -5038.9264 
12768000    235.46944   -6335.1336   -5729.4028   -6335.1336            0    3416.0303    23.510063    21.367053    21.904901    11003.725    3701.1351    3038.8307    3508.1252    697.08837      24.7719    1963.0787   -5181.2049 
12769000    246.05503   -6331.8519   -5698.8904   -6331.8519            0    4326.1011    23.296569    21.580034    21.780519    10949.955    4785.1442    3933.5176    4259.6414   -1605.4367   -871.81336    704.72893   -5008.0386 
12770000    234.91385   -6307.6647   -5703.3632   -6307.6647            0    4306.2228    23.358952    21.575702    21.749061    10961.218      6048.27    3278.4336    3591.9649   -974.25978   -1914.3611    658.10216   -5014.9785 
12771000    240.03611   -6338.5346   -5721.0563   -6338.5346            0     4248.365    23.490292    21.466431    21.728335    10956.572      4839.01    2867.7159    5038.3691   -751.31254   -548.73258    1093.1314   -5042.2085 
12772000    243.98197   -6308.9562   -5681.3275   -6308.9562            0    5345.8915    23.342128    21.539607    21.780865     10950.99     4325.441    5569.7343    6142.4993     1250.636    515.83237    311.18659   -4827.5407 
12773000    254.45533   -6362.1632   -5707.5924   -6362.1632            0    2679.2265    23.462593    21.401038    21.948697    11020.964    2510.1415    3835.0846    1692.4533    101.08703    1169.2311   -851.55845   -5276.9618 
12774000    267.08332    -6309.497   -5622.4415    -6309.497            0    3382.6364     23.55473    21.518856    21.799508    11049.535    1513.3682    4340.9299    4293.6111    10.254134    641.25185    -84.31863   -5077.3427 
12775000    256.24488   -6311.0834   -5651.9091   -6311.0834            0    5167.3951    23.299917     21.65326    21.686283    10941.146    5304.4786    5619.6748    4578.0317    682.59481   -719.88087    -1064.923   -4827.3717 
12776000    255.32044   -6308.9767   -5652.1805   -6308.9767            0     3575.739    23.571569    21.355334    21.862668    11005.202    2230.5706    4414.5109    4082.1353    473.96206    28.275293    822.55865   -5078.2759 
12777000    246.05086   -6301.2989    -5668.348   -6301.2989            0     2650.244    23.398527    21.613946    21.841824    11046.164    2602.5784    3095.9725    2252.1812     279.2971    40.885384   -956.13846   -5241.4017 
12778000    235.84624    -6333.709   -5727.0089    -6333.709            0     2350.607    23.418361    21.630975    21.782628    11034.251    3901.8967    670.38278    2479.5416   -444.58156   -56.120748    500.80146   -5348.7416 
12779000    246.70287   -6350.0081     -5715.38   -6350.0081            0    4025.5863    23.510903    21.418686    21.812033    10983.943    4257.9156    4551.5871    3267.2562    19.086716    626.31688    1342.9546   -5070.5232 
12780000     260.4714   -6319.6494   -5649.6026   -6319.6494            0    5051.5855    23.212219    21.584185    21.789314    10916.813    6136.8664    5039.7262    3978.1638    1406.9311   -55.584052   -886.46957   -4845.3371 
12781000    246.70239   -6290.4685   -5655.8416   -6290.4685            0    4373.3965    23.747582    21.318888    21.807073    11040.312    2533.6465    5361.7292    5224.8137    285.66784   -85.042995   -1.2412981    -4951.674 
12782000    249.03264   -6309.0291   -5668.4078   -6309.0291            0    3751.7287    23.149773    21.808993    21.782498    10997.401    4561.7205    1989.5663    4703.8993    1159.3924   -525.00606   -139.88304   -5066.6837 
12783000    244.58037   -6321.3306   -5692.1625   -6321.3306            0    4080.0009    23.523571     21.46052    21.724608    10967.192    2933.4185     4699.635    4606.9493   -597.03924   -242.34174   -704.48953   -5039.5857 
12784000    249.57989   -6339.5149   -5697.4859   -6339.5149            0    4600.4999    23.215335    21.602317     21.87936    10972.609    5356.1658    3984.7736    4460.5604    192.60293    114.35188    50.461021   -4961.2943 
12785000    238.74412   -6331.7306   -5717.5759   -6331.7306            0    4927.6489    23.400287    21.488515    21.748012    10935.714    4657.8292    5814.3505     4310.767    174.41452   -274.69598     -217.583   -4931.6841 
12786000    248.52535   -6351.8156   -5712.4993   -6351.8156            0    3623.2432    23.524151    21.443459    21.700147    10946.404    2780.0537    3768.5311    4321.1446   -361.70915   -924.89216    94.049384   -5134.0773 
12787000    249.80308   -6314.1316   -5671.5284   -6314.1316            0    4876.1195    23.186234    21.546367    21.904137    10942.849    4969.2309    5709.0644     3950.063    183.04015   -198.07395   -520.60055   -4893.3474 
12788000    247.47384   -6316.0393   -5679.4279   -6316.0393            0    4123.4222    23.374199     21.52953    21.850139    10995.766    4577.1795    3996.5819    3796.5053    747.07122    -2080.663    786.35213   -5018.1878 
12789000    246.74181   -6321.6059   -5686.8776   -6321.6059            0      3324.12    23.547902    21.553724    21.672288    10999.661    3319.4611    2547.1603    4105.7386    47.999047   -706.38156    626.00575   -5153.6263 
12790000    247.85793   -6337.9889   -5700.3894   -6337.9889            0    4162.8196    23.380253    21.574844     21.71782    10955.018    4390.9104    3752.5741    4344.9742    1591.2222   -746.76783   -3.7961584   -5035.3053 
12791000    251.41397   -6357.8479   -5711.1008   -6357.8479            0      3483.82     23.29511     21.44703    22.022755    11002.809    3514.5129    4526.2693    2410.6777    971.66162    -621.7461   -85.290946   -5152.0708 
12792000    249.60998   -6336.1499   -5694.0435   -6336.1499            0     3938.414    23.396933    21.645252    21.685813    10982.401    3836.1902    3319.8954    4659.1563    1402.8692    684.19815   -245.45127   -5063.2393 
12793000    249.68169   -6317.7344   -5675.4435   -6317.7344            0    4907.1476    23.526908    21.378075     21.74663    10937.685    4669.7939    4391.1101    5660.5387    955.77186   -119.36536    -125.3319   -4892.6802 
12794000      260.778   -6343.6603   -5672.8248   -6343.6603            0    5544.7454    23.265102    21.513183    21.797678    10909.877    5123.4767    6451.2016     5059.558    463.58959    1126.8393   -500.29716   -4790.6039 
12795000    229.22061   -6343.6056   -5753.9496   -6343.6056            0    4207.2175    23.540413    21.551491    21.544468    10930.176    3917.1576    4169.1151    4535.3796    179.71367    -463.9298    903.04129   -5083.2964 
12796000    246.62295   -6309.9912   -5675.5686   -6309.9912            0    2878.7318    23.297143    21.470089     22.15657    11082.533    4417.7786    2862.7527    1355.6642   -249.71952   -716.94906    472.15248   -5210.2868 
12797000    244.90644    -6343.634   -5713.6271    -6343.634            0     3559.816    23.310314    21.627531    21.703604    10941.754    3220.5781     3332.185     4126.685   -441.04363    615.22274    178.43388   -5145.5721 
12798000    253.45053   -6314.7605   -5662.7745   -6314.7605            0     4576.049     23.59022    21.434188    21.606674    10925.138    3490.7847    4430.9337    5806.4287   -14.671091   -269.76487    531.63244   -4933.6637 
12799000    254.91441   -6312.1167   -5656.3649   -6312.1167            0    4416.8455    23.242907    21.582046      21.8462    10958.698    6787.7999    3006.8617    3455.8751    102.99574   -928.77687    395.74372   -4950.4586 
12800000    248.50217   -6320.4782   -5681.2215   -6320.4782            0    4643.8651    23.267369    21.538386    21.880146    10965.051    4741.8538    5483.3407    3706.4008    829.20228   -775.70037   -863.11495   -4938.6023 
12801000    251.61519   -6308.7745   -5661.5098   -6308.7745            0    3871.7389    23.626302    21.493881    21.686318    11012.766    3286.6306    4703.5276    3625.0584   -913.65526    368.09378   -1441.2931   -5039.6702 
12802000    242.22344   -6342.2847   -5719.1797   -6342.2847            0    2878.4887    23.399197    21.619299    21.751679    11003.614    2760.0849    2521.8096    3353.5714   -721.80778     1082.158   -80.591894   -5257.2501 
12803000    245.68457   -6346.4148   -5714.4062   -6346.4148            0    5306.4426    23.418216    21.321492    21.900288    10935.062    5857.2438    5234.5416    4827.5425   -131.39125    448.09722    58.390021   -4868.1524 
12804000    255.72323   -6326.0123   -5668.1799   -6326.0123            0     4441.097    23.180855    21.592502     21.89986    10961.595     5645.015    4279.0616    3399.2142    735.92897   -635.24776    255.89863   -4958.2101 
12805000    252.03302   -6324.8084   -5676.4688   -6324.8084            0    4219.5988     23.41916    21.473719    21.803872     10965.09    3808.7791    5178.7189    3671.2983    -564.0297   -480.95349   -450.97556   -5001.6934 
12806000    255.62407   -6309.1346   -5651.5573   -6309.1346            0    3324.5799    23.368332    21.615624    21.830373    11026.982    4378.8267    2139.1126    3455.8004   -2171.3378   -386.55117     714.8729   -5116.9076 
12807000    243.38045   -6315.3008   -5689.2194   -6315.3008            0    4488.7468    23.329644    21.621632    21.757362    10974.957    3836.6345    4993.4476    4636.1582   -1686.4944    438.29354   -423.69754   -4970.7574 
12808000    259.81478   -6360.9813   -5692.6236   -6360.9813            0     3811.893    23.438989    21.435209    21.838975     10972.33    3557.5769     3440.715     4437.387   -169.35602   -29.435556     830.8015   -5082.6438 
12809000    262.14544   -6353.2395   -5678.8863   -6353.2395            0    3680.9324    23.398112    21.495803    21.799258    10964.181     2692.573    4625.2796    3724.9448    350.54351    130.14877    262.14115   -5090.3003 
12810000    242.12843   -6348.3019   -5725.4412   -6348.3019            0    3775.9758     23.44032    21.428437    21.861771    10980.936    2768.1847    5084.3498    3475.3929    366.97563     1595.932   -448.46683    -5120.735 
12811000    246.69563   -6323.6515    -5689.042   -6323.6515            0    4144.5526    23.413084    21.533398    21.778923    10980.133    3769.0333    2230.5827    6434.0417   -794.07025    937.04382    1487.6753   -5025.3583 
12812000    259.17043   -6340.7374   -5674.0373   -6340.7374            0    3673.1537    23.422159    21.550494    21.814451    11011.042    4008.7652    2959.4719    4051.2242   -492.48019   -447.56091   -300.54041   -5084.1848 
12813000    259.53717   -6314.1245   -5646.4809   -6314.1245            0    2610.4623    23.516672    21.624179    21.791138    11081.419    3007.9846    2318.1628    2505.2395    -667.6844   -703.88329    142.04695   -5224.6012 
12814000    244.67053   -6326.9287   -5697.5287   -6326.9287            0    3552.2593    23.349782    21.642856    21.693403    10962.891    4265.4761    2562.7257    3828.5762   -523.27471   -191.69674    1170.3699   -5129.5845 
12815000    237.72473   -6353.3328   -5741.8004   -6353.3328            0    3879.7026    23.399062    21.420263    21.935008    10994.134    4508.2331    4895.1869    2235.6878   -1100.9586    122.98057    -5.743358    -5119.736 
12816000    261.43116    -6322.854   -5650.3383    -6322.854            0    5439.3949    23.243388    21.452896    21.950695    10945.451    5623.6108    5696.2869     4998.287    180.47111   -880.76597     67.79545   -4782.0576 
12817000    244.14876   -6357.4655   -5729.4077   -6357.4655            0    4708.9312    23.339609    21.457712    21.793887    10914.698    5325.7595    4554.2138    4246.8202   -849.63814    206.54424   -618.14542   -4979.8416 
12818000    236.61211   -6323.7673    -5715.097   -6323.7673            0    2679.9482    23.614521    21.602358    21.609574    11023.678    1862.6522    1899.2132    4277.9792   -423.48139    1477.6251    1082.1357   -5284.2443 
12819000     239.0087   -6360.1474   -5745.3121   -6360.1474            0     2471.489    23.389848    21.606911    21.878111    11056.811    3287.8974    2043.0899    2083.4797   -329.22121    942.55307   -734.44875   -5346.7789 
12820000    242.47722   -6321.9715   -5698.2137   -6321.9715            0    5197.4519    23.344869    21.395465      21.9116    10944.282      6613.26     5879.407    3099.6889    193.03108   -1258.4926   -481.47632   -4868.6425 
12821000    250.88866   -6327.2772   -5681.8814   -6327.2772            0    4063.1967    23.424848    21.628204    21.685075     10986.47    4155.8401    3935.7886    4097.9614    505.97561   -1262.3403    936.21468     -5030.85 
12822000    257.27994   -6286.3991   -5624.5621   -6286.3991            0    3875.3435    23.461318    21.615858    21.796906    11054.007    4204.7708    3082.8744    4338.3854   -876.87726   -506.10432   -15.713315   -4999.8127 
12823000    237.68194   -6333.1574   -5721.7351   -6333.1574            0    4344.6997    23.453077    21.434548    21.848662    10983.456    4560.0586    5200.6197    3273.4208   -508.51993     166.3489   -236.26756   -5025.7905 
12824000    252.00131   -6347.9625   -5699.7045   -6347.9625            0    4197.1145    23.248115    21.717927     21.73517    10974.106    6027.5432    2304.8533    4258.9469   -289.43785   -423.23568    127.29708   -5027.9727 
12825000     248.5707   -6329.8779    -5690.445   -6329.8779            0     3527.349    23.554635    21.243256    22.009978    11013.289     2781.828      4566.81    3233.4089    -193.4118    1621.4682    438.75816   -5123.8909 
12826000    249.93931   -6325.6975   -5682.7439   -6325.6975            0    5234.9877    23.114693    21.716596    21.751237    10918.521    4980.1306    5015.5099    5709.3225    437.62342    1307.7727    176.79802   -4849.1483 
12827000    243.25733   -6337.8489   -5712.0842   -6337.8489            0    3962.7823    23.421622    21.437301    21.849843    10970.727    3514.9836    3405.5791    4967.7843   -1090.1237    381.19292    792.41517   -5078.0517 
12828000    248.17635   -6289.1326   -5650.7141   -6289.1326            0    3526.2564    23.572487    21.528891    21.708127    11016.647    1938.4504    3960.5423    4679.7765    83.381237   -224.52805   -172.67883   -5084.1628 
12829000    227.16691   -6299.9836   -5715.6105   -6299.9836            0    4624.8025    23.273413    21.678533    21.721277    10959.111     4408.108    4561.2894    4905.0101    326.93312    430.97069   -831.05581   -4976.4404 
12830000    250.56772   -6296.1818   -5651.6116   -6296.1818            0    3588.0973    23.476732    21.101619    22.232845    11014.086    3276.9002    5668.9439    1818.4477   -1225.6936    809.52161    -792.6461   -5075.2586 
12831000     244.4477   -6331.1133   -5702.2865   -6331.1133            0    4796.0046    23.199528    21.548209     21.82382    10909.908    5428.7797    5205.0129    3754.2212    193.88217   -288.62098    698.70566    -4939.195 
12832000    245.65275   -6344.7366   -5712.8099   -6344.7366            0    3876.1351    23.448708    21.398265    21.863799    10970.417    3168.9672    5540.7428    2918.6952    908.07813   -330.42502   -233.79815   -5092.6582 
12833000    245.70234   -6328.0549   -5696.0006   -6328.0549            0    3902.2939    23.427954     21.51231    21.815693    10994.878    3294.9239    3678.8711    4733.0868   -928.30208    -597.5529    590.30277   -5070.2716 
12834000    258.25144   -6304.3266   -5639.9905   -6304.3266            0    3279.7696    23.332606    21.734812    21.793749    11052.259    3808.4447    2727.4072    3303.4569   -297.00495   -1069.7091   -467.71931    -5111.338 
12835000    247.25113   -6339.4042   -5703.3658   -6339.4042            0    3846.8977    23.449734    21.520074    21.789764    10995.987    3428.3613    4795.8561    3316.4757   -624.73331    99.048875   -574.85322   -5086.4573 
12836000    244.96289   -6336.1802    -5706.028   -6336.1802            0    3950.8218     23.38157    21.451867    21.886088    10977.588    4556.7881    3707.7253    3587.9518   -207.59522   -196.52162    402.88888   -5073.5139 
12837000    240.76966   -6338.7339   -5719.3686   -6338.7339            0    3330.9976    23.368894    21.590761    21.766616    10982.394    3210.8624    3311.9525    3470.1779    260.49919    428.62081    1213.0408   -5185.8529 
12838000     243.1394   -6304.9273    -5679.466   -6304.9273            0     4566.818    23.459879    21.353508    21.937698    10989.705    4740.3979    6596.3094    2363.7466   -655.83676    719.93093   -2715.3441   -4947.5257 
12839000      237.511   -6357.9833   -5747.0007   -6357.9833            0    4795.7747    23.315566    21.559075    21.772751    10944.335    5216.7754    4555.3531    4615.1957   -712.75066    220.73515   -1806.8816    -4981.538 
12840000    247.78862     -6352.71   -5715.2889     -6352.71            0    4545.0201    23.645165    21.330584    21.709844    10949.689    4172.7507    4651.1935     4811.116    331.87649   -205.02113   -382.10879   -4989.4947 
12841000    251.82111   -6365.6775   -5717.8831   -6365.6775            0     4259.077     23.31624    21.603879    21.718896    10940.269    4876.0613    2938.4788     4962.691    308.29056    605.67366   -968.62559   -5038.3362 
12842000    253.05709   -6343.7996   -5692.8257   -6343.7996            0    4148.1394    23.251905     21.50777    22.029243     11016.75    5616.6684    3947.6361    2880.1138    158.08033   -46.214209     111.3641   -5026.3524 
12843000    239.25598   -6305.5924    -5690.121   -6305.5924            0    4652.3841    23.613713    21.438378    21.626681    10948.285    3561.3836    6664.8956    3730.8731    143.05731    702.53679   -993.90946   -4947.2771 
12844000    247.61228   -6317.9618   -5680.9943   -6317.9618            0    2941.4625    23.290972    21.712667    21.796862    11022.872    3469.8287    2287.7667    3066.7921     635.2283   -1107.6747   -113.40977   -5208.1328 
12845000    241.81725   -6362.6839   -5740.6237   -6362.6839            0    4381.4859    23.492187    21.203203    22.002787    10959.799    3519.5303    6827.4355    2797.4918   -534.00907    238.36404   -152.95775   -5040.2983 
12846000    246.91523    -6303.766   -5668.5916    -6303.766            0    4302.0509    23.405142    21.754604    21.559956    10977.674    4266.5723    3178.4338    5461.1467   -1022.1007    802.11512    259.47785   -4979.8413 
12847000    252.20063   -6345.6099   -5696.8391   -6345.6099            0    4728.9429    23.364996    21.483388    21.778866    10932.104    5364.9788    3908.9507    4912.8993    443.94084   -523.89971   -160.99325   -4942.8871 
12848000    240.57484   -6345.9643   -5727.1001   -6345.9643            0    4264.0281    23.535703    21.265091    21.906158    10963.788    4676.4988    4285.5311    3830.0545   -382.33346   -451.01098   -1539.9758   -5045.3008 
12849000    252.26224   -6328.4502   -5679.5209   -6328.4502            0    3927.2231    23.404119    21.752275     21.57953    10985.984    3383.6583    2788.3417    5609.6692    1406.5883    411.19196   -501.97091    -5050.304 
12850000    244.66814   -6345.2578   -5715.8639   -6345.2578            0    4279.0361    23.450656    21.381805    21.852211    10957.078    4706.8743    5320.7833    2809.4505   -654.23463   -232.47614   -335.24088   -5032.0836 
12851000    242.43678   -6349.3851   -5725.7312   -6349.3851            0    4089.0712    23.293077    21.510067    21.843372    10944.308    4156.9695    5326.3142    2783.9299   -72.129874    132.76039   -13.311078   -5073.0684 
12852000    241.13655   -6320.4692   -5700.1601   -6320.4692            0    3590.6371    23.578069    21.662181    21.584343    11024.255    2559.3619    3326.7156    4885.8338   -457.95062    1471.2428   -28.139654   -5122.8666 
12853000    249.41422   -6311.6454   -5670.0425   -6311.6454            0    2792.9707    23.584955    21.448148    21.888864    11072.561    2927.2255    3339.4507    2112.2358    708.70896   -1532.5874    390.14087   -5219.0282 
12854000    256.82323   -6348.1628   -5687.5007   -6348.1628            0    4677.1768    23.267359     21.65905    21.728412    10950.009    5355.6388    3920.6152    4755.2764   -99.331042    112.41311   -121.75174   -4940.5806 
12855000    249.10071   -6308.5889   -5667.7925   -6308.5889            0     4272.423    23.587985    21.487936    21.605922    10951.116    2959.4301    5126.4357     4731.403    802.97891   -425.66179   -206.73387   -4985.4405 
12856000    252.69221   -6362.8306   -5712.7953   -6362.8306            0    3491.2357    23.417412    21.453679    21.900586    11002.627    3577.8642    4251.5583    2644.2845   -454.85203   -729.11944   -1196.2632   -5152.5846 
12857000    236.29093   -6308.9764   -5701.1324   -6308.9764            0     4413.863     23.26971    21.663726    21.778832    10978.897    5115.4023    4158.3049    3967.8818   -597.18468    -813.8565   -314.54191   -4994.4026 
12858000    245.90632   -6329.2882   -5696.7092   -6329.2882            0    3794.0024    23.632273     21.33656     21.77453    10979.402    2548.0507    5031.5943    3802.3623    833.51326    783.69036    939.50844   -5089.2009 
12859000    238.46253   -6327.5488   -5714.1185   -6327.5488            0    3644.5881    23.154562    21.723474    21.871438     11001.28    5545.0378    2542.5958    2846.1308   -448.83398   -788.52598    662.20758   -5129.3721 
12860000    239.72369   -6329.6779   -5713.0033   -6329.6779            0     2783.538    23.543932     21.45024    21.801906    11010.464    1531.3567    4103.8913     2715.366    974.72846    -666.0039   -268.96047    -5266.033 
12861000    241.44778   -6307.6224   -5686.5126   -6307.6224            0    3657.5339    23.424545    21.665673     21.72854    11027.419    5075.0942    1851.1512    4046.3564   -110.80323   -290.76233    -423.7429   -5098.2949 
12862000    258.35417   -6356.9754   -5692.3751   -6356.9754            0    4647.0872      23.4004     21.50447    21.760378     10950.11    4245.9797    4150.3877    5544.8942    216.25914    526.67204   -267.01035   -4950.2533 
12863000    251.45726    -6330.223   -5683.3645    -6330.223            0    4761.2941    23.453689    21.283889    21.980641    10972.422    4205.1596    6611.5913    3467.1314    480.65901    636.35888    492.98012   -4921.4549 
12864000    243.17591   -6297.3855   -5671.8303   -6297.3855            0     4361.955    23.158863    21.665149    21.912792    10994.529    6603.7897    2305.6549    4176.4206    1541.2187    469.75126    857.89338   -4972.4173 
12865000    242.42686   -6304.4281   -5680.7998   -6304.4281            0    3522.7678     23.55555    21.537384    21.788226     11053.71    3092.8359    4218.7815    3256.6858   -19.206914    214.14878   -1140.8568   -5112.9049 
12866000     248.3825   -6382.8367   -5743.8879   -6382.8367            0    2535.1646    23.403933    21.432262    21.949468    11009.836    2284.6364    3784.1669    1536.6906    73.789804   -765.20203   -745.15725   -5336.8237 
12867000    241.55635   -6387.8692   -5766.4803   -6387.8692            0    2825.4437    23.326192    21.702017     21.70668    10988.473    3132.3017     2054.625    3289.4044    -167.0677   -321.67817    103.67342    -5313.687 
12868000    247.76022   -6361.2347   -5723.8867   -6361.2347            0    4420.2544    23.579376    21.335288    21.800129    10967.051    2975.4503    5448.9735    4836.3395    151.47317    860.91798    240.44488   -5016.8971 
12869000     254.7753   -6355.7479    -5700.354   -6355.7479            0    4552.2568    23.336021    21.489338    21.823921    10944.165    4389.1578    4799.2304    4468.3822    -154.2448    326.45794    -379.8972   -4973.7709 
12870000    249.65765   -6334.9403   -5692.7112   -6334.9403            0    2862.6289     23.52269    21.598346    21.672252    11010.614    3367.5526    1385.7016    3834.6325    806.60035   -190.65749    678.45568   -5233.0345 
12871000    242.75764   -6330.3735   -5705.8943   -6330.3735            0    2424.1249     23.39032    21.524671    21.912516    11032.271    2798.3141    1432.0974    3041.9632    828.31191   -518.93744    731.33467   -5315.8663 
12872000    247.70853   -6294.5022   -5657.2871   -6294.5022            0    3861.5704     23.35916    21.457233    21.991531     11022.66    4702.7046    4475.3299    2406.6768   -428.23269   -1313.7413   -158.07393   -5036.5235 
12873000    245.76778   -6344.4862   -5712.2636   -6344.4862            0    5232.3072    23.326979    21.641785    21.684527    10947.162    6026.3094    4826.7945    4843.8176    743.38334    119.99435   -242.46313   -4876.9094 
12874000    256.73193   -6337.4507   -5677.0235   -6337.4507            0    5557.7758    23.486618    21.466781    21.658963    10920.061    4300.8053    5239.0853    7133.4367   -132.16766  -0.67488418    547.26378   -4791.9038 
12875000    254.77158   -6314.0702   -5658.6858   -6314.0702            0    3977.6323    23.372446    21.483303    21.901431    10997.088    4205.7609    4181.8957    3545.2404     75.48464    -565.5515   -922.45902   -5020.7482 
12876000    258.20146   -6358.0053   -5693.7978   -6358.0053            0    4143.4037    23.274301    21.627745    21.777999    10962.405    5165.6409    3641.5106    3623.0595   -714.02871   -305.46257    162.50869   -5031.3693 
12877000    253.89377   -6347.1157   -5693.9894   -6347.1157            0     3710.616    23.598007    21.433674    21.695264    10973.291    2609.1671    4713.3008    3809.3802    691.61814    1078.4982    645.84006    -5100.164 
12878000    238.38806   -6306.8028   -5693.5641   -6306.8028            0     2965.264    23.475811    21.543927    21.816992    11034.187    3214.7063    2237.9711    3443.1146    -68.00961    908.19037   -585.69205    -5216.387 
12879000    247.23464   -6287.1636   -5651.1675   -6287.1636            0    3550.6544    23.326095    21.484318    22.007404    11028.906    4869.8903    3202.5403    2579.5325     -88.5225   -124.89215   -281.76137   -5080.0615 
12880000    233.46016   -6346.7948   -5746.2328   -6346.7948            0    3260.6229    23.524663    21.466911    21.752258     10984.93    1949.4823    4168.9963    3663.3903    1073.4917    613.22711    194.40066   -5223.8681 
12881000    241.53732   -6360.2435   -5738.9035   -6360.2435            0    4447.3909    23.356891     21.51453    21.726676    10917.927    3988.4278    5030.1435    4323.6014   -259.76629    241.71258    656.95412   -5030.7598 
12882000    251.51258   -6304.6316   -5657.6308   -6304.6316            0    2909.9354    23.403046    21.512665    21.921522    11036.651    1944.6127    3649.9295     3135.264   -51.162856   -1301.4752   -658.73789   -5189.2528 
12883000     245.7662   -6312.0574   -5679.8388   -6312.0574            0    4138.0803    23.331342    21.643224    21.796019    11006.237    5930.2824    3179.1242    3304.8341   -827.39317   -2079.9694   -187.16692   -5015.6162 
12884000    234.87783   -6331.2202   -5727.0113   -6331.2202            0    3874.0921    23.445407    21.561319    21.687518    10963.342    3352.3447    4277.8211    3992.1103    625.39429   -635.59913    814.78446   -5107.5862 
12885000    238.35206   -6336.4139   -5723.2678   -6336.4139            0    4593.2114    23.333228    21.469269    21.858062    10949.738    5237.0663    5423.5199     3119.048   -76.191272    859.56802   -118.86575   -4989.7746 
12886000    258.97563    -6338.755    -5672.556    -6338.755            0    3750.3028    23.361878    21.504334    21.896645    11000.472    3944.4296    4406.0062    2900.4725     1028.378    124.94719   -1104.0703   -5070.8927 
12887000    241.04659   -6320.0824   -5700.0047   -6320.0824            0    5672.3635    23.437971     21.51404    21.618847    10901.205    6499.0954    4955.9195    5562.0757    175.91237   -101.08374   -976.93221   -4798.1959 
12888000    245.70386   -6349.5823   -5717.5241   -6349.5823            0    5173.7836    23.321788     21.43328    21.843722    10918.856    5626.6964    6319.8514    3574.8032    893.15259    716.59213    -1466.576   -4893.6492 
12889000    244.03159    -6328.232   -5700.4757    -6328.232            0    5240.6626    23.179132    21.407775     22.02327    10928.247    6246.0472    6012.2108    3463.7299    821.79405   -91.567301   -362.38029   -4865.2331 
12890000    248.82952   -6329.0965   -5688.9978   -6329.0965            0    2485.7954    23.453832    21.704683    21.711886    11052.609    1454.5181    2648.5002    3354.3681   -329.18261    212.49635    324.23217     -5288.31 
12891000    238.87455   -6331.4705   -5716.9802   -6331.4705            0    3949.0875    23.544839     21.52059    21.723433    11007.238    4438.8001    3330.6431    4077.8192    111.25732   -1350.1681    576.88608   -5083.0361 
12892000    246.59339   -6329.1811   -5694.8346   -6329.1811            0    5292.7747    23.270288    21.458854    21.922657     10947.16     4546.976    6060.5098    5270.8381   -662.11206   -946.40334   -337.82372   -4849.8267 
12893000    250.85593   -6337.5702   -5692.2586   -6337.5702            0     4830.612    23.330905    21.566193    21.768334    10952.929    5707.1228    4238.0243    4546.6888    973.00115   -514.72979    812.19173     -4920.63 
12894000    249.06378   -6338.1931   -5697.4917   -6338.1931            0    5054.7598    23.437487    21.377979    21.728098    10886.779    6216.0376     4960.163    3988.0788   -74.555782    15.516382    515.72394   -4894.9349 
12895000    253.54278   -6306.5608   -5654.3375   -6306.5608            0    4137.9401    23.342241    21.550467     21.88512    11009.008    4340.4157    4604.0395     3469.365   -80.527175    338.53006   -436.80525   -4989.9701 
12896000    250.87855   -6360.7879   -5715.4181   -6360.7879            0    2835.0927    23.573342    21.568212    21.668165    11016.851    1006.1435    3740.6819    3758.4528    1568.5432    172.81427   -1202.5347   -5259.9053 
12897000    247.09536   -6358.9194   -5723.2816   -6358.9194            0    4760.0028    23.497805    21.434711    21.736594    10948.041    3924.4751    5501.1157    4854.4175    1157.7745   -313.75367    -1099.499   -4963.2713 
12898000    240.16219    -6342.363   -5724.5604    -6342.363            0     4704.711    23.243914    21.693959    21.680293    10932.342    4086.2097    4703.0426    5324.8806   -426.26278    676.27192   -1276.2015   -4974.4554 
12899000    247.64947     -6297.22   -5660.1568     -6297.22            0    4129.6232    23.474366    21.447142    21.917007    11034.294    4544.2553    3393.8586    4450.7557    686.68532   -189.64878    1005.9222   -4995.6019 
12900000    239.57176   -6329.6858   -5713.4021   -6329.6858            0    3038.9131     23.44081    21.488563    21.851059    11006.582     2773.143    4682.7976    1660.7987   -320.91531    253.10416   -799.55506   -5225.5966 
12901000    246.59057   -6302.4598   -5668.1206   -6302.4598            0    4016.0025    23.330954    21.643647    21.743612    10979.805    4903.1307    3622.4008    3522.4761    1221.4939    -684.2648    283.42023   -5025.0414 
12902000     244.3494   -6350.2287   -5721.6547   -6350.2287            0    4445.0546    23.455093    21.477593    21.717453    10940.361    3970.1579     4973.361    4391.6447   -1555.8287   -170.78383    706.51154   -5012.4287 
12903000    254.18496   -6305.5146   -5651.6393   -6305.5146            0    5056.7661    23.253229    21.558316    21.782504     10919.58    5945.0999    5198.5578    4026.6406   -466.26415   -471.51078    728.94642   -4846.3449 
12904000    241.98521   -6317.7425   -5695.2503   -6317.7425            0    4725.1723    23.375763    21.494213    21.832286    10969.493    3848.4632    4901.0619    5425.9917    -394.6726    1312.0053    619.06824   -4939.3229 
12905000    241.00179   -6345.0813   -5725.1188   -6345.0813            0    3956.3757    23.340399    21.631416    21.693888    10952.938    4997.5154    2924.5824    3947.0293   -807.94842    928.27298     295.7904   -5093.1378 
12906000    249.71317   -6392.0714   -5749.6995   -6392.0714            0    3121.9523    23.341772    21.518213    21.955855    11027.838    3378.4668    3710.9076    2276.4825    435.97227   -2.5675438     -105.256   -5247.5968 
12907000     240.5618   -6336.5579   -5717.7273   -6336.5579            0    3299.5044    23.492289    21.469909     21.85261     11021.96    3231.9508    2939.7849    3726.7774   -497.50163    660.29319   -809.58195   -5187.3518 
12908000    245.61867   -6354.1299   -5722.2908   -6354.1299            0    3915.9751    23.425555     21.47865     21.76439    10950.738    3941.5403    3259.0819    4547.3031   -490.11822    1916.6563    174.28155    -5096.889 
12909000    257.41306   -6350.9958   -5688.8164   -6350.9958            0    6166.0067     23.35906    21.472513    21.628108    10848.177    6823.8504    5402.3587    6271.8109    543.76554     205.4679     457.4323   -4713.2954 
12910000    242.48143   -6330.9991   -5707.2304   -6330.9991            0    4757.4432    23.426171    21.403642    21.853995     10957.71    5556.4185    4656.6581    4059.2531    -1895.977    -678.5757   -78.289658   -4946.9579 
12911000    242.09857   -6351.3378    -5728.554   -6351.3378            0    2047.8373    23.439719    21.635114      21.7818    11046.008    1009.7138     1716.985    3416.8132   -1077.5538    1873.0212    387.17438   -5398.6582 
12912000    250.94685    -6343.645   -5698.0995    -6343.645            0    3208.6104    23.574013    21.567241    21.730681    11048.452    1559.4093    2228.6818    5837.7401   -673.68649    -330.1209    170.94388    -5181.095 
12913000    247.71444    -6339.825   -5702.5947    -6339.825            0    5257.9498    23.263932    21.530153     21.72369    10880.875     5774.556    4242.0492    5757.2441   -399.02964   -62.236261    174.94555   -4868.2296 
12914000    233.61579   -6317.9714   -5717.0091   -6317.9714            0    5400.8821    23.273422      21.5457    21.790179    10926.514    6059.2936     4727.873    5415.4797    407.70273    418.11942    655.34267   -4856.3677 
12915000    249.78731   -6334.2373   -5691.6746   -6334.2373            0    4523.6855    23.551894    21.410187    21.760041     10972.51     3889.521    4464.0252    5217.5104    1385.1737   -208.24649    1447.0613   -4967.7818 
12916000    255.32611   -6319.2276   -5662.4167   -6319.2276            0    3508.7657    23.220666    21.719342    21.792997    10991.027    5071.1986    1646.6965    3808.4019   -78.937583   -998.10932    1207.4976   -5099.9867 
12917000    250.36708   -6351.9553   -5707.9013   -6351.9553            0    3105.2814    23.413022     21.37874    21.971248    10997.508    2519.9087    3986.2889    2809.6466   -718.71974   -79.043128   -630.61097   -5209.8533 
12918000    261.02053    -6344.832   -5673.3726    -6344.832            0    4870.6704    23.427867     21.50998    21.747978    10959.523    4846.8361    5108.2259    4656.9492   -1275.1102    897.87174   -1277.4344   -4894.8768 
12919000    266.91675   -6320.8294   -5634.2023   -6320.8294            0    4853.1039    23.403757    21.602153    21.595434    10918.037     5833.547     4926.776    3798.9887   -102.55723   -227.56619   -305.24991   -4861.4505 
12920000    247.73225     -6329.88   -5692.6038     -6329.88            0    5733.7516    23.355507    21.318024     21.94986    10928.687     5599.812    6652.9998    4948.4429   -563.04191    1508.0596   -520.17792   -4778.7373 
12921000     256.3522   -6357.9173   -5698.4669   -6357.9173            0    4993.3374    23.206897    21.452946    21.958187    10932.022     6928.722    4438.7995    3612.4908    -1104.849    726.79837    151.30674   -4902.3675 
12922000    246.90952   -6326.4645   -5691.3048   -6326.4645            0    4858.6958    23.540657    21.403316    21.725896    10946.552    3543.0329    5537.4022    5495.6521    554.54528    927.93385    250.18696    -4915.642 
12923000    242.69037    -6334.962   -5710.6558    -6334.962            0    4871.9036    23.409489    21.639047    21.592344    10937.797    4368.7129    4899.7909     5347.207   -186.65659    137.19458   -936.08549   -4933.5066 
12924000    242.43715   -6343.0884   -5719.4336   -6343.0884            0    3740.0516    23.293917    21.506201    21.903189    10972.702    5056.4043    3456.7647    2706.9857   -1354.5265   -1320.4214    199.84823   -5120.9296 
12925000    257.24456   -6351.5704   -5689.8244   -6351.5704            0    4847.1025    23.378907    21.540368    21.686561    10921.141    4817.0874    4043.9456    5680.2746    270.60365   -1221.7426    483.77138   -4917.8088 
12926000    240.94789   -6333.2449   -5713.4211   -6333.2449            0    4254.1846    23.386837    21.505748    21.684452    10906.226    4067.0575    5166.4373     3529.059    527.61892   -188.97088    758.18819    -5036.767 
12927000    251.81502    -6301.688   -5653.9092    -6301.688            0    4721.2448    23.246714     21.48013    22.015065    10993.056    5971.9289    5090.2831    3101.5225    688.55209   -602.37747    505.51029   -4896.9877 
12928000    236.91237   -6287.5115   -5678.0688   -6287.5115            0    5028.4869    23.505357    21.444876    21.739956    10958.448    4544.9462    4489.8339    6050.6805    433.92574    100.67302    1194.5462   -4874.4275 
12929000    247.30701   -6330.0942    -5693.912   -6330.0942            0    4104.1572    23.372935    21.687783    21.609651    10954.087    3467.6462    3473.0094    5371.8159    423.71151   -482.59157   -1.1593517    -5038.256 
12930000     242.6309   -6309.8453   -5685.6921   -6309.8453            0    3942.7359    23.389751    21.457185    21.864521    10973.327    3931.2332    4442.3084    3454.6661   -444.53891   -87.546747   -793.66427   -5054.7174 
12931000    243.60558   -6329.2718   -5702.6113   -6329.2718            0    4351.2455      23.4851    21.446221    21.809022    10984.477    4296.0149    5200.3572    3557.3645   -1009.6375   -588.45459   -699.45144   -5005.5534 
12932000    257.78524   -6334.6665   -5671.5296   -6334.6665            0    4557.5242    23.247465    21.776267    21.640653    10955.429    5467.0448    4172.7228    4032.8049    -645.5493    -498.1576      548.741   -4943.3572 
12933000    244.68712   -6349.3661   -5719.9234   -6349.3661            0    4289.2784    23.548435    21.407473    21.751767    10965.337    3879.2566    5687.6066     3300.972    237.33493   -773.90356    964.76997   -5033.9898 
12934000    243.55021   -6336.9704   -5710.4523   -6336.9704            0    4085.6277    23.329374    21.581509    21.807734    10979.826     4393.854    3044.0878    4818.9414   -341.61849    51.793935    360.52598   -5056.2228 
12935000    246.83703   -6306.8474   -5671.8742   -6306.8474            0    4438.1167    23.483936    21.645452     21.56552    10962.194    4484.3234    4056.2462    4773.7806   -467.12199     377.7321    207.55977    -4962.342 
12936000    251.65436    -6310.672   -5663.3065    -6310.672            0    4216.3996    23.672175      21.4191    21.756051    11031.116    2932.9215    3909.1484     5807.129    493.05103   -437.47021   -174.28366   -4984.9826 
12937000    244.12921   -6362.6168   -5734.6093   -6362.6168            0      3018.95    23.253012    21.669368    21.838227    11003.804     4121.068    1940.6514    2995.1305    896.33039   -781.74061    237.02436   -5250.1306 
12938000     247.2772   -6300.3565    -5664.251   -6300.3565            0    4854.1539    23.597808    21.300488    21.773223    10944.198    3684.9059    6373.6859      4503.87    1022.6297    612.30055   -118.92662     -4889.48 
12939000    243.70274   -6368.3772   -5741.4667   -6368.3772            0    3430.2491    23.168031    21.587789    21.973107    10989.774    3836.9687    4403.9431    2049.8355    801.31935   -407.06353    -911.2423    -5191.685 
12940000    255.29803   -6293.2052   -5636.4666   -6293.2052            0    3942.6857    23.509635    21.529859    21.722216    10994.898    3671.5822    4301.0928    3855.3822    1269.2835    720.30208   -489.99124   -5004.2597 
12941000    241.91343   -6288.6149   -5666.3074   -6288.6149            0    5156.7115    23.448243    21.408751    21.885986    10986.712    5350.2112    5321.9872    4797.9361    1182.7141    150.49366   -486.30291   -4840.0478 
12942000    251.10873   -6329.5274   -5683.5655   -6329.5274            0    2955.6276    23.321734    21.778805    21.696421    11020.035    3180.5899    2138.9045    3547.3885    -691.7164    622.26587     819.3816   -5208.5491 
12943000     248.8375    -6350.349   -5710.2297    -6350.349            0    4390.9749    23.657706    21.313995    21.711559    10947.842    2964.1689    6184.7677    4023.9882   -464.43618   -63.364242    -647.4575   -5009.1533 
12944000    254.94792   -6349.2511   -5693.4131   -6349.2511            0    3687.2407    23.219478    21.612673    21.878183    10979.238    5133.9737    2172.2829    3755.4655   -409.27762    1294.2129    232.61414   -5103.0087 
12945000    255.40856   -6328.9551   -5671.9321   -6328.9551            0    4489.7411    23.443948    21.550606    21.649231    10937.869    3395.8042     4886.309      5187.11    1648.3372    467.59877    142.31691   -4955.7394 
12946000    247.03238   -6340.6844   -5705.2087   -6340.6844            0     3712.748     23.57831    21.403822    21.797706     11000.56    2007.9559    4618.0405    4512.2476   -599.96638    370.93722    286.61039   -5109.5655 
12947000    241.18043   -6316.8683   -5696.4463   -6316.8683            0     1841.571    23.241323    21.671457     22.03131    11096.583    3422.0965    1545.6991    556.91732   -244.90777   -734.54486     618.8712   -5398.4207 
12948000    251.40935   -6321.0086   -5674.2734   -6321.0086            0    4616.0866    23.542927     21.40835    21.759839     10967.29    4456.2574    4490.7397    4901.2629   -722.15055   -259.42783    362.94706   -4935.9457 
12949000    249.96924   -6316.0892   -5673.0585   -6316.0892            0    3821.7597    23.552035    21.579742    21.669136     11013.27    2858.2065    2222.0224    6385.0503    691.77514    100.08706     1984.741    -5059.218 
12950000    244.57115   -6340.4792   -5711.3348   -6340.4792            0    3901.2162    23.306767    21.567088    21.834313    10975.216    4545.1942    3732.5488    3425.9055    1473.4512   -1337.1655   -1313.9853   -5086.8973 
12951000    248.74876   -6331.5685   -5691.6775   -6331.5685            0     3718.676    23.439867    21.517308    21.787614    10988.862    3710.6886    3725.2824     3720.057   -451.33299    516.85618    -570.9237   -5095.7177 
12952000    252.65163   -6348.0501   -5698.1191   -6348.0501            0    4328.0474    23.402744    21.519918     21.73957    10948.593    4277.1076    4265.4894    4441.5451   -277.28628    347.70431    1019.3449   -5007.0425 
12953000    240.69014   -6372.3179   -5753.1572   -6372.3179            0    2301.7978    23.338518     21.60636    21.875177    11030.786    2110.9755    2718.1387    2076.2792    307.13882    -196.4462    404.31735   -5382.8608 
12954000     240.8288   -6326.9781   -5707.4607   -6326.9781            0    3960.4334    23.524851    21.418188     21.68352    10925.452    3921.1088    3531.3951    4428.7964    589.73372    322.71583     1333.841   -5076.4191 
12955000    253.77115   -6371.6222   -5718.8113   -6371.6222            0     4792.273    23.349863    21.547924    21.741127    10938.854    5978.2669    4280.2417    4118.3104    -624.0235    8.8346883    577.71848   -4954.2906 
12956000    234.87963    -6338.916   -5734.7025    -6338.916            0     4344.068    23.483655    21.509423    21.724418    10973.435    4405.8122    4772.5715    3853.8202   -490.12664    555.91949   -978.79733   -5039.4939 
12957000     245.2057   -6353.3645   -5722.5878   -6353.3645            0    5308.4574    23.347335    21.494585    21.724405    10902.203    5601.9823    4847.7229     5475.667   -124.02392    339.03414   -243.92804   -4878.5566 
12958000    253.23214    -6338.784   -5687.3597    -6338.784            0    3764.4854     23.55195    21.427835    21.740195    10971.565    3402.6702    4773.3058    3117.4801    146.97905   -1192.9014    484.27229   -5085.0081 
12959000    258.60215   -6343.9116   -5678.6734   -6343.9116            0    3410.5189    23.434565    21.538672    21.860287    11033.967    3948.6046    2629.6129    3653.3394   -979.66251   -883.63567    986.95813   -5129.8558 
12960000    245.90585   -6337.9511   -5705.3732   -6337.9511            0    3747.8875    23.253587    21.571604    21.898104    10984.464    3592.7499    4585.5012    3065.4113    734.34973   -1392.8639   -665.32357   -5104.9724 
12961000     241.9045   -6306.4744   -5684.1898   -6306.4744            0    4982.5393    23.416829    21.487282     21.77796    10957.886    4505.3568    5354.5331     5087.728    533.60078    -1160.976   -8.7933654   -4887.9326 
12962000    247.98616   -6345.9428   -5708.0135   -6345.9428            0    5383.5201    23.393266    21.727842    21.431444    10893.285    5619.4492    4984.0298    5547.0812   -2092.2093     586.7995   -490.70498   -4852.7477 
12963000    244.33276   -6328.5481    -5700.017   -6328.5481            0    3913.4077    23.399633    21.464298    21.911721    11005.308    3537.2939     3693.595    4509.3341   -156.95781   -281.90784    171.67573   -5071.9106 
12964000    240.51188   -6314.3114   -5695.6092   -6314.3114            0    3785.3448    23.423517    21.390169    21.901858    10973.553    4359.4361    3725.0484    3271.5499   -17.095122    201.77398   -249.75804   -5089.8102 
12965000    240.76405   -6362.0161   -5742.6653   -6362.0161            0    3787.0951    23.389067    21.593877    21.750763    10985.454    4220.9659    2476.4453    4663.8742    98.016048   -346.54224    99.779147   -5135.9288 
12966000    251.78388   -6349.3006   -5701.6019   -6349.3006            0    5012.8658    23.538112    21.313571    21.749265    10911.198    4999.3709    4343.1704     5696.056     793.4281   -219.24314    1076.6291   -4903.9114 
12967000    246.04141   -6328.4334   -5695.5068   -6328.4334            0    5234.4503    23.197538    21.549403    21.876344    10935.834    6520.9645    5391.2919    3791.0944    -251.0273   -845.14395   -740.67465   -4860.6753 
12968000     243.7759    -6298.931   -5671.8324    -6298.931            0    3714.7391    23.341346    21.532443    21.939942    11026.931    4172.7827    3940.4716     3030.963   -209.89106   -1140.8926    16.499729   -5074.4411 
12969000     235.6955    -6310.901   -5704.5887    -6310.901            0    4524.1667    23.535949    21.517533    21.687711    10983.428    3756.4025    3949.4111    5866.6867   -742.32716    636.36056    1274.9983   -4979.8985 
12970000    246.07318   -6375.4072    -5742.399   -6375.4072            0    3360.2602    23.410414    21.529566    21.784252    10979.613    3291.9161    1891.7983    4897.0662   -988.89182    951.19837    807.10045   -5204.3326 
12971000     249.9509   -6352.7347   -5709.7513   -6352.7347            0    4361.1438    23.223646    21.507511    21.981789    10979.526    4158.4735     5331.259    3593.6989    605.68869     682.6525   -243.90618   -5011.4226 
12972000    246.32676   -6344.7144   -5711.0538   -6344.7144            0    4127.1296     23.38112    21.384446    21.854341    10927.002    4188.1013     4381.093    3812.1945   -702.88724    515.30685    308.21194   -5053.3581 
12973000    241.07938   -6340.6955   -5720.5335   -6340.6955            0    3905.6104    23.427445    21.592561    21.676205    10965.093    2591.7162    3945.7698    5179.3453   -280.11217    363.94479   -450.33778   -5095.9692 
12974000    252.49352   -6310.8153   -5661.2911   -6310.8153            0    4045.7042    23.331664    21.458411    21.986643    11007.842      3843.35    4452.5717    3841.1909   -637.64348    1196.9931     1019.971   -5011.8015 
12975000    234.18802   -6314.5061   -5712.0717   -6314.5061            0    3947.7931     23.41991    21.474466    21.848024    10988.028    3648.5282    4357.0601     3837.791    18.747946    985.11553    304.55647   -5079.4413 
12976000     245.1079   -6321.3755   -5690.8504   -6321.3755            0      3102.68    23.238886    21.836131    21.642364    10982.361     3825.071    1628.1521    3854.8169     260.5288   -668.03471    28.553654   -5193.9051 
12977000    257.80053   -6301.1146   -5637.9384   -6301.1146            0    4216.7818    23.597736     21.22948    21.953274     10997.88    3452.3658     5383.324    3814.6555    253.23785    287.08812    114.05523    -4961.597 
12978000    255.09982   -6305.1193   -5648.8906   -6305.1193            0    4493.6443    23.183054    21.637186    21.873024     10971.86     5892.356     4198.073    3390.5039   -327.04114    491.82011     488.8117   -4929.8476 
12979000     251.6277   -6327.6998   -5680.4029   -6327.6998            0    3819.6364    23.649761    21.464248    21.671594    11001.029    2229.0886    4250.0055     4979.815   -177.92564    338.60327    862.34455   -5067.5853 
12980000    249.16308    -6298.273   -5657.3161    -6298.273            0    3758.6428    23.450777     21.64812    21.793596    11063.851    3737.3082    3726.5972    3812.0229    -920.5671   -289.53513   -669.73769   -5050.8406 
12981000    251.72345   -6309.4033   -5661.8601   -6309.4033            0     4453.264    23.335802    21.462911    21.933385    10985.429    5518.5894    3516.3375    4324.8651    1240.1713   -1695.9174   -105.07785   -4948.3972 
12982000    246.30236   -6314.4011   -5680.8033   -6314.4011            0    5086.9145    23.554173    21.391623    21.748125    10958.053    5015.7212    5774.6819    4470.3403   -1467.0416    378.12171   -1052.1545   -4867.8535 
12983000    250.61728   -6351.7739   -5707.0763   -6351.7739            0    4709.4886    23.291606    21.678234    21.684754    10949.085    4350.5338    4980.8189    4797.1131   -26.844382   -257.12492    1028.1192   -4955.0596 
12984000    257.69554    -6355.232   -5692.3259    -6355.232            0    3945.5847    23.625925    21.332544    21.743025    10958.508    2219.3667    5017.0128    4600.3745   -1295.0315    254.88128    675.16859   -5061.7481 
12985000    243.51771     -6324.74   -5698.3055     -6324.74            0    4728.2584    23.160843     21.58705    21.869501    10934.188     5203.482     4374.124    4607.1691   -46.078645   -909.66605   -215.76818    -4944.319 
12986000    249.55775   -6348.1897   -5706.2176   -6348.1897            0    3916.3005    23.490703     21.49648    21.763977    10990.099    3888.2642    3503.1488    4357.4883    512.67344   -518.30135    134.25944   -5078.5156 
12987000    234.14328   -6324.7409   -5722.4216   -6324.7409            0    3274.2367    23.480778    21.535819     21.85287    11050.511    3899.9032     2588.783    3334.0238   -221.63723    263.89137    153.02829   -5194.7444 
12988000    261.97916   -6335.9317   -5662.0063   -6335.9317            0     5634.307    23.298322    21.574116    21.748456    10931.659    5429.0623    5880.8119    5593.0467   -280.25174    373.89924   -1429.2254   -4763.7454 
12989000    244.07347    -6329.091   -5701.2269    -6329.091            0    4063.3229    23.530968    21.398287    21.778066    10965.744     3998.231    4859.0675      3332.67   -604.49372   -281.09827   -24.875803   -5051.4035 
12990000    244.93589   -6311.0073   -5680.9247   -6311.0073            0     4315.135    23.245891    21.609731    21.816873    10959.432    5066.3135    3002.8826    4876.2089    952.08035   -1023.6686    540.25059   -4991.2277 
12991000    248.39741    -6340.588   -5701.6008    -6340.588            0    4604.3215     23.47366    21.377368    21.765424        10922    3796.6425    5060.3961    4955.9258   -358.95771   -416.56815    33.082613   -4968.1961 
12992000    232.85222   -6312.4713   -5713.4731   -6312.4713            0    3692.6551    23.268108     21.74255    21.722292    10989.481    5191.3763    2366.7501    3519.8387   -2568.2652   -1030.3294   -493.84793   -5121.6501 
12993000    240.03555   -6293.6711   -5676.1943   -6293.6711            0    5470.2942    23.467869    21.423864    21.764869    10942.776    5106.3474    5413.7316    5890.8036    366.02752    49.429005    42.922526   -4803.1946 
12994000    249.60712   -6341.7616   -5699.6625   -6341.7616            0     3944.437    23.463015    21.444661      21.8035    10970.571    3577.0719    3361.6775    4894.5616    661.77352   -161.74668    430.59256   -5068.5742 
12995000    261.76832   -6317.8045   -5644.4214   -6317.8045            0    3690.2863    23.428432    21.662163     21.64671    10985.933    3172.1408    3653.3125    4245.4057    1227.1224     901.4721   -337.10969    -5053.169 
12996000    238.43764    -6322.129   -5708.7627    -6322.129            0    4179.7823    23.466018    21.390536    21.815855    10950.484    3110.0927    4025.2089    5404.0454    760.63864    423.49424    786.02887   -5041.2449 
12997000    243.26564   -6315.6955   -5689.9094   -6315.6955            0    4860.8529    23.234005    21.537573    21.870137    10943.906    4725.2975    5798.6016    4058.6595    496.01575    566.08552    144.38789   -4914.0899 
12998000    247.85436    -6313.428   -5675.8377    -6313.428            0    2526.9053      23.5727    21.522571    21.768848    11044.319     2408.507    1995.7557    3176.4531   -343.73565   -643.54112   -11.596582   -5268.8289 
12999000    242.24795    -6337.358   -5714.1899    -6337.358            0    3399.5163    23.450922    21.588884    21.747003    11010.056    3225.0139     3436.545      3536.99   -738.29916   -501.03886    146.63553   -5168.3283 
13000000    258.00122   -6307.5034    -5643.811   -6307.5034            0    4017.4019    23.196886    21.735342    21.843333    11013.239    3831.4431    4946.2895    3274.4731   -282.81966    29.690586   -155.50033   -4998.5488 
Loop time of 557.646 on 64 procs for 250000 steps with 1296 atoms

Performance: 77.469 ns/day, 0.310 hours/ns, 448.313 timesteps/s
99.2% CPU use with 64 MPI tasks x 1 OpenMP threads

MPI task timing breakdown:
Section |  min time  |  avg time  |  max time  |%varavg| %total
---------------------------------------------------------------
Pair    | 29.586     | 38.747     | 47.399     |  94.8 |  6.95
Bond    | 0.26753    | 0.27899    | 0.29019    |   0.7 |  0.05
Kspace  | 281.18     | 293.48     | 309.29     |  38.8 | 52.63
Neigh   | 4.5585     | 5.0304     | 5.9337     |  15.4 |  0.90
Comm    | 87.959     | 98.216     | 104.1      |  40.7 | 17.61
Output  | 1.3676     | 1.3707     | 1.3828     |   0.4 |  0.25
Modify  | 111.43     | 112.92     | 114.53     |   7.8 | 20.25
Other   |            | 7.606      |            |       |  1.36

Nlocal:        20.2500 ave          26 max          13 min
Histogram: 3 3 6 10 7 4 11 5 5 10
Nghost:        2537.48 ave        2564 max        2506 min
Histogram: 3 1 5 7 9 10 17 4 5 3
Neighs:        6336.11 ave        8192 max        4006 min
Histogram: 3 3 6 10 7 4 10 6 6 9

Total # of neighbors = 405511
Ave neighs/atom = 312.89429
Ave special neighs/atom = 2.0000000
Neighbor list builds = 9308
Dangerous builds = 0

unfix		3
unfix		2
unfix		1

write_data	data.final.${pid}
write_data	data.final.0
System init for write_data ...
PPPM initialization ...
  extracting TIP4P info from pair style
  using 12-bit tables for long-range coulomb (../kspace.cpp:340)
  G vector (1/distance) = 0.36694707
  grid = 30 40 32
  stencil order = 5
  estimated absolute RMS force accuracy = 0.0045775676
  estimated relative force accuracy = 1.3785209e-05
  using double precision FFTW3
  3d grid and FFT values/proc = 5168 640
Last active /omp style is kspace_style pppm/tip4p/omp
WARNING: Not all mixed pair coeffs generated from mixing. Use write_data with 'pair ij' option to store all pair coeffs. (../write_data.cpp:312)

write_restart   restart.lmp.${pid}
write_restart   restart.lmp.0
System init for write_restart ...
PPPM initialization ...
  extracting TIP4P info from pair style
  using 12-bit tables for long-range coulomb (../kspace.cpp:340)
  G vector (1/distance) = 0.36694707
  grid = 30 40 32
  stencil order = 5
  estimated absolute RMS force accuracy = 0.0045775676
  estimated relative force accuracy = 1.3785209e-05
  using double precision FFTW3
  3d grid and FFT values/proc = 5168 640
Last active /omp style is kspace_style pppm/tip4p/omp
Total wall time: 0:09:18
