#include		in.partitions
include		in.temp
variable        temperature equal 142.60
variable	tempDamp equal 100.0
include		in.pressure
variable        pressure equal 2056.8
variable        pressureDamp equal 1000.0 # This is 1 ps
include		in.seed
variable        seed equal 745823

units		real
atom_style	full
#include		in.box
read_restart	restart.lmp.${pid}
read_restart	restart.lmp.1
Reading restart file ...
  restart file = 30 Jul 2021, LAMMPS = 30 Jul 2021
  restoring atom style full from restart
  orthogonal box = (0.12272295 0.12804477 0.15610450) to (18.084849 23.501133 22.057091)
  2 by 4 by 4 MPI processor grid
  restoring pair style lj/cut/tip4p/long/omp from restart
  restoring bond style harmonic/omp from restart
  restoring angle style harmonic/omp from restart
  864 atoms
  576 bonds
  288 angles
Finding 1-2 1-3 1-4 neighbors ...
  special bond factors lj:    0        0        0       
  special bond factors coul:  0        0        0       
     2 = max # of 1-2 neighbors
     1 = max # of 1-3 neighbors
     1 = max # of 1-4 neighbors
     2 = max # of special neighbors
  special bonds CPU = 0.002 seconds
  read_restart CPU = 0.009 seconds
include 	in.setup
variable	out_freq equal 1000
variable	out_freq2 equal 10000
variable	out_freq3 equal 1000

timestep	2.0

neigh_modify    delay 7 every 1

include		in.tip4p
# This is TIP4P/Ice

# create groups ###
group ox type 2
288 atoms in group ox
group hy type 1
576 atoms in group hy

# set charges - beside manually ###
set group ox charge -1.1794
Setting atom values ...
  288 settings made for charge
set group hy charge 0.5897
Setting atom values ...
  576 settings made for charge

# ### TIP3P Potential Parameters ###
pair_style lj/cut/tip4p/long/omp 2 1 1 1 0.1577 8.5
pair_coeff 1 1*2 0.000 0.000
pair_coeff 2 2 0.21084 3.1668
bond_style  harmonic
bond_coeff  1 450 0.9572
angle_style harmonic
angle_coeff 1 55 104.52
kspace_style pppm/tip4p/omp 1.0e-5
pair_modify tail yes

thermo          ${out_freq}
thermo          1000
thermo_style    custom step temp pe etotal epair emol press lx ly lz vol pxx pyy pzz pxy pxz pyz enthalpy

restart 	${out_freq3} restart.lmp.${pid} restart2.lmp.${pid}
restart 	1000 restart.lmp.${pid} restart2.lmp.${pid}
restart 	1000 restart.lmp.1 restart2.lmp.${pid}
restart 	1000 restart.lmp.1 restart2.lmp.1


include         in.dump
dump            myDump all atom ${out_freq2} dump.water.${pid}
dump            myDump all atom 10000 dump.water.${pid}
dump            myDump all atom 10000 dump.water.1
dump            myDump2 all dcd ${out_freq2} dump.dcd
dump            myDump2 all dcd 10000 dump.dcd
dump_modify     myDump append yes
dump_modify     myDump2 append yes


variable natoms 	equal  "count(all)"                        # NUMBER ATOMS
variable H      	equal  "enthalpy/v_natoms"                 # ENTHALPY-per-atom
variable Vol      	equal  "vol/v_natoms"                 # volume-per-atom
fix AVG all 		ave/time ${out_freq} 1 ${out_freq} v_Vol v_H file vol_enthalpy.dat
fix AVG all 		ave/time 1000 1 ${out_freq} v_Vol v_H file vol_enthalpy.dat
fix AVG all 		ave/time 1000 1 1000 v_Vol v_H file vol_enthalpy.dat


timer           timeout 23:50:00 every 1000
New timer settings: style=normal  mode=nosync  timeout=23:50:00

fix 		1 all shake 1e-6 200 0 b 1 a 1
       0 = # of size 2 clusters
       0 = # of size 3 clusters
       0 = # of size 4 clusters
     288 = # of frozen angles
  find clusters CPU = 0.007 seconds
fix             2 all nph aniso ${pressure} ${pressure} ${pressureDamp}
fix             2 all nph aniso 2056.8 ${pressure} ${pressureDamp}
fix             2 all nph aniso 2056.8 2056.8 ${pressureDamp}
fix             2 all nph aniso 2056.8 2056.8 1000
fix             3 all temp/csvr ${temperature} ${temperature} ${tempDamp} ${seed}
fix             3 all temp/csvr 142.6 ${temperature} ${tempDamp} ${seed}
fix             3 all temp/csvr 142.6 142.6 ${tempDamp} ${seed}
fix             3 all temp/csvr 142.6 142.6 100 ${seed}
fix             3 all temp/csvr 142.6 142.6 100 745823


run             250000
PPPM initialization ...
  extracting TIP4P info from pair style
  using 12-bit tables for long-range coulomb (../kspace.cpp:340)
  G vector (1/distance) = 0.37197027
  grid = 24 27 25
  stencil order = 5
  estimated absolute RMS force accuracy = 0.0031268966
  estimated relative force accuracy = 9.4165563e-06
  using double precision FFTW3
  3d grid and FFT values/proc = 4410 672
Last active /omp style is kspace_style pppm/tip4p/omp
Neighbor list info ...
  update every 1 steps, delay 7 steps, check yes
  max neighbors/atom: 2000, page size: 100000
  master list distance cutoff = 10.8154
  ghost atom cutoff = 10.8154
  binsize = 5.4077, bins = 4 5 5
  1 neighbor lists, perpetual/occasional/extra = 1 0 0
  (1) pair lj/cut/tip4p/long/omp, perpetual
      attributes: half, newton on, omp
      pair build: half/bin/newton/omp
      stencil: half/bin/3d
      bin: standard
Per MPI rank memory allocation (min/avg/max) = 10.19 | 10.21 | 10.23 Mbytes
Step Temp PotEng TotEng E_pair E_mol Press Lx Ly Lz Volume Pxx Pyy Pzz Pxy Pxz Pyz Enthalpy 
19500000    149.82547   -4463.0825   -4206.2867   -4463.0825            0    2194.0799    17.962127    23.373088    21.900987    9194.6994    2799.9729    1525.9437     2256.323   -427.93793    -39.77561   -237.85724    -3912.071 
19501000    147.99421    -4489.822    -4236.165    -4489.822            0    618.50641     18.02731    23.609472    21.792773    9275.3365    843.41893   -68.680192    1080.7805     876.6834    310.33626   -51.318995   -4152.4988 
19502000    134.17089   -4467.7058   -4237.7415   -4467.7058            0    2453.9411    18.014619     23.19974    21.966168    9180.4188    3125.6172    2399.0489    1837.1573   -210.78698    313.71237    536.11663   -3909.1907 
19503000    142.79114   -4486.1919   -4241.4528   -4486.1919            0    2290.9116    17.813816    23.379997    22.129907    9216.8177    3278.6755    2719.2002     874.8592    38.082538   -522.03633   -243.38404   -3933.5134 
19504000    127.36652   -4473.7149   -4255.4131   -4473.7149            0      2284.94    17.823128    23.289213    22.140258    9190.1253    2789.4291    3838.1484    227.24259   -45.928842    742.70895    78.341699   -3949.1659 
19505000    136.22899    -4464.807   -4231.3152    -4464.807            0    1338.4669    18.187256    23.234458    21.943782    9272.8066    329.42585     2374.075       1311.9   -854.72054    54.939508    658.18366   -4050.3084 
19506000    139.55295   -4462.4175   -4223.2285   -4462.4175            0    2073.6815    17.865061    23.576805    21.916073    9231.0738    2838.9035    1838.3259    1543.8152    29.696701    294.72702   -211.52785   -3944.0576 
19507000    145.47679    -4480.914   -4231.5717    -4480.914            0     1227.823    18.147328    23.246043      21.9393    9255.1718     1830.992    1729.2225    123.25454     522.4708   -592.70551    333.88366   -4065.8436 
19508000    144.92428   -4473.2898   -4224.8946   -4473.2898            0    1709.8739    17.934986     23.51761    21.884298    9230.5346    1379.0827    2046.9524    1703.5865   -922.57021    833.19745    464.67924    -3994.715 
19509000    147.77113   -4474.4797    -4221.205   -4474.4797            0    1361.7423    18.041272    23.381109    21.929594    9250.4499    2201.6539    1103.9219     779.6511   -108.81951   -601.02706   -414.16136   -4037.4946 
19510000    144.87527   -4475.1703    -4226.859   -4475.1703            0    2208.7617    17.967023    23.212951    22.015289    9181.8641     2687.608    3456.1609    482.51633   -437.22691    213.64614     363.7183    -3931.088 
19511000    143.55224   -4483.1852   -4237.1416   -4483.1852            0    1343.0384    17.935461    23.416947    21.986125    9234.0348    1520.1391    872.11623    1636.8598   -1229.3574    502.96168   -91.794709   -4056.2761 
19512000    145.68708   -4460.4116    -4210.709   -4460.4116            0    2142.2658    18.053662    23.308357    21.837745    9189.3492    2073.8393     2727.029     1625.929    256.39351   -138.00476    47.051923   -3923.6084 
19513000    139.50151   -4459.0107   -4219.9099   -4459.0107            0    1554.5393    17.973741    23.653279    21.720207    9234.0836    2209.2583    621.48486    1832.8748   -779.72014    193.32729      389.533   -4010.5606 
19514000    142.44526   -4491.4784   -4247.3321   -4491.4784            0    2377.6912    18.025325    23.262506    21.889881    9178.7387    2460.2659    2671.3045    2001.5033    82.739585    622.40437    -10.20881   -3929.0484 
19515000      144.778   -4480.4763   -4232.3318   -4480.4763            0     2616.942    17.818874    23.364996    22.063172    9185.7349    2908.9198    3494.7085    1447.1977   -22.093712   -1002.6139   -377.06737   -3881.7544 
19516000    142.74601   -4476.1486   -4231.4869   -4476.1486            0    1626.7247    17.953425    23.162514    22.143555    9208.3188     524.8153    2922.6287    1432.7302    258.39499    470.59389    518.54255   -4013.0277 
19517000    139.89641   -4470.4701   -4230.6924   -4470.4701            0    2338.0002     18.00251    23.430422    21.799913    9195.3431    2778.8503    3602.0234    633.12684   -183.14984    553.10451    -416.9715   -3917.1557 
19518000    139.00506   -4491.7576   -4253.5076   -4491.7576            0    1746.3623    17.988663    23.494737    21.828194     9225.444    246.16104    1056.6031    3936.3228   -421.83766   -283.99821   -393.75027   -4018.5457 
19519000    146.80722   -4484.6445    -4233.022   -4484.6445            0    1712.5713    17.959335    23.194674    22.099897    9205.9532    3169.3318    2297.4734   -329.09135   -213.16758    220.32765   -41.559556   -4003.0932 
19520000     142.5459    -4489.427   -4245.1082    -4489.427            0    2492.7509    17.872954    23.377442    21.977975    9182.9244    2054.6311    2496.8556     2926.766   -536.78366    346.25543    2.9386986   -3911.2702 
19521000    144.39001   -4491.6594   -4244.1798   -4491.6594            0    2053.2819    18.208409    23.174551    21.794444    9196.6386    2279.1326      1439.25     2441.463    -371.8119   -636.54611   -55.137284   -3968.7864 
19522000    145.74705   -4471.9214   -4222.1159   -4471.9214            0    2689.0608    17.850763    23.411073    21.973221    9182.7303    2886.3152    3940.3532     1240.514    76.802445   -362.20573   -408.86478    -3861.995 
19523000    134.89073   -4480.3727   -4249.1746   -4480.3727            0    2109.6787    17.894722    23.355114    22.024241     9204.663      3035.47    824.57975    2468.9865   -30.880883   -346.63141   -349.01219   -3965.9701 
19524000     148.7678    -4458.376   -4203.3931    -4458.376            0    3272.4782    18.105035    23.261959    21.790699    9177.3398    2609.3626    2741.8008    4466.2714    205.50316    612.97064   -901.03851   -3765.3978 
19525000     145.9431   -4481.5582   -4231.4167   -4481.5582            0    2198.1769     17.86635    23.522337    21.870162    9191.1169    1922.7813    2227.9704    2443.7789   -107.31415   -621.78677    92.739904   -3936.7664 
19526000    152.21573   -4475.9612   -4215.0686   -4475.9612            0    3259.1268    18.071379    23.054623    21.903362    9125.5722    2671.7931    4501.8378    2603.7494    105.10141   -59.045114   -103.10528   -3781.3209 
19527000    143.97213   -4473.1347   -4226.3713   -4473.1347            0    1799.7788    17.875511    23.399564    22.050475    9223.2538    2268.3555    2216.8114    914.16969    758.53569   -730.75451    107.39315     -3984.28 
19528000    139.53284   -4480.5186   -4241.3641   -4480.5186            0    2842.3738     17.99841    23.308569    21.827795    9157.1346    3145.5991    3410.1071    1971.4153   -170.04734   -502.28613    321.15429   -3861.7725 
19529000     134.8723   -4484.4449   -4253.2784   -4484.4449            0    2286.9237    18.040034    23.381585    21.779556    9186.7167    2650.2229    2727.9868    1482.5614    391.90517   -521.22608   -77.877867    -3946.879 
19530000    145.00798    -4469.582   -4221.0433    -4469.582            0    2492.2046    17.948669    23.253815     22.00063    9182.5132    3182.3029    2479.0184    1815.2925   -597.95904   -53.056831   -621.54314   -3887.2934 
19531000    146.92366   -4468.1305   -4216.3084   -4468.1305            0    2504.8499    17.936345    23.281037    21.997344    9185.5788    2237.8432    2778.7496    2497.9568    899.98065   -285.81458   -261.26459   -3880.7531 
19532000    145.79243   -4477.8938   -4228.0106   -4477.8938            0    2001.3902    17.931941    23.130865    22.227996    9219.7572    2172.0261    1996.0266    1836.1181    617.41854   -194.27757   -109.39158   -3958.9023 
19533000    145.58568   -4479.3829    -4229.854   -4479.3829            0    2039.0797    17.872507    23.449531    21.985685    9214.2426    2539.8869    1982.9882    1594.3641    77.591226    -671.0916    250.13749   -3955.8419 
19534000    141.71408   -4490.6935   -4247.8004   -4490.6935            0    1854.6816    18.100255     23.43459     21.70163    9205.2249    996.54742     2538.597    2028.9004   -476.57194   -185.17332    846.09515   -3998.8117 
19535000    134.01756   -4484.3991   -4254.6976   -4484.3991            0    2048.3432    17.983169    23.437543    21.816706    9195.3334    2015.6623    908.95784    3220.4095    -523.7763   -335.37787    193.86684   -3980.0055 
19536000    137.47972   -4484.1665    -4248.531   -4484.1665            0    709.28737    17.976599    23.272397    22.210127    9291.7962     1310.654    578.93122    238.27692   -69.950066    176.40522    943.35538   -4152.4145 
19537000    145.64334   -4484.7267    -4235.099   -4484.7267            0    1405.6537    17.950342    23.403653    21.999212    9241.9476    927.21989    2086.3269    1203.4144    788.14628    142.77458    361.39106   -4045.6389 
19538000    141.15941   -4475.3441   -4233.4017   -4475.3441            0    2319.2955    18.011238    23.237411    21.979561    9199.2058    2812.8925    2274.6756    1870.3184    363.79909   -356.29721   -166.01521   -3922.2427 
19539000    142.56334   -4476.3827    -4232.034   -4476.3827            0    2289.7338    17.828822    23.420906    22.021213    9195.3353    2583.3683    2669.3416    1616.4916   -138.22352   -432.76945    31.801881   -3924.9704 
19540000    135.39092   -4471.7237   -4239.6683   -4471.7237            0    847.91187    17.983803     23.53255      21.9207     9276.944    883.67177    239.94163    1420.1222    1377.9304     -287.324    467.17979   -4124.9503 
19541000    136.94569   -4471.7009   -4236.9807   -4471.7009            0    1967.1074    18.102151    23.180732    21.963308     9216.268    2046.9442    2139.3009    1715.0772     65.35555    582.96053   -204.58058   -3972.5821 
19542000      142.214   -4482.5163   -4238.7664   -4482.5163            0    2886.3444    17.796479    23.542357    21.919829    9183.7739    2382.9243    2491.3874    3784.7216    161.53286    668.56331    815.94213   -3852.1812 
19543000    143.96064   -4475.7498   -4229.0061   -4475.7498            0    2259.3034    18.070365    23.211154    21.958034    9209.9466    3408.5412    1428.0822    1941.2869   -28.795854    296.21841    189.31401   -3925.5419 
19544000    142.61348   -4477.6853   -4233.2507   -4477.6853            0    2010.1354    17.932975    23.392554    21.966295    9214.8182    1834.0147    846.44346     3349.948   -561.90196    503.98369    288.67962   -3963.1113 
19545000    135.89205   -4496.1001   -4263.1858   -4496.1001            0    878.13807    18.074045    23.251924    22.083276    9280.6365    804.90999    1237.2439    592.26037    -806.1738   -201.24093    302.46831    -4144.331 
19546000    147.47518   -4477.4488   -4224.6814   -4477.4488            0    2467.8955    17.871744    23.368027    22.035317    9202.5521    3186.5768    1296.6468     2920.463   -267.13977   -210.42294   -374.87705   -3893.4657 
19547000    138.94364   -4485.3054   -4247.1607   -4485.3054            0    1557.8253    17.968163    23.467051    21.919433    9242.5437     1617.736    1697.2121    1358.5278    261.21898    169.57672    419.62551   -4037.1767 
19548000    142.79622   -4473.3938   -4228.6459   -4473.3938            0    2478.3831     18.12991     23.34416    21.749048    9204.7957    1643.1639     1356.674    4435.3115    402.32669    86.966922   -683.26037   -3895.9416 
19549000    147.56071   -4482.0748   -4229.1608   -4482.0748            0    589.87087    17.942696    23.441221    22.071132    9283.0897    611.67416    1108.5925    49.345937    133.67572   -86.632503    492.33823   -4149.3015 
19550000    142.25715   -4483.3626   -4239.5387   -4483.3626            0    3117.6813    17.904142    23.161801    22.126365    9175.6302    2760.9376    2996.3469    3595.7596    220.58278    120.72875    190.53865   -3822.3395 
19551000    144.76141   -4469.0909   -4220.9748   -4469.0909            0    1491.4772    17.951866    23.295544    22.089654    9237.8594    2095.9014    2050.2652    328.26488   -316.16945   -149.40168    294.41034    -4020.036 
19552000    140.09099   -4478.5879   -4238.4767   -4478.5879            0    2428.5572    18.109016     23.48852    21.642712    9205.8138    1060.1679    2330.8333    3894.6705    -476.9573    182.14662   -535.50692    -3912.425 
19553000     140.5363   -4483.8992   -4243.0248   -4483.8992            0     2611.919    18.051857    23.329817    21.842736    9198.9923    2085.2252    2550.6761    3199.8556   -998.90363   -177.42943    25.244852   -3892.6153 
19554000    151.72938   -4481.3841   -4221.3251   -4481.3841            0    2956.5986    17.856363    23.446314    21.902912    9170.0021    3033.4753    2107.8085    3728.5121     689.0461   -442.61299   -129.69704   -3825.9242 
19555000    142.91188   -4479.0572   -4234.1111   -4479.0572            0    2335.2698    17.934288    23.467614     21.91455    9223.2851    1698.8259     3608.312    1698.6715    1098.0946    6.0513574   -531.06599   -3919.9889 
19556000    148.14735    -4470.687   -4216.7675    -4470.687            0    2124.1499     18.05749    23.316533    21.903742    9222.3091    2035.7117    2362.7196    1974.0184   -49.249725   -86.985384   -78.001725   -3931.0737 
19557000    142.52801   -4480.0139   -4235.7257   -4480.0139            0    1339.0572    17.820923    23.428504    22.170279    9256.4811     749.9229    2427.5516    839.69708   -513.57781      226.918     593.6242    -4054.958 
19558000    140.91425   -4477.7756   -4236.2534   -4477.7756            0    2044.7139    18.008644    23.294412    22.044584    9247.7198    936.15605    3563.5783    1634.4074   -945.35749     458.1444     524.1647   -3960.4858 
19559000    142.30612   -4476.9355   -4233.0277   -4476.9355            0    1664.7097    17.974137    23.574506    21.850211    9258.6205    964.46382    2071.2166    1958.4487   -448.15466   -116.36594   -262.94222   -4008.2461 
19560000    131.80433   -4480.9645   -4255.0564   -4480.9645            0    2586.0065    18.144904    23.105566    21.907326    9184.6086    2202.6364     3445.598     2109.785    967.31412    -324.7285    589.68361   -3908.6658 
19561000     142.4692   -4482.8648   -4238.6775   -4482.8648            0    1780.8788    17.888678    23.342734    22.073319    9217.1703    2338.7962    1383.0279    1620.8123   -1454.2688   -303.10062    559.28731   -3999.2865 
19562000    145.54281   -4475.9169   -4226.4615   -4475.9169            0    2833.0478    17.836538    23.411782    22.016956    9193.9539    3997.4563    2244.0543    2257.6328    814.95635   -345.53401    231.13059    -3846.594 
19563000    149.89098   -4472.7219   -4215.8139   -4472.7219            0    1789.3159    18.089828    23.102969    22.087855    9231.1492    1286.2526    2178.0736    1903.6214   -101.06638   -517.90563     668.1109    -3974.924 
19564000    143.16775   -4483.1125   -4237.7279   -4483.1125            0     2418.317    17.878589    23.484575     21.92336    9204.9847    4196.3749    2081.4982    977.07785    97.045596    183.16217   -138.82931   -3913.0803 
19565000    139.96585   -4491.3484   -4251.4517   -4491.3484            0    1735.4689    18.037405     23.31792    21.878908    9202.1539    2237.3651    1417.6722    1551.3694   -599.09718    -606.2188    224.11178   -4018.5449 
19566000    146.81486   -4468.0529   -4216.4172   -4468.0529            0    3027.0467    17.994094    23.332482    21.825329    9163.2961    1588.1999    3906.0604    3586.8799    261.42828    258.97159      580.894    -3811.891 
19567000    136.26217   -4490.1945   -4256.6458   -4490.1945            0    1870.5206     17.81048    23.483546    22.012404    9206.7593    2954.0849     805.9556    1851.5212    525.21724   -100.85317    479.52759   -4005.4888 
19568000    146.61326   -4486.7842   -4235.4941   -4486.7842            0    1669.4386    18.043687    23.061963    22.132892    9210.0022    1242.7518    1610.7041    2154.8597   -344.80367     -250.121    826.87265   -4011.2577 
19569000    132.85356   -4490.4627   -4262.7563   -4490.4627            0    1326.7852     17.94259    23.505405    21.937385     9252.045    1067.4227    1501.6174    1411.3155    536.10373    40.357669    40.240945   -4083.7311 
19570000    143.47956   -4483.5284   -4237.6093   -4483.5284            0    1637.1744    18.093878    23.151424     22.03838    9231.8562    875.13168    2235.0796     1801.312    384.73441    337.72407    554.91527   -4017.1848 
19571000    146.32508   -4489.0686   -4238.2724   -4489.0686            0    2225.1704    17.842424    23.426837    21.968586    9182.6839    2278.6246    2474.7391    1922.1475   -453.33596   -312.57077    719.01242   -3940.2775 
19572000     155.5598   -4471.1497   -4204.5255   -4471.1497            0    2358.7183    18.070775    23.183455    21.947425      9194.72    1863.4825    2525.9593    2686.7131   -606.96578    103.15575   -372.78582   -3888.2319 
19573000    137.43847   -4490.8924   -4255.3276   -4490.8924            0    1991.8241    17.931448    23.447469     21.87699    9198.1166    2348.3322    1236.8811    2390.2588   -742.89579    174.12503   -375.60023   -3988.1342 
19574000     145.8295   -4490.0099   -4240.0632   -4490.0099            0    1807.4081    17.943298    23.409699    21.943163    9217.1642    1363.3794     2555.277    1503.5681    788.60853    486.98366    711.19768   -3997.1061 
19575000    144.44003   -4486.5128   -4238.9476   -4486.5128            0    1977.6348    18.110901    23.127723    22.014603    9221.1225    2369.5673    2965.7759    597.56117   -450.27037    161.35151    180.77129    -3972.994 
19576000    141.44376   -4482.9981   -4240.5684   -4482.9981            0    2134.6108     17.83761    23.523245    21.896568    9187.7668    2793.5645    686.20787      2924.06    775.84482    564.57569    415.56732    -3954.543 
19577000    144.23919   -4494.5047   -4247.2836   -4494.5047            0    2060.4468    18.099717    23.272709    21.869485    9212.0708    1207.9554    2867.2528    2106.1323    258.93977   -249.19544   -68.053635   -3970.4655 
19578000     144.2107   -4458.6774   -4211.5052   -4458.6774            0    1993.9258    17.952682    23.404301    21.981371    9235.9121    2998.9222    1339.8492     1643.006    -255.7016   -224.45215    389.76956   -3942.9308 
19579000    147.84746   -4495.0501   -4241.6446   -4495.0501            0    1531.4044    17.940899    23.329256    22.092532    9246.7814    710.50872    2233.8425    1649.8619    281.52756    677.77034    742.44253   -4035.1273 
19580000    146.59176   -4466.0348   -4214.7816   -4466.0348            0     1950.442    17.870324     23.38999    22.086586    9231.8989    2708.8386    2134.9027    1007.5845   -146.06632    189.50193   -293.54201   -3952.1784 
19581000    143.36665   -4482.4815   -4236.7559   -4482.4815            0    1996.1321    18.002872    23.359223    21.953185    9232.0411    1980.4343    2076.1486    1931.8133   -240.84007   -27.443354   -126.41611    -3967.997 
19582000    135.72811   -4481.2595   -4248.6262   -4481.2595            0    2060.0845    18.138631    23.224243    21.921434    9234.5352    173.01382    2732.1173    3275.1223   -599.48831     357.9242    533.10498   -3971.1818 
19583000     136.3548   -4481.6336   -4247.9262   -4481.6336            0    1815.7036    17.824274    23.509494    21.958378    9201.4314    2124.9577    1384.1865    1937.9666    -8.592288   -473.61382      249.879   -4004.2707 
19584000    148.73283   -4466.6314   -4211.7084   -4466.6314            0    2177.7395    18.052129    23.259185    21.914626    9201.4652    1793.1164    2433.8195    2306.2825   -546.64672   -69.930747   -215.72594    -3919.469 
19585000    140.96952   -4480.1278   -4238.5109   -4480.1278            0    2093.3417    17.944977    23.470593    21.877266    9214.2504    1694.5975    2685.2037     1900.224    -1115.719    496.38655    567.03321   -3957.2068 
19586000    145.38274   -4484.8425   -4235.6614   -4484.8425            0    3203.2681    17.986934    23.190982    21.996252    9175.3991    2280.4778    4008.0058    3321.3206   -224.14429   -202.93412   -173.47531     -3807.02 
19587000      142.176   -4488.1382   -4244.4534   -4488.1382            0    1635.0387    17.924006    23.289649     22.10431    9227.3069    1620.9148    2441.9176    842.28386    -200.9735     157.9044    897.23598    -4024.425 
19588000    152.10217   -4479.1196   -4218.4216   -4479.1196            0    2008.3327    17.866802    23.266169    22.094328    9184.4363     2288.481     3139.717    596.80002   -413.13127    489.21482    402.73436   -3949.4144 
19589000    131.95286   -4481.2253   -4255.0626   -4481.2253            0    1449.8046    17.986437    23.245817    22.041647    9215.8202    1045.1031    2255.4757    1048.8349    263.74119    98.772566    348.05072   -4060.2041 
19590000     143.6164   -4482.5528   -4236.3992   -4482.5528            0    1423.2766     17.92372    23.554063    21.899977    9245.6541    645.85549    1728.2839    1895.6904   -264.60074    -70.80953   -385.21622   -4044.4868 
19591000    138.88425    -4488.768   -4250.7252    -4488.768            0    2135.0411    18.074216    23.227805    21.928197    9205.9917    2147.1479    3309.0128    948.96253   -536.24613   -448.80157    163.18906   -3964.0747 
19592000    143.95572    -4472.618   -4225.8828    -4472.618            0    1501.6835    18.009802    23.393343     21.90265     9227.794    884.68577    1626.2725    1994.0921    160.14651   -754.03106   -242.79753   -4023.7894 
19593000    140.15542   -4489.8418   -4249.6202   -4489.8418            0    2167.6895    17.981991    23.419839    21.812916    9186.1899    2563.7527    973.73656    2965.5791    -945.5923    296.64897    4.7510797   -3959.2123 
19594000    137.84371   -4474.6929   -4238.4335   -4474.6929            0    2299.3012    17.973636    23.196272    22.030907    9185.1558    2507.2734    2023.0067    2367.6233   -254.66501   -111.65909   -398.97254   -3930.4281 
19595000    137.94736   -4485.4129   -4248.9758   -4485.4129            0    1604.5921    17.827994    23.366461    22.130645    9219.1204    1985.2735    1293.9284    1534.5745   -386.67891   -207.83826     233.9993   -4033.2361 
19596000    143.75923   -4472.9851   -4226.5867   -4472.9851            0    1958.9709    18.036309    23.136407    22.030084    9193.0525    1656.4768    2737.7616    1482.6742    735.39247    122.11595    72.604721    -3963.945 
19597000    144.83746   -4481.6445   -4233.3981   -4481.6445            0    2682.5147    17.809168    23.634782    21.796427    9174.4606    4760.3097    1970.7608    1316.4736   -135.84998    776.57785    394.15097   -3874.4774 
19598000    143.50377   -4497.8206   -4251.8601   -4497.8206            0    2471.8809    17.962965     23.24633    21.966235    9172.5071    1731.8295    3113.6032    2570.2101    879.15951   -610.04509    645.38282   -3921.1926 
19599000    138.44016   -4465.6061   -4228.3244   -4465.6061            0     2760.124    17.964972    23.208112    21.987705    9167.4013    2273.2302    3211.5651    2795.5769   -442.15133    154.81732    105.98916   -3859.3037 
19600000    134.40879   -4477.3877   -4247.0156   -4477.3877            0    1497.6883    18.065968    23.407123    21.788017    9213.5496    439.60236    1872.8026    2180.6599   -284.49692   -265.38175   -463.45355    -4045.771 
19601000    137.95245   -4490.7691   -4254.3234   -4490.7691            0    2819.4562      18.0236    23.148741     21.98425    9172.3488    1744.0786    3512.0646    3202.2254    286.73153    46.768649    445.96271   -3877.1667 
19602000    148.12799   -4483.8668   -4229.9805   -4483.8668            0    879.74363    17.987551    23.498357    21.970037    9286.2491    736.75439   -195.59164    2098.0681    -775.7834   -235.27172    262.10427   -4110.8365 
19603000     145.0269   -4477.7787   -4229.2076   -4477.7787            0     605.0469    18.166769    23.412499    21.847671     9292.458    100.14841    1327.5548    387.43754    -120.4573    -327.4173   -434.59197   -4147.2111 
19604000    140.58726   -4474.1449   -4233.1832   -4474.1449            0    2462.2729    17.871818    23.383987    21.997376    9193.0193    3917.9515     2179.834     1289.033   -808.46416   -653.26602    322.00531   -3903.0644 
19605000    146.25649   -4475.2207    -4224.542   -4475.2207            0    2536.1518    17.872971      23.3285    22.033152     9186.714    2614.1226    2969.6848    2024.6479    512.70605   -196.40509    539.40978   -3884.7515 
19606000    136.62015   -4488.6276   -4254.4654   -4488.6276            0    1563.1075    18.032512    23.266049    21.968962    9216.9748    1227.4864    1865.7418    1596.0944   -179.37718     593.2903     260.8426   -4044.3523 
19607000    139.26729   -4486.9082   -4248.2089   -4486.9082            0    2541.7303     17.89964    23.422224    21.854124    9162.3281    2370.7146    2161.1911    3093.2853   -334.37989    333.69666    -195.5728   -3908.5748 
19608000    144.69033   -4483.1735   -4235.1792   -4483.1735            0    1516.4145    18.211273    23.167784     21.90249    9240.9855   -429.80448    2165.0768    2813.9711   -149.09777   -314.70058    279.81334   -4030.8116 
19609000    138.40661   -4480.5727   -4243.3485   -4480.5727            0    1327.6465    17.819166    23.522048    21.992743    9218.1101    2081.2315     898.0636    1003.6443    59.167816    282.45212   -252.16816   -4064.8641 
19610000     142.8646   -4485.3112   -4240.4461   -4485.3112            0     834.7929    17.984663    23.447783    21.982567    9270.0587     1081.139      92.3958    1330.8439    502.35651   -338.35902    205.78587   -4127.5869 
19611000    144.16372   -4475.7438   -4228.6521   -4475.7438            0    2427.7366    18.122754    23.173337    21.861446     9181.035    1390.2709    2645.9999     3246.939   -67.756019   -638.37807    277.56484   -3903.5879 
19612000    138.56678   -4470.0895   -4232.5908   -4470.0895            0    1970.4884    17.879034    23.393561     21.87117    9147.7105    2218.5391    1904.0183    1788.9078   -405.91876    200.40757     480.5599    -3969.708 
19613000    136.30407   -4474.1527   -4240.5322   -4474.1527            0    1879.4329    17.963296    23.183309    22.076154    9193.5845    1458.5943    2757.2133     1422.491    232.99616    542.15385    183.01336   -3988.5397 
19614000    149.26915   -4466.6511   -4210.8088   -4466.6511            0    3087.3818    17.792745     23.31175    22.047805     9144.989    3740.6926    4452.4424    1069.0105    316.92746    337.70959    153.38312   -3799.0439 
19615000    144.35677   -4467.3305   -4219.9079   -4467.3305            0    2483.6753    17.903393    23.249678    22.012779    9162.7783    3222.0404    2219.6846     2009.301    37.277407    14.220893    218.19679   -3888.0151 
19616000    140.16566   -4489.3771    -4249.138   -4489.3771            0    1770.0635    18.019224    23.370832    21.943026    9240.7408    1376.4909    1804.9349    2128.7647   -83.891781    215.60899     557.7667   -4010.5923 
19617000    138.46438   -4490.7236   -4253.4004   -4490.7236            0    1681.2912    18.007401    23.222508    21.991274     9196.245    505.71259     2671.316     1866.845    372.82671    345.33299    77.934998   -4027.9094 
19618000    138.03827   -4484.8545   -4248.2616   -4484.8545            0    1495.6175    17.966988    23.472505    21.838346    9209.8904    1476.0711    676.37893    2334.4023    -300.3817     345.8689   -68.844492   -4047.3751 
19619000    141.12953   -4470.1733   -4228.2821   -4470.1733            0    2995.7504    17.930193    23.447714    21.850855    9186.5809    4005.4793    2701.3733    2280.3988    390.25777    275.96343   -242.43657   -3826.9208 
19620000    147.22714   -4495.2424   -4242.9002   -4495.2424            0    1532.5904    18.100646    23.035606    22.095606    9212.9696    1846.4024    2087.6213    663.74763    -166.9503   -183.74493    49.024854   -4036.9787 
19621000    140.45811   -4486.6882   -4245.9478   -4486.6882            0      1684.17    17.796268     23.42045     22.05456    9192.2659    2292.4181    1516.5651    1243.5266    500.74326    467.85961   -389.88505   -4020.1683 
19622000    152.30663   -4484.2054   -4223.1571   -4484.2054            0    1558.4003    18.006147    23.274386     22.01409    9225.7089    1591.5435    2669.7342    413.92325    208.56175   -378.18551   -317.93639   -4013.4782 
19623000    140.30284   -4497.2345   -4256.7602   -4497.2345            0    2054.5071    17.953512    23.593148    21.723106    9201.4703    2577.6467    2240.1515     1345.723    733.05173   -382.99199   -436.73088   -3981.0577 
19624000    143.72981   -4471.2109    -4224.863   -4471.2109            0    1468.3713    18.068004    23.254357    22.008002    9246.8779    1104.0463    2047.8334    1253.2343    545.01992   -87.847929    280.59987   -4026.8439 
19625000    143.75364   -4460.9494   -4214.5606   -4460.9494            0     2939.449    17.891803    23.359262     22.00006    9194.6896    3388.1015    3671.2383    1759.0074    108.37543   -377.15016    53.087471   -3820.3948 
19626000    144.96868   -4487.1031   -4238.6317   -4487.1031            0    1646.7513    18.027993    23.411003    21.898176    9242.1994    2079.9218    2113.5156    746.81661   -109.52272    -329.9967    518.10533   -4016.6694 
19627000    143.51427    -4477.286   -4231.3074    -4477.286            0    2190.2532     18.11691    23.388357    21.741651    9212.4759    222.47839     2225.563    4122.7181   -102.87829    36.466826    35.783495   -3937.0371 
19628000     144.7605   -4484.4485    -4236.334   -4484.4485            0    1335.4986    17.903808    23.344862    22.109406    9240.8895    1347.9725    926.16427     1732.359    189.69385   -112.86033    307.02119   -4056.3503 
19629000    145.88822   -4468.2873   -4218.2398   -4468.2873            0    3496.9673    17.892814    23.149253    22.067366    9140.4195    3945.7321     3786.525    2758.6449    731.08581   -262.10501    218.49944   -3752.0814 
19630000    137.49077   -4486.5012   -4250.8467   -4486.5012            0    2402.1949    17.805002    23.361892    22.134155     9206.891    3440.1305    2441.2774    1325.1767   -454.16054    233.27802    158.06483   -3928.2966 
19631000    142.87873   -4497.3838   -4252.4946   -4497.3838            0    2490.4859    17.990484     23.13197    22.043126    9173.3644    2292.8287    2920.8556    2257.7733    80.994761   -343.80433     172.1826   -3919.3071 
19632000    141.62745   -4464.8698   -4222.1252   -4464.8698            0    1180.2518    17.974255    23.507074    21.885255    9247.0049    1740.1727    756.69014    1043.8925   -471.00299    576.84241    904.32479   -4062.9587 
19633000    131.09075   -4465.6212   -4240.9362   -4465.6212            0     2538.623    18.133606     23.28516    21.762298    9188.9982    2592.6515    1895.2039    3128.0137    114.77643    -849.8431    32.801293   -3900.7299 
19634000    139.23722   -4489.0019    -4250.354   -4489.0019            0    2419.3977     17.94341    23.394088    21.893451    9190.2074    2271.6492    2288.3787    2698.1652   -130.65059   -54.352794   -45.443596   -3926.0828 
19635000    139.62148   -4496.7764   -4257.4699   -4496.7764            0     2011.531    17.952314    23.212711    22.016078    9174.5811    1368.8088    2388.6673     2277.117     1001.271    369.11617    139.38438   -3988.3234 
19636000    144.35532   -4483.0436   -4235.6235   -4483.0436            0    2680.9463    17.850128    23.327927    22.050458    9181.9536    3634.0607    2229.2788    2179.4994    42.639715    9.8582454   -50.701608   -3876.6197 
19637000     137.4857   -4483.4688   -4247.8231   -4483.4688            0    1837.5922    17.884788    23.412482    22.039651    9228.6026    2813.4473    917.80208    1781.5273   -247.02148   -269.15169    101.44566   -4000.5021 
19638000    141.73636   -4480.9744   -4238.0431   -4480.9744            0    1880.7036    18.064282    23.281783    21.954626    9233.4285    1789.9609    3061.0726    791.07727   -608.16319    657.28081   -371.83667   -3984.7874 
19639000    139.67603   -4505.5505   -4266.1505   -4505.5505            0    1610.5451    17.839686    23.505588    22.048084    9245.4742    2211.1485    2073.1745     547.3125    815.95514   -611.47083    350.40426   -4048.9915 
19640000    142.59363   -4483.0172   -4238.6166   -4483.0172            0    1876.1306    17.975606    23.224697    22.082365    9218.9017    1013.2665    1942.1822    2672.9431    109.49872   -356.81211    842.86769   -3986.3742 
19641000    140.82406   -4494.9776     -4253.61   -4494.9776            0    1574.6518    17.890448     23.48876     21.97943    9236.2935    793.77919     1867.911    2062.2652    163.94807    554.39266    765.06439   -4041.5015 
19642000    137.62243   -4484.9617   -4249.0816   -4484.9617            0    1732.8465    18.048105    23.426641    21.815502    9223.7358    1738.4978    1989.9075    1470.1341    737.27339    584.85774    277.15508   -4015.9813 
19643000    140.92342   -4488.2053   -4246.6674   -4488.2053            0    2713.0189    17.992505    23.491045    21.708218    9175.2552    1334.1029    2755.7722    4049.1816   -1193.6927    450.33582    825.24411   -3883.6337 
19644000    139.25078   -4475.3856   -4236.7145   -4475.3856            0    2376.5091    17.950724    23.318102     21.90151    9167.4643    1868.4636    2280.1365     2980.927   -4.3405664   -121.09123    572.79646   -3918.9799 
19645000    146.08876   -4472.1748   -4221.7837   -4472.1748            0    2894.0949    17.962954    23.358289    21.898754    9188.3642    2351.5731    3082.1207    3248.5909   -965.24279    -437.3959    498.19348   -3833.9666 
19646000    136.33872   -4476.9661   -4243.2862   -4476.9661            0    2477.5356    17.867071     23.37147    22.014199    9192.6832    2578.3737    2466.9807    2387.2525    374.59005   -255.43415   -629.26817   -3911.1332 
19647000    137.51161    -4493.164   -4257.4738    -4493.164            0    1538.0683    18.122323    23.171569    21.999052    9237.9007    940.13429    1915.1757    1758.8948   -559.61914   -235.30407   -653.35464   -4050.2571 
19648000    137.16607   -4491.8646   -4256.7667   -4491.8646            0    1392.0931    17.963644    23.506212     21.85105    9226.7638    836.63343    1305.9339    2033.7118    830.85828    385.55544   -241.16423   -4069.4426 
19649000    148.62711    -4470.088   -4215.3462    -4470.088            0    2828.4616    18.096115    23.317277    21.766066    9184.2376     1774.635     3701.099     3009.651   -522.62455   -707.74552    5.1513998   -3836.4945 
19650000    143.49895   -4485.9901   -4240.0378   -4485.9901            0    2478.5923    17.949634    23.224381    22.011183    9175.7828     2205.813    2384.8912    2845.0726   -489.74311    608.91271    111.44118   -3908.3541 
19651000    143.78652   -4467.5326   -4221.0874   -4467.5326            0    3015.0128    17.851014    23.305257    22.030653    9165.2468    4414.6379      3223.81    1406.5904    253.95649   -333.00694    310.82619   -3818.0836 
19652000    141.91911   -4500.1378   -4256.8933   -4500.1378            0     1342.456    17.927958    23.237568    22.188783    9243.8946    1171.4175    1341.3204    1514.6303    -692.5376    143.63278   -7.5139142   -4075.9131 
19653000    143.46727   -4477.9593   -4232.0613   -4477.9593            0     2313.354    17.905973    23.462719    21.922324    9210.0682    2889.9824    2097.4601    1952.6196    380.57553   -328.60679   -256.22713    -3921.333 
19654000    132.88783   -4476.0365   -4248.2713   -4476.0365            0    2015.9456    18.139973    23.384452    21.691919    9201.5674    1377.3637    1996.3486    2674.1244   -393.15322    -389.5926     229.7353   -3977.7406 
19655000    144.04005   -4492.0601   -4245.1804   -4492.0601            0    2077.9793    17.914423    23.489465    21.895528    9213.6428    1751.2618    2138.0596    2344.6164    211.61842    184.42138   -223.64864   -3965.9592 
19656000    134.09791    -4493.983   -4264.1437    -4493.983            0    1592.8509    17.929412    23.370564    22.014186    9224.3947    2523.5211    1038.6689    1216.3628    350.84522   -116.63326    1134.9389   -4049.8601 
19657000    136.10866   -4476.7998   -4243.5142   -4476.7998            0     2983.248    18.042199    23.276226    21.844772    9173.8062    2565.0208    3406.2354    2978.4878   -162.33751    138.86884    457.64234   -3844.3838 
19658000    141.37591   -4485.4899   -4243.1764   -4485.4899            0    2710.9623    17.798999     23.59572    21.850093    9176.6063    2983.5984    2818.8143    2330.4741   -178.17298    549.23962    210.61781   -3880.3646 
19659000    144.98325   -4488.5927   -4240.0963   -4488.5927            0    3082.4414    18.023236     23.18012    21.960214    9174.5552    2207.5481    4264.0612    2775.7149   -861.90182    542.76544   -741.96696   -3827.6611 
19660000    151.17071   -4480.2016   -4221.1002   -4480.2016            0    2204.3775    17.871807    23.504955    21.938265    9215.7385    3032.5186    1145.5716    2435.0423    948.10668   -259.95667   -303.03144   -3924.8272 
19661000    134.84326   -4487.3297    -4256.213   -4487.3297            0    1783.2909    17.975383    23.318608    21.982255     9214.102    1532.6267    2036.3558    1780.8902    224.64808    854.92766   -707.88658   -4016.5775 
19662000    138.06019   -4475.8188   -4239.1884   -4475.8188            0     2452.165    17.813411    23.212865    22.177038     9170.212     2324.852    2751.9676    2279.6755   -336.64859    174.19622   -437.37772   -3911.2404 
19663000    140.76865   -4476.2615   -4234.9889   -4476.2615            0    1531.2623    17.947158    23.385051    21.995144    9231.2561    1215.7803    1732.7867    1645.2199    -20.86932    78.290933    414.10533   -4028.8375 
19664000    140.10069   -4485.2461   -4245.1183   -4485.2461            0    2138.3622    18.032355    23.345626    21.849319    9198.0519    945.54449    1839.4765    3630.0658   -108.38255    -171.2133    141.02068   -3958.2695 
19665000    136.25089   -4470.2331   -4236.7038   -4470.2331            0    2216.2828    17.879669     23.58033    21.864486     9218.253    2554.9297    1908.8522    2185.0664   -1141.3383   -328.77166    80.353457   -3938.7495 
19666000    140.77347   -4469.2178   -4227.9369   -4469.2178            0    2294.0539    18.058298    23.172955    21.958614    9188.8921    2157.7366    1304.3362    3420.0888    -471.9622    134.95142     271.4424   -3920.5095 
19667000    135.38653   -4483.9591   -4251.9113   -4483.9591            0    2427.2351    17.772401    23.566018    21.940648    9189.2856    2597.6805    2329.5006    2354.5243    -511.0531    786.03339     374.0817   -3926.6222 
19668000    150.49273   -4474.7121   -4216.7727   -4474.7121            0    1280.6146    18.089661    23.290845    21.989141    9264.5418    703.05141    1480.2717    1658.5206   -593.42344    119.18654   -260.42331    -4043.744 
19669000    144.08933   -4466.0794   -4219.1153   -4466.0794            0    2714.4876    17.985558     23.20159    21.996341    9178.9313    3868.0541     2608.654    1666.7547    747.99896    162.39732    604.29583   -3855.7396 
19670000    147.72692   -4492.8873   -4239.6884   -4492.8873            0    1458.4777     17.94573    23.344266    21.996542    9215.0087    1811.8975    293.19226    2270.3432    217.28464   -371.69651   -359.12103   -4043.6815 
19671000    145.00339   -4490.1389   -4241.6081   -4490.1389            0     2511.863    17.908868    23.354315    22.010244      9205.77    2033.8171    2325.1679    3176.6041    -439.4261    278.26942   -299.30852   -3904.3736 
19672000     134.9392   -4475.3313   -4244.0501   -4475.3313            0    2936.2961    18.035884    23.303278    21.880657    9196.3356    1968.6306    4176.2203    2664.0375    524.67087   -23.564605    756.64212   -3850.2367 
19673000    140.38862   -4485.5939   -4244.9726   -4485.5939            0    2163.9805    18.008178    23.371569    21.857879    9199.5304    2730.6914     1637.969    2123.2813   -95.455659    230.05698   -199.93833   -3954.6406 
19674000    143.36599   -4492.8669   -4247.1425   -4492.8669            0    2309.7117    17.922945    23.398062    21.965872    9211.6559    1379.2881    2957.3091    2592.5378   -342.68948   -288.07761    284.91408   -3936.8499 
19675000    148.69074   -4485.6375   -4230.7866   -4485.6375            0    2501.0922    17.858401    23.417004    21.993363    9197.4096    3351.8384    1824.1903    2327.2479    443.24471    33.507419   -196.94699   -3895.3032 
19676000    140.28064   -4485.3749   -4244.9387   -4485.3749            0    2500.6769    18.028006    23.292542    21.943437    9214.4461    4527.4438    1824.1535    1150.4333    643.93483    34.790849    249.55446   -3908.8896 
19677000    150.98859   -4480.1752   -4221.3859   -4480.1752            0    2601.0833     17.93382    23.423196    21.850093    9178.5114     2181.762    2730.5941     2890.894   -155.11347    332.42761   -208.81042    -3873.207 
19678000    143.61004   -4470.9355   -4224.7928   -4470.9355            0    1550.2022     18.05017    23.206887    22.070996    9245.2808    1113.9402    1408.3066    2128.3598    427.91866   -282.42704    87.232685   -4015.7745 
19679000    143.10666   -4482.8086   -4237.5286   -4482.8086            0    2859.8809    17.765674    23.423882    21.996348    9153.5831    3115.9256    1969.3085    3494.4085    433.02522   -580.56741    150.73113   -3855.7471 
19680000    141.69071   -4483.7905   -4240.9374   -4483.7905            0    1414.4124    18.084959    23.323128    21.892212    9234.0872    1294.7766    1412.6092    1535.8516   -403.65518   -132.73579     504.9294   -4050.4589 
19681000     143.2948   -4478.3666   -4232.7642   -4478.3666            0    1342.1774    18.038375    23.319753      21.9618    9238.2412    1096.6135    875.92637    2053.9922    163.48669    470.44409    515.20052   -4051.9323 
19682000    152.55867   -4480.0455   -4218.5652   -4480.0455            0    2103.8239    17.848305    23.351606     22.07732    9201.5306    1872.9856    2855.3535    1583.1326   -995.18871    711.80953    185.66086   -3936.2427 
19683000    139.30414   -4487.7956   -4249.0331   -4487.7956            0    2840.4783    17.938508    23.300586    21.964231    9180.5597    2388.5371     3484.223    2648.6747   -498.76528   -263.43546   -254.68352   -3868.7241 
19684000    140.84755   -4488.3166   -4246.9087   -4488.3166            0    2342.4155    17.861925    23.502667    21.842842    9169.6881    3233.1994    2614.8736    1179.1734   -639.00523   -122.74033    85.728562   -3933.6563 
19685000    143.85232   -4469.2079     -4222.65   -4469.2079            0    3353.5147    18.034914    23.155333    21.977708    9177.9884    3602.7014    3770.9987    2686.8441   -70.345985   -564.21158    -25.84793   -3773.7769 
19686000    141.56811   -4469.4478   -4226.8049   -4469.4478            0     2523.408    17.858257    23.307567    22.023123      9166.74    1712.2596    3214.0446      2643.92    27.058562    416.07976    42.397676   -3889.4568 
19687000    132.95367   -4474.2713   -4246.3933   -4474.2713            0    787.01406    17.974849    23.469347    21.974459    9270.1006    1145.8543   -10.393444    1225.5814   -476.95764    60.926906    260.47582    -4139.993 
19688000    149.76913   -4478.1589   -4221.4597   -4478.1589            0    2033.2294    18.035514    23.264554    22.029966    9243.5135    991.34488    3358.4258    1749.9175    159.08591   -669.18508    135.60953   -3947.3658 
19689000    133.59393   -4483.2935    -4254.318   -4483.2935            0     3742.454    17.946566    23.332722    21.822505    9138.0043    3786.6272     3151.301    4289.4338    96.697764   -383.85437   -563.71714   -3755.5671 
19690000    149.50623   -4472.8239   -4216.5754   -4472.8239            0    1117.9189    17.992791    23.513018    21.897288    9263.9722    1385.8258    1690.0048    277.92615    -247.4432     99.28098   -516.86523   -4065.5383 
19691000    147.99612   -4486.0579   -4232.3976   -4486.0579            0    1267.8825    17.970846    23.334857    22.080835    9259.5348    2614.8124    1507.5576   -318.72265   -6.7402998   -25.388246    498.56451   -4061.1817 
19692000    141.18183   -4473.6511   -4231.6703   -4473.6511            0    3193.0457    17.811219    23.291396    22.067536    9154.6767    3239.9718    2990.9053    3348.2601    385.05782     17.90736    347.67947   -3805.3617 
19693000    145.98225   -4482.3745   -4232.1659   -4482.3745            0    2221.0961    17.836639    23.372152    22.030497    9184.0881    3133.2561    1567.4074    1962.6248     914.3417   -234.65241   -191.42177   -3934.6712 
19694000    139.26151   -4461.9384   -4223.2489   -4461.9384            0    2406.7268    18.005711    23.292969    21.926159    9195.9728    2429.3777    2848.1427      1942.66    713.25112    86.045671   -70.834801   -3900.4736 
19695000    147.14973   -4493.1087   -4240.8991   -4493.1087            0     1927.284     17.77788    23.563743    22.005601    9218.4415    3237.0351    1266.3234    1278.4933   -801.54965   -218.34523    103.51495   -3981.7922 
19696000    139.85109   -4477.0902   -4237.3902   -4477.0902            0    1510.0568    18.054945    23.222366    21.997913    9223.2531    903.37485    1724.9309    1901.8645    51.713426   -17.537747    378.30138   -4034.2699 
19697000    147.25942   -4488.3778   -4235.9802   -4488.3778            0    1514.9993    17.829093    23.576853    21.914579    9211.8788    2086.2841    936.00454    1522.7093   -268.31017     297.9928   -10.484622   -4032.4464 
19698000     145.9472   -4485.1799   -4235.0313   -4485.1799            0    2931.2316    18.039624     23.18143    21.927664    9169.8044     1595.724    3366.0621    3831.9086    218.76271   -277.02266    58.777585   -3843.0313 
19699000     153.0306   -4486.9784   -4224.6892   -4486.9784            0    2156.9833    17.988834    23.338103    21.963249    9220.7267    2166.8227    2686.9498    1617.1773    -513.8571   -420.74859   -378.98216   -3934.6292 
19700000    140.39184   -4482.3792   -4241.7524   -4482.3792            0    1520.8728    18.028759    23.474647    21.867496    9254.7347    1471.2266    1294.9445    1796.4471   -1101.5096  -0.98890595   -125.85072    -4036.479 
19701000     142.3978   -4478.7744   -4234.7094   -4478.7744            0    1750.3337    18.178418    23.281504    21.852902    9248.6053    734.39091    1902.4839    2614.1261   -112.13844    25.782151   -254.83697   -3998.6219 
19702000     140.6273   -4471.0756   -4230.0452   -4471.0756            0     3448.753    17.820048    23.471826    21.899014    9159.6806    2935.0472    3452.0354    3959.1764    128.02061    560.87508   -172.24091   -3769.3451 
19703000    139.22132   -4485.3001   -4246.6795   -4485.3001            0    2590.5589    17.974642    23.226969     22.01373    9190.6542    3465.4948    1769.7118    2536.4701    462.32641   0.22316446    108.41791   -3899.4507 
19704000     138.3135    -4489.066   -4252.0014    -4489.066            0    727.63753    17.959303    23.542894    22.015234    9308.3483   -505.71822    856.60256    1832.0282   -969.74412   -340.66064    269.77059   -4153.2226 
19705000    134.57853   -4486.5789   -4255.9159   -4486.5789            0    2422.4892    18.037338    23.327916    21.919872    9223.3019    1859.7302     1878.487    3529.2505   -546.47524      70.2407   -830.42355    -3930.061 
19706000    139.45143   -4488.3096   -4249.2946   -4488.3096            0    2302.6406    18.003536    23.319001    21.986665    9230.5402    2192.3233    2402.2518    2313.3466   -311.21816    -47.76093   -39.115274   -3939.3179 
19707000    142.93633   -4487.6415   -4242.6536   -4487.6415            0    1272.6836    17.901614    23.436236    22.049232    9250.6769    2352.8187    255.72705    1209.5051    344.09527   -218.73766   -202.40326   -4070.9537 
19708000    144.24776   -4477.7032   -4230.4675   -4477.7032            0     1201.852    17.978077    23.379392    21.985161    9240.7266    1127.3321    1587.7615    890.46227   -67.994105   -188.13969    422.52262   -4068.4981 
19709000    146.60129   -4495.6846    -4244.415   -4495.6846            0    1881.0153    18.003455     23.37814    21.963277    9244.0646    2808.5736    1286.7983    1547.6741    466.25928    308.59141    185.76835   -3990.8256 
19710000    146.80686   -4473.7027   -4222.0807   -4473.7027            0     949.0485    17.964746    23.363328    22.142378    9293.5162    1040.7408    903.36504    903.03961    596.21194    285.31038   -214.18026   -4093.4501 
19711000    140.90115   -4484.8014   -4243.3016   -4484.8014            0    2660.7914    17.986806    23.218694     22.02067    9196.4954    3363.4603    2154.6833    2464.2305    -514.3817   -810.83002    447.40488   -3886.4324 
19712000    144.29203   -4482.0599   -4234.7483   -4482.0599            0    2375.3399    17.963612    23.431154    21.879427    9209.2294    2074.8121    2703.6951    2347.5124   -312.43364     162.8178   -103.27465   -3915.7232 
19713000    150.13684   -4482.9716   -4225.6423   -4482.9716            0    1806.8588     18.07464    23.414426    21.821906    9235.1906    1012.1991    892.29455    3516.0828    82.671033    261.25041    346.20734   -3982.2841 
19714000    147.74907   -4493.9063   -4240.6694   -4493.9063            0    1665.4814    17.981626    23.473148    21.861175    9227.2821    1483.9712   -110.16904    3622.6419   -589.85874   -511.52554    462.07868   -4016.5449 
19715000    137.18942   -4504.6448   -4269.5069   -4504.6448            0    1109.0311    17.974702     23.35866    21.974636    9226.3798    392.47785    2148.1799    786.43568    115.91032    -179.4839    328.99438   -4120.2786 
19716000    140.32873   -4487.9008   -4247.3822   -4487.9008            0    1676.6884    18.054546    23.272364    21.946956    9221.4953    830.54141    2058.1407     2141.383   -555.34628   -595.86563     617.8405    -4021.891 
19717000     139.0838   -4491.8728    -4253.488   -4491.8728            0    1439.6894    17.798036    23.504483    22.074266    9234.4082     2324.017      726.309    1268.7422   -694.82214    482.02808   -141.88429   -4059.5987 
19718000     133.6453   -4461.8783   -4232.8148   -4461.8783            0    2592.2987    18.019405    23.193231    21.942729    9170.4862    1205.2904    2596.0217    3975.5838   -44.054662    13.946369    433.75045   -3886.1153 
19719000    141.15919   -4471.6407   -4229.6987   -4471.6407            0    2546.1852    17.933032     23.45614    21.817594    9177.3462    3041.0591     1499.881    3097.6157    811.75081   -571.20496    412.24082   -3888.9117 
19720000    137.13911   -4489.5809   -4254.5291   -4489.5809            0    2547.7361    18.010747    23.190694    22.008758    9192.6563    2317.6585    2546.5657     2778.984    75.579396   -199.70054    335.94415   -3912.9657 
19721000    141.83998   -4482.3468    -4239.238   -4482.3468            0    2272.9426    17.900569    23.287969    22.085492    9206.7326     3280.235    3284.4101    254.18269    171.85314   -232.76546    313.55392   -3934.0482 
19722000    141.88509   -4492.1767   -4248.9905   -4492.1767            0      1331.88    17.897975    23.520453    21.923504     9229.104    1380.1969    1012.4918    1602.9513   -208.20692   -484.20644    45.616363   -4069.7234 
19723000    138.54534   -4485.0153   -4247.5533   -4485.0153            0    1290.4525    18.156776     23.33084    21.832465    9248.5123    1623.9839      769.506    1477.8675    778.79492    295.75107    755.09138    -4073.497 
19724000      137.557    -4471.416    -4235.648    -4471.416            0    2079.0087    17.914225     23.48357    21.910316      9217.45    1967.4042    1349.5596    2920.0623   -985.54952    542.86426   -537.57686    -3956.173 
19725000    145.26098   -4499.4776   -4250.5052   -4499.4776            0    2318.7559    18.069124    23.275393    21.874586    9199.7061     1495.865    3943.7607    1516.6419     25.72741    194.33516   -918.92244   -3939.4018 
19726000    145.95833   -4487.7439   -4237.5763   -4487.7439            0    2434.6076    17.889831     23.35316    22.032727     9204.923    3668.8531    2760.8458    874.12391    199.37388   -99.630408   -136.95512    -3910.744 
19727000    150.94708   -4462.7533   -4204.0351   -4462.7533            0     2132.483    17.973036    23.263986    22.009485    9202.7038    1150.9231     2086.267    3160.2589   -506.60927   -27.178084     416.0107   -3917.8303 
19728000    144.17204   -4469.2082   -4222.1023   -4469.2082            0    1581.3337    17.984554    23.310557    22.081384    9257.1778    1936.9998    1864.2446     942.7567   -461.47186   -319.22265   -187.41359    -4008.612 
19729000     142.9724   -4470.2486   -4225.1988   -4470.2486            0    3499.1343    17.768858    23.414771    21.996044    9151.5365    2900.3456    3963.9465    3633.1109    589.33865    376.15572   -420.20794   -3758.1841 
19730000    146.59411   -4466.9038   -4215.6465   -4466.9038            0     2309.022    18.032222    23.270299    21.827563    9159.1772    2146.0022    2454.0625    2327.0012   -1018.5759    638.40768   -380.01645   -3907.2138 
19731000    144.12592    -4472.719   -4225.6921    -4472.719            0    3351.7027    17.967399    23.447671    21.755881    9165.6145    3571.4936    3085.3682    3398.2462    122.60932    392.39501    580.92615   -3777.6664 
19732000    143.11786   -4483.3407   -4238.0416   -4483.3407            0    2078.3207     17.96356    23.316697    22.041537    9232.1175    1444.1019    2237.2749    2553.5852   -382.10756    99.621757   -369.20365   -3958.2145 
19733000     138.7991   -4482.4471   -4244.5502   -4482.4471            0    3257.3765    17.867973    23.179307    22.145867    9172.0921    4350.1772    3677.2932     1744.659    591.25029    349.01166    181.59273   -3808.8254 
19734000    146.83251   -4480.1197   -4228.4538   -4480.1197            0    1655.7207    18.000157    23.538347    21.798278    9235.7987    1292.7095    1489.0558    2185.3968    190.13193    439.32857    312.97483    -4005.437 
19735000    136.35175   -4483.0959   -4249.3936   -4483.0959            0    2159.9072    18.013265    23.374158     21.87994    9212.4375     3105.156    1404.0757    1970.4899    183.84649    84.291012     175.2662   -3959.2016 
19736000    139.31727   -4479.3281   -4240.5431   -4479.3281            0    2783.2434    17.782135    23.404557    22.024878    9166.3799    3527.4113    2421.4327    2400.8863     571.3567    462.63791    342.82692   -3868.4728 
19737000    141.10352    -4482.859   -4241.0124    -4482.859            0    2355.3898    18.006112    23.132578    22.028845    9175.6261     3245.382    2758.8521    1061.9353    -60.93975    264.51692     323.8271   -3925.8209 
19738000    143.14123   -4473.8132   -4228.4741   -4473.8132            0    2721.1267     17.98862    23.418911    21.878046    9216.6492    3233.5315    1879.8707     3049.978     214.6465    -241.9701    543.98375   -3862.7128 
19739000    142.36143    -4479.276   -4235.2733    -4479.276            0    1754.9401    18.045738    23.385144    21.859479    9224.7477    1737.4017    1901.9902    1625.4284     560.3152    35.633407   -96.789482   -3999.1751 
19740000    137.51983   -4471.5385   -4235.8342   -4471.5385            0    1924.8087    17.946093    23.321417    22.024561    9217.9027    2143.6187     1251.486    2379.3214   -20.247134   -294.89977    402.32045   -3977.0751 
19741000    142.06245   -4493.8027   -4250.3125   -4493.8027            0    2977.4785    17.850118    23.432245    21.919372    9168.1795    2792.2922    2645.5752     3494.568   -84.043581   -107.76769    290.33217   -3852.1983 
19742000    135.60142   -4470.2191   -4237.8029   -4470.2191            0     2320.975    18.120593    23.142936    21.987654    9220.8241    2608.1269    3414.3285    940.46951   -246.12646    303.43724    20.491646   -3925.6869 
19743000    148.61142   -4474.1954   -4219.4805   -4474.1954            0    3018.0474    17.755795    23.552385    21.883106    9151.3247    3176.1344    2496.5328    3381.4751    554.20443    -412.2052   -189.78017   -3816.6838 
19744000    147.98669   -4484.6834   -4231.0393   -4484.6834            0    3251.5776    18.036998    23.242419    21.909498    9184.9756    2430.9133    4870.2507     2453.569   -1613.0018    762.63362   -726.97649   -3795.4792 
19745000    147.45484   -4475.2752   -4222.5427   -4475.2752            0    3042.4956    17.922905    23.327676    21.938653     9172.545    3876.8235    1816.2497    3434.4137    64.199671    71.614394   -570.96293   -3815.5415 
19746000    136.45408   -4473.4996   -4239.6219   -4473.4996            0    971.19301    17.934679    23.463084    22.017506    9265.0299    1257.2616    2093.3527   -437.03518    304.78621   -473.46564    1070.3975   -4108.3934 
19747000    138.20426   -4477.3548   -4240.4774   -4477.3548            0    2111.7572     17.84027    23.548018    21.924003    9210.3395    3046.2339    1832.9948    1456.0429   -289.93478   -202.48119    125.82214   -3956.8191 
19748000     145.9085   -4471.7125   -4221.6304   -4471.7125            0    2018.8254    17.980331    23.212437    22.081111    9215.9333    1614.8361     1728.705     2712.935    58.418745   -205.67419    381.88691   -3950.2903 
19749000    133.73736   -4482.2157   -4252.9945   -4482.2157            0     2385.673    17.864946    23.336444    22.069214    9200.7506     3430.563    1135.9882    2590.4677   -48.819678   -153.67727     507.8604   -3932.8765 
19750000    144.33681   -4462.8558   -4215.4675   -4462.8558            0    2388.1229    17.995125    23.364448    21.925947    9218.6806     2266.938    2485.4447    2411.9861   -684.03283   -306.76414    12.564328   -3894.3963 
Loop time of 415.79 on 64 procs for 250000 steps with 864 atoms

Performance: 103.899 ns/day, 0.231 hours/ns, 601.265 timesteps/s
193.2% CPU use with 32 MPI tasks x 2 OpenMP threads

MPI task timing breakdown:
Section |  min time  |  avg time  |  max time  |%varavg| %total
---------------------------------------------------------------
Pair    | 16.646     | 25.136     | 36.85      | 109.8 |  6.05
Bond    | 0.75509    | 1.0376     | 1.4769     |  17.3 |  0.25
Kspace  | 205.34     | 219.2      | 229.58     |  41.0 | 52.72
Neigh   | 0.86946    | 0.97656    | 1.0727     |   5.3 |  0.23
Comm    | 64.883     | 69.56      | 73.398     |  26.3 | 16.73
Output  | 0.55935    | 0.55979    | 0.56232    |   0.1 |  0.13
Modify  | 72.989     | 76.692     | 82.204     |  24.9 | 18.44
Other   |            | 22.63      |            |       |  5.44

Nlocal:        27.0000 ave          39 max          19 min
Histogram: 4 7 5 0 3 3 2 3 3 2
Nghost:        2137.75 ave        2233 max        2032 min
Histogram: 4 12 0 0 0 0 0 0 4 12
Neighs:        6590.41 ave        9494 max        4544 min
Histogram: 6 5 5 0 5 2 1 4 2 2

Total # of neighbors = 210893
Ave neighs/atom = 244.08912
Ave special neighs/atom = 2.0000000
Neighbor list builds = 3056
Dangerous builds = 0

unfix		3
unfix		2
unfix		1

write_data	data.final.${pid} nocoeff
write_data	data.final.1 nocoeff
System init for write_data ...
PPPM initialization ...
  extracting TIP4P info from pair style
  using 12-bit tables for long-range coulomb (../kspace.cpp:340)
  G vector (1/distance) = 0.37190882
  grid = 24 27 25
  stencil order = 5
  estimated absolute RMS force accuracy = 0.0031331963
  estimated relative force accuracy = 9.4355275e-06
  using double precision FFTW3
  3d grid and FFT values/proc = 4410 672
Last active /omp style is kspace_style pppm/tip4p/omp

write_restart   restart.lmp.${pid}
write_restart   restart.lmp.1
System init for write_restart ...
PPPM initialization ...
  extracting TIP4P info from pair style
  using 12-bit tables for long-range coulomb (../kspace.cpp:340)
  G vector (1/distance) = 0.37190882
  grid = 24 27 25
  stencil order = 5
  estimated absolute RMS force accuracy = 0.0031331963
  estimated relative force accuracy = 9.4355275e-06
  using double precision FFTW3
  3d grid and FFT values/proc = 4410 672
Last active /omp style is kspace_style pppm/tip4p/omp
Total wall time: 0:06:56
