LAMMPS (30 Jul 2021)
Processor partition = 1
  using 2 OpenMP thread(s) per MPI task
using multi-threaded neighbor list subroutines
variable        pid world 0 1
variable        phase world IceII IceVI

shell cd ${phase}
shell cd IceVI
include Restart.lmp
echo both
log log.lammps
#include		in.partitions
include		in.temp
variable        temperature equal 67.99
variable	tempDamp equal 100.0
include		in.pressure
variable        pressure equal 8457.5
variable        pressureDamp equal 1000.0 # This is 1 ps
include		in.seed
variable        seed equal 745823

units		real
atom_style	full
read_restart	restart.lmp.${pid}
read_restart	restart.lmp.1
Reading restart file ...
  restart file = 30 Jul 2021, LAMMPS = 30 Jul 2021
  restoring atom style full from restart
  orthogonal box = (0.10005923 0.024017410 7.4960032e-05) to (24.629942 24.705984 22.809925)
  4 by 4 by 2 MPI processor grid
  restoring pair style lj/cut/tip4p/long/omp from restart
  restoring bond style harmonic/omp from restart
  restoring angle style harmonic/omp from restart
  1920 atoms
  1280 bonds
  640 angles
Finding 1-2 1-3 1-4 neighbors ...
  special bond factors lj:    0        0        0       
  special bond factors coul:  0        0        0       
     2 = max # of 1-2 neighbors
     1 = max # of 1-3 neighbors
     1 = max # of 1-4 neighbors
     2 = max # of special neighbors
  special bonds CPU = 0.002 seconds
  read_restart CPU = 0.008 seconds
include 	in.setup
variable	out_freq equal 1000
variable	out_freq2 equal 10000
variable	out_freq3 equal 1000

timestep	2.0

neigh_modify    delay 7 every 1

include		in.tip4p
# This is TIP4P/Ice

# create groups ###
group ox type 2
640 atoms in group ox
group hy type 1
1280 atoms in group hy

# set charges - beside manually ###
set group ox charge -1.1794
Setting atom values ...
  640 settings made for charge
set group hy charge 0.5897
Setting atom values ...
  1280 settings made for charge

# ### TIP3P Potential Parameters ###
pair_style lj/cut/tip4p/long/omp 2 1 1 1 0.1577 8.5
pair_coeff 1 1*2 0.000 0.000
pair_coeff 2 2 0.21084 3.1668
bond_style  harmonic
bond_coeff  1 450 0.9572
angle_style harmonic
angle_coeff 1 55 104.52
kspace_style pppm/tip4p/omp 1.0e-5
pair_modify tail yes

thermo          ${out_freq}
thermo          1000
thermo_style    custom step temp pe etotal epair emol press lx ly lz vol pxx pyy pzz pxy pxz pyz enthalpy

restart 	${out_freq3} restart.lmp.${pid} restart2.lmp.${pid}
restart 	1000 restart.lmp.${pid} restart2.lmp.${pid}
restart 	1000 restart.lmp.1 restart2.lmp.${pid}
restart 	1000 restart.lmp.1 restart2.lmp.1


include         in.dump
dump            myDump all atom ${out_freq2} dump.water.${pid}
dump            myDump all atom 10000 dump.water.${pid}
dump            myDump all atom 10000 dump.water.1
dump            myDump2 all dcd ${out_freq2} dump.dcd
dump            myDump2 all dcd 10000 dump.dcd
dump_modify     myDump append yes
dump_modify     myDump2 append yes


variable natoms 	equal  "count(all)"                        # NUMBER ATOMS
variable H      	equal  "enthalpy/v_natoms"                 # ENTHALPY-per-atom
variable Vol      	equal  "vol/v_natoms"                 # volume-per-atom
fix AVG all 		ave/time ${out_freq} 1 ${out_freq} v_Vol v_H file vol_enthalpy.dat
fix AVG all 		ave/time 1000 1 ${out_freq} v_Vol v_H file vol_enthalpy.dat
fix AVG all 		ave/time 1000 1 1000 v_Vol v_H file vol_enthalpy.dat




fix 		1 all shake 1e-6 200 0 b 1 a 1
Finding SHAKE clusters ...
       0 = # of size 2 clusters
       0 = # of size 3 clusters
       0 = # of size 4 clusters
     640 = # of frozen angles
  find clusters CPU = 0.001 seconds
fix             2 all nph aniso ${pressure} ${pressure} ${pressureDamp}
fix             2 all nph aniso 8457.5 ${pressure} ${pressureDamp}
fix             2 all nph aniso 8457.5 8457.5 ${pressureDamp}
fix             2 all nph aniso 8457.5 8457.5 1000
fix             3 all temp/csvr ${temperature} ${temperature} ${tempDamp} ${seed}
fix             3 all temp/csvr 67.99 ${temperature} ${tempDamp} ${seed}
fix             3 all temp/csvr 67.99 67.99 ${tempDamp} ${seed}
fix             3 all temp/csvr 67.99 67.99 100 ${seed}
fix             3 all temp/csvr 67.99 67.99 100 745823


run             250000
PPPM initialization ...
  extracting TIP4P info from pair style
  using 12-bit tables for long-range coulomb (../kspace.cpp:340)
  G vector (1/distance) = 0.37543039
  grid = 30 30 30
  stencil order = 5
  estimated absolute RMS force accuracy = 0.0031554918
  estimated relative force accuracy = 9.5026698e-06
  using double precision FFTW3
  3d grid and FFT values/proc = 5400 960
Last active /omp style is kspace_style pppm/tip4p/omp
Neighbor list info ...
  update every 1 steps, delay 7 steps, check yes
  max neighbors/atom: 2000, page size: 100000
  master list distance cutoff = 10.8154
  ghost atom cutoff = 10.8154
  binsize = 5.4077, bins = 5 5 5
  1 neighbor lists, perpetual/occasional/extra = 1 0 0
  (1) pair lj/cut/tip4p/long/omp, perpetual
      attributes: half, newton on, omp
      pair build: half/bin/newton/omp
      stencil: half/bin/3d
      bin: standard
Setting up Verlet run ...
  Unit style    : real
  Current step  : 2500000
  Time step     : 2
Per MPI rank memory allocation (min/avg/max) = 10.56 | 10.57 | 10.57 Mbytes
Step Temp PotEng TotEng E_pair E_mol Press Lx Ly Lz Volume Pxx Pyy Pzz Pxy Pxz Pyz Enthalpy 
 2500000    71.639251   -9886.1457   -9613.0242   -9886.1457            0    9008.8195    24.529883    24.681966     22.80985    13810.126    10379.794    8827.9744    7818.6906   -125.82235   -270.97155   -39.757084   -7798.5892 
 2501000    68.061027   -9902.4752   -9642.9956   -9902.4752            0    8510.7902    24.699558    24.684143    22.658762    13814.762    8461.4654    8270.4907    8800.4145   -473.18777   -169.96569    78.337395   -7928.2915 
 2502000    68.632368   -9901.8088   -9640.1509   -9901.8088            0    8733.9238    24.604566     24.65207    22.758124    13804.019    8953.1141    8766.6306    8482.0268    20.278899    -564.3577     311.8534   -7881.8595 
 2503000    68.493809   -9906.6655   -9645.5359   -9906.6655            0    8094.8672    24.696531    24.651679    22.728056    13837.089    7386.1288    8132.7066    8765.7661   -503.84099   -354.38504    -41.42579   -8011.9937 
 2504000    68.044664   -9908.4944   -9649.0771   -9908.4944            0    8928.2188    24.668143    24.662861    22.672703    13793.778     9011.852     8653.049    9119.7554   -415.63568   -232.62613   -201.06944   -7853.0043 
 2505000    66.500337   -9895.9844   -9642.4548   -9895.9844            0     7336.305    24.696764    24.668831    22.760138    13866.394    7343.2257     7102.739    7562.9503   -392.86153    478.43315    177.04319   -8158.8549 
 2506000     69.55493   -9894.3313   -9629.1562   -9894.3313            0    8639.2748    24.640729    24.704313    22.689432     13811.79    8150.0879    8660.1415    9107.5949   -421.87351   -326.89138   -214.71492   -7888.9402 
 2507000     67.68469   -9903.8693   -9645.8244   -9903.8693            0     8149.013    24.601715     24.68119    22.778525    13831.111    7969.5055    8659.6273    7817.9063   -133.04592    -137.6045    144.20272    -8002.066 
 2508000    67.560917   -9906.8121   -9649.2391   -9906.8121            0    8344.0692    24.623153    24.737252    22.689512    13820.389    8576.8158    7739.5838     8715.808   -131.01252    237.67797   -130.26971   -7967.4402 
 2509000     71.85156   -9901.8203   -9627.8894   -9901.8203            0    8489.5669    24.688884    24.668587     22.68137    13813.859    8418.2658    8232.7917    8817.6433    12.208111    4.2876986   -152.34802   -7917.5731 
 2510000    68.397852   -9901.6155   -9640.8517   -9901.6155            0    8054.4964    24.657069    24.685405    22.743046    13843.003    7668.4168    8640.8996    7854.1729   -52.261853   -204.81373     209.8501   -8014.7616 
 2511000    66.732661   -9899.5201   -9645.1048   -9899.5201            0    8199.8478    24.732579    24.678956    22.663963    13833.499    7993.0838    7840.7728    8765.6869    308.69638   -115.69585   -124.36629   -7990.8069 
 2512000    69.219788   -9893.6738   -9629.7764   -9893.6738            0    8325.0268    24.694771    24.616295     22.75082    13830.082    7909.8261    8580.3551    8484.8991   -441.18789   -111.19602    690.43614   -7950.6389 
 2513000    67.581444   -9891.9902   -9634.3389   -9891.9902            0    8451.8374    24.664661    24.673999    22.718675    13826.036    8334.4135    8769.7925    8251.3063   -551.96879   -531.59067     16.09371   -7930.1226 
 2514000    64.588921   -9905.2927   -9659.0503   -9905.2927            0     7350.886    24.758153    24.646902    22.725848     13867.58    6402.8537    7945.0077    7704.7968    19.116605   -771.07612    407.26488   -8172.3745 
 2515000    67.107249   -9896.4601   -9640.6167   -9896.4601            0    8947.2712    24.621843    24.599878    22.779331    13797.311    9551.2871    8761.6023    8528.9243   -703.32309    -141.7543   -296.28061   -7840.2501 
 2516000    70.707721   -9906.9404   -9637.3703   -9906.9404            0    8513.3604    24.708331    24.658719      22.6542    13802.656    7830.9519     8739.137    8969.9923   -226.26867    -53.98156   -265.14391   -7923.6515 
 2517000    69.126509   -9905.7358   -9642.1941   -9905.7358            0    7962.9037    24.603165    24.667689    22.802273    13838.773    8736.7691    7684.6429    7467.2992   -304.22376   -396.16851    281.85963   -8035.0865 
 2518000    65.911468   -9901.1939   -9649.9093   -9901.1939            0    8606.4296    24.658532    24.704737    22.676931    13814.391     8985.586    7916.9283    8916.7744    537.16193   -844.16004   -693.95029    -7915.983 
 2519000    68.586348   -9908.1847   -9646.7022   -9908.1847            0    8252.9777      24.6729    24.661921      22.7154    13821.892    8150.9825    8266.0945    8341.8559   -253.71269   -425.71753    3.8401788   -7983.0826 
 2520000    68.659962   -9909.5584   -9647.7954   -9909.5584            0    8115.8952    24.608926    24.661479    22.778058    13823.833    8740.9451    8155.3717    7451.3689   -509.28771    -260.3121   -147.29738   -8011.5787 
 2521000    69.098722   -9912.5498   -9649.1139   -9912.5498            0    7858.5267    24.617824    24.741576    22.715333     13835.54     8180.834    7371.2936    8023.4525   -812.97791    250.88804    608.35795   -8063.4427 
 2522000    70.777382   -9901.8838   -9632.0481   -9901.8838            0    8254.5649    24.676574    24.742655    22.633253    13819.048    8707.2072    7240.1526    8816.3348   -542.50738    -68.12465   -142.67715   -7968.4508 
 2523000    65.961354   -9906.3613   -9654.8865   -9906.3613            0    8086.1235    24.628728    24.670073    22.751138    13823.422    7898.5317    8731.3898    7628.4491   -228.63258   -701.13105    -319.2682   -8024.7206 
 2524000    71.231951   -9894.5342   -9622.9655   -9894.5342            0    8465.0783    24.611521    24.721131    22.714336    13819.962    9013.7818    8076.4551     8304.998   -513.61464    87.225906    50.384598   -7916.8293 
 2525000    68.299517   -9904.6196   -9644.2307   -9904.6196            0    7972.0723    24.682651    24.691705    22.711083    13841.423    7570.6539    7743.7773    8601.7859    43.835594    601.64024    310.54897   -8034.9646 
 2526000    67.284797   -9890.8686   -9634.3483   -9890.8686            0    8178.1465    24.646108    24.665476    22.763455    13838.086    8301.0074    8466.2123    7767.2197   -309.88937   -209.38789    549.93595   -7983.8815 
 2527000    67.808801   -9896.5208   -9638.0027   -9896.5208            0    9073.8222    24.678421    24.674093     22.65006    13792.021    8743.0812    8862.6152    9615.7703   -33.700294   -501.59802    468.61538   -7812.8716 
 2528000    69.673728   -9914.4243   -9648.7963   -9914.4243            0    8209.9515    24.591923    24.757532    22.697476    13819.025    9292.0349      7309.09    8028.7296   -79.790606    170.89728    -151.6816   -7994.1929 
 2529000    67.030796   -9903.4528   -9647.9008   -9903.4528            0    8268.0463    24.612445    24.711309     22.73343    13826.602    8904.2818    7900.8671    7998.9902   -182.69272     277.5549     432.2104   -7980.6756 
 2530000    68.818071   -9894.4768   -9632.1109   -9894.4768            0    8451.2064     24.61956    24.655561    22.757916    13814.262    8825.3507    8459.7495     8068.519   -378.46431    17.185261   -45.213349   -7929.4731 
 2531000     70.24078    -9901.311   -9633.5212    -9901.311            0    8059.5738    24.724469    24.617491    22.741856    13841.931    7192.0725    8561.8663    8424.7828    155.69165    111.75691    303.93627   -8006.5321 
 2532000    70.348278   -9894.6098   -9626.4101   -9894.6098            0    9111.8372    24.666661    24.638385    22.677382    13782.104     8630.629    9591.0598    9113.8227    -133.3822    225.20175    571.82358   -7794.9504 
 2533000    67.714619   -9896.8717   -9638.7127   -9896.8717            0    8272.4965    24.684356    24.653254    22.735586    13835.734     7657.309      8720.41    8439.7706    223.98094   -174.54996    71.933109   -7969.4885 
 2534000     66.72828   -9905.4848   -9651.0861   -9905.4848            0    8439.6552    24.691065    24.663732    22.677184    13809.811    7862.8315    8834.9268    8621.2072    108.49985    -259.5892     -275.764   -7951.3233 
 2535000    66.110908   -9901.3192   -9649.2743   -9901.3192            0     9718.762    24.580883    24.644113    22.723185    13765.116    10227.652     9406.653    9521.9809   -10.430147    229.94745    651.93955   -7698.2318 
 2536000    66.982045   -9899.4052   -9644.0391   -9899.4052            0    7897.1355    24.623227    24.730395    22.720186    13835.278    8230.0235    7628.5475    7832.8354   -226.67161    210.63974    182.64426   -8050.6077 
 2537000     68.08008   -9905.2353    -9645.683   -9905.2353            0    7826.1376    24.688938    24.688127    22.705476    13839.525     8412.238    7642.6857    7423.4892   -14.435969   -478.48165   -525.53616   -8066.0924 
 2538000    70.168487   -9901.9575   -9634.4433   -9901.9575            0    8352.0788    24.657255    24.631902    22.752582    13818.897     8075.389    9106.0677    7874.7795   -315.41679    63.466655   -107.90861   -7951.2118 
 2539000    68.658509   -9914.0526   -9652.2951   -9914.0526            0    7652.0698    24.702259    24.678048    22.721029    13850.819    8013.1266    7432.8467    7510.2361   -321.07134   -896.31522    236.04146    -8106.577 
 2540000    66.257476   -9894.2884   -9641.6847   -9894.2884            0    8967.3984    24.736663    24.633037    22.644285    13798.049    7716.4656    9977.9152    9207.8143   -211.71282    56.744513    47.797898   -7837.1715 
 2541000    67.227284   -9911.9487   -9655.6476   -9911.9487            0    8418.2157    24.611204    24.686181    22.737638    13814.403    8808.5855    7831.4304    8614.6313    147.61412   -56.357359    354.02037    -7959.639 
 2542000    68.902743   -9905.7004   -9643.0117   -9905.7004            0    8449.4927    24.657448     24.69223    22.694007    13817.186    8200.6273    8439.1714    8708.6793    356.86052   -872.60978   -110.78704   -7940.3588 
 2543000    67.494499   -9893.8777   -9636.5579   -9893.8777            0    8874.6153    24.568505    24.721808    22.734206    13808.254    9584.5898     8431.745     8607.511   -3.4011192   -262.54128    -466.6569   -7849.3948 
 2544000    68.474758   -9900.5991   -9639.5421   -9900.5991            0    8324.2025    24.671021    24.704829    22.674893    13820.196    7940.7903    8167.6248    8864.1922   -401.06204   -407.82684    -516.8574   -7961.7708 
 2545000    65.095119   -9905.9973   -9657.8251   -9905.9973            0    8830.8703    24.620447     24.64035    22.754058    13803.896     8819.217    8674.1995    8999.1943    91.455776    537.50031    191.53356   -7880.0326 
 2546000    67.476104   -9886.2338   -9628.9842   -9886.2338            0    8310.2172    24.639268    24.777257    22.647682    13826.262    8794.3319    7434.4606    8701.8592    107.63228   -676.70772   -51.636472   -7953.2966 
 2547000    69.062935   -9912.6852   -9649.3858   -9912.6852            0    8153.6032    24.686624    24.653806    22.719184    13827.332    7875.5969    8167.6217    8417.5908   -273.30053   -230.29766    528.85268    -8005.151 
 2548000    66.285506   -9901.5878   -9648.8772   -9901.5878            0     7029.022    24.690624    24.673991    22.784225    13880.519    6834.4976    7407.9267    6844.6417     10.31555   -25.368722   -55.686465   -8225.9702 
 2549000    68.332196   -9894.2453   -9633.7318   -9894.2453            0    8675.6041    24.666891    24.654326    22.704764    13807.802    8282.5541    9157.6097    8586.6486   -196.81603   -880.52587    497.80759   -7886.7026 
 2550000    69.388647   -9901.3979   -9636.8567   -9901.3979            0    7563.4811    24.613388    24.733392    22.758411    13854.697    8516.2372    6594.8096    7579.3965     248.3129   -535.40594   -344.08296   -8108.6059 
 2551000    67.486363    -9892.273   -9634.9842    -9892.273            0    9259.8295    24.618518    24.728009    22.630014    13776.404    9389.6846    8597.5279    9792.2761   -5.1664559   -234.39418    24.612133    -7774.548 
 2552000    67.117182   -9895.6224   -9639.7411   -9895.6224            0    8806.0795      24.6102    24.702139    22.695525    13797.167    8937.6441    8123.9221    9356.6725   -779.76312   -256.07017   -282.05572   -7867.8035 
 2553000    67.456791   -9902.4938   -9645.3177   -9902.4938            0    7852.4675    24.671819    24.678035    22.753833    13853.717    8104.5744    7913.0435    7539.7847    129.43109   -169.59521    392.05016   -8058.7875 
 2554000    69.043688   -9898.0614   -9634.8354   -9898.0614            0    9301.7561    24.677431     24.65161    22.665962    13788.576    8642.7445    9834.0875    9428.4362    97.470972    59.432881   -105.14507   -7764.3245 
 2555000    69.290741   -9899.0076   -9634.8396   -9899.0076            0    8091.4635    24.682631    24.640185    22.751567    13837.153    7815.1746    8354.2074    8105.0083    -148.6205   -546.59553    216.79328   -8001.9768 
 2556000     70.42817   -9900.9285   -9632.4242   -9900.9285            0    8294.8289    24.754206    24.654097    22.646703    13821.115    8078.6908    8348.1802    8457.6157    -58.41588   -1161.2348    221.83898   -7960.4622 
 2557000    67.419457   -9897.1258   -9640.0921   -9897.1258            0    8792.2253    24.666923    24.657471    22.699024     13806.09      8354.65    9049.6609     8972.365   -141.70464   -100.22017   -160.22582   -7869.7981 
 2558000    65.732808   -9898.0719   -9647.4685   -9898.0719            0    8184.8353      24.6679    24.635888    22.769686    13837.494    8429.6375    8703.7426    7421.1259    30.345187    681.79683    126.88913   -7995.7224 
 2559000    68.643508     -9901.12   -9639.4197     -9901.12            0    8897.3453    24.705485    24.646258    22.668412    13802.745     7968.891    9334.9295    9388.2154   -629.00576   -78.840714    179.76969    -7848.394 
 2560000    65.711547   -9905.6326   -9655.1103   -9905.6326            0    8414.4659    24.648469     24.66395    22.728619    13817.378    8592.0418    7778.2921    8873.0638   -115.86387   -133.89769    148.30792    -7959.492 
 2561000    68.687162   -9909.7465   -9647.8797   -9909.7465            0     8571.792    24.681944    24.654447    22.675643    13798.575    8178.9456    8576.5698    8959.8607   -377.80684   -43.241016   -194.99583   -7922.9089 
 2562000     69.45995   -9910.3797   -9645.5667   -9910.3797            0    7884.5696    24.623372    24.682918    22.768289    13838.035    8421.6593     7724.747    7507.3026    42.531598   -356.04918    185.10047   -8054.3537 
 2563000    68.359421   -9892.7209   -9632.1036   -9892.7209            0    8377.2136    24.634482    24.673938    22.761559    13835.151     8907.377    7986.7294    8237.5344   -740.97572   -462.93593    268.22139   -7941.8208 
 2564000    69.304167   -9905.0517   -9640.8326   -9905.0517            0    7889.1691    24.695772    24.697128    22.685036    13835.936     7899.368    7835.4675    7932.6719   -542.16523   -497.21112    207.12547   -8048.9329 
 2565000    65.761918   -9904.6524    -9653.938   -9904.6524            0    8284.9184    24.600851    24.697351    22.738483    13815.353    9134.1803    8010.1991    7710.3759   -657.47439   -181.55507    390.55857   -7984.6698 
 2566000    72.054668   -9897.5484   -9622.8431   -9897.5484            0    8778.0487     24.63216    24.673585    22.714628    13805.127    8643.6819    8776.3958    8914.0685     97.30987   -288.02989    376.22274   -7855.5269 
 2567000    67.606705   -9908.5365    -9650.789   -9908.5365            0    8770.2576    24.565077    24.731697    22.717648     13801.79    9497.9564    7963.6095     8849.207    569.59078    281.01975    398.24682    -7885.468 
 2568000    67.375537   -9908.5125   -9651.6462   -9908.5125            0    8424.2819    24.611088    24.696052    22.731188    13815.941    8008.7506    8673.0481     8591.047   -458.91099   -36.485431   -416.90167   -7954.2264 
 2569000    66.496372   -9906.9863   -9653.4718   -9906.9863            0    8434.9038    24.621746      24.6686    22.743501    13814.039    9030.0678    8206.6371    8068.0066   -68.825824   -373.18589    78.058527   -7954.1458 
 2570000    67.296217   -9904.3127   -9647.7489   -9904.3127            0    8772.3445    24.646493    24.723153    22.655737    13805.024    8680.1393    8673.9544    8962.9398    87.824682   -522.77587   -613.49643   -7881.5941 
 2571000    68.434867   -9901.5618   -9640.6569   -9901.5618            0    8277.9136    24.612745    24.673553    22.773686    13830.093    8455.6325    8016.8199    8361.2886    122.46434    261.25836   -660.94984   -7971.0206 
 2572000    70.190607   -9899.6658   -9632.0672   -9899.6658            0    9323.3689    24.634246    24.690389    22.668685    13787.754    9524.5982    8701.1555    9744.3531   -484.80532    51.331592   -62.748349   -7757.3219 
 2573000    67.553531   -9917.1086   -9659.5637   -9917.1086            0    8349.5337     24.66604    24.669178     22.69184    13807.778    8059.1149    8714.5403    8274.9459   -631.86819   -48.194854    631.13251    -7978.199 
 2574000    69.651389   -9902.5346   -9636.9917   -9902.5346            0    8206.8603    24.639247    24.683616    22.740731    13830.587    8671.9884     7939.438    8009.1544    231.41607   -427.93378   -291.31079   -7981.6276 
 2575000    69.300038   -9898.4464    -9634.243   -9898.4464            0    7773.1697    24.662631    24.761482    22.663632    13840.301    7620.8328    7123.5766    8575.0995   -701.64555     -43.0532    -115.1297   -8065.2552 
 2576000     66.63178   -9893.9045   -9639.8738   -9893.9045            0    8802.7398    24.605656    24.705095    22.710323    13805.266    9182.9434    8467.3083    8757.9678   -366.59084   -950.05685    448.15075   -7867.5685 
 2577000    66.431147   -9902.7502   -9649.4844   -9902.7502            0    8934.0862     24.54007     24.68901    22.769726    13795.495    10202.275    8133.9656    8466.0178    192.35418   -163.24864    78.589092   -7852.0075 
 2578000     68.46142   -9894.3296   -9633.3234   -9894.3296            0    7959.6312    24.669783     24.69175     22.70872    13832.792    8007.3423    8057.4437    7814.1076   -483.49998    492.28226   -133.01372   -8027.5706 
 2579000     67.64333   -9903.3823   -9645.4951   -9903.3823            0    8878.7312    24.692556    24.620735    22.697579    13798.968    8056.7036     9987.287    8592.2032   -29.112447   -592.24994    217.92354   -7858.7055 
 2580000    67.181144   -9895.5076   -9639.3824   -9895.5076            0    8859.4963    24.601856     24.69187    22.717483    13800.095    9039.5644    8923.2371    8615.6873   -671.51783   -182.00906    329.03476   -7856.3182 
 2581000    71.934536    -9908.207   -9633.9598    -9908.207            0    8239.1954    24.641048    24.716749    22.700055    13825.391    8319.4725    7982.1227     8415.991   -441.45126    843.05356    345.26384   -7972.6978 
 2582000    66.739561   -9902.2813   -9647.8397   -9902.2813            0     7550.345    24.622524    24.730743    22.746984    13851.396    8189.2091    7151.5072    7310.3187   -40.616806    83.068424    358.36197   -8122.6065 
 2583000    67.396225   -9914.6331   -9657.6879   -9914.6331            0    8220.3259    24.669907    24.666081    22.719732    13825.183    7692.4088    8529.5896    8438.9793    -553.4248   -374.51826    704.56891   -8000.2556 
 2584000    68.789169   -9888.1912   -9625.9355   -9888.1912            0    9406.1762    24.673578    24.629122    22.683844    13784.712    8770.4138    9702.2958    9745.8189   -450.88218    -134.3192    156.32141   -7734.9565 
 2585000    67.130926    -9900.277   -9644.3433    -9900.277            0    8555.4183    24.681745    24.691515    22.661374    13810.514    7645.9535    8994.6245    9025.6769   -393.71514   -634.48981   -145.80715   -7921.1779 
 2586000    65.170338   -9886.1008   -9637.6418   -9886.1008            0    8737.9387    24.565232    24.690744    22.765613    13808.115    9565.3941    8331.0192    8317.4028   -552.25882    480.53161   -442.08777   -7878.0202 
 2587000    67.506475   -9892.1003   -9634.7349   -9892.1003            0    9242.9727    24.689729    24.635671    22.656983    13781.066    8286.8265    9912.8271    9529.2647   -634.92164   -318.57049    115.80803   -7777.0572 
 2588000    68.294548   -9894.4602   -9634.0903   -9894.4602            0    8434.5645    24.640024    24.667892    22.756325    13831.692    8940.2338     8202.587    8160.8727    221.20585    -310.6503    330.83159   -7932.6612 
 2589000    65.008119   -9902.9472   -9655.1066   -9902.9472            0     8631.628    24.658593    24.682314    22.676264     13801.48    8304.9293    8824.9827    8764.9721   -34.035706    10.425747    438.62616   -7917.7287 
 2590000    68.130447   -9893.7492   -9634.0049   -9893.7492            0    8901.6904    24.673294    24.614595    22.721738    13799.437    8560.9926    9551.3044    8592.7742   -215.94584   -227.25181   -484.95972    -7842.534 
 2591000    65.165793   -9902.6286   -9654.1869   -9902.6286            0    7830.2361    24.666908    24.655882    22.773049    13850.213    7658.7051    8431.4696    7400.5336   -559.09033    -253.4048    625.13094   -8072.5485 
 2592000    70.370373   -9908.5186   -9640.2346   -9908.5186            0     8108.128    24.664224    24.725988    22.662014    13820.369    8278.6334    7904.8153    8140.9351   -506.17048    290.43039    338.20956   -8005.9936 
 2593000    68.481533   -9900.4389   -9639.3561   -9900.4389            0     8436.451    24.607322    24.648943    22.784065    13819.549    8782.8104    8726.0722    7800.4704    75.399817   -158.19444    412.02946   -7939.0405 
 2594000    67.565013     -9898.41   -9640.8214     -9898.41            0    8744.9729    24.607876    24.680662    22.733758    13807.091    8840.6346    8543.5445    8850.7396   -319.15867   -690.41658    727.49947   -7879.9139 
 2595000    68.158042   -9917.2294   -9657.3799   -9917.2294            0    8822.6816    24.646995    24.710764    22.650992    13795.498    9223.8031    8181.4223    9062.8194    -393.3147    163.70603    118.49606   -7882.3165 
 2596000     67.59188   -9903.1229   -9645.4318   -9903.1229            0    8021.3021    24.666757    24.652068    22.762069    13841.308    7746.4303    8527.8897    7789.5862   -278.36147   -319.56873   -155.21732   -8026.2415 
 2597000     69.19276   -9893.6187   -9629.8243   -9893.6187            0    9419.5387    24.605617    24.733955    22.624047    13768.864    9887.7562    8201.4668    10169.393   -94.091531   -53.536806    247.98961   -7738.3361 
 2598000     67.05828   -9916.4444   -9660.7877   -9916.4444            0    7741.9332    24.671378    24.697085    22.720292    13843.727    7983.0974    7166.2564     8076.446   -160.13001    175.72817   -342.15838   -8097.7181 
 2599000    70.222039   -9903.8574    -9636.139   -9903.8574            0    8868.3474    24.608935    24.707447    22.703874      13804.5    9095.3355     8471.972    9037.7346    -376.9666   -288.49795    80.473548   -7850.7237 
 2600000    67.191952    -9908.854   -9652.6876    -9908.854            0    8239.0547    24.641157    24.617875     22.78438    13821.299    8070.3218    8931.9203    7714.9222    1.4797546   -444.19803      389.334   -7991.9457 
 2601000    67.791844    -9906.112   -9647.6586    -9906.112            0    8118.2985    24.674289    24.691118    22.693362    13825.608    8047.2471    8326.7272    7980.9211   -292.19904   -312.37038    351.10828   -8010.7473 
 2602000    69.562269   -9899.6605   -9634.4574   -9899.6605            0    8721.8802    24.697206    24.728982    22.603845    13804.999    8617.7255     8245.073    9302.8423   -6.4407355   -559.59558    41.290541    -7878.466 
 2603000     69.76801   -9906.6769   -9640.6894   -9906.6769            0    7746.3316    24.607403    24.685634    22.787066    13841.988    8591.0765    7972.4582    6675.4603   -361.05676   -543.86354   -193.11479   -8076.9281 
 2604000    69.401133   -9908.1153   -9643.5266   -9908.1153            0    8564.9414    24.723956    24.724781    22.585415    13806.338    7773.8909    8725.7226    9195.2107   -76.421622    -149.8007   -435.98753   -7918.9647 
 2605000    69.538966   -9905.6409   -9640.5267   -9905.6409            0    8152.9127    24.675254    24.687709    22.709562    13834.109    8228.0063    8095.1524    8135.5794   -319.74601     -192.384    122.22976   -7995.6253 
 2606000    68.317323   -9909.7399   -9649.2831   -9909.7399            0    8651.3112    24.589216    24.680236    22.763773    13814.597    8884.8917    8960.6366    8108.4053   -409.72421   -71.796092    159.84593   -7906.2885 
 2607000    67.372343    -9898.575   -9641.7209    -9898.575            0    8237.3844    24.656605    24.698606    22.704098    13826.427    8198.9298    7982.3704    8530.8529    -382.0334    269.79709   -628.38823   -7980.6996 
 2608000    68.608822   -9904.2804   -9642.7123   -9904.2804            0    8658.6288    24.642069    24.682665    22.700554    13807.202    9335.5212    8178.9118    8461.4533   -418.90613   -878.15521    478.13633   -7899.1772 
 2609000    66.798267   -9903.0229   -9648.3574   -9903.0229            0      7922.23    24.640986    24.719075    22.731369    13845.731     7676.858    7443.1786    8646.6533    109.42114    97.481546    311.84413   -8048.6549 
 2610000    67.637117   -9906.6335   -9648.7699   -9906.6335            0    9214.3553    24.603108    24.699568    22.690067    13788.439    9542.2048    8984.0611    9116.8001    315.86757   -635.27297   -94.609508    -7795.853 
 2611000    68.786708   -9908.5646   -9646.3183   -9908.5646            0    7459.3189    24.643637    24.743871      22.7327    13861.923    7929.6771    6803.2139    7645.0656   -157.68969   -98.620183    120.54189    -8138.328 
 2612000    68.999573   -9898.4282   -9635.3704   -9898.4282            0    9056.7724     24.60187    24.664546    22.734138    13794.937    9209.1243    9246.7145    8714.4785   -499.68693    31.503023    329.47677   -7813.2835 
 2613000    70.241852   -9910.3574   -9642.5634   -9910.3574            0    8096.2107    24.613282    24.761249     22.72032    13847.026    8477.1696    7324.9742    8486.4883   -276.27254    -560.1013    310.05569   -8007.5768 
 2614000    71.381275   -9896.9625   -9624.8245   -9896.9625            0    8879.9352    24.632842    24.702715    22.686236    13804.531     8742.723    9232.2223    8664.8602    334.99579    411.30392   -125.57884   -7837.0722 
 2615000    71.620048   -9899.0129   -9625.9646   -9899.0129            0    8872.9162     24.59426    24.677269    22.734987      13798.3    9071.7326    8984.5466    8562.4693   -269.19297    -23.32222     42.00194   -7840.4317 
 2616000    67.084464   -9912.3127   -9656.5561   -9912.3127            0    7405.6749    24.697728    24.676462    22.745503    13862.304    6925.1445     7608.624    7683.2561   -245.34133   -378.98445    344.23338   -8159.3694 
 2617000    65.373493   -9906.5054   -9657.2718   -9906.5054            0    8315.1803    24.639175    24.681631     22.73821    13827.902     8315.449    8355.9885    8274.1035   -72.234467   -366.36592    454.38911   -7980.3846 
 2618000    68.186292   -9916.8445   -9656.8873   -9916.8445            0    8285.9753    24.635738    24.732853    22.688495    13824.374    8520.1352    7760.9228    8576.8681     156.5847    -985.1607    243.82384    -7986.316 
 2619000    66.778476   -9897.5495   -9642.9595   -9897.5495            0     8414.211    24.677013    24.693402    22.685449    13823.591    8088.8572    8288.6524    8865.1236   -768.50962    342.47353   -320.83207   -7946.6301 
 2620000    64.925324   -9892.6213   -9645.0964   -9892.6213            0     9001.464    24.612052    24.656204    22.746195    13803.296     9681.808    8627.8985    8694.6856   -167.70932   -475.84654    695.71537   -7833.0394 
 2621000     69.21589   -9910.4076   -9646.5251   -9910.4076            0    8811.5679    24.643079      24.6567    22.711546    13799.921    9002.0809    8523.4887    8909.1342   -273.32054   -224.09712    133.59644   -7873.1292 
 2622000    69.690795   -9899.9327   -9634.2396   -9899.9327            0    8620.0568    24.679921    24.611559    22.738874     13811.85    7535.3906    9877.0763    8447.7035    189.98235     486.4719    412.82987   -7897.8872 
 2623000    68.903211   -9913.1912   -9650.5007   -9913.1912            0    8505.0817    24.695036    24.696613     22.64401    13810.214    8274.0075    8111.1752    9130.0624   -37.673658    229.27405    755.40185   -7937.5109 
 2624000    68.992917   -9892.8588   -9629.8264   -9892.8588            0    8786.5418    24.631468    24.588437    22.805353    13812.046    9113.8547     9689.035    7556.7356    675.24188   -175.81484    283.64704   -7859.9135 
 2625000    68.697502    -9891.203   -9629.2968    -9891.203            0     8506.631    24.654001    24.720257    22.665172    13813.362    8419.3931    8125.3822    8975.1178    239.20475    333.45986   -207.81454   -7915.6043 
 2626000     67.47986   -9900.7773   -9643.5133   -9900.7773            0    8228.4008    24.653382    24.728831     22.68702    13831.126    8554.5984    7683.4932    8447.1109    185.21942    119.29117    586.43015   -7983.7396 
 2627000    68.443171   -9896.8461   -9635.9095   -9896.8461            0    8984.9524    24.603868    24.672911    22.730024    13798.239    9186.3815    8728.5272    9039.9485   -187.09704   -147.64438   -711.34973   -7827.8391 
 2628000    68.602848   -9908.3649   -9646.8195   -9908.3649            0    8574.5269     24.63172    24.695149    22.706089     13811.75     8900.392    8418.3058     8404.883    280.23635   -277.55505    231.98554   -7919.6507 
 2629000    68.776227   -9902.0701   -9639.8637   -9902.0701            0    8809.9739    24.663099    24.645134    22.714773    13806.616    8804.3607    8808.9347    8816.6264   -21.060904   -506.67023    683.22088   -7865.9285 
 2630000    67.289375   -9909.6477   -9653.1099   -9909.6477            0    8399.2104    24.575902    24.634395    22.833352    13823.596    8412.7881     8738.466    8046.3772    83.048713   -239.47952    36.112283   -7959.8042 
 2631000    65.821992   -9898.1792   -9647.2357   -9898.1792            0     8893.944    24.650125    24.674805    22.678831    13794.105    8981.0097    9200.7845    8500.0379    374.18883   -127.09587   -708.90248   -7858.0155 
 2632000    68.140111   -9906.3908   -9646.6096   -9906.3908            0    8303.5952    24.715555    24.609907    22.730215    13825.597    8049.5593    8891.4473    7969.7789    154.21766   -254.66951    562.74845   -7972.3378 
 2633000    65.717062   -9900.8493   -9650.3059   -9900.8493            0    8093.9313    24.657048    24.652531    22.771428    13841.809    7929.0807    8237.0361     8115.677    415.22695   -442.01695   -408.93072   -8016.3954 
 2634000    66.141291   -9905.1309   -9652.9701   -9905.1309            0    8479.9563    24.713457    24.646942     22.67357    13810.724     7739.861    9204.6745    8495.3335   -309.33091    335.38679    462.06931   -7944.9777 
 2635000    66.014326   -9909.9667     -9658.29   -9909.9667            0     7762.801    24.685054    24.675629    22.720876    13839.723    8215.3394     7393.557    7679.5065   -218.33697    297.92266    408.52942   -8091.4604 
 2636000    69.690708   -9906.6596   -9640.9668   -9906.6596            0    8819.7184    24.642919    24.650592    22.717098    13799.786    9237.1472    8617.6489    8604.3589    738.89309    163.67086    93.542281    -7865.948 
 2637000    66.925434   -9905.8075   -9650.6573   -9905.8075            0    8082.2452    24.674894    24.712895    22.685892    13833.587    7511.3083    8290.7388    8444.6885   -221.77978   -397.81488    284.28867    -8020.075 
 2638000    66.602922   -9894.2933   -9640.3726   -9894.2933            0    8724.3779    24.685531    24.618894    22.730692    13814.134    8362.3846    8776.7186    9034.0304   -56.873639   -236.85866   -284.41846    -7882.716 
 2639000    66.110554   -9904.2257   -9652.1821   -9904.2257            0    8469.5153    24.660535    24.607174     22.77013    13817.509     8179.802    9151.5816    8077.1623   -177.38201    364.57803    105.98251   -7945.4546 
 2640000    68.343452   -9901.8511   -9641.2947   -9901.8511            0    8394.7432    24.726422    24.681209    22.632767     13812.28    7961.7705    8470.3917    8752.0675   -39.843485    16.926647    197.20557    -7950.275 
 2641000    68.589872   -9914.6658     -9653.17   -9914.6658            0    8672.2585    24.630228    24.658914    22.733465    13807.276     8368.039    9069.0932    8579.6431   -267.50329   -189.40803    695.62924    -7906.881 
 2642000    66.676427   -9905.7806   -9651.5797   -9905.7806            0    8474.9277    24.620625      24.6844    22.728063    13812.874    8597.9148    8583.5751    8243.2931   -219.70688    296.24447   -302.09637   -7944.3343 
 2643000    69.793199    -9910.165   -9644.0815    -9910.165            0    8167.4482    24.691112     24.70105    22.664386    13822.927    7859.4442    8478.2385    8164.6617    217.37411   -165.17768    204.79993   -7997.5794 
 2644000    67.642047   -9902.2418   -9644.3594   -9902.2418            0    8917.0271    24.586425    24.659886    22.778277    13810.434    8924.2926     9467.571    8359.2178    -79.63881   -752.14869    361.87704    -7848.372 
 2645000    69.597899   -9897.0732   -9631.7343   -9897.0732            0    7724.4698    24.630887    24.717228    22.755052     13853.44    8636.0295     7493.998    7043.3817   -242.25505   -463.20351   -143.86878   -8071.0962 
 2646000    66.890197   -9903.6584   -9648.6424   -9903.6584            0    8178.6874    24.665867    24.704932    22.692473     13828.08    8074.4212    8235.3184    8226.3225   -394.20284   -614.09047    352.31854     -7999.26 
 2647000    68.397424   -9906.8109   -9646.0487   -9906.8109            0    8638.0658    24.638455    24.616185    22.770134    13810.194    8184.3284    9306.3104    8423.5588    190.17688    331.72301   -37.750216   -7906.2773 
 2648000    65.878922   -9904.0181   -9652.8576   -9904.0181            0    8627.6899     24.69468    24.694936    22.649789    13812.601    8025.7009    8433.7911    9423.5776   -123.73185    -182.8263   -446.08893   -7914.8731 
 2649000    68.138456   -9903.2397   -9643.4648   -9903.2397            0    8416.7636    24.601645    24.688482    22.747745    13816.464    9334.5928    7768.3684    8147.3295    302.49011    434.90877   -112.23912   -7947.4957 
 2650000    66.602905   -9902.9016    -9648.981   -9902.9016            0    8797.9494    24.652961    24.651525    22.720752    13808.153     9048.892    8539.3233    8805.6327   -51.435927    370.32847    137.93081   -7877.2698 
 2651000    68.753291    -9900.011   -9637.8921    -9900.011            0    9159.9956    24.689674    24.660373    22.623467    13774.446    9074.5773    9430.4865     8974.923    93.815363   -610.89577    807.47156   -7797.7756 
 2652000    67.466809   -9906.6924   -9649.4782   -9906.6924            0    8539.5605    24.631408    24.681124    22.726284    13816.009    8829.5002    8376.6923    8412.4891   -2.1206404   -222.62132    421.55993   -7928.8223 
 2653000    67.926682   -9901.7991   -9642.8316   -9901.7991            0    8262.0877     24.69302    24.687506    22.693382    13834.092    8106.4505    8281.1816     8398.631   -253.27811   -125.35742    355.94005   -7975.9055 
 2654000    65.809187   -9903.5691   -9652.6745   -9903.5691            0    8444.7596    24.635518    24.677995    22.735243    13822.009    8352.0818    8141.3051     8840.892   -13.423443   -288.81181   -175.65818   -7950.3814 
 2655000    67.268158   -9904.4828   -9648.0259   -9904.4828            0    7813.5284    24.651075    24.724404    22.718388    13846.474    7948.4572    7301.5363    8190.5915    519.34358   -584.65722   -421.09541   -8070.1884 
 2656000    65.160412   -9914.2277   -9665.8064   -9914.2277            0    8898.5677    24.578143    24.637269    22.766347    13785.896    9477.3489    8563.0715    8655.2827   -60.068921   -39.313134    12.555492   -7876.7213 
 2657000     66.66826   -9901.4245   -9647.2547   -9901.4245            0     8534.602    24.660137    24.751047    22.637177    13816.923    8638.5747    7944.5091    9020.7221   -198.15816    49.044192    207.27209   -7927.4842 
 2658000    67.132848   -9897.9494   -9642.0084   -9897.9494            0    8326.2731     24.65453    24.642955    22.759514    13827.781    8180.0026    8727.8823    8070.9346    41.997767   -240.44267    396.37305   -7962.8988 
 2659000    69.083572   -9894.4977   -9631.1196   -9894.4977            0    9162.7477    24.633817    24.634319    22.724137    13789.854    9512.4584    9131.6526    8844.1322    221.91189    50.661698    436.47958   -7788.3915 
 2660000    67.891813   -9908.3775    -9649.543   -9908.3775            0    7680.9883    24.676188    24.705041    22.720899    13851.256     7066.217    8055.2863    7921.4618    176.07332   -248.38548    166.72252   -8097.9345 
 2661000    66.026059   -9905.8616   -9654.1401   -9905.8616            0    8940.5897     24.61466    24.617879    22.770693    13798.146    9052.7425    9376.6137    8392.4128   -69.349797    -541.7532    368.74837   -7855.0092 
 2662000    68.259175   -9908.9886   -9648.7535   -9908.9886            0    8177.8768    24.655872    24.718465    22.687503    13827.019    8609.2883    7695.5328    8228.8091    30.296456   -394.18266   -156.02813    -7999.661 
 2663000    69.498635   -9905.7457   -9640.7852   -9905.7457            0    8522.4525    24.614041     24.76102    22.672558    13818.216     8714.868    7662.5403    9189.9493   -333.91045   -201.90763    119.56816   -7923.3022 
 2664000    65.985797   -9906.6608   -9655.0928   -9906.6608            0    8075.3768    24.621657     24.72279    22.727973    13834.882    8420.9339    7673.6665    8131.5299   -77.090615   -257.71097    153.94417   -8025.7437 
 2665000    67.809683   -9902.5571   -9644.0357   -9902.5571            0    8166.1722    24.633109    24.735792    22.699322    13831.139    8282.7408    7579.7835    8635.9924    210.90343    -16.14645    -98.54202   -7996.8129 
 2666000    68.532325   -9896.2802   -9635.0037   -9896.2802            0    8313.6524    24.632846    24.696577     22.72091    13822.197    8532.5808     7984.099    8424.2775   -182.36026     -128.838   -716.80391   -7959.1163 
 2667000    66.154423   -9914.5589    -9662.348   -9914.5589            0     8095.289    24.673594    24.701349    22.680656    13823.204    7678.5998    8228.3298    8378.9375   -2.3047387    249.69098   -513.51262   -8030.3601 
 2668000    70.282101   -9895.3075   -9627.3601   -9895.3075            0    9097.4393    24.586388    24.660769    22.762745     13801.49    9593.0089    9059.5605    8639.7487    -65.57389   -142.25292    118.20337   -7796.2223 
 2669000    66.316871   -9899.1869   -9646.3568   -9899.1869            0     8215.134    24.639282    24.708449    22.710834     13826.32    7971.9552    8377.2207    8296.2261    133.53617   -273.54415   -210.37388    -7989.835 
 2670000    67.698951   -9904.9557   -9646.8564   -9904.9557            0    8258.3948    24.669481    24.668831    22.703686     13816.72    7873.2837    8446.2826     8455.618   -380.70359   -349.39228    88.353545   -7982.7676 
 2671000    67.831998   -9908.7566   -9650.1501   -9908.7566            0    8028.7262    24.664206    24.660353    22.744362    13833.759    7933.0155     8468.332     7684.831    46.471866   -643.42396    448.08645   -8030.3451 
 2672000    67.835539   -9903.4435   -9644.8235   -9903.4435            0    8980.2281    24.684907    24.679536    22.658327    13803.726    8235.9087    9529.5339    9175.2418   -146.88321   -14.543614   -277.16764   -7836.9852 
 2673000    65.770778   -9896.7791   -9646.0309   -9896.7791            0    8053.6945    24.644573    24.717777    22.732008    13847.409    7920.6193    7817.6299    8422.8343   -261.49379    -147.2004    135.14417   -8019.5852 
 2674000    68.493615   -9907.3446   -9646.2157   -9907.3446            0    8895.8266    24.595893    24.686374     22.71415    13791.655    9449.5236    8625.7581    8612.1981   -394.56673    224.21689    133.00961   -7856.9345 
 2675000    68.172072   -9904.7147   -9644.8117   -9904.7147            0    7754.2488    24.624752    24.719661    22.743008    13844.022    8050.1944    7182.3325    8030.2196   -159.61449    69.515676    142.10829   -8079.2222 
 2676000    68.142311   -9903.9096     -9644.12   -9903.9096            0      9123.62    24.636253    24.608378    22.725136    13777.301    9219.9813    9374.1332    8776.7454    281.32157     24.75762   -32.503166   -7810.9311 
 2677000    67.173688   -9896.9221   -9640.8254   -9896.9221            0    8531.4279    24.644176    24.665223    22.719212    13809.966    8876.7152    8443.6598    8273.9086   -191.16776   -665.19563    68.847278   -7922.5601 
 2678000    66.723769   -9899.8965   -9645.5151   -9899.8965            0    8615.7916    24.619926    24.703934    22.700621    13806.723    9198.9979    8229.2782    8419.0987   -195.69942    401.75776   -88.129795   -7910.6661 
 2679000    68.759798   -9907.1202   -9644.9764   -9907.1202            0    8838.9306    24.565608    24.712407    22.723971    13795.162    9480.6776    8304.5739    8731.5404    104.14919   -41.790323   -558.31697   -7866.6872 
 2680000    66.991204   -9909.8944   -9654.4934   -9909.8944            0    8601.8069    24.558701    24.771739    22.705244    13813.001      9362.54    7376.2646    9066.6162   -105.46742    156.38955    1009.2508   -7921.6727 
 2681000    67.313394   -9900.3729   -9643.7435   -9900.3729            0    8576.0929    24.679341    24.672175    22.667314    13801.969    8141.8468    9026.5136    8559.9182   -111.69732   -234.38964     361.2949   -7917.4826 
 2682000    68.071748   -9893.6833   -9634.1627   -9893.6833            0    8456.8173    24.659134    24.633413    22.754426    13821.918    8792.4525    8210.5423     8367.457    88.237099    -43.00703   -369.88883   -7929.4503 
 2683000    66.967523   -9895.9885   -9640.6778   -9895.9885            0    9370.8471    24.664555    24.672012    22.654906    13786.058    9525.7238    9311.2767    9275.5408   -437.24552    272.08082     146.7729   -7756.6172 
 2684000    66.998189   -9894.4294   -9639.0018   -9894.4294            0    8473.4956    24.596119    24.709392    22.738556    13819.475    8854.2506      7760.57     8805.666    233.54491    300.35693    490.88795   -7931.2292 
 2685000    71.253567   -9901.3954   -9629.7443   -9901.3954            0    8394.5726    24.600112    24.768283     22.68551    13822.339    8660.6302    7798.4393    8724.6484   -587.81338   -234.04429    47.137442   -7937.5274 
 2686000    69.470232   -9901.1786   -9636.3264   -9901.1786            0    7990.7611    24.635767    24.707163    22.738438     13840.43    8347.0682    7795.1815    7830.0334   -34.405998   -495.12284   -241.10117   -8023.4034 
 2687000    66.490734   -9912.1769   -9658.6839   -9912.1769            0    7972.3191    24.716128    24.635554    22.709737    13827.857    7562.7108    8604.2518    7749.9946    53.669635    254.86455    146.42465   -8050.9454 
 2688000    70.716998   -9901.5885    -9631.983   -9901.5885            0    8585.3993    24.691522      24.6689    22.658237    13801.419    7712.3898    9355.0106    8688.7974    102.58283   -281.09559   -417.73345   -7903.9177 
 2689000    65.478799   -9906.4085   -9656.7734   -9906.4085            0    8655.6452    24.621637    24.632464    22.776004    13813.455    8654.7643    9153.5495    8158.6219    285.52329     121.5486     109.4806   -7913.0499 
 2690000    69.096234   -9892.0544   -9628.6281   -9892.0544            0    8595.6294    24.574736     24.71412    22.743881    13813.336    9240.1817    8146.3059    8400.4007   -123.84817   -680.97638    323.74291   -7897.0098 
 2691000    68.330946   -9901.6656   -9641.1568   -9901.6656            0    8500.5471     24.62424    24.755839    22.665908    13816.995    8598.6225    7551.9584    9351.0605    329.80488    233.40257    461.19457   -7928.2396 
 2692000    67.726897   -9894.3245   -9636.1187   -9894.3245            0    8792.6662    24.680305    24.656116    22.680378    13801.474    8182.4295    9282.3308    8913.2382   -175.16841   -345.80856   -132.89482   -7866.3278 
 2693000    67.574969   -9902.8563   -9645.2297   -9902.8563            0    8160.5872    24.618869    24.623205    22.813267    13829.299    8414.6546    8672.9081    7394.1988   -432.93399   -862.74185    282.19965   -7999.3523 
 2694000    67.477043   -9906.8402   -9649.5869   -9906.8402            0    7943.0288    24.690186    24.739063     22.66096    13841.588     8366.536    6961.0359    8501.5143   -637.57668   -213.45119    -309.2744   -8046.1646 
 2695000    67.880275   -9902.9661   -9644.1756   -9902.9661            0    8463.3909    24.623372    24.666657    22.755805    13821.336    8532.9839    8660.4249     8196.764   -712.23065   -526.91711     491.7885   -7938.2098 
 2696000    65.206825    -9891.229   -9642.6308    -9891.229            0     8054.229    24.669731    24.731809    22.690853    13844.304    8073.2563    7815.2126    8274.2181    144.95649   -636.25552   -210.03744    -8016.442 
 2697000      67.2409    -9901.744    -9645.391    -9901.744            0    8403.2883    24.662213    24.671451    22.711133    13818.647     8683.348    8437.7865    8088.7304   -732.50714   -175.14392    271.86142   -7951.8696 
 2698000    67.139829   -9894.2128   -9638.2451   -9894.2128            0    8629.3005     24.64808     24.63805    22.762423    13823.179    8347.8129    8937.8521    8602.2367    213.73306   -673.75824      287.553    -7898.605 
 2699000    67.132181   -9891.4438   -9635.5053   -9891.4438            0    8558.8055    24.698826    24.678719    22.670818    13818.666    8116.5434     8452.936    9106.9372    -386.5245   -787.87032    1157.7612   -7910.6401 
 2700000     68.63483   -9909.1887   -9647.5215   -9909.1887            0    7544.1802     24.67001    24.676389    22.758388     13854.55    7801.1562    7352.2419    7479.1423   -408.03049   -342.05751    465.07897   -8123.1866 
 2701000    71.236207   -9903.8218   -9632.2369   -9903.8218            0    8548.1941    24.701019    24.648207    22.675589    13805.711    7552.1782    9406.9601     8685.444    191.84731  -0.75836047   -237.23327   -7911.1252 
 2702000    68.600317   -9912.9273   -9651.3916   -9912.9273            0    7782.5889    24.655063    24.697053    22.733719     13842.73    7869.0025    7326.3569    8152.4073   -366.32868   -483.55753    -151.3952   -8080.2269 
 2703000    66.993409   -9910.4027   -9654.9933   -9910.4027            0    8928.7549    24.629742    24.702537    22.679522    13798.609    9118.2986    8296.9245    9371.0415   -105.57599   -450.18066    131.11346   -7858.1835 
 2704000     69.29443   -9901.2135   -9637.0315   -9901.2135            0     8763.099    24.654711    24.675486    22.704125     13812.44    8430.3425    8715.3187    9143.6358   -461.59397   -739.78375    493.15882   -7871.7905 
 2705000    68.411211   -9911.3077    -9650.493   -9911.3077            0    8696.2574       24.672    24.646186    22.704353    13805.852    8460.5677    8548.8638    9079.3407    315.76055   -789.97297    479.54899   -7899.5521 
 2706000    66.560357   -9920.4668   -9666.7084   -9920.4668            0    7938.6786    24.637016     24.72901    22.694742    13826.749    8060.2561    7527.4101    8228.3695   -813.76306    449.50492    24.359975   -8065.8822 
 2707000    67.907145   -9903.2181   -9644.3251   -9903.2181            0    8569.9728    24.567573    24.650023    22.818969    13818.968    9384.7052    8689.0551    7636.1582   -840.41378    7.5942061   -369.74808   -7917.1715 
 2708000    68.369839    -9903.685    -9643.028    -9903.685            0    8738.3147    24.632624    24.729111    22.673004    13811.099    8748.0817     8554.702    8912.1606   -390.56878   -19.559987   -241.55054   -7882.9504 
 2709000    69.298842   -9898.4836   -9634.2848   -9898.4836            0    8080.9432    24.617482    24.662053     22.77402    13826.509    8526.5257    8258.8264    7457.4774   -293.57377   -612.36753    345.70691   -8004.7993 
 2710000    69.471856   -9908.1689   -9643.3105   -9908.1689            0    8345.1965    24.653792    24.672823    22.735744    13829.668    7713.9251    8767.2036    8554.4607   -296.86972    92.336632   -158.57099   -7960.1551 
 2711000    69.281067    -9901.802    -9637.671    -9901.802            0    8410.8516    24.655567    24.704454    22.688732     13819.76    8786.8862    8274.7063    8170.9623   -196.59091   -647.15506    637.80052   -7942.4889 
 2712000    68.148174   -9907.3134   -9647.5015   -9907.3134            0     8299.009    24.617796    24.642253     22.79245    13826.765    8009.0001    8911.7715    7976.2554   -470.96998   -249.52925   -203.60987   -7974.0131 
 2713000    68.847532   -9908.9617   -9646.4835   -9908.9617            0    8586.5011    24.663934    24.686265    22.669987    13802.857    9034.8245    7853.1632    8871.5156    5.8910973   -925.74477    279.85419   -7918.0164 
 2714000    68.578101   -9900.0117   -9638.5607   -9900.0117            0    8565.1517    24.568197    24.757393    22.716945    13817.457    9320.1114    7551.8677    8823.4761   -52.486301    147.12321     171.7707   -7912.5675 
 2715000    68.510507   -9908.2087   -9647.0154   -9908.2087            0    8458.1724    24.626907     24.71388    22.679467    13803.323    8956.9351    7664.4067    8753.1753     170.9356    273.97462    174.55652   -7944.3235 
 2716000    67.584696   -9911.3825   -9653.7188   -9911.3825            0    8183.6541    24.680812    24.632162    22.734863    13821.472    8217.6753    8700.2327    7633.0545    67.408812   -806.98882    176.78634   -8004.1233 
 2717000    70.717889    -9908.287   -9638.6782    -9908.287            0    8053.3254    24.721356    24.607305    22.726916    13825.373    7421.9009    8580.6883    8157.3868   -493.63112    241.41773   -370.10897   -8014.8952 
 2718000    67.447308   -9896.5037   -9639.3638   -9896.5037            0    8970.7314    24.620359    24.642512    22.747319    13800.969    9203.4944    9022.0631    8686.6365   -378.19318   -222.60005    551.00564    -7833.798 
 2719000    67.534573   -9912.7942   -9655.3216   -9912.7942            0    8119.3951    24.658356    24.746644    22.646625    13819.233    8423.7891    7619.1407    8315.2553    114.42507   -509.80626   -204.36189   -8018.9442 
 2720000    68.601964   -9904.8012   -9643.2592   -9904.8012            0    8838.2568    24.636571    24.687596    22.685128    13797.496      8317.39    9071.0392    9126.3413   -233.44755    156.09335   -694.14673   -7864.8045 
 2721000     67.18776   -9905.7753    -9649.625   -9905.7753            0    7630.5052    24.651416    24.710169    22.742241    13853.224    7853.6801    7817.9892    7219.8463   -365.18582    281.86573   -280.54538   -8107.9954 
 2722000    66.891512   -9906.8325   -9651.8115   -9906.8325            0    8185.0511    24.633213    24.748676    22.688744    13831.953     8545.113    7781.2335    8228.8067    76.929152    350.54813    400.48422   -8000.6834 
 2723000     68.08442   -9905.8861   -9646.3173   -9905.8861            0    7824.7445    24.571247    24.694922    22.807652    13839.342    8508.1434    7768.0398    7198.0505    99.301134   -180.73523    19.588765   -8067.0287 
 2724000    70.260283   -9892.1784   -9624.3142   -9892.1784            0    9063.3733    24.613216    24.711429    22.692871    13802.434     9907.746    8027.3676    9255.0064     571.9892   -616.95853   -627.73376   -7799.9084 
 2725000     67.02421   -9904.6553   -9649.1285   -9904.6553            0    8396.0613    24.651083    24.737177    22.663616    13820.232    8891.8883     7452.201    8844.0945    47.189589   -289.64354   -214.05304   -7956.8695 
 2726000    67.613371    -9903.469    -9645.696    -9903.469            0    8199.4991    24.622902    24.643938    22.800317    13835.352    8181.9148    8654.7421    7761.8403    260.06611   -146.16668    185.92392   -7991.2468 
 2727000     69.25763   -9898.6057   -9634.5641   -9898.6057            0    8704.4631     24.70948    24.692741    22.613446    13797.476    7861.9806      8975.38    9276.0286   -329.53293   -94.807764   -453.53505   -7883.0343 
 2728000     68.61675   -9896.4469   -9634.8486   -9896.4469            0    8357.0905    24.629816    24.664852    22.742623    13815.933    8683.8566    8525.5046    7861.9104   -595.13925   -58.646559    389.97496   -7950.9682 
 2729000    66.984455   -9906.5345   -9651.1592   -9906.5345            0    7897.5695    24.640861    24.718209    22.713211    13834.116    7599.3649    7723.7944    8369.5492    28.513254   -112.95524    390.03668   -8057.7741 
 2730000     68.85172   -9902.0471   -9639.5529   -9902.0471            0    8742.3814    24.620541    24.725572    22.673987    13802.948    8676.5712    7973.9386    9576.6343   -97.579275    374.80609    48.946517   -7879.6955 
 2731000    69.349367   -9893.5327   -9629.1413   -9893.5327            0    8929.8285    24.624588    24.628797    22.758212    13802.263    9168.3604    8714.5228    8906.6022    317.19368   -259.74567    30.856213   -7831.6396 
 2732000    68.754234   -9901.9628   -9639.8403   -9901.9628            0    8193.7831    24.693218    24.689993    22.673863    13823.696    8422.2647    8235.8744    7923.2102     349.0705    286.75193    324.71522   -7987.9374 
 2733000    68.635186   -9890.2188   -9628.5501   -9890.2188            0    9144.9428    24.644466    24.644006    22.698608    13785.735    8410.3229    9630.7716    9393.7339   -78.061956   -865.81896   -255.55976    -7789.952 
 2734000    68.293226    -9901.067   -9640.7021    -9901.067            0    7884.9297    24.651835    24.712339    22.724388    13843.799    8162.3858    7472.8401    8019.5631    1.3156938    214.59619   -100.87065   -8048.7536 
 2735000    64.852197   -9899.3439   -9652.0978   -9899.3439            0    8677.4001    24.694679     24.65137    22.699463    13818.472    7784.0238    9032.1924    9215.9842    61.396726    -338.6547    126.02751   -7903.3565 
 2736000    69.171127   -9901.4877   -9637.7758   -9901.4877            0    8352.2877    24.683088    24.607533    22.754728    13820.992    7811.9392    9212.1391    8032.7849    150.19352   -333.11912    378.12357    -7954.247 
 2737000    67.292389   -9904.2331   -9647.6838   -9904.2331            0    8520.2707    24.688876    24.686538    22.669555    13816.706    8083.6502    8675.5401    8801.6217     170.9953   -212.20504   -53.591798   -7930.8281 
 2738000     69.45983    -9895.005   -9630.1925    -9895.005            0     8255.901    24.687409    24.622743    22.774856    13844.191    7573.6057    9138.7282    8055.3691    -505.1383   -173.48593  -0.86017525   -7963.2986 
 2739000    67.242522   -9895.6295   -9639.2703   -9895.6295            0    9035.7526    24.658725    24.636839    22.711334    13797.431    8959.4088    9230.4531    8917.3958   -4.0827782    123.16065    299.81379   -7821.0836 
 2740000    70.873275   -9903.5565   -9633.3552   -9903.5565            0     8369.677     24.66192    24.675786    22.715795    13823.748    8324.8154    8263.8998    8520.3157     269.6843     334.5127    -398.2129   -7945.9849 
 2741000    69.372151   -9905.8412    -9641.363   -9905.8412            0    7959.7095    24.674692    24.692931     22.71554    13840.362    7610.9935    8359.1977    7908.9373     243.5559   -682.74736    54.292441   -8034.7157 
 2742000    67.202752   -9894.9304   -9638.7229   -9894.9304            0    8157.5569    24.715087    24.710069    22.663158    13840.652    7495.2986    8267.5987    8709.7733   -166.57284    184.38122    -344.5061   -7992.1061 
 2743000    67.236213   -9905.1061    -9648.771   -9905.1061            0    7950.6329    24.680723    24.736755     22.67173    13841.567    7956.4595    7569.3733    8326.0659   -201.23614   -770.44794    429.91222    -8043.816 
 2744000    68.108457   -9906.6775    -9647.017   -9906.6775            0     8932.161    24.630975    24.634955        22.74    13798.244    9265.5425    8786.4607    8744.4798    372.00595   -295.54313    406.67112   -7849.5693 
 2745000    68.034761   -9902.8456   -9643.4661   -9902.8456            0    8165.1911    24.679402    24.686548    22.691938    13825.046    8553.2638    8024.3697    7917.9399   -123.39707   -94.671444    267.09666   -7997.1667 
 2746000    69.735595   -9917.2452   -9651.3813   -9917.2452            0    7831.0473    24.657404    24.645409    22.761021    13831.686    8320.1797     7924.811    7248.1511    298.16449    354.61464    529.24833   -8071.6949 
 2747000    68.189886     -9886.97    -9626.999     -9886.97            0    9053.2233    24.674923    24.635394    22.698207    13797.705    8861.2257    8907.0859    9391.3581   -143.05513   -130.18858   -81.554658   -7805.2607 
 2748000    66.368512    -9903.897     -9650.87    -9903.897            0    8850.9659    24.676889    24.665371    22.661319    13793.143    8179.7428    9050.8004    9322.3546    97.479916    461.95518   -36.549631   -7870.4199 
 2749000    65.969209   -9912.5943   -9661.0896   -9912.5943            0    8221.6766    24.597339    24.700181    22.748887    13821.285    9175.2641    7537.8389    7951.9268    211.18945   -667.79635    276.31308   -8003.8523 
 2750000     70.39304   -9903.6377   -9635.2673   -9903.6377            0    8492.6532    24.628548    24.678516    22.734124     13817.71    8313.4359    8582.4066    8582.1171    408.30987    335.75294    196.42506   -7923.8523 
Loop time of 551.327 on 64 procs for 250000 steps with 1920 atoms

Performance: 78.356 ns/day, 0.306 hours/ns, 453.451 timesteps/s
195.2% CPU use with 32 MPI tasks x 2 OpenMP threads

MPI task timing breakdown:
Section |  min time  |  avg time  |  max time  |%varavg| %total
---------------------------------------------------------------
Pair    | 72.307     | 73.968     | 76.321     |  10.6 | 13.42
Bond    | 0.79348    | 1.0149     | 1.237      |   9.7 |  0.18
Kspace  | 256.96     | 262.93     | 268.14     |  18.6 | 47.69
Neigh   | 0.13247    | 0.14548    | 0.1596     |   2.1 |  0.03
Comm    | 80.3       | 87.467     | 93.309     |  34.9 | 15.86
Output  | 0.8693     | 0.87072    | 0.87234    |   0.0 |  0.16
Modify  | 97.197     | 101.47     | 105.67     |  24.7 | 18.41
Other   |            | 23.46      |            |       |  4.25

Nlocal:        60.0000 ave          62 max          58 min
Histogram: 2 0 9 0 0 10 0 9 0 2
Nghost:        3593.31 ave        3621 max        3552 min
Histogram: 1 2 0 3 7 3 3 5 4 4
Neighs:        22008.5 ave       22738 max       21074 min
Histogram: 1 2 2 4 6 2 7 0 4 4

Total # of neighbors = 704271
Ave neighs/atom = 366.80781
Ave special neighs/atom = 2.0000000
Neighbor list builds = 250
Dangerous builds = 0

unfix		3
unfix		2
unfix		1

write_data	data.final.${pid}
write_data	data.final.1
System init for write_data ...
PPPM initialization ...
  extracting TIP4P info from pair style
  using 12-bit tables for long-range coulomb (../kspace.cpp:340)
  G vector (1/distance) = 0.37537416
  grid = 30 30 30
  stencil order = 5
  estimated absolute RMS force accuracy = 0.0031643133
  estimated relative force accuracy = 9.5292355e-06
  using double precision FFTW3
  3d grid and FFT values/proc = 5400 960
Last active /omp style is kspace_style pppm/tip4p/omp
WARNING: Not all mixed pair coeffs generated from mixing. Use write_data with 'pair ij' option to store all pair coeffs. (../write_data.cpp:312)

write_restart   restart.lmp.${pid}
write_restart   restart.lmp.1
System init for write_restart ...
PPPM initialization ...
  extracting TIP4P info from pair style
  using 12-bit tables for long-range coulomb (../kspace.cpp:340)
  G vector (1/distance) = 0.37537416
  grid = 30 30 30
  stencil order = 5
  estimated absolute RMS force accuracy = 0.0031643133
  estimated relative force accuracy = 9.5292355e-06
  using double precision FFTW3
  3d grid and FFT values/proc = 5400 960
Last active /omp style is kspace_style pppm/tip4p/omp
Total wall time: 0:09:11
