#include		in.partitions
include		in.temp
variable        temperature equal 5.22
variable	tempDamp equal 100.0
include		in.pressure
variable        pressure equal 2216.4
variable        pressureDamp equal 1000.0 # This is 1 ps
include		in.seed
variable        seed equal 745823

units		real
atom_style	full
#include		in.box
read_restart	restart.lmp.${pid}
read_restart	restart.lmp.0
Reading restart file ...
  restart file = 30 Jul 2021, LAMMPS = 30 Jul 2021
  restoring atom style full from restart
  orthogonal box = (0.19509504 0.16725304 0.16592758) to (18.012477 23.461925 22.047268)
  2 by 4 by 4 MPI processor grid
  restoring pair style lj/cut/tip4p/long/omp from restart
  restoring bond style harmonic/omp from restart
  restoring angle style harmonic/omp from restart
  864 atoms
  576 bonds
  288 angles
Finding 1-2 1-3 1-4 neighbors ...
  special bond factors lj:    0        0        0       
  special bond factors coul:  0        0        0       
     2 = max # of 1-2 neighbors
     1 = max # of 1-3 neighbors
     1 = max # of 1-4 neighbors
     2 = max # of special neighbors
  special bonds CPU = 0.002 seconds
  read_restart CPU = 0.008 seconds
include 	in.setup
variable	out_freq equal 1000
variable	out_freq2 equal 10000
variable	out_freq3 equal 1000

timestep	2.0

neigh_modify    delay 7 every 1

include		in.tip4p
# This is TIP4P/Ice

# create groups ###
group ox type 2
288 atoms in group ox
group hy type 1
576 atoms in group hy

# set charges - beside manually ###
set group ox charge -1.1794
Setting atom values ...
  288 settings made for charge
set group hy charge 0.5897
Setting atom values ...
  576 settings made for charge

# ### TIP3P Potential Parameters ###
pair_style lj/cut/tip4p/long/omp 2 1 1 1 0.1577 8.5
pair_coeff 1 1*2 0.000 0.000
pair_coeff 2 2 0.21084 3.1668
bond_style  harmonic
bond_coeff  1 450 0.9572
angle_style harmonic
angle_coeff 1 55 104.52
kspace_style pppm/tip4p/omp 1.0e-5
pair_modify tail yes

thermo          ${out_freq}
thermo          1000
thermo_style    custom step temp pe etotal epair emol press lx ly lz vol pxx pyy pzz pxy pxz pyz enthalpy

restart 	${out_freq3} restart.lmp.${pid} restart2.lmp.${pid}
restart 	1000 restart.lmp.${pid} restart2.lmp.${pid}
restart 	1000 restart.lmp.0 restart2.lmp.${pid}
restart 	1000 restart.lmp.0 restart2.lmp.0


include         in.dump
dump            myDump all atom ${out_freq2} dump.water.${pid}
dump            myDump all atom 10000 dump.water.${pid}
dump            myDump all atom 10000 dump.water.0
dump            myDump2 all dcd ${out_freq2} dump.dcd
dump            myDump2 all dcd 10000 dump.dcd
dump_modify     myDump append yes
dump_modify     myDump2 append yes


variable natoms 	equal  "count(all)"                        # NUMBER ATOMS
variable H      	equal  "enthalpy/v_natoms"                 # ENTHALPY-per-atom
variable Vol      	equal  "vol/v_natoms"                 # volume-per-atom
fix AVG all 		ave/time ${out_freq} 1 ${out_freq} v_Vol v_H file vol_enthalpy.dat
fix AVG all 		ave/time 1000 1 ${out_freq} v_Vol v_H file vol_enthalpy.dat
fix AVG all 		ave/time 1000 1 1000 v_Vol v_H file vol_enthalpy.dat


timer           timeout 23:50:00 every 1000
New timer settings: style=normal  mode=nosync  timeout=23:50:00

fix 		1 all shake 1e-6 200 0 b 1 a 1
       0 = # of size 2 clusters
       0 = # of size 3 clusters
       0 = # of size 4 clusters
     288 = # of frozen angles
  find clusters CPU = 0.001 seconds
fix             2 all nph aniso ${pressure} ${pressure} ${pressureDamp}
fix             2 all nph aniso 2216.4 ${pressure} ${pressureDamp}
fix             2 all nph aniso 2216.4 2216.4 ${pressureDamp}
fix             2 all nph aniso 2216.4 2216.4 1000
fix             3 all temp/csvr ${temperature} ${temperature} ${tempDamp} ${seed}
fix             3 all temp/csvr 5.22 ${temperature} ${tempDamp} ${seed}
fix             3 all temp/csvr 5.22 5.22 ${tempDamp} ${seed}
fix             3 all temp/csvr 5.22 5.22 100 ${seed}
fix             3 all temp/csvr 5.22 5.22 100 745823


run             250000
PPPM initialization ...
  extracting TIP4P info from pair style
  using 12-bit tables for long-range coulomb (../kspace.cpp:340)
  G vector (1/distance) = 0.37222686
  grid = 24 27 25
  stencil order = 5
  estimated absolute RMS force accuracy = 0.0031030076
  estimated relative force accuracy = 9.3446151e-06
  using double precision FFTW3
  3d grid and FFT values/proc = 4410 672
Last active /omp style is kspace_style pppm/tip4p/omp
Neighbor list info ...
  update every 1 steps, delay 7 steps, check yes
  max neighbors/atom: 2000, page size: 100000
  master list distance cutoff = 10.8154
  ghost atom cutoff = 10.8154
  binsize = 5.4077, bins = 4 5 5
  1 neighbor lists, perpetual/occasional/extra = 1 0 0
  (1) pair lj/cut/tip4p/long/omp, perpetual
      attributes: half, newton on, omp
      pair build: half/bin/newton/omp
      stencil: half/bin/3d
      bin: standard
Per MPI rank memory allocation (min/avg/max) = 10.21 | 10.22 | 10.23 Mbytes
Step Temp PotEng TotEng E_pair E_mol Press Lx Ly Lz Volume Pxx Pyy Pzz Pxy Pxz Pyz Enthalpy 
49750000    5.3104679   -4730.0029   -4720.9009   -4730.0029            0    2208.2448    17.817382    23.294672    21.881341     9081.852    2372.7791    2004.9591    2246.9964   -76.955712   -34.550623    63.240281     -4428.42 
49751000     5.373962   -4731.0077   -4721.7969   -4731.0077            0    2206.2149    17.850331     23.27531    21.869145    9086.0171    2350.8406    2125.3237    2142.4803    2.8482479    54.156098    153.00559   -4429.4509 
49752000     5.215763   -4730.7443   -4721.8047   -4730.7443            0     2206.746    17.862363    23.280658     21.84205    9082.9635    2207.3703    2157.6619    2255.2058    16.421105   -89.970614    89.783742   -4429.4865 
49753000    5.2311442   -4730.9072   -4721.9412   -4730.9072            0    2214.5654    17.913423    23.226494    21.833388    9084.1305    2215.4206    2245.4477     2182.828   -90.107911   -1.1857646    47.893739   -4428.5495 
49754000     4.956409   -4731.0111    -4722.516   -4731.0111            0    2220.1817    17.904132    23.221849    21.846916     9083.228    2100.5472    2270.8839     2289.114   -75.717323    107.11617    131.37885   -4428.4095 
49755000    5.4281659   -4731.1578   -4721.8541   -4731.1578            0    2194.4591    17.911009    23.233234    21.838712     9087.758    2128.7516     2237.723    2216.9028    92.846998    -68.20504   -30.895887   -4431.0101 
49756000    5.2161907   -4730.4207   -4721.4803   -4730.4207            0    2238.9493    17.855977    23.265965    21.861332    9081.9958    2267.4823    2159.4909    2289.8747    -144.7309   -29.948597    38.573847   -4424.9279 
49757000    5.3526728   -4730.9295   -4721.7552   -4730.9295            0    2199.4714     17.86145    23.276621     21.84784    9083.3313     2212.852     2106.302    2279.2602   -77.089195     17.29192    93.326956   -4430.3889 
49758000    5.4621105   -4730.8093   -4721.4474   -4730.8093            0    2203.8826     17.82719    23.298133    21.874627    9085.4127    2378.9268    2030.4898    2202.2311   -157.55293    52.310752   -52.478732   -4429.4298 
49759000    5.4479955   -4730.6289   -4721.2912   -4730.6289            0    2210.3717    17.835782    23.328788    21.835672    9085.5429    2308.2704    2173.9346    2148.9103    -78.68277   -135.23246    114.71214   -4428.4096 
49760000    5.2643441   -4730.7071   -4721.6841   -4730.7071            0    2229.8626    17.863836    23.280361    21.846579    9085.4799    2300.9441    2153.2138    2235.4301   -118.93116   -56.718563    77.514454    -4426.222 
49761000    5.1322158    -4730.775   -4721.9786    -4730.775            0    2212.2902    17.907807    23.224012    21.847048    9085.9933    2210.3419    2295.6956    2130.8331   -216.29462    19.102358   -6.6607185   -4428.8283 
49762000    5.3696766   -4730.0926   -4720.8891   -4730.0926            0     2208.393     17.89444    23.218152    21.866163    9084.8621    2072.3687    2260.2258    2292.5844   -58.658523   -43.537099    123.91331   -4428.2916 
49763000    5.2318219   -4730.3421   -4721.3749   -4730.3421            0    2200.4187     17.91174    23.207516    21.856365     9085.407    2091.1972    2293.6058    2216.4531    137.71479    32.168127    265.45458   -4429.8165 
49764000    5.1637855   -4730.8977   -4722.0471   -4730.8977            0    2249.8601    17.891239    23.225072     21.85488    9081.2557    2226.5507    2287.7579    2235.2716   -89.126187   -16.430248   -75.664409   -4424.0738 
49765000    5.1852209   -4730.5672   -4721.6799   -4730.5672            0    2199.5333    17.855362    23.248102    21.881755    9083.1881    2195.4374    2168.9721    2234.1903    14.778042    17.816349    68.030592     -4430.31 
49766000    5.3584936   -4730.8833    -4721.699   -4730.8833            0    2203.3617    17.828869    23.295687    21.879352    9087.2769     2307.643     2111.083    2191.3591   -118.16633   -48.840826    125.87912   -4429.6905 
49767000    5.2549686   -4730.6132   -4721.6064   -4730.6132            0    2240.0322     17.82383    23.325259    21.848919    9083.5887    2319.1273    2146.1573    2254.8119   -90.932169   -3.3683318    14.281218   -4424.8585 
49768000    4.9396439   -4730.8585   -4722.3921   -4730.8585            0    2208.5631    17.845395    23.272958    21.868279    9082.2275    2251.6181    2176.7645    2197.3068    185.07652    109.89584   -28.060074   -4429.8569 
49769000    5.2603276   -4730.7251   -4721.7091   -4730.7251            0    2244.5976    17.886368    23.228324    21.862891    9083.3833     2176.452    2358.7866    2198.5541    -298.4524    11.264749    184.02067   -4424.3632 
49770000    5.1140812   -4730.8699   -4722.1045   -4730.8699            0    2208.8369    17.914885    23.196133    21.859647    9083.9086    2090.9021    2231.3298    2304.2789    -237.7112   -134.04093   -9.7364113    -4429.479 
49771000    5.1785827   -4731.0051   -4722.1292   -4731.0051            0      2227.12    17.931931    23.198537     21.83686    9084.0147    2035.7094    2410.0894     2235.561   -62.092247    33.363068   -33.860291   -4427.0781 
49772000    5.2456435   -4730.2636   -4721.2727   -4730.2636            0    2214.3533    17.891107    23.251478    21.836932    9084.0474    2125.8015    2248.0041    2269.2544   -84.735997   -29.911572    217.40707   -4427.9119 
49773000    5.2631582   -4731.3335   -4722.3126   -4731.3335            0    2184.9825    17.867847    23.273141     21.84588    9084.4109     2225.602    2117.9207    2211.4247   -87.118357   -39.629203    74.160953   -4432.8312 
49774000    5.4488953    -4730.068   -4720.7288    -4730.068            0    2230.3758    17.849371    23.296863    21.847574    9084.9722      2252.37    2125.6802    2313.0772   -28.263062    73.921469    73.785054   -4425.2152 
49775000    5.1644246   -4730.3417     -4721.49   -4730.3417            0    2203.6588     17.79812    23.321565    21.881438    9082.5477    2468.1087    2080.4659    2062.4019    77.546247    42.927115    89.275133   -4429.5942 
49776000    5.5804368   -4730.6167    -4721.052   -4730.6167            0    2210.8248     17.85019    23.281457    21.853619    9081.8926    2263.5794    2101.9413    2266.9538   -24.123994     -107.925    47.753639    -4428.228 
49777000    5.1959515   -4730.2652   -4721.3595   -4730.2652            0     2222.965    17.905038    23.224703    21.839196    9081.5937    2177.5405    2266.3904    2224.9641    25.051453    19.634342    80.418749   -4426.9373 
49778000    4.8809636   -4730.6128   -4722.2469   -4730.6128            0    2189.6748    17.919085     23.19529     21.85728    9084.7246    2066.8777    2211.3178     2290.829    28.665455    36.409237    179.03824   -4432.1339 
49779000    5.0135974   -4730.9879   -4722.3947   -4730.9879            0    2226.3882    17.913617    23.195853    21.860421    9083.4773    2174.4969    2289.6555    2215.0122    139.36597   -169.07208    72.065397    -4427.458 
49780000    5.2881724   -4730.1534   -4721.0896   -4730.1534            0    2220.8355    17.885629    23.232089     21.86032    9083.4115    2275.6803    2197.7161    2189.1101   -27.028889    40.187222    41.021916   -4426.8906 
49781000    5.4380575   -4730.4892   -4721.1685   -4730.4892            0    2240.6538    17.830763    23.299268    21.866133     9084.148    2323.8997    2209.3162    2188.7456   -160.29049    13.046068    56.438188     -4424.32 
49782000    5.3684041    -4730.492   -4721.2908    -4730.492            0    2242.6516    17.811634    23.311569    21.875581    9083.1159    2413.2506    2139.1113    2175.5928    58.467354   -93.295471    113.74379   -4424.2114 
49783000    5.2007229   -4730.5537   -4721.6398   -4730.5537            0    2249.8765    17.833613     23.30047    21.856209    9081.9447    2305.3184    2152.6766    2291.6346    150.95974   -26.253011    113.75785   -4423.6418 
49784000    4.9658538   -4730.9504   -4722.4391   -4730.9504            0    2217.5449     17.86864    23.266658    21.855152    9086.1381    2254.4078    2137.0078    2261.2192   -4.8809455    39.207762    97.588445   -4428.5877 
49785000    5.0504617   -4731.1787   -4722.5224   -4731.1787            0    2203.5422    17.893014    23.223129    21.859684    9083.3932    2209.0391     2197.636    2203.9515      92.1432    7.0161336    70.488868   -4430.6148 
49786000    5.0784689   -4730.7828   -4722.0785   -4730.7828            0    2203.6316    17.932611    23.178831    21.853621    9083.6096    2125.2515    2254.5132    2231.1303   -133.40284   -84.783771    62.019451   -4430.1521 
49787000    5.2004367    -4730.574   -4721.6607    -4730.574            0     2199.522    17.915267    23.202698    21.850095    9082.7029    2124.0131    2342.7834    2131.7696   -28.367062     103.8845    84.897966   -4430.3078 
49788000    5.4256893    -4731.214   -4721.9145    -4731.214            0    2198.7804    17.892004    23.242763    21.847424    9085.4613    2146.7489    2201.3281    2248.2641    17.678574    9.6567637   -63.117601   -4430.5714 
49789000    5.2257874   -4730.6216   -4721.6648   -4730.6216            0    2209.9717    17.845955    23.286757    21.864278    9086.2345    2263.0005    2114.2981    2252.6164      118.857   -49.248308    63.540758   -4428.8139 
49790000     5.111065   -4730.6925   -4721.9323   -4730.6925            0    2222.8588    17.831084    23.267838    21.893577     9083.443    2322.0544    2145.5687    2200.9532   -44.984103   0.43723159    34.092641   -4427.4642 
49791000     5.071379   -4730.5205   -4721.8283   -4730.5205            0    2208.7334    17.836612    23.309858    21.844438    9082.2376    2261.1227    2103.6728    2261.4045    -171.0665   -43.935717    110.74749   -4429.2703 
49792000    5.3428691   -4731.2185    -4722.061   -4731.2185            0    2209.3088    17.844632    23.292292    21.855128    9083.9174     2272.199    2202.8444     2152.883   -85.121325   -57.876291    119.51467   -4429.3726 
49793000    5.2637007   -4730.8167   -4721.7949   -4730.8167            0    2218.9092     17.88545     23.27047    21.825831    9083.9726     2169.515    2155.4816    2331.7311    164.21686    69.932101   -22.270298   -4427.8328 
49794000    5.5058799   -4730.8643   -4721.4275   -4730.8643            0     2216.838    17.899347     23.22477    21.854853    9085.2417    2097.8956    2262.0805     2290.538     58.52928    28.480495    27.911944   -4427.6988 
49795000    5.0246575   -4731.4079   -4722.7958   -4731.4079            0    2228.7259    17.916864    23.189973    21.864335    9084.4473    2106.3497    2390.2756    2189.5525     169.1375   -96.803067    114.60831   -4427.5179 
49796000    5.2484771   -4730.3719   -4721.3762   -4730.3719            0    2224.5782    17.927374    23.192512    21.844999    9082.7323    2119.3884    2416.0213    2138.3248    22.113706    30.265312    12.327337   -4426.7034 
49797000    5.1449662   -4730.8173    -4721.999   -4730.8173            0    2213.5463    17.886473    23.212972    21.876114    9082.9232    2181.2183    2254.6265     2204.794   -71.095736    33.811881     72.53659   -4428.7814 
49798000    5.4827243   -4730.8451   -4721.4479   -4730.8451            0    2234.2142    17.856381    23.258793    21.867932    9082.1427    2272.9769    2249.9625    2179.7033   -148.50359   -58.412253     186.7209   -4425.5179 
49799000    5.0519529   -4730.2026   -4721.5437   -4730.2026            0    2222.0655     17.82804    23.286176     21.88427    9085.1865     2304.436    2132.0879    2229.6725   -71.766195   -98.857956      105.943   -4427.1242 
49800000    5.0751674    -4730.651   -4721.9524    -4730.651            0    2236.8456    17.830168    23.302617     21.85841    9081.9414    2374.8166    2140.0287    2195.6916    71.595316   -16.438358    95.513644   -4425.6804 
49801000    5.3462148   -4730.7265   -4721.5633   -4730.7265            0    2204.4649    17.866498    23.258091    21.861025    9084.1444    2168.3814    2186.4685     2258.545    68.605833   -27.192071    139.60043   -4429.5093 
49802000    5.2435126   -4730.9907   -4722.0035   -4730.9907            0    2219.3514      17.8938    23.250632    21.834039    9083.8807    2185.5477    2219.2428    2253.2636    46.174574   -43.809755    51.769737   -4427.9859 
49803000    5.1933896   -4731.1302   -4722.2289   -4731.1302            0     2229.455    17.920443    23.235801    21.820099    9085.7987    2096.2507    2257.3674    2334.7469    62.880218    24.632637     37.44252   -4426.8104 
49804000    4.9622994   -4730.1292    -4721.624   -4730.1292            0    2220.5289    17.911492    23.220781    21.841208    9084.1696    2085.8575    2279.0332    2296.6961    95.184955    46.756176    114.45769    -4427.441 
49805000    5.0910024   -4730.5964   -4721.8706   -4730.5964            0    2209.0142    17.892818    23.221396    21.861126    9083.2151     2193.004    2257.8693    2176.1693   -163.12439   -55.049224    53.214358   -4429.2438 
49806000    5.4378849   -4730.3066   -4720.9862   -4730.3066            0    2223.0698      17.8624    23.276166    21.845437    9082.6378    2217.8686    2202.8625    2248.4783   -60.243405    2.8096017     20.46611   -4426.5163 
49807000    5.0715842   -4730.2548   -4721.5623   -4730.2548            0    2236.3025    17.832831    23.285709    21.868817    9081.0285    2376.5304    2201.0007    2131.3763   -63.029735   -35.999435    8.0621327    -4425.392 
49808000    5.1459086   -4730.5822   -4721.7623   -4730.5822            0    2199.0079    17.820852    23.299894    21.877354    9084.0017    2303.3441    2073.6835    2219.9959    -143.2257    5.3141618    178.12463   -4430.4359 
49809000    5.2369721   -4730.8431   -4721.8671   -4730.8431            0    2221.8706    17.853098    23.271072     21.86554    9084.2732    2272.3696    2262.5227    2130.7195   -64.095051    -22.37314   -8.6032543    -4427.503 
49810000    4.9733812   -4730.8876   -4722.3634   -4730.8876            0    2218.2178    17.872656      23.2529     21.85512     9082.793    2145.3264    2272.7821    2236.5448    25.962166    43.136912   -27.336326   -4428.5311 
49811000    5.1072864   -4730.5353   -4721.7816   -4730.5353            0    2199.0602    17.901905    23.207551    21.863673    9083.4679    2191.8093    2354.4052    2050.9661   -36.696194    94.913758    73.265091   -4430.4654 
49812000     5.068309   -4729.9883   -4721.3014   -4729.9883            0    2262.5368    17.916218    23.213089    21.837246    9081.9089    2201.2586     2350.033    2236.3188    74.220476   -49.119416    140.83942   -4421.6276 
49813000    5.2268178   -4729.9344   -4720.9758   -4729.9344            0    2231.8641    17.888736    23.212116    21.870883    9081.5653    2160.6033    2320.1309     2214.858   -219.78018    35.442107   -33.186817   -4425.3759 
49814000    5.1665663   -4730.6505   -4721.7952   -4730.6505            0    2238.6333    17.838652    23.285948    21.863851    9082.0232    2335.3981    2142.6489    2237.8529   -2.2297486    102.09779    31.223986   -4425.2837 
49815000    5.0631806   -4730.9156   -4722.2375   -4730.9156            0     2229.851    17.832641     23.28853    21.872798    9083.6853    2262.6475     2125.247    2301.6586    -19.16293   -78.279105    10.368794   -4426.8352 
49816000    5.3195809   -4730.3996    -4721.282   -4730.3996            0    2239.5603    17.854177    23.285101    21.850375    9083.9942    2287.9459    2173.1144    2257.6206   -54.751651   -61.658677    80.902117   -4424.5834 
49817000    5.0113457   -4731.3089   -4722.7196   -4731.3089            0    2240.6328    17.860675    23.277614    21.838001    9079.2342    2380.3617    2152.8588    2188.6779   -108.85511     70.91899    27.948439   -4426.0344 
49818000    5.1707817   -4730.7338   -4721.8713   -4730.7338            0    2234.8748     17.91097    23.199823     21.85973     9083.403    2084.1165    2320.7792    2299.7287   -73.522539   -11.485699   -46.555647   -4425.8127 
49819000    4.9409752   -4730.9792   -4722.5105   -4730.9792            0    2251.9206    17.909217     23.20791    21.852662    9082.7419     2253.526    2296.8409    2205.3951   -56.940497   -42.083452    68.764972   -4424.2155 
49820000    5.2593612   -4730.6836   -4721.6693   -4730.6836            0    2209.0922    17.917199    23.207862    21.845439    9083.7677    2137.2275     2310.976    2179.0731    42.884152    35.349074    154.99302   -4429.0144 
49821000    5.3394306   -4730.8017   -4721.6501   -4730.8017            0    2252.0898    17.882391    23.251921    21.836151    9079.4699    2327.9494    2209.1595    2219.1605   -2.4839303    6.0525447   -6.5930048   -4423.4401 
49822000    5.4052134   -4730.1293   -4720.8649   -4730.1293            0    2238.4597    17.837002     23.32416    21.831418     9082.592    2211.9356    2208.9727    2294.4709   -140.21523   -72.298241   -40.681213   -4424.3579 
49823000    5.1258977    -4731.187   -4722.4014    -4731.187            0    2200.2758    17.807114    23.330782    21.866232    9084.4114    2244.7085    2073.4322    2282.6867    26.672131    42.882662    97.038502   -4430.8939 
49824000    5.3860777    -4731.205   -4721.9734    -4731.205            0    2201.3723    17.838849    23.310655    21.848421    9085.3436    2352.1489     2066.048      2185.92   -87.280163   -33.044424   -35.779111   -4430.2907 
49825000    5.0734774   -4730.5841   -4721.8883   -4730.5841            0    2243.0049    17.862521    23.270238    21.846444    9080.8045     2289.579    2224.6054    2214.8303   -36.538275   -33.348249     34.92133   -4424.8377 
49826000    5.0900349   -4730.7799   -4722.0557   -4730.7799            0    2206.4165    17.904923    23.225721    21.845996    9084.7612     2079.769    2291.8518    2247.6286   -23.299783   -14.393749    130.71267   -4429.7234 
49827000    5.0434172   -4730.9637   -4722.3194   -4730.9637            0    2228.9692    17.913338    23.195066    21.866132     9085.401    2105.0991     2380.075    2201.7336   -234.64019     87.17408   -1.6438995   -4426.9782 
49828000    5.6997227    -4730.644   -4720.8749    -4730.644            0    2209.5318    17.923525    23.182929    21.864378    9085.0825     2120.922    2354.6193    2153.0543   -167.25358    37.740443   -5.9355283   -4428.1194 
49829000     5.384996   -4731.2223   -4721.9926   -4731.2223            0    2194.0045    17.876673    23.233365    21.869992    9083.3788    2156.0808    2201.5325    2224.4002   -149.57048    5.7335785    39.887743    -4431.349 
49830000    5.4226411   -4730.3514   -4721.0572   -4730.3514            0    2227.4414    17.836536     23.27908    21.883623    9086.4778    2328.0644    2124.0781    2230.1817   -10.346634   -19.613826    130.83853   -4425.8834 
49831000    5.1589202   -4730.9582    -4722.116   -4730.9582            0     2193.919    17.838592     23.29539    21.869649    9088.0845    2301.3728    2139.3035    2141.0806   -73.096607   -45.022427    89.390621   -4431.3331 
49832000    5.1457715   -4731.0504   -4722.2307   -4731.0504            0    2239.0386    17.854033     23.29454    21.834228    9080.8878    2238.9262    2163.6561    2314.5336   -159.36389   -9.7760146    85.067573   -4425.7026 
49833000    5.2035148   -4731.4349   -4722.5162   -4731.4349            0    2208.7539    17.863852    23.256442    21.858078    9080.9308     2216.643    2248.3228    2161.2959   -9.9987154   -30.443004   -82.759013   -4429.9975 
49834000     5.408888   -4730.2099   -4720.9393   -4730.2099            0     2189.548    17.912265    23.207922    21.857619    9086.3533    2061.6156    2279.9847    2227.0438   -101.51992   -14.487426    62.880487    -4430.791 
49835000    5.3891583   -4731.0744   -4721.8376   -4731.0744            0    2214.5301    17.926559    23.203976    21.831954    9081.3823    2043.4696    2271.9663    2328.1546    -33.04773   -94.984025    58.593673   -4428.5393 
49836000    5.3258196   -4730.9602   -4721.8319   -4730.9602            0    2208.9179    17.913962    23.222414    21.827056    9080.1743    2114.0785     2229.867    2282.8082   -309.52455   -6.0788069    21.431577   -4429.3159 
49837000    5.1852573   -4731.1397   -4722.2524   -4731.1397            0    2200.9438     17.86374    23.277668    21.853337    9087.1902    2161.9947    2183.1788     2257.658   -45.691469    53.343754    30.059339   -4430.5671 
49838000     5.222001    -4730.093   -4721.1426    -4730.093            0    2225.6978    17.841137    23.274675    21.885579    9087.9137    2358.4105    2088.1071    2230.5759   -168.41024   -24.702566    165.95713   -4426.1533 
49839000    4.8221952   -4730.6804   -4722.4153   -4730.6804            0    2231.5586    17.842222    23.273984     21.87479    9083.7161    2341.7555    2119.8229    2233.0973   -106.05661   -58.807927   -49.298717   -4426.7858 
49840000    5.1288627   -4730.4848   -4721.6941   -4730.4848            0    2235.1858    17.862355    23.274772     21.85042    9084.1428    2334.2004    2173.0632    2198.2937   -65.584943    59.193609    63.298962   -4425.5702 
49841000    4.9431272   -4731.0738   -4722.6015   -4731.0738            0     2232.109    17.909058    23.239525    21.828916    9085.1511    2182.2734    2261.2343    2252.8193   -33.072667   -99.535511     73.09828   -4426.8524 
49842000    5.2666173   -4730.2633   -4721.2365   -4730.2633            0    2222.7164    17.919407    23.191325    21.846948    9079.0407    2140.8938     2380.031    2147.2244    -78.87073   -89.800389    36.451514     -4426.93 
49843000    4.9796617   -4730.8566   -4722.3216   -4730.8566            0    2188.6347    17.915548    23.206571    21.854189    9086.0632    2025.8275    2281.4122    2258.6645    3.1203523    24.847876    24.144265   -4432.3037 
49844000     5.064085   -4730.7026    -4722.023   -4730.7026            0    2193.5903    17.889651    23.225991    21.870859    9087.4486    2205.1966    2206.0416    2169.5329   -112.71892    2.9615366    8.7332227    -4431.304 
49845000    5.2117034   -4731.0461   -4722.1135   -4731.0461            0    2215.6967    17.854958    23.264986     21.86842    9084.0397    2294.2568    2150.4516    2202.3815   -17.555932   -87.269721    49.366483   -4428.5749 
49846000    5.4014915   -4730.5768   -4721.3188   -4730.5768            0    2202.1958    17.838697    23.285057    21.877459    9087.3514    2336.7992    2170.2597    2099.5284   -25.021892   -20.937501    128.86562   -4429.4625 
49847000    5.2532467   -4730.8646   -4721.8607   -4730.8646            0    2214.3554    17.841848    23.299668    21.850991    9083.6566    2365.7059    2126.8568    2150.5034   -94.372641    142.57051    153.51875   -4428.5121 
49848000     4.964118   -4730.8286   -4722.3203   -4730.8286            0    2226.5208    17.873261    23.247547    21.860632    9083.2997    2264.0073    2213.5003    2202.0547   -251.15185   -105.41823     10.51504   -4427.3717 
49849000    5.1014638   -4730.4668    -4721.723   -4730.4668            0    2219.0594    17.883159    23.224886    21.870703     9083.654    2283.7622    2204.6128    2168.8031   -202.04774   -31.501475    168.16744   -4427.7514 
49850000    4.9058846   -4730.7218   -4722.3133   -4730.7218            0    2223.1683    17.925702    23.209119     21.82916    9081.7981     2154.759    2238.7295    2276.0165    129.35287    17.553354    64.228337   -4427.8575 
49851000    4.9934584   -4731.1356    -4722.577   -4731.1356            0     2198.091    17.917331    23.209446    21.845024    9084.2823     2086.048    2290.3155    2217.9094   -81.212116    25.516491    24.304482    -4431.363 
49852000    5.5935655   -4731.2063   -4721.6192   -4731.2063            0    2209.5601    17.880939     23.24375    21.857473    9084.4046    2180.5182    2285.1141    2163.0482    97.166865   -128.85645    102.20518   -4428.8818 
49853000    5.3096008   -4730.6389   -4721.5384   -4730.6389            0    2219.0362    17.877633    23.246372    21.867406    9087.8776    2223.8008    2227.3477    2205.9601   -309.16388   -1.7671551     97.89706   -4427.4332 
49854000    5.4641945   -4731.1032   -4721.7378   -4731.1032            0    2195.2949    17.823027    23.297404    21.872684    9082.2005    2230.9395    2130.7759    2224.1694    -107.4621   -67.726496    20.126635   -4430.9609 
49855000    5.2468872    -4730.081    -4721.088    -4730.081            0    2223.7909    17.821924        23.29     21.87864    9081.2246    2291.7174    2113.3414     2266.314   -30.747995   -34.345848    164.84396   -4426.5683 
49856000    5.1696889   -4731.2355   -4722.3749   -4731.2355            0    2213.5517    17.866682    23.268394    21.858038    9087.0201    2231.6879    2133.4603     2275.507   -92.337546   -48.585212     105.2643   -4429.0242 
49857000     5.227915   -4731.2981   -4722.3376   -4731.2981            0    2182.7371    17.901523    23.230383    21.846046    9084.8797    2109.9669    2213.4402    2224.8041   -175.57249    39.144488    40.325298   -4433.1388 
49858000    5.1149283   -4730.6841   -4721.9173   -4730.6841            0    2205.4504    17.894893    23.219507    21.862835    9084.2396    2053.0868    2423.3494    2139.9149    1.1676346   -103.33713    165.17804   -4429.7297 
49859000    5.1945968   -4730.8037   -4721.9004   -4730.8037            0    2210.0645    17.920116    23.206238    21.845432    9084.6082    2137.9825    2318.4574    2173.7534      63.3207   -23.098934    8.6248413   -4429.0896 
49860000     5.189169    -4731.062    -4722.168    -4731.062            0     2205.162    17.892692    23.237022     21.84873    9084.1094    2133.3074    2203.2619    2278.9166   -162.11488    111.87571    6.7628846   -4430.0228 
49861000    5.1561885   -4730.5578   -4721.7203   -4730.5578            0    2194.3369    17.870693    23.256259    21.863267    9086.4931    2207.1697    2232.1287    2143.7121   -64.467263   -125.89769    225.53408   -4430.9329 
49862000    5.3488315   -4730.8398   -4721.6721   -4730.8398            0    2208.6693    17.823481    23.282504    21.885351    9081.8797    2322.5277    2125.9056    2177.5745   -78.487247   -57.746117    119.09726   -4429.1341 
49863000    5.1664434   -4730.4161    -4721.561   -4730.4161            0    2232.6032    17.806644     23.29622    21.891096    9081.0289    2372.0848    2159.1512    2166.5735    104.88114    8.0923571    45.856229   -4425.8806 
49864000    5.4915818    -4730.464   -4721.0516    -4730.464            0    2209.8748    17.844108     23.26706    21.876974    9082.8807     2234.777    2224.3117    2170.5357   -133.36166   -80.218441    96.129458   -4428.3217 
49865000     5.398137   -4730.7461   -4721.4939   -4730.7461            0    2222.5041    17.899184    23.250694    21.828337     9084.265     2161.585    2207.1029    2298.8243    23.756313   -89.073656   -9.8966019   -4427.0462 
49866000    5.1831584   -4731.0506   -4722.1669   -4731.0506            0    2215.1044    17.922848    23.210456    21.836209    9083.8076    2194.5096    2287.4345    2163.3693    63.659674    55.328549    226.63085   -4428.7142 
49867000    5.0746086    -4731.048   -4722.3502    -4731.048            0    2197.4718    17.910213    23.175955    21.883011    9083.3374    2170.6067    2308.3117    2113.4971   -64.735265   -34.881423    109.97952   -4431.2486 
49868000    5.2302861   -4731.3016    -4722.337   -4731.3016            0    2221.4072    17.890755    23.229302    21.857221    9083.6372    2167.0643    2317.2572    2179.9002   -140.43836   -124.04295    79.370161   -4428.0549 
49869000     5.266712   -4730.5002   -4721.4732   -4730.5002            0    2225.3717     17.85953    23.292209    21.836616    9083.7679     2253.139     2088.659    2334.3172   -47.232265    45.860785     119.9767   -4426.6616 
49870000     5.119047   -4730.9815   -4722.2076   -4730.9815            0    2213.4413    17.814802    23.311294    21.873188    9083.6307    2240.4118    2106.4034    2293.5086    21.828201   -5.2014813    17.226371    -4428.981 
49871000    5.1389985   -4730.9123   -4722.1042   -4730.9123            0    2216.4307    17.835098    23.289632     21.86209    9080.9193    2319.3999     2140.117    2189.7752    -107.9302   -90.497484    17.121605   -4428.5692 
49872000    5.5203019   -4730.6072   -4721.1455   -4730.6072            0     2189.131    17.836695    23.282991    21.869598    9082.2606     2265.685    2184.5657    2117.1424   -65.955345   -40.840807    125.17471   -4431.1832 
49873000    5.0796096   -4731.3339   -4722.6276   -4731.3339            0    2200.9291    17.861775    23.263737     21.86353    9084.9884    2214.8178    2168.4693    2219.5002     9.542794   -31.391198     144.3947    -4431.015 
49874000    5.0682658   -4730.1037   -4721.4168   -4730.1037            0    2242.1404     17.89882    23.221524    21.851866    9082.4633    2160.4145    2282.9214    2283.0853     18.90345    -15.00859    79.740502   -4424.4265 
49875000    5.4800942   -4730.4269   -4721.0342   -4730.4269            0    2220.0862    17.911726     23.21307    21.842929    9081.9872    2058.6948    2241.9921    2359.5718    127.38499    12.441942    187.33009   -4426.9805 
49876000    5.1002979   -4730.6627    -4721.921   -4730.6627            0    2254.7508    17.899665    23.210124    21.861499    9082.4355     2209.755    2316.1501    2238.3473   -30.021117   -42.941482     85.92799   -4423.2612 
49877000    5.4897855   -4730.8799   -4721.4706   -4730.8799            0    2212.7304    17.857501    23.262816    21.866246    9083.5833    2195.3803    2240.9235    2201.8874   -123.99064    64.261279    89.667867   -4428.3397 
49878000    5.3716048   -4730.8803   -4721.6736   -4730.8803            0    2227.1648     17.83865    23.271187    21.878051    9082.1603    2382.5585    2144.8162    2154.1197    48.905707    18.827671   -22.131814   -4426.6767 
49879000    5.3523869   -4730.4995   -4721.3257   -4730.4995            0    2255.7909    17.849114     23.29291    21.844588     9082.058    2273.7161    2207.8334    2285.8233    66.570352   -34.496354    72.309747   -4422.5405 
49880000    5.0433345   -4731.0543   -4722.4102   -4731.0543            0    2199.2104    17.863921     23.26554    21.861418    9085.9061    2221.1233    2155.3406    2221.1675    58.367985   -50.504728    160.07896   -4430.9959 
49881000    5.0225179    -4731.074   -4722.4656    -4731.074            0    2207.5672    17.886872     23.23547    21.852191    9081.9866    2189.9536    2238.4445    2194.3034   -36.708613   -25.321277    116.28747   -4430.0701 
49882000    5.2465903   -4730.2224   -4721.2299   -4730.2224            0    2221.0928    17.924547    23.177712    21.861234    9082.2495     2131.537    2290.7783    2240.9632   -73.900741   -3.4010565   -37.721449   -4427.0344 
49883000     4.960573   -4730.6467   -4722.1445   -4730.6467            0    2233.0826    17.921905    23.198289    21.845423    9082.3992    2137.5609    2312.5247     2249.162   -35.363993   -45.366091    19.754916    -4426.356 
49884000    5.1008586   -4731.2222   -4722.4795   -4731.2222            0    2216.3677    17.890465    23.251398    21.836974    9083.7079    2176.0097    2182.6303     2290.463   -87.839253   -34.521364    117.43857   -4428.8627 
49885000    5.0202871   -4731.2531   -4722.6485   -4731.2531            0    2228.2241    17.881633    23.236279    21.861866    9083.6626    2190.6062    2221.7492    2272.3168    -62.17473   -12.818961    61.703657   -4427.4626 
49886000    5.3302209   -4730.7452   -4721.6094   -4730.7452            0    2203.4678    17.826137    23.302286    21.863996      9082.08    2344.6323    2117.3935    2148.3776    40.591907   -14.222529    103.18432   -4429.7539 
49887000    5.1000243   -4731.1502   -4722.4089   -4731.1502            0    2207.9667    17.837867    23.313496    21.852161    9087.5061    2334.8189    2072.1005    2216.9808   -122.60783   -25.667846     67.58074   -4429.7828 
49888000    5.2563764   -4731.0197   -4722.0104   -4731.0197            0    2219.2091    17.844304    23.281834    21.874417    9087.6856    2283.8168    2127.8128    2245.9975   -256.88723    -63.61128    32.051866   -4427.8885 
49889000     4.976277   -4731.5125   -4722.9834   -4731.5125            0    2211.5992    17.868888    23.256678    21.857189    9083.2133    2217.1251    2183.9633    2233.7091   -76.648087    38.923085    89.870011   -4430.0143 
49890000    5.2287206   -4731.0918   -4722.1299   -4731.0918            0    2179.4581    17.910322    23.224897    21.841996    9085.5141    2144.8533    2270.2431    2123.2779   -51.963351   -92.463962    79.129631   -4433.3454 
49891000    5.1266886   -4731.3615   -4722.5745   -4731.3615            0    2198.9829    17.928401    23.195606    21.848466    9085.9055    2152.9771     2308.377    2135.5945    38.966691    19.680909     101.1401   -4431.1904 
49892000    5.2019613   -4731.0317   -4722.1157   -4731.0317            0    2210.7174    17.907336    23.209402    21.853224    9082.6055    2070.4509    2351.9507    2209.7507      6.50981    92.442902    114.14564    -4429.283 
49893000    5.0103366    -4730.747   -4722.1594    -4730.747            0     2234.167    17.887149    23.233683    21.854337    9082.3201    2157.7388    2281.9146    2262.8477   -106.32383   -57.542149    128.67632   -4426.2299 
49894000    5.3691505   -4731.3686    -4722.166   -4731.3686            0    2206.2647    17.871151    23.261807    21.852486    9084.4121      2243.66    2194.0317    2181.1023   -40.002506   -7.8482373     17.98485    -4429.865 
49895000    5.2153488   -4730.3467   -4721.4078   -4730.3467            0    2227.3196    17.815769    23.310205    21.874348    9084.1815    2381.3737    2107.7354    2192.8499   -28.470556   -32.522391    165.24447   -4426.3247 
49896000    4.9440095   -4730.6679   -4722.1941   -4730.6679            0    2227.4178    17.858164    23.285875    21.838439    9081.3616    2311.2462     2079.217      2291.79    66.301975   -20.454314    54.559336   -4427.1897 
49897000    4.9884521   -4731.1396   -4722.5895   -4731.1396            0      2209.87    17.878312    23.252411    21.852524    9084.3972    2148.2234    2224.6312    2256.7555   -111.18531   -24.488336   -6.8794396   -4429.8114 
49898000      4.88137   -4730.8376   -4722.4711   -4730.8376            0    2228.9094     17.88168    23.225323    21.871612    9083.4513    2121.8069    2193.0404     2371.881    3.3197592   -13.571107    241.25012   -4427.2012 
49899000    5.4470898   -4730.5465   -4721.2103   -4730.5465            0    2216.9927    17.932083    23.186864    21.842169    9081.7282    2120.2617    2262.0656    2268.6506   -149.85904  -0.63964951     25.93473   -4427.5748 
49900000    4.9501948   -4730.4939   -4722.0095   -4730.4939            0    2193.4257    17.904509    23.226585    21.840907    9082.7726    2172.4958    2230.7616    2177.0196   -79.281463    35.455311    -91.76003   -4431.4619 
49901000    5.4420381   -4730.8464   -4721.5189   -4730.8464            0    2196.9142    17.868909    23.265385    21.849301    9083.3455    2199.7951     2254.875    2136.0725   -124.81684   -97.513066    140.84505   -4430.4909 
49902000    4.8205573   -4730.7777   -4722.5155   -4730.7777            0    2218.3252    17.851807    23.271553    21.869067    9085.2692    2227.6595    2170.4564    2256.8596   -123.41982   -37.311096    95.775413   -4428.5889 
49903000    5.1423287   -4730.4624   -4721.6487   -4730.4624            0     2232.958    17.831945     23.31572    21.847255    9083.3158    2289.7912    2109.4885    2299.5941    104.75583    9.7241824     -39.6572   -4425.8468 
49904000    5.0251229   -4730.7792   -4722.1664   -4730.7792            0    2213.8932    17.835108    23.301857    21.858799    9084.3233    2324.0975    2035.1333    2282.4488   -98.899459    127.57377    40.818336   -4428.8575 
49905000    5.1949695   -4731.0322   -4722.1282   -4731.0322            0    2226.0136    17.883803    23.244762    21.853589    9084.6405    2228.5222    2281.6534    2167.8652   -119.61221   -130.15257    63.954637   -4427.2033 
49906000    4.7013804   -4730.9798   -4722.9218   -4730.9798            0     2216.167    17.906191    23.231349    21.833929    9082.5863    2111.8658    2289.4892    2247.1458   -49.735622   -16.578169   -20.301201   -4429.3679 
49907000    5.0008749   -4730.7975   -4722.2262   -4730.7975            0    2232.7287    17.956598    23.174839     21.82179    9080.9475    2150.6197    2303.4716    2244.0949   -19.152492    97.327908    118.15624   -4426.5319 
49908000     5.278451   -4731.2909   -4722.2438   -4731.2909            0    2213.6047    17.907401    23.199506    21.868373    9085.0594    2090.3958    2289.1536    2261.2647   -202.04246    -94.60579    116.91073   -4428.9494 
49909000    5.2290648   -4731.1492   -4722.1868   -4731.1492            0    2195.6702    17.887547    23.255551    21.842684    9086.2238    2166.8969    2168.8292    2251.2846    -39.50077   -26.218551    23.765088   -4431.2314 
49910000     5.747609   -4731.0846   -4721.2334   -4731.0846            0    2207.7361    17.855039    23.260645    21.870379    9083.1998    2299.7721    2206.2367    2117.1996   -117.19045    59.394229    85.912571   -4428.7765 
49911000    5.0990725   -4731.2591   -4722.5194   -4731.2591            0    2219.1581    17.821948     23.30972    21.864747    9083.1541    2261.3625    2088.0947    2308.0171       73.846    72.583823    146.11582   -4428.5509 
49912000    5.1410423   -4731.0149   -4722.2033   -4731.0149            0    2187.8356    17.854906    23.290219    21.847535    9085.1812    2251.5026    2091.9608    2220.0435    -18.00464    -171.7594   -33.330139   -4432.3193 
49913000    5.1561089   -4730.7263   -4721.8889   -4730.7263            0    2212.2823    17.865096    23.266802     21.84474    9080.0641    2178.8806    2192.5143    2265.4522   -192.69724    71.419969    96.255805   -4428.9309 
49914000    5.2098454   -4730.9934   -4722.0639   -4730.9934            0    2212.3548    17.901121    23.208983    21.863188    9083.4289    2173.7753    2257.1928    2206.0963    -176.4379   -42.459717      117.815   -4428.9877 
49915000    5.1389033    -4730.883   -4722.0751    -4730.883            0    2234.1063    17.936482    23.199172    21.830115    9083.7628     2223.205    2256.8111    2222.3027   -40.294354   -76.541015    145.46978   -4426.1066 
49916000    5.1852519   -4730.2702   -4721.3828   -4730.2702            0    2238.3034    17.899876    23.206244    21.862122    9081.2824     2156.615    2369.4478    2188.8474    69.179666     33.10648    5.6613198   -4424.9393 
49917000    5.3067311   -4731.4852   -4722.3897   -4731.4852            0    2191.7234    17.854295    23.252682    21.883959    9085.3499    2256.0649    2218.5732    2100.5322   -200.65792    37.011761    99.112649   -4431.9852 
49918000    5.7798407   -4731.0531   -4721.1466   -4731.0531            0     2220.199     17.85141    23.293061    21.848284    9084.8223    2313.8585    2127.4206    2219.3179    27.822846    -103.1968    139.73562   -4426.9862 
49919000    5.2646291   -4730.4841   -4721.4607   -4730.4841            0    2182.4743    17.840334    23.290758    21.865675    9085.5138    2279.1148     2151.835    2116.4732   -72.070469   -73.245409    85.350607   -4432.2765 
49920000     5.078023   -4730.8115    -4722.108   -4730.8115            0    2215.5002    17.864225    23.270687    21.856226    9085.9125    2217.4702    2163.1988    2265.8317   -94.245411     44.72435    34.548601   -4428.5349 
49921000    5.1322908   -4730.6929   -4721.8963   -4730.6929            0    2241.5185    17.894349    23.236929    21.845945    9083.7558    2125.6258    2259.0839    2339.8459   -113.57962   -9.1542145    58.542319   -4424.9461 
49922000     5.078489   -4730.9313    -4722.227   -4730.9313            0    2203.7922    17.918954    23.222401    21.833446    9085.3584    2075.8908    2336.6569    2198.8288    36.017799   -109.06279    65.919658   -4430.2231 
49923000    4.9988457   -4730.7188   -4722.1509   -4730.7188            0     2230.746    17.917571    23.207693    21.850139    9085.8449    2147.9324    2427.6154    2116.6903    -94.61714    29.645672    81.541489   -4426.5598 
49924000    5.0416084    -4730.905   -4722.2639    -4730.905            0    2250.7545    17.896913    23.222438    21.851664     9081.769    2217.1584    2270.8693    2264.2357   -198.75628    37.002722    32.982271   -4424.1553 
49925000    5.4168894   -4730.8977   -4721.6134   -4730.8977            0    2196.5058    17.872251    23.262176    21.850259    9084.1896    2288.6055    2192.6877    2108.2242    98.808684   -107.77804    64.744813   -4430.6124 
49926000    5.0743504   -4730.6899   -4721.9926   -4730.6899            0    2212.4372    17.845528    23.277197    21.871495    9085.2849     2242.252    2192.6093    2202.4505   -103.54115   -52.950678    193.93199   -4428.8456 
49927000    5.2410076   -4730.4054   -4721.4225   -4730.4054            0    2203.1689    17.829842    23.314724    21.855126    9085.1289      2276.42     2129.313    2203.7736   0.35369819    48.662662   -10.393034   -4429.5086 
49928000    5.2169851   -4730.5951   -4721.6534   -4730.5951            0    2210.3685    17.866065    23.263915    21.858086    9084.9769    2211.9685    2170.1205    2249.0166   -111.07485    45.151878    20.300718   -4428.7904 
49929000    5.1602867   -4730.9134   -4722.0688   -4730.9134            0    2212.9646    17.877099    23.230273    21.865551    9080.5424    2138.7411    2238.0834    2262.0692   -83.168362   -128.83872    124.74259   -4429.0051 
49930000    5.2709244   -4730.8794   -4721.8452   -4730.8794            0    2214.8947    17.921815    23.191129    21.853829    9083.0443    2047.7427     2311.958    2284.9833   -217.23926    5.2345883   -24.334959    -4428.445 
49931000    5.2468585    -4730.547   -4721.5541    -4730.547            0    2214.3498    17.940991    23.165472    21.853246    9082.4607    2089.2476    2349.3981    2204.4037   -38.412933    48.511165    45.748908   -4428.2449 
49932000    5.4515989   -4730.5961   -4721.2523   -4730.5961            0    2227.5638    17.886739    23.248659    21.843879    9083.6176    2197.3958     2259.775    2225.5207   -112.48284   -57.135216    158.07425   -4426.1552 
49933000    5.2098639   -4730.9967   -4722.0672   -4730.9967            0     2220.332    17.853753    23.263025     21.86608    9081.6892    2289.2649    2182.2559    2189.4752   -132.39963     52.68492   -58.932784   -4427.9906 
49934000    5.0577009   -4731.0325   -4722.3637   -4731.0325            0    2193.8094     17.85771    23.266459    21.869737    9086.5625    2272.5504    2142.4746    2166.4032   -33.943648    65.184957   -41.132952   -4431.6441 
49935000    5.2869387   -4730.3856    -4721.324   -4730.3856            0    2229.3671    17.823202    23.289625    21.883379    9083.6964    2338.4576    2127.4799    2222.1639   -129.74023    27.696221    215.50142   -4425.9855 
49936000    5.6293358   -4731.2665    -4721.618   -4731.2665            0    2204.5704    17.864116    23.284695    21.838333    9083.8837    2131.1953    2194.7527    2287.7634   -65.998936   -100.37795    83.893955   -4429.5585 
49937000    4.7272759   -4730.3647   -4722.2623   -4730.3647            0    2235.7321    17.886283    23.256978    21.840006    9085.0252    2252.7267    2246.1247    2208.3448    12.433104   -48.484816   -53.612856   -4426.0373 
49938000    5.6657046   -4731.1597   -4721.4489   -4731.1597            0    2222.4596    17.890407    23.234207    21.850359    9082.5261    2172.7428    2256.9146    2237.7213    38.119829   -25.883186    236.86187   -4427.0634 
49939000    4.9059115   -4730.7964   -4722.3878   -4730.7964            0    2270.5767    17.888415    23.225909    21.861578    9082.9327    2197.8198    2355.3389    2258.5713   -232.31309   -69.835537     69.66295   -4421.6153 
49940000    5.4882502   -4730.4217    -4721.015   -4730.4217            0    2200.8597    17.898403     23.21551    21.863149    9084.5877    2189.4406    2329.6978    2083.4407   -88.380283   -13.442231   -39.973562   -4429.4244 
49941000    5.4132222   -4731.0714   -4721.7933   -4731.0714            0    2208.0939    17.866631    23.267847    21.850719    9083.7376    2231.2617    2199.5221    2193.4978     105.0654   -56.326373    183.69494   -4429.2717 
49942000    5.4338203   -4730.8567   -4721.5433   -4730.8567            0    2222.6978    17.825624    23.316106    21.849731    9081.2757    2306.9098    2181.3617    2179.8219    73.825593   -11.210304      82.3662   -4427.1668 
49943000    5.2119609   -4730.2435   -4721.3104   -4730.2435            0       2222.5    17.823074    23.295023    21.870002    9080.1825    2292.5786    2080.1025    2294.8189   -51.060467   -59.119114    14.953077   -4426.9955 
49944000    5.4136451    -4730.539   -4721.2602    -4730.539            0    2206.2428    17.841006    23.252326    21.893783    9082.5243    2361.4567    2191.5979    2065.6737   -169.22189  -0.54994189    217.24348   -4429.0228 
49945000    4.9961852   -4730.4704   -4721.9071   -4730.4704            0    2233.9375    17.885606    23.231656    21.861911    9083.8918    2273.4123    2263.7783    2164.6218   -39.172046   -24.251648    93.608461   -4425.9568 
49946000     5.141511   -4730.4013   -4721.5889   -4730.4013            0    2212.7364    17.914695     23.19849    21.852858    9081.9138    2144.3605    2254.5358    2239.3129    75.426473    14.376331    13.195269   -4428.5111 
49947000    5.2282755   -4730.6307   -4721.6696   -4730.6307            0     2213.122     17.91728    23.203434    21.849086    9083.5922    2159.0871    2241.0337    2239.2454   -57.341947    4.3718147    86.314651   -4428.4865 
49948000    5.1839991   -4730.4464   -4721.5612   -4730.4464            0    2224.4841      17.8956    23.209047    21.864865    9081.3491    2139.3407    2319.6415    2214.4701    -92.63644   -11.988292    45.789286   -4426.9457 
49949000    5.6748658   -4731.0033   -4721.2768   -4731.0033            0    2221.3173    17.873198    23.248622    21.858324    9082.7291    2186.5596    2201.7155    2275.6768   -29.983826   -53.418278    50.819484    -4427.036 
49950000    4.9652091     -4730.37   -4721.8598     -4730.37            0    2235.0281    17.826428    23.310581    21.857971    9082.9575    2397.6609    2070.5452    2236.8783   -96.491604   -24.681077    70.090746   -4425.7954 
49951000    5.0987402   -4730.4394   -4721.7003   -4730.4394            0    2239.0345    17.819231    23.304539    21.870709    9082.2269    2268.1788    2119.1967     2329.728   -116.09357   -9.6223408    171.76412   -4425.1291 
49952000    4.9388228   -4729.9396   -4721.4747   -4729.9396            0    2209.2998    17.825907    23.305478    21.876244    9088.2951    2370.4743    2171.3109    2086.1142   -107.47967    10.071718   -54.926709   -4428.6464 
49953000     5.277635    -4731.476   -4722.4303    -4731.476            0    2185.4108    17.889785    23.232136    21.866356    9088.0493    2158.0579    2194.9941    2203.1805    -82.23314    61.090848    39.219188   -4432.7762 
49954000    5.0737711   -4730.9453   -4722.2491   -4730.9453            0    2226.8658    17.898583    23.239209    21.836761    9082.9768    2123.3592    2281.3188    2275.9193   -55.844802      29.5839    77.784387   -4427.2653 
49955000    5.1473896   -4731.3358   -4722.5133   -4731.3358            0    2213.0167    17.909188     23.21872    21.844461    9083.5476    2093.4506    2301.5127    2244.0869     92.09002   -52.974881     55.96163   -4429.3457 
49956000    5.1754841   -4731.2408   -4722.3702   -4731.2408            0    2200.5233    17.910658    23.205902    21.853122     9082.878      2044.59    2243.8709    2313.1092    -188.1532    5.3200384     108.8733    -4430.879 
49957000    5.0309033    -4730.549   -4721.9262    -4730.549            0    2216.2809    17.864622     23.23714     21.87615    9081.2869    2237.3793    2225.5279    2185.9355   -67.694726   -19.010154     19.68557   -4428.3992 
49958000    5.4663655   -4730.9084   -4721.5393   -4730.9084            0    2176.6579    17.834369    23.310844    21.844252    9081.4027    2269.4769     2114.135    2146.3618   -31.792354   -91.444178   -0.2030988   -4433.2563 
49959000    4.9388096   -4730.4416   -4721.9767   -4730.4416            0    2238.0544    17.831845     23.31513     21.84373    9081.5701    2391.4456    2050.2799    2272.4376   -27.863929   -57.221283    56.065159   -4425.5567 
49960000    5.5814405   -4730.8712   -4721.3048   -4730.8712            0    2202.0704     17.84576    23.266823    21.875964    9083.2096    2209.3616    2250.4253    2146.4243   -118.51074    11.221054    51.087177   -4429.5981 
49961000    5.2568971   -4731.1054   -4722.0953   -4731.1054            0    2208.7631    17.885272    23.222119    21.867903    9082.4816    2164.0697    2348.9147    2113.3047   -24.499324    6.1666385   -3.2117974   -4429.5254 
49962000    5.3008753   -4730.8915    -4721.806   -4730.8915            0    2223.9614    17.917145    23.213092    21.838451    9082.8811    2137.7535     2197.349    2336.7818   -37.233647    -27.67931    107.24496   -4427.2101 
49963000    5.4015282   -4730.7912   -4721.5332   -4730.7912            0    2200.3001    17.924814    23.211124     21.83661    9085.2324    2078.6495    2294.1127    2228.1382    117.86052    102.87869    53.754849    -4429.996 
49964000    5.3476912   -4731.3598    -4722.194   -4731.3598            0    2218.6108    17.882214     23.26653    21.837591    9085.6841    2190.7306    2206.5755    2258.5264   -234.16395    39.404914    48.258092   -4428.2162 
49965000    4.7867264    -4731.076   -4722.8718    -4731.076            0    2200.5945    17.856987    23.254297    21.875071      9083.66    2280.2494    2232.1544    2089.3798   -98.431963   -32.764254    71.761605   -4431.3461 
49966000    5.0276228   -4730.6125   -4721.9953   -4730.6125            0     2242.445    17.842347     23.28483    21.859489    9081.6561    2369.0132    2096.5475    2261.7744   -33.883803   0.70067892   -1.8028765    -4424.991 
49967000    5.0315002   -4730.9232   -4722.2994   -4730.9232            0    2216.1714     17.82437    23.304929    21.867546    9083.6841    2295.5597    2143.3193    2209.6352   -179.84902    65.290222   -46.542464   -4428.7094 
49968000    5.1490499   -4730.5751   -4721.7498   -4730.5751            0    2228.9416    17.864436    23.250796    21.871883     9084.757    2309.3455    2211.3375    2166.1418   -142.62788   -57.747172     245.6663   -4426.4331 
49969000    5.3245568   -4730.6369   -4721.5108   -4730.6369            0    2224.4083    17.890837    23.213934    21.872187    9083.8849    2181.4551    2308.2275    2183.5423   -62.714401   -53.068148    118.35465   -4426.8231 
49970000    4.8580917   -4730.8217   -4722.4951   -4730.8217            0    2211.1235    17.908434    23.207166    21.859511    9084.9001    2081.0936    2328.3988    2223.8782   -2.0606522    82.393094    -89.79566   -4429.5346 
49971000    5.3422089   -4731.0892   -4721.9329   -4731.0892            0    2230.0193      17.8992    23.225397    21.856523    9086.1073    2174.4923    2299.8166    2215.7489    43.266193    11.366782     30.03802   -4426.4296 
49972000    5.3521302    -4731.585   -4722.4117    -4731.585            0    2207.0369    17.895221    23.244094    21.843497    9085.9819    2261.0477    2141.7348    2218.3282   -67.810914   -54.485873    59.664324   -4429.9578 
49973000    5.1692738   -4730.9032   -4722.0433   -4730.9032            0     2224.589     17.84725    23.264699    21.872463    9081.6852    2252.3042    2198.6723    2222.7905   -143.03045    97.423568   -53.834688    -4427.403 
49974000    5.2366083   -4730.8499   -4721.8745   -4730.8499            0     2192.656    17.838967    23.310239    21.847471    9084.8469    2276.7432    2096.5082    2204.7165    -21.61666   -74.242004   -2.6835655   -4431.3626 
49975000    5.0129695   -4730.9211    -4722.329   -4730.9211            0    2222.3106     17.83941    23.289611    21.865828    9084.6592    2389.6767    2094.1886    2183.0665   -249.70195   -27.542477    127.01846   -4427.8941 
49976000    5.2345094   -4730.7697    -4721.798   -4730.7697            0    2225.4229    17.827136     23.28958    21.875641    9082.4713    2249.9901    2256.8661    2169.4125   -92.619359   -39.525651    92.236971   -4427.0217 
49977000    5.4778833   -4730.1652   -4720.7763   -4730.1652            0    2224.4621    17.898013    23.228843    21.838921     9079.534     2223.577    2302.5312    2147.2782    -88.52607    41.069504    19.538494   -4426.2226 
49978000    5.4274688   -4730.7115    -4721.409   -4730.7115            0    2206.5711    17.916415    23.190913     21.86048    9082.9862     2096.229    2303.3551    2220.1291   -96.931285   -109.18192   -30.080539   -4429.1133 
49979000     5.314056   -4730.8312   -4721.7231   -4730.8312            0    2186.2309    17.910298    23.212881    21.852532    9085.1816     2111.088    2270.2926     2177.312    -19.48754   -44.080338    217.42519   -4432.0518 
49980000    5.4119584   -4730.5182   -4721.2423   -4730.5182            0    2232.0554     17.88152    23.228468    21.860881    9080.1423    2234.0712    2292.8678    2169.2272   -16.953446   -33.917849     88.52245   -4425.6633 
49981000    5.3500653    -4730.494   -4721.3242    -4730.494            0    2212.8924    17.860441    23.268675    21.853862    9082.2202    2238.0553    2131.9089    2268.7131    169.46195    3.1195795   -1.2691789   -4428.2158 
49982000      5.21079   -4730.6477   -4721.7166   -4730.6477            0    2211.4251    17.832738      23.2943    21.870548    9085.0505    2352.7224    2083.0427    2198.5102   -120.64447   -29.952467    133.57849   -4428.7113 
49983000     5.047844   -4731.0364   -4722.3845   -4731.0364            0    2244.8644    17.842407    23.315362    21.836727    9084.1261    2342.5856    2104.0695    2287.9381   -107.97499   -107.54656    57.230866   -4424.9789 
49984000    5.3552798   -4730.6646   -4721.4859   -4730.6646            0    2200.4778    17.869271    23.256799    21.862457    9085.6445    2284.8069    2160.4372    2156.1892    -22.69897   -8.2709372    138.23891    -4429.912 
49985000    5.3149994   -4731.3882   -4722.2784   -4731.3882            0     2205.876     17.88981    23.212536    21.872803    9083.0722    2213.4189    2222.7545    2181.4547    2.1536517   -1.6791291    65.392606    -4430.072 
49986000    5.3095608   -4731.0807   -4721.9803   -4731.0807            0     2226.604    17.909707    23.214679    21.851443    9085.1335    2045.2123    2311.1647    2323.4351   -83.121995    42.758798    98.566559   -4426.9611 
49987000    5.2746291   -4731.0246    -4721.984   -4731.0246            0    2218.2089    17.910729    23.224577    21.842479    9085.7966     2241.616    2218.9002    2194.1104      -209.73   -24.697157     93.06605   -4428.0558 
49988000    5.2355002   -4730.5811   -4721.6076   -4730.5811            0    2228.1622     17.88613     23.24076    21.848553    9082.1646    2169.4037     2227.002    2288.0809   -8.4682574    36.395666    119.33128   -4426.4785 
49989000    5.1962675   -4730.6163   -4721.7101   -4730.6163            0    2250.7896    17.837672    23.286678    21.869545    9084.1739      2329.35     2124.991    2298.0278    53.740907    8.0215274   -32.599962   -4423.5179 
49990000    5.3226807   -4730.8689    -4721.746   -4730.8689            0     2216.225    17.820619    23.300578     21.87876    9084.7333    2353.0442    2125.9811    2169.6497     103.4138     46.05186   -8.2725282    -4428.115 
49991000    5.0549603   -4731.0941   -4722.4301   -4731.0941            0    2189.4066    17.838802    23.308457    21.854797    9087.1142    2217.8001    2140.5627     2209.857   -127.29282   -87.314057    160.52333   -4432.2763 
49992000    5.5136642   -4731.3849   -4721.9346   -4731.3849            0      2207.49    17.862252    23.258783    21.860891       9082.2    2172.3076    2200.7519    2249.4104    131.65075    -41.06988    158.31262   -4429.5425 
49993000    5.0072541   -4730.0253    -4721.443   -4730.0253            0    2207.4681    17.912652    23.207979    21.857243    9086.4157    2058.5771    2243.2645    2320.5628   -65.273081    59.879225   -32.564002    -4428.918 
49994000    5.2221164   -4730.5896    -4721.639   -4730.5896            0    2223.3205    17.915113    23.200799    21.864435    9087.8416    2189.2435    2287.2681    2193.4499   -233.72947    -82.90649    44.186418   -4426.9671 
49995000    5.5681503    -4730.878   -4721.3343    -4730.878            0    2203.5056     17.94019    23.172568     21.85214    9084.3774    2096.2435    2222.3781    2291.8954   -126.07574   -65.961979    90.979564      -4429.4 
49996000    5.3358156   -4731.0793   -4721.9339   -4731.0793            0    2181.2819    17.883437    23.253674    21.848483    9085.8146     2162.663    2206.0942    2175.0884   -144.47535   -52.350692    9.6488059   -4432.8981 
49997000    5.0780823   -4730.7919   -4722.0883   -4730.7919            0    2215.4736    17.846857    23.287269    21.864256    9086.8846    2266.0692    2191.7717    2188.5799    49.361984   -22.499556    62.572374   -4428.4873 
49998000    5.3812155   -4730.3173   -4721.0941   -4730.3173            0    2212.2447    17.830192    23.294331    21.877485     9086.647    2335.9044     2073.421    2227.4086   -24.337831   -36.025919    117.11508   -4427.9287 
49999000      5.36231   -4731.2702   -4722.0794   -4731.2702            0    2213.2105    17.825941    23.285963    21.880707    9082.5548    2280.2952    2126.6126    2232.7236    3.7773923    11.321522     6.084665   -4428.9181 
50000000    5.3472233   -4730.1701   -4721.0051   -4730.1701            0    2217.9027     17.85421    23.264225    21.868341    9083.3292    2270.8378    2166.5914    2216.2788   -163.36491    20.398315    25.547085   -4427.1972 
Loop time of 378.925 on 64 procs for 250000 steps with 864 atoms

Performance: 114.007 ns/day, 0.211 hours/ns, 659.761 timesteps/s
194.9% CPU use with 32 MPI tasks x 2 OpenMP threads

MPI task timing breakdown:
Section |  min time  |  avg time  |  max time  |%varavg| %total
---------------------------------------------------------------
Pair    | 17.255     | 24.607     | 36.112     | 114.4 |  6.49
Bond    | 1.0268     | 1.2189     | 1.9628     |  18.3 |  0.32
Kspace  | 188.09     | 201.85     | 213.33     |  47.8 | 53.27
Neigh   | 0.070316   | 0.083135   | 0.098786   |   2.9 |  0.02
Comm    | 51.178     | 60.504     | 68.569     |  53.0 | 15.97
Output  | 0.61915    | 0.61953    | 0.62222    |   0.1 |  0.16
Modify  | 69.075     | 71.776     | 76.353     |  21.0 | 18.94
Other   |            | 18.27      |            |       |  4.82

Nlocal:        27.0000 ave          38 max          19 min
Histogram: 8 6 2 0 4 2 2 1 3 4
Nghost:        2177.91 ave        2287 max        2072 min
Histogram: 8 8 0 0 0 0 0 1 7 8
Neighs:        6694.53 ave        9513 max        4753 min
Histogram: 8 7 1 0 4 2 2 1 3 4

Total # of neighbors = 214225
Ave neighs/atom = 247.94560
Ave special neighs/atom = 2.0000000
Neighbor list builds = 250
Dangerous builds = 0

unfix		3
unfix		2
unfix		1

write_data	data.final.${pid} nocoeff
write_data	data.final.0 nocoeff
System init for write_data ...
PPPM initialization ...
  extracting TIP4P info from pair style
  using 12-bit tables for long-range coulomb (../kspace.cpp:340)
  G vector (1/distance) = 0.37225617
  grid = 24 27 25
  stencil order = 5
  estimated absolute RMS force accuracy = 0.0030978329
  estimated relative force accuracy = 9.3290318e-06
  using double precision FFTW3
  3d grid and FFT values/proc = 4410 672
Last active /omp style is kspace_style pppm/tip4p/omp

write_restart   restart.lmp.${pid}
write_restart   restart.lmp.0
System init for write_restart ...
PPPM initialization ...
  extracting TIP4P info from pair style
  using 12-bit tables for long-range coulomb (../kspace.cpp:340)
  G vector (1/distance) = 0.37225617
  grid = 24 27 25
  stencil order = 5
  estimated absolute RMS force accuracy = 0.0030978329
  estimated relative force accuracy = 9.3290318e-06
  using double precision FFTW3
  3d grid and FFT values/proc = 4410 672
Last active /omp style is kspace_style pppm/tip4p/omp
Total wall time: 0:06:19
