#include		in.partitions
include		in.temp
variable        temperature equal 203.27
variable	tempDamp equal 100.0
include		in.pressure
variable        pressure equal 8299.9
variable        pressureDamp equal 1000.0 # This is 1 ps
include		in.seed
variable        seed equal 745823

units		real
atom_style	full
read_restart    restart.lmp.${pid}
read_restart    restart.lmp.1
Reading restart file ...
  restart file = 30 Jul 2021, LAMMPS = 30 Jul 2021
  restoring atom style full from restart
  triclinic box = (-3.1761243 -0.12135906 -0.0034950443) to (14.786123 22.701358 19.233493) with tilt (-0.29088394 -6.8026839 0.24153929)
  2 by 4 by 2 MPI processor grid
  restoring pair style lj/cut/tip4p/long/omp from restart
  restoring bond style harmonic/omp from restart
  restoring angle style harmonic/omp from restart
  1008 atoms
  672 bonds
  336 angles
Finding 1-2 1-3 1-4 neighbors ...
  special bond factors lj:    0        0        0       
  special bond factors coul:  0        0        0       
     2 = max # of 1-2 neighbors
     1 = max # of 1-3 neighbors
     1 = max # of 1-4 neighbors
     2 = max # of special neighbors
  special bonds CPU = 0.001 seconds
  read_restart CPU = 0.006 seconds

include 	in.setup
variable	out_freq equal 1000
variable	out_freq2 equal 10000
variable	out_freq3 equal 1000

timestep	2.0

neigh_modify    delay 7 every 1

include		in.tip4p
# This is TIP4P/Ice

# create groups ###
group ox type 2
336 atoms in group ox
group hy type 1
672 atoms in group hy

# set charges - beside manually ###
set group ox charge -1.1794
Setting atom values ...
  336 settings made for charge
set group hy charge 0.5897
Setting atom values ...
  672 settings made for charge

# ### TIP3P Potential Parameters ###
pair_style lj/cut/tip4p/long/omp 2 1 1 1 0.1577 8.5
pair_coeff 1 1*2 0.000 0.000
pair_coeff 2 2 0.21084 3.1668
bond_style  harmonic
bond_coeff  1 450 0.9572
angle_style harmonic
angle_coeff 1 55 104.52
kspace_style pppm/tip4p/omp 1.0e-5
pair_modify tail yes

thermo          ${out_freq}
thermo          1000
thermo_style    custom step temp pe etotal epair emol press lx ly lz vol pxx pyy pzz pxy pxz pyz enthalpy

restart 	${out_freq3} restart.lmp.${pid} restart2.lmp.${pid}
restart 	1000 restart.lmp.${pid} restart2.lmp.${pid}
restart 	1000 restart.lmp.1 restart2.lmp.${pid}
restart 	1000 restart.lmp.1 restart2.lmp.1


include         in.dump
dump            myDump all atom ${out_freq2} dump.water.${pid}
dump            myDump all atom 10000 dump.water.${pid}
dump            myDump all atom 10000 dump.water.1
dump            myDump2 all dcd ${out_freq2} dump.dcd
dump            myDump2 all dcd 10000 dump.dcd
dump_modify     myDump append yes
dump_modify     myDump2 append yes


variable natoms 	equal  "count(all)"                        # NUMBER ATOMS
variable H      	equal  "enthalpy/v_natoms"                 # ENTHALPY-per-atom
variable Vol      	equal  "vol/v_natoms"                 # volume-per-atom
fix AVG all 		ave/time ${out_freq} 1 ${out_freq} v_Vol v_H file vol_enthalpy.dat
fix AVG all 		ave/time 1000 1 ${out_freq} v_Vol v_H file vol_enthalpy.dat
fix AVG all 		ave/time 1000 1 1000 v_Vol v_H file vol_enthalpy.dat



fix 		1 all shake 1e-6 200 0 b 1 a 1
       0 = # of size 2 clusters
       0 = # of size 3 clusters
       0 = # of size 4 clusters
     336 = # of frozen angles
  find clusters CPU = 0.000 seconds
fix             2 all nph tri ${pressure} ${pressure} ${pressureDamp}
fix             2 all nph tri 8299.9 ${pressure} ${pressureDamp}
fix             2 all nph tri 8299.9 8299.9 ${pressureDamp}
fix             2 all nph tri 8299.9 8299.9 1000
fix             3 all temp/csvr ${temperature} ${temperature} ${tempDamp} ${seed}
fix             3 all temp/csvr 203.27 ${temperature} ${tempDamp} ${seed}
fix             3 all temp/csvr 203.27 203.27 ${tempDamp} ${seed}
fix             3 all temp/csvr 203.27 203.27 100 ${seed}
fix             3 all temp/csvr 203.27 203.27 100 745823


run             250000
PPPM initialization ...
  extracting TIP4P info from pair style
  using 12-bit tables for long-range coulomb (../kspace.cpp:340)
  G vector (1/distance) = 0.3797103
  grid = 24 27 32
  stencil order = 5
  estimated absolute RMS force accuracy = 0.0023971259
  estimated relative force accuracy = 7.2188735e-06
  using double precision FFTW3
  3d grid and FFT values/proc = 7875 1344
Last active /omp style is kspace_style pppm/tip4p/omp
Neighbor list info ...
  update every 1 steps, delay 7 steps, check yes
  max neighbors/atom: 2000, page size: 100000
  master list distance cutoff = 10.8154
  ghost atom cutoff = 10.8154
  binsize = 5.4077, bins = 5 5 4
  1 neighbor lists, perpetual/occasional/extra = 1 0 0
  (1) pair lj/cut/tip4p/long/omp, perpetual
      attributes: half, newton on, omp
      pair build: half/bin/newton/tri/omp
      stencil: half/bin/3d/tri
      bin: standard
Per MPI rank memory allocation (min/avg/max) = 12.45 | 12.47 | 12.48 Mbytes
Step Temp PotEng TotEng E_pair E_mol Press Lx Ly Lz Volume Pxx Pyy Pzz Pxy Pxz Pyz Enthalpy 
12250000    210.04706   -4951.1703   -4531.0502   -4951.1703            0    7167.7735    17.962248    22.822717    19.236988    7886.1513    6356.0319    6838.5245    8308.7641   -28.174392   -774.59121   -812.18186   -3706.6744 
12251000    208.14548   -4971.3319   -4555.0152   -4971.3319            0    7766.5385    17.936276    22.771254    19.222287    7850.9874    6853.6217    8197.7062    8248.2876    362.04873    470.24974   -1339.9605   -3665.7575 
12252000    202.79243   -4955.1208   -4549.5108   -4955.1208            0    8298.2321    18.033681    22.756166    19.231859     7892.321    7572.2899    8421.4441    8900.9623    664.87462    6.4293886    64.509565   -3594.3727 
12253000    198.88831   -4957.5623   -4559.7611   -4957.5623            0    8510.4924    17.898712    22.762153    19.292528    7860.0307    8865.9554    8285.4512    8380.0707    340.50926   -1193.5088   -949.67143   -3584.1992 
12254000    200.84171   -4977.3264   -4575.6181   -4977.3264            0    7615.1552    17.874312    22.708994      19.3765    7865.0694    8546.0834    6388.9052     7910.477   -352.02411   -789.17901    1248.3008   -3702.1296 
12255000    205.55862   -4958.9364   -4547.7938   -4958.9364            0    7893.1218    17.822537    22.764032    19.352408    7851.5197    6751.0488    8520.8201    8407.4966   -892.32128   -125.85482    216.57288   -3643.9811 
12256000    204.58881   -4949.3134   -4540.1105   -4949.3134            0    8913.2825    17.904149    22.851483     19.22331     7864.955     9578.047    8484.1202    8677.6804   -71.272145     253.9125   -866.43449   -3517.7365 
12257000    190.73504   -4934.3506    -4552.857   -4934.3506            0    8596.9892    17.937704    22.888603    19.121947    7850.8782    6422.6112    8312.3046    11056.052    636.77535   -829.30556   -204.99812   -3568.5275 
12258000    202.24876   -4947.2285    -4542.706   -4947.2285            0    10139.134    17.936081      22.6481    19.288129    7835.1878    12153.958    9482.7832    8780.6605    410.36212    372.45947    1046.8654   -3384.1256 
12259000    209.49746   -4948.2783   -4529.2575   -4948.2783            0    7497.5529    17.945234    22.827763    19.252298    7886.6952    9049.6474    6070.1631    7372.8482    113.70503   -156.49619   -959.18259   -3666.8937 
12260000    212.07335   -4962.4687   -4538.2958   -4962.4687            0    8784.7976    18.058462    22.749783    19.171562    7876.1778    9222.2217    7559.7038    9572.4672   -25.881055     259.8523   -532.80473   -3529.2214 
12261000    207.26806   -4970.4644   -4555.9027   -4970.4644            0    8652.6024     18.04863    22.699113    19.161558    7850.2582    7917.6847    9495.8047    8544.3178   -323.70444    51.888884   -920.75307   -3565.2839 
12262000    211.32959   -4939.4707   -4516.7855   -4939.4707            0    9075.5563    17.882319    22.677943    19.381923     7860.033    8264.4217    9926.5606    9035.6866    897.86582    1257.7887    1197.0695   -3476.4497 
12263000    206.83873   -4936.3059   -4522.6029   -4936.3059            0    7979.0597     18.04599    22.593542    19.309726    7873.0161    6806.2482    9393.9664    7736.9645    -156.7154   -477.07567    -968.8366   -3606.4483 
12264000    201.29556   -4958.1572   -4555.5412   -4958.1572            0    7570.7424    17.924271    22.719421    19.319043    7867.2758    7350.8716    8130.5544    7230.8011   -34.148873   -227.24378   -641.83382   -3686.9034 
12265000     204.7197   -4954.9741   -4545.5094   -4954.9741            0    8565.2604     17.86153    22.947642    19.196949    7868.4458    9613.4381    7913.5217    8168.8215    2239.5465   -742.18298    -34.55249   -3562.6183 
12266000    197.82755   -4937.6807   -4542.0012   -4937.6807            0    8591.2695    17.842581    22.960938    19.148943    7844.9847     8467.037    9824.0708    7482.7006    120.89297    1045.1817   -613.42953    -3559.065 
12267000    207.95744   -4959.7395   -4543.7989   -4959.7395            0    9499.9246    17.927156    22.953152    19.064888    7844.9106    8689.8841    8568.1281    11241.762   -342.12939   -551.46835   -1996.5714   -3456.9128 
12268000    201.66927   -4970.6786   -4567.3152   -4970.6786            0     7531.185    17.967536    22.789126    19.244179     7879.807     7981.323    7131.3225    7480.9094    598.02433   -868.54384    2199.7818   -3701.8397 
12269000    192.29835   -4935.1308   -4550.5103   -4935.1308            0    7758.6358    17.943826     22.74681     19.29088    7873.8582     8331.595     7236.588    7707.7245   -1381.0555    291.38636    955.90378   -3659.5695 
12270000    202.31261    -4963.304   -4558.6538    -4963.304            0    7505.6807    17.878098    22.785125    19.288514    7857.2667     8561.932    7900.5156    6054.5945   -1133.5888    133.88793    1097.9149   -3698.5765 
12271000    198.03573   -4965.9059   -4569.8099   -4965.9059            0    8421.7615     17.86194    22.946577    19.190548    7865.6369      7734.46    8301.3043    9229.5202   -2458.8993   -294.23634   -700.60065   -3603.7308 
12272000    203.93561   -4956.7121   -4548.8156   -4956.7121            0    7269.8258    17.816864    23.135266    19.152596    7894.6599    6613.4235    7820.2753    7375.7787    2588.7566    901.84827    2650.5966   -3711.8005 
12273000    208.60021   -4985.5015   -4568.2753   -4985.5015            0    9058.0159    17.863189    22.927348    19.131536     7835.427    9513.3907    7847.8964    9812.7605   -33.197612    61.399698   -2074.8416   -3533.2008 
12274000    215.52292   -4937.3729   -4506.3005   -4937.3729            0     9014.593    17.903851    22.652601    19.340759    7844.0082    9376.1206    9825.6535    7842.0049   -225.22704    81.670048   -1097.1323   -3475.0598 
12275000    219.88369   -4969.2213   -4529.4267   -4969.2213            0    8862.7689    17.892411     22.73256     19.30082    7850.4214    9447.0887    8958.0778    8183.1402   -87.828852   -240.40479   -1837.2659   -3514.7252 
12276000    205.75423   -4946.5087   -4534.9748   -4946.5087            0     7877.001    18.054819    22.676437    19.263288    7886.7552     6549.036    8469.5997    8612.3672   -875.77171    1042.5922   -1972.9589   -3628.9603 
12277000    210.48087   -4948.7709   -4527.7831   -4948.7709            0     7645.225    17.964123    22.821489    19.284655    7906.0922    8561.4834     6564.058    7810.1336    1198.3799    519.21203   -9.1947315   -3646.2715 
12278000    199.29314   -4960.1973   -4561.5864   -4960.1973            0    8733.4313    17.924617    22.821769    19.193848    7851.6558    7882.0422    8447.9767    9870.2751   -192.81622    856.97161    277.78322   -3561.5356 
12279000    200.44161   -4953.3682   -4552.4603   -4953.3682            0    8294.7928    17.820439    22.807859    19.382557    7877.9639    6880.2695    8760.4177    9243.6912   -831.22107    366.88219   -224.70391   -3599.4547 
12280000    212.62011   -4956.5943   -4531.3278   -4956.5943            0    7960.5851     17.89807    22.858481    19.183921    7848.5772    6598.8377    8349.9867    8932.9311   -1080.9077    271.52687   -1338.7007   -3620.1318 
12281000    208.37876   -4942.9671   -4526.1838   -4942.9671            0    8473.7478    17.932398    22.908693    19.114914    7852.5559    8606.6127     7749.225    9065.4057   -263.58774   -322.51749    1389.0592   -3555.7577 
12282000     198.1495   -4943.1171   -4546.7936   -4943.1171            0    6488.8632    17.832678    23.055445     19.27876    7926.2758    7524.1509    6200.5401    5741.8986   -994.96549    274.18568   -2055.0601   -3796.7031 
12283000    205.97469   -4964.6943   -4552.7195   -4964.6943            0    8314.8333     17.82053    22.818494    19.335803    7862.6658    8998.8931    8709.6238    7235.9829    -1138.684    1235.5445    391.74418   -3599.2666 
12284000    202.98232   -4981.9165   -4575.9267   -4981.9165            0    6863.8518    18.013594    22.633289    19.328618    7880.4105    6179.1525    8190.5945    6221.8084    1996.1305    777.97344     431.5911     -3787.08 
12285000    199.32357    -4980.647   -4581.9753    -4980.647            0    8473.3589     18.01352    22.557289    19.336793    7857.2388    8685.0256    9024.8125    7710.2387   -24.966415    354.01932   -1140.5676    -3611.015 
12286000    203.91567   -4977.8125   -4569.9559   -4977.8125            0    8036.6351    18.104399    22.565605    19.202315    7844.8509      7863.94    8326.8198    7919.1454   -1112.1969    247.73236    2070.2609   -3650.4917 
12287000    208.91835   -4958.7019   -4540.8394   -4958.7019            0    9583.6509    17.876505    22.740126    19.269503    7833.3223    10275.809    9415.7411    9059.4024   -190.99719    855.77781     2013.043   -3445.9938 
12288000     209.8353   -4968.1167   -4548.4202   -4968.1167            0    7632.1844    17.822231    22.833261    19.304717    7855.8547    8582.4985    8403.5875    5910.4673    -1291.319    78.716326    110.47101    -3674.004 
12289000    198.53472   -4949.1552   -4552.0612   -4949.1552            0    9652.7826    18.055908    22.798292    19.028527    7832.9762    10040.774     10046.84    8870.7331   -457.49018    12.683054   -1314.6859   -3449.3667 
12290000    207.99753    -4955.976   -4539.9553    -4955.976            0    8665.6182     18.00729    22.701418    19.187589    7843.7139    9289.5316    7837.1634    8870.1597    1289.7346   -637.09162   -464.03348   -3548.6734 
12291000    206.89119   -4956.5847   -4542.7768   -4956.5847            0      9156.47    17.906711    22.672641    19.287571    7830.6081    9870.2683    8393.1151    9206.0265   -702.28164   -672.69028    -3254.569   -3497.0952 
12292000    206.87393   -4963.5983   -4549.8249   -4963.5983            0    7925.9378    17.818108    22.752995    19.366795    7851.5955    8299.7649      8256.98    7221.0686   -853.05181   -820.91456   -237.60034   -3642.2458 
12293000    213.92784   -4961.2598   -4533.3777   -4961.2598            0    7082.7172    17.869347    22.909117    19.245807    7878.6748    5900.4787    7814.5406    7533.1324    526.97783   -98.430152    471.85777   -3719.5566 
12294000    203.95147   -4973.7115   -4565.7834   -4973.7115            0    9049.2551    17.896545     22.90815    19.074199    7819.9779    7572.2824    9592.5908    9982.8922      175.283    644.49488   -90.822111   -3533.7488 
12295000    198.58956   -4972.6758   -4575.4722   -4972.6758            0    7325.7117    17.759055    23.029403    19.211285      7857.04    9167.9103    6170.4757    6638.7491   -537.13698   -377.17073    1364.8655   -3736.0418 
12296000    199.20359   -4962.1318      -4563.7   -4962.1318            0    8762.0095     17.91601    22.875206    19.105339    7829.9873    7651.0734    9217.5875    9417.3677   -377.13776   -103.73811    297.50502   -3563.1457 
12297000    206.20706   -4960.4086    -4547.969   -4960.4086            0    8511.2161    17.982424     22.62824    19.246378    7831.5554    8387.5359    8965.3804    8180.7318   -82.324898   -285.36992   -1117.7077   -3575.8587 
12298000    200.50964    -4966.252    -4565.208    -4966.252            0    9520.9385    17.887558    22.697535    19.235225     7809.568    9790.3513    8862.2372     9910.227   -25.358607   -650.65013   -546.85256   -3480.8251 
12299000    213.65502   -4964.6916   -4537.3552   -4964.6916            0    7606.1399     17.86076    22.663354    19.454115    7874.7285    8789.7317    7506.7312    6521.9568    1604.2647   -666.88582   -1989.5459   -3663.8293 
12300000    198.84152   -4972.6259   -4574.9183   -4972.6259            0    7521.7164     18.07065     22.77407    19.146937    7879.7737    8096.8657    6653.4092    7814.8744    801.30775   -6.0806359    533.07351   -3710.5345 
12301000    221.62436   -4944.3593   -4501.0832   -4944.3593            0    8866.5844    17.911457    22.922521    19.174865    7872.7341    9021.9471    8068.9663    9508.8397   -732.09977   -452.33604    -486.7623   -3483.0596 
12302000    202.22616     -4967.33   -4562.8527     -4967.33            0    9015.0589    17.631678    22.936342     19.32138    7813.6853    8977.6848    8899.2234    9168.2686   -531.50378   -529.65145    783.20008   -3535.5454 
12303000    201.19138   -4978.7442   -4576.3366   -4978.7442            0    9818.2551    17.829369    22.812944    19.211512     7814.098    10458.387     9441.274    9555.1042   -430.06596    665.12355     302.6743   -3457.4423 
12304000    215.42506   -4949.1147   -4518.2379   -4949.1147            0    7914.1744    18.112415    22.815369    19.035557    7866.2806    6146.6984     8371.936    9223.8889   -1388.6773    92.366674    -1770.797   -3610.3109 
12305000    208.77835   -4953.9308   -4536.3483   -4953.9308            0    8398.6142    17.924598    22.800056    19.193757    7844.1397    8530.5372    8327.3072    8337.9982    70.066392   -1246.0576    1167.3724   -3575.5575 
12306000    216.56719   -4951.6398   -4518.4786   -4951.6398            0    7639.5242    17.888366    22.813324    19.362163    7901.5647    8619.8593     6593.041    7705.6722    -408.7635   -928.52365    1981.2514   -3638.1287 
12307000    196.39113   -4974.4843   -4581.6778   -4974.4843            0    8034.2311    17.927426    22.672142    19.435165    7899.4837    8945.9383    8770.6259    6386.1292   -336.77632    924.40709   -220.36772   -3656.0872 
12308000    206.25824    -4962.215    -4549.673    -4962.215            0    8172.9839      17.8723    22.759996    19.267472    7837.4967    8426.4523    8626.5994       7465.9    260.36363    874.78649    811.58155   -3615.4858 
12309000    199.07772   -4946.6228   -4548.4428   -4946.6228            0    9409.8389    17.922739    22.792761     19.17714    7834.0283    9534.5377    9262.6555    9432.3233   -1208.0104    396.38412   -2278.1747   -3473.3568 
12310000    206.32468   -4967.0102   -4554.3354   -4967.0102            0    8964.4263    17.929437    22.819544    19.155909    7837.4788    9123.0422    8872.3453    8897.8915   -1309.6501   -716.53705   -1383.5218   -3529.6872 
12311000    205.45254   -4940.8897   -4529.9592   -4940.8897            0    8973.8199    17.995901    22.814348    19.109691    7845.7652    7284.3508    8928.8275    10708.282     1060.292   -114.03544   -1854.3401   -3503.1528 
12312000    215.66386   -4939.4617   -4508.1074   -4939.4617            0    7678.6695    17.937368     22.78314    19.230504    7858.9222    8707.8926    8084.5465    6243.5694    863.23693   -1107.1866   -184.75204   -3628.0219 
12313000    206.91395   -4939.4467   -4525.5933   -4939.4467            0    8931.7445    17.674657    22.899441    19.431986    7864.8976    8339.9537    9576.2683    8879.0115   -669.85322    42.925078    310.32376   -3501.1091 
12314000    206.18728   -4973.2795   -4560.8795   -4973.2795            0    7664.1281    17.939175    22.778107    19.295475    7884.5256    8212.8256    7527.2609     7252.298    38.679582   -144.05876    -388.0306   -3679.5988 
12315000    196.74216   -4965.2298   -4571.7211   -4965.2298            0    8433.8068    18.057953    22.661359    19.255239    7879.5858    6795.7987    8475.8497    10029.772   -584.69214    654.68038    713.25821   -3602.5445 
12316000    205.62724   -4935.8477   -4524.5678   -4935.8477            0    7527.2808    17.989769    22.884254    19.203907    7905.9114    8325.6751    6602.4859    7653.6813   -440.78428    377.58273   -218.39305   -3656.6753 
12317000    198.69474   -4958.7353   -4561.3212   -4958.7353            0    6514.7451    17.897194    23.105084    19.111831    7903.0513    6935.9559    5633.4031    6974.8761    1448.8534    558.46771    200.52805   -3810.4454 
12318000    205.86354   -4959.5999   -4547.8474   -4959.5999            0    8184.2334     17.92989     22.80479    19.239603    7866.8308    7914.1121    8532.1933    8106.3946   -500.96273     226.3422   -795.24761   -3608.8731 
12319000     199.3414   -4975.3578   -4576.6504   -4975.3578            0     7595.721    17.941406    22.680235    19.307931     7856.693     7578.928    8441.3613    6766.8736    1608.9919    151.57454   -359.49263   -3706.3189 
12320000    203.49676   -4942.0662   -4535.0475   -4942.0662            0    9251.8533    17.926352    22.463841    19.440165    7828.4518    9450.1229    10713.715    7591.7222   -873.57981    735.23514   -1855.4958    -3478.764 
12321000    195.49123   -4943.9026    -4552.896   -4943.9026            0    6753.1251    17.904144    22.838811     19.29889    7891.4973    7460.6362    6652.7559    6145.9831    153.41399   -528.17787    1056.8598    -3775.683 
12322000    216.34063   -4939.9153   -4507.2073   -4939.9153            0    8426.2767    17.887932    22.988114    19.165831    7881.1778     9135.045    7987.7715    8156.0137   -948.02304    586.08376   -168.99151   -3538.7004 
12323000    200.17206   -4979.1701   -4578.8013   -4979.1701            0    8556.0035    17.773463    23.175154    19.026814     7837.197      9940.51    7534.4873    8193.0133    443.20748   -623.38531    73.134723   -3600.8716 
12324000    189.29174    -4958.902   -4580.2951    -4958.902            0    8895.2914    17.875706    22.806549    19.210219    7831.6824    10149.426    7982.0444    8554.4038    -88.15241     65.95079    986.66216   -3564.3012 
12325000    205.34183   -4970.9148   -4560.2058   -4970.9148            0    9745.7083    18.021477    22.643935    19.159112    7818.3959    8734.7563    9798.2825    10704.086    -555.1992    323.20201   -1514.9481   -3448.9681 
12326000    208.51881   -4966.9335   -4549.8701   -4966.9335            0    7461.3875     18.05213    22.566698    19.370501    7891.0963    8061.3977    7512.1813    6810.5837    666.77994    192.02506   -749.07728   -3691.1872 
12327000    200.76242   -4990.8113   -4589.2616   -4990.8113            0    7736.6835    17.835262    22.625261    19.493007    7865.9634    9002.2354     7850.373    6357.4422   -759.55509   -95.848042   -1805.9013   -3701.7324 
12328000    217.59178   -4948.2624    -4513.052   -4948.2624            0    9139.3656    17.768018    23.038284    19.183987    7852.8622    8137.5406    9058.4929    10222.063    53.735361   -1224.4086    625.90327   -3466.3575 
12329000    203.52498   -4962.6188   -4555.5438   -4962.6188            0    9460.8101     17.80238    23.006841    19.057304    7805.4245    9261.7404    8398.1785    10722.511   -356.28257    251.98928    766.43389   -3478.5808 
12330000    213.51275   -4953.1311   -4526.0793   -4953.1311            0    8823.1874    17.866099    22.949469    19.106257    7833.8995     8321.555    8735.8856    9412.1217    226.49974    578.16262   -1672.9958   -3518.0355 
12331000    196.10912   -4935.6938   -4543.4513   -4935.6938            0    8070.0317    17.987669     22.47983    19.425092    7854.7252    8617.8048    8063.8979    7528.3925   -241.38504   -872.70481   -1115.4533   -3619.0041 
12332000    199.57936   -4976.2101   -4577.0268   -4976.2101            0    6963.6268    17.895947    22.694754    19.394018    7876.7662    6835.9282    8355.5805    5699.3717   -642.68383    79.117901    1305.4933   -3777.0832 
12333000    200.65081    -4939.522   -4538.1956    -4939.522            0    8923.6342    17.907405    22.741788    19.280455    7851.8962    9103.1235    9458.6637    8209.1155    1816.6059    1407.8996    6.7363522   -3516.3337 
12334000     211.5287   -4937.9225    -4514.839   -4937.9225            0     7938.016     17.80759    23.019372    19.212695    7875.6591    9506.3106    6644.3496    7663.3879   -890.83831   -575.83635   -135.82916   -3603.0911 
12335000    202.54516   -4966.9263    -4561.811   -4966.9263            0    7652.8706    17.791271     23.14134    19.056595    7845.8643    7547.0644    6976.1905    8435.3568       1107.9   -725.44244   -169.11252   -3686.1398 
12336000    197.06431   -4948.8517   -4554.6987   -4948.8517            0    8794.3015    17.803266     22.85635    19.231664     7825.704     9434.559     8469.347    8478.9987    556.16226   -900.15412    359.09165   -3551.0062 
12337000    202.80104   -4975.0865   -4569.4594   -4975.0865            0    7705.2565    17.979104     22.75074    19.236676      7868.53    5154.0516    9428.3613    8533.3565   -662.82753    439.01931   -342.77081    -3685.247 
12338000    207.98261   -4967.0681   -4551.0772   -4967.0681            0     8215.883    18.003812    22.302546    19.549419    7849.6946    8169.2382    9224.1131    7254.2975   -886.46923   -279.50593    536.54417    -3610.525 
12339000    192.88987   -4971.0642   -4585.2606   -4971.0642            0    10018.573    17.952392    22.578282    19.228047    7793.7844    8735.1832    10573.279    10747.256   -625.58325   -707.33326      549.169    -3446.506 
12340000    204.89189   -4968.7866   -4558.9776   -4968.7866            0    9411.9602    18.064314    22.855524     18.97702    7835.0301    7066.2254    9172.1634    11997.492   -1008.8986    -656.2619    332.59952   -3483.5116 
12341000    199.17539   -4958.5591   -4560.1838   -4958.5591            0    9554.9348    17.875836     22.81011    19.193985    7826.3434    10340.901    9164.9012    9159.0023    1546.6231     971.1765    3092.9115   -3469.5912 
12342000    201.24153   -4962.4294   -4559.9215   -4962.4294            0    8637.0876    17.872703    22.765801    19.347478    7872.2258    9002.3015    8898.6861    8010.2753   -488.25701    391.06651   -514.65241   -3568.3118 
12343000    209.93203   -4955.9266   -4536.0366   -4955.9266            0    7385.9143    17.996785    22.736769       19.273    7886.2948     7768.468    7317.1902    7072.0846   -84.997878    710.67901    71.934405   -3686.5566 
12344000    202.26812   -4960.6832    -4556.122   -4960.6832            0    6423.6262     18.12066     22.52012    19.420566    7925.1335    7183.2072    6915.6919    5171.9795    1215.5117   -1089.1477    134.02734   -3813.6797 
12345000    194.55268   -4980.9138   -4591.7844   -4980.9138            0    6518.2796    17.965867    22.669955    19.374849    7891.0935    7458.2003      6723.45    5373.1886    1408.1206   -371.80876   -131.14697   -3841.6379 
12346000    200.67191   -4952.5907   -4551.2221   -4952.5907            0    6862.7132    17.943748    22.816899    19.342487    7919.2139    7275.4289    6098.0512    7214.6595   -467.56728   -679.61788   -870.57714   -3758.6225 
12347000    199.50322   -4947.2503   -4548.2193   -4947.2503            0    9545.9587    17.837725    22.823851    19.197503    7815.7945    8460.4211    10279.296    9898.1585   -2772.6275    727.86549   -118.86146   -3460.1198 
12348000    217.32535   -4990.7164   -4556.0388   -4990.7164            0    6962.5648    17.796034    22.966816    19.207041    7850.2681     6774.066    7254.2442    6859.3841    736.59953   -551.88267    652.67093    -3758.908 
12349000    197.07454    -4953.337   -4559.1636    -4953.337            0    7852.0454    17.828384    22.970657    19.199212    7862.6475    9113.1075    7554.0973    6888.9315   -104.46855   -86.901805     564.7097   -3658.7801 
12350000    207.03191   -4969.7703    -4555.681   -4969.7703            0    8765.1813    18.003968     22.80725    19.100017     7842.868    9989.9262    7186.1096    9119.5081   -221.56529    388.01275   -599.30341   -3553.1179 
12351000    196.34348   -4976.9467   -4584.2355   -4976.9467            0     9150.645    17.915159    22.636277    19.309995    7830.8306     9047.357    9527.9429    8876.6352    1025.4953    180.69406    -1159.162   -3539.1894 
12352000    199.11266   -4954.1319   -4555.8819   -4954.1319            0    7979.8325    17.910304    22.719534    19.388441    7889.4236    6943.4623    8005.5907    8990.4444    492.82217   -404.84376   -2006.8641   -3637.7292 
12353000    207.31862   -4952.5785   -4537.9157   -4952.5785            0    8467.3416    18.164385    22.681444     19.09498    7867.0259     6600.691     8503.048    10298.286    258.77685   -925.60141    656.83614   -3566.4364 
12354000    208.72137   -4948.1602   -4530.6917   -4948.1602            0    11345.998    17.675561    22.993046    19.142722    7779.8892    11925.537    11618.047    10494.411   -1041.2542   -153.95006    487.38562   -3243.3554 
12355000    213.40149   -4946.5557   -4519.7263   -4946.5557            0    7284.2517    17.673386    23.079574    19.365412    7899.0396    8155.6169    6070.1511    7626.9872    456.27946   -732.16209   -1005.6032    -3680.585 
12356000     191.0084     -4955.29   -4573.2496     -4955.29            0    8794.4115    17.917441    22.928603    19.133851    7860.6049    9072.9906    8157.0945    9153.1493    338.27023    -419.8536     160.5481   -3565.0683 
12357000    207.20301   -4970.0953   -4555.6637   -4970.0953            0    7108.6563    18.027006     22.92488    19.128039    7904.9864    6303.9734    7165.9267    7856.0688    330.17991     190.6843    992.00721   -3736.1343 
12358000    204.91875   -4948.3305   -4538.4677   -4948.3305            0    7650.7448    17.858394      22.6438     19.49549    7883.6237    9017.2351    7111.8186    6823.1806   -30.849359   -509.37281    -630.7674   -3658.8266 
12359000    201.58003   -4970.8706   -4567.6857   -4970.8706            0    8160.0545    17.847072    22.758818    19.365117    7865.6895    7666.3091     9053.384    7760.4705   -264.61135    1023.9684    1737.4123   -3631.6212 
12360000    210.41985   -4948.4604   -4527.5948   -4948.4604            0    8132.9506    17.921148    22.939633    19.123939    7861.9384    7325.1422    7617.0898    9456.6197   -377.56363   -756.81702   -1521.3003   -3595.0844 
12361000    211.02587   -4933.7427   -4511.6649   -4933.7427            0    10061.193     17.72092    22.820411    19.317922    7812.1421    9959.8321     10241.88    9981.8676   -523.02347    493.74272   -738.05482   -3365.3722 
12362000    205.23187   -4957.3078   -4546.8187   -4957.3078            0    7782.3176    17.810066     22.90276    19.311309    7877.0767    9875.7421    6564.1025    6907.1083    1253.8051   -913.80692   -329.84899   -3652.7932 
12363000    202.30306   -4972.2438   -4567.6127   -4972.2438            0    8082.2665    18.020532    22.841042    19.115612    7868.1338    7650.8327    7893.0629    8702.9039   -1054.7367   -182.62102   -650.39624   -3640.1834 
12364000    208.50635   -4957.7822   -4540.7437   -4957.7822            0    8822.0695    17.980778     22.73384    19.234912    7862.6959    8496.6957    9169.0221    8800.4907    584.12401    324.02847    -495.4018   -3529.1227 
12365000    199.74905   -4952.7314   -4553.2086   -4952.7314            0    7851.5003    17.840803      22.7817    19.371586    7873.4611    7434.7209    7810.9149    8308.8652   -1027.6513    522.47342     783.8411   -3651.6494 
12366000    193.23408   -4955.0036   -4568.5116   -4955.0036            0    10290.981    17.826401    22.833664    19.185507     7809.308     11086.68    10313.795    9472.4674    316.76301    224.02905    645.65089   -3396.4641 
12367000    187.73976   -4956.3941   -4580.8914   -4956.3941            0    7444.3578    17.993631    23.109982    18.980583     7892.743    7146.3966    6863.4959    8323.1809    476.99231   -137.28342    2436.9914   -3723.9896 
12368000     199.5701   -4966.0929   -4566.9281   -4966.0929            0    9112.9445     17.95939    22.816617    19.051956    7806.9684    6713.5366    9344.5161    11280.781    351.78785   -1346.6606    738.24299    -3529.359 
12369000    199.77901   -4973.7856    -4574.203   -4973.7856            0    8884.9114    17.823685    22.782616    19.323846    7846.8378    9442.3401    8295.0466    8917.3474    324.81026   -503.93725   -959.89819   -3557.4307 
12370000    203.44758   -4965.0642   -4558.1439   -4965.0642            0    8010.6927    17.783776    22.831927    19.352794    7857.9676    8626.3689    7608.8925    7796.8166   -127.35185    -927.1491    822.58441   -3640.1153 
12371000    198.56632   -4957.6587   -4560.5016   -4957.6587            0    9460.2986    17.976601    22.826636    19.020437    7804.9472    9830.5838    9044.4179     9505.894    833.26279   -335.67497   -138.86839   -3483.6627 
12372000    203.87596   -4933.7241    -4525.947   -4933.7241            0    8634.9701    17.949196    22.638651    19.297507    7841.4568     9226.858    9123.0891    7554.9631   -277.56653   -476.14035   -467.09559   -3538.4552 
12373000    208.96673   -4975.9311   -4557.9718   -4975.9311            0    8057.0094      17.9368       22.567    19.400446    7852.9081    7670.7567     8795.875    7704.3965    276.49207     562.2458   -835.93162   -3635.2299 
12374000    198.05962   -4940.3654   -4544.2217   -4940.3654            0     7410.323     17.98019    22.754039    19.285495    7890.1193    7508.3773    7685.0012    7037.5906    187.26899    264.69462    1279.5568    -3691.521 
12375000    198.41219   -4929.1935   -4532.3446   -4929.1935            0    9093.6167    17.910075    22.908833    19.166619    7864.0429    9527.9811    9068.1593    8684.7097    385.14422    216.14528    420.32801   -3489.4068 
12376000    200.72764   -4974.0826   -4572.6025   -4974.0826            0     6156.674     17.78862    23.367192    19.018823    7905.5559    5853.3671     4503.939     8112.716    174.21305   -602.95277   -526.82514   -3862.7723 
12377000    200.37419   -4963.3545   -4562.5814   -4963.3545            0    8574.1154    17.816907    23.040064    19.100897    7840.9695    7717.6957    7611.1687    10393.482   -468.57277    240.85099   -220.29641   -3582.1099 
12378000    199.00149   -4959.4801   -4561.4525   -4959.4801            0     9855.009    18.041879    22.650901    19.139371    7821.5874     8861.161    10211.812    10492.054   -348.27337    -150.4795    70.066159   -3437.2933 
12379000    217.77322   -4946.5381   -4510.9647   -4946.5381            0    9055.3243    18.019515    22.628436    19.207029    7831.7323     8384.015    9783.6581    8998.2999    961.91019   -218.35714    1309.7958   -3476.6857 
12380000    187.82871   -4948.0964   -4572.4158   -4948.0964            0    10054.687    17.804672    22.633144    19.383038    7810.8931    9925.5206    11209.194    9029.3474    2185.8752    456.42536   -181.70422   -3427.0475 
12381000    196.78023   -4984.3109   -4590.7262   -4984.3109            0    6860.1694    17.832946    22.892531    19.285565    7873.1632    6892.9348    6606.9189    7080.6546   -1438.8641    -962.5513   -552.81721   -3803.0277 
12382000    212.94742    -4950.754   -4524.8328    -4950.754            0     8069.852    17.769248    23.050755    19.188019    7859.3084    7308.1702    8153.1286    8748.2573    483.15087   -129.22407   -1898.9049   -3599.8668 
12383000       205.53   -4947.2805   -4536.1951   -4947.2805            0    7243.2464    17.705997    23.245533    19.144204    7879.4739     8632.114    6648.4511    6449.1741   -866.29727    181.27251   -914.98491   -3703.8444 
12384000    202.03993   -4984.1994   -4580.0946   -4984.1994            0     6554.656    17.872292    22.966532     19.21194    7885.8206    5790.3899    6410.7019    7462.8762    1524.5537   -1335.7912    186.03511   -3826.2658 
12385000    199.63361   -4965.5693   -4566.2775   -4965.5693            0    9394.2432    17.986514     22.56716    19.290371     7830.049    9885.7984    9791.3599    8505.5714   -268.93275    230.05399   -442.66639   -3493.5184 
12386000    211.04401   -4961.6442   -4539.5301   -4961.6442            0    8207.5432    17.972829    22.730371    19.298845    7884.1394    7674.9782    8212.2352    8735.4162    167.80025   -384.57742    470.13071   -3595.8096 
12387000    196.80504   -4955.9983   -4562.3639   -4955.9983            0    8584.9988    18.088648    22.704368    19.138644    7860.0749    8587.8295    8971.3888    8195.7781    70.128782    1451.6452     526.1338   -3578.2558 
12388000     196.9067   -4953.2333   -4559.3956   -4953.2333            0    7711.4307    17.918241    22.832839    19.283375    7889.2973    10047.693    7197.8916    5888.7078    95.431257    1246.3736     1094.804   -3672.1391 
12389000    192.78807   -4964.2397   -4578.6397   -4964.2397            0    8611.6177    17.905786    22.877148    19.142912    7841.5745    8020.8479    7853.2317    9960.7734   -648.17751   -885.58374   -424.34533   -3593.8038 
12390000    207.09524   -4960.1433   -4545.9272   -4960.1433            0    7762.1572    17.949949     22.97228    19.093831    7873.3654    8183.8947    7704.9755    7397.6012    1047.3943    365.52771    210.63626   -3654.6378 
12391000    198.71971   -4962.5083   -4565.0443   -4962.5083            0    7295.8438    17.955481    22.917224    19.170406     7888.426    6087.2152     7543.254    8257.0622   -84.570827    328.80633   -313.12764   -3725.6969 
12392000    210.68706   -4976.1125   -4554.7124   -4976.1125            0    5762.8961    17.830581    22.923777    19.375834    7919.7605    7030.0384    6096.7814    4161.8686   -574.08065    800.59438    -1245.278   -3889.0887 
12393000    198.21048   -4963.7838   -4567.3383   -4963.7838            0    7175.0744     17.93127    22.953673      19.2134    7908.0146    7518.1982     6398.873    7608.1519     119.8731   -840.73173   -177.80243    -3739.835 
12394000    198.14289   -4941.4182    -4545.108   -4941.4182            0     9020.788    17.821806     22.74089    19.308501    7825.4212    9925.5936    9151.6848    7985.0857    773.40331    -720.8001    3224.6525   -3515.6038 
12395000    198.73103   -4943.9174   -4546.4308   -4943.9174            0    8936.4163    17.736221    22.941856    19.199389    7812.2667     8481.298    8019.6592    10308.292   -2290.1954   -1576.6027   -1651.4924   -3528.2701 
12396000     198.2126   -4967.1933   -4570.7436   -4967.1933            0    5704.8059    18.061056    22.836082    19.260943    7944.0553    6734.5074    4873.5994    5506.3107    1126.3318   -559.72163    520.88705   -3909.8082 
12397000    195.97714   -4971.0636   -4579.0851   -4971.0636            0    8966.7233    17.991661    22.582363    19.307496    7844.5239    8001.3204    9346.1506    9552.6989    787.28729   -133.44838   -1195.7095   -3553.2531 
12398000    197.84139   -4955.0513   -4559.3441   -4955.0513            0    10090.623    17.932474    22.329801    19.479927    7800.3194    10261.413    10343.614    9666.8424     1151.317   -827.30369    167.28679   -3411.4383 
12399000    206.55631   -4949.5462    -4536.408   -4949.5462            0    8048.2324     18.00843    22.614049    19.332853    7873.1792    8161.2413    8286.9614    7696.4946    -1081.997   -343.49791     948.8582   -3612.2919 
12400000    200.28812   -4961.2142   -4560.6133   -4961.2142            0    9952.5855    18.019001    22.768968    19.010778    7799.6288    8046.1748    9479.4173    12332.165    557.35165    478.77233    1694.0127   -3428.5108 
12401000     213.1139   -4949.7127   -4523.4585   -4949.7127            0    7515.5333     17.90828    22.893663     19.26353    7897.7802    8533.3301    7315.9232    6697.3467   -332.47773    736.95528    498.98438   -3657.8117 
12402000    201.37114   -4951.0131   -4548.2459   -4951.0131            0    8524.0537    17.765881    22.943875    19.299967    7867.0172    9110.0954    9195.7448    7266.3208    -762.2529    545.24845    488.18201    -3570.261 
12403000    211.78834   -4976.7803   -4553.1774   -4976.7803            0     5977.595    17.857695    22.928534    19.321624    7911.2539    5712.0388    6290.1123     5930.634   -332.08478    617.69716    589.39891   -3863.4973 
12404000    202.23622   -4958.0325    -4553.535   -4958.0325            0    9046.0357    18.083154    22.655082    19.143755    7842.7244    10925.047    8221.5399    7991.5207   -898.42284   -1549.4039   -352.96064   -3518.8667 
12405000    198.49375   -4968.8241   -4571.8121   -4968.8241            0    6885.4545     18.00558    22.825715     19.27989    7923.8467    7143.1398     6133.493    7379.7307    1220.6321   -948.32292   -953.98866   -3776.1209 
12406000    189.35422   -4949.2524   -4570.5206   -4949.2524            0    9011.1841    17.791036     22.72457    19.377383    7834.1526     9994.617    9293.6232    7745.3121    503.65145    247.13068    1483.8756   -3540.9651 
12407000    199.26711   -4956.4269   -4557.8681   -4956.4269            0    8055.8006    17.853129     22.85766    19.256889    7858.3657    8109.9153    9350.0918    6707.3948    177.18621    1141.3096   -55.046688   -3634.6233 
12408000    191.22306   -4965.0721   -4582.6024   -4965.0721            0    8099.2502    17.964698    22.752936    19.241014    7864.7573    8440.1117    8500.1272    7357.5116   -220.08471    1307.1421   -648.19716   -3653.6231 
12409000    198.83108   -4970.2475   -4572.5608   -4970.2475            0    8224.7361    17.889387    22.672688    19.348485    7847.7551    7390.0224    8950.1394    8334.0463     729.2494    464.57465   -1560.2774   -3631.2278 
12410000    199.36925   -4937.8007   -4539.0376   -4937.8007            0    10003.208     17.92149    22.692884    19.239735    7824.6132    11078.546     10144.54    8786.5388   -881.17008    1036.3173   -500.25619   -3397.5319 
12411000    203.84478   -4972.5353   -4564.8206   -4972.5353            0    9288.7469    17.966302    22.693946    19.171362    7816.6684     10118.07    8688.9076    9059.2634    -2571.902   -74.964818   -297.77887   -3505.9212 
12412000    196.75148   -4944.3234   -4550.7961   -4944.3234            0    8419.9857    17.838947    22.805495    19.333448    7865.3497    9804.8573    7459.0189    7996.0809   -1151.2626     219.2921   -297.30112   -3584.9559 
12413000    196.02594      -4948.4   -4556.3239      -4948.4            0    8973.1285    17.680394    23.039296    19.214942     7827.088    10575.064    7798.1806    8546.1404    359.98148    159.06766    1410.8628   -3532.0409 
12414000    201.93081   -4963.6647   -4559.7782   -4963.6647            0    8087.2277    17.884784    22.954662    19.081177    7833.5706    8012.6071    8069.1563    8179.9197    338.85125    7.7522702   -463.68484   -3635.8561 
12415000    202.19073   -4960.6992   -4556.2928   -4960.6992            0    9423.7709    17.854907    22.801526     19.18601    7810.9916    9199.7155    9326.6528    9744.9442   -45.529634     101.2274    971.42818   -3482.7811 
12416000    207.73934   -4935.6208   -4520.1164   -4935.6208            0    9271.1809    17.872192    22.784938    19.280489    7851.3391     8302.179    9624.7288    9886.6347   -843.45172   -285.28999   -274.90878   -3458.5317 
12417000    204.77022   -4980.5305   -4570.9648   -4980.5305            0    6821.4584    17.964153    22.783472     19.28795    7894.2836    6238.7796    7249.8499    6975.7456   -561.63164    55.643669   -629.80174   -3785.6101 
12418000    207.01652   -4948.3375   -4534.2789   -4948.3375            0    9191.1972    17.974218    22.755841    19.177162    7843.8132    9015.3725    9639.7349    8918.4843   -7.7202939   -330.44137   -155.09376   -3482.8614 
12419000    216.68318   -4965.0707   -4531.6776   -4965.0707            0    5708.7187    17.980279    22.756295    19.362039    7922.2597    5832.1694    5703.9686    5590.0181    554.80614   -303.60976    295.25126   -3872.1034 
12420000    208.79523   -4974.4034   -4556.7872   -4974.4034            0    6468.7597    17.885196    23.029063    19.246412    7927.1989    3937.2963    7067.3713    8401.6117   -720.02267    982.27151    999.78086   -3808.9334 
12421000    214.87025   -4975.8293   -4546.0623   -4975.8293            0     7612.182    17.862619    22.951937    19.161593    7855.9024    6684.4758    7332.1291    8819.9412   -127.97049   -733.03636    859.50217   -3673.9325 
12422000     206.9964   -4979.1562   -4565.1378   -4979.1562            0    8018.9013    17.950176    22.808544    19.172071     7849.379    6149.6019    9013.1144    8893.9877   -951.94279   -338.41322   -585.81494   -3647.1729 
12423000    195.90461   -4966.2094    -4574.376   -4966.2094            0    8716.1771    18.016699    22.537949    19.289823    7832.8147    8495.7813    9367.1676    8285.5822   -134.08588   -352.00519    842.53497    -3578.696 
12424000    203.81876   -4981.8834   -4574.2207   -4981.8834            0    5707.5397    18.028126    22.677985    19.417152    7938.5389    5581.2716    6372.7448    5168.6026    268.13635    -236.8192    1743.9449   -3913.4277 
12425000     200.4641    -4958.966   -4558.0131    -4958.966            0    9729.4643    18.018034    22.556737    19.252728    7824.8485    8698.9551    10493.997    9995.4407    -857.3842    1107.5918   -2210.5845    -3447.712 
12426000    203.48593   -4966.3943   -4559.3973   -4966.3943            0    9902.6369    17.961964    22.712468     19.15289    7813.6232    8548.2547    10974.708    10184.948    329.67616   -473.16958   -1110.6579   -3430.9554 
12427000    205.20092   -4953.7694   -4543.3422   -4953.7694            0    8134.0221    17.957714    22.901035    19.152988     7876.671    7203.2085    7622.3082    9576.5497    1497.7594    979.24525    1887.0783   -3608.9613 
12428000    210.62173   -4971.8337   -4550.5643   -4971.8337            0    7896.4519    17.804842    23.188565    19.064148    7870.9909    9168.4313    6973.9406    7546.9837    910.89769    648.59591    520.49912    -3644.128 
12429000    211.37186   -4968.3673   -4545.5974   -4968.3673            0    6295.4151    17.850667    23.027486    19.226194    7903.0425    5744.5869    6762.0097    6379.6488    304.19672   -112.43939     5.413248   -3820.0019 
12430000    204.08131   -4952.8239   -4544.6361   -4952.8239            0    7948.7699    17.927532     22.79531    19.239094    7862.3181    6343.9309    8217.9469     9284.432   -353.27305   -1430.4368    2532.5763   -3633.1996 
12431000    200.18372   -4960.6005   -4560.2083   -4960.6005            0    7986.7164    17.891096    22.799333    19.234554     7845.872    8266.4042    7772.2446    7921.5005     -786.142   -1299.6852    475.59915   -3646.3363 
12432000    203.79863   -4957.1886   -4549.5661   -4957.1886            0    7257.8437     17.87238    22.768093     19.37633    7884.6162    7391.7668    7947.6654    6434.0989   -685.86867   -981.96567    -1537.469   -3714.9937 
12433000    193.70652   -4959.7837   -4572.3467   -4959.7837            0     8851.098    17.960919     22.69976    19.205514    7830.2523     9259.253      9042.64     8251.401    162.04777    137.53067   -376.10235    -3561.585 
12434000     193.2976    -4956.155    -4569.536    -4956.155            0    10084.139    17.918334    22.682512    19.212809    7808.7161    10663.867    9798.4484    9790.1029   -508.46826    1020.6643   -543.63262   -3421.1328 
12435000    216.11067    -4963.999   -4531.7509    -4963.999            0    7294.6649     17.88521    22.833045    19.214955    7846.8844    6786.7606    8035.1629    7062.0712   -198.56519    -87.45941    23.404151   -3696.9585 
12436000     211.2522   -4971.1042   -4548.5737   -4971.1042            0    6717.6217    17.825116    22.862864     19.36997     7893.906     8363.468    5898.9497    5890.4474   -1386.6274    49.061117    38.107123   -3775.2107 
12437000    198.67107   -4964.1416   -4566.7749   -4964.1416            0      7626.28     18.02406    22.429886    19.426358    7853.6421    7423.4583    8214.8632    7240.5186   -838.44972   -420.63445   -27.046605   -3693.2813 
12438000     211.1806   -4953.5434   -4531.1562   -4953.5434            0    10006.791    18.005567    22.579153    19.196152    7804.2046    8538.2828    12279.956    9202.1339   -1533.5858    1071.8091   -791.21697   -3392.2201 
12439000    191.88529   -4973.0082   -4589.2139   -4973.0082            0    6458.4808    17.993145    22.873032     19.23715    7917.1985    6675.2282     6383.088    6317.1264   -445.97681    234.29401   -811.47908   -3843.4905 
12440000    215.01533   -4950.4358   -4520.3785   -4950.4358            0    8137.1567    17.859556    22.891191    19.271528    7878.7115     9372.528       8420.1     6618.842    938.13655    449.44411    753.11012   -3585.3954 
12441000    200.16171   -4949.9076   -4549.5595   -4949.9076            0    7905.4133    17.763858    22.840578    19.379509      7862.98     8272.675    9108.4952    6335.0697   -902.49626    1000.5774    1192.8992   -3643.0181 
12442000    207.54422   -4961.8628   -4546.7488   -4961.8628            0    7980.6176    17.880789    22.825601    19.225366    7846.6364    9912.0777    6463.0538    7566.7213   -277.38082   -1539.4487   -853.00514   -3633.4856 
12443000    199.39912   -4948.6526   -4549.8297   -4948.6526            0    9215.9867    17.769692    22.950726    19.152158    7810.7738    9255.1854    9514.5314    8878.2433    1797.1887    46.533841    2555.4629   -3500.0171 
12444000    202.76988    -4961.237   -4555.6722    -4961.237            0    6612.5735    17.821633    22.922521    19.314635    7890.3521    7002.1081    5692.4122    7143.2004    516.89108   -1488.9789      79.6635   -3794.7456 
12445000    196.95015   -4941.1712   -4547.2466   -4941.1712            0    8107.5952    17.857533    23.019984    19.115599    7858.0431    7214.8921    7779.7796     9328.114   -926.49985   -33.180597    124.57619    -3618.104 
12446000    207.78466   -4980.4592   -4564.8642   -4980.4592            0    7904.1998    18.031945    22.745432    19.185431    7868.7969    7652.7131    7563.3309    8496.5554   -32.110057   -139.22313    731.51625   -3657.7915 
12447000    208.78645    -4967.517   -4549.9183    -4967.517            0    9394.5398     17.95844     22.45568    19.445068    7841.5926    9629.9427    10332.197      8221.48    1052.9245     332.7899    548.47509   -3475.5439 
12448000    205.52809   -4972.0373   -4560.9558   -4972.0373            0    8047.5686    18.026353    22.661267    19.278005    7875.0652    6595.9088     9580.552    7966.2449   -153.29756    1329.6352    746.32239   -3636.6945 
12449000    206.00952    -4948.559   -4536.5145    -4948.559            0    8163.0576    17.873958    23.023893    19.152186    7881.6625    6313.7894    9479.4828    8695.9004    75.345783    2264.7131   -296.35748    -3598.204 
12450000    200.38948   -4960.6288   -4559.8251   -4960.6288            0    7364.8452    17.753954    23.129011    19.195267    7882.1792    7657.3281    6170.7436     8266.464    246.77427    205.22024   -1015.1132   -3713.2104 
12451000    204.51095    -4962.553   -4553.5059    -4962.553            0    9386.9037    17.900838    22.830036     19.10858    7809.2325    8896.8311    9109.7283    10154.152   -499.17915   -85.755656   -565.66078   -3484.4347 
12452000    199.55966   -4957.4128   -4558.2688   -4957.4128            0    7967.6397    18.042786    22.654454     19.27874    7880.1743    9218.2407    7586.4165    7098.2618    639.27033    -468.0012    546.33732   -3642.5937 
12453000    203.55597   -4972.9928   -4565.8557   -4972.9928            0    9988.1684    17.953864    22.421089    19.362617    7794.3284    9111.9331    10464.092     10388.48    1218.7479    243.16156   -310.51384   -3430.4778 
12454000    192.92696   -4970.2105   -4584.3327   -4970.2105            0    7437.1365    17.895638    22.819485    19.291371    7878.0025    8636.8266    6601.7663    7072.8165     1005.224   -1495.7251   -530.06937   -3729.8609 
12455000    198.78894   -4976.5852   -4578.9827   -4976.5852            0    8038.1915    17.976835    22.789441    19.163635    7850.9966    7463.1168    9145.6647    7505.7929    -619.4537    693.93495    595.86215     -3658.62 
12456000    201.11793   -4972.2661   -4570.0053   -4972.2661            0     6198.725    17.911517    22.955152    19.259687    7918.8436    6585.0958    6516.9007    5494.1785    632.35112   -161.19165    2250.2793   -3854.1257 
12457000    205.47912   -4954.8909   -4543.9073   -4954.8909            0    8597.5512    17.638051    22.808058    19.450439     7824.711    11070.019    8214.0309    6508.6033   -200.19585   -293.58502     519.3824   -3562.7944 
12458000    211.23677   -4965.2135   -4542.7138   -4965.2135            0    6305.0671    17.992795    22.849378    19.205468    7895.8326    6977.9669       5180.4    6756.8343   -320.93134   -1538.7907   -273.82576   -3816.6689 
12459000    193.72233   -4941.9941   -4554.5255   -4941.9941            0    8872.2067     17.97528    22.732257    19.236113    7860.2354    7996.0438    9437.0473     9183.529    410.67333    309.98988    1209.8563   -3537.4737 
12460000    209.28246   -4958.4027   -4539.8119   -4958.4027            0    8727.5615    17.937383    22.660699    19.362662    7870.4116    6762.9206    9666.5916    9753.1722    446.75477    19.175238     403.6538    -3538.046 
12461000    214.19424   -4971.9087   -4543.4938   -4971.9087            0    9502.1887    18.002855    22.679893    19.165615    7825.3748    7202.0786     11130.84    10173.647   -120.79121    1213.1808   -1244.9189   -3459.0559 
12462000    208.47103   -4965.4407   -4548.4729   -4965.4407            0    9390.2655    17.866878    22.765092    19.161921    7793.9413    9340.8825    9425.3567    9404.5574    1400.4421    522.57869   -606.89432   -3481.1129 
12463000     192.5501   -4946.5912   -4561.4672   -4946.5912            0     7323.455      17.9599    22.963326     19.21954     7926.504     7567.179    6490.5679    7912.6182   -165.95623     692.3886   -1049.1998   -3714.8763 
12464000    205.67865   -4966.3786   -4554.9959   -4966.3786            0    8916.6547    17.847755    22.888301    19.182741    7836.2415    9400.6357    8640.2041    8709.1244   -1231.5514    1197.1771        373.1    -3535.969 
12465000    197.57946   -4976.4274   -4581.2441   -4976.4274            0    10141.099    17.768388    22.854012    19.195949    7795.0713    10982.898     10702.44    8737.9588   -806.30084    1066.7719    707.37073   -3428.3723 
12466000    206.99809   -4970.9918   -4556.9701   -4970.9918            0     8352.901    17.955186    22.698449    19.258891    7849.0547     7762.392    8495.0215    8801.2895    391.82666    25.590068    620.76045   -3600.8101 
12467000    196.17442   -4978.1988   -4585.8257   -4978.1988            0    7632.0507    17.977668    22.734082    19.268338    7875.0812    7282.3129    7948.3818    7665.4573    253.14908   -1214.5097    1737.7137   -3709.2849 
12468000    204.07541   -4942.4684   -4534.2924   -4942.4684            0    8411.4419    17.955353    22.655627    19.314388    7856.8956    9630.9759    9013.3928     6589.957    318.84459   -1130.2843    478.70339   -3570.4693 
12469000    199.46017   -4961.3922   -4562.4472   -4961.3922            0    7290.1969    17.928945     22.85591    19.251079    7888.7523    7791.9842    6446.1638    7632.4428   -274.70847    17.257437    208.07017   -3723.7147 
12470000    202.85587   -4983.4704   -4577.7336   -4983.4704            0    8708.9421    17.956949    22.902381    19.055348    7836.6433    6235.9851    9198.5673    10692.274    345.07466   -276.16551     245.7463   -3582.3938 
12471000    196.98809    -4954.409   -4560.4085    -4954.409            0    8785.3353    17.843931    22.673026    19.382975    7841.8847    8761.7912     9055.433    8538.7817    -1172.903    -3.721289    1252.4359   -3555.6662 
12472000    199.78268   -4982.7596   -4583.1695   -4982.7596            0    9595.6602    17.892703    22.692371     19.27508    7826.2193    9949.9404    8495.2554    10341.785   -1181.5201   -118.52598   -1696.1414    -3487.946 
12473000     208.1621   -4996.2964   -4579.9465   -4996.2964            0    7990.9976    17.863992    22.991304    19.103707    7846.2069    8373.8608    7177.2626    8421.8694   -582.36415   -187.45301     414.5768   -3665.5456 
12474000    201.97964   -4964.8974   -4560.9132   -4964.8974            0    6558.7517    17.983312    23.081362    19.049485    7907.0475    8171.6557    5502.8252     6001.774    404.91563    477.36409    934.21499    -3804.583 
12475000    196.07854   -4962.1706   -4569.9893   -4962.1706            0    7761.7601    17.836904    22.891387    19.250552    7860.2214    8003.5879    7404.7044    7876.9879    1433.6642   -235.57571   -185.82047   -3680.2334 
12476000    205.26298   -4970.2652   -4559.7139   -4970.2652            0    8677.7277    17.904465    22.719452    19.314576    7856.7763    8017.2001    9238.0789    8777.9042   -2348.3152    1275.7724    1809.2042   -3565.3936 
12477000    209.90206   -4928.2667   -4508.4367   -4928.2667            0    8000.5222    18.089177    22.571117    19.323167    7889.5124    6703.7223    9114.9667    8182.8777   -462.43864    885.01945   -739.82237    -3587.893 
12478000    201.68552   -4936.5309    -4533.135   -4936.5309            0    7724.9701    18.107014    22.638469    19.209702    7874.3465    7117.0164     7876.977    8180.9168    737.22904    -712.1914   -421.68248   -3646.0051 
12479000    205.04171   -4949.8281   -4539.7193   -4949.8281            0     8998.013    17.787927    23.038241    19.159002     7851.408    8932.9507     7946.332    10114.756    1130.4298   -409.31763   -1427.0336   -3509.4043 
12480000    207.52111   -4939.2789    -4524.211   -4939.2789            0    7059.3212    17.858313    23.028803    19.203304    7897.4659    6160.9144    6911.5149    8105.5343    746.08823    352.02711    1093.1348   -3711.1435 
12481000    214.91997   -4965.4095    -4535.543   -4965.4095            0     8334.614    17.950034     22.85372    19.146707    7854.4591    7215.8186    8845.6881    8942.3353    131.27458     343.2812    -1265.815   -3580.8194 
12482000    205.11914   -4967.7251   -4557.4614   -4967.7251            0     7231.448    18.053999    22.796063    19.179387    7893.4704    5866.1537    7869.4675    7958.7227    475.91496   -2.6108344    1895.0222   -3724.9904 
12483000    198.68122   -4971.5241   -4574.1371   -4971.5241            0    5945.4808    18.084195    22.550556    19.397808    7910.5937    5429.8366    6665.9808    5740.6249   -158.47489   -303.93494   -555.13172   -3888.2195 
12484000    205.20306   -4954.7676   -4544.3361   -4954.7676            0    7881.3476    17.928481    22.717723    19.347452     7880.106    7832.2202    8043.5019    7768.3209   -300.81645    769.93936   -666.49844    -3638.586 
12485000    203.15176    -4979.963   -4573.6343    -4979.963            0     8802.747     17.78322    22.979059     19.15251    7826.5136    8973.1143    8519.0056    8916.1211   -729.18205     356.0754    100.33345   -3568.8741 
12486000     205.4416   -4973.3494   -4562.4408   -4973.3494            0    7629.3107    17.909333     23.07191    19.031518    7863.8713    7418.9499    6658.0805    8810.9017   -1263.1679   -15.674647   -705.38462   -3687.4619 
12487000     196.7735   -4953.7518   -4560.1805   -4953.7518            0    8732.1493    17.682947    23.043929    19.245696    7842.3245     8807.029    7817.3717    9572.0471    173.34885    801.38505   -713.67044   -3561.4649 
12488000    206.69577   -4956.1502   -4542.7331   -4956.1502            0    7998.5424    17.869903    22.804047    19.338922    7880.7292    8890.8713    7156.1688    7948.5871    886.58603   -1470.9346    592.75487   -3623.4419 
12489000    196.34383   -4945.9813   -4553.2693   -4945.9813            0      8244.07    18.064506    22.706086     19.19732    7874.2462     6597.599    8559.3313    9575.2798    331.35031   -5.3224288    348.05701   -3606.5384 
12490000    206.62422   -4953.5328   -4540.2588   -4953.5328            0     8026.802    18.043761    22.620409    19.255217    7859.1565    6200.6153    8393.0004    9486.7904   -373.32877   -828.34811   -1156.1397    -3620.245 
12491000    197.34869   -4959.7487    -4565.027   -4959.7487            0    9405.6573    17.843777    22.663172    19.333906    7818.5658    8708.3194    10595.472    8913.1806    -21.44723    1052.1419   -29.691285   -3492.5397 
12492000    200.41757   -4965.3785   -4564.5186   -4965.3785            0     6130.272    17.923413    22.934969    19.236977    7907.8006    5037.4659     5600.571     7752.779   -660.56035    171.83044    802.98737   -3857.5318 
12493000    204.17844   -4927.7136   -4519.3315   -4927.7136            0    11040.188    17.894124     22.89486     19.02306    7793.4329     8600.182    11479.016    13041.365   -471.16335   -89.839565    2226.8327   -3264.5123 
12494000    211.22576   -4963.5278   -4541.0502   -4963.5278            0    7883.5711    17.895562    22.958252    19.149478    7867.5791     8257.065     6996.421    8397.2274   -1953.9298   -673.80748   -861.69113   -3636.4848 
12495000    207.61859   -4942.8215   -4527.5587   -4942.8215            0    8286.4091    17.765946    23.095231    19.167041    7864.4022    9968.9093    8069.9658    6820.3522   -799.77558    160.83966    703.39571   -3577.1553 
12496000    205.88091   -4973.0625   -4561.2753   -4973.0625            0    6850.6971    17.964243      22.7595    19.250609    7870.7499    5796.2623    6791.6111    7964.2179    -70.33049   -1597.9106   -82.081598   -3774.9056 
12497000    197.59878   -4959.9248   -4564.7028   -4959.9248            0    7484.6445    18.028449     22.69396    19.314287    7902.1877    8378.8178    7411.7562    6663.3597    1135.2509   -412.06324   -572.50361   -3702.1327 
12498000    208.61791   -4963.4651   -4546.2035   -4963.4651            0    6555.8587     18.03503    22.618288    19.432306    7926.8558    5511.7359    7834.8103    6321.0298    -433.7686    953.62386   -1319.7992    -3788.313 
12499000    204.11148   -4970.3416   -4562.0935   -4970.3416            0    8645.2988    17.801617    22.814676    19.316192    7845.0419    8809.6513    8310.2811    8815.9639    744.93417    232.67431   -646.40456   -3572.9685 
12500000    207.20349    -4949.029   -4534.5964    -4949.029            0    6571.1537    17.973392    22.878466    19.220799    7903.6626    5275.1672     7375.698     7062.596    645.59347    1428.5975   -167.71661   -3777.1604 
Loop time of 510.096 on 64 procs for 250000 steps with 1008 atoms

Performance: 84.690 ns/day, 0.283 hours/ns, 490.104 timesteps/s
379.0% CPU use with 16 MPI tasks x 4 OpenMP threads

MPI task timing breakdown:
Section |  min time  |  avg time  |  max time  |%varavg| %total
---------------------------------------------------------------
Pair    | 42.475     | 44.538     | 47.55      |  24.5 |  8.73
Bond    | 1.6435     | 1.9125     | 2.471      |  16.6 |  0.37
Kspace  | 249.36     | 255.19     | 260.24     |  21.2 | 50.03
Neigh   | 2.7207     | 2.806      | 2.9113     |   4.2 |  0.55
Comm    | 69.995     | 74.012     | 77.549     |  31.0 | 14.51
Output  | 0.50031    | 0.50066    | 0.50281    |   0.1 |  0.10
Modify  | 108.19     | 110.45     | 113.3      |  13.5 | 21.65
Other   |            | 20.69      |            |       |  4.06

Nlocal:        63.0000 ave          68 max          57 min
Histogram: 2 0 1 2 1 3 2 1 2 2
Nghost:        3411.06 ave        3427 max        3395 min
Histogram: 1 1 0 3 1 6 3 0 0 1
Neighs:        21148.1 ave       22830 max       19015 min
Histogram: 1 1 1 2 1 2 3 1 3 1

Total # of neighbors = 338370
Ave neighs/atom = 335.68452
Ave special neighs/atom = 2.0000000
Neighbor list builds = 5914
Dangerous builds = 0

unfix		3
unfix		2
unfix		1

write_data	data.final.${pid}
write_data	data.final.1
System init for write_data ...
PPPM initialization ...
  extracting TIP4P info from pair style
  using 12-bit tables for long-range coulomb (../kspace.cpp:340)
  G vector (1/distance) = 0.37948548
  grid = 24 27 32
  stencil order = 5
  estimated absolute RMS force accuracy = 0.0024241699
  estimated relative force accuracy = 7.3003157e-06
  using double precision FFTW3
  3d grid and FFT values/proc = 7875 1344
Last active /omp style is kspace_style pppm/tip4p/omp
WARNING: Not all mixed pair coeffs generated from mixing. Use write_data with 'pair ij' option to store all pair coeffs. (../write_data.cpp:312)

write_restart   restart.lmp.${pid}
write_restart   restart.lmp.1
System init for write_restart ...
PPPM initialization ...
  extracting TIP4P info from pair style
  using 12-bit tables for long-range coulomb (../kspace.cpp:340)
  G vector (1/distance) = 0.37948548
  grid = 24 27 32
  stencil order = 5
  estimated absolute RMS force accuracy = 0.0024241699
  estimated relative force accuracy = 7.3003157e-06
  using double precision FFTW3
  3d grid and FFT values/proc = 7875 1344
Last active /omp style is kspace_style pppm/tip4p/omp
Total wall time: 0:08:30
