LAMMPS (30 Jul 2021)
Processor partition = 0
  using 2 OpenMP thread(s) per MPI task
using multi-threaded neighbor list subroutines
variable        pid world 0 1
variable        phase world IceII IceVI

shell cd ${phase}
shell cd IceII
include Restart.lmp
echo both
log log.lammps
#include		in.partitions
include		in.temp
variable        temperature equal 30.49
variable	tempDamp equal 100.0
include		in.pressure
variable        pressure equal 8941.1
variable        pressureDamp equal 1000.0 # This is 1 ps
include		in.seed
variable        seed equal 745823

units		real
atom_style	full
box tilt large
read_restart	restart.lmp.${pid}
read_restart	restart.lmp.0
Reading restart file ...
  restart file = 30 Jul 2021, LAMMPS = 30 Jul 2021
  restoring atom style full from restart
  triclinic box = (-10.578971 -9.0231450 0.29789549) to (12.558971 12.013143 21.562104) with tilt (-9.1305991 1.9505367 2.7178463)
  4 by 2 by 4 MPI processor grid
  restoring pair style lj/cut/tip4p/long/omp from restart
  restoring bond style harmonic/omp from restart
  restoring angle style harmonic/omp from restart
  1296 atoms
  864 bonds
  432 angles
Finding 1-2 1-3 1-4 neighbors ...
  special bond factors lj:    0        0        0       
  special bond factors coul:  0        0        0       
     2 = max # of 1-2 neighbors
     1 = max # of 1-3 neighbors
     1 = max # of 1-4 neighbors
     2 = max # of special neighbors
  special bonds CPU = 0.003 seconds
  read_restart CPU = 0.010 seconds
include 	in.setup
variable	out_freq equal 1000
variable	out_freq2 equal 10000
variable	out_freq3 equal 1000

timestep	2.0

neigh_modify    delay 7 every 1

include		in.tip4p
# This is TIP4P/Ice

# create groups ###
group ox type 2
432 atoms in group ox
group hy type 1
864 atoms in group hy

# set charges - beside manually ###
set group ox charge -1.1794
Setting atom values ...
  432 settings made for charge
set group hy charge 0.5897
Setting atom values ...
  864 settings made for charge

# ### TIP3P Potential Parameters ###
pair_style lj/cut/tip4p/long/omp 2 1 1 1 0.1577 8.5
pair_coeff 1 1*2 0.000 0.000
pair_coeff 2 2 0.21084 3.1668
bond_style  harmonic
bond_coeff  1 450 0.9572
angle_style harmonic
angle_coeff 1 55 104.52
kspace_style pppm/tip4p/omp 1.0e-5
pair_modify tail yes

thermo          ${out_freq}
thermo          1000
thermo_style    custom step temp pe etotal epair emol press lx ly lz vol pxx pyy pzz pxy pxz pyz enthalpy

restart 	${out_freq3} restart.lmp.${pid} restart2.lmp.${pid}
restart 	1000 restart.lmp.${pid} restart2.lmp.${pid}
restart 	1000 restart.lmp.0 restart2.lmp.${pid}
restart 	1000 restart.lmp.0 restart2.lmp.0


include         in.dump
dump            myDump all atom ${out_freq2} dump.water.${pid}
dump            myDump all atom 10000 dump.water.${pid}
dump            myDump all atom 10000 dump.water.0
dump            myDump2 all dcd ${out_freq2} dump.dcd
dump            myDump2 all dcd 10000 dump.dcd
dump_modify     myDump append yes
dump_modify     myDump2 append yes


variable natoms 	equal  "count(all)"                        # NUMBER ATOMS
variable H      	equal  "enthalpy/v_natoms"                 # ENTHALPY-per-atom
variable Vol      	equal  "vol/v_natoms"                 # volume-per-atom
fix AVG all 		ave/time ${out_freq} 1 ${out_freq} v_Vol v_H file vol_enthalpy.dat
fix AVG all 		ave/time 1000 1 ${out_freq} v_Vol v_H file vol_enthalpy.dat
fix AVG all 		ave/time 1000 1 1000 v_Vol v_H file vol_enthalpy.dat


timer           timeout 10:00:00 every 1000
New timer settings: style=normal  mode=nosync  timeout=10:00:00

fix 		1 all shake 1e-6 200 0 b 1 a 1
Finding SHAKE clusters ...
       0 = # of size 2 clusters
       0 = # of size 3 clusters
       0 = # of size 4 clusters
     432 = # of frozen angles
  find clusters CPU = 0.001 seconds
fix             2 all nph tri ${pressure} ${pressure} ${pressureDamp}
fix             2 all nph tri 8941.1 ${pressure} ${pressureDamp}
fix             2 all nph tri 8941.1 8941.1 ${pressureDamp}
fix             2 all nph tri 8941.1 8941.1 1000
fix             3 all temp/csvr ${temperature} ${temperature} ${tempDamp} ${seed}
fix             3 all temp/csvr 30.49 ${temperature} ${tempDamp} ${seed}
fix             3 all temp/csvr 30.49 30.49 ${tempDamp} ${seed}
fix             3 all temp/csvr 30.49 30.49 100 ${seed}
fix             3 all temp/csvr 30.49 30.49 100 745823


run             250000
PPPM initialization ...
  extracting TIP4P info from pair style
  using 12-bit tables for long-range coulomb (../kspace.cpp:340)
  G vector (1/distance) = 0.37121454
  grid = 30 36 32
  stencil order = 5
  estimated absolute RMS force accuracy = 0.0037612192
  estimated relative force accuracy = 1.13268e-05
  using double precision FFTW3
  3d grid and FFT values/proc = 7344 1152
Last active /omp style is kspace_style pppm/tip4p/omp
Neighbor list info ...
  update every 1 steps, delay 7 steps, check yes
  max neighbors/atom: 2000, page size: 100000
  master list distance cutoff = 10.8154
  ghost atom cutoff = 10.8154
  binsize = 5.4077, bins = 7 5 4
  1 neighbor lists, perpetual/occasional/extra = 1 0 0
  (1) pair lj/cut/tip4p/long/omp, perpetual
      attributes: half, newton on, omp
      pair build: half/bin/newton/tri/omp
      stencil: half/bin/3d/tri
      bin: standard
Setting up Verlet run ...
  Unit style    : real
  Current step  : 10250000
  Time step     : 2
  Walltime left : 9:59:59.93
Per MPI rank memory allocation (min/avg/max) = 10.63 | 10.63 | 10.64 Mbytes
Step Temp PotEng TotEng E_pair E_mol Press Lx Ly Lz Volume Pxx Pyy Pzz Pxy Pxz Pyz Enthalpy 
10250000    32.914058   -6930.2086   -6845.5392   -6930.2086            0    8772.8831    23.137942    21.036288    21.264208    10350.064    8385.7523    9125.6316    8807.2653     63.38221   -490.53021   -44.077539   -5521.3158 
10251000    28.937773   -6925.4663   -6851.0257   -6925.4663            0    8936.9137    22.946252    21.216965    21.242984    10342.143    8856.0772    8362.6166    9592.0473    62.921347    183.63543   -65.121707    -5503.075 
10252000    31.157293   -6930.3001   -6850.1499   -6930.3001            0    8994.5997    23.065256    21.055041    21.298298    10343.304    8528.0466    9245.7572    9209.9953   -501.58672    -159.8152    503.67485   -5493.3462 
10253000     30.24334   -6930.8966   -6853.0974   -6930.8966            0    8623.7974    22.990815    21.103721    21.334187    10351.172    8528.8812    8806.7464    8535.7646    81.912971    267.85376       124.55   -5551.2384 
10254000     29.47275   -6929.5358    -6853.719   -6929.5358            0    9150.7537    22.939858    21.142084    21.302066    10331.425    9129.0425    9122.0774    9201.1412   -27.691115    53.623681    242.39085   -5474.9453 
10255000    30.264635   -6929.3173   -6851.4633   -6929.3173            0    8958.3462    23.043029    21.065024    21.301751    10339.912    8455.8782    9464.7853    8954.3751   -52.704967   -111.72587    83.752473   -5500.5716 
10256000    30.978886   -6927.2394   -6847.5481   -6927.2394            0    9137.5281    22.923621    21.176891    21.287739    10334.155    9800.2629    8690.9398    8921.3815    15.218086   -219.42207   -202.64187   -5470.4034 
10257000    30.760118   -6930.0512   -6850.9227   -6930.0512            0    9333.7779    22.982093    21.091888    21.300018     10324.88    9167.7001    9588.5561    9245.0774   -391.38749   -173.17638    -575.2751   -5445.4631 
10258000    30.760689   -6929.6973   -6850.5673   -6929.6973            0    8856.6391    23.003779    21.084391    21.327835    10344.441    8414.2982    8967.4978    9188.1214    73.948161    225.60326    445.01376   -5514.4276 
10259000    32.142642   -6928.8448   -6846.1599   -6928.8448            0    8822.6709    22.954434    21.152024    21.301927    10342.783    9411.7575    8616.5558    8439.6993    201.36299   -12.040391     83.25208    -5515.358 
10260000    30.550246    -6928.011   -6849.4223    -6928.011            0     9014.697    23.126273    21.001742    21.284185    10337.559    8674.7689    9716.3465    8652.9755   -19.927675    161.25176   -305.88832   -5490.3423 
10261000    31.370555   -6931.3655   -6850.6666   -6931.3655            0    8908.6667    22.942599    21.220755    21.235687    10338.791    9199.0559    8398.1659    9128.7783   -200.86066   -74.828221    122.23426    -5507.412 
10262000    30.479299   -6923.9795   -6845.5733   -6923.9795            0    9161.9554    23.054899    21.084463     21.27292     10340.77     9081.808    9189.9075    9214.1507    -199.9113    291.35566    133.55945   -5463.8631 
10263000    31.713481   -6930.0275   -6848.4465   -6930.0275            0    9068.9834    22.970505    21.159863    21.278387    10342.418    8990.2241     8967.321    9249.4051   -326.00226   -140.07892    312.54592   -5480.5395 
10264000    30.002753    -6933.053   -6855.8727    -6933.053            0    8779.2202    22.940561    21.158408    21.317406    10347.165    9098.3899    8311.6763    8927.5943    -156.6981    505.10053     364.1024   -5531.0639 
10265000    30.027486   -6927.5168   -6850.2729   -6927.5168            0    9209.9246    23.042744     21.02917    21.337963    10339.732    8773.8932    10183.484    8672.3965    50.861516    9.1993588   -392.29844    -5461.468 
10266000    30.808154   -6930.9002   -6851.6481   -6930.9002            0     8866.292    22.951371    21.163664     21.29416    10343.321    8678.0024    8933.4815    8987.3922   -23.500856   -188.80382    115.35428    -5514.197 
10267000    30.758698   -6931.1951   -6852.0702   -6931.1951            0    8928.1632    23.010869    21.121048    21.290129    10347.294    8692.5517     9030.565    9061.3729    26.274062    231.68131   -553.84851   -5504.7687 
10268000    30.491865   -6935.0222   -6856.5837   -6935.0222            0    8750.0089    23.012563     21.16345    21.250791    10349.672    9240.8779    8249.4017     8759.747   -266.82622   -622.59241   -234.51753   -5535.8631 
10269000     30.04484   -6929.1945   -6851.9059   -6929.1945            0    8793.3164    22.959471    21.165841    21.276499    10339.453    9148.2002    8657.4648    8574.2842    394.63464    463.25697   -591.56467    -5525.959 
10270000    30.700838   -6930.7923   -6851.8163   -6930.7923            0    8804.2391    23.037042    21.072335    21.300951    10340.425     8782.491    8860.5894     8769.637   -280.90205   -83.772037    618.36464   -5524.0975 
10271000    29.462253   -6930.4302   -6854.6404   -6930.4302            0    8999.0642    22.940224    21.128034    21.326812    10336.718    9399.5543    8954.4918    8643.1465    493.20368    256.43049    53.956538   -5498.0276 
10272000    30.019469   -6928.1332     -6850.91   -6928.1332            0    8994.0562    23.032408    21.043015    21.347983    10346.755    8627.6455    9549.8001    8804.7229    196.27328   -28.282823    76.851908   -5493.7357 
10273000    30.784673    -6932.948   -6853.7563    -6932.948            0     9080.849    22.982824    21.130192    21.300996    10344.435    8856.4732    9317.4861    9068.5878    594.92922   -1.2362326    200.67894   -5483.7924 
10274000    34.101386   -6931.3913   -6843.6676   -6931.3913            0     9124.731    22.993971    21.150117     21.27602    10347.064    9669.1238    9076.4086    8628.6605   -123.92669   -260.60734   -449.93943   -5466.7337 
10275000    30.266594   -6925.6906   -6847.8316   -6925.6906            0    9065.6149    23.018122    21.143696    21.268101    10350.933     8700.637    9113.3693    9382.8385   -343.87327   -333.48939    89.649817   -5479.3068 
10276000    31.976771   -6930.3752   -6848.1169   -6930.3752            0    8935.8501     22.97842    21.180802    21.259863    10347.204    8825.3715    8434.9058    9547.2729    180.77547    205.32292    78.415514   -5499.6671 
10277000    30.710176   -6927.8691    -6848.869   -6927.8691            0     8884.331     23.03117    21.128105    21.259985    10345.215    8532.0803    8815.3242    9305.5885   -265.54573    91.268332     399.6946   -5508.4514 
10278000    30.037298   -6932.3036   -6855.0345   -6932.3036            0    8843.6429    23.010867    21.130104    21.261069    10337.599    8957.5068    8939.3787    8634.0432   -210.49956    -205.6726   -31.297559   -5521.7379 
10279000    30.531194   -6932.0622   -6853.5225   -6932.0622            0    8860.4353    23.012812    21.130586    21.266913    10341.552     8367.826    9328.6052    8884.8747    142.81656    69.819912    78.321989   -5517.1835 
10280000    31.428771   -6927.1945   -6846.3459   -6927.1945            0    8891.4161    23.081854    21.068871    21.277991     10347.67    8996.3639    9008.2147    8669.6699    -565.7567   -479.97533   -300.50279   -5504.5409 
10281000     32.00116   -6929.5796   -6847.2586   -6929.5796            0    9142.0591    22.927891    21.145055    21.322402    10337.346    9865.9432    9118.3641    8441.8699    111.88311   -168.14272   -235.78606   -5469.0056 
10282000    31.835849   -6931.6589   -6849.7631   -6931.6589            0    8862.5101    22.983985    21.100811    21.336482    10347.782    9126.6777    8704.3722    8756.4803   -215.53963   -60.254376     150.6715   -5512.3058 
10283000    30.281132   -6929.0457   -6851.1494   -6929.0457            0    9004.8211    22.991424     21.04684    21.366303    10339.086    9119.5829    9285.6533    8609.2271    300.06774    156.95173   -1.8074916   -5493.3577 
10284000    29.966067   -6929.5661   -6852.4802   -6929.5661            0    9015.0515     22.94216    21.146288    21.307926     10337.36    9387.2055    8908.2597    8749.6892    40.572152    295.56019   -260.47438    -5493.373 
10285000    28.983659   -6928.9465   -6854.3878   -6928.9465            0    8947.6288    23.036853      21.0592     21.32074    10343.495     8839.766    9038.4603    8964.6601   -563.11947   -21.957052    15.862412   -5504.6446 
10286000     30.53271   -6930.6821   -6852.1385   -6930.6821            0    9189.5525    22.958113    21.172058    21.253502      10330.7    8652.6093    9203.2185    9712.8299    481.13644   -17.370701    170.18006    -5467.616 
10287000    31.756162   -6931.9059   -6850.2152   -6931.9059            0    9065.3204     23.05065    21.147494    21.213558    10340.835    8580.5718    8923.0859    9692.3034   -85.316033    31.345611   -280.78124   -5483.0699 
10288000    30.066616   -6928.5659   -6851.2214   -6928.5659            0     8907.091    23.025536    21.104148    21.283265    10342.269    8992.1704    8774.7776    8954.3249    471.13792   -401.57981    54.194239   -5507.7525 
10289000    29.884208   -6928.5892   -6851.7139   -6928.5892            0    8714.7761    22.953789    21.200867    21.260679    10346.302     9012.454     7869.825    9262.0494    242.05331    179.30611    454.75328   -5536.7396 
10290000     29.48968   -6929.8622   -6854.0018   -6929.8622            0    8748.2444     23.04064    21.041952    21.340669    10346.384    8362.0675    9537.8288    8344.8369   -107.08727   -199.52397    46.489411   -5533.9669 
10291000    30.824817   -6933.4735   -6854.1785   -6933.4735            0    8929.0066    22.945883     21.13197    21.320125    10337.952     9216.868    8703.8578    8866.2941   -522.80254    39.879432   -103.93382   -5507.9663 
10292000    30.710077     -6931.23   -6852.2302     -6931.23            0    9011.4524     22.94552    21.119823     21.33867    10340.833    9145.8734    9260.6976    8627.7862   -65.252928   -73.393326     90.30185   -5493.2091 
10293000    31.967452   -6931.9373    -6849.703   -6931.9373            0    8997.5142    23.018943    21.090065    21.296381    10338.776    9322.2398    8983.3343    8686.9685   -134.86448   -458.63776   -329.97148   -5493.0539 
10294000    30.478901   -6927.8275   -6849.4224   -6927.8275            0    9016.1494    22.960663    21.163038    21.278773    10339.726    9227.8424    8980.9241    8839.6817    105.09791   -187.32634   -36.175044   -5489.8385 
10295000     28.49202   -6931.5024   -6858.2084   -6931.5024            0    8984.4983    23.043925    21.048453    21.313767    10338.007    9022.4289    9189.6837    8741.3824   -495.35403    234.36483   -225.34828   -5503.6225 
10296000    31.712045    -6931.004   -6849.4267    -6931.004            0    9098.8979    22.947699     21.16061    21.286569    10336.488    9212.5184    9006.4947    9077.6807   -259.87564    357.59529    25.824379   -5477.7945 
10297000    29.100777    -6929.615   -6854.7551    -6929.615            0    9114.0006    22.980797    21.122196    21.306388    10342.225    9053.6916    9187.2296    9101.0805    190.60704   -518.27175     170.1778   -5480.0836 
10298000    31.904082   -6932.2907   -6850.2194   -6932.2907            0    8870.6008    23.019226    21.134554    21.280065    10352.774     8853.964    8883.4766    8874.3618   -207.26961    344.86018   -587.57827   -5510.8954 
10299000    30.239154   -6926.5907   -6848.8023   -6926.5907            0    8989.6597    23.006486    21.176865    21.232447     10344.56    8545.4255    8965.0005    9458.5529    472.27834   -137.21363    361.42997   -5492.5792 
10300000    31.296883   -6930.9244    -6850.415   -6930.9244            0    9010.5583    23.080391    21.087985    21.247563    10341.591    8295.9974    8993.8068    9741.8706    38.848615    518.74674   -142.32487   -5491.4291 
10301000    31.342098   -6927.4495   -6846.8239   -6927.4495            0    9136.6564    22.967153    21.154422    21.273472    10335.862    9198.2213    8649.2287    9562.5193   -41.784071   -184.08741      461.583   -5469.5831 
10302000    30.345548   -6932.1494   -6854.0873   -6932.1494            0    9020.4494    22.970515    21.095317    21.345259    10343.279    9138.2766    9123.7689    8799.3028   -202.64586    67.341181    212.62191   -5493.3876 
10303000    29.269395   -6928.1656   -6852.8719   -6928.1656            0    9148.0154    22.940519    21.088858    21.359212    10333.359    9255.5055    9652.2363    8536.3044   -177.53488    314.59754   -297.58121   -5474.2528 
10304000    31.184679   -6929.9342   -6849.7135   -6929.9342            0    8902.7788    22.922504    21.118433    21.366716    10343.357     9410.491    8893.0926    8404.7527   -365.34447   -81.966783    404.52333   -5506.7537 
10305000    31.887768   -6930.5067   -6848.4774   -6930.5067            0     9034.537    22.943165    21.103731    21.348001    10336.411    9224.8002    8877.2789    9001.5318    146.20969    446.05479    318.71278   -5486.5575 
10306000    32.101286   -6927.9554   -6845.3768   -6927.9554            0    9160.9314     23.02015    21.087554    21.287224    10333.641    9127.7293    9080.4279    9274.6371    -23.47353   -352.36381   -103.56629   -5464.7735 
10307000    30.260479   -6927.7766   -6849.9334   -6927.7766            0    8945.6888     23.00487     21.18729    21.205987    10336.029    8456.1987    8902.4006     9478.467    308.37003    154.37074   -403.99813   -5501.4569 
10308000    31.009994   -6932.2713      -6852.5   -6932.2713            0    8837.6317    23.059288    21.123514    21.227745     10339.89    8573.1091    8681.9708    9257.8152     137.0213    -410.1953   -194.73178   -5519.8144 
10309000    31.333564   -6931.5633   -6850.9596   -6931.5633            0    8811.4006    23.047819    21.119512    21.247196    10342.257    8644.4305      8965.72    8824.0511   -31.715974    513.93562   -249.58549   -5521.9254 
10310000    28.895498   -6932.0597   -6857.7278   -6932.0597            0    8638.2778    22.999847    21.132532    21.296281    10350.951    8925.8692    8568.5418    8420.4224    507.52461   -443.25003    432.98325   -5553.7107 
10311000    31.449872   -6935.7336   -6854.8307   -6935.7336            0    8526.8605     22.97429    21.131251    21.347818    10363.842    9014.5063    8185.9541    8380.1211    466.97221   -312.22349   -29.548108   -5566.0298 
10312000    31.162747   -6930.6254   -6850.4611   -6930.6254            0    8914.4684    22.932021    21.127602    21.366669    10352.121    8892.1437    9198.6868    8652.5748    61.135053    86.847883    146.61386   -5504.5986 
10313000    31.039411   -6926.7446   -6846.8976   -6926.7446            0    9113.9876     22.97918    21.057387    21.391261    10350.835    9147.3629    9445.0695    8749.5302   -96.449192     281.8355   -119.78957   -5471.0837 
10314000    30.365873   -6932.3809   -6854.2665   -6932.3809            0    8809.6255      22.9784     21.09354    21.368103     10357.03    9031.9646    9044.1522    8352.7597    162.95432    10.227454   -100.02311    -5523.602 
10315000    29.143396    -6931.683   -6856.7134    -6931.683            0     8927.611     22.98238     21.11621    21.311465     10342.47     9247.074    9008.3474    8527.4114     13.60947   -178.71016   -172.17493   -5510.1233 
10316000    31.514599   -6928.4501   -6847.3807   -6928.4501            0     8856.076    23.006481    21.132891     21.26713     10339.94     9135.723    8651.4707    8781.0344    48.381235   -89.650636   -283.59135   -5511.9073 
10317000    29.570721   -6930.8007   -6854.7318   -6930.8007            0    9025.1592    22.971258     21.16763    21.240206    10327.988     9430.036    8192.8301    9452.6116    -304.2407   -149.64698    61.033655   -5495.3342 
10318000    29.426108   -6928.6806   -6852.9837   -6928.6806            0    9136.0026     23.02148    21.108857    21.244502    10323.917    8936.7538    8943.2826    9527.9713    36.753821    153.45187    8.5099781    -5477.433 
10319000    30.691054   -6936.1124   -6857.1615   -6936.1124            0    8738.1097    22.995097    21.142687    21.264576    10338.372    8516.1276    8724.7788    8973.4226    255.27977   -104.69068    383.53531   -5539.6769 
10320000    29.966841   -6928.6326   -6851.5447   -6928.6326            0    9058.6607    23.009947    21.092216     21.30074    10337.905    9073.0846    9266.7931    8836.1044    334.54731   -185.69212   -313.55882   -5485.7909 
10321000    30.938288   -6931.7007   -6852.1139   -6931.7007            0    8764.0373    23.031678    21.085357    21.319703    10353.512    8469.7588    9003.3829    8818.9704    217.94053   -269.35134    100.76199    -5528.785 
10322000    31.236887   -6927.3692   -6847.0142   -6927.3692            0    8834.2857    22.963064    21.129469    21.356452    10362.094    8959.1021    8927.9588     8615.796     515.8482   -103.52338    17.842505   -5511.9725 
10323000    29.217964   -6932.3859   -6857.2245   -6932.3859            0     8879.093    22.999551    21.092294    21.355482    10359.828    8689.6165    9173.2048    8774.4577    407.46472   -251.20521    93.797415   -5515.7048 
10324000    31.316057   -6933.7832   -6853.2245   -6933.7832            0    8952.8739    22.938564    21.152855     21.33122    10350.252    8844.3657    8900.5912    9113.6647    92.100116   -15.858512    274.09939   -5501.8078 
10325000    31.128631   -6930.4391   -6850.3625   -6930.4391            0     9116.989    23.031857    21.093476     21.26907    10332.981    9082.8682    9105.7685    9162.3305    14.350233   -35.004097   -31.831544   -5476.4695 
10326000    30.476247   -6929.2295   -6850.8312   -6929.2295            0    9065.0943    22.999498    21.159089    21.228829    10330.976    9106.6512      8678.67    9409.9618    -43.75993    -262.6345    522.56548   -5485.0235 
10327000    29.833254   -6930.3105   -6853.5663   -6930.3105            0    8915.2364    23.029535     21.14437    21.233874    10339.729     8478.112    8822.7296    9444.8675    -202.7191    468.32421   -384.36854   -5509.1991 
10328000    31.260746   -6927.1133   -6846.6969   -6927.1133            0    8798.8846    23.068924    21.119687    21.237303    10346.993    8693.2363    8708.7048    8994.7127   -659.39107   -323.74242   -450.66231   -5518.9428 
10329000    29.853296   -6930.5638    -6853.768   -6930.5638            0    9007.4475    22.953799    21.145025    21.296046     10336.22    9037.2234    9107.2124    8877.9066   -159.84848    201.49307   -120.36335   -5495.9568 
10330000    32.360739   -6931.0944   -6847.8483   -6931.0944            0    8844.6265    23.004937    21.071123    21.347935    10348.195     9181.608    8915.9242    8436.3472    -287.8269   -141.54822    186.33478   -5513.0366 
10331000    30.668221   -6933.3174   -6854.4253   -6933.3174            0    8885.7501    22.945561    21.106739    21.362302    10345.891    9124.6952    9134.1852    8398.3698   -124.67046   -142.63598    545.36713    -5513.706 
10332000    31.410431   -6934.7628   -6853.9614   -6934.7628            0    8908.8104    22.950264    21.070825    21.393678    10345.576    8915.5377    9461.1183    8349.7753    50.446348    271.21799     98.05709   -5509.8034 
10333000    31.119044   -6932.9212   -6852.8693   -6932.9212            0     8788.982    23.020125    21.079936    21.318764    10345.202    8685.7172    9202.5819    8478.6468   -243.31103    221.27351   -222.61958    -5526.839 
10334000    31.592043   -6925.3052   -6844.0366   -6925.3052            0    9127.2246    22.926853    21.193875    21.270454    10335.502    9670.2258    8949.4042    8762.0438    698.32579    -574.5084   -79.496463   -5468.2654 
10335000    30.244508   -6930.4367   -6852.6346   -6930.4367            0    9095.5268    23.073187    21.057764    21.278672    10338.663    8744.1182    9010.8286    9531.6336    248.94225   -93.730176   -68.392785    -5481.222 
10336000    30.127546   -6931.6004   -6854.0991   -6931.6004            0    8995.5338    22.939936    21.215062    21.244735    10339.221    9623.0495    8099.8953    9263.6567   -145.58384   -542.98339   -152.95922   -5497.6902 
10337000    29.365967   -6929.9635   -6854.4213   -6929.9635            0    8949.0161    23.005913    21.115587    21.281339    10338.121    9106.3702    9184.7657    8555.9125    4.7881718   -12.705167   -471.04548   -5505.1703 
10338000    30.045937   -6927.6163    -6850.325   -6927.6163            0    9078.2692    23.014848    21.083139    21.298717    10334.675    9259.7221    9295.2019    8679.8837   -467.10519    -123.4504   -295.42087   -5482.0425 
10339000    30.143898   -6933.2789   -6855.7356   -6933.2789            0    9138.9569    22.899997    21.162322    21.311474    10327.905    9458.9922    8628.3057    9329.5727    334.96855     372.6288    64.948962   -5479.2086 
10340000    30.671251   -6931.3905   -6852.4905   -6931.3905            0     9154.832    23.043807    21.022816    21.333263    10334.808    9088.2505    9506.6059    8869.6397    34.105908   -588.22914   -83.813209   -5472.6507 
10341000    29.717544   -6931.7392   -6855.2927   -6931.7392            0    8994.4554    22.979117    21.128634    21.290623    10336.967    8739.9984    9039.3889     9203.979    658.93133    210.35414    145.48532    -5499.342 
10342000    30.228759   -6929.1858   -6851.4242   -6929.1858            0    9023.4882    22.997845    21.113748    21.300506    10342.902    9053.7261    9371.5391    8645.1992   -4.2504561    -285.6295    142.65602   -5490.3157 
10343000    29.836406   -6928.3921   -6851.6398   -6928.3921            0     9187.016    22.980492    21.098193    21.320879    10337.362    9331.1971    9284.6035    8945.2475    101.36027    181.78064   -201.95379    -5466.607 
10344000    30.694719   -6929.4594   -6850.4991   -6929.4594            0    9013.2476    22.960624    21.143874    21.296566    10338.983    9195.0109    8973.1481    8871.5837   -32.691924   -94.683538   -112.06329   -5491.4504 
10345000     29.49275   -6931.4461   -6855.5778   -6931.4461            0    8947.3803    22.997841    21.108496    21.288164    10334.336    9172.3762    9106.8499    8562.9148   -23.051175   -174.32335   -59.897945   -5507.0672 
10346000    31.130368   -6926.5539   -6846.4729   -6926.5539            0    9113.6823    22.994413    21.147062    21.240812    10328.648    9366.5323    8464.5147         9510    104.96997   -144.32686    37.349132   -5473.6541 
10347000    30.178939   -6929.3841   -6851.7507   -6929.3841            0     9022.989     23.05031    21.144627    21.205764    10335.482    8558.6753    8933.3397    9576.9521    -107.2231     344.5959   -77.620495   -5491.6939 
10348000    28.628566   -6929.5006   -6855.8553   -6929.5006            0    9374.0632    23.008732    21.105054    21.280742    10333.939    9883.2256    8618.5805    9620.3834    42.108085    -377.4874    107.84146   -5443.0912 
10349000    30.496103   -6930.9262   -6852.4769   -6930.9262            0    8974.2966    22.974992    21.146149    21.305557    10350.934    8700.7219    8883.9971    9338.1708   -77.346907    119.19495   -26.867422   -5497.7372 
10350000    29.734521   -6932.0286   -6855.5384   -6932.0286            0    8956.4111    22.990339    21.052001    21.381037    10348.265     8920.466     9022.854    8925.9133    319.85441   -68.251558    304.24779   -5503.8473 
10351000    29.040272   -6930.7156   -6856.0112   -6930.7156            0    8952.0957    22.981017    21.103823    21.333173    10346.318    8991.5291    9099.4438    8765.3143    50.538771    366.60014    137.47019   -5505.2256 
10352000    30.073256   -6928.2266    -6850.865   -6928.2266            0    9137.6816    23.014294    21.113216    21.272009    10336.192    9108.5411    9116.5888     9187.915    186.86464    -100.7879    218.60457   -5473.4256 
10353000    31.327175   -6929.0066   -6848.4193   -6929.0066            0    8818.4533    23.021315    21.138097    21.259574    10345.478    8530.1643    8959.7426    8965.4529    231.02169    292.75883   -154.17267   -5517.9071 
10354000    31.357031   -6930.9724   -6850.3083   -6930.9724            0    8917.2668    23.044939     21.17089    21.189208     10337.83    8740.8413    8765.2134    9245.7456   -368.55374   -625.43765   -545.43109    -5505.882 
10355000    30.627654   -6929.0679   -6850.2801   -6929.0679            0    8881.9521    23.010239    21.166659     21.24443    10347.097    8674.4153    8440.2876    9531.1535    18.105759    383.84381    38.410786   -5509.9776 
10356000    29.776765   -6929.1435   -6852.5446   -6929.1435            0    9214.7729    22.997316    21.135128    21.253363    10330.223    8737.4634    9287.2582    9619.5972    98.374363    20.372668    257.61263   -5464.2864 
10357000    29.858614   -6928.8551   -6852.0457   -6928.8551            0    9245.7651    23.003538    21.065343    21.317778    10330.114    9097.2272     9421.204    9218.8641   -193.11189    383.80291   -104.68339   -5459.1331 
10358000     30.39221   -6931.8131    -6853.631   -6931.8131            0    8776.6236     22.90922    21.130855     21.37127    10345.648    9081.5768    9121.9458    8126.3483    60.039731     124.4209    72.202817   -5529.4082 
10359000    29.446531   -6931.1796   -6855.4302   -6931.1796            0    8743.6324    22.978111    21.053167      21.3956    10350.379    9357.5502    9061.6377    7811.7092   -200.69988   -543.08246    119.06455   -5535.5819 
10360000    31.791255   -6935.2332   -6853.4521   -6935.2332            0    8978.1517     22.90848    21.117201    21.374517      10340.2    9391.3116    9463.6683    8079.4753      267.331    125.26731   -308.45277    -5499.536 
10361000     31.28603   -6931.9301   -6851.4487   -6931.9301            0    8945.8065    23.000998    21.103015    21.302758    10340.154    9069.9676    9108.1238    8659.3282    4.1206055   -266.23791    238.60898   -5502.4162 
10362000    30.842151    -6930.752   -6851.4125    -6930.752            0     9017.619    23.046842    21.099395    21.264281    10340.276    8693.3336    9558.8294     8800.694   -84.145826    267.76637   -272.90007   -5491.5346 
10363000    30.265735   -6927.5954   -6849.7387   -6927.5954            0    9039.3531    22.975055    21.186209    21.234165    10335.821    9257.8682    8871.8147    8988.3764   -430.33521   -18.458959   -36.194647   -5487.1705 
10364000    31.519435   -6931.4394   -6850.3575   -6931.4394            0    8838.7569    23.084937    21.094895    21.244533    10345.542    8483.0326    8795.2928    9237.9452   -279.92383   -23.113164    64.655161   -5516.7736 
10365000    30.448474    -6927.536   -6849.2092    -6927.536            0    9220.7411    22.934927     21.21572    21.237519    10333.773    9107.5143    8906.9631     9647.746    176.37688    354.60576    111.89971   -5459.5745 
10366000    29.592057   -6934.2505   -6858.1268   -6934.2505            0    8832.1276     23.02362     21.11434    21.290857    10350.093    8268.5058    8878.7196    9349.1573   -7.6813114   -68.620001    75.934304   -5524.9569 
10367000    29.621137   -6936.8713   -6860.6727   -6936.8713            0    8864.7404    22.935302    21.131949    21.364788    10354.821    9376.1284    8620.3103    8597.7824    440.95819   -345.49352     1.486216   -5521.9688 
10368000     30.91816   -6935.7789   -6856.2438   -6935.7789            0    8710.1289    22.947625    21.110533    21.377218    10355.907    8698.3671    8834.6471    8597.3724    525.03595   -277.44374    197.07007   -5540.7506 
10369000    30.057284   -6931.0761   -6853.7556   -6931.0761            0    8931.9948    23.021631     21.02893    21.374434    10347.796    8730.5201    9810.7142      8254.75    313.94261   -196.14988   -237.55349   -5505.8104 
10370000    30.052658   -6928.9186   -6851.6099   -6928.9186            0    9085.3226    22.905816    21.152042    21.325644    10332.376    9660.7905    8827.6697    8767.5075   -8.8441314    9.4073849    159.74632   -5482.5689 
10371000       30.632   -6929.8422   -6851.0433   -6929.8422            0    9161.1375    23.078047    21.045155    21.256925    10324.086    8887.0829    9489.5028    9106.8269    137.10274   -211.73244   -177.59953   -5471.6855 
10372000    31.814113   -6927.8909    -6846.051   -6927.8909            0    9058.6306    22.958847    21.204229    21.222338    10331.558     8945.694    8695.4187    9534.7791    95.990343   -215.49844   -84.214232   -5481.1403 
10373000    30.827056   -6931.3629   -6852.0622   -6931.3629            0    8926.5454    23.015984     21.14728    21.236602    10336.395    9146.8547    8668.6286     8964.153   -345.31514    18.250255   -439.80632   -5506.4237 
10374000    30.108751   -6928.6014   -6851.1484   -6928.6014            0    8848.1603    23.004541    21.145364    21.265007    10344.137    8856.1622     8627.883    9060.4357   -353.11985     22.66783    42.433384   -5516.3271 
10375000    30.676448   -6927.7069   -6848.7936   -6927.7069            0    8845.3946    22.980072    21.166571    21.276139    10348.913    8790.7745    8679.1789    9066.2305    93.957759    292.22263   -150.28686   -5513.7735 
10376000    30.404855   -6930.8694   -6852.6548   -6930.8694            0    9120.1357     23.01793    21.098394    21.303916    10346.063    9084.5725    9009.0006    9266.8339    105.17654   -183.23662    71.759023   -5476.5475 
10377000    30.778272   -6933.2774   -6854.1022   -6933.2774            0    8986.8397    22.958432    21.126235    21.342385    10351.595    9109.0179    8622.6501    9228.8511    405.86697    176.13114    267.74867   -5497.3824 
10378000    30.031911    -6930.684   -6853.4288    -6930.684            0    8896.2118    22.984775    21.100817    21.351106    10355.234    9037.3367    9346.2741    8305.0246    407.78854   -249.78765    72.848696   -5509.9187 
10379000    31.808494   -6929.7609   -6847.9355   -6929.7609            0    8811.9118    22.963204    21.096937    21.363511    10349.623    9240.5508    8540.0594    8655.1252    39.583662    11.465416    639.15627   -5517.8776 
10380000     28.62963   -6930.7714   -6857.1234   -6930.7714            0    8945.6532    22.987511    21.108604    21.303254    10337.069    8993.6229    9021.9866      8821.35    115.33086   -24.381448    143.83647   -5508.5165 
10381000     29.59688   -6931.3003   -6855.1641   -6931.3003            0    9015.7539    23.052095    21.079525    21.266339    10333.893    8524.7669    9447.8806    9074.6141   -23.923205   -71.631737   -176.49808   -5496.4068 
10382000    30.652598   -6925.9851   -6847.1331   -6925.9851            0    8999.4719    22.980142    21.196655    21.222162    10337.361    8857.7515    8475.6069    9665.0573   -370.74207     6.296439   -259.19368   -5490.3745 
10383000    30.901315   -6929.0114   -6849.5196   -6929.0114            0    8967.5386     23.04488    21.111888    21.253467    10340.256     8739.612    9173.0406    8989.9631   -75.842969   -392.53518   -500.93312   -5497.1966 
10384000    29.112536   -6931.3567   -6856.4664   -6931.3567            0    8737.3928     22.96895    21.208729    21.235058    10344.494    8855.5081    8431.1524    8925.5178   -466.18373    43.714823    13.101279   -5538.3099 
10385000     28.49546   -6929.1936   -6855.8907   -6929.1936            0    8916.6133    23.004484    21.116449    21.288137    10341.203    8890.2162     8962.248    8897.3757   -384.88828    -49.31638   -91.341881   -5511.1243 
10386000    31.798536   -6931.3064   -6849.5066   -6931.3064            0    8683.1534    23.028768    21.077898    21.319359    10348.375    8509.3419    9006.7545    8533.3639   -171.83399    -221.2954      198.962   -5539.0414 
10387000    30.832903   -6933.4214   -6854.1056   -6933.4214            0    8681.6021    22.938132    21.132931    21.359741    10354.134    9208.2194    8723.2338    8113.3533    67.476906   -76.988212    222.16393   -5543.1453 
10388000     29.60818   -6933.3611   -6857.1959   -6933.3611            0    8618.7355    23.025968    21.053453    21.361184    10355.392    8189.0394     9213.825    8453.3421    264.58266   -17.754989    291.61489   -5555.5706 
10389000    30.570409   -6932.3692   -6853.7287   -6932.3692            0    8968.3289    22.951508    21.149524    21.309666    10343.999    8863.8105     8843.473    9197.7033    -60.11953    514.29565    123.01778    -5500.797 
10390000    30.077431   -6930.5264   -6853.1541   -6930.5264            0    8893.7377    23.019495     21.11353    21.279217    10342.185    9227.0461    8653.3416    8800.8255    140.34458   -296.60675    210.44842   -5511.7102 
10391000    30.067932   -6932.8478   -6855.4999   -6932.8478            0    8834.0124    22.995059    21.149387    21.266297    10342.468    9429.3292    8320.0323    8752.6757   -715.33566    155.04573   -266.83744   -5523.0279 
10392000    30.473072   -6928.0505   -6849.6604   -6928.0505            0    9177.2661     22.94754    21.196743    21.235179     10329.07    9365.5607    8829.7458    9336.4919    254.32471     233.8875   -244.13115   -5467.2072 
10393000    29.865674    -6927.054   -6850.2263    -6927.054            0    9038.9806    23.091916    21.080956    21.232885    10336.162    8695.2115    8903.3121    9518.4181   -339.89677   -264.25697   -68.144829   -5487.6695 
10394000    30.881537   -6930.8925   -6851.4516   -6930.8925            0    8989.4015    22.968015    21.178562    21.247551    10335.436    9240.9533    8429.2179    9298.0333    1.0222082    621.67252   -44.402343   -5496.4636 
10395000    31.407551   -6929.4225   -6848.6285   -6929.4225            0     8812.143    23.005043    21.129654    21.295368    10351.436    8919.3559     8690.437    8826.6363   -324.37596   -64.656712   -111.85807   -5518.3027 
10396000    30.244181   -6931.7884   -6853.9871   -6931.7884            0    9105.3871    22.999841    21.070393    21.341647    10342.497    9520.8694    9372.9406    8422.3513    96.632099   -178.23083   -261.28073   -5480.5787 
10397000    30.278547   -6933.1468    -6855.257   -6933.1468            0    9025.1664    22.908724    21.175017    21.323252    10343.752     9704.151    8663.0113    8708.3368    339.53638    18.608122   -44.846529   -5493.7834 
10398000    30.155167   -6932.7231   -6855.1507   -6932.7231            0    9198.7944    23.058295    21.009137    21.351597    10343.459    9155.3601    9845.6941    8595.3291   -8.7570965   -410.73243   -217.61094   -5467.5242 
10399000    29.871419   -6924.3129   -6847.4705   -6924.3129            0    8878.6157    22.921656    21.169485    21.323399    10346.959    8982.8429    8832.4628    8820.5413   -253.05676    509.77542   -108.45015   -5507.6893 
10400000    29.556284    -6929.919   -6853.8873    -6929.919            0    8885.0155    23.041847    21.076784    21.296599    10342.651    8244.6083    9370.0872     9040.351    257.68776   -154.71449    109.78857   -5513.6986 
10401000    31.183307   -6929.6985   -6849.4813   -6929.6985            0    8920.5219    23.006331    21.119444    21.282673    10340.845    8827.8725    8519.6233    9414.0699   -137.34023    42.754818     87.84935   -5504.1719 
10402000    30.539698   -6934.5869   -6856.0254   -6934.5869            0    8650.4705    22.955823    21.194108    21.265302    10346.169    8530.4703    8800.2082    8620.7329    -59.86763    276.20168    -493.1873   -5550.7709 
10403000    31.813274   -6930.1168   -6848.2791   -6930.1168            0    8969.3855    23.070771    21.068209    21.282988    10344.806    8441.9245     9263.075    9203.1569   -298.35612   -335.88554    56.499397   -5495.0825 
10404000    30.008872    -6927.642    -6850.446    -6927.642            0    9068.8532     22.88265    21.243199    21.260363    10334.677    9450.3153    8819.4726    8936.7717    66.782486    393.74517   -302.58566   -5483.5825 
10405000    29.214416   -6929.3695   -6854.2171   -6929.3695            0    9106.6563    23.050031    21.041611    21.308425    10334.795    9344.8285    9341.0911    8634.0492   -841.15948   -130.36853   -268.06566   -5481.6403 
10406000    28.926289   -6933.3374   -6858.9263   -6933.3374            0    8916.6722    22.949056    21.135283    21.315366    10338.694    9056.2434    8779.9572    8913.8161    590.74659   -239.72893    406.34378   -5514.4772 
10407000    29.457473   -6929.3453   -6853.5678   -6929.3453            0    8967.6768    23.019465    21.075077    21.311849    10339.167    9053.2069    9342.9086    8506.9147    193.02591    3.0492566   -83.309989   -5501.3664 
10408000    29.248409   -6931.4657   -6856.2259   -6931.4657            0    8798.8119     23.05642    21.075714    21.302758     10351.66    8317.3906     9344.062    8734.9831      34.5305    176.88734   -100.83275   -5527.8838 
10409000    30.872095   -6931.5261   -6852.1095   -6931.5261            0    8934.9281     22.97035    21.180467    21.266731    10346.749    9381.0648    8207.0416     9216.678    153.95442    282.40141    621.58754   -5503.8582 
10410000    30.865256    -6932.661    -6853.262    -6932.661            0    9165.2043    23.060795    21.080795    21.279895    10345.006    8563.7659    9594.3634    9337.4837   -376.43513    200.08801   -340.60128   -5470.4957 
10411000    28.510907   -6929.4804   -6856.1379   -6929.4804            0    8950.6165    22.934621    21.179156    21.299736    10346.046    9152.7043    8569.7687    9129.3766   -273.14947    525.95948    -29.50036   -5505.6109 
10412000    29.200142   -6926.3692   -6851.2537   -6926.3692            0    9160.5188    23.049294    21.034856    21.325414    10339.384    8401.4973    9649.8118    9430.2472   -432.74282    256.94035    196.21875   -5469.9454 
10413000    29.633825   -6928.2535   -6852.0223   -6928.2535            0    9085.0554     22.94537    21.156388    21.293307    10336.647    9408.5466    9030.2523    8816.3671   -325.09673    115.07155   -552.26923   -5482.4557 
10414000    28.412983   -6927.8245   -6854.7338   -6927.8245            0    8838.0704    22.997792    21.117933    21.289134    10339.405    8951.3985    8595.8396    8966.9731   -119.52663   -518.36464     454.5501   -5522.0446 
10415000     29.88576   -6928.3076   -6851.4283   -6928.3076            0    8988.1261    23.028857    21.067661     21.30788     10337.82    8815.3464    9841.5483    8307.4837   -262.87125    5.8328843   -579.47577     -5496.32 
10416000    30.896568   -6927.2432   -6847.7637   -6927.2432            0      8885.33    22.916496    21.198271    21.285243     10340.16    9297.6898    8646.5736    8711.7265    396.87993    -645.8955    -41.19539   -5507.8504 
10417000     30.14379    -6930.864   -6853.3209    -6930.864            0    8978.5259    23.052744    21.062739    21.302848    10343.682     8586.135    8890.9015    9458.5412    314.81841   -269.59056    283.67239   -5498.8924 
10418000    31.282492    -6930.282   -6849.8097    -6930.282            0    8982.0976    22.914045    21.199406    21.293361    10343.551    9158.2562    8795.3219    8992.7146    121.56512    29.004402   -340.22505   -5494.8595 
10419000      31.0247   -6927.2253   -6847.4162   -6927.2253            0    8934.6383    23.044498     21.05336    21.329511    10348.313    8781.4853    8935.5632    9086.8664   -198.25065   -130.61112    207.63333   -5499.0047 
10420000    30.234818   -6931.4273     -6853.65   -6931.4273            0    8941.8877     22.95533    21.143608     21.30666    10341.369    9113.7611    8452.5789    9259.3232    49.526897    200.84807    5.1059679   -5505.0501 
10421000    30.175783   -6930.2124    -6852.587   -6930.2124            0     9000.476    22.968934    21.138419    21.300124    10341.785    9350.8249    8789.2036    8861.3993   -25.521321     85.76523   -130.96345   -5495.0963 
10422000    30.083265   -6929.0962   -6851.7088   -6929.0962            0    8976.2938    23.042418    21.100228    21.278033    10345.386    8581.9856    9122.0062    9224.8896    6.0961488    -122.5861    4.6382171   -5497.3939 
10423000    29.918124   -6931.5615    -6854.599   -6931.5615            0    8886.9502    22.934256    21.207113    21.274784    10347.403     9347.195    8410.2819    8903.3739   -354.06646   -107.12819    187.39776   -5513.5026 
10424000    29.743171   -6932.6461   -6856.1336   -6932.6461            0    8779.2201    23.055035    21.079567    21.303098    10353.096    8724.2833    9392.8527    8220.5244   -344.52462    390.43125   -704.02493   -5530.5654 
10425000    30.819767   -6931.9478   -6852.6659   -6931.9478            0     8838.988    22.935731    21.193293    21.284072     10345.84    9039.4857    8761.9253    8715.5528    386.03405   -279.63276    429.76411   -5519.0088 
10426000    30.746076   -6933.8739   -6854.7815   -6933.8739            0    8853.6942    23.040672     21.05355    21.322915    10343.489    9357.4379    8772.6177    8431.0271   -281.53491   -232.68658   -225.79568    -5519.209 
10427000    30.969541   -6926.1805   -6846.5133   -6926.1805            0    8921.2066    22.997387    21.103642    21.303519    10339.207     8521.892    9172.4937    9069.2341    208.43561   -2.4561517     102.8649   -5501.3136 
10428000     30.94786   -6929.0101   -6849.3986   -6929.0101            0    9022.6396    22.951338    21.125901    21.312293    10333.642    9015.1326    9374.9317    8677.8546    140.90841    467.44881   -273.91956   -5489.6365 
10429000    30.478562   -6931.3423    -6852.938   -6931.3423            0    8754.7108     23.02658    21.063172    21.328514    10344.602    9055.7371    8819.3402    8389.0551   -423.69879   -391.88823    26.196147   -5532.1549 
10430000    29.795768   -6928.7645   -6852.1167   -6928.7645            0    8738.9296     22.90544     21.20105    21.308514    10347.828    8945.0814    8669.2901    8602.4173    388.10242   -13.985396    125.48473   -5533.3034 
10431000    29.896478   -6932.1013   -6855.1944   -6932.1013            0    8572.6136     23.04816    21.089419    21.305836    10356.177    8311.4961     8855.771    8550.5736    183.48156   -410.42375   -249.40702   -5560.4364 
10432000    31.082907   -6930.1794   -6850.2205   -6930.1794            0    8817.4157    22.929695    21.199745    21.281016     10344.78    9051.7444    8545.8155    8854.6873    398.32081    55.908758    135.75473   -5519.9546 
10433000    29.553229   -6929.8139   -6853.7901   -6929.8139            0     9212.899    23.029289    21.106745       21.258    10332.947    9006.4139    8988.8457    9643.4374   -429.51354    377.96689     78.92522   -5465.4483 
10434000    29.526111   -6930.6232   -6854.6691   -6930.6232            0    8929.4376    23.058345    21.079407    21.279038    10342.809    8614.9804    9000.4503    9172.8822   -139.18941   -213.68646    332.81758   -5507.7593 
10435000    31.456528   -6930.5232   -6849.6032   -6930.5232            0    8940.4581    22.909131    21.196429    21.304594    10345.336    9273.4664    8587.1568    8960.7513    177.20975    324.28216   -152.74609   -5500.7017 
10436000    30.805259    -6928.948   -6849.7034    -6928.948            0    8876.3374    23.089789    21.010719    21.330547    10348.153    9043.0664    9228.0965    8357.8493   -215.41322   -788.32584     51.78478   -5510.1114 
10437000    29.442001   -6933.5245   -6857.7868   -6933.5245            0    8557.5503    22.890472    21.226873    21.305097        10352    8560.5462    8331.0913    8781.0134    85.762572    351.18661   -160.89252   -5565.8251 
10438000    30.670375   -6929.7112   -6850.8135   -6929.7112            0     8508.413    23.096487    21.041503    21.320755    10361.563    8200.6401    8954.5308    8370.0679   -230.53835   -582.16926   -183.66776   -5565.0837 
10439000    29.897919   -6935.1668   -6858.2562   -6935.1668            0    8767.5551    22.953791    21.158543    21.308849    10349.043    8747.0183    8787.9538    8767.6933   -65.886392   -11.096876   -332.91729   -5534.9676 
10440000    31.660007   -6925.8173   -6844.3738   -6925.8173            0    9224.3187    22.996008    21.105213    21.297491    10336.431    8853.1763    9658.3252    9161.4545   -258.90631    37.096683    256.31751   -5453.8424 
10441000    31.503656   -6927.6285   -6846.5873   -6927.6285            0    9169.3575    23.094763    21.043844    21.241559    10323.453    8732.2565    9472.5795    9303.2366   -94.358588    317.27963    168.87884   -5466.0766 
10442000     30.83996   -6929.0469    -6849.713   -6929.0469            0      8919.17    22.979025     21.15193    21.256184    10331.584    8849.8933    8938.5347     8969.082    65.343801   -17.011026   -68.871045   -5505.8122 
10443000    31.596347   -6935.2709   -6853.9912   -6935.2709            0    8800.7359    23.042657    21.060343    21.315956    10344.341    9347.7303    8416.7107    8637.7667   -333.39219   -584.08477    362.75709   -5526.2981 
10444000    31.320922   -6933.1546   -6852.5834   -6933.1546            0    8643.3181     22.91744    21.207619    21.299827    10352.234     9069.434    8466.2096    8394.3108   -10.133161    153.12442   -228.22018   -5547.6436 
10445000     32.14897   -6935.5064   -6852.8052   -6935.5064            0    8419.4193    23.016576    21.107754     21.32772    10361.608    8375.6856    8617.7659    8264.8064   -295.31023   -98.414049   -129.32341   -5580.5178 
10446000    30.600326   -6933.8286   -6855.1111   -6933.8286            0    8864.0962    22.996359    21.109044     21.31904    10348.926    8882.0875    9044.8199    8665.3812     480.4204   -524.49984   -315.49915   -5517.2666 
10447000    29.625186   -6928.6002   -6852.3912   -6928.6002            0    8952.7895    22.986886    21.114445    21.313361    10344.554    8488.2023    9319.4829    9050.6834    508.13425   -91.695638    179.62821   -5501.7313 
10448000    30.951745   -6929.4631   -6849.8416   -6929.4631            0     9108.151    23.036511      21.0394     21.33595    10340.988    9147.8886    9194.1749    8982.3896    6.4274865   -144.63057     16.31665   -5476.2167 
10449000    31.746691   -6930.5875   -6848.9211   -6930.5875            0    9037.6823    22.944587    21.171559    21.275635    10335.122    9219.4709    8967.9498    8925.6263   -46.049635   -77.869326    92.771828   -5486.6969 
10450000    28.465437     -6926.58   -6853.3544     -6926.58            0    9063.8165    23.058983    21.085551    21.253857    10333.866    8902.4437    9237.1157    9051.8902   -401.79232    261.99188   -362.41691   -5487.3571 
10451000    30.757528   -6931.2748   -6852.1529   -6931.2748            0    8755.7855    23.031324    21.143189    21.241852     10343.84    8011.2862     8941.398    9314.6721    125.89198     188.2896    252.02816   -5531.3051 
10452000    30.662578   -6932.2898   -6853.4121   -6932.2898            0      8725.19    22.981378    21.176367    21.252864    10342.963    8772.5715    8168.4944    9234.5041     161.2158   -378.79537   -156.40159   -5537.2913 
10453000    28.908713    -6932.332   -6857.9661    -6932.332            0    9060.7413    23.036047    21.094792    21.271854    10336.858    8910.2898    9232.6953    9039.2388   -339.98027    128.69213    -75.31542   -5492.0369 
10454000    30.117498   -6930.6698   -6853.1943   -6930.6698            0    9012.1036    22.898731    21.211548    21.279873    10336.008    9290.9738     8599.197    9146.1399   -52.852399    607.72368    153.51901   -5494.7092 
10455000    30.213317   -6933.5012   -6855.7793   -6933.5012            0    8849.5457    23.015763    21.062299    21.348532    10349.018    8635.7403    9152.1995    8760.6975    114.63583    151.57975    58.118233   -5520.1189 
10456000    30.670011   -6934.7211   -6855.8244   -6934.7211            0    9108.3056    22.966184    21.086705    21.343554    10336.281    9040.4557    9139.2485    9145.2127    347.97646   -47.176385     555.3035   -5482.8014 
10457000    28.643992   -6927.9854   -6854.3005   -6927.9854            0    9140.0459    22.970504    21.059417    21.354875    10330.323    9112.3977    9938.0737    8369.6663    214.34743    220.02946    70.400501   -5477.2871 
10458000    30.004742   -6928.7369   -6851.5515   -6928.7369            0    8985.7709    23.039209    21.029765    21.336719    10337.835     9015.691    9198.9534    8742.6682    126.11889   -162.88934    140.59649   -5496.7963 
10459000    31.118862    -6929.581   -6849.5296    -6929.581            0    8951.3641    22.940507    21.195399      21.2653    10339.895    8933.3894    8777.4854    9143.2175    130.13494    151.24106   -413.45289   -5499.6929 
10460000    29.982697   -6930.2335   -6853.1048   -6930.2335            0    8991.6177    23.029122    21.112886    21.272212    10342.788    8642.2276    9220.9579    9111.6677   -4.3130282    84.950853    144.09031   -5496.8186 
10461000    31.059478    -6929.273   -6849.3744    -6929.273            0    9043.6497    22.960288    21.186416    21.254962    10339.396    9956.8426    8372.9405    8801.1659   -60.260516   -18.408311   -463.35777   -5485.6871 
10462000    29.173073   -6929.3282   -6854.2822   -6929.3282            0    9080.3324    22.973483    21.151777    21.272313    10336.855    8878.2711    9123.7652    9238.9609    13.269589   -221.52934   -43.454156   -5485.4001 
10463000    30.370367   -6931.1489    -6853.023   -6931.1489            0    8974.0809    23.049824    21.031083    21.331155    10340.549    8833.4967    9167.3044    8921.4414    107.01281     20.46862   -21.076358    -5499.675 
10464000     30.09948   -6929.7889   -6852.3598   -6929.7889            0    8950.1204    22.951662    21.144114    21.316761    10344.865    9112.9921    8754.3264    8983.0427     674.2967    128.33636    872.75633   -5502.0618 
10465000     29.51208   -6932.7638   -6856.8457   -6932.7638            0     8931.998    23.034312    21.073518    21.311339    10344.822    8795.4673    8851.8888    9148.6379   -72.610652    25.339486    437.05053   -5509.2876 
10466000    30.319929   -6930.7149   -6852.7188   -6930.7149            0      8876.96    22.978353    21.150936    21.282991    10343.825    8766.0013    8623.1925    9241.6862    167.00917    298.87535   -154.49209   -5513.5932 
10467000    31.008982   -6931.2485   -6851.4798   -6931.2485            0    9078.5579    23.010235    21.123912    21.262559     10335.01    8743.4276    9479.1755    9013.0707    118.70838   -400.58831   -61.846144   -5483.1093 
10468000    30.778372   -6928.8662   -6849.6907   -6928.8662            0    8967.6333    22.986966    21.133146    21.300082    10347.301    9016.3381    8805.0161    9081.5456   -295.57178    255.77702   -482.01064   -5496.4321 
10469000    31.067843   -6932.0608   -6852.1407   -6932.0608            0    9033.6262    22.959366     21.12937    21.300783     10333.37    9197.7806    8974.9041     8928.194   -255.32527    86.035892    158.82858   -5490.7587 
10470000     28.60779   -6929.7952   -6856.2034   -6929.7952            0    9019.6773    22.996261    21.091013    21.300276    10330.942    8845.2278    9042.9353    9170.8688   -180.77469     193.7869    62.440223    -5497.243 
10471000     29.95882   -6929.9578   -6852.8906   -6929.9578            0    8970.8021    22.983978    21.115366    21.285779     10330.31    8694.8726     9340.754    8876.7796    268.62365    61.578306   -138.41889   -5501.3767 
10472000    30.418739    -6934.035   -6855.7847    -6934.035            0    8689.0607    23.020762    21.090718    21.307804    10345.459    8987.5969    8532.9944    8546.5907     181.4257   -189.77286   -103.92523   -5544.7974 
10473000    31.241875   -6937.7948    -6857.427   -6937.7948            0    8525.1656    22.980321    21.175138    21.282251    10356.188    8626.7416    8414.2512    8534.5041    102.05126   -196.90991    197.08433   -5569.8339 
10474000    31.715195     -6932.16   -6850.5746     -6932.16            0     8609.925    23.073875    21.077967    21.290707    10354.743    8293.2903    8687.3413    8849.1435    149.34137    276.87675     1.801185   -5550.3614 
10475000    29.436146   -6931.3517    -6855.629   -6931.3517            0    8596.7599     22.95125    21.177136    21.308374    10356.759    8807.7309     8236.784    8745.7649    176.19452   -258.10231    304.85706    -5557.151 
10476000    30.482022   -6932.8313   -6854.4182   -6932.8313            0    8817.3258    22.998453    21.100995    21.331146    10351.797    8893.5208    8462.1593    9096.2973   -231.80237     365.0601    254.12583   -5523.2635 
10477000    32.276683   -6928.9633   -6845.9335   -6928.9633            0    8978.5918    22.992031    21.116613    21.317318    10349.853    8734.4641    9119.2921    9082.0192    402.40677   -136.91752    28.202878    -5490.687 
10478000    31.200681   -6925.7655   -6845.5037   -6925.7655            0    8889.1944    23.004223     21.14693    21.260766    10342.697    8888.4884     8760.861    9018.2337    483.16374   -448.05616    94.320745   -5504.6787 
10479000    30.785337   -6928.6928   -6849.4994   -6928.6928            0    8953.0517    23.032906    21.137767    21.240093    10341.041    8334.6079    8930.2113    9594.3359   -30.502598    254.54641    5.8900637   -5499.2585 
10480000    32.910555   -6930.5184    -6845.858   -6930.5184            0    9137.5104    22.988073    21.163308    21.233572    10330.211    8978.9276    8930.5957    9503.0079     -223.033    207.52184    -91.20824   -5469.2416 
10481000    31.357135   -6927.9392   -6847.2749   -6927.9392            0    8974.6121    22.967645    21.134142    21.296725    10337.462    9428.8722    8709.9256    8785.0383    18.685963   -366.21164    193.84426   -5494.2509 
10482000    30.513558    -6928.391   -6849.8968    -6928.391            0    9067.1765    22.994844    21.096786    21.300569    10333.275    8771.6574    9338.7822      9091.09    29.613987    381.16552    112.68824   -5483.4713 
10483000    29.895124   -6931.1207   -6854.2173   -6931.1207            0    8882.9916    22.993686     21.10864    21.299201    10337.896    8937.8949    8914.6009    8796.4792   -90.065935      191.682   -176.28541   -5514.9498 
10484000    29.887103   -6929.0419   -6852.1592   -6929.0419            0    8873.5636    22.994655    21.119127    21.301599    10344.633    8896.4194    9143.1191    8581.1522   -67.359191   -295.49764   -305.86323   -5513.4414 
10485000    30.186049   -6932.7494   -6855.0976   -6932.7494            0    8685.0664    22.961319    21.152608    21.325542     10357.64    9128.2371    8300.0888    8626.8733    233.41018   -293.17056    -341.6605     -5543.17 
10486000    29.407476   -6930.1071   -6854.4582   -6930.1071            0    8798.3746    22.993851    21.107536    21.332008    10353.352    9136.7712     8839.806    8418.5467   -371.80228   -301.60714   -149.85936    -5525.965 
10487000    29.674564    -6931.296   -6854.9599    -6931.296            0    8831.6707    22.990293     21.09172    21.328266    10342.179    9009.1032    9203.8097    8282.0992   -42.512071    536.28332   -36.813755   -5522.8784 
10488000       31.798   -6930.8442   -6849.0457   -6930.8442            0    8927.0549    23.021763    21.107726    21.276891     10339.23    9115.8062    8727.8274    8937.5311   -40.188338    83.070942     365.8558   -5502.9613 
10489000    30.036757    -6930.301   -6853.0333    -6930.301            0    9071.4437    23.006785    21.141946    21.248493    10335.442    8877.6196    8954.4682    9382.2434   -30.298592   -190.98177    301.10092   -5485.6781 
10490000    31.422904   -6932.1317   -6851.2982   -6932.1317            0    8990.6903    23.027715    21.156933    21.232137    10344.208    8389.8405    8796.0852    9786.1451   -10.645194    432.81444   -8.4703374   -5494.9657 
10491000    30.515495   -6932.7584   -6854.2591   -6932.7584            0    8852.2593    23.023401    21.157642    21.232219    10342.657    8567.3454    8561.4579    9427.9747   -253.40175    72.790548   -16.755605   -5519.0105 
10492000    30.174998   -6932.6217   -6854.9983   -6932.6217            0    8766.3683    22.968321    21.167772    21.288188    10350.066    8757.3384    8788.7753    8752.9913    -27.53109    225.38516   -149.23439    -5531.758 
10493000    30.849382   -6931.8675   -6852.5094   -6931.8675            0    8895.8589    22.958926    21.106286    21.365495    10353.241    9698.4982    8735.2065    8253.8719   -537.86861   -516.36633    352.38157   -5509.3111 
10494000    29.636582   -6928.7634   -6852.5251   -6928.7634            0    8964.3967    22.964778     21.06996    21.375408    10342.854    9051.1754    9729.3949    8112.6198    103.89403     715.7153   -283.10172   -5500.3363 
10495000    31.356977   -6927.3462   -6846.6823   -6927.3462            0    8939.3899    23.018847    21.044569    21.350314    10342.555    9070.7099    8913.8188    8833.6409    271.84508    -241.5517    146.08103   -5498.3044 
10496000    29.692531   -6930.0376   -6853.6553   -6930.0376            0    9015.9229    22.970144    21.103612    21.325131    10337.421    9266.2487    8867.5499      8913.97    453.17754   -318.30569    340.22528   -5494.4086 
10497000    31.768778   -6934.8797   -6853.1565   -6934.8797            0    8829.3484    22.977985    21.133233    21.295143    10340.903    9027.8887    8781.5669    8678.5895    192.32956    -162.4614   -14.715479   -5521.5896 
10498000    30.721821   -6930.5192   -6851.4892   -6930.5192            0     9029.088    23.033124    21.098313    21.272591     10337.63    8744.6793    8578.5592    9764.0256   -353.80315   -72.670003    -172.8053   -5490.2302 
10499000    29.942372   -6931.5836   -6854.5586   -6931.5836            0    8976.3648    22.956177    21.173206    21.278238    10342.412    9016.1195    8737.0284    9175.9465   -15.810171   -60.164154   -410.86456   -5500.6223 
10500000    31.661466   -6927.3535   -6845.9064   -6927.3535            0    8874.3072    23.023042    21.169189    21.226649    10345.426    9115.9795    7993.5921    9513.3498   -362.45407    52.982191    49.955928   -5506.9738 
Loop time of 603.588 on 64 procs for 250000 steps with 1296 atoms

Performance: 71.572 ns/day, 0.335 hours/ns, 414.190 timesteps/s
195.1% CPU use with 32 MPI tasks x 2 OpenMP threads

MPI task timing breakdown:
Section |  min time  |  avg time  |  max time  |%varavg| %total
---------------------------------------------------------------
Pair    | 38.523     | 49.105     | 60.938     | 104.5 |  8.14
Bond    | 0.82436    | 1.0674     | 1.341      |  13.0 |  0.18
Kspace  | 310.4      | 325.31     | 341.13     |  45.9 | 53.90
Neigh   | 0.15764    | 0.16727    | 0.17757    |   1.5 |  0.03
Comm    | 82.437     | 89.534     | 95.214     |  31.8 | 14.83
Output  | 0.57779    | 0.57808    | 0.57938    |   0.0 |  0.10
Modify  | 113.26     | 116.57     | 118.1      |  10.1 | 19.31
Other   |            | 21.26      |            |       |  3.52

Nlocal:        40.5000 ave          50 max          31 min
Histogram: 6 3 2 3 2 0 0 8 7 1
Nghost:        3225.56 ave        3243 max        3210 min
Histogram: 2 3 3 5 7 3 2 3 1 3
Neighs:        13503.2 ave       16608 max       10300 min
Histogram: 6 3 2 3 2 0 0 5 8 3

Total # of neighbors = 432103
Ave neighs/atom = 333.41281
Ave special neighs/atom = 2.0000000
Neighbor list builds = 263
Dangerous builds = 0

unfix		3
unfix		2
unfix		1

write_data	data.final.${pid}
write_data	data.final.0
System init for write_data ...
PPPM initialization ...
  extracting TIP4P info from pair style
  using 12-bit tables for long-range coulomb (../kspace.cpp:340)
  G vector (1/distance) = 0.3700547
  grid = 30 40 32
  stencil order = 5
  estimated absolute RMS force accuracy = 0.0040032852
  estimated relative force accuracy = 1.2055775e-05
  using double precision FFTW3
  3d grid and FFT values/proc = 7888 1280
Last active /omp style is kspace_style pppm/tip4p/omp
WARNING: Not all mixed pair coeffs generated from mixing. Use write_data with 'pair ij' option to store all pair coeffs. (../write_data.cpp:312)

write_restart   restart.lmp.${pid}
write_restart   restart.lmp.0
System init for write_restart ...
PPPM initialization ...
  extracting TIP4P info from pair style
  using 12-bit tables for long-range coulomb (../kspace.cpp:340)
  G vector (1/distance) = 0.3700547
  grid = 30 40 32
  stencil order = 5
  estimated absolute RMS force accuracy = 0.0040032852
  estimated relative force accuracy = 1.2055775e-05
  using double precision FFTW3
  3d grid and FFT values/proc = 7888 1280
Last active /omp style is kspace_style pppm/tip4p/omp
Total wall time: 0:10:03
