LAMMPS (30 Jul 2021)
Processor partition = 1
  using 2 OpenMP thread(s) per MPI task
using multi-threaded neighbor list subroutines
variable        pid world 0 1
variable        phase world IceV IceIII

shell cd ${phase}
shell cd IceIII
include Restart.lmp
echo both
log log.lammps
#include		in.partitions
include		in.temp
variable        temperature equal 63.97
variable	tempDamp equal 100.0
include		in.pressure
variable        pressure equal 6829.3
variable        pressureDamp equal 1000.0 # This is 1 ps
include		in.seed
variable        seed equal 745823

units		real
atom_style	full

read_restart	restart.lmp.${pid}
read_restart	restart.lmp.1
Reading restart file ...
  restart file = 30 Jul 2021, LAMMPS = 30 Jul 2021
  restoring atom style full from restart
  orthogonal box = (0.19176266 0.097567976 0.13399624) to (19.808238 19.902433 20.566002)
  2 by 4 by 4 MPI processor grid
  restoring pair style lj/cut/tip4p/long/omp from restart
  restoring bond style harmonic/omp from restart
  restoring angle style harmonic/omp from restart
  972 atoms
  648 bonds
  324 angles
Finding 1-2 1-3 1-4 neighbors ...
  special bond factors lj:    0        0        0       
  special bond factors coul:  0        0        0       
     2 = max # of 1-2 neighbors
     1 = max # of 1-3 neighbors
     1 = max # of 1-4 neighbors
     2 = max # of special neighbors
  special bonds CPU = 0.002 seconds
  read_restart CPU = 0.008 seconds
include 	in.setup
variable	out_freq equal 1000
variable	out_freq2 equal 10000
variable	out_freq3 equal 1000

timestep	2.0

neigh_modify    delay 7 every 1

include		in.tip4p
# This is TIP4P/Ice

# create groups ###
group ox type 2
324 atoms in group ox
group hy type 1
648 atoms in group hy

# set charges - beside manually ###
set group ox charge -1.1794
Setting atom values ...
  324 settings made for charge
set group hy charge 0.5897
Setting atom values ...
  648 settings made for charge

# ### TIP3P Potential Parameters ###
pair_style lj/cut/tip4p/long/omp 2 1 1 1 0.1577 8.5
pair_coeff 1 1*2 0.000 0.000
pair_coeff 2 2 0.21084 3.1668
bond_style  harmonic
bond_coeff  1 450 0.9572
angle_style harmonic
angle_coeff 1 55 104.52
kspace_style pppm/tip4p/omp 1.0e-5
pair_modify tail yes

thermo          ${out_freq}
thermo          1000
thermo_style    custom step temp pe etotal epair emol press lx ly lz vol pxx pyy pzz pxy pxz pyz enthalpy

restart 	${out_freq3} restart.lmp.${pid} restart2.lmp.${pid}
restart 	1000 restart.lmp.${pid} restart2.lmp.${pid}
restart 	1000 restart.lmp.1 restart2.lmp.${pid}
restart 	1000 restart.lmp.1 restart2.lmp.1


include         in.dump
dump            myDump all atom ${out_freq2} dump.water.${pid}
dump            myDump all atom 10000 dump.water.${pid}
dump            myDump all atom 10000 dump.water.1
dump            myDump2 all dcd ${out_freq2} dump.dcd
dump            myDump2 all dcd 10000 dump.dcd
dump_modify     myDump append yes
dump_modify     myDump2 append yes


variable natoms 	equal  "count(all)"                        # NUMBER ATOMS
variable H      	equal  "enthalpy/v_natoms"                 # ENTHALPY-per-atom
variable Vol      	equal  "vol/v_natoms"                 # volume-per-atom
fix AVG all 		ave/time ${out_freq} 1 ${out_freq} v_Vol v_H file vol_enthalpy.dat
fix AVG all 		ave/time 1000 1 ${out_freq} v_Vol v_H file vol_enthalpy.dat
fix AVG all 		ave/time 1000 1 1000 v_Vol v_H file vol_enthalpy.dat


timer           timeout 02:55:00 every 1000
New timer settings: style=normal  mode=nosync  timeout=02:55:00

fix 		1 all shake 1e-6 200 0 b 1 a 1
Finding SHAKE clusters ...
       0 = # of size 2 clusters
       0 = # of size 3 clusters
       0 = # of size 4 clusters
     324 = # of frozen angles
  find clusters CPU = 0.001 seconds
fix             2 all nph aniso ${pressure} ${pressure} ${pressureDamp}
fix             2 all nph aniso 6829.3 ${pressure} ${pressureDamp}
fix             2 all nph aniso 6829.3 6829.3 ${pressureDamp}
fix             2 all nph aniso 6829.3 6829.3 1000
fix             3 all temp/csvr ${temperature} ${temperature} ${tempDamp} ${seed}
fix             3 all temp/csvr 63.97 ${temperature} ${tempDamp} ${seed}
fix             3 all temp/csvr 63.97 63.97 ${tempDamp} ${seed}
fix             3 all temp/csvr 63.97 63.97 100 ${seed}
fix             3 all temp/csvr 63.97 63.97 100 745823


run             250000
PPPM initialization ...
  extracting TIP4P info from pair style
  using 12-bit tables for long-range coulomb (../kspace.cpp:340)
  G vector (1/distance) = 0.37249337
  grid = 24 24 24
  stencil order = 5
  estimated absolute RMS force accuracy = 0.003472011
  estimated relative force accuracy = 1.0455858e-05
  using double precision FFTW3
  3d grid and FFT values/proc = 3211 432
Last active /omp style is kspace_style pppm/tip4p/omp
Neighbor list info ...
  update every 1 steps, delay 7 steps, check yes
  max neighbors/atom: 2000, page size: 100000
  master list distance cutoff = 10.8154
  ghost atom cutoff = 10.8154
  binsize = 5.4077, bins = 4 4 4
  1 neighbor lists, perpetual/occasional/extra = 1 0 0
  (1) pair lj/cut/tip4p/long/omp, perpetual
      attributes: half, newton on, omp
      pair build: half/bin/newton/omp
      stencil: half/bin/3d
      bin: standard
Setting up Verlet run ...
  Unit style    : real
  Current step  : 39750000
  Time step     : 2
  Walltime left : 2:54:59.93
Per MPI rank memory allocation (min/avg/max) = 10.19 | 10.19 | 10.19 Mbytes
Step Temp PotEng TotEng E_pair E_mol Press Lx Ly Lz Volume Pxx Pyy Pzz Pxy Pxz Pyz Enthalpy 
39750000    64.163815   -5102.7879   -4979.0426   -5102.7879            0    7555.1083    19.616476    19.804865    20.432006    7937.8679    7210.6637    7795.7985    7658.8627   -224.46755   -14.802341   -408.83829   -4104.4205 
39751000    65.654025   -5117.9316   -4991.3123   -5117.9316            0    7310.0648    19.677729    19.789998    20.370392    7932.6831    7496.2359    7453.1227    6980.8358    372.00212    280.44266    81.581957   -4145.6106 
39752000    62.880379   -5112.6641    -4991.394   -5112.6641            0    6897.9412    19.790959    19.791677     20.29299    7948.6882    5575.1183    7043.7724    8074.9327    70.054638    203.37431    668.16103   -4191.7608 
39753000    61.273309   -5109.5596   -4991.3888   -5109.5596            0       6900.7    19.760354    19.751084    20.354986    7944.3152    6190.5158    7224.8886    7286.6956   -341.84309   -231.53546   -743.69369   -4191.8759 
39754000    64.997228   -5124.7791   -4999.4265   -5124.7791            0    6223.6082    19.764641    19.600037      20.5051    7943.4234      5909.85    7132.5296    5628.4451    286.16685    499.74596    931.29938   -4278.4421 
39755000    61.949991   -5112.4332   -4992.9574   -5112.4332            0    6483.7875     19.79998    19.790182     20.31177    7959.0697    6430.4485    6087.5902    6933.3239    261.56888    593.36218    492.16529   -4240.3527 
39756000    67.435115   -5112.1004   -4982.0461   -5112.1004            0    7807.5795    19.651135    19.665121    20.530684    7933.9175    7310.1835    8846.5446    7266.0102    295.44804    216.96112   -10.865804   -4078.6463 
39757000    64.205135    -5115.471    -4991.646    -5115.471            0     6986.213    19.816204    19.728583    20.296932    7934.9968     4947.068    8776.6059    7234.9651   -252.12097    76.167419   -547.37132   -4183.1749 
39758000    63.548397   -5108.7198   -4986.1614   -5108.7198            0    7141.6129    19.751948    19.673109    20.384317    7920.9833    6530.2232    7633.9276    7260.6879   -303.42382    742.60636    806.96698   -4161.1664 
39759000    66.456305   -5110.9097   -4982.7431   -5110.9097            0    5935.0717    19.724875    19.748395      20.4041    7948.1031    5579.5074    5729.5388    6496.1689    311.48388   -192.96616   -87.739089   -4294.7797 
39760000    66.251515   -5114.8285   -4987.0569   -5114.8285            0    7645.3442    19.640406     19.81453    20.382167    7932.0341    7988.4578    7488.5473    7459.0274    128.91423    286.26634    508.48082    -4102.639 
39761000    65.077307    -5118.237     -4992.73    -5118.237            0    6198.0844    19.645313    19.862745    20.372791    7949.6637    7077.3002    4840.5456    6676.4076   -353.36513    289.98024    1094.1014   -4274.1384 
39762000    65.272508   -5105.4944   -4979.6109   -5105.4944            0    6197.3468    19.727903    19.721897    20.461484    7960.9839    7010.8088    5686.3988    5894.8327   -21.859853    236.62282   -267.18563   -4260.0817 
39763000    67.252368   -5112.7485   -4983.0466   -5112.7485            0    6294.8757    19.650324    19.806322    20.497488    7977.6355    6740.4256    6285.5485     5858.653    150.14284   -664.44037     142.3239   -4250.6653 
39764000     61.77956   -5113.0492   -4993.9022   -5113.0492            0     6705.342    19.725226      19.8008    20.374829    7957.9045    7198.0498    5871.1282     7046.848    -284.8632    1.6596874    228.43966   -4215.6944 
39765000     62.61448   -5113.6363    -4992.879   -5113.6363            0    6953.6781    19.664514    19.739828    20.456724    7940.7705    5978.9034    7938.8415    6943.2894   -179.92563     389.1803    141.17255   -4187.5875 
39766000    61.719941   -5110.2664   -4991.2343   -5110.2664            0    6646.2142    19.622853    19.793846    20.494018    7960.1168     6444.849     6584.368    6909.4257   -50.395279   -355.00803    733.79596   -4219.6744 
39767000    65.803083   -5112.7532   -4985.8464   -5112.7532            0      7275.38    19.605712    19.803224    20.349049    7900.6466    7892.1627    6790.6507    7143.3264    6.9582604    390.11278    111.69497   -4147.5565 
39768000    61.587436   -5115.3381   -4996.5616   -5115.3381            0    6366.6146    19.716546     19.72811    20.449853     7954.383    6164.6065     6650.338    6284.8993    -33.55673   -111.33591     169.4908   -4257.9928 
39769000    61.571194    -5111.279   -4992.5338    -5111.279            0    6708.9609    19.778167    19.783774    20.300676    7943.3862    6637.5678    6063.2001    7426.1148   -270.42192     584.1743   -323.55397   -4215.3266 
39770000    64.049112   -5113.9485   -4990.4244   -5113.9485            0    6587.8617    19.595284    19.788501    20.443355    7927.1417    7462.1162    6167.4333    6134.0357    210.78536    769.64074    600.22941   -4228.8068 
39771000    61.162438   -5114.3614   -4996.4045   -5114.3614            0    6877.3767    19.814624    19.673153    20.361939    7937.4121    7057.5483    7170.4231    6404.1587    322.04783    368.99386    -12.95568   -4200.2862 
39772000    64.027381   -5115.0352    -4991.553   -5115.0352            0    6253.9679    19.824489    19.712583    20.382817    7965.4392    5660.5534    7337.6089    5763.7414   -503.86955   -801.07851    536.04203   -4265.0436 
39773000    62.764706   -5114.6556   -4993.6086   -5114.6556            0    7586.9712    19.605853    19.748654    20.408289    7901.8693    7328.4828    7826.0861    7606.3448   -164.09937    162.45046    360.98553    -4119.281 
39774000    64.981992   -5103.3905   -4978.0673   -5103.3905            0    6647.6985    19.849716    19.705054    20.332144    7952.7095    5975.8244    6567.2929    7399.9781     100.8539    655.71447   -368.07546   -4207.0532 
39775000    67.555139   -5111.8881   -4981.6024   -5111.8881            0    6782.6235    19.747469     19.70072    20.351475    7917.5248     6307.914    7177.9982    6861.9583  -0.18673143     572.3439   -560.74959   -4198.4198 
39776000    65.595653    -5113.193   -4986.6863    -5113.193            0    6102.0749    19.736382    19.773209    20.422013     7969.723    5751.8217    6878.0746    5676.3284    305.01984    454.86644    -172.0548   -4277.4407 
39777000    65.103301   -5107.7807   -4982.2235   -5107.7807            0    7117.9935    19.617659    19.833858    20.440145    7953.1351    8091.6476    6662.8568    6599.4761   -509.46076    650.31583    433.89485   -4156.6194 
39778000    62.761721   -5116.7519   -4995.7107   -5116.7519            0    6579.5815    19.665548    19.812934    20.452376    7968.9043    7457.5012    6301.8892     5979.354   -172.22596   -752.24907   -823.22967   -4231.0429 
39779000    64.290843   -5111.1832   -4987.1929   -5111.1832            0    7173.7037    19.637893    19.787539    20.417519    7933.9534    7816.0634    6355.8754    7349.1724    359.96705     1057.418   -330.81405   -4157.1339 
39780000    65.347781   -5110.8228   -4984.7941   -5110.8228            0    7184.0464    19.710521    19.845443    20.274962    7930.8356    6643.2715     6996.502    7912.3657   -353.45672     640.8256   -432.33522   -4153.8651 
39781000    67.526253   -5112.3484   -4982.1183   -5112.3484            0    7041.7342    19.641692    19.760754     20.47138    7945.6518    7050.5251    7370.7903    6703.8872   -161.99559    22.785975   -60.446524   -4166.1279 
39782000    65.439928   -5113.8275   -4987.6211   -5113.8275            0    5879.5014    19.715979    19.784453    20.406616    7960.0062    5916.4048    6131.7507    5590.3487   -194.81075   -109.54145    854.66579   -4305.0785 
39783000    64.145605   -5107.4458   -4983.7356   -5107.4458            0    7580.2683    19.583569    19.701079    20.473889    7899.1836    7679.0564    8003.0344    7058.7141   -79.806957   -525.01252   -454.23775   -4110.4773 
39784000    63.157743   -5114.9217   -4993.1167   -5114.9217            0    6819.6525    19.617195    19.872192     20.31996    7921.4656    6599.0398    6999.7815    6860.1363    -309.4045    544.35868    766.55239   -4205.2665 
39785000    61.062429   -5114.6983   -4996.9343   -5114.6983            0    8306.7121    19.700406    19.691862    20.348637    7894.0027    8740.9413    8263.4233    7915.7718     207.9541    248.52481    -78.84373   -4040.6163 
39786000    61.767545    -5115.897   -4996.7731    -5115.897            0    6149.1794    19.701346    19.702914    20.468429    7945.3105    6484.1388    5466.0845    6497.3148   -223.39482    675.73571    257.33862   -4284.2418 
39787000    63.377924   -5110.3746    -4988.145   -5110.3746            0    6482.6067     19.67613    19.791015    20.347203    7923.4165    6078.6785    7083.4434    6285.6983   -568.06769    368.68543   -162.61647    -4239.048 
39788000    63.363681   -5101.2959   -4979.0937   -5101.2959            0    8383.9179    19.781857    19.745452    20.186376    7884.8332    7416.9377    8580.5788    9154.2372    98.948047    88.473113     496.1752   -4015.0085 
39789000    62.501052   -5119.0812   -4998.5426   -5119.0812            0    6622.5767    19.779128    19.704708    20.434108    7964.0287    7196.9682    6193.3863    6477.3756    56.744997   -476.82114    547.29004    -4229.349 
39790000     63.73079   -5113.3244   -4990.4142   -5113.3244            0    6928.6018    19.714083    19.684367    20.452362    7936.7284    7308.4668    7344.2807    6133.0579    -171.1543    132.28307   -99.524243   -4188.4352 
39791000    65.392035   -5115.1222   -4989.0081   -5115.1222            0    6360.1716    19.616846    19.804868    20.453501    7946.3701    6470.7091    6050.9355    6558.8702  -0.47654143    -284.9747   -289.57493     -4251.93 
39792000    64.075792   -5114.7941   -4991.2186   -5114.7941            0    6470.4373    19.646195    19.758729    20.435336    7932.6669    6541.4769    6418.8437    6450.9914    71.996948    705.25623   -598.79824   -4242.6549 
39793000    63.812633   -5107.6493   -4984.5813   -5107.6493            0    6882.8179    19.798588    19.712648    20.330812    7934.7621     7216.917    6507.2005    6924.3361   -217.07166   -8.9673283   -79.819567   -4188.0991 
39794000     62.30567   -5121.7037    -5001.542   -5121.7037            0    6403.5464    19.785468    19.738371    20.429432    7978.3659    5691.2131    7032.5348    6486.8913   -39.994276   -49.169225     225.3118   -4256.4491 
39795000    61.590086   -5120.1534   -5001.3717   -5120.1534            0     6369.226    19.714884    19.766001    20.421664    7958.0042      6952.06    6446.1847    5709.4335   -116.42666    -49.10078    308.81845   -4262.1636 
39796000    63.180291   -5114.9824   -4993.1339   -5114.9824            0    7720.0582    19.609511    19.752683    20.479168    7932.4107    8469.1244    7699.0543    6991.9958    69.045043   -102.41475   -647.84615   -4100.0307 
39797000    65.873407   -5124.4255   -4997.3831   -5124.4255            0    6543.7144    19.830051    19.779782     20.34112    7978.4808    6968.7496    5781.5891    6880.8045   -67.796238    931.55073   -567.97358   -4235.9698 
39798000    58.383652   -5117.0559   -5004.4581   -5117.0559            0    6367.4539    19.805752    19.792951    20.397097     7995.953    6458.7564    5738.7414     6904.864    20.629823    759.84492    71.705076   -4261.9317 
39799000    64.103829   -5110.9849   -4987.3553   -5110.9849            0    6659.8992    19.757325     19.74479    20.328395    7930.1929    6422.1853    6794.1025    6763.4099    132.07993    -96.34679    4.6138372   -4217.1131 
39800000    59.684278   -5111.9131   -4996.8069   -5111.9131            0    6578.7911    19.761811    19.736576    20.357508    7940.0486    6246.8286    6594.6281    6894.9167   -728.16178   -154.13126   -292.50874   -4234.9996 
39801000    69.159232   -5110.0174    -4976.638   -5110.0174            0    6893.4134    19.728286    19.796796    20.400215    7967.4436    6979.0968    6560.4852    7140.6583   -548.41622    253.97533      529.724   -4175.6441 
39802000    60.824524   -5110.8381   -4993.5329   -5110.8381            0    7668.3428    19.688357    19.704363    20.423783    7923.3359    7253.2876    8100.4209    7651.3199   -561.57106       430.21    584.82543   -4107.4273 
39803000    62.378583   -5118.8952   -4998.5928   -5118.8952            0     6838.756    19.762838    19.773948    20.334557     7946.528    5866.7559    7405.6658    7243.8464   -299.97555    129.79456    241.92394    -4206.036 
39804000    66.351645   -5111.2643   -4983.2996   -5111.2643            0    7401.3857    19.739704    19.851834    20.265375    7941.3788    6667.6964    7717.1013    7819.3594   -249.71275   -92.620263   -407.96197   -4126.0943 
39805000    64.148085   -5109.5026   -4985.7876   -5109.5026            0    7304.5316    19.660029     19.70207     20.42489    7911.4436    7989.5993    7109.0167    6814.9789    -26.89179    84.898876    319.19964   -4142.9886 
39806000    64.497559   -5103.9353   -4979.5463   -5103.9353            0    7303.5677    19.694917    19.787653    20.366879    7937.3029     8090.696    6591.2134    7228.7938   -71.488917   -632.44554    555.71481   -4134.1042 
39807000    60.099827   -5114.3363   -4998.4287   -5114.3363            0    6399.1372    19.739055    19.779012    20.375948    7955.1571    6893.0441     5689.265    6615.1026   -196.94404    438.42278    -534.5931   -4256.0148 
39808000    65.985262    -5121.267   -4994.0089    -5121.267            0    7145.6133    19.848845    19.717748    20.309175    7948.4936    7438.1439    6996.3073    7002.3886    -254.3558   -772.93158    -128.6848   -4165.6849 
39809000    60.846028   -5109.7149   -4992.3682   -5109.7149            0     7013.694    19.719939    19.771409    20.366763    7940.8173    7447.5045    6667.0603    6926.5173   -224.41556    343.87814   -51.010663   -4180.1216 
39810000    65.228244   -5116.0246   -4990.2264   -5116.0246            0    6040.3775    19.611859    19.768825    20.469203    7935.9799     6558.966    6014.0892    5548.0773   -3.4191555   -77.368096    229.21194   -4291.1244 
39811000    62.225563   -5107.4237   -4987.4164   -5107.4237            0     7154.614    19.750567    19.835965    20.251242    7933.8607    5959.2935    7644.6865    7859.8619   -4.1592452    808.48926   -128.58749    -4159.576 
39812000     63.53893   -5103.1116   -4980.5714   -5103.1116            0    6930.1238    19.792468    19.730794    20.358093    7950.2651    7231.8362    6553.7707    7004.7644    50.366786   -228.56546   -575.32435   -4177.0481 
39813000    67.035908   -5111.0018   -4981.7174   -5111.0018            0    7704.4726    19.709517    19.720857    20.331708    7902.7026    6156.5715    8725.0286    8231.8177   -100.45197    189.75899    244.05103   -4093.7553 
39814000    64.469012   -5114.1581   -4989.8242   -5114.1581            0    6156.5663    19.744007    19.732352    20.326927    7919.2832    5521.8245    6606.8786    6340.9957   -234.07287    319.20832   -460.36412   -4278.7739 
39815000    64.399855   -5112.5077   -4988.3072   -5112.5077            0    7754.0918    19.639285    19.730007    20.382241    7897.7762    7624.9246      8274.27    7363.0807   -381.04802    194.89991   -911.27915   -4095.1834 
39816000    65.836593   -5110.7136   -4983.7422   -5110.7136            0    6021.9107      19.7882    19.824423    20.338418    7978.5511     5548.432    6037.2854    6480.0146   -157.26603     318.5568    620.37296   -4283.0388 
39817000    63.114011   -5114.2701   -4992.5495   -5114.2701            0    7354.9897     19.67934    19.763671    20.363658    7920.1599    8024.0566    6558.9203    7481.9923    143.72735   -190.61623    588.64458   -4142.9937 
39818000     61.65766   -5106.7587   -4987.8467   -5106.7587            0    7277.9324    19.637509    19.760035    20.375458    7906.4493     6818.864    7518.8336    7496.0995   -511.68623     218.7081    219.38845   -4148.6469 
39819000    61.493632   -5118.7155   -5000.1198   -5118.7155            0    6300.4805    19.704623    19.630955    20.564065    7954.6035    6097.5577    7154.7844    5649.0995   -98.320734   -36.117941    567.74073   -4269.2028 
39820000    64.000724   -5111.9081   -4988.4773   -5111.9081            0    6772.7015    19.665578     19.88497     20.29855    7937.7363    7312.8506    6351.5824    6653.6716   -741.28392   -202.79077    58.072017    -4204.444 
39821000    64.830762   -5112.2977   -4987.2662   -5112.2977            0     7148.596    19.702626      19.7658    20.384777    7938.6104    6577.9671    7751.6566    7116.1643    145.29075    337.43076   -497.08318   -4159.6268 
39822000    69.275085   -5106.8591   -4973.2563   -5106.8591            0      7031.37    19.603313    19.711422    20.521522    7929.7041    8121.6095    6889.4365    6083.0641   -141.81049     677.7258   -150.30345   -4160.1022 
39823000    61.459044   -5118.0045   -4999.4756   -5118.0045            0    6226.6109    19.702825     19.77765    20.351297    7930.4032     5622.719    6321.5493    6735.5643    212.43195    142.99158    878.26953   -4279.3257 
39824000    62.457334   -5116.6366   -4996.1823   -5116.6366            0     6542.478    19.771931    19.719212    20.401611    7954.3209    6621.5481    6581.9891    6423.8969    31.810826    390.60274   -91.879068   -4237.2182 
39825000    64.885422   -5118.1152   -4992.9782   -5118.1152            0    6431.4813     19.71464    19.793041    20.321488    7929.7022    6484.1076    5975.6288    6834.7075   -385.80314    846.77203    194.19245   -4249.1994 
39826000     64.98038   -5114.5459   -4989.2258   -5114.5459            0    6946.3556    19.665702    19.685876     20.48929    7932.1536    6686.8908    7294.6533    6857.5226    221.76473    -301.7718   -106.42857   -4185.6552 
39827000    61.932981   -5122.3383   -5002.8953   -5122.3383            0    6602.5283    19.824611    19.710389    20.374305    7961.2757    5810.0477    7389.8743    6607.6631   -103.53418     745.1677    174.82752   -4236.2953 
39828000    66.721503   -5113.1602   -4984.4821   -5113.1602            0    6057.1087    19.768762    19.709109    20.458316    7971.0648    5702.2625    6408.4542    6060.6093     152.7453    86.592974    281.00998   -4280.3444 
39829000    63.061229    -5115.515   -4993.8961    -5115.515            0    7386.4075    19.726486    19.836617    20.297894    7942.7031    6758.7729    7846.8769    7553.5725   -234.82108    151.19873    823.25005   -4138.2829 
39830000    63.674344   -5109.9744   -4987.1731   -5109.9744            0    6129.6758    19.656917    19.743547     20.53091    7967.9905    6396.4714    5941.8724    6050.6835    -462.0327   -220.18505    315.97304   -4274.8743 
39831000    64.966993   -5115.0483    -4989.754   -5115.0483            0    6130.4446    19.771135    19.763315    20.381941    7964.1043     5874.455    6380.7244    6136.1544   -357.95259     306.2056   -537.85324   -4277.7133 
39832000    61.762607   -5112.3259   -4993.2115   -5112.3259            0    7135.3369    19.702766    19.774819    20.302512    7910.2373    6510.0483    6912.9995    7982.9627    -74.97039    450.49103   -1227.7053   -4170.0598 
39833000    67.030216    -5116.232   -4986.9586    -5116.232            0    6643.2377    19.784803    19.724322    20.331377    7934.1538    6150.5269    6448.3428    7330.8433   -337.29145    3.6007293    1180.0704   -4218.2596 
39834000    66.744947   -5107.7939   -4979.0706   -5107.7939            0    7228.3779    19.713068    19.680022    20.435105    7927.8728    7157.5029    7874.3188     6653.312   -192.29309    278.16873    728.28578   -4143.3263 
39835000    60.736766   -5111.2285   -4994.0925   -5111.2285            0    7033.7885    19.758984    19.780971    20.279407    7926.2446    6453.2776    7453.2289    7194.8591   -119.25344    42.438765    824.56935   -4181.0137 
39836000    64.146417   -5115.6623   -4991.9506   -5115.6623            0    6870.0302    19.821821    19.655053    20.357213    7931.1486    7003.5844    6656.3452    6950.1611    -69.82231   -303.81601    222.21379   -4197.3102 
39837000    62.569932   -5115.6357   -4994.9644   -5115.6357            0    6524.6902    19.837134    19.701931    20.360725    7957.5793    5564.4034    7124.8822    6884.7849    105.87482    486.98591   -71.442565   -4237.7536 
39838000    62.965943   -5112.0897   -4990.6546   -5112.0897            0    6836.6689    19.678538    19.763138    20.442201    7950.1691    7995.2399    6485.5416    6029.2252     290.6519   -1052.2039    166.19835   -4197.9766 
39839000    61.409223   -5118.4236   -4999.9907   -5118.4236            0    7863.5097    19.622161    19.671286    20.480605    7905.3729     7834.636    8281.7873    7474.1057   -392.82537   -4.7881752   -35.763541   -4093.3929 
39840000    63.631227    -5116.533   -4993.8148    -5116.533            0    6407.6233    19.736381    19.787252    20.408178    7969.9801    7086.7877     6424.734    5711.3483    -246.9645   -252.11279     218.6428   -4249.0312 
39841000    62.999326   -5113.8609   -4992.3614   -5113.8609            0    7218.3861    19.680238     19.81988    20.324931    7927.9418    7285.9038    6468.6748    7900.5798    67.345586    459.58544    532.25021   -4157.7651 
39842000    61.559261   -5115.5863   -4996.8641   -5115.5863            0    6394.8978    19.767193    19.736424    20.396874    7957.5081    6478.7192    6485.3724    6220.6018    45.909182    767.52716    822.71682   -4254.7228 
39843000     64.69455   -5113.9886   -4989.2197   -5113.9886            0    5360.5911    19.724267    19.813882    20.440332    7988.3742    4807.1889    5988.9469    5285.6376    -325.2838    641.44064   -134.66928   -4364.6988 
39844000    63.640058   -5108.3781   -4985.6429   -5108.3781            0     8066.323    19.716107    19.818257    20.213012    7898.0094    7800.1809    8213.9858    8184.8024    170.56704    167.20904    380.00363   -4056.5286 
39845000    62.864069   -5122.5293   -5001.2906   -5122.5293            0    6642.8242    19.729542    19.790828    20.384989     7959.604    6269.2275    6895.1077    6764.1375   -323.51956   -140.60852   -409.24143   -4230.1739 
39846000    64.229463   -5110.3162   -4986.4443   -5110.3162            0    7163.0619    19.704236    19.758267    20.372277    7931.3662    7402.5322    7029.0052    7057.6484     56.82653   -169.16845    118.51857   -4157.8869 
39847000    64.073466   -5116.9143   -4993.3432   -5116.9143            0    6450.2182    19.733939    19.762519    20.448085    7974.5964    6649.2364    6554.1736    6147.2446   -303.73464    574.39711   -659.82519   -4243.1744 
39848000    64.816382   -5116.2903   -4991.2865   -5116.2903            0    6646.1391    19.641237    19.731829    20.511913    7949.5459    6079.9569    7507.1972    6351.2631    254.19231    178.61803   -109.22135   -4220.7599 
39849000    63.706537   -5117.5158   -4994.6524   -5117.5158            0    6327.4605    19.768548    19.822741    20.335177     7968.681    6549.3019    5356.9449    7076.1347   -147.71525    296.07744    778.61795   -4259.3063 
39850000    61.516401   -5108.9673   -4990.3277   -5108.9673            0    6643.8322    19.745273    19.767379    20.317127    7930.0241    6151.9306    6708.6564    7070.9096   -406.75066    1505.6146    -178.4911   -4221.9601 
39851000    60.855577   -5113.3327   -4995.9676   -5113.3327            0    8079.2647    19.642476    19.730556    20.362659    7891.6904    7888.6071    8259.0627    8090.1243   -64.490323    561.82098     517.5273   -4066.1072 
39852000    61.488404   -5107.4538   -4988.8683   -5107.4538            0    6971.2708    19.652003    19.723437     20.48357    7939.5349    7288.1562    6711.1521    6914.5042   -443.74012   -1.0303082   -420.37869    -4181.665 
39853000    64.586633    -5110.402   -4985.8413    -5110.402            0    6488.4415    19.797612    19.747697    20.350081    7956.0115    5655.0401    7277.0171    6533.2672   -107.88649   -93.083019   -155.00571   -4232.9857 
39854000     64.44368   -5111.9244   -4987.6393   -5111.9244            0     7100.966    19.729607    19.795186    20.344134    7945.4271    8448.1895    6176.6503    6678.0581   -250.83979   -120.90249   -503.56061   -4164.8085 
39855000    68.782359   -5115.9315   -4983.2789   -5115.9315            0    6147.1823    19.694979    19.876446    20.388709    7981.4902    6606.9434    5185.9001    6648.7035   -195.12852    75.580359    318.00905   -4267.7356 
39856000    62.877601   -5117.9892   -4996.7244   -5117.9892            0    7096.2194    19.636201    19.687274    20.503509    7926.3136    7997.7731    7129.1664    6161.7188    -98.52178    50.796802    59.959967   -4176.4217 
39857000    65.552087   -5114.9233   -4988.5006   -5114.9233            0    7222.0542    19.770685     19.67867    20.396531    7935.4901    7103.0758    7971.8193    6591.2674    145.24445    17.971393     296.9671   -4152.6852 
39858000    65.084272   -5113.3812   -4987.8607   -5113.3812            0    5888.7664    19.797304    19.750231    20.389538    7972.3366    5900.5045      5872.66    5893.1347    -53.15594    884.46004    80.082253   -4303.1835 
39859000    64.024424   -5110.9638   -4987.4873   -5110.9638            0    7443.8299    19.529767    19.872379    20.420531    7925.2682    7740.7756    7408.7322    7181.9819   -197.54812    648.16565   -307.06348   -4127.1152 
39860000    65.449727    -5111.424   -4985.1987    -5111.424            0    6969.5697    19.621158    19.791348    20.453248    7942.5925    7482.7016    6851.8482    6574.1593   -182.91336    387.22008    -241.8053   -4177.8816 
39861000     66.79236   -5114.8468   -4986.0321   -5114.8468            0    6526.7494     19.78228    19.749125    20.406478    7972.4582     7133.531    5687.6461     6759.071   -86.021344   -174.25718    141.92339   -4227.1662 
39862000    63.816744   -5108.1618   -4985.0859   -5108.1618            0    7200.6811    19.793542    19.705368    20.329875    7929.4445    7694.4635    6283.1067    7624.4731    -57.59326    364.54581    883.39082   -4152.3789 
39863000    63.759496   -5121.2314   -4998.2659   -5121.2314            0    6945.4437    19.774066    19.733558    20.367601    7947.6963     7036.945     7122.421    6676.9652   -123.30143    1538.2951   -360.20513   -4193.2265 
39864000    62.225891   -5109.8523   -4989.8444   -5109.8523            0    6262.5613    19.778997    19.775292    20.367586    7966.4847    5363.1614    6784.7091    6639.8134    119.24337    49.998847    555.73661   -4262.2412 
39865000    63.375066   -5114.2451    -4992.021   -5114.2451            0    5907.3988    19.770399    19.782591    20.415633    7984.7525     6225.481    5854.5155    5642.1999    238.60679    126.71809   -118.27951   -4304.1078 
39866000    61.855093   -5111.7341   -4992.4414   -5111.7341            0    7340.8183    19.562049    19.830622    20.341956     7891.206    7198.4911    7350.1369    7473.8268    237.05564    226.62278    795.92768   -4147.6222 
39867000    59.311551   -5112.3836   -4997.9963   -5112.3836            0    6909.4774    19.653593    19.765238    20.430105    7936.2368    7516.9904    6395.7532    6815.6888    148.15305    384.40798     455.9338   -4198.2804 
39868000       63.163   -5120.8737   -4999.0585   -5120.8737            0    6143.3715    19.812296    19.721942    20.408898    7974.5108    5443.7327    7120.5151    5865.8666    127.90279    658.89239   -142.96861   -4284.5841 
39869000     61.56771   -5115.2257   -4996.4872   -5115.2257            0    6932.6337    19.644112    19.832394    20.374497    7937.6958    6963.9689    6708.5515    7125.3806    41.277432   -501.03608   -123.23806   -4193.9437 
39870000     62.78799   -5110.5106   -4989.4187   -5110.5106            0    6579.8567    19.784779    19.808976    20.275917    7946.4604    5451.4231    7341.6797    6946.4673    451.00765   -1024.0403    226.36976   -4226.8727 
39871000    62.585326   -5118.7861    -4998.085   -5118.7861            0    7041.7096    19.684687    19.759987    20.373564    7924.6877    7962.0305    5835.1563     7327.942   -283.01619    781.12768    320.76556   -4184.2504 
39872000     66.48232   -5115.4461   -4987.2294   -5115.4461            0    6740.3523    19.739981     19.85107    20.322947    7963.7451    6812.1612    6623.4686    6785.4273   -112.33192    38.515528   -376.89875   -4204.3843 
39873000    62.954191   -5114.3923   -4992.9799   -5114.3923            0    6812.0197    19.792646    19.743629    20.378606    7963.5243    6807.1038    7139.9624    6488.9929   -411.46505   -40.649198   -268.43615    -4201.833 
39874000    64.951517   -5111.8172   -4986.5527   -5111.8172            0    6970.3716    19.768688    19.729519    20.318074    7924.5913     6618.106    7276.6884    7016.3205   -106.18843    489.33525    554.84478   -4180.9727 
39875000    61.691213     -5101.99   -4983.0133     -5101.99            0    7498.8427    19.707116    19.733049    20.362883    7918.7481    7215.4723    7835.7057      7445.35    439.38924    142.73802    1056.5257   -4116.9959 
39876000    61.278129   -5115.2271   -4997.0471   -5115.2271            0    7402.6174    19.839118    19.721774    20.258744    7926.4888    5942.9586    8778.6378    7486.2559   -101.39241   -133.21902 -0.098656708   -4141.3067 
39877000    64.826049   -5116.3932   -4991.3707   -5116.3932            0    7054.2556    19.668728    19.729616    20.391804    7913.1709    7525.7864    6276.7277    7360.2527   -374.83804    89.662459   -111.36454   -4177.2709 
39878000    63.416201   -5119.5873   -4997.2838   -5119.5873            0    5856.5583     19.64307    19.804241    20.475504    7965.3005    5928.7789    5803.1041     5837.792    -323.6666    213.21698    577.30861   -4316.9524 
39879000    65.941984    -5106.892   -4979.7174    -5106.892            0    7239.2253    19.712412    19.774749    20.380173    7944.3549    7706.9591    6595.7807    7414.9362   -83.525565    -758.0124   -127.84371   -4140.9788 
39880000    62.431745   -5117.6228   -4997.2179   -5117.6228            0    6882.8609    19.760431    19.672719    20.377124    7921.4318    6463.7938    7662.7465    6522.0424    82.044617   -298.35315    122.75205   -4202.0688 
39881000    61.849334   -5119.7937   -5000.5121   -5119.7937            0    6363.7657    19.659179    19.847756     20.35806    7943.5237    7172.0213    5371.3437    6547.9322    215.32337   -589.29694    807.43195   -4263.2816 
39882000    66.508932   -5110.4253   -4982.1572   -5110.4253            0    6772.3963    19.651813    19.729851    20.509941     7952.265    6990.6611    6169.8643    7156.6634   -105.99355    1392.9538    1129.0147   -4196.7243 
39883000    65.495525   -5109.0136      -4982.7   -5109.0136            0    7392.3923    19.732217    19.702482    20.382666    7924.2436    7036.4225    7564.7427    7576.0116   -309.80083    1017.9613    478.21246   -4128.3836 
39884000    61.993446   -5111.2537   -4991.6941   -5111.2537            0    6309.0489    19.599899    19.734042    20.454309    7911.4248    7370.0726    6037.0253    5520.0488   -349.03251   -615.74455    -389.2885   -4263.7559 
39885000    62.917113   -5114.1949    -4992.854   -5114.1949            0    7281.0012    19.807673    19.759171    20.277547    7936.2913    6264.1606    7683.6399    7895.2032   -173.40105   -287.61093    289.44795   -4150.1314 
39886000    64.434739    -5109.934   -4985.6662    -5109.934            0    7421.5185    19.633143    19.671265    20.486231    7911.9619    7854.0689    7427.0903    6983.3962   -552.10705   -285.28445   -373.82244   -4129.3131 
39887000    63.705078   -5120.2359   -4997.3753   -5120.2359            0     6635.315    19.752003    19.760886    20.397195    7961.3736    5353.7595    7666.8954      6885.29   -129.75348    1152.6487    187.01112   -4226.9591 
39888000    63.294166    -5113.884   -4991.8158    -5113.884            0    7266.6099    19.695742    19.791263     20.30031    7913.1342    7664.8151    6552.0892    7582.9253   -537.09473     435.9859    237.81173   -4153.2131 
39889000    60.708303   -5120.2222   -5003.1411   -5120.2222            0    6963.0311    19.716858    19.771304    20.381378    7945.2315    6712.5322    7299.4573    6877.1039   -69.493511    378.93364    203.34219   -4196.3135 
39890000    65.172066    -5114.697   -4989.0072    -5114.697            0    6796.2729    19.853598    19.727479    20.321593    7959.1841    6200.2656    6587.0357    7601.5173   -215.49326    157.79887    124.10351   -4200.1194 
39891000    61.435019   -5113.8614   -4995.3788   -5113.8614            0    6559.1673    19.800245    19.632364    20.490551    7965.2021    5237.0071    8035.2185    6405.2765   -46.214277    413.15754   -872.10299   -4233.4377 
39892000    63.887435   -5117.3986   -4994.1863   -5117.3986            0    6336.2053    19.767852    19.784685    20.362367    7963.7362    5338.0044    6713.1468    6957.4645    97.755142    335.25855   -71.184033   -4258.2809 
39893000     62.98811   -5113.7959    -4992.318   -5113.7959            0    7089.0456    19.692851     19.71006    20.386184    7912.8421    6157.1777    8093.3063    7016.6528    46.726393    1174.1925   -150.38343   -4174.2373 
39894000    65.985755    -5118.829   -4991.5699    -5118.829            0    6323.4066    19.786422    19.693073    20.412903    7953.9992    6354.4357    6995.2984    5620.4858   -84.953693    412.57384    312.64734   -4258.0489 
39895000    64.008121   -5117.0649   -4993.6198   -5117.0649            0    6972.9906    19.731303    19.765881     20.41207    7960.8417    7406.7306    6074.2893     7437.952   -159.62557   -162.64603   -993.91967   -4184.0507 
39896000    60.816665   -5111.2331   -4993.9431   -5111.2331            0    7357.3375    19.680891    19.736281    20.416736     7930.424    7719.4598    7265.0753    7087.4775   -132.98748    474.10562    494.69235   -4143.0147 
39897000    62.827736   -5118.6421   -4997.4736   -5118.6421            0    7004.2177    19.672381    19.783664    20.356423    7922.5525    7041.8292    6626.7864    7344.0376    75.467635    229.13975   -358.45467   -4188.1901 
39898000    65.142238   -5117.5415   -4991.9092   -5117.5415            0    7388.3479    19.632928    19.794518    20.342733    7905.6811     7820.663    6088.1797     8256.201   -212.21732    409.10518    374.24635   -4140.0604 
39899000    66.914081   -5116.4362   -4987.3868   -5116.4362            0    7221.2893    19.694995    19.811715    20.384924    7954.0264    6191.8452    8047.7902    7424.2326   -39.090084    804.85865   -63.130175   -4149.7077 
39900000     62.92666    -5115.466   -4994.1067    -5115.466            0    6246.4347    19.666344    19.746544    20.488819    7956.6756    6525.9802    6331.4475    5881.8763    -112.3759    961.11614    -166.5473   -4269.2707 
39901000    66.974476   -5108.0939    -4978.928   -5108.0939            0    7221.4501    19.594773    19.771014     20.43477     7916.604    7228.4004    7454.1349    6981.8151    62.782441    267.20963    69.481843   -4145.1715 
39902000    65.980512   -5113.7854   -4986.5364   -5113.7854            0    6907.0998    19.848271    19.703569    20.301164    7939.4155    5855.2465    7918.7016    6947.3514   -54.228679    144.57109    117.87858   -4186.7756 
39903000    62.545263   -5115.5087   -4994.8849   -5115.5087            0    5950.5213    19.784171    19.759834    20.375274    7965.3453    5280.8946     6451.226    6119.4434    116.28781    539.22074   -312.41944   -4303.6343 
39904000    63.791821   -5108.9395   -4985.9116   -5108.9395            0    6712.6024     19.64112    19.791624      20.3058    7893.4668    6791.0715    6358.4625    6988.2731    122.34772    558.90053    782.70949   -4213.1694 
39905000     65.01124   -5116.6255   -4991.2459   -5116.6255            0    6864.8075    19.631195    19.752513    20.453675    7931.2277    7103.1517     7355.012    6136.2588   -423.75535   -692.92015   -608.16258   -4197.2017 
39906000    61.988697   -5112.8277   -4993.2773   -5112.8277            0    7377.1048    19.758306    19.607379    20.438338    7917.9879    7479.3767    7996.8644    6655.0734    13.330252   -192.91442   -244.33972   -4141.4007 
39907000    67.489801   -5121.7327   -4991.5729   -5121.7327            0    6055.1182    19.690811    19.795043    20.423559    7960.7042     6374.599    5986.8019    5803.9538   -354.82013    19.076413    177.95008   -4288.5815 
39908000    63.462054   -5123.4218   -5001.0298   -5123.4218            0    6482.1208     19.60979    19.829995    20.469258    7959.7175    7027.4676    6775.4333    5643.4614   -112.86928     717.8304   -564.43742   -4248.5573 
39909000    63.756431   -5119.0788   -4996.1191   -5119.0788            0    7211.6246    19.685124    19.780069    20.398646    7942.6838    7336.2493     7182.786    7115.8386   -70.305091    197.82708   -736.26627   -4160.7541 
39910000    65.413558   -5114.9412   -4988.7857   -5114.9412            0     6858.995    19.716703    19.695062    20.380054    7914.0169     5305.982    8235.1436    7035.8593   -134.03156    120.22178     116.5537   -4197.1355 
39911000    60.390914   -5110.7518   -4994.2829   -5110.7518            0    8107.9257    19.691966    19.649665     20.47626    7923.0953    7851.8657    8919.5435    7552.3678   -230.36424    195.23019    432.30519   -4057.4103 
39912000    63.032628    -5111.328   -4989.7643    -5111.328            0    6387.2353    19.621304    19.907065    20.334226    7942.6009    7505.1336     4869.651    6786.9213    50.081145    524.04183   -37.669375   -4249.9009 
39913000    65.010698   -5118.1514   -4992.7728   -5118.1514            0    6846.9862    19.750681    19.787402    20.366085    7959.3649    6436.9004    7268.4886    6835.5695    337.17253   -1049.8782   -53.823015   -4197.9803 
39914000    62.616365   -5119.5523   -4998.7914   -5119.5523            0    6105.8957    19.844128    19.760913    20.298127    7959.6687    6028.1884     5888.387    6401.1116    313.26858   -147.66888    34.018546    -4289.997 
39915000    62.990427   -5116.4737   -4994.9913   -5116.4737            0    6233.3669    19.698623    19.761956    20.448895    7960.4141    6033.3224     6105.856    6560.9224   -136.31473   -737.36246    730.56042   -4271.3319 
39916000    65.939742    -5115.848   -4988.6777    -5115.848            0     6825.993    19.843049    19.814968     20.23926     7957.862     5742.503    6621.1049     8114.371   -368.36319    -679.7157    276.80792   -4196.4717 
39917000    65.681407    -5119.472   -4992.7999    -5119.472            0    6560.2381    19.700262    19.840942    20.366747    7960.7865    6712.8684    5746.6609    7221.1851    -499.5799    167.10858   -280.00331   -4231.1569 
39918000    64.767545   -5107.2506    -4982.341   -5107.2506            0    6820.7705    19.722381    19.818107    20.337956    7949.2988    6573.9179    6458.7484    7429.6451    108.46438    1135.8498     700.2612   -4191.5929 
39919000     68.00839   -5113.0423   -4981.8824   -5113.0423            0     7218.821     19.73101    19.725767    20.371828    7928.9053    7125.0731    7267.0294    7264.3604    -19.56382    610.92428    164.91507   -4147.1344 
39920000    65.681145   -5116.0147   -4989.3431   -5116.0147            0    6459.3421    19.696732    19.650671    20.446827    7914.0263    5704.7353    6984.9092    6688.3819   -249.67168   -528.19088    838.45765   -4243.8191 
39921000    65.366832   -5111.7938   -4985.7284   -5111.7938            0    7093.2921    19.775132    19.825204    20.238435     7934.398    6223.1573    6895.3436    8161.3754   -245.77702   -1053.2245    452.94484   -4164.9277 
39922000    64.635539    -5121.949   -4997.2939    -5121.949            0    6637.6704    19.730274    19.745101    20.436623    7961.6229    6872.1537    6388.7079    6652.1497    20.110476    90.636995    540.27192   -4226.5801 
39923000    61.400986    -5118.159   -4999.7421    -5118.159            0    6594.4218    19.724308    19.757919    20.441572    7966.3114    6149.5548    7094.3858    6539.3249     106.2187    349.70147    20.531728    -4233.599 
39924000    66.680892   -5119.1021   -4990.5024   -5119.1021            0    7216.2829    19.633197    19.716738    20.487679    7930.8339    7849.9481    7507.7112    6291.1894   -54.540897    215.55117    224.44095   -4155.8449 
39925000    65.049118   -5117.6927     -4992.24   -5117.6927            0    6878.4745    19.634753    19.814719    20.396781    7935.5127    7434.5593    6495.5395    6705.3247   -249.37176   -447.89968   -277.44819   -4196.1851 
39926000    63.735946   -5120.8489   -4997.9288   -5120.8489            0    7033.6192    19.682293    19.820586    20.357463    7941.7433     8348.129    5913.5611    6839.1676   -85.578923   -346.23169    936.13197   -4183.2797 
39927000    64.290275    -5114.408   -4990.4188    -5114.408            0    5930.4974    19.710373    19.754379    20.425557    7953.0213    6523.9431    5457.1964    5810.3528   -410.14491    344.62035    111.17244   -4302.5602 
39928000       63.327   -5116.9081   -4994.7766   -5116.9081            0    5828.5165    19.695869    19.871708    20.387334    7979.4098    6414.6544    5037.5521     6033.343   -292.64677    738.15651   -169.57313   -4316.5034 
39929000    69.205207   -5117.0764   -4983.6083   -5117.0764            0     7303.862    19.590269    19.776055    20.505729    7944.2936    7130.3072    7880.9185    6900.3604    212.74557    144.07721    546.68907   -4137.3874 
39930000    64.181731   -5114.1517   -4990.3718   -5114.1517            0    6568.5785    19.771399    19.748586    20.398853    7964.8787    6170.2977    6422.2024    7113.2355    104.32581    919.01016    100.95012   -4227.3684 
39931000    63.958283    -5115.032   -4991.6831    -5115.032            0    7754.2879    19.842955    19.672177    20.306781    7926.8355    8118.9358    7616.8923    7527.0357    66.222216   -180.31432    430.23063   -4095.2505 
39932000    62.469981   -5109.7216   -4989.2429   -5109.7216            0    7243.9598    19.578253    19.815312    20.438706    7929.1796    7364.5107    7686.6917    6680.6772   -430.92325    478.17736   -401.71638    -4151.559 
39933000    63.763327   -5119.8853   -4996.9124   -5119.8853            0    7252.4483    19.627178    19.719386    20.454231    7916.5214     7966.927    7298.2393    6492.1786   -410.63571   -257.26999   -1143.6319   -4159.5857 
39934000    63.846573   -5118.9195    -4995.786   -5118.9195            0    7236.8436    19.843654    19.659026    20.310911    7923.4266    7035.9615    7128.5597    7546.0094   -307.25928    158.04288   -212.70702   -4159.5322 
39935000    67.328166   -5114.5369   -4984.6888   -5114.5369            0    6676.3733    19.731695    19.767671    20.343824    7935.1013    6263.1844    6227.8472    7538.0885   -261.93485    77.104361    383.40925   -4212.0635 
39936000     67.35314   -5113.7405   -4983.8443   -5113.7405            0    6375.8031    19.702792    19.846972    20.273455    7927.7477    6923.6425    5488.7849     6714.982    74.291054    260.15521    400.73125   -4246.6863 
39937000    60.952359   -5113.7984   -4996.2467   -5113.7984            0    7016.2101    19.746548    19.747276    20.393624    7952.3004    7223.9362    7254.2161    6570.4779    143.94269   -97.170871    291.55586   -4182.5337 
39938000    65.681828   -5119.0231   -4992.3502   -5119.0231            0    6338.7963     19.85245    19.722631    20.395203    7985.5897    5697.8681    6980.8173    6337.7034    154.91686   -248.55762   -580.32007   -4254.1236 
39939000    61.247125   -5118.0953   -4999.9751   -5118.0953            0    6697.2175     19.75088     19.83596    20.301263    7953.5816    6955.7358    6100.5477    7035.3689     220.9649   -591.06168    33.114473   -4223.1325 
39940000    66.824558   -5111.3067   -4982.4299   -5111.3067            0     6588.409    19.763197     19.78768    20.330065    7950.4341    5947.4036    6756.5406    7061.2827   -313.31397    972.36506    52.774336    -4218.511 
39941000    61.537168   -5105.4052   -4986.7256   -5105.4052            0    6848.4094    19.660016    19.737714    20.387593    7911.2787    6465.3309    7153.0889    6926.8084    296.85485   -234.52222    47.710433   -4196.5706 
39942000     62.84114   -5110.1246   -4988.9302   -5110.1246            0    7151.2729    19.690344    19.782279     20.37201    7935.3028    7426.0151    7138.0001    6889.8036    -48.38202    90.374378    -92.13956   -4161.3259 
39943000    64.498771   -5115.5786   -4991.1873   -5115.5786            0    6642.6617    19.721435    19.761893    20.421906    7959.0888     6266.569      6822.88     6838.536    -283.6748    475.18485   -314.92712   -4220.1393 
39944000    66.924346     -5109.88   -4980.8108     -5109.88            0    7344.2235    19.707199    19.764508    20.317176     7913.603    7131.0501     6980.569    7921.0514    25.894895    -164.0939   -14.797842   -4133.2009 
39945000    63.820755   -5111.6656   -4988.5819   -5111.6656            0    6973.0679    19.709708    19.757355    20.345816    7922.8989    6736.4351     7087.993    7094.7756    410.06795    1018.8699    39.263423   -4182.8624 
39946000    64.657259   -5117.8333   -4993.1363   -5117.8333            0    7375.6592    19.733208    19.711698    20.426274    7945.3105    7331.5626    7494.2343    7301.1806    136.46701   -41.405086   -503.30541   -4138.4877 
39947000    64.566043   -5113.0933   -4988.5722   -5113.0933            0     7561.651    19.740209    19.732358    20.339341    7922.5975    6877.5274    8552.4181    7255.0075   -278.11051    69.352601    78.529863   -4114.8767 
39948000    65.426784   -5114.2925   -4988.1115   -5114.2925            0    7534.9008    19.699159    19.700495    20.406319    7919.3493    6943.5201    8565.7881    7095.3941    63.963138   -728.53511   -368.89506   -4117.8637 
39949000    66.506919   -5116.0594   -4987.7952   -5116.0594            0    6400.5965    19.698635    19.741362     20.47335    7961.6329    7282.3335    6601.1939     5318.262    -26.35216    249.04097   -156.74914   -4244.6076 
39950000    62.205459   -5114.0678   -4994.0994   -5114.0678            0     7418.049    19.823024    19.752737    20.296195    7947.1572    6193.1835    8394.9913     7665.972   -297.00418    855.66333    793.88085   -4134.3391 
39951000    65.246055   -5118.2866   -4992.4541   -5118.2866            0    6695.9857    19.641748    19.810638    20.406368    7940.4352    6703.8076    6325.2841    7058.8654   -55.301062    939.70018    628.18298   -4217.0382 
39952000    63.469621    -5111.938   -4989.5315    -5111.938            0    7603.1645    19.685834    19.769737    20.361793    7924.4794    7860.8789    7205.4179    7743.1967   -158.32706    467.77915   -684.93529   -4110.8308 
39953000    62.766826   -5114.9564   -4993.9053   -5114.9564            0    7725.5673    19.658275    19.829413    20.290524    7909.4907    7617.7447    7036.8615    8522.0955   -58.979857   -711.47022    184.17848   -4102.7472 
39954000    64.210575   -5124.2135    -5000.378   -5124.2135            0    6112.2575    19.774936    19.780416    20.424226    7989.0682    5813.9541     6387.127    6135.6915    171.59878    923.23285    170.24817   -4288.2244 
39955000    60.117571   -5113.5959   -4997.6541   -5113.5959            0    7075.5866    19.721627    19.730397    20.343458    7915.9556    6740.6332    7166.6937    7319.4328   -38.413662    675.54213    459.78483   -4180.8053 
39956000    61.843856   -5113.4216   -4994.1505   -5113.4216            0    6910.5701    19.774022    19.608846    20.391543    7906.7343    5850.5191    8041.6303     6839.561   -96.771425    406.69105    250.50529   -4197.2815 
39957000    65.013411   -5117.1832   -4991.7993   -5117.1832            0    7083.8458     19.68869    19.767441    20.392399    7936.6201    6831.4079    7327.7723    7092.3571    62.444136     281.8509    407.25613   -4171.8622 
39958000    66.736378   -5116.3515   -4987.6448   -5116.3515            0    7469.0931    19.623085    19.803204    20.397841    7926.6001    7913.4838    7526.0854    6967.7101   -245.01985   -305.76721    474.16861   -4124.2077 
39959000    64.986125   -5117.2035   -4991.8723   -5117.2035            0    6459.2059     19.71007    19.757596    20.383864     7937.958     6333.963     6805.494    6238.1606    87.355863   -116.46146    -642.4173   -4244.1095 
39960000    65.478377   -5109.8422   -4983.5617   -5109.8422            0    7472.2395     19.75823    19.732705    20.382445    7946.7753    6210.0716    8305.1213    7901.5255   -89.978046   -374.39955    683.12221   -4117.5622 
39961000    63.497153   -5114.4281   -4991.9685   -5114.4281            0    6895.7941    19.770599    19.805664    20.334495    7962.3749    7111.6659    6560.1947    7015.5216   -12.183279    1059.1928   -399.74678   -4191.2077 
39962000    64.014564   -5114.4214    -4990.964   -5114.4214            0    6778.5055    19.630565    19.757051    20.457932     7934.447    6767.6309    7421.8956      6145.99   -12.410607    41.450191    1366.1837    -4206.584 
39963000    66.165829   -5112.7426   -4985.1362   -5112.7426            0    7012.3297    19.751591    19.760337      20.3308    7935.0729    6560.1212     7097.426    7379.4419    168.06839    348.60553     95.22858   -4173.6351 
39964000    63.288216   -5113.4111   -4991.3545   -5113.4111            0    7225.0923    19.705299     19.82232    20.363365     7954.027    7677.2161    6698.9486    7299.1121   -212.32598    363.14804    -399.5869   -4153.2342 
39965000    61.750378   -5117.2548    -4998.164   -5117.2548            0    7186.4522    19.654915    19.708915    20.419185     7909.924    7866.4751    6491.3415    7201.5401   -303.64341     544.6689   -819.88704   -4169.1483 
39966000    64.651241    -5117.443   -4992.7577    -5117.443            0    7457.6036    19.752771    19.762936    20.322801    7933.4678    7119.1189    7322.6518    7931.0399   -285.34249   -226.73624    41.155207   -4129.9018 
39967000    62.188013    -5120.982   -5001.0472    -5120.982            0    6448.4416    19.726792    19.834085    20.348331    7961.5464    7683.4362    5676.0782    5985.8104   -516.69362    317.18372   -162.84749   -4252.3123 
39968000    61.361609    -5104.621     -4986.28    -5104.621            0    7375.2041      19.6983    19.726103    20.423893    7936.1263    7316.4454    7285.5341    7523.6327   -434.45907    967.28958    78.264387   -4132.6719 
39969000    64.915836   -5114.0821   -4988.8864   -5114.0821            0    6378.4697    19.721933    19.809355    20.379603    7961.8783    5502.9965    7652.5211    5979.8913   -186.70001    444.81805    848.39177   -4248.2452 
39970000     61.06155   -5117.2544    -4999.492   -5117.2544            0    7398.2516    19.786432    19.725756    20.370168    7950.5239    6737.1073    7992.4546    7465.1931   -374.09935    770.92647   -81.626084    -4141.663 
39971000    62.615134   -5111.8144   -4991.0558   -5111.8144            0    6886.2101    19.698116    19.645625    20.457612    7916.7231    7000.2042    7121.5627    6536.8633   -130.32766    503.37658    244.71392   -4195.9927 
39972000    64.197575   -5122.5024    -4998.692   -5122.5024            0    6593.5156    19.812573    19.680162    20.391058    7950.7719    6813.0669    7348.5392    5618.9407   -86.678877    919.74573   -54.294489   -4234.1485 
39973000    62.805734   -5120.2643   -4999.1381   -5120.2643            0    7055.7621    19.843004    19.699126    20.375986    7964.7661    6792.5471    7487.0729    6887.6662   -333.89047    542.19614    3.3596131   -4179.5553 
39974000    66.197946   -5121.1401   -4993.4718   -5121.1401            0    6813.2588    19.719484    19.814243    20.378812    7962.5446    7211.6656    6675.1458     6552.965   -219.77507   -124.95706    103.00846   -4202.2784 
39975000    60.389401   -5109.1368   -4992.6708   -5109.1368            0     7020.076    19.662791    19.720568    20.375727    7900.9207    7543.3531     6728.615      6788.26   -203.95254    439.50897    927.26962   -4183.7697 
39976000    61.241663   -5108.5808   -4990.4711   -5108.5808            0    7014.7618    19.634494    19.777773    20.416488    7928.2644    7328.6894    6957.2683    6758.3277   -423.56991    89.647902    -321.0948    -4179.385 
39977000    67.014771   -5107.3205   -4978.0769   -5107.3205            0    7434.2836     19.79477    19.651421    20.444689    7952.8892    7589.8939    7324.4977    7388.4593   -136.73182    579.05606    -19.25251   -4115.8135 
39978000    65.722707   -5115.7511   -4988.9994   -5115.7511            0    5701.4404    19.694816    19.861113    20.400543     7979.896    5479.1625     5643.837    5981.3217   -346.96788    475.01818    409.36451   -4325.4737 
39979000    62.973376   -5109.3628   -4987.9133   -5109.3628            0     7171.389    19.622106      19.7808    20.502813    7957.9815    7607.4999    7511.5002     6395.167   -282.28983    20.212307    19.586208   -4155.6091 
39980000    70.301282   -5117.8273   -4982.2454   -5117.8273            0    6707.3131    19.618264    19.785961    20.421263     7926.844    6591.3106     7455.626    6075.0026   -204.31314    925.87721   -105.69856   -4206.8472 
39981000    66.585293    -5114.749   -4986.3336    -5114.749            0    6736.1517    19.712785    19.755342     20.42719    7955.0181    7238.7282     6247.327    6722.3999     49.83861    -111.4092   -444.57915   -4204.8338 
39982000    63.170536   -5113.1754   -4991.3457   -5113.1754            0    6574.4434    19.815845    19.693883    20.407417    7964.0135    6510.3084    6444.0297    6768.9921   -767.77395    231.68538   -318.04623    -4227.744 
39983000    62.751213   -5119.2451   -4998.2242   -5119.2451            0    6801.5455    19.843983    19.716964    20.368896    7969.5974    5250.2365    7994.1891    7160.2109   -4.6934478    126.60997   -316.97647   -4207.6914 
39984000    67.340792   -5116.7117   -4986.8393   -5116.7117            0    7011.9111     19.76652    19.644827    20.439517    7936.8663    6250.7872    7603.5094    7181.4366   -686.31083    1084.4251    294.90656   -4175.2032 
39985000    61.771057   -5115.2315   -4996.1008   -5115.2315            0    6851.8306    19.677514    19.738394    20.425327    7933.2488    7301.4114    6378.7698    6875.3105    158.42002    242.08006   -281.96373   -4203.3557 
39986000    61.884478   -5116.2341   -4996.8847   -5116.2341            0    6665.3685     19.76742    19.741031    20.390705    7957.0495    6278.0859    7358.2133    6359.8062    156.03911   -44.435507   -809.24296   -4223.3993 
39987000    64.825417    -5117.698   -4992.6768    -5117.698            0         6726    19.914287    19.685942    20.269913    7946.4444    6379.4797    7041.0496    6757.4705    250.33368   -28.787543    456.18595   -4213.1956 
39988000    63.927044   -5110.5099   -4987.2212   -5110.5099            0    7644.3496    19.708424    19.712741    20.396117    7924.0352    7669.4702    8018.9264    7244.6521   -281.19817    98.308072    545.90659   -4103.8102 
39989000    63.054587   -5111.0002   -4989.3941   -5111.0002            0    6748.5878    19.663289    19.742892    20.425596    7929.4245     7192.727    6372.3761    6680.6604    -220.5784    -386.7584   -173.78367   -4208.9703 
39990000    67.961421   -5118.2055   -4987.1362   -5118.2055            0    7045.5832    19.869616    19.765775    20.233752    7946.5708    6424.0571     6970.368    7742.3246     319.3613   -42.504413   -3.9716007   -4170.6054 
39991000    61.711672   -5116.3985   -4997.3823   -5116.3985            0    7388.8091    19.669491    19.814252    20.377532    7941.8628    7446.6645       7208.4     7511.363   -289.01416    271.99657   -117.32123   -4141.5815 
39992000    63.296677     -5114.13   -4992.0571     -5114.13            0    7301.6118     19.79732    19.661132    20.408124    7943.6115    7726.9243    7048.8559    7129.0551   -28.011498   -266.34192    631.77087   -4146.1695 
39993000    64.775762   -5111.7308   -4986.8053   -5111.7308            0    6094.0343    19.751241    19.717496    20.396652    7943.3743    5901.7701    6555.9633    5824.3694   -246.18959   -177.48421   -284.04566    -4280.836 
39994000    65.642364   -5111.7416   -4985.1448   -5111.7416            0    6606.8872    19.697963    19.801304    20.333724    7931.0746    7470.6485    4955.7882    7394.2249   -541.60968    338.81122    23.890618   -4220.9487 
39995000    67.246705   -5111.3017   -4981.6108   -5111.3017            0    7158.8359    19.797938    19.746038    20.305067    7937.8765    6836.5389    6547.0312    8092.9375   -238.52293   -713.67705   -390.00088   -4152.8625 
39996000    65.422136   -5116.1304   -4989.9583   -5116.1304            0    6728.6328    19.868238    19.699709    20.331674     7957.787    7014.5037    6401.4239    6769.9708    197.81055   -319.29082    274.54312    -4209.059 
39997000    65.004772   -5116.7264   -4991.3592   -5116.7264            0    6826.9782    19.597699    19.764121    20.465692    7927.0028    6373.8903    7329.0253    6778.0189   -738.84357   -137.96526   -116.97077   -4202.1113 
39998000    65.046597   -5108.2137   -4982.7659   -5108.2137            0    7238.0684    19.597486    19.861864    20.340343    7917.3281    7479.4469    7397.7029    6837.0554    244.60595    907.42573   -480.63833   -4147.0143 
39999000    60.508807   -5117.2626   -5000.5663   -5117.2626            0    6482.5247    19.777172    19.724832    20.455495     7979.717     7229.573    6141.8927    6076.1084   -406.58103    234.10502    15.305143   -4246.1561 
40000000     69.59828   -5114.2078   -4979.9817   -5114.2078            0    6957.4198     19.65199    19.720621    20.489415    7940.6616    7430.9146    6996.7395    6444.6052   -107.73101    711.23525    374.57853   -4174.2679 
Loop time of 409.385 on 64 procs for 250000 steps with 972 atoms

Performance: 105.524 ns/day, 0.227 hours/ns, 610.672 timesteps/s
193.4% CPU use with 32 MPI tasks x 2 OpenMP threads

MPI task timing breakdown:
Section |  min time  |  avg time  |  max time  |%varavg| %total
---------------------------------------------------------------
Pair    | 28.282     | 35.548     | 43.778     |  76.2 |  8.68
Bond    | 0.92587    | 1.2033     | 2.3338     |  23.0 |  0.29
Kspace  | 175.74     | 193.17     | 203.64     |  41.4 | 47.19
Neigh   | 0.085424   | 0.10741    | 0.12186    |   2.8 |  0.03
Comm    | 66.235     | 72.162     | 83.618     |  45.6 | 17.63
Output  | 0.48534    | 0.4857     | 0.48729    |   0.0 |  0.12
Modify  | 80.554     | 84.955     | 89.198     |  25.1 | 20.75
Other   |            | 21.75      |            |       |  5.31

Nlocal:        30.3750 ave          37 max          26 min
Histogram: 4 5 6 3 5 2 2 2 1 2
Nghost:        2747.22 ave        2774 max        2721 min
Histogram: 2 1 1 9 4 6 3 3 1 2
Neighs:        9891.12 ave       12950 max        7827 min
Histogram: 2 4 6 5 4 4 4 0 1 2

Total # of neighbors = 316516
Ave neighs/atom = 325.63374
Ave special neighs/atom = 2.0000000
Neighbor list builds = 297
Dangerous builds = 0

unfix		3
unfix		2
unfix		1

write_data	data.final.${pid}
write_data	data.final.1
System init for write_data ...
PPPM initialization ...
  extracting TIP4P info from pair style
  using 12-bit tables for long-range coulomb (../kspace.cpp:340)
  G vector (1/distance) = 0.37246683
  grid = 24 24 24
  stencil order = 5
  estimated absolute RMS force accuracy = 0.0034763732
  estimated relative force accuracy = 1.0468995e-05
  using double precision FFTW3
  3d grid and FFT values/proc = 3211 432
Last active /omp style is kspace_style pppm/tip4p/omp
WARNING: Not all mixed pair coeffs generated from mixing. Use write_data with 'pair ij' option to store all pair coeffs. (../write_data.cpp:312)

write_restart   restart.lmp.${pid}
write_restart   restart.lmp.1
System init for write_restart ...
PPPM initialization ...
  extracting TIP4P info from pair style
  using 12-bit tables for long-range coulomb (../kspace.cpp:340)
  G vector (1/distance) = 0.37246683
  grid = 24 24 24
  stencil order = 5
  estimated absolute RMS force accuracy = 0.0034763732
  estimated relative force accuracy = 1.0468995e-05
  using double precision FFTW3
  3d grid and FFT values/proc = 3211 432
Last active /omp style is kspace_style pppm/tip4p/omp
Total wall time: 0:06:49
