LAMMPS (30 Jul 2021)
  using 1 OpenMP thread(s) per MPI task
package omp 0
using multi-threaded neighbor list subroutines
echo both

include		in.partitions
variable        pid world 0
include		in.temp
variable        temperature equal 297.52
variable	tempDamp equal 100.0
include		in.pressure
variable        pressure equal 14625.0
variable        pressureDamp equal 1000.0 # This is 1 ps
include		in.seed
variable        seed world 745823

units		real
atom_style	full
read_restart	restart.lmp.${pid}
read_restart	restart.lmp.0
Reading restart file ...
  restart file = 30 Jul 2021, LAMMPS = 30 Jul 2021
  restoring atom style full from restart
  orthogonal box = (0.76776177 1.9958532 0.93666756) to (17.439811 21.633325 21.276528)
  4 by 4 by 4 MPI processor grid
  restoring pair style lj/cut/tip4p/long/omp from restart
  restoring bond style harmonic/omp from restart
  restoring angle style harmonic/omp from restart
  864 atoms
  576 bonds
  288 angles
Finding 1-2 1-3 1-4 neighbors ...
  special bond factors lj:    0        0        0       
  special bond factors coul:  0        0        0       
     2 = max # of 1-2 neighbors
     1 = max # of 1-3 neighbors
     1 = max # of 1-4 neighbors
     2 = max # of special neighbors
  special bonds CPU = 2.162 seconds
  read_restart CPU = 2.572 seconds
include 	in.setup
variable	out_freq equal 1000
variable	out_freq2 equal 10000
variable	out_freq3 equal 1000

timestep	2.0

neigh_modify    delay 7 every 1

include		in.tip4p
# This is TIP4P/Ice

# create groups ###
group ox type 2
288 atoms in group ox
group hy type 1
576 atoms in group hy

# set charges - beside manually ###
set group ox charge -1.1794
Setting atom values ...
  288 settings made for charge
set group hy charge 0.5897
Setting atom values ...
  576 settings made for charge

# ### TIP3P Potential Parameters ###
pair_style lj/cut/tip4p/long/omp 2 1 1 1 0.1577 8.5
pair_coeff 1 1*2 0.000 0.000
pair_coeff 2 2 0.21084 3.1668
bond_style  harmonic
bond_coeff  1 450 0.9572
angle_style harmonic
angle_coeff 1 55 104.52
kspace_style pppm/tip4p/omp 1.0e-5
pair_modify tail yes

thermo          ${out_freq}
thermo          1000
thermo_style    custom step temp pe etotal epair emol press lx ly lz vol pxx pyy pzz pxy pxz pyz enthalpy

restart 	${out_freq3} restart.lmp.${pid} restart2.lmp.${pid}
restart 	1000 restart.lmp.${pid} restart2.lmp.${pid}
restart 	1000 restart.lmp.0 restart2.lmp.${pid}
restart 	1000 restart.lmp.0 restart2.lmp.0


include         in.dump
dump            myDump all atom ${out_freq2} dump.water.${pid}
dump            myDump all atom 10000 dump.water.${pid}
dump            myDump all atom 10000 dump.water.0
dump            myDump2 all dcd ${out_freq2} dump.dcd
dump            myDump2 all dcd 10000 dump.dcd
dump_modify     myDump append yes
dump_modify     myDump2 append yes


variable natoms 	equal  "count(all)"                        # NUMBER ATOMS
variable H      	equal  "enthalpy/v_natoms"                 # ENTHALPY-per-atom
variable Vol      	equal  "vol/v_natoms"                 # volume-per-atom
fix AVG all 		ave/time ${out_freq} 1 ${out_freq} v_Vol v_H file vol_enthalpy.dat
fix AVG all 		ave/time 1000 1 ${out_freq} v_Vol v_H file vol_enthalpy.dat
fix AVG all 		ave/time 1000 1 1000 v_Vol v_H file vol_enthalpy.dat


timer           timeout 23:50:00 every 1000
New timer settings: style=normal  mode=nosync  timeout=23:50:00

fix 		1 all shake 1e-6 200 0 b 1 a 1
       0 = # of size 2 clusters
       0 = # of size 3 clusters
       0 = # of size 4 clusters
     288 = # of frozen angles
  find clusters CPU = 1.456 seconds
fix             2 all nph iso ${pressure} ${pressure} ${pressureDamp}
fix             2 all nph iso 14625 ${pressure} ${pressureDamp}
fix             2 all nph iso 14625 14625 ${pressureDamp}
fix             2 all nph iso 14625 14625 1000
fix             3 all temp/csvr ${temperature} ${temperature} ${tempDamp} ${seed}
fix             3 all temp/csvr 297.52 ${temperature} ${tempDamp} ${seed}
fix             3 all temp/csvr 297.52 297.52 ${tempDamp} ${seed}
fix             3 all temp/csvr 297.52 297.52 100 ${seed}
fix             3 all temp/csvr 297.52 297.52 100 745823

run             250000
PPPM initialization ...
  extracting TIP4P info from pair style
  using 12-bit tables for long-range coulomb (../kspace.cpp:340)
  G vector (1/distance) = 0.37574123
  grid = 24 24 24
  stencil order = 5
  estimated absolute RMS force accuracy = 0.0029962258
  estimated relative force accuracy = 9.0230451e-06
  using double precision FFTW3
  3d grid and FFT values/proc = 2535 216
Last active /omp style is kspace_style pppm/tip4p/omp
Neighbor list info ...
  update every 1 steps, delay 7 steps, check yes
  max neighbors/atom: 2000, page size: 100000
  master list distance cutoff = 10.8154
  ghost atom cutoff = 10.8154
  binsize = 5.4077, bins = 4 4 4
  1 neighbor lists, perpetual/occasional/extra = 1 0 0
  (1) pair lj/cut/tip4p/long/omp, perpetual
      attributes: half, newton on, omp
      pair build: half/bin/newton/omp
      stencil: half/bin/3d
      bin: standard
Per MPI rank memory allocation (min/avg/max) = 9.240 | 9.243 | 9.247 Mbytes
Step Temp PotEng TotEng E_pair E_mol Press Lx Ly Lz Volume Pxx Pyy Pzz Pxy Pxz Pyz Enthalpy 
18750000    301.84132   -3684.7766   -3167.4309   -3684.7766            0    15408.348    16.672049    19.637471    20.339861     6659.207    15715.438    13409.486    17100.121     1120.237    3242.3465     442.7693   -1671.0075 
18751000    317.38693   -3767.1058   -3223.1155   -3767.1058            0    15023.045    16.684221    19.651808     20.35471    6673.8028    16839.281    12231.536    15998.318   -559.03641   -1278.0833       632.19    -1760.914 
18752000    309.96133   -3757.9506   -3226.6875   -3757.9506            0     14024.96    16.707018    19.678661    20.382523    6701.1977    13783.569    13647.772    14643.538    89.665535   -1600.6495     130.0885   -1856.0268 
18753000    304.15892   -3727.5404   -3206.2224   -3727.5404            0    15307.609    16.688527    19.656881    20.359964     6678.972    15769.229    15092.624    15060.975    1385.3626   -518.91441    613.06809   -1715.1701 
18754000    291.66144   -3772.7642   -3272.8665   -3772.7642            0    14904.212     16.68055    19.647484    20.350232    6669.3986    16216.541    15659.808    12836.288    -1041.981    234.37328    2206.0581   -1823.1884 
18755000     290.2755   -3701.0389   -3203.5166   -3701.0389            0    17688.087    16.626281    19.583563    20.284024    6604.5151    15928.313    17182.979    19952.968    292.68355    790.59274     458.7292   -1499.7987 
18756000    307.17208   -3703.3017   -3176.8192   -3703.3017            0     14827.98    16.666877    19.631379    20.333551    6653.0113    13469.659    15324.817    15689.463   -531.36497    1097.8418    144.05112   -1738.0998 
18757000    295.69015   -3705.7666   -3198.9638   -3705.7666            0    15151.904    16.671668    19.637023    20.339396    6658.7507    12381.108    16020.941    17053.662     1241.285   -750.85262    927.74418   -1727.5465 
18758000    302.26396   -3721.0023   -3202.9323   -3721.0023            0    16232.276    16.669586     19.63457    20.336856    6656.2563     16921.03    15271.993    16503.806   -663.41639    1562.7235   -1271.0381   -1627.1894 
18759000    321.45455   -3720.3322   -3169.3701   -3720.3322            0    14772.725    16.708331    19.680207    20.384125    6702.7775    12360.244     16342.05    15615.881   -196.18118    849.67423    1832.4332     -1725.29 
18760000    301.37528   -3710.0802   -3193.5333   -3710.0802            0    16609.531    16.631143     19.58929    20.289956    6610.3112    15143.109    18437.496    16247.989    684.53708    196.26581    593.44464   -1592.2979 
18761000    286.92918   -3695.5757   -3203.7889   -3695.5757            0    16311.809    16.677287    19.643641    20.346251    6665.4856    17680.321    15088.186     16166.92   -89.469928   -233.28007    856.07974   -1618.1299 
18762000    294.48806   -3682.2053   -3177.4628   -3682.2053            0    14294.902    16.753786    19.733747    20.439579    6757.6308    14456.917    14744.856    13682.932   -72.395168   -435.75356    126.73321   -1768.6558 
18763000    313.60532   -3726.1292   -3188.6204   -3726.1292            0    14377.483    16.681458    19.648554     20.35134    6670.4884    15216.173    14508.973    13407.303    343.67779     466.3824    709.45779   -1789.9468 
18764000      286.483    -3732.248   -3241.2259    -3732.248            0    15042.228     16.71309    19.685812    20.389931    6708.5065    14464.635    13645.844    17016.205    2561.4871    -2465.912   -2096.1083   -1769.5442 
18765000    299.10563   -3768.1464   -3255.4896   -3768.1464            0    15277.062    16.611093    19.565673    20.265494    6586.4318    16926.212     13204.74    15700.233    -2447.041   -847.57502    -144.1239   -1788.0308 
18766000    295.78287   -3735.7395   -3228.7778   -3735.7395            0    14892.451    16.654044    19.616263    20.317894     6637.655    14263.039    15519.579    14894.735   -736.10062    2884.3093    214.46156    -1787.138 
18767000    304.37592   -3734.1232   -3212.4333   -3734.1232            0    13635.792    16.685849    19.653726    20.356697     6675.757    12608.769    14098.272    14200.334   -19.044827    237.29944   -703.98059   -1884.8654 
18768000    277.32462   -3721.1851   -3245.8602   -3721.1851            0    15376.606    16.681904     19.64908    20.351884    6671.0232    13972.551    14926.309    17230.958   -1335.8099   -852.95068   -79.536401   -1749.8698 
18769000    308.81832   -3739.0366   -3209.7325   -3739.0366            0    14018.943    16.632551    19.590949    20.291674    6611.9903    14111.822    14857.429    13087.576   -714.01112    132.63803   -1567.1982   -1857.8986 
18770000    285.87133   -3757.7735   -3267.7998   -3757.7735            0    11974.825    16.737255    19.714276    20.419412    6737.6477    10981.901    12916.882    12025.691    180.64662    315.38598   -1126.5882   -2091.1334 
18771000    303.04054   -3729.4369   -3210.0358   -3729.4369            0    16388.969    16.603345    19.556547    20.256042    6577.2195    18612.519    14933.638    15620.751    -1064.934   -2117.6205    151.97701   -1637.9731 
18772000    316.27389   -3757.6093   -3215.5267   -3757.6093            0    15161.218    16.696637    19.666433    20.369859    6688.7141    15971.969    13385.893    16125.791   -397.99093   -2180.8077   -288.98304   -1736.5797 
18773000    279.59953   -3763.0519   -3283.8278   -3763.0519            0    15392.766    16.689479    19.658001    20.361125    6680.1145    16532.022    13888.465     15757.81   -961.95863    1147.9178   -295.90961   -1784.2243 
18774000    312.68152   -3690.4578   -3154.5324   -3690.4578            0    13336.362    16.701953    19.672694    20.376343    6695.1043    14402.473    11985.548    13621.064    1402.8091    403.21825   -1176.5007   -1852.3536 
18775000    289.45223   -3726.4453   -3230.3341   -3726.4453            0    14779.362    16.691305    19.660153    20.363354    6682.3083    13721.931    15389.692    15226.464   -1926.8412    181.82452    1088.4817   -1790.0171 
18776000    312.05529   -3751.0054   -3216.1533   -3751.0054            0    13765.386    16.731808     19.70786    20.412767    6731.0715    12069.867    14586.768    14639.522    694.64968   -615.25318   -896.63427   -1864.8635 
18777000     302.7484   -3696.3093   -3177.4089   -3696.3093            0    17406.048    16.655446    19.617916    20.319605    6639.3323    16722.267    18145.449    17350.429    43.636004    1764.3145    704.40257   -1492.0187 
18778000    295.20213   -3745.4509   -3239.4845   -3745.4509            0    13334.698    16.727675    19.702992    20.407725    6726.0851    11896.881    13761.915    14345.296   -971.75333    281.62352    151.15946   -1931.4433 
18779000    297.43773   -3766.8255   -3257.0274   -3766.8255            0    16229.874     16.65757    19.620417    20.322196    6641.8722     17459.24    14915.838    16314.544   -1191.3766   -20.929823   -918.51301   -1684.9224 
18780000    311.08602   -3710.2363   -3177.0455   -3710.2363            0      14753.9    16.715401    19.688534     20.39275    6711.2894    16285.344    14306.286    13670.069    369.13672   -1885.1029   -68.995382   -1732.9741 
18781000    300.46857    -3676.465   -3161.4722    -3676.465            0     15888.09    16.699021    19.669241    20.372767    6691.5796    18228.737    13808.803    15626.729    16.933219   -1577.5786    2453.8246   -1610.9563 
18782000    296.96118   -3722.6138   -3213.6325   -3722.6138            0     13637.51    16.691461    19.660336    20.363544    6682.4952    14310.881    12917.565    13684.085   -1929.1749   -970.56615    917.18095   -1884.5571 
18783000     294.1952   -3706.1938   -3201.9533   -3706.1938            0    16198.571    16.656965    19.619704    20.321458    6641.1484    16416.332    16779.928    15399.453   -30.209949    1580.1802   -170.02325   -1633.0515 
18784000    284.44443   -3765.6688   -3278.1408   -3765.6688            0    13976.969     16.66085    19.624281    20.326198    6645.7969    13718.487    15199.961    13012.459   -1788.1632   -1315.2152   -893.46516   -1923.4632 
18785000    294.13525   -3795.8753   -3291.7376   -3795.8753            0    14479.479    16.698832    19.669018    20.372536    6691.3521    11940.738    15784.273    15713.427   -7.8767406    799.21754    295.20407   -1878.7358 
18786000     284.0678    -3776.854   -3289.9715    -3776.854            0    16218.877    16.689361    19.657863    20.360981    6679.9732     17247.71    14475.891    16933.029    836.22378    -130.5864    986.44018   -1709.9195 
18787000    308.75074   -3771.1986   -3242.0104   -3771.1986            0    13814.677    16.723898    19.698543    20.403117    6721.5298    13550.164    13197.994    14695.874    1274.0882   -304.94561    162.53736   -1887.8043 
18788000    305.09748     -3768.27   -3245.3434     -3768.27            0    13721.998    16.731631    19.707652    20.412551    6730.8583     13185.03    13779.644     14201.32    467.99723    895.43203   -914.15233   -1898.3555 
18789000    303.20298    -3771.993   -3252.3134    -3771.993            0     12846.62     16.70702    19.678663    20.382526    6701.2001    11893.085    14427.801    12218.974    134.10509   -780.01121   -1523.9647   -1996.8116 
18790000    304.99807    -3758.422   -3235.6657    -3758.422            0    13305.821    16.730503    19.706323    20.411175    6729.4967    15211.378    12328.907    12377.179      83.1574    315.77527    829.51992   -1929.7951 
18791000    299.12113   -3731.1066   -3218.4233   -3731.1066            0    13492.065    16.710445    19.682697    20.386704     6705.322    12456.332    13941.204    14078.659   -175.93709    773.03625   -1536.3371   -1899.0309 
18792000    299.86768   -3734.5847   -3220.6217   -3734.5847            0    15094.137    16.691836    19.660778    20.364001    6682.9459    17992.132    12981.404    14308.875   -598.40635   -399.13498    -647.6267    -1749.488 
18793000    308.68576   -3740.3698    -3211.293   -3740.3698            0    14009.016    16.725793    19.700774    20.405428    6723.8143    13159.622    13107.288    15760.137    329.20902    926.30777     1446.283   -1837.5698 
18794000    291.23941   -3724.6336   -3225.4593   -3724.6336            0    15179.109    16.705673    19.677077    20.380883    6699.5796    16663.062      15148.3    13725.966   -571.68325    918.56927   -1648.6448   -1742.3617 
18795000    289.96269      -3775.8   -3278.8139      -3775.8            0    13683.755    16.695877    19.665537    20.368931       6687.8    12260.676    14292.761    14497.828    84.752076   -719.73355      -880.89   -1944.1729 
18796000    316.47116    -3735.624   -3193.2032    -3735.624            0    16446.377    16.669308    19.634243    20.336517    6655.9232    15047.339    15762.261    18529.531   -179.80064    488.98837   -1010.8891   -1596.7565 
18797000    295.39984   -3743.6945   -3237.3893   -3743.6945            0    14187.386     16.70134    19.671973    20.375596    6694.3675    15933.555    13420.587    13208.017     16.10008    410.54097    981.04299   -1852.2679 
18798000    298.60355   -3711.1018   -3199.3055   -3711.1018            0    14563.811    16.687419    19.655576    20.358612    6677.6418    16254.435    13291.929     14145.07    731.20183   -1129.2836   -1718.3105   -1780.9861 
18799000    301.07751   -3713.8194   -3197.7829   -3713.8194            0    13638.927    16.698155    19.668221     20.37171    6690.5381    11846.234    14351.174    14719.374    742.66566   -376.42856    245.39736   -1866.9695 
18800000    285.45783   -3711.3279   -3222.0629   -3711.3279            0    14620.696    16.664572    19.628665    20.330739    6650.2521    15023.636     16443.62    12394.833   -1409.1061   -660.79934     547.3803   -1804.0439 
18801000    309.61186   -3722.3014   -3191.6373   -3722.3014            0    13873.466    16.677306    19.643664    20.346275    6665.5086    13360.076    15958.534    12301.788    -1328.691    106.28269    2117.2634   -1843.0031 
18802000    297.76631   -3739.4853    -3229.124   -3739.4853            0    12680.516    16.724089    19.698768     20.40335      6721.76    13130.172    14689.953    10221.423    859.84437    221.48886    367.83442   -1986.0534 
18803000    284.75516   -3714.9888   -3226.9282   -3714.9888            0    15297.912    16.686156    19.654088    20.357072    6676.1259     15088.45    14699.459    16105.825   -614.03183   -351.38694    -1068.379   -1737.4555 
18804000    302.24281   -3706.2845   -3188.2506   -3706.2845            0    12400.708    16.737829    19.714952    20.420112     6738.341    10330.925    12421.415    14449.783    1204.5698   -1643.6097   -121.77725   -1969.6109 
18805000    286.54074   -3707.8914   -3216.7704   -3707.8914            0    14761.871    16.711397    19.683818    20.387865    6706.4678    14279.532    16755.637    13250.444   -424.58505     1178.598    -472.9815   -1772.9567 
18806000    317.93224   -3714.6079    -3169.683   -3714.6079            0    15951.296    16.684286    19.651885     20.35479    6673.8815    16982.823     13301.09    17569.976    1000.8763    127.72433   -2202.7978   -1617.1159 
18807000    300.54797   -3751.4199    -3236.291   -3751.4199            0    14145.174    16.716696     19.69006     20.39433      6712.85    15772.337    12443.536     14219.65   -389.77276     843.2059   -311.44043    -1851.478 
18808000     293.4528   -3722.0567   -3219.0887   -3722.0567            0    12705.891    16.748246    19.727221     20.43282    6750.9291     14361.49    10844.507    12911.677    611.96273    9.5738939   -1414.0575   -1968.1254 
18809000    300.35377   -3708.0798   -3193.2837   -3708.0798            0    15210.182    16.765584    19.747643    20.453973    6771.9172    16152.282    13911.145    15567.118   -1222.7601    382.02115   -81.975304   -1691.1038 
18810000    280.22686     -3752.13   -3271.8308     -3752.13            0    14191.358    16.693598    19.662853    20.366151     6685.062    15337.038    13189.116    14047.919    1098.9436   -323.69323     1045.281   -1888.2476 
18811000    294.34131   -3730.1857   -3225.6948   -3730.1857            0     16042.09    16.649939    19.611429    20.312887     6632.749    15812.209    16370.363    15943.698    466.93511    161.91474   -1537.2496   -1673.9139 
18812000    307.71179   -3722.0466   -3194.6391   -3722.0466            0    16766.168    16.608264    19.562342    20.262044    6583.0681    17320.913    17039.067    15938.525   -1912.0253    247.56589    579.22577   -1584.9646 
18813000    318.98641   -3692.4133   -3145.6815   -3692.4133            0    15372.953    16.685013    19.652742    20.355677    6674.7537    14084.808    15759.319    16274.731    1437.9225   -707.74842   -1847.0042   -1649.2101 
18814000    295.17731   -3715.9217   -3209.9979   -3715.9217            0    14470.553    16.731843    19.707901    20.412809    6731.1138    14734.122    14823.904    13853.634   -385.77883    -1231.034    301.62162   -1789.4759 
18815000    295.95087   -3714.6875   -3207.4378   -3714.6875            0    13133.149    16.646822    19.607758    20.309084    6629.0244    14094.071    11518.027    13787.349    2180.9983    1129.4039    58.731427   -1937.7575 
18816000    320.10991    -3729.477   -3180.8195    -3729.477            0    12627.846    16.805099    19.794187    20.502182    6819.9128    12770.581    12073.089    13039.867    224.21751    -421.0796    658.09853   -1924.8359 
18817000     290.2883   -3748.1702    -3250.626   -3748.1702            0    12980.021     16.76757    19.749982    20.456396    6774.3239    10651.766    13973.628    14314.668   -48.428986     533.8628     576.4609   -1968.2446 
18818000    295.33199   -3731.9391   -3225.7502   -3731.9391            0    12577.976    16.722118    19.696447    20.400945    6719.3841    13005.772     11773.45    12954.705    530.13419     1149.289    -81.21905   -1993.1674 
18819000    284.33004   -3759.3114   -3271.9795   -3759.3114            0    14538.559    16.688362    19.656686    20.359762    6678.7731    14312.253    12924.678    16378.746    809.58278    961.54064    139.30281   -1855.8794 
18820000    303.83804   -3759.9393   -3239.1713   -3759.9393            0    15141.611    16.666883    19.631387    20.333559    6653.0192    14934.262    14567.799    15922.773    240.54287    1948.8927    1232.1421   -1770.0192 
18821000    294.48697   -3741.0871   -3236.3465   -3741.0871            0    13061.227    16.692503    19.661563    20.364814    6683.7462    11935.075    14036.387    13212.219     935.9257   -593.43828    1556.5799   -1963.1958 
18822000    299.59328   -3650.5079   -3137.0153   -3650.5079            0    14092.904    16.725882     19.70088    20.405537    6723.9225    11529.256    14817.886     15931.57    -1282.984   -2692.9373    159.82603   -1755.0438 
18823000    290.45037   -3756.0005   -3258.1785   -3756.0005            0     13043.35    16.729356    19.704971    20.409775    6728.1122    13271.842    11564.354    14293.854   -1234.7015   -898.79956    103.76273   -1978.3308 
18824000    295.44126   -3720.4594   -3214.0832   -3720.4594            0    14591.857    16.692627     19.66171    20.364966    6683.8959    15049.524    13065.997    15660.049    -546.0178    611.88709    894.94443   -1791.7016 
18825000    304.29046   -3744.8022   -3223.2588   -3744.8022            0     13831.32    16.725763     19.70074    20.405392    6723.7787    15164.873    12743.913    13585.174    232.89274    256.45356    1679.0412   -1866.9676 
18826000     281.8431   -3733.6655   -3250.5961   -3733.6655            0    14227.683    16.706341    19.677863    20.381697     6700.383    12652.402    15256.125    14774.523    457.53295    916.47798    1138.2483   -1860.2923 
18827000    296.69322   -3806.4369   -3297.9148   -3806.4369            0    13203.834    16.761225    19.742509    20.448655    6766.6361     14673.75    12749.664    12188.089    124.00907   -1661.9556    1390.0115   -1994.9017 
18828000    315.92566   -3709.8174   -3168.3316   -3709.8174            0    13474.725    16.733445    19.709788    20.414764    6733.0478    13134.914    13342.753    13946.507    -355.7376    100.21211   -1136.4203   -1845.1864 
18829000    298.21411   -3761.8191   -3250.6903   -3761.8191            0     15700.26    16.660534    19.623908    20.325812    6645.4184      15966.4    14509.243    16625.137    799.92453    -899.3597   -849.65311   -1729.0744 
18830000    310.58836   -3723.3683   -3191.0305   -3723.3683            0     13067.27     16.73019    19.705953    20.410792    6729.1185    12820.558    12510.176    13871.076    -145.9994    1116.6897    -1908.584    -1908.644 
18831000    289.59797   -3714.4651   -3218.1041   -3714.4651            0    14083.028    16.674403    19.640244    20.342733    6662.0281    13833.964    17478.065    10937.055   -99.680101    31.621072    1306.6116   -1849.8133 
18832000     297.1322   -3764.2821   -3255.0077   -3764.2821            0     15724.68     16.65553    19.618014    20.319707     6639.432    14927.074    15719.341    16527.625    2484.7251   -1245.6111    1678.7301   -1732.3978 
18833000    304.93229   -3789.7362   -3267.0927   -3789.7362            0    13852.494     16.71483    19.687862    20.392054    6710.6025    16656.269    14807.446    10093.766    2704.5653    155.89877   -207.92585   -1911.3871 
18834000    305.76208   -3714.9751   -3190.9094   -3714.9751            0     13976.01    16.773758    19.757272    20.463946    6781.8275    12331.995    14027.596    15568.438    74.166317    -473.5583    514.66093   -1808.5982 
18835000    290.35675   -3734.0911   -3236.4296   -3734.0911            0    13340.362    16.718744    19.692473    20.396829    6715.3177    13037.206    12917.429     14066.45   -2386.3301    751.32442   -138.25541   -1929.9277 
18836000    303.19974   -3747.2724   -3227.5985   -3747.2724            0    13772.951    16.706594    19.678161    20.382006    6700.6874    11516.829    13900.289    15901.734    414.65306   -266.47398    287.81144   -1881.6692 
18837000    290.14912   -3759.8205   -3262.5149   -3759.8205            0    14520.217     16.75804    19.738757     20.44477    6762.7798    12822.975    15409.224    15328.452   -567.83973    -50.31888   -632.08718   -1830.4119 
18838000    308.85666   -3708.3217    -3178.952   -3708.3217            0    14765.472    16.710753    19.683059    20.387079    6705.6923    13921.812    13251.936    17122.668    2167.0134    1132.9334   -219.32421   -1734.9532 
18839000    292.12088   -3751.4492   -3250.7641   -3751.4492            0    17697.849    16.632798    19.591239    20.291975    6612.2844    19270.501    16101.101    17721.946   -1645.7394   -293.14292   -253.89736   -1544.1005 
18840000    294.39965   -3701.7843   -3197.1933   -3701.7843            0    16351.773    16.642909    19.603149    20.304311     6624.351    18131.936    15716.299    15207.082    734.82905    1670.0542    -426.1575    -1617.459 
18841000    290.19728   -3769.9461   -3272.5579   -3769.9461            0    13196.758    16.697374    19.667301    20.370757    6689.5993    14440.853    11667.802    13481.619    1162.0809    1785.6258    213.27993   -1985.0697 
18842000    298.76936   -3732.5452   -3220.4647   -3732.5452            0    13246.301    16.703038    19.673972    20.377667    6696.4088    13997.229     13591.92    12149.755   -1999.2182     267.3636    1185.4087   -1926.8275 
18843000    284.78644   -3742.6258   -3254.5116   -3742.6258            0    14021.597    16.715682    19.688865    20.393093    6711.6278    14332.233    14196.575    13535.982   -60.743349   -526.49552   -1121.2791   -1882.0467 
18844000    303.39169   -3762.3058   -3242.3028   -3762.3058            0    14593.848    16.660411    19.623763    20.325662     6645.271    15478.939    14583.391    13719.214     -1017.07   -1665.7993   -551.16126   -1827.9479 
18845000    284.16816   -3733.4977   -3246.4431   -3733.4977            0    15493.188     16.64511     19.60574    20.306995    6626.9785    13402.869    16609.573    16467.122    1374.9225    -96.32172    603.34585   -1749.0624 
18846000    302.29768   -3701.3735   -3183.2457   -3701.3735            0    15025.087      16.6805    19.647425    20.350171    6669.3386    14417.544    15682.711    14975.005   -782.10908   -1717.4068   -1543.5701   -1721.8236 
18847000    312.69829    -3726.424   -3190.4699    -3726.424            0    18146.934    16.636104    19.595133    20.296008    6616.2281    16611.363    17885.179     19944.26   -382.10387   -702.60268   -2545.4988   -1439.4558 
18848000    287.83956   -3748.9837   -3255.6366   -3748.9837            0    13366.681    16.704537    19.675738    20.379496    6698.2121    15918.553    10557.756    13623.733    803.23452    -1642.848   -560.50587   -1949.8916 
18849000    292.80345   -3727.4236   -3225.5685   -3727.4236            0    15454.707    16.712773    19.685439    20.389544    6708.1251    13250.294    15541.608    17572.218   -1975.5228   -330.61458   -2061.9737   -1713.6172 
18850000     299.5718   -3765.5321   -3252.0762   -3765.5321            0    14550.855    16.719614    19.693496     20.39789    6716.3651    13672.192    16427.849    13552.524    222.11077   -2357.9148   -940.44886   -1826.8012 
18851000    292.83096   -3777.5424   -3275.6402   -3777.5424            0    15504.392    16.664499    19.628578    20.330649    6650.1637    16317.479    15478.902    14716.795   -728.21178    1494.5262    270.86454   -1771.9341 
18852000    312.47731   -3778.6464   -3243.0709   -3778.6464            0    12591.219    16.694223    19.663589    20.366912    6685.8124    15337.645     12420.53    10015.483    578.49151   -348.08847   -566.90265   -2015.3551 
18853000     306.1194   -3759.4992    -3234.821   -3759.4992            0    14782.607    16.735569     19.71229    20.417355    6735.6115    13457.768    16528.784    14361.267    678.21215   -664.84249    84.452293   -1782.6962 
18854000    284.01901   -3730.7338    -3243.935   -3730.7338            0    11938.765    16.808272    19.797924    20.506052    6823.7761    9170.0265    14190.621    12455.647    1090.5866   -1067.3029    250.51156   -2055.8156 
18855000    297.13688   -3699.1181   -3189.8356   -3699.1181            0    14692.679    16.709157    19.681179    20.385132     6703.771    15543.613    13617.465     14916.96   -691.44351   -1627.7356   -926.08586   -1753.3673 
18856000    285.77197   -3747.5098   -3257.7064   -3747.5098            0    14616.319    16.649824    19.611294    20.312747    6632.6114    15180.599    14705.758    13962.598    2411.6896   -1554.8907   -1737.6779   -1843.8723 
18857000    295.46238   -3758.4713   -3252.0589   -3758.4713            0    15725.386    16.638527    19.597987    20.298964    6619.1191    16366.971    15966.344    14842.844    1086.8722    562.46333    255.10648   -1734.0392 
18858000     293.3991   -3742.5189   -3239.6429   -3742.5189            0    12990.979    16.737948    19.715092    20.420258     6738.485    11612.983    15128.629    12231.324   -1646.8312   -237.19281   -536.77292   -1962.9688 
18859000    292.82108   -3720.1043   -3218.2189   -3720.1043            0    14466.139    16.674147    19.639943     20.34242    6661.7214    14438.782    15604.601    13355.034    602.53229    1154.4801    340.72967   -1812.7703 
18860000    283.60052   -3712.9123   -3226.8307   -3712.9123            0    14322.861     16.76467    19.746566    20.452858    6770.8094    14172.319    13147.496    15648.768    2195.3497   -2429.5719   -68.735339   -1812.5153 
18861000    302.34868   -3725.2624   -3207.0471   -3725.2624            0    13148.728    16.762646    19.744183    20.450389    6768.3583    14127.494    10881.468    14437.222   -433.71711    1329.6236   -1763.8726   -1909.1419 
18862000    281.85602   -3681.3483   -3198.2567   -3681.3483            0    14623.509    16.699001    19.669218    20.372743    6691.5556    16917.501    13148.463    13804.562    644.85942   -850.75968    231.78842   -1771.1562 
18863000    297.86527   -3730.7864   -3220.2556   -3730.7864            0    13745.492    16.701033    19.671611    20.375222    6693.9988    13947.724    14660.928    12627.825    91.065434    1008.0384    753.95064   -1878.3504 
18864000    311.41328   -3715.6279   -3181.8762   -3715.6279            0    13440.198    16.669183    19.634095    20.336364    6655.7729    12628.434    14931.517    12760.644   -494.85673   -1068.9297    708.70502   -1877.2681 
18865000    296.80245   -3743.4326   -3234.7234   -3743.4326            0    11466.158    16.733084    19.709362    20.414323    6732.6112    12509.878    10069.229    11819.366   -249.60998   -516.67792   -1027.3748   -2108.8817 
18866000    284.55153   -3733.7675   -3246.0559   -3733.7675            0    14224.609    16.671942    19.637346    20.339731    6659.0794    16115.189    11674.167    14884.472   -93.373775   -239.11046   -184.65613    -1864.621 
18867000    287.35941   -3765.5746   -3273.0504   -3765.5746            0    14801.559    16.669301    19.634235    20.336508    6655.9147    16043.417    15397.139    12964.122   -956.48634    201.91389    748.95335   -1836.2676 
18868000     295.4096   -3773.0884   -3266.7664   -3773.0884            0    12973.693    16.720218    19.694208    20.398627    6717.0934     11236.43    13385.105    14299.543   -1684.3648     811.4489    123.17384   -1995.8386 
18869000    298.59712   -3733.5508   -3221.7655   -3733.5508            0     17475.54    16.673994    19.639763    20.342234    6661.5383    16746.399     16563.29    19116.932    355.87878    738.38236    1278.0352    -1523.987 
18870000     287.1662   -3730.0327   -3237.8397   -3730.0327            0    14656.029    16.685811    19.653682    20.356651    6675.7116    14249.409    17307.326    12411.353    192.43341    -743.7489    637.46032    -1810.952 
18871000    298.85622   -3762.8607   -3250.6314   -3762.8607            0    12838.742    16.755939    19.736282    20.442206    6760.2363     11817.03    12023.648    14675.548    7.6170391    832.21712    -384.0243   -1984.8455 
18872000    304.07058   -3724.5126    -3203.346   -3724.5126            0    14474.526    16.753213    19.733071     20.43888    6756.9373    14316.747    14972.357    14134.473    629.38164    43.081348    44.135201   -1776.9828 
18873000    276.79781   -3714.9469   -3240.5249   -3714.9469            0     14464.51    16.693026     19.66218    20.365453    6684.3753    13573.896    15015.864    14803.771    1309.9963   -1708.1448   -20.393607   -1830.4556 
18874000    297.02361    -3702.557   -3193.4687    -3702.557            0     13152.76    16.730061    19.705802    20.410635    6728.9631    12887.896     13264.48    13305.904    876.79792    766.33114    123.02136   -1902.7223 
18875000    303.77978   -3723.2855   -3202.6174   -3723.2855            0    15219.066     16.73294    19.709194    20.414148    6732.4384    16710.166    15280.947    13666.086   -354.10056   -2858.3237   -717.03411   -1708.3226 
18876000    293.24448   -3726.5496   -3223.9386   -3726.5496            0    15173.936    16.711844    19.684345    20.388411    6707.0065    12976.427    17576.094    14969.285   -2894.1969   -41.328123    695.79535    -1739.703 
18877000    290.19276   -3713.5038   -3216.1234   -3713.5038            0    13381.173    16.785759    19.771407    20.478587    6796.3943    13781.304    13135.101    13227.114    2004.4354    167.84932   -201.13833   -1889.8024 
18878000    303.80366   -3725.5263   -3204.8172   -3725.5263            0    15462.812    16.666553    19.630997    20.333155     6652.623      16329.2     17169.21    12890.027   -1358.9253    1328.7287    591.79963   -1704.5892 
18879000    293.12496   -3690.8111    -3188.405   -3690.8111            0    14568.208    16.681921    19.649099    20.351904    6671.0429    15192.499    15568.633    12943.492   -415.01543    85.537609   -1879.3958   -1771.0594 
18880000    288.16102   -3757.4401    -3263.542   -3757.4401            0    13113.698    16.701195    19.671802    20.375419    6694.1929    13412.107    12013.493    13915.494   -1598.9411    -1258.007    568.50603   -1983.2787 
18881000    291.15158   -3732.6662   -3233.6423   -3732.6662            0    16929.183    16.642605    19.602791     20.30394     6623.988    16853.666    18474.547    15459.336    1902.5755    2119.9663   -617.73644   -1598.2144 
18882000    292.17183   -3692.1811   -3191.4086   -3692.1811            0    12002.637    16.753046    19.732875    20.438677    6756.7353    8506.0397      12749.3    14752.571    705.91015    -1489.492   -1002.4799   -2008.6681 
18883000    292.07981   -3732.0764   -3231.4616   -3732.0764            0    13687.654    16.756592    19.737052    20.443003    6761.0271    13644.026    12669.718    14749.218     704.9261    583.49877    426.74384   -1881.8227 
18884000    284.44233   -3754.8571   -3267.3327   -3754.8571            0     14123.84    16.704264    19.675417    20.379163    6697.8843     13608.06    12056.807    16706.653   -37.505935    2103.6361   -637.62377   -1887.6909 
18885000    274.38431    -3733.471   -3263.1857    -3733.471            0    16577.188    16.645967    19.606751    20.308041    6628.0031    17241.357    16322.335    16167.871    1907.9626   -1905.3794     194.9397   -1660.7912 
18886000    291.92095   -3745.3717   -3245.0292   -3745.3717            0    11862.787    16.720459    19.694493    20.398921    6717.3845    10793.823    11334.927    13459.609   -803.03081   -201.23314    1788.3672   -2082.8775 
18887000    288.38795   -3738.3028   -3244.0157   -3738.3028            0    15748.747    16.661058    19.624525    20.326452    6646.0454    17003.865    15054.463    15187.913   -962.90503    536.38381    2124.1007   -1717.5565 
18888000    300.18798    -3711.894    -3197.382    -3711.894            0    15156.703    16.669454    19.634415    20.336695    6656.0984    14295.463    18161.635    13013.012    1411.6407    507.77363     407.9206   -1726.0849 
18889000    274.22278   -3737.0043   -3266.9958   -3737.0043            0    13784.776    16.772932    19.756298    20.462938     6780.825    13448.736    15020.697    12884.895   -1145.8332    155.95701   -1920.3303   -1903.8003 
18890000    305.03434   -3737.9335   -3215.1151   -3737.9335            0    12729.928     16.72966     19.70533    20.410146    6728.4797    11315.632    13362.606    13511.547    1154.4655    326.77568    2604.4921    -1965.953 
18891000    282.27904   -3749.5878   -3265.7712   -3749.5878            0     12901.52    16.724666    19.699447    20.404053    6722.4553    13787.028    9251.3113    15666.221    283.92842   -146.52642    573.81551   -2000.9047 
18892000    291.78487   -3745.1716   -3245.0623   -3745.1716            0    15001.258    16.724539    19.699297    20.403898    6722.3021    15320.611    15195.249    14487.913    1574.2901   -242.21602     41.14945   -1774.3708 
18893000    282.89151   -3712.9568   -3228.0904   -3712.9568            0    16936.837      16.6586     19.62163    20.323453    6643.1041    16871.061    18049.363    15890.088    2112.7357    143.71554    557.70297   -1587.2012 
18894000    286.66982   -3726.1671   -3234.8249   -3726.1671            0    16452.222    16.674509    19.640369    20.342862     6662.155    14683.084    15823.749    18849.832    1037.6508   -337.64318    597.34152   -1636.3156 
18895000    315.90054   -3723.9223   -3182.4796   -3723.9223            0    14444.365    16.640704    19.600552     20.30162    6621.7183    13087.534    15336.022    14909.539   -130.36472   -1558.1772   -1394.7435   -1787.5733 
18896000    302.17227   -3774.3135   -3256.4006   -3774.3135            0    15976.054    16.625179    19.582265    20.282679    6603.2016    13910.028     17118.51    16899.624    2357.6279    1948.8545    1572.5463   -1717.8918 
18897000    291.94609    -3765.855   -3265.4694    -3765.855            0    12636.677    16.735858     19.71263    20.417708    6735.9606    11329.477    13003.524    13577.031   -672.88534     331.0674     594.3608   -2024.0792 
18898000    291.41025   -3769.1373   -3269.6701   -3769.1373            0    14437.623    16.666719    19.631194    20.333358    6652.8226    14524.342    14952.412    13836.115    1822.9763    664.94523   -1633.0654   -1868.8656 
18899000    305.37553   -3714.4101   -3191.0069   -3714.4101            0    13436.226    16.767596    19.750014    20.456429    6774.3562    14790.867    13043.529    12474.282   -1990.5621   -1622.5238   -1629.2888   -1863.5476 
18900000    285.47821   -3710.8118   -3221.5119   -3710.8118            0    15630.501    16.679542    19.646297    20.349002    6668.1894    15007.169    16371.918    15512.416   -711.61081    978.37609   -116.64287    -1701.466 
18901000    303.30462   -3743.8253   -3223.9716   -3743.8253            0    12288.068    16.769994    19.752838    20.459353    6777.2623    14540.711     11435.11    10888.383     114.9187   -660.66711    694.33331   -2009.4261 
18902000    279.44264    -3715.742   -3236.7869    -3715.742            0    16260.892    16.637678    19.596988    20.297929    6618.1068    16394.367    17379.187    15009.122    86.724649    461.01912    459.69502   -1667.3133 
18903000    299.68668   -3734.2257    -3220.573   -3734.2257            0    17389.929    16.643426    19.603758    20.304941    6624.9681    17963.059    19116.194    15090.534   -350.53282   -624.49423     2336.834   -1540.3865 
18904000    290.71563   -3743.7732   -3245.4966   -3743.7732            0    17118.026    16.625516    19.582662    20.283091    6603.6034    16213.095    18584.635    16556.348   -59.133918    151.71223   -804.06701   -1596.9146 
18905000    286.37802   -3744.7817   -3253.9395   -3744.7817            0    15361.188    16.672015    19.637431    20.339819     6659.166     16502.11    16150.617    13430.837    855.20415    2965.7303    299.60273   -1762.1054 
18906000    276.49996    -3785.952   -3312.0405    -3785.952            0    13174.641    16.659716    19.622945    20.324815    6644.4399    13789.661    11832.395    13901.866   -1287.4248    160.05326   -913.13406    -2035.387 
18907000     291.3579   -3764.9965   -3265.6191   -3764.9965            0    14871.751    16.661112    19.624589    20.326518    6646.1105    13535.929    14222.999    16856.326    113.89956   -440.18235   -116.38462   -1824.1492 
18908000    296.81034   -3765.2481   -3256.5253   -3765.2481            0    17344.389    16.638397    19.597834    20.298806    6618.9646    16369.612    17772.768    17890.787    3053.8546    540.43228   -1496.8394   -1582.2574 
18909000    289.49474   -3719.4387   -3223.2546   -3719.4387            0    16970.594      16.6579    19.620806    20.322599    6642.2675      13799.8    18216.753    18895.228    436.60667    137.46111      -294.99    -1579.302 
18910000    309.36687   -3701.2566   -3171.0124   -3701.2566            0    13766.064    16.692603    19.661681    20.364936    6683.8663    13086.254    14856.274    13355.663   -552.26233    1270.0192   -56.737487   -1829.1332 
18911000    269.35631   -3710.4263   -3248.7588   -3710.4263            0    17782.859    16.667143    19.631692    20.333875    6653.3296    18722.569    19195.392    15430.617   -37.580169   -1470.0355   -265.16567   -1523.2526 
18912000    284.23323   -3725.9564   -3238.7904   -3725.9564            0    13327.952    16.726273     19.70134    20.406014    6724.3939    15022.177    12597.128     12364.55   -1702.7969     1897.777   -1935.4992   -1931.7396 
18913000    300.90395   -3759.8962   -3244.1571   -3759.8962            0    13287.296     16.72997    19.705695    20.410524    6728.8533     15300.49     12390.34    12171.057   -192.41698    -5.802911   -782.07297   -1940.2293 
18914000    287.79935   -3726.0625   -3232.7842   -3726.0625            0    15335.171    16.663467    19.627363    20.329391    6648.9289    16720.784    14474.232    14810.496    489.94072    1073.5589   -1082.2382   -1745.7663 
18915000    290.77802   -3742.7932   -3244.4097   -3742.7932            0    15631.994    16.681289    19.648355    20.351133    6670.2849    16137.248    15305.289    15453.447   -830.25375    442.14184   -1087.2672   -1723.7408 
18916000    293.70578    -3740.509   -3237.1073    -3740.509            0    12262.709    16.728375    19.703817    20.408579    6726.9298    12737.909     12612.88    11437.337   -19.640489    1085.4981    497.49547   -2034.0697 
18917000      283.137   -3774.5271     -3289.24   -3774.5271            0    15053.854     16.67137    19.636672    20.339033    6658.3938    14357.361    14363.923    16440.279    -83.94656    116.83151    370.65191   -1827.4228 
18918000     309.2403   -3739.7286   -3209.7013   -3739.7286            0    15681.957    16.675355    19.641365    20.343894    6663.1693    15479.047    14961.057    16605.768    544.38954    1622.9616   -724.17478   -1685.7994 
18919000    287.87114   -3699.4214   -3206.0201   -3699.4214            0    17038.373    16.715415    19.688551    20.392767    6711.3063    17539.553    17135.199    16440.368    1852.4363   -41.536611   -400.33405   -1538.3464 
18920000    300.61478   -3724.2261   -3208.9827   -3724.2261            0    15028.865    16.702576    19.673428    20.377104    6695.8536    14187.812    16788.141    14110.642    820.73307    1622.6239   -755.77722   -1741.3816 
18921000    282.86896   -3689.7005   -3204.8728   -3689.7005            0    14540.507    16.690651    19.659382    20.362555    6681.5225    14115.756    12964.585    16541.182   -700.82169   -306.50389   -1148.8361   -1787.9999 
18922000     290.3625   -3733.8035   -3236.1321   -3733.8035            0    14870.094    16.690601    19.659323    20.362494    6681.4618    13845.741    13819.455    16945.088    951.85282   -1279.6846   -2586.4758   -1787.1564 
18923000     290.2133   -3753.8576    -3256.442   -3753.8576            0    12722.266    16.741421    19.719183    20.424495    6742.6803    13491.031    11847.714    12828.052   -2058.2449    369.96604   -983.68805    -2005.397 
18924000    291.40029   -3765.2848   -3265.8347   -3765.2848            0    12152.478    16.728644    19.704133    20.408906    6727.2533    14426.817    11174.175    10856.441   -50.953511    313.94893    2131.9267    -2073.554 
18925000    292.39561   -3731.0273   -3229.8712   -3731.0273            0    14984.837     16.68204     19.64924     20.35205    6671.1868    12332.676     15328.09    17293.746   -552.04951    286.69195   -831.64503   -1771.9602 
18926000    296.84541   -3722.8951   -3214.1122   -3722.8951            0    16735.279    16.592361    19.543609    20.242641    6564.1747     17424.39     18628.31    14153.137    1184.9261   -656.34549   -958.12279   -1612.0146 
18927000      308.753    -3725.518   -3196.3259    -3725.518            0    15474.879    16.674818    19.640734     20.34324    6662.5262    17454.406    15283.485    13686.746   -318.51697   -763.21086   -26.389959   -1692.6921 
18928000    310.29107   -3749.9084   -3218.0801   -3749.9084            0    14717.468    16.682779     19.65011    20.352951    6672.0725     13857.01    14012.171    16283.223   -2875.6427     982.9464    152.18015   -1785.9919 
18929000     300.3836   -3763.1148   -3248.2676   -3763.1148            0    11409.604    16.784786    19.770261      20.4774    6795.2121    12031.193     9239.103    12958.517    1034.7809    351.52771   -131.13418   -2117.5621 
18930000    297.48265   -3734.9478   -3225.0727   -3734.9478            0    15118.954    16.659541    19.622738    20.324601      6644.23    13751.708     16280.26    15324.893    2060.6054    1624.0575    1775.9989    -1760.057 
18931000    294.62264   -3724.6307   -3219.6575   -3724.6307            0    15440.915    16.685223    19.652988    20.355933    6675.0052    17174.558    13481.006    15667.181   -516.44179    791.05097    390.88581   -1716.5138 
18932000    318.91981    -3733.926   -3187.3084    -3733.926            0    16915.268     16.65312    19.615176    20.316768    6636.5509    16990.352    17236.755    16518.697   -368.49877    -552.7342    287.30726   -1550.1255 
18933000    307.48427    -3772.197   -3245.1795    -3772.197            0    15288.299    16.632843    19.591291    20.292029    6612.3376     15014.84     15245.86    15604.198   -253.59491    262.17094    459.97631   -1770.8652 
18934000    300.56655   -3769.0508     -3253.89   -3769.0508            0    13019.619    16.663024    19.626841     20.32885     6648.398    13070.787    12837.618    13150.453    2229.7583   -346.73684   -14.556068   -1991.5068 
18935000    299.02047   -3718.9234   -3206.4126   -3718.9234            0    11847.573    16.750762    19.730185    20.435891    6753.9726    11793.119    13212.262    10537.339   -159.04196    15.890009    893.01068   -2039.4294 
18936000     298.4627   -3707.7808    -3196.226   -3707.7808            0    13978.013    16.742692    19.720679    20.426045    6744.2153    14848.745    14564.924     12520.37    1740.3342   -107.32159   -732.38291   -1821.3841 
18937000    276.47784   -3723.8046    -3249.931   -3723.8046            0    13873.915    16.732149    19.708261    20.413182    6731.4829    12625.726    14414.921    14581.096     304.3254   -449.83607    1389.8686   -1887.9042 
18938000    304.92455   -3687.6283    -3164.998   -3687.6283            0    16209.543    16.669248    19.634172    20.336443     6655.851    16662.756    16950.506    15015.367   -1308.7844   -386.84613   -2173.8502   -1591.5578 
18939000    298.27545   -3731.0072   -3219.7732   -3731.0072            0    16536.735    16.631761    19.590017    20.290709    6611.0476    17300.323    15300.849    17009.034    46.355443   -657.96699    1478.1917   -1625.3782 
18940000    307.10184   -3697.1488   -3170.7867   -3697.1488            0    14877.502     16.71987    19.693799    20.398203    6716.6745    16209.493    12343.196    16079.816   -1235.0512   -276.80057   -1974.3853    -1713.449 
18941000    299.87585   -3698.8741   -3184.8971   -3698.8741            0    14077.959    16.747154    19.725935    20.431489    6749.6093    13316.375    14964.363    13953.138   -3339.9878    422.22046    2516.0318   -1799.1174 
18942000    290.45919   -3689.1773   -3191.3402   -3689.1773            0    15041.796    16.700047    19.670449    20.374018    6692.8126    15041.876    15300.749    14782.764    -521.6415    998.76914   -826.28838   -1723.1435 
18943000     305.4733   -3696.6583   -3173.0875   -3696.6583            0    14976.459    16.684871    19.652574    20.355503    6674.5826    14910.899    16357.656    13660.822   -520.40554    1355.1971   -1571.5218   -1715.2499 
18944000    296.39255   -3709.8929   -3201.8863   -3709.8929            0    12553.161    16.792636    19.779507    20.486977    6804.7508    12351.953    10076.066    15231.464    296.42582   -279.96157    1305.8991   -1956.1066 
18945000    289.07717   -3710.8269   -3215.3585   -3710.8269            0     14018.54    16.753733    19.733684    20.439515    6757.5669    14619.974     13376.52    14059.126   -655.93529    498.90034    892.69924   -1833.8008 
18946000    299.73508   -3758.9047    -3245.169   -3758.9047            0    15869.649    16.690801    19.659559    20.362739    6681.7028    16257.668    16501.401    14849.878    1255.2709   -1685.1008   -1200.9949   -1698.7387 
18947000    292.70141   -3736.7156   -3235.0354   -3736.7156            0    13472.954    16.702122    19.672894     20.37655    6695.3083    13477.479    12707.984      14233.4   -111.33284     1447.848    263.59972   -1919.4795 
18948000    297.44523   -3721.5601   -3211.7491   -3721.5601            0    14385.462    16.740238    19.717789    20.423051    6741.2506    15975.325    12350.091    14830.968   -1229.4097    460.01293     1820.883   -1797.4536 
18949000    308.33881   -3726.1044   -3197.6222   -3726.1044            0    16009.004    16.686541    19.654541    20.357541     6676.587     19313.56    14633.205    14080.249   -1341.3132   -1508.0167   -1318.5675   -1638.8066 
18950000    308.50908   -3768.1828   -3239.4088   -3768.1828            0    14067.307    16.671443    19.636757    20.339121    6658.4807    14097.409     14880.78    13223.734    1093.6219    2012.0767   -280.96803   -1873.3732 
18951000     303.2144   -3738.3214   -3218.6223   -3738.3214            0    16201.792    16.660532    19.623906     20.32581     6645.416    16828.223     15140.64    16636.512   -939.38419   -1101.7276    1228.1999   -1648.4002 
18952000    282.63868   -3695.3739   -3210.9408   -3695.3739            0    13539.239    16.686845    19.654899    20.357912    6676.9523    14226.613    13664.023     12727.08   -226.36276    326.34668     -89.9417   -1892.5372 
18953000    302.34112    -3736.233   -3218.0306    -3736.233            0    17633.466    16.585863    19.535956    20.234714    6556.4659    18154.392    18091.594    16654.414    603.11574    399.63292    168.13564   -1531.9304 
18954000    293.67457   -3752.0024   -3248.6542   -3752.0024            0    14219.103      16.6933    19.662502    20.365787    6684.7038    12871.962    15540.254    14245.092   -455.42071    -1125.854   -818.09089   -1862.4403 
18955000    283.22648   -3765.3044   -3279.8639   -3765.3044            0    13625.138      16.6848    19.652491    20.355417    6674.4984    14135.996    14996.845    11742.572    -449.6372    180.30947   -890.29871   -1953.5833 
18956000    285.57919   -3785.0539   -3295.5809   -3785.0539            0    14454.053    16.699695    19.670035    20.373589      6692.39    14982.134    14656.804    13723.221    706.20583    645.13222     742.2127   -1884.8416 
18957000    283.42109   -3751.2998   -3265.5258   -3751.2998            0    12399.117    16.761665    19.743027    20.449192    6767.1697    11508.141    12738.516    12950.694   -744.26799    1035.6126    648.33737   -2041.8293 
18958000    302.15852   -3754.5579   -3236.6686   -3754.5579            0    16566.613    16.700886    19.671438    20.375042    6693.8217    15566.369    16016.207    18117.262   -608.77762    1625.5984    1725.5145    -1619.394 
18959000    296.92601   -3747.7085   -3238.7875   -3747.7085            0    15685.703    16.707749    19.679522    20.383415    6702.0775    17874.672     15676.08    13506.357    1291.6364    253.86086     1877.794   -1705.6209 
18960000    318.90004   -3723.1869   -3176.6031   -3723.1869            0    15577.854    16.688707    19.657092    20.360184    6679.1879    15070.901    16784.174    14878.487    2102.2137    345.41605   -448.63871   -1659.1783 
18961000     298.5814   -3721.6067   -3209.8484   -3721.6067            0    15514.231     16.62154    19.577978     20.27824    6598.8668    14520.438    15899.659    16122.596   -224.60669   -381.46815    810.10986   -1716.7944 
18962000    295.50161   -3681.1551   -3174.6754   -3681.1551            0    17630.598    16.635153    19.594012    20.294847    6615.0931    18487.473    17463.083    16941.238     -1120.96    123.26468   -1456.5007    -1473.775 
18963000    298.86823   -3710.3993   -3198.1494   -3710.3993            0    15630.367    16.694566    19.663994    20.367332    6686.2256    14318.951    14506.843    18065.306    -374.5247    828.18306    1751.9029   -1674.0051 
18964000    284.73328   -3743.2102   -3255.1871   -3743.2102            0     13282.32    16.727324    19.702579    20.407297    6725.6618    13891.832    11714.936    14240.193    -1387.487   -345.88358    344.30328   -1952.3658 
18965000    273.52199   -3793.2744   -3324.4671   -3793.2744            0    15308.912    16.683339    19.650769    20.353634    6672.7446    16266.881    15004.387    14655.467    589.94751   -208.27365   -326.10275   -1834.6783 
18966000    298.39439   -3758.1689   -3246.7311   -3758.1689            0    13396.588    16.702414    19.673237    20.376906    6695.6589    13325.045    14135.796    12728.922   -620.66952   -258.43657     363.4132   -1938.5635 
18967000    295.68353   -3760.3161   -3253.5246   -3760.3161            0    15515.519    16.673839    19.639579    20.342044    6661.3517    15023.624    15891.798    15631.136   -1014.8017    550.06553   -942.77772   -1746.2077 
18968000    280.87696   -3679.3477   -3197.9342   -3679.3477            0    17026.427    16.655908     19.61846    20.320169     6639.885    16021.893    18271.812    16785.575    2.1435258   -1108.1018   -1575.8748   -1549.1646 
18969000    299.71156   -3715.2588   -3201.5634   -3715.2588            0    15825.696    16.699599    19.669922    20.373472    6692.2743    14392.313    17291.328    15793.447    846.97546    -324.9514    224.73125   -1656.9762 
18970000    277.57193   -3715.8695   -3240.1207   -3715.8695            0    16949.783     16.67803    19.644516    20.347157    6666.3761    18239.891     14981.84    17627.618    1442.0055    645.80849    899.46536   -1592.2246 
18971000    292.65324    -3726.883   -3225.2853    -3726.883            0    14905.765    16.679343    19.646063     20.34876    6667.9515    13765.333    14624.893    16327.067   -898.24095   -274.12311   -694.16682   -1775.7708 
18972000    301.50201   -3759.5022    -3242.738   -3759.5022            0    12054.206    16.712655      19.6853      20.3894    6707.9829    12031.791     10410.02    13720.808   -1254.3363   -754.18233   -2084.0031   -2063.4865 
18973000    283.54496   -3722.2789   -3236.2925   -3722.2789            0    15005.574    16.705176    19.676491    20.380276    6698.9812    14426.193    15596.561    14993.967   -633.96753   -475.74645   -355.20891   -1770.2814 
18974000    299.04608   -3732.5871   -3220.0323   -3732.5871            0    14524.117    16.687192    19.655308    20.358335    6677.3686    12321.943    17875.913    13374.495    1930.8292    996.25811      348.953   -1805.6365 
18975000     292.3542   -3746.8219   -3245.7368   -3746.8219            0    16606.365    16.655419    19.617884    20.319572    6639.2999    16343.335    16942.032    16533.729   -1483.3566    1375.0859   -157.28936    -1637.786 
18976000    292.56143   -3752.5823    -3251.142   -3752.5823            0    13771.337    16.720849    19.694951    20.399396    6717.8535    13571.764    13723.039    14019.208   -2020.0958   -740.48414    751.39469   -1901.9228 
18977000    318.00119    -3742.007   -3196.9638    -3742.007            0    12348.062    16.720397    19.694419    20.398845    6717.3088    11230.363    12852.226    12961.598    1837.5064    1409.6865   -1301.6009   -1987.2851 
18978000    289.59015   -3715.9031   -3219.5555   -3715.9031            0    15504.284    16.657449    19.620274    20.322048    6641.7273    17522.844    14875.936    14114.071   -689.25474    793.31442    1620.2842   -1717.7674 
18979000    305.54225   -3760.2769   -3236.5879   -3760.2769            0    12498.845     16.77231    19.755566     20.46218    6780.0714    13932.844    11647.545    11916.145    204.44437    833.61869    779.46381   -2000.6973 
18980000     295.6652   -3725.3398   -3218.5797   -3725.3398            0    12269.678    16.764648    19.746541    20.452831    6770.7832    12834.918    11552.733    12421.382    1464.9613    4.0560695   -322.59486   -2007.0113 
18981000    310.12246   -3736.4818   -3204.9426   -3736.4818            0    14184.587    16.701968    19.672712    20.376362    6695.1227    12982.425    16297.199    13274.138    152.07557    1509.3004    839.20382   -1819.9382 
18982000    288.84311   -3714.3296   -3219.2624   -3714.3296            0    16671.759    16.673679    19.639392     20.34185    6661.1607     17621.14    14162.363    18231.774    468.55983     201.1448    2877.4385   -1599.6644 
18983000    298.96184   -3721.7392   -3209.3288   -3721.7392            0    15324.857    16.718265    19.691907    20.396244    6714.7396    15749.242    15130.893    15094.435    1323.6196   -742.15941   -148.94873   -1708.6026 
18984000    299.30867   -3694.0305   -3181.0257   -3694.0305            0    14891.203    16.697986    19.668022    20.371504    6690.3348    15930.262    13728.793    15014.553     740.8309   -655.94676   -957.44906   -1728.0662 
18985000    293.77732   -3757.7806   -3254.2563   -3757.7806            0    14043.502    16.712828    19.685504    20.389612    6708.1915     12362.59    15170.604    14597.313    1342.1224   -1983.2429   -1720.1752   -1880.3511 
18986000    288.36525   -3726.8676   -3232.6194   -3726.8676            0    14985.784    16.710957      19.6833    20.387329    6705.9388    13796.388    13843.416     17317.55    1019.2875   -2749.5172    1682.4037   -1767.0211 
18987000    308.63672   -3732.9794   -3203.9866   -3732.9794            0    14950.403    16.658474    19.621482    20.323299     6642.954    14333.818    16437.688    14079.701   -1715.6558   -1347.4736    344.51123   -1755.5816 
18988000    297.12959   -3698.3524   -3189.0825   -3698.3524            0    14839.444    16.718746    19.692474    20.396831    6715.3193    16822.866    14099.571    13595.894    566.87097    799.30072   -70.983824   -1735.7661 
18989000    293.09294   -3728.3372   -3225.9859   -3728.3372            0    13628.681    16.707301    19.678993    20.382868    6701.5376    13964.476    14469.542    12452.026    420.51195    1260.4895    1367.6508   -1893.9861 
18990000    296.32797   -3751.2586   -3243.3626   -3751.2586            0    13548.959    16.746433    19.725086    20.430609    6748.7373     12588.62    13867.784    14190.474   -168.73107    1899.8619    1301.8463   -1909.8278 
18991000    289.17232   -3757.7473   -3262.1158   -3757.7473            0    14597.198    16.735212    19.711869    20.416919    6735.1803    13720.636    14619.067     15451.89   -1080.8442    993.48281    1236.8117   -1828.2959 
18992000    301.40159   -3724.9803   -3208.3883   -3724.9803            0    12157.196     16.71679    19.690171    20.394445    6712.9635      13499.1    12956.868     10015.62   -785.02497   -384.13432    261.69666   -2018.1784 
18993000    309.60416   -3728.3423   -3197.6914   -3728.3423            0    13863.003    16.720405    19.694429    20.398856    6717.3194    15279.989    14621.956    11687.064   -2193.3297    75.552208   -2525.0716   -1839.5993 
18994000    309.11407   -3734.4499   -3204.6389   -3734.4499            0    15759.135    16.715573    19.688737     20.39296    6711.4971    14712.689    17344.023    15220.693   -1270.4299    85.598526    590.68504   -1662.1301 
18995000    307.96161   -3704.6707   -3176.8351   -3704.6707            0     16443.89    16.685751    19.653611    20.356577    6675.6392    17763.495    15833.289    15734.886    -1367.335    252.85678    49.298342   -1575.9015 
18996000    292.30711   -3747.6372   -3246.6328   -3747.6372            0    13004.903    16.736524    19.713415    20.418521    6736.7653    16810.368    11189.748    11014.593    270.09235   -570.39875    828.73985   -1968.9166 
18997000    295.54564   -3727.3565   -3220.8014   -3727.3565            0    15428.627     16.64904     19.61037     20.31179    6631.6739    14683.381    16200.474    15402.027    865.45888   -1819.6951    669.35139   -1728.6038 
18998000    307.40875   -3729.3472   -3202.4591   -3729.3472            0    14199.986    16.686521    19.654518    20.357517    6676.5639    14448.086    14506.126    13645.745    38.113353    -64.89789    496.96626   -1819.7947 
18999000     298.6999   -3768.4256   -3256.4642   -3768.4256            0    13384.425    16.718439    19.692113    20.396457    6714.9499    13897.777      10658.5    15596.997   -322.05586   -1694.1591    210.59871   -1945.7187 
19000000    308.94179    -3722.899   -3193.3833    -3722.899            0    15002.827    16.717999    19.691594     20.39592    6714.4195    17852.371    13855.475    13300.634    1903.4471    1060.6195     413.4388   -1724.2627 
Loop time of 535.699 on 64 procs for 250000 steps with 864 atoms

Performance: 80.642 ns/day, 0.298 hours/ns, 466.680 timesteps/s
98.9% CPU use with 64 MPI tasks x 1 OpenMP threads

MPI task timing breakdown:
Section |  min time  |  avg time  |  max time  |%varavg| %total
---------------------------------------------------------------
Pair    | 23.752     | 28.468     | 33.276     |  46.3 |  5.31
Bond    | 0.27508    | 0.28669    | 0.29994    |   0.9 |  0.05
Kspace  | 231.39     | 239.82     | 252.27     |  30.7 | 44.77
Neigh   | 7.8432     | 8.6304     | 10.206     |  23.7 |  1.61
Comm    | 113.11     | 124.47     | 133.19     |  46.0 | 23.24
Output  | 1.2772     | 1.281      | 1.2918     |   0.2 |  0.24
Modify  | 123.72     | 127.84     | 129.68     |  15.0 | 23.86
Other   |            | 4.901      |            |       |  0.91

Nlocal:        13.5000 ave          19 max           9 min
Histogram: 4 3 6 8 8 15 10 4 2 4
Nghost:        2350.66 ave        2393 max        2300 min
Histogram: 2 3 6 2 13 11 13 6 5 3
Neighs:        4587.38 ave        6836 max        2864 min
Histogram: 4 9 6 9 6 15 8 4 2 1

Total # of neighbors = 293592
Ave neighs/atom = 339.80556
Ave special neighs/atom = 2.0000000
Neighbor list builds = 17177
Dangerous builds = 0

unfix		3
unfix		2
unfix		1

write_data	data.final.${pid}
write_data	data.final.0
System init for write_data ...
PPPM initialization ...
  extracting TIP4P info from pair style
  using 12-bit tables for long-range coulomb (../kspace.cpp:340)
  G vector (1/distance) = 0.3755158
  grid = 24 24 24
  stencil order = 5
  estimated absolute RMS force accuracy = 0.0030208151
  estimated relative force accuracy = 9.0970951e-06
  using double precision FFTW3
  3d grid and FFT values/proc = 2535 216
Last active /omp style is kspace_style pppm/tip4p/omp
WARNING: Not all mixed pair coeffs generated from mixing. Use write_data with 'pair ij' option to store all pair coeffs. (../write_data.cpp:312)

write_restart   restart.lmp.${pid}
write_restart   restart.lmp.0
System init for write_restart ...
PPPM initialization ...
  extracting TIP4P info from pair style
  using 12-bit tables for long-range coulomb (../kspace.cpp:340)
  G vector (1/distance) = 0.3755158
  grid = 24 24 24
  stencil order = 5
  estimated absolute RMS force accuracy = 0.0030208151
  estimated relative force accuracy = 9.0970951e-06
  using double precision FFTW3
  3d grid and FFT values/proc = 2535 216
Last active /omp style is kspace_style pppm/tip4p/omp
Total wall time: 0:09:01
