LAMMPS (30 Jul 2021)
Processor partition = 0
  using 4 OpenMP thread(s) per MPI task
using multi-threaded neighbor list subroutines
variable        pid world 0 1
variable        phase world IceII IceIh

shell cd ${phase}
shell cd IceII
include Restart.lmp
echo both
log log.lammps
#include		in.partitions
include		in.temp
variable        temperature equal 72.60
variable	tempDamp equal 100.0
include		in.pressure
variable        pressure equal 2027.4
variable        pressureDamp equal 1000.0 # This is 1 ps
include		in.seed
variable        seed equal 745823

units		real
atom_style	full
box tilt large
read_restart	restart.lmp.${pid}
read_restart	restart.lmp.0
Reading restart file ...
  restart file = 30 Jul 2021, LAMMPS = 30 Jul 2021
  restoring atom style full from restart
  triclinic box = (-10.650720 -9.1702947 0.14665016) to (12.630720 12.160293 21.713349) with tilt (-9.0857587 2.0856586 2.9034592)
  2 by 2 by 4 MPI processor grid
  restoring pair style lj/cut/tip4p/long/omp from restart
  restoring bond style harmonic/omp from restart
  restoring angle style harmonic/omp from restart
  1296 atoms
  864 bonds
  432 angles
Finding 1-2 1-3 1-4 neighbors ...
  special bond factors lj:    0        0        0       
  special bond factors coul:  0        0        0       
     2 = max # of 1-2 neighbors
     1 = max # of 1-3 neighbors
     1 = max # of 1-4 neighbors
     2 = max # of special neighbors
  special bonds CPU = 0.001 seconds
  read_restart CPU = 0.005 seconds
include 	in.setup
variable	out_freq equal 1000
variable	out_freq2 equal 10000
variable	out_freq3 equal 1000

timestep	2.0

neigh_modify    delay 7 every 1

include		in.tip4p
# This is TIP4P/Ice

# create groups ###
group ox type 2
432 atoms in group ox
group hy type 1
864 atoms in group hy

# set charges - beside manually ###
set group ox charge -1.1794
Setting atom values ...
  432 settings made for charge
set group hy charge 0.5897
Setting atom values ...
  864 settings made for charge

# ### TIP3P Potential Parameters ###
pair_style lj/cut/tip4p/long/omp 2 1 1 1 0.1577 8.5
pair_coeff 1 1*2 0.000 0.000
pair_coeff 2 2 0.21084 3.1668
bond_style  harmonic
bond_coeff  1 450 0.9572
angle_style harmonic
angle_coeff 1 55 104.52
kspace_style pppm/tip4p/omp 1.0e-5
pair_modify tail yes

thermo          ${out_freq}
thermo          1000
thermo_style    custom step temp pe etotal epair emol press lx ly lz vol pxx pyy pzz pxy pxz pyz enthalpy

restart 	${out_freq3} restart.lmp.${pid} restart2.lmp.${pid}
restart 	1000 restart.lmp.${pid} restart2.lmp.${pid}
restart 	1000 restart.lmp.0 restart2.lmp.${pid}
restart 	1000 restart.lmp.0 restart2.lmp.0


include         in.dump
dump            myDump all atom ${out_freq2} dump.water.${pid}
dump            myDump all atom 10000 dump.water.${pid}
dump            myDump all atom 10000 dump.water.0
dump            myDump2 all dcd ${out_freq2} dump.dcd
dump            myDump2 all dcd 10000 dump.dcd
dump_modify     myDump append yes
dump_modify     myDump2 append yes


variable natoms 	equal  "count(all)"                        # NUMBER ATOMS
variable H      	equal  "enthalpy/v_natoms"                 # ENTHALPY-per-atom
variable Vol      	equal  "vol/v_natoms"                 # volume-per-atom
fix AVG all 		ave/time ${out_freq} 1 ${out_freq} v_Vol v_H file vol_enthalpy.dat
fix AVG all 		ave/time 1000 1 ${out_freq} v_Vol v_H file vol_enthalpy.dat
fix AVG all 		ave/time 1000 1 1000 v_Vol v_H file vol_enthalpy.dat


timer           timeout 10:00:00 every 1000
New timer settings: style=normal  mode=nosync  timeout=10:00:00

fix 		1 all shake 1e-6 200 0 b 1 a 1
Finding SHAKE clusters ...
       0 = # of size 2 clusters
       0 = # of size 3 clusters
       0 = # of size 4 clusters
     432 = # of frozen angles
  find clusters CPU = 0.000 seconds
fix             2 all nph tri ${pressure} ${pressure} ${pressureDamp}
fix             2 all nph tri 2027.4 ${pressure} ${pressureDamp}
fix             2 all nph tri 2027.4 2027.4 ${pressureDamp}
fix             2 all nph tri 2027.4 2027.4 1000
fix             3 all temp/csvr ${temperature} ${temperature} ${tempDamp} ${seed}
fix             3 all temp/csvr 72.6 ${temperature} ${tempDamp} ${seed}
fix             3 all temp/csvr 72.6 72.6 ${tempDamp} ${seed}
fix             3 all temp/csvr 72.6 72.6 100 ${seed}
fix             3 all temp/csvr 72.6 72.6 100 745823


run             250000
PPPM initialization ...
  extracting TIP4P info from pair style
  using 12-bit tables for long-range coulomb (../kspace.cpp:340)
  G vector (1/distance) = 0.36657987
  grid = 30 40 32
  stencil order = 5
  estimated absolute RMS force accuracy = 0.0047336905
  estimated relative force accuracy = 1.4255368e-05
  using double precision FFTW3
  3d grid and FFT values/proc = 11832 2400
Last active /omp style is kspace_style pppm/tip4p/omp
Neighbor list info ...
  update every 1 steps, delay 7 steps, check yes
  max neighbors/atom: 2000, page size: 100000
  master list distance cutoff = 10.8154
  ghost atom cutoff = 10.8154
  binsize = 5.4077, bins = 7 5 4
  1 neighbor lists, perpetual/occasional/extra = 1 0 0
  (1) pair lj/cut/tip4p/long/omp, perpetual
      attributes: half, newton on, omp
      pair build: half/bin/newton/tri/omp
      stencil: half/bin/3d/tri
      bin: standard
Setting up Verlet run ...
  Unit style    : real
  Current step  : 33750000
  Time step     : 2
  Walltime left : 9:59:59.97
Per MPI rank memory allocation (min/avg/max) = 12.76 | 12.77 | 12.77 Mbytes
Step Temp PotEng TotEng E_pair E_mol Press Lx Ly Lz Volume Pxx Pyy Pzz Pxy Pxz Pyz Enthalpy 
33750000    74.557464   -6824.2199   -6632.4254   -6824.2199            0    2352.0058     23.28144    21.330587    21.566699    10710.169    1726.7019    2523.9241    2805.3915     29.21859   -531.12327   -220.72794   -6265.0495 
33751000    70.587799      -6829.5   -6647.9172      -6829.5            0    2114.1213    23.172605    21.408469    21.603601    10717.331    2365.9816    1656.7611    2319.6211   -25.078592     133.6017    417.29464   -6317.4773 
33752000    73.982271   -6835.2934   -6644.9785   -6835.2934            0    2646.8151    23.159352    21.293805    21.690278    10696.576     2452.544    2686.6695    2801.2318    333.49673   -51.177941    633.97237    -6232.079 
33753000    73.150001   -6835.6807   -6647.5068   -6835.6807            0     2167.806    23.230744    21.246396    21.681212    10701.187    2667.9632    1782.8954    2052.5593   -844.36843   -109.95285    380.13001   -6309.1863 
33754000    70.156888   -6838.8467   -6658.3724   -6838.8467            0    1844.1677    23.104217    21.457738    21.611948    10714.431    1778.6645    1689.8751    2063.9635    24.499766    16.046462   -55.118601   -6370.2046 
33755000    72.485442   -6836.0053   -6649.5409   -6836.0053            0    1701.7468    23.214043    21.367656    21.607906    10718.163    1706.7199    1392.4855     2006.035     550.2426   -375.91407   -357.56185    -6383.535 
33756000    73.472316   -6829.0814   -6640.0783   -6829.0814            0    1621.0938    23.370494    21.201008    21.635765    10720.046    1290.8125    1006.5789      2565.89   -128.18997    78.414011    700.47946   -6386.6351 
33757000    72.194207   -6839.0885   -6653.3733   -6839.0885            0    1688.5955    23.171221     21.42528    21.609879    10728.222    1675.8707    1670.7694    1719.1466    307.22237    723.02751    350.36548   -6389.1755 
33758000    71.998232   -6827.8531    -6642.642   -6827.8531            0    2470.0412    23.194693    21.339856    21.614216    10698.419    3000.6517    2258.3039    2151.1679    53.790295    117.99691   -795.12221   -6257.2527 
33759000    76.461551   -6832.9304   -6636.2377   -6832.9304            0    1536.5559    23.319073    21.193522    21.731759    10740.124    799.42579    2887.2898    922.95205   -135.76316    211.36653   -263.48106   -6395.5612 
33760000    74.148654   -6836.5868   -6645.8439   -6836.5868            0    1344.3051    23.146525    21.409331    21.690308    10748.667    1679.6006    861.33949    1491.9751    201.74763    121.56038    57.194493   -6435.1129 
33761000    71.948497   -6834.3022   -6649.2191   -6834.3022            0    1237.9426    23.174825    21.408663    21.672866    10752.819    1510.5656     971.4974    1231.7647    290.55669    -23.75237    152.55128   -6455.0864 
33762000    76.116147   -6831.2664   -6635.4623   -6831.2664            0    1681.0425    23.337477    21.248005    21.652525    10736.942    1409.1969     2434.628    1199.3025   -726.05956   -5.8678559     42.05461   -6372.2324 
33763000     75.14792   -6834.3238   -6641.0104   -6834.3238            0    1719.6633    23.164886    21.396457    21.630302    10720.983    1758.5716    1490.2507    1910.1676    219.71355   -145.88767   -176.81238   -6372.1332 
33764000    72.745278    -6842.345   -6655.2122    -6842.345            0    1761.3877     23.04669    21.452761    21.679675     10718.76    1999.6497    1363.5727    1920.9407    484.15764    465.37718    571.89826   -6379.8683 
33765000    73.080144   -6833.3785   -6645.3842   -6833.3785            0    2803.3421    23.292015    21.215809    21.633618    10690.446    2413.3991    3098.6642    2897.9631   -327.08159   -66.738129   -114.04167   -6208.3175 
33766000    73.648216   -6836.0106    -6646.555   -6836.0106            0    2529.9935    23.209147    21.330599    21.583428    10685.199    2376.1353    2796.4288    2417.4163   -71.007543     431.6208   -277.54425   -6252.2994 
33767000    75.824359   -6840.8834   -6645.8298   -6840.8834            0    2775.9967    23.085769    21.463424     21.53685    10671.502    3353.4618    1923.6209    3050.9075     193.3548   -382.01201   -40.172184   -6213.7934 
33768000    71.340782   -6842.1115   -6658.5917   -6842.1115            0    1843.3172    23.321197    21.235056    21.644584    10718.981    1279.8162    2110.8395    2139.2959    571.54693   -1372.7516    330.62099   -6370.4345 
33769000    72.783674   -6839.4224   -6652.1908   -6839.4224            0    1580.4271    23.204457    21.341909    21.702189    10747.518    1659.3132    1482.9132     1599.055   -559.19312   -536.49589   -155.30814   -6404.4723 
33770000    73.449648   -6841.1318   -6652.1871   -6841.1318            0    1602.7047    23.084436    21.432993    21.683818    10728.472    2640.5553    1320.3158    847.24299   -238.39117   -443.43483    287.98329   -6401.4219 
33771000    70.667921   -6839.5957   -6657.8068   -6839.5957            0    2252.4189    23.251109    21.216123    21.720205    10714.542    1956.3193     2633.569    2167.3684   -367.92853   -193.04524    259.03616   -6305.8425 
33772000    70.889141   -6826.7244   -6644.3664   -6826.7244            0    1868.6098    23.304239    21.287063    21.617145    10723.807    1142.0769    2290.4294    2173.3231    712.02979   -263.11744   -356.96785   -6352.1238 
33773000    72.031261   -6836.6103   -6651.3142   -6836.6103            0     2190.051     23.13862    21.412671    21.577292    10690.678    2883.7301    1173.9339    2512.4889   -136.52492    125.80889    611.34728   -6309.8578 
33774000    76.009918   -6821.2951   -6625.7642   -6821.2951            0    2861.6942    23.219009    21.284453    21.597664     10673.65     2610.347     3505.963    2468.7726   -7.0755911   -353.37369    9.3138257   -6180.3008 
33775000    75.128872   -6829.8472   -6636.5828   -6829.8472            0    2757.0271    23.291504    21.192143    21.631354    10677.169    2804.3742    2562.3484    2904.3586   -405.02714   -391.26076    505.37856   -6207.2708 
33776000    74.332892   -6830.1789   -6638.9621   -6830.1789            0    2213.3403    23.134009    21.399508    21.620366    10703.301    2463.1886    1475.6462    2701.1862   -293.43363    309.19365   -149.83789    -6293.467 
33777000     74.02843   -6833.5605   -6643.1269   -6833.5605            0     2035.915    23.163131    21.423999    21.616346    10727.045    1744.0332    1618.5759    2745.1358   -312.90175    320.86835   -145.87547   -6324.6224 
33778000    68.755337   -6834.8169    -6657.948   -6834.8169            0    1859.4368    23.298646    21.206104    21.710188    10726.428    1321.6809    2930.1162    1326.5132    -191.4507    505.38404    -477.7834   -6367.0689 
33779000    71.296943   -6839.9284   -6656.5214   -6839.9284            0    1811.4317    23.187263    21.317449    21.708487     10730.36    1751.8551    2575.8283    1106.6118    862.71478    602.78237   -267.53685   -6373.0481 
33780000    74.283064   -6829.9796   -6638.8909   -6829.9796            0    2029.5555    23.110736    21.494646    21.568702    10714.406    2393.0183    618.09244    3077.5557    708.68763    232.33205    699.34271   -6321.7554 
33781000     73.81338   -6828.1024    -6638.222   -6828.1024            0    2882.5404    23.255807    21.284632    21.567018    10675.487    2767.8594    2861.7386    3018.0233   -758.22852    181.15554   -454.87369   -6189.4363 
33782000    73.784225   -6831.6994    -6641.894   -6831.6994            0    2503.9072    23.251612    21.303917    21.573977    10686.679    2025.4239    3409.6008     2076.697   -477.67554    207.87737   -680.44323   -6251.6494 
33783000    73.033646   -6832.7827   -6644.9081   -6832.7827            0    2969.6076    23.093613    21.370086    21.624392    10671.908    3336.6786    2968.2248    2603.9193    417.59027    75.516831    246.45409   -6182.7219 
33784000    74.490573   -6843.0643   -6651.4419   -6843.0643            0    2573.1607    23.234584    21.244053    21.644137    10683.476    2128.5476    2933.0341    2657.9004   -138.73802    118.69259    952.60162    -6250.524 
33785000    67.780864   -6831.0101    -6656.648   -6831.0101            0    2021.6138    23.218833    21.325107    21.647751    10718.756    2225.5489     1772.653    2066.6395   -834.42195   -184.77569    198.34703   -6340.6251 
33786000    69.739408   -6831.6051   -6652.2048   -6831.6051            0    1818.3585    23.178394    21.439144    21.587191    10727.213     2367.239    1408.1377     1679.699    48.549185   -137.90277   -758.26916   -6367.7309 
33787000    73.698196   -6835.7131    -6646.129   -6835.7131            0    1937.4161     23.32777    21.302774    21.566206    10717.244    933.63266     2289.274    2589.3415    108.65196    292.14201   -320.64838   -6343.3108 
33788000    75.045646   -6840.2554    -6647.205   -6840.2554            0    1477.2755    23.271992    21.257177    21.679698    10724.878    941.30794    1202.4733    2288.0453    574.43856    178.82928    749.62989   -6416.1424 
33789000    71.625469   -6829.4039   -6645.1518   -6829.4039            0    2491.8982    23.135152    21.360749    21.645726    10696.975     2485.018    2846.4928    2144.1838    468.04461   -1.0424357    -371.9893   -6256.4047 
33790000    73.366224    -6840.912   -6652.1818    -6840.912            0    2154.5364    23.219724    21.275082    21.672286    10706.142    2550.2376      2373.88    1539.4916    -150.5082   -775.21687   -728.34524   -6315.7766 
33791000    72.786923   -6839.5654   -6652.3255   -6839.5654            0    2146.0366    23.184029    21.305208    21.677352    10707.324    2200.1719    1991.3764    2246.5616   -12.715911   -74.838239    70.980818   -6317.2104 
33792000     72.56406   -6836.5315   -6649.8649   -6836.5315            0    1731.4304    23.115608    21.405867    21.650825    10713.037     1740.652    2388.1052    1065.5341     390.5805    -21.06457    287.01036   -6379.3486 
33793000    75.671304   -6837.8353   -6643.1755   -6837.8353            0    2216.5091    23.246703    21.318698    21.584566    10697.083     2277.218    2256.6792    2115.6302   -36.754581   -271.84303   -104.80735   -6297.3868 
33794000    73.933256   -6835.2335   -6645.0447   -6835.2335            0    2037.2797    23.323633    21.293217    21.569352    10712.099     1333.776    2165.7903    2612.2728    626.88912    31.534211   -334.72719   -6326.7707 
33795000    69.255541    -6845.482   -6667.3264    -6845.482            0     1503.641    23.098012    21.508487    21.583268    10722.638    1905.9525     917.4464    1687.5242   -147.36902    416.11795    323.80234    -6432.189 
33796000    76.211039    -6842.394   -6646.3457    -6842.394            0      1420.68    23.184924    21.319427     21.72418    10738.029     1742.476    1848.3853    671.17878    -616.1515    391.19655    13.104428   -6423.8628 
33797000    69.245549   -6835.2199   -6657.0899   -6835.2199            0    1342.0812    23.282252    21.283588    21.702804    10754.387    1072.4323    1526.7108    1427.1004    356.38439   -229.98538   -25.020465   -6446.5956 
33798000    75.412611   -6837.2251   -6643.2307   -6837.2251            0    1398.5017    23.171711    21.422112    21.654123    10748.825    1543.5387    1780.4301    871.53631    541.31847    111.62504   -499.18516   -6424.0008 
33799000    75.113316   -6835.2913   -6642.0669   -6835.2913            0    1373.8062    23.213244    21.367018    21.648761    10737.738    1847.8011    777.97886    1495.6386    242.59641     274.2108    851.69275   -6426.9304 
33800000    73.869756   -6838.4804   -6648.4549   -6838.4804            0    1644.8985    23.350602    21.225271    21.642197    10726.367    843.66453    2016.5243    2074.5067    350.36405     329.6034    156.70334   -6391.1384 
33801000    74.933822   -6835.4314   -6642.6687   -6835.4314            0    1763.3953    23.177924    21.418638    21.583598    10714.952    1886.3813    1905.0405    1498.7643   -578.86221    390.56558    -678.3715   -6367.1089 
33802000    71.864895   -6837.7075   -6652.8395   -6837.7075            0    1776.4833    23.175365    21.445195     21.55623    10713.451    1747.4216    1225.6074    2356.4207    471.86266   -130.36819   -768.36487   -6375.2734 
33803000    73.325434   -6840.6595   -6652.0343   -6840.6595            0    1749.5574    23.267513    21.220144    21.678598     10703.59    1529.2143    2583.1347    1136.3232    366.67418    242.63687    16.018803   -6378.9268 
33804000    75.240501   -6835.6364   -6642.0848   -6835.6364            0    1991.9377    23.214608    21.281249     21.66666    10704.107    1616.0735    2271.2216    2088.5179    448.82454    1026.5286    630.70943   -6331.1266 
33805000    75.186646   -6836.7247   -6643.3116   -6836.7247            0     2062.079    23.143978    21.446279    21.573079    10707.845    2810.5566     1585.296    1790.3845   -306.11409   -133.41032   -667.99647   -6321.2913 
33806000    73.381636   -6824.8873   -6636.1175   -6824.8873            0    2159.7177     23.23942    21.333036    21.618594    10717.794    2437.5497    1671.2743     2370.329    160.75263   -710.26835    39.487038   -6298.5363 
33807000    71.409204   -6829.1507   -6645.4549   -6829.1507            0    2371.0783    23.196374    21.289394     21.66822    10700.563    2240.0109    2467.3993    2405.8247   -12.778792   -189.74436    466.49608   -6275.4321 
33808000    72.945503   -6836.1165   -6648.4687   -6836.1165            0    2498.1482    23.110625    21.359697    21.663591    10693.928    2469.4164    2885.3011     2139.727   -316.92847    441.34193    769.26459   -6258.8576 
33809000    72.542537   -6835.3356   -6648.7243   -6835.3356            0     1450.179    23.243989    21.389801     21.62015    10749.199    1562.1259    1528.0739    1260.3373   -217.21694   -37.801646   -189.84011   -6421.3855 
33810000    71.285823   -6843.0324    -6659.654   -6843.0324            0    1247.0964    23.340423    21.255436     21.64714    10739.381    1228.1632    1083.3881    1429.7378   -254.27639    -304.4951    125.09866   -6464.3302 
33811000    71.874799   -6834.3043   -6649.4108   -6834.3043            0    1800.8967    23.132748    21.374554    21.692598    10725.952    2377.8758    1418.2916    1606.5228    395.98602   -324.73768    95.364317   -6367.7019 
33812000    73.798439   -6833.5961   -6643.7541   -6833.5961            0    1958.0785    23.129192    21.354066    21.696599        10716    2379.5143    1961.2466    1533.4745   -300.01489    192.27939   -120.29907   -6337.7419 
33813000    73.946056    -6826.451   -6636.2292    -6826.451            0    1758.7682    23.357287    21.214589    21.672647    10739.127    784.92599    2706.5026    1784.8761    345.90306    284.04976   -544.51475   -6360.7725 
33814000    70.531478   -6832.8041   -6651.3662   -6832.8041            0    1870.3916    23.162746    21.417607    21.607343    10719.199     2913.387    1191.5095    1506.2782   -174.87622   -231.80985   -380.30982   -6358.9707 
33815000    70.291248   -6844.2696   -6663.4496   -6844.2696            0    2215.8802    23.216561      21.3687    21.590607    10711.267     2111.448    2066.9313    2469.2612    567.20422   -203.65914   -209.33202   -6317.3007 
33816000    74.364746   -6828.8963   -6637.5975   -6828.8963            0    2240.6785    23.420128    21.119133    21.661815    10714.211    1569.8171    2700.3235    2451.8949     788.8866    823.17928    722.69648   -6287.4785 
33817000    68.100509   -6834.5227   -6659.3383   -6834.5227            0    2509.4099    23.145911     21.36469    21.614595     10688.53     2538.783    3138.3612    1851.0856    475.99694   -386.23641    105.53198   -6268.1683 
33818000    70.761435   -6838.4927   -6656.4632   -6838.4927            0    2354.4201    23.157327    21.422182    21.591388    10711.066    2825.5327       1948.5    2289.2276    402.74082   -831.06147   -153.10131   -6288.6794 
33819000    68.047149   -6838.0941   -6663.0469   -6838.0941            0    1742.1732    23.316415    21.207959    21.693369    10727.232     1660.492    1991.3463    1574.6812   -437.00735   -119.39504    79.128966   -6390.4915 
33820000    68.392683   -6826.6382   -6650.7021   -6826.6382            0    2781.6976    23.131238    21.343611    21.644385    10685.922     2268.728    3306.6731    2769.6918    82.040385    58.721749    156.87862   -6217.1934 
33821000    72.014051   -6832.2613   -6647.0096   -6832.2613            0    2567.0361    23.058873    21.402722    21.654897    10687.182    3454.3257    1711.9506     2534.832    580.59981   -378.25075    99.814874   -6246.9072 
33822000      75.9446   -6824.8071   -6629.4442   -6824.8071            0    2870.3585    23.348097    21.137586    21.653784    10686.627    2072.9346    3563.7874    2974.3534   -1091.9858    86.842948   -13.594455   -6182.0888 
33823000    72.004044   -6842.1018   -6656.8758   -6842.1018            0    1677.0496    23.245781     21.37972     21.57853    10724.277    2128.1123     851.0029    2052.0337   -433.46441   -316.99394    280.42297   -6394.5809 
33824000    72.252214   -6834.5041   -6648.6397   -6834.5041            0    2232.7222     23.13295     21.39436    21.617773    10698.953    2384.2648    2692.4522    1621.4497     178.6096    19.783453   -315.55546   -6300.2608 
33825000    72.412721   -6836.1573     -6649.88   -6836.1573            0    1889.6906    23.279067    21.275342    21.652425    10723.799    1616.8798    1931.8527    2120.3394    481.72864   -125.24697    753.95049   -6354.3407 
33826000    73.382484   -6838.0638   -6649.2918   -6838.0638            0    1412.0657     23.31578    21.266235    21.645283    10732.572    584.52041    1742.4064    1909.2704    109.07699     239.3147    534.39746   -6428.2703 
33827000    71.576994   -6839.7789   -6655.6514   -6839.7789            0    2044.6981    23.165483    21.396805    21.627696    10720.143    1736.6035    1658.5338    2738.9569    636.95307   -267.91916   -476.17677   -6335.9787 
33828000    74.161806   -6827.3472   -6636.5704   -6827.3472            0    1668.3145    23.152762    21.402495    21.680083    10743.064    2171.8121    1308.4125    1524.7189    -117.9058   -102.85115   -1028.9364   -6375.1847 
33829000    69.233957   -6832.3038   -6654.2037   -6832.3038            0    2443.2354    23.222137    21.237615    21.702504    10703.302    2606.0235    2834.7763    1888.9065   -90.584372   -659.62771    37.249958   -6272.8227 
33830000    78.243965   -6838.4975   -6637.2196   -6838.4975            0    2477.4534    23.119771    21.311349    21.720622    10702.044     2925.266    2677.7894    1829.3048    328.78585    78.130861    244.76682   -6250.5428 
33831000    71.162984     -6838.69   -6655.6276     -6838.69            0    1882.0956    23.102126    21.423592    21.639485    10710.042    2564.4082    1615.3736     1466.505    627.76845   -145.76308    15.469601   -6361.6537 
33832000    73.991379   -6841.8482   -6651.5099   -6841.8482            0    2157.5455    23.294973    21.272873    21.573965        10691    1714.0666    2506.1974    2252.3724   -161.81531   -99.222767   -713.52847   -6315.1113 
33833000    72.838186   -6837.1586   -6649.7868   -6837.1586            0    1834.1645    23.253349    21.332793    21.600293    10715.017    2176.9303     1911.451    1414.1122    276.12013    35.087226   -613.59302   -6363.1664 
33834000    76.496818   -6830.7014    -6633.918   -6830.7014            0    1997.4129    23.137855    21.407081    21.642357    10719.761    1644.8595    2003.0222     2344.357      769.165    712.81554    153.32889   -6321.6491 
33835000    72.820621   -6838.7313   -6651.4047   -6838.7313            0     1653.207    23.211811    21.279487    21.708784    10722.738    2222.2254    1411.9617    1325.4338   -423.25303    587.92053   -68.442864    -6392.876 
33836000      71.9738   -6838.5197   -6653.3715   -6838.5197            0    1844.6418    23.180069    21.296586    21.688351    10706.592    1940.8305    2367.8599    1225.2349    586.14652   -232.38353   -63.582976   -6365.3405 
33837000    70.301557   -6837.9156   -6657.0691   -6837.9156            0    1393.0611    23.107926    21.473193    21.656925    10746.187    2271.9923    1261.6441    645.54703    185.30824    60.876851   -638.59657   -6438.7456 
33838000    73.026924   -6834.7301   -6646.8728   -6834.7301            0    1270.4259    23.281207    21.338282    21.625844    10743.307    1139.3482    1071.1733    1600.7562   -223.56207   -131.97483   -77.685003   -6447.8223 
33839000    69.071872   -6841.0186   -6663.3354   -6841.0186            0    1225.6439    23.262273    21.355791    21.623146    10742.038   -62.839553    1834.2144    1905.5568    171.68084      604.009    97.729122   -6471.3241 
33840000    69.725391   -6832.5161   -6653.1518   -6832.5161            0    1342.0646    23.197073    21.455125    21.566911    10733.768    1556.0819    714.90799     1755.204    799.22081    -222.2911    427.67169   -6443.0636 
33841000    71.094834   -6841.1299   -6658.2428   -6841.1299            0    2264.7027    23.252777    21.283527    21.604906    10692.292    2184.9759    2938.8305    1670.3018   -603.85337   -320.04888   -357.72245   -6305.0938 
33842000    71.957977   -6833.5503   -6648.4428   -6833.5503            0    2332.2847    23.237167    21.286169     21.63785    10702.735    2333.4396    2054.5147    2608.8997   -391.48613    87.224865    165.28195   -6284.4002 
33843000    73.796189     -6839.33   -6649.4938     -6839.33            0    2263.7436    23.076147    21.459527    21.596982    10694.895    2745.8299    1598.2126    2447.1881    108.05552   -189.99839   -763.30622   -6296.4085 
33844000    74.639815   -6838.7255   -6646.7191   -6838.7255            0    2165.7885    23.196135    21.291594    21.669404    10702.144    2170.3667    2239.1667    2087.8323    286.83235   -318.26357    98.159456   -6308.6833 
33845000    69.643872   -6841.4935   -6662.3389   -6841.4935            0    1882.2953    23.258781    21.243976    21.678373    10711.479    1840.6352    1888.2765    1917.9741   -15.711329   -465.54026    294.63482   -6368.2944 
33846000    72.418494   -6825.7059   -6639.4137   -6825.7059            0    1754.9817    23.079227     21.50677    21.610476    10726.568    2709.3103    706.08754    1849.5474    216.46995    91.452631    107.62748   -6364.8714 
33847000    71.339474   -6833.2262   -6649.7097   -6833.2262            0    2081.5126     23.19308    21.332869    21.661915    10717.773    2428.3508    1472.2386    2343.9484   -219.53184   -170.94684     116.1082   -6324.3532 
33848000    68.180597   -6835.7923   -6660.4019   -6835.7923            0    1745.3333    23.311465    21.275692    21.636565    10731.034    1194.4727    1660.8132    2380.7142    54.368932    356.47188     509.0564   -6387.2552 
33849000    75.404178   -6840.6499   -6646.6772   -6840.6499            0    1702.8566    23.206572    21.415995    21.571027    10720.624    1779.4761     855.3495    2473.7443    341.81473    471.82022    731.80656   -6380.4368 
33850000     71.87405   -6840.8339   -6655.9423   -6840.8339            0    1468.6888    23.274828    21.338052    21.621834    10738.256    2055.3364    567.48606    1783.2439   -97.007941   -69.453863   -314.70541   -6425.9362 
33851000    70.810519    -6841.904   -6659.7483    -6841.904            0    1639.9629    23.276529    21.292351    21.670309    10740.065    1498.9814    2088.6503    1332.2569    216.15334    491.35841   -242.30091   -6402.8763 
33852000    72.132039   -6835.9007   -6650.3454   -6835.9007            0    2288.5952    23.155172    21.310477    21.682943    10699.399    2828.7054    1825.7652    2211.3149    238.56307   -169.84101    392.04826   -6293.2336 
33853000    75.145871   -6831.9015   -6638.5933   -6831.9015            0    2534.4752    23.133369    21.293495    21.712751     10695.49    2590.3475    2920.5464    2092.5317   -382.56407    363.41367    36.933287   -6243.2589 
33854000    73.818393   -6835.9868   -6646.0935   -6835.9868            0     2178.369    23.191863    21.313963    21.667258    10710.353    2544.7909    2152.1792    1838.1369   -290.22832    409.07881   -762.39013   -6305.8333 
33855000     73.48875   -6832.4812   -6643.4359   -6832.4812            0    1676.4035    23.250666    21.277765    21.675131    10723.169     1378.784    2369.4343    1280.9922    524.71284     592.6119    22.437878   -6381.2691 
33856000    68.217664   -6829.5641   -6654.0783   -6829.5641            0     1455.526     23.20378     21.36843    21.648654    10734.016    1586.6674    1375.3552    1404.5556   -330.20116    348.65751     86.81571   -6426.2236 
33857000    73.104813   -6841.3331   -6653.2754   -6841.3331            0    1547.2377    23.248351    21.346391    21.615796    10727.236    1012.7708    1504.3273     2124.615    578.32116    245.01211    82.334144   -6411.2167 
33858000     71.28194   -6835.2092   -6651.8408   -6835.2092            0    1418.9403    23.255192    21.301509    21.677203     10738.25    923.40915    1758.3819    1575.0299    139.35878   -328.06136   -174.77574   -6429.6257 
33859000     71.16775   -6838.3338   -6655.2591   -6838.3338            0    2126.7715    23.191001    21.325875    21.646184    10705.518    2552.7791    2404.7072    1422.8282    339.60676   -414.83343     161.0647   -6323.2084 
33860000    73.028575   -6842.7971   -6654.9356   -6842.7971            0    1889.7428    23.179982    21.359456    21.628705    10708.627    2104.5895    2267.9333    1296.7057    265.37233   -479.08605   -160.04789   -6359.8062 
33861000    72.187866   -6832.7654   -6647.0665   -6832.7654            0    1709.2145     23.24958    21.346583    21.579957    10710.113    999.12592    2138.7061    1989.8115   -40.037197   -858.07706    334.63575    -6380.094 
33862000    75.397108   -6839.1362   -6645.1818   -6839.1362            0    1879.1231    23.271442    21.324956    21.588313     10713.47    1334.7952    2158.6064    2143.9677   -372.26645    43.578555     18.49751   -6351.5782 
33863000    70.750764   -6829.3543   -6647.3522   -6829.3543            0    1465.4639    23.197009    21.388449     21.64862     10740.92    2100.7442    1081.9918    1213.6556    336.33648   -969.24357   -56.486045   -6417.7942 
33864000    75.174662   -6838.3958   -6645.0135   -6838.3958            0     1164.343     23.19479    21.371586     21.68873    10751.308    1401.3769    1682.3076    409.34436   -337.47989   -775.01509   -548.28368   -6462.4483 
33865000    75.926107   -6842.6841   -6647.3688   -6842.6841            0    1456.8175    23.213302    21.313028    21.706231    10739.066    2094.0615    1170.5082    1105.8828   -560.81204   -7.7070588    199.64806   -6419.2046 
33866000    70.076315   -6842.6004   -6662.3333   -6842.6004            0    1947.1354    23.123198    21.386843    21.670644    10716.831    2730.3726    1422.7505    1688.2832    402.64618   -319.60335   -350.24131   -6358.0078 
33867000    67.927107   -6842.2175   -6667.4792   -6842.2175            0    2610.5661    23.188341    21.277702    21.648211    10681.111    2498.7491     2901.989    2430.9601    540.79136    304.06967    458.32723   -6260.8233 
33868000     71.47873   -6839.5191   -6655.6444   -6839.5191            0    2489.1062     23.25777    21.284192    21.581382    10683.277    3112.0368    1624.6784    2730.6033   -460.86931    226.07205   -218.52655   -6267.8301 
33869000    71.835492   -6836.9525   -6652.1601   -6836.9525            0    2024.9246    23.188759    21.424205     21.55251    10707.302    1831.9574    2269.5666    1973.2497    177.29892   -84.077964   -717.60331   -6335.9579 
33870000    72.148076   -6835.6901   -6650.0935   -6835.6901            0     1957.629    23.232492    21.323477    21.635375    10718.111    2625.2333    1106.5668    2141.0868    -174.1803   -314.05687    114.44733   -6344.0914 
33871000    71.202291   -6833.7517   -6650.5881   -6833.7517            0    2644.6158    23.194746     21.23622    21.708231    10692.796    2577.9343    3310.8086    2045.1045    -368.5653    380.16665    797.02246   -6238.1776 
33872000    74.461435   -6829.1612   -6637.6137   -6829.1612            0    1922.6808    23.105622    21.371105    21.713924    10722.177    2413.1761    2052.7878    1302.0784    122.50399    259.55095    -237.9625   -6336.9604 
33873000    71.038071   -6836.4544   -6653.7133   -6836.4544            0    1084.4979     23.25088    21.390041    21.643511    10764.125    1381.1277    838.52985    1033.8362    -220.8006   -427.84001   -1244.4378   -6483.4647 
33874000    72.959715   -6833.5151   -6645.8307   -6833.5151            0    1752.7568     23.24026    21.336285    21.655804    10738.264    1795.1256    1535.6072    1927.5375     284.8842     52.29699     468.2819   -6371.3375 
33875000    71.844564   -6826.8262   -6642.0105   -6826.8262            0    1808.3047    23.149753    21.431334    21.599226    10716.025    1867.8075    1262.5921    2294.5144    859.64976   -78.988997     1022.237   -6359.4046 
33876000    74.473341    -6843.906   -6652.3279    -6843.906            0    1923.4017    23.256665    21.368812    21.560082    10714.655    1839.0906    1767.4982    2163.6161    67.212299   -610.88727    530.98018   -6351.7728 
33877000    71.885115    -6836.846   -6651.9259    -6836.846            0    1907.4416    23.288022    21.312998    21.613708    10727.695    1385.6043    2184.2225     2152.498   -173.81212    139.33509    349.94562    -6353.502 
33878000    74.090904   -6837.9113    -6647.317   -6837.9113            0    2611.7707    23.139519    21.408211    21.580173    10690.294    2880.8805    1777.9994    3176.4322   -446.25723    340.20038    189.55962   -6240.1237 
33879000    72.377511   -6821.3938   -6635.2071   -6821.3938            0    2764.6918    23.124573    21.330978    21.672082    10690.183    3245.7127    2533.9517     2514.411   -231.00795   -504.20482   -331.74277   -6204.1768 
33880000    71.201303   -6845.4368   -6662.2758   -6845.4368            0      2211.78    23.232661    21.214509    21.712706    10701.531     1804.732    3068.3903    1762.2177    210.17944    176.51331   -405.04979   -6317.0814 
33881000    70.396612   -6841.2173   -6660.1263   -6841.2173            0    2562.4804    23.126952    21.353246    21.649312    10691.199    2981.1543    2439.6161    2266.6709    -340.9597    407.38418   -427.61295   -6260.5839 
33882000    75.441663    -6835.233   -6641.1639    -6835.233            0     2204.567    23.196173    21.322771    21.649473    10707.974    2286.1186    2404.1104     1923.472    46.016683   -208.69837   -227.53805   -6296.8881 
33883000    71.354194   -6827.5599   -6644.0056   -6827.5599            0    2173.4739    23.326063    21.250165    21.595306    10704.419    1409.8967    2618.3436    2492.1814    1080.9424    4.2034559    2.6520259   -6304.6981 
33884000    70.294457   -6841.4569   -6660.6287   -6841.4569            0    1832.8291    23.150611     21.43298    21.596533     10715.91    1787.4217    1826.7411    1884.3246    142.81182    697.35188    229.57536   -6374.1931 
33885000    68.507481   -6837.6865   -6661.4552   -6837.6865            0    1580.2733    23.237471    21.314855    21.667988    10732.227    1550.0182    1620.7951    1570.0066    45.578061     35.38715    41.633654   -6414.1132 
33886000    75.156527   -6835.3477   -6642.0122   -6835.3477            0     1535.614    23.299412    21.242462    21.705709    10742.956    1376.0157    1750.2075     1480.619    43.850998    219.31352   -80.327542   -6401.4199 
33887000    74.700421   -6845.0881   -6652.9259   -6845.0881            0    1969.5654    23.130793    21.396522    21.653405    10716.671    1611.1162    2262.9118    2034.6681    48.765029    146.76662   -826.71346   -6345.0992 
33888000    71.277039   -6841.7294   -6658.3736   -6841.7294            0    2331.8617    23.122569    21.333767    21.670191    10689.721    2839.1541    1944.7933    2211.6377   -64.820519   -69.555104    24.832135   -6294.8395 
33889000    72.147765   -6839.1646   -6653.5689   -6839.1646            0    2784.6919    23.259044    21.228033    21.623726    10676.579    1927.6719    4308.9821    2117.4217    159.93243   -134.21504    12.151381    -6219.973 
33890000    71.216455   -6833.5349   -6650.3349   -6833.5349            0    2229.7665    23.158515    21.440851    21.536663    10693.777    2862.8522    1126.5379    2699.9095   -592.43709   -171.54677    203.55144   -6302.5855 
33891000    70.475644    -6836.853   -6655.5587    -6836.853            0    2017.5814    23.192787    21.342031    21.645476    10714.103    1869.0431    2645.0795    1538.6217   -297.21112   -268.03387    34.631877   -6340.3031 
33892000    72.988147   -6838.4211   -6650.6635   -6838.4211            0    1191.3509    23.214999    21.294983     21.75069    10752.736    1516.6088    1167.5248    889.91894   -373.03351   -96.069021    202.47323   -6463.8387 
33893000    73.983266   -6840.1389   -6649.8215   -6840.1389            0    1456.6995    23.127665    21.409172    21.690313    10739.831    1330.4681    1403.8474     1635.783    15.536009   -171.33566    397.35754   -6421.6595 
33894000    73.588627    -6842.445   -6653.1427    -6842.445            0    1455.8336    23.240564     21.35524    21.620441    10730.394     1337.842    1569.5735    1460.0854   -230.72162   -139.20173   -590.72401   -6425.3167 
33895000    73.648795   -6830.1579   -6640.7008   -6830.1579            0    1215.8696    23.298118    21.323022    21.635842    10748.389       878.34    816.07706    1953.1917    232.75776     270.5099   -333.73715   -6450.1081 
33896000    71.714192    -6838.435   -6653.9546    -6838.435            0    1325.3437    23.136245    21.375633     21.72476    10744.021    1124.3227    1595.6324     1256.076   -653.83345    361.14341    493.47631   -6446.2859 
33897000    73.118139   -6846.4405   -6658.3485   -6846.4405            0    2057.3314     23.12874    21.375641    21.649287    10703.227    2514.2447    1036.1198    2621.6296    324.27133    297.53205    851.91998   -6337.2082 
33898000    70.090143   -6837.4248   -6657.1221   -6837.4248            0    2176.6987    23.289008    21.268728    21.603556    10700.837    1576.1534    2996.3901    1957.5525    332.32387    -477.5242   -310.29167    -6317.425 
33899000    74.290716   -6831.4546   -6640.3462   -6831.4546            0    2380.5456    23.225422    21.336376    21.590528    10699.107    3021.6858    1891.6997    2228.2512   -618.67135    119.56179   -133.92037   -6268.8966 
33900000    72.318114    -6840.653   -6654.6191    -6840.653            0    2087.4691    23.084915    21.452152    21.626954    10710.124    2129.1443    1645.7585    2487.5046    473.11534    321.44963   -120.99996   -6328.5644 
33901000    74.246605    -6834.244   -6643.2492    -6834.244            0    1788.9111    23.244277    21.285341    21.673367    10723.166    1943.3763    2163.7545    1259.6027   -413.32284    487.26779    123.36643   -6363.4878 
33902000    68.998276   -6836.9191   -6659.4252   -6836.9191            0    1822.9075    23.351315    21.257489    21.619172    10731.548     814.1578    2287.0524    2367.5122    493.85679    444.97952    208.17513   -6374.1245 
33903000    74.879205   -6833.1187   -6640.4965   -6833.1187            0    1761.7569    23.152096    21.485281    21.579338    10734.195    2616.4841      987.551    1681.2356    215.88464     184.4916   -719.75653   -6364.6983 
33904000     71.44498   -6835.4756   -6651.6877   -6835.4756            0     1690.412    23.276959    21.340119     21.59808    10728.481    1355.5639    2313.7153    1401.9568    32.599545   -48.934564   -370.99801   -6387.1993 
33905000    69.252276   -6836.0809   -6657.9337   -6836.0809            0    1926.5388    23.256562    21.273269    21.653923    10713.129    2458.6648     1288.764    2032.1875   -133.14389    -76.88837    296.56769   -6356.9312 
33906000    68.918353   -6840.7717   -6663.4834   -6840.7717            0    2067.2361    23.041891    21.420654    21.690886    10706.022    2985.5682    1464.2649    1751.8751    686.01317   -319.57171    607.31888   -6340.7128 
33907000    67.972403   -6827.9319   -6653.0771   -6827.9319            0    2724.8628    23.147156    21.313094    21.678708     10694.92    3136.5661    2961.5553    2076.4669    312.61407    11.091571   -496.78531   -6228.0681 
33908000    74.785599   -6846.8049   -6654.4235   -6846.8049            0    2656.0832    23.258153    21.226233    21.630327    10678.524    2165.5785    3301.5571    2501.1141   -162.33013   -126.97574   -281.61064   -6240.7775 
33909000    75.316935   -6842.0341   -6648.2858   -6842.0341            0    2729.0551     23.16615    21.365165    21.558846    10670.521    3207.4695    1951.7602    3027.9356   -14.443608   -227.01502   -87.820934   -6223.5941 
33910000    71.027535   -6834.8624   -6652.1484   -6834.8624            0    2362.3954    23.242283    21.326398    21.558424    10685.954    2359.2438    2214.2721    2513.6703    506.82263    124.28117    139.54982    -6283.984 
33911000    69.723878   -6838.2981   -6658.9376   -6838.2981            0    1917.0992    23.296814    21.288227    21.621522    10723.148     1580.713     1736.147    2434.4375   -463.42103      101.821   -526.32488     -6359.13 
33912000    70.468709   -6829.5728   -6648.2963   -6829.5728            0     2038.723    23.094602    21.428163    21.684769    10731.248    2126.5802    1841.9046    2147.6843    409.25442   -92.704495    448.20701   -6329.2275 
33913000    69.972848   -6830.4259    -6650.425   -6830.4259            0    2315.9193     23.13329    21.318069    21.719274    10711.014    2511.5473    2762.9022    1673.3084   -373.80394    244.92114    38.939743   -6288.6573 
33914000    71.273065   -6838.0403   -6654.6946   -6838.0403            0    2295.6905    23.235924    21.232018    21.677995    10694.742    2158.1114    2745.5413    1983.4188   -28.411761   -148.47553    180.09453   -6296.6316 
33915000    72.186186   -6835.5818   -6649.8872   -6835.5818            0    1415.1481    23.217314     21.39836    21.608747    10735.494    1253.6472    1570.6379    1421.1593    200.44058   -414.45879    -147.0946   -6428.3229 
33916000    74.801314   -6833.0846   -6640.6628   -6833.0846            0     1466.687    23.255792     21.41633    21.542864    10729.503    1139.8373    899.10328    2361.1204    27.762013    97.106285    186.45361   -6411.1574 
33917000    71.586001   -6835.5888   -6651.4381   -6835.5888            0    1544.9264     23.32442    21.324959    21.561066    10724.308     740.1184    1646.2514    2248.4095   -81.418278    679.23352    284.38604    -6409.807 
33918000    75.171423   -6834.1585   -6640.7846   -6834.1585            0    1831.8474    23.266101    21.327934    21.597626    10717.128    1171.1297    2034.5841    2289.8285    31.442289    720.14311   -439.07843   -6354.4699 
33919000    76.030372   -6829.8074   -6634.2239   -6829.8074            0    2637.3845    23.222476    21.334238    21.580592    10691.755    2134.1123    3115.3283    2662.7129    567.88921   -97.162718   -695.49687   -6222.9811 
33920000    72.583359   -6840.5842    -6653.868   -6840.5842            0    2230.4684    23.187717    21.285271    21.689296    10704.901      2168.95    2517.0677    2005.3874   -192.36774    96.597096   -204.11724   -6305.6472 
33921000    72.939861   -6835.9043    -6648.271   -6835.9043            0    2451.0358    23.134784    21.289534     21.70458     10690.13    2451.7103    2543.3561     2358.041    336.76352    197.81419    -124.7865   -6266.1432 
33922000    72.301275   -6833.7091   -6647.7185   -6833.7091            0      2051.63    23.126769    21.355062    21.688012    10711.136    2832.0283    1935.9874    1386.8743   -61.781705   -187.31739   -982.49462   -6327.2315 
33923000    74.209877   -6845.6848   -6654.7844   -6845.6848            0    2174.4009    23.217947    21.330356    21.639675    10716.985    1938.6307    2227.5047    2357.0674    115.99221    569.33385    459.59134   -6314.9337 
33924000    73.118529   -6846.0933   -6658.0003   -6846.0933            0     1995.739    23.274429    21.285521    21.629258    10715.315    1532.8358    2994.0668    1460.3142    589.01165     48.36935   -479.36926   -6346.1224 
33925000    71.964557   -6834.0884    -6648.964   -6834.0884            0    1773.2254    23.202546    21.364256    21.634219    10724.193    1186.4198    1864.9791    2268.2772    1.8190975    366.93977    712.06191   -6371.6291 
33926000    69.238544   -6835.8526   -6657.7407   -6835.8526            0    1726.7409    23.238427    21.386327    21.580115    10724.985    1485.1596    1369.8483    2325.2149   -377.04456   -863.82561    359.15472   -6387.6561 
33927000    75.031453   -6831.7049    -6638.691   -6831.7049            0    1878.6567    23.212416    21.371336    21.609876    10720.235    1561.1481    1659.8772     2414.945   -398.58816    20.723435   -416.54197    -6344.975 
33928000    75.874442   -6840.3839   -6645.2015   -6840.3839            0    1711.5934    23.128931    21.352189    21.718676     10725.84     1957.393     2576.027    601.36019    212.35723   -677.29693   -315.54232   -6377.4649 
33929000    72.000322   -6835.6104    -6650.394   -6835.6104            0    2052.9487    23.191266    21.356156    21.634963    10715.285    2018.6202    1850.4517    2289.7741   -17.398096    278.24277    412.31883   -6329.5767 
33930000    71.533459   -6831.0327   -6647.0172   -6831.0327            0    1773.4867    23.255354     21.37209    21.580505    10725.846    1359.9137    2015.3713     1945.175    172.64716   -396.93409   -554.35555   -6369.5988 
33931000    73.604912   -6842.8865   -6653.5424   -6842.8865            0    1856.7269    23.226744    21.391892    21.585868    10725.241    1653.5749    1906.2987     2010.307    12.757011    398.45598   -575.27871   -6363.1194 
33932000    74.858166   -6837.3816   -6644.8135   -6837.3816            0    2314.0617    23.221298    21.286475    21.668164    10710.565    2591.9674    2085.5043    2264.7132     681.1636    253.48147    306.18558   -6283.3511 
33933000    71.018377   -6840.2369   -6657.5465   -6840.2369            0    1662.3504    23.300377    21.256315    21.644378    10720.031    1016.7549    2049.1489    1921.1475    430.91883    780.82059   -448.81718   -6397.6535 
33934000    73.766537   -6845.8094   -6656.0494   -6845.8094            0    1843.2998    23.204358    21.341247    21.625731    10709.277    1938.9697    1828.0089    1762.9209   -230.90766    427.37312   -344.60422   -6368.1558 
33935000    72.985302   -6831.3666   -6643.6164   -6831.3666            0    2019.4953    23.216304    21.295854    21.673092    10715.416    1707.6393     1999.049    2351.7975    242.79398    1013.3339   -332.22322   -6328.0231 
33936000    75.848155   -6834.6655   -6639.5508   -6834.6655            0    2692.2643    23.196507    21.262326    21.639654    10672.931    2343.1448    3226.9738    2506.6743    530.87399     538.0454   -308.30562   -6220.4897 
33937000    70.717768   -6842.0062   -6660.0891   -6842.0062            0    2046.7315     23.21385    21.309764    21.654586    10712.127    2149.0122    1978.9404     2012.242   -393.68968    596.52619   -154.17719   -6340.3377 
33938000    73.851925   -6831.2657   -6641.2861   -6831.2657            0    2238.1928    23.219932    21.338124    21.646066    10724.971    1758.8927    2525.4912    2430.1945    55.947724   -369.95949   -224.38222   -6291.2043 
33939000    70.562609   -6844.4757   -6662.9576   -6844.4757            0     1737.196    23.185681    21.412418    21.595741    10721.454    2056.7477    1242.0084    1912.8319   -411.36565    -36.66229    610.02823   -6391.3272 
33940000    72.344284   -6820.0939   -6633.9927   -6820.0939            0    1837.2844    23.223567    21.338891    21.651272    10729.616    1530.4968    1827.5172    2153.8392   -393.90287   -226.37615     558.3835   -6346.4936 
33941000    72.599283   -6827.6489   -6640.8916   -6827.6489            0    2657.9983    23.252122    21.241546    21.630952    10683.766     2978.278    2767.9574    2227.7595    13.076132   -391.90818     501.9639   -6226.7442 
33942000    69.490499   -6821.3843   -6642.6242   -6821.3843            0    2540.5419    23.096912    21.392436    21.647551    10696.037    2597.4695    2748.7551    2275.4012   -89.473423    -269.5044   -285.88777   -6246.3232 
33943000    71.157048    -6836.015   -6652.9678    -6836.015            0    2199.6361    23.153492     21.34505    21.644663    10697.062    2831.5547    2173.6418     1593.712   -84.419975    -235.2229   -243.82393   -6309.8121 
33944000    71.883525    -6834.263    -6649.347    -6834.263            0    1988.2508    23.321492    21.192174    21.674526    10712.269    1641.2528    2707.4163    1616.0834   -951.42733    721.98802   -186.51468   -6338.7276 
33945000     74.04191   -6833.1634   -6642.6951   -6833.1634            0    1774.4855    23.173642    21.388936     21.62053    10716.422    1562.1165    1647.0711     2114.269    311.80579   -140.66585   -337.66812   -6365.3643 
33946000    74.164841   -6844.6491   -6653.8646   -6844.6491            0    1487.0213    23.155938    21.406426    21.638755    10726.025    2332.0552    611.63899    1517.3698   -257.39038   -166.01621    174.71958   -6421.2527 
33947000    71.553348   -6831.0187   -6646.9521   -6831.0187            0    1529.1773    23.318418    21.236066     21.66479    10728.219    1141.6072    2215.9522    1229.9726    -866.6498   -33.561771   -226.05505   -6407.6969 
33948000     73.64728   -6833.1408   -6643.6877   -6833.1408            0    1240.5376    23.240418    21.299889    21.691731    10737.804    1410.5158    1738.2784    572.81865    327.03092   -254.79213   -501.95775   -6449.4197 
33949000    72.122669   -6830.0807   -6644.5495   -6830.0807            0    1839.6091    23.155247    21.412174    21.619172    10718.876    1627.4595    1720.0598     2171.308    230.25289    1104.9076    41.974587   -6356.9748 
33950000     69.36013   -6834.1618   -6655.7371   -6834.1618            0     2003.622    23.325414    21.231039    21.650262    10721.703    1036.6387    3031.2697    1942.9577    237.53526    117.34889   -131.87024   -6342.4406 
33951000     72.41625   -6832.4861   -6646.1998   -6832.4861            0    3048.7666    23.219933     21.22821    21.654122    10673.698    3252.7369    2914.0903    2979.4728    143.06485   -181.11162   -206.49668   -6171.6137 
33952000     72.00105   -6837.1603   -6651.9419   -6837.1603            0     2292.857    23.098648    21.381175    21.649481    10692.164     2533.218    2551.9327    1793.4204   -384.56384    276.88137   -141.90432    -6294.407 
33953000    68.088145   -6839.9201   -6664.7675   -6839.9201            0    1861.5841    23.281981    21.186566    21.704569    10706.109    1646.9402    2561.9767    1375.8354    558.42084    -617.8899    390.47038   -6374.1042 
33954000    72.594414   -6839.2745   -6652.5298   -6839.2745            0    1924.7033    23.237237    21.312577    21.641758    10717.981    1948.3954    2390.3576    1435.3569    171.06326   -315.51131   -136.61071    -6351.678 
33955000    70.366752   -6838.2286   -6657.2144   -6838.2286            0    1560.2378    23.148464     21.46291    21.610455    10736.796     1314.312    938.04701    2428.3543   -110.78302    364.42049    654.09015   -6412.9043 
33956000    72.731952   -6848.8435    -6661.745   -6848.8435            0    1323.1727    23.237336    21.309947    21.679532    10735.409    858.53724    1305.1775    1805.8034    297.77197    460.34063    680.42047   -6454.5825 
33957000    67.926665   -6834.0909   -6659.3537   -6834.0909            0    2149.8881    23.230038    21.280453    21.666941     10710.96    2011.7649    2822.4714    1615.4282   -342.60085   -174.52361   -158.52715   -6323.5232 
33958000    73.724859   -6836.9316   -6647.2789   -6836.9316            0    2605.4721    23.111913    21.455411    21.550341    10686.288    2385.2661      2189.15    3242.0003    -48.79956    208.20607    140.70981   -6241.2199 
33959000    73.608983   -6832.5506    -6643.196   -6832.5506            0    2380.0508    23.190278    21.329474    21.611236    10689.704    2314.8737    2260.8543    2564.4245   -478.66587    -260.9451    73.331734     -6272.15 
33960000    72.471116   -6838.3982   -6651.9707   -6838.3982            0    2445.0697    23.246353     21.25534    21.647658    10696.306    2707.6099    1829.3451    2798.2542   -481.41793     132.1849    604.32412   -6270.5529 
33961000    74.152566   -6835.7075   -6644.9546   -6835.7075            0    1817.4563    23.081276    21.480842    21.625513    10722.042    1697.0177    1425.4784    2329.8727   -495.50417    263.96594    512.17382   -6360.7589 
33962000    71.532178   -6840.5057   -6656.4935   -6840.5057            0    1737.1654    23.243002    21.360257    21.597892    10722.846    1527.7736    1492.4566    2191.2661   -544.55683    65.884511   -267.77912   -6384.8326 
33963000    70.024347   -6832.3235   -6652.1901   -6832.3235            0    2177.7434    23.310368    21.218032    21.657052     10711.58    1642.6678    2866.6399    2023.9224     92.33615    8.6415371     -15.2073   -6311.9887 
33964000    71.792014   -6833.9106     -6649.23   -6833.9106            0    2832.6932    23.109473    21.378879    21.631175    10686.982     3325.183    2481.1166      2691.78    173.97191    557.96817   -202.58916   -6207.7302 
33965000    71.418025   -6844.6461   -6660.9276   -6844.6461            0    2446.1616    23.167322    21.299082    21.662671    10689.287    2086.9217    2739.5689    2511.9942    925.28369   -41.873274    277.55765   -6279.5898 
33966000    70.736498   -6833.5565   -6651.5911   -6833.5565            0    2087.8018    23.312196    21.184899    21.686503    10710.238    2211.1329    2490.4759    1561.7967   -788.99518   -148.46342     -753.619    -6325.481 
33967000    70.312896   -6830.9816    -6650.106   -6830.9816            0    2484.1448    23.128406    21.393507    21.619285    10697.173    2111.4703    2483.2225    2857.7416    429.10096    337.52126    153.41559   -6262.5613 
33968000    75.101177    -6837.452   -6644.2588    -6837.452            0     1811.273    23.211619    21.355802    21.612806    10713.527    1824.9122    1467.3597    2141.5473   -3.1477605   -123.00551    130.04266   -6361.2549 
33969000    70.635275   -6833.8936   -6652.1886   -6833.8936            0    1823.3345    23.368563    21.196798    21.641955    10720.098    1031.9694    2584.6543    1853.3797   -35.083529   -205.88761   -521.70934   -6367.1255 
33970000    70.577011   -6844.4214   -6662.8663   -6844.4214            0    1782.9592    23.148782    21.408782    21.623465    10716.313      2515.41     1080.786    1752.6818    -281.0597    209.23714   -144.76402    -6384.214 
33971000     71.37157   -6839.1927   -6655.5937   -6839.1927            0    1515.4277    23.135361    21.386673     21.69817    10736.003    1903.7905    1452.4201    1190.0724    61.328439   -15.197723   -308.11745   -6418.3177 
33972000    71.189818   -6839.8273   -6656.6958   -6839.8273            0    1727.1991    23.240462    21.239058    21.736288    10729.152    1809.8679    1932.7838    1438.9455    -460.7139    310.32108    651.40773   -6386.4347 
33973000    71.368293   -6840.6862   -6657.0956   -6840.6862            0    2194.2476    23.236664    21.331308    21.612112    10712.442    2380.2808    1648.1504    2554.3116   -594.27033    84.943375   -503.99421   -6314.2884 
33974000    72.452853   -6826.5426    -6640.162   -6826.5426            0    2410.0329     23.14321     21.45738    21.538353    10695.788    2411.6734    1436.4713    3381.9539   -324.74997    189.31771   -169.05873    -6264.228 
33975000    71.251774    -6838.817   -6655.5262    -6838.817            0    2336.1596    23.195098    21.293396    21.664997    10700.394    2042.0994    3013.5224     1952.857   -11.018737    214.83304    -481.7147   -6290.9585 
33976000    71.384282   -6836.0968   -6652.4651   -6836.0968            0    1328.3261    23.308979    21.246419    21.689319    10741.252    677.80898    2083.1192    1224.0502   -21.895545   -235.40208    390.58884   -6444.3827 
33977000    74.297468   -6824.6148    -6633.489   -6824.6148            0    1902.8739    23.173949    21.466283    21.554425    10722.433    2146.2851    1671.1772    1891.1593   -54.958132    154.67482   -844.49327   -6335.9258 
33978000    76.830806   -6833.3043   -6635.6618   -6833.3043            0     2158.802    23.223996    21.344201    21.602157    10708.138    2480.1097    1736.8462      2259.45    147.67732   -199.04536    75.041275   -6298.5277 
33979000    71.980416   -6830.7532   -6645.5879   -6830.7532            0    2442.6374    23.275747    21.243189     21.64401    10701.905    1896.2289    3493.9055    1937.7778    299.52058    -480.3124   -205.82259   -6264.3501 
33980000    72.575802    -6826.667   -6639.9702    -6826.667            0    1308.1686    23.208109    21.402567    21.651379    10754.523    1644.0412    833.97405    1446.4906    620.06731   -146.69222   -314.36159   -6434.7922 
33981000    76.939445   -6837.5628   -6639.6408   -6837.5628            0    1647.1197    23.220229    21.368745     21.62142    10728.271    2010.2395    1658.6234    1272.4962    519.32302   -156.51785   -661.34787   -6381.9311 
33982000     73.02597   -6834.4607   -6646.6058   -6834.4607            0    2099.3177    23.302647    21.234047    21.613981    10694.803    920.28004    2626.6899     2750.983    1145.7076   -273.88317   -1.0729801   -6319.1695 
33983000    72.285644   -6841.2139   -6655.2635   -6841.2139            0    1299.2242    23.182988    21.338603    21.680287    10725.077    1843.1283     955.7798    1098.7646    143.87176    411.07986    196.45905   -6452.0463 
33984000    71.172761   -6831.8787   -6648.7911   -6831.8787            0    1987.8079    23.196039    21.337907    21.662261    10721.843    2004.8557    1883.8465    2074.7215   -153.10355    571.46916   -59.009851   -6337.9634 
33985000    72.613253   -6838.3768   -6651.5836   -6838.3768            0    2785.6969    23.273076    21.282186    21.583929    10690.562     2252.514    2856.2853    3248.2913   -24.043169    256.43798   -806.57582   -6217.2632 
33986000    72.756218   -6840.6043   -6653.4434   -6840.6043            0    2487.7798     23.22774    21.337372    21.578287    10694.608    2275.3744     1765.361    3422.6041    386.92445    190.82711    292.71964   -6265.4246 
33987000    72.789772   -6843.6053   -6656.3581   -6843.6053            0    2434.3246    23.170685    21.338865    21.583155    10671.491    2103.3866    2790.7083    2408.8789    369.77812    897.66374    676.89592   -6277.4974 
33988000    73.525546    -6830.252    -6641.112    -6830.252            0    2133.7556    23.186641      21.2855    21.691456    10705.585    2722.0646    1729.6088    1949.5933    28.049162   -383.14755   -97.455665   -6307.9688 
33989000     70.24221    -6834.152   -6653.4581    -6834.152            0    1786.2459    23.222257    21.315464    21.671037    10727.016    1912.9007     2067.402    1378.4351   -398.01692   -535.34798     -35.8684   -6374.0133 
33990000    72.852497   -6834.1962   -6646.7876   -6834.1962            0    1604.4071    23.149476    21.416749     21.64472    10731.161    1614.5996     1080.628    2117.9938    852.52311   -199.77566    484.30096   -6395.6931 
33991000      70.9266   -6835.9054   -6653.4511   -6835.9054            0    1489.8354      23.2307    21.372383    21.615848     10732.17    2020.4042    618.87599    1830.2261   -763.26111   -5.1490843    191.85685   -6420.2655 
33992000    70.724346   -6834.3247   -6652.3906   -6834.3247            0     2612.673     23.26075    21.294089    21.594269    10695.997    1988.5114    3445.7218    2403.7857   -699.85762   -123.99833   -756.84508   -6244.8393 
33993000     72.54985   -6830.2884   -6643.6584   -6830.2884            0     2464.337     23.14226    21.377579    21.635818     10703.79    2811.3689    2435.2749    2146.3672    466.01333   -468.64942   -37.315488    -6258.966 
33994000    72.113969   -6835.8948    -6650.386   -6835.8948            0    1822.1357      23.1632    21.362377    21.660432    10718.037    1591.9119    1985.0376    1889.4577    -190.9287    431.83351    354.24776   -6365.5651 
33995000     75.67143   -6833.4893   -6638.8292   -6833.4893            0    1929.5922     23.30869    21.255656    21.628764    10715.787    1398.7677    2214.5435    2175.4654   -188.44891   -256.96845   -171.18447   -6337.2749 
33996000    72.287953   -6841.7877   -6655.8313   -6841.7877            0    950.98577    23.240648    21.440167     21.56943    10747.688    650.63381    1044.7498    1157.5736   -603.50184    38.177021     -144.642     -6506.77 
33997000    71.294315   -6831.9517   -6648.5514   -6831.9517            0    1745.0459    23.172478    21.415967    21.610502     10724.45    2159.3036    473.10876    2602.7253    375.34729    276.09865    146.98357   -6375.6173 
33998000    71.866201   -6829.7458   -6644.8744   -6829.7458            0    1728.2964    23.288894    21.212233     21.71103    10725.454    1164.3448    2975.4746    1045.0697     66.41319    160.01942    287.86188   -6374.5347 
33999000    72.974759   -6843.8688   -6656.1457   -6843.8688            0    1385.3658    23.213887    21.363218    21.664553    10743.957    1194.9469    857.69806    2103.4526    -663.1152    369.02239    267.56238   -6439.0733 
34000000    78.122355    -6837.465      -6636.5    -6837.465            0    1631.3467    23.117648    21.518902    21.592027    10741.308    2404.3642    645.02378    1844.6523   -1038.4881   -116.45172   -333.89299    -6380.948 
Loop time of 600.915 on 64 procs for 250000 steps with 1296 atoms

Performance: 71.890 ns/day, 0.334 hours/ns, 416.032 timesteps/s
384.6% CPU use with 16 MPI tasks x 4 OpenMP threads

MPI task timing breakdown:
Section |  min time  |  avg time  |  max time  |%varavg| %total
---------------------------------------------------------------
Pair    | 39.429     | 50.06      | 60.701     |  88.3 |  8.33
Bond    | 1.5973     | 1.8893     | 2.6031     |  21.7 |  0.31
Kspace  | 310.76     | 323.1      | 333.58     |  37.3 | 53.77
Neigh   | 0.53368    | 0.58928    | 0.61805    |   3.2 |  0.10
Comm    | 59.797     | 67.349     | 72.664     |  39.6 | 11.21
Output  | 0.49845    | 0.49878    | 0.50045    |   0.1 |  0.08
Modify  | 133.72     | 139.98     | 145.64     |  23.4 | 23.29
Other   |            | 17.45      |            |       |  2.90

Nlocal:        81.0000 ave          95 max          64 min
Histogram: 2 1 0 1 2 3 3 0 1 3
Nghost:        3685.31 ave        3717 max        3661 min
Histogram: 2 1 3 4 0 1 2 1 0 2
Neighs:        26005.9 ave       30555 max       20402 min
Histogram: 2 1 0 1 2 3 3 0 2 2

Total # of neighbors = 416094
Ave neighs/atom = 321.06019
Ave special neighs/atom = 2.0000000
Neighbor list builds = 1247
Dangerous builds = 0

unfix		3
unfix		2
unfix		1

write_data	data.final.${pid}
write_data	data.final.0
System init for write_data ...
PPPM initialization ...
  extracting TIP4P info from pair style
  using 12-bit tables for long-range coulomb (../kspace.cpp:340)
  G vector (1/distance) = 0.36660414
  grid = 30 40 32
  stencil order = 5
  estimated absolute RMS force accuracy = 0.0047207882
  estimated relative force accuracy = 1.4216513e-05
  using double precision FFTW3
  3d grid and FFT values/proc = 11832 2400
Last active /omp style is kspace_style pppm/tip4p/omp
WARNING: Not all mixed pair coeffs generated from mixing. Use write_data with 'pair ij' option to store all pair coeffs. (../write_data.cpp:312)

write_restart   restart.lmp.${pid}
write_restart   restart.lmp.0
System init for write_restart ...
PPPM initialization ...
  extracting TIP4P info from pair style
  using 12-bit tables for long-range coulomb (../kspace.cpp:340)
  G vector (1/distance) = 0.36660414
  grid = 30 40 32
  stencil order = 5
  estimated absolute RMS force accuracy = 0.0047207882
  estimated relative force accuracy = 1.4216513e-05
  using double precision FFTW3
  3d grid and FFT values/proc = 11832 2400
Last active /omp style is kspace_style pppm/tip4p/omp
Total wall time: 0:10:01
