LAMMPS (30 Jul 2021)
Processor partition = 1
  using 1 OpenMP thread(s) per MPI task
using multi-threaded neighbor list subroutines
variable        pid world 0 1
variable        phase world IceII IceIII

shell cd ${phase}
shell cd IceIII
include Restart.lmp
echo both
log log.lammps
#include		in.partitions
include		in.temp
variable        temperature equal 137.21
variable	tempDamp equal 100.0
include		in.pressure
variable        pressure equal 9918.8
variable        pressureDamp equal 1000.0 # This is 1 ps
include		in.seed
variable        seed equal 745823

units		real
atom_style	full

read_restart	restart.lmp.${pid}
read_restart	restart.lmp.1
Reading restart file ...
  restart file = 30 Jul 2021, LAMMPS = 30 Jul 2021
  restoring atom style full from restart
  orthogonal box = (0.21461176 0.14972423 0.15474555) to (19.785389 19.850277 20.545252)
  4 by 4 by 4 MPI processor grid
  restoring pair style lj/cut/tip4p/long/omp from restart
  restoring bond style harmonic/omp from restart
  restoring angle style harmonic/omp from restart
  972 atoms
  648 bonds
  324 angles
Finding 1-2 1-3 1-4 neighbors ...
  special bond factors lj:    0        0        0       
  special bond factors coul:  0        0        0       
     2 = max # of 1-2 neighbors
     1 = max # of 1-3 neighbors
     1 = max # of 1-4 neighbors
     2 = max # of special neighbors
  special bonds CPU = 0.012 seconds
  read_restart CPU = 0.025 seconds
include 	in.setup
variable	out_freq equal 1000
variable	out_freq2 equal 10000
variable	out_freq3 equal 1000

timestep	2.0

neigh_modify    delay 7 every 1

include		in.tip4p
# This is TIP4P/Ice

# create groups ###
group ox type 2
324 atoms in group ox
group hy type 1
648 atoms in group hy

# set charges - beside manually ###
set group ox charge -1.1794
Setting atom values ...
  324 settings made for charge
set group hy charge 0.5897
Setting atom values ...
  648 settings made for charge

# ### TIP3P Potential Parameters ###
pair_style lj/cut/tip4p/long/omp 2 1 1 1 0.1577 8.5
pair_coeff 1 1*2 0.000 0.000
pair_coeff 2 2 0.21084 3.1668
bond_style  harmonic
bond_coeff  1 450 0.9572
angle_style harmonic
angle_coeff 1 55 104.52
kspace_style pppm/tip4p/omp 1.0e-5
pair_modify tail yes

thermo          ${out_freq}
thermo          1000
thermo_style    custom step temp pe etotal epair emol press lx ly lz vol pxx pyy pzz pxy pxz pyz enthalpy

restart 	${out_freq3} restart.lmp.${pid} restart2.lmp.${pid}
restart 	1000 restart.lmp.${pid} restart2.lmp.${pid}
restart 	1000 restart.lmp.1 restart2.lmp.${pid}
restart 	1000 restart.lmp.1 restart2.lmp.1


include         in.dump
dump            myDump all atom ${out_freq2} dump.water.${pid}
dump            myDump all atom 10000 dump.water.${pid}
dump            myDump all atom 10000 dump.water.1
dump            myDump2 all dcd ${out_freq2} dump.dcd
dump            myDump2 all dcd 10000 dump.dcd
dump_modify     myDump append yes
dump_modify     myDump2 append yes


variable natoms 	equal  "count(all)"                        # NUMBER ATOMS
variable H      	equal  "enthalpy/v_natoms"                 # ENTHALPY-per-atom
variable Vol      	equal  "vol/v_natoms"                 # volume-per-atom
fix AVG all 		ave/time ${out_freq} 1 ${out_freq} v_Vol v_H file vol_enthalpy.dat
fix AVG all 		ave/time 1000 1 ${out_freq} v_Vol v_H file vol_enthalpy.dat
fix AVG all 		ave/time 1000 1 1000 v_Vol v_H file vol_enthalpy.dat


timer           timeout 02:55:00 every 1000
New timer settings: style=normal  mode=nosync  timeout=02:55:00

fix 		1 all shake 1e-6 200 0 b 1 a 1
Finding SHAKE clusters ...
       0 = # of size 2 clusters
       0 = # of size 3 clusters
       0 = # of size 4 clusters
     324 = # of frozen angles
  find clusters CPU = 0.001 seconds
fix             2 all nph aniso ${pressure} ${pressure} ${pressureDamp}
fix             2 all nph aniso 9918.8 ${pressure} ${pressureDamp}
fix             2 all nph aniso 9918.8 9918.8 ${pressureDamp}
fix             2 all nph aniso 9918.8 9918.8 1000
fix             3 all temp/csvr ${temperature} ${temperature} ${tempDamp} ${seed}
fix             3 all temp/csvr 137.21 ${temperature} ${tempDamp} ${seed}
fix             3 all temp/csvr 137.21 137.21 ${tempDamp} ${seed}
fix             3 all temp/csvr 137.21 137.21 100 ${seed}
fix             3 all temp/csvr 137.21 137.21 100 745823


run             250000
PPPM initialization ...
  extracting TIP4P info from pair style
  using 12-bit tables for long-range coulomb (../kspace.cpp:340)
  G vector (1/distance) = 0.37275294
  grid = 24 24 24
  stencil order = 5
  estimated absolute RMS force accuracy = 0.0034402989
  estimated relative force accuracy = 1.0360358e-05
  using double precision FFTW3
  3d grid and FFT values/proc = 2197 216
Last active /omp style is kspace_style pppm/tip4p/omp
Neighbor list info ...
  update every 1 steps, delay 7 steps, check yes
  max neighbors/atom: 2000, page size: 100000
  master list distance cutoff = 10.8154
  ghost atom cutoff = 10.8154
  binsize = 5.4077, bins = 4 4 4
  1 neighbor lists, perpetual/occasional/extra = 1 0 0
  (1) pair lj/cut/tip4p/long/omp, perpetual
      attributes: half, newton on, omp
      pair build: half/bin/newton/omp
      stencil: half/bin/3d
      bin: standard
Setting up Verlet run ...
  Unit style    : real
  Current step  : 31750000
  Time step     : 2
  Walltime left : 2:54:59.89
Per MPI rank memory allocation (min/avg/max) = 9.228 | 9.230 | 9.232 Mbytes
Step Temp PotEng TotEng E_pair E_mol Press Lx Ly Lz Volume Pxx Pyy Pzz Pxy Pxz Pyz Enthalpy 
31750000     137.3057    -4929.592   -4664.7864    -4929.592            0    10564.405    19.570777    19.700553    20.390507    7861.6645    9734.4523    10989.672     10969.09    657.79123    1793.7364   -375.44294   -3453.5318 
31751000    133.38612   -4946.5477   -4689.3014   -4946.5477            0    11055.677    19.400844    19.817227    20.357956    7827.0423    10980.561    12050.489    10135.982   -347.31946    758.12646     1229.681   -3427.3027 
31752000    137.04757   -4949.6307   -4685.3229   -4949.6307            0    10035.258    19.547455    19.689766    20.361069    7836.6665     9262.819    10556.507    10286.448    259.69718   -620.18146   -181.02497   -3538.3959 
31753000    138.52569   -4955.2329   -4688.0745   -4955.2329            0    10010.719    19.528961    19.622086    20.391142    7813.8642     9768.251    9232.6891    11031.218   -473.66028    415.55987    834.51289    -3547.281 
31754000    132.15839   -4962.6507   -4707.7721   -4962.6507            0    9557.6457    19.569922    19.558432    20.502381    7847.4297    9895.9311    8903.8327    9873.1734   -634.98842    371.32839    202.59963    -3613.931 
31755000    132.80548   -4942.8664   -4686.7398   -4942.8664            0    9941.3926    19.521261    19.857073    20.268111    7856.6315    11018.518    9356.0082    9449.6517   -224.65011    962.78415    425.45318    -3547.646 
31756000    142.80473   -4964.4475   -4689.0365   -4964.4475            0    8966.4998      19.6825    19.775881    20.322181    7910.1808     7470.391    10284.397     9144.711    17.560238    -22.73798    229.99144   -3654.6443 
31757000    139.91682    -4951.294   -4681.4526    -4951.294            0    10217.932    19.646719    19.714275    20.257833    7846.2806    10291.254    10326.562    10035.981   -6.6844032    517.26905   -123.92488   -3512.2151 
31758000    137.98833   -4949.5546   -4683.4325   -4949.5546            0    10430.539    19.584415    19.763817    20.274501    7847.5051    9311.0741    11597.035    10383.507   -165.16184    -101.9376   -54.341804   -3489.6802 
31759000    141.49789   -4945.2368   -4672.3463   -4945.2368            0    9811.4143    19.616347    19.595454    20.478907     7871.912    11363.086    8876.5322     9194.625   -252.99483   -578.65557    65.510376    -3545.959 
31760000     139.4381   -4952.3601    -4683.442   -4952.3601            0    9659.0267    19.644168    19.738967     20.30212    7872.2601    9780.0641    10160.564     9036.452    110.55766    990.97469    311.26682   -3574.5003 
31761000    134.45348   -4949.6946   -4690.3898   -4949.6946            0    10838.729    19.750013    19.640619     20.22332    7844.6758    10423.763    9963.5086    12128.915    45.830146    683.02383   -399.09625   -3450.3682 
31762000    144.32333   -4947.1455   -4668.8058   -4947.1455            0    9934.8002    19.595913    19.803667    20.364865    7903.0123    8616.1679    10739.463     10448.77   -321.28272     89.26592   -403.57168   -3523.7473 
31763000    138.25181    -4935.117   -4668.4867    -4935.117            0    9937.3539    19.567073    19.837354    20.282468    7872.8214    11228.914    8762.5949    9820.5534   -747.50417    1014.3662   -606.45733   -3527.5093 
31764000    138.97162   -4960.5451   -4692.5267   -4960.5451            0    9933.1888    19.698228     19.68634    20.302045    7872.8488     10133.28     10463.39    9202.8965   -135.69272   -415.01415    712.77892   -3552.0235 
31765000    137.17996   -4956.8272   -4692.2641   -4956.8272            0    9999.2588    19.578213    19.806887    20.287991    7867.3473    8476.5117    10748.749    10772.515     366.5756    1239.0102    609.40111   -3544.9773 
31766000    137.05394    -4950.054    -4685.734    -4950.054            0    10936.203    19.471226    19.666787     20.49362    7847.7542    11681.136     10918.29    10209.182    268.39077   -550.47146   -295.17156   -3434.0698 
31767000    133.48412   -4945.2322   -4687.7968   -4945.2322            0    11402.735    19.539308    19.723535    20.384625    7855.9128    11666.401    11360.249    11181.556    568.42731   -251.62561   -432.09608   -3381.3806 
31768000    135.84258   -4966.2514   -4704.2676   -4966.2514            0    9290.6572    19.532666    19.785143    20.355617    7866.5626    11255.259    7625.3549    8991.3572   -484.04163   -171.38862    605.76913     -3638.39 
31769000    135.94355   -4950.3237   -4688.1451   -4950.3237            0    10439.709    19.502043    19.614053     20.49766    7840.6439    11085.787    11143.033     9090.306   -266.30555     241.1421    770.98986   -3494.3879 
31770000    138.18745   -4957.1444   -4690.6383   -4957.1444            0    9592.8147    19.526603    19.626956    20.475201    7847.0753    10518.977    8933.7966    9325.6708   -39.242007    522.97756    1331.0865   -3592.8218 
31771000    131.17387   -4952.4449   -4699.4651   -4952.4449            0    9796.2235    19.452551    19.830827    20.351253     7850.703    9933.8452    8691.3684    10763.457   -281.57546   -793.78051    147.07774   -3577.8519 
31772000    136.23492     -4948.09   -4685.3495     -4948.09            0    9463.1858    19.445568    19.678075    20.468163    7832.1704     9567.743     9730.054    9091.7604    590.44776   -182.80543    1182.2699    -3604.425 
31773000    139.73484   -4972.2272   -4702.7368   -4972.2272            0    9031.5318    19.476402    19.816284    20.415516    7879.3669    9462.5882    9059.0549    8572.9523   -417.58478    277.55015   -260.62484   -3664.9011 
31774000    141.15178   -4928.0379   -4655.8149   -4928.0379            0    9873.7547    19.510874    19.721397    20.341323    7826.9686    11127.026    9428.8421     9065.396   -56.395889    702.64158     300.2197   -3528.7425 
31775000      145.112    -4953.734   -4673.8734    -4953.734            0    10046.802    19.461956    19.716853    20.491905     7863.328    10070.353    10264.691    9805.3608   -647.74435   -1099.1221    779.47859   -3521.7205 
31776000    145.39736   -4952.8901   -4672.4791   -4952.8901            0    9324.3909    19.513572    19.680155    20.445657    7851.7483     8388.332    10640.263     8944.578   -485.32929   -804.28433    1211.4504   -3604.7459 
31777000    145.93284   -4941.6206   -4660.1768   -4941.6206            0    11172.623    19.589863    19.594754    20.314055    7797.7237    10169.367    11804.093    11544.411   -119.32134   -1844.7267   -636.80928   -3389.6059 
31778000    131.49195   -4949.3491   -4695.7558   -4949.3491            0    9276.2601    19.800047    19.689658    20.166113    7861.8832    7262.6147    10738.005    9828.1605    6.0940994    702.18086    862.66264    -3632.163 
31779000     137.8477    -4952.207   -4686.3561    -4952.207            0    10259.718    19.590689    19.777572    20.325097    7875.0861    9963.2553    9393.2658    11422.632   -42.465252   -502.41595   -725.36781    -3508.027 
31780000    141.96328   -4954.5127   -4680.7246   -4954.5127            0     10615.18    19.732285    19.700362    20.219749     7860.087    9390.5881    11231.219    11223.732   -118.48427    390.96079     237.5825   -3463.8927 
31781000    141.42842   -4946.2634   -4673.5068   -4946.2634            0    9436.8048    19.788726    19.730138    20.210251    7890.7753    8540.0211    10278.523    9491.8708     -585.101    747.54981    121.89691   -3587.5301 
31782000    134.82796    -4944.155    -4684.128    -4944.155            0    10454.105    19.707141    19.619755    20.366415    7874.6593    10707.011    10577.944    10077.361   -728.89067   -110.98343    1553.5594   -3483.5385 
31783000    139.09353   -4957.2584   -4689.0048   -4957.2584            0    9582.7828    19.686559    19.631457    20.391469    7880.8103     7931.405    12502.023    8314.9208   -244.16225     96.18192   -663.01611   -3587.6217 
31784000    137.39983   -4964.8945   -4699.9074   -4964.8945            0    9866.3435    19.561644    19.781841    20.329628    7866.8614    11240.547    8993.5261    9364.9579   -261.76548    907.59694    426.16195   -3567.9408 
31785000    130.66805   -4960.7187   -4708.7143   -4960.7187            0    10268.851    19.597899    19.629244    20.308796    7812.6302    9029.5442    10526.704    11250.305   -51.165996   -297.55574   -264.36332   -3538.6897 
31786000    137.64153   -4957.6285   -4692.1752   -4957.6285            0    11316.901    19.425403    19.581013    20.488388    7793.1494    11236.603    11099.232    11614.866   -117.84627   -710.05073    1130.3839   -3405.9518 
31787000    134.80781    -4956.923   -4696.9348    -4956.923            0     8473.114    19.662935    19.715459    20.373842    7898.2008    8666.4479    7907.5981    8845.2961   -415.25619    953.06105   -176.64129   -3720.9409 
31788000     140.5238   -4945.4023   -4674.3903   -4945.4023            0    9817.2144    19.477356    19.628038    20.522391    7845.7567    9380.8385    10428.211    9642.5935   -387.11021   -265.02645    889.94114   -3551.0819 
31789000    138.49865   -4965.8213    -4698.715   -4965.8213            0    9374.4957    19.594122    19.852915    20.238592    7872.8211    9676.5681    9271.5569     9175.362    187.96014     1314.998    407.28979   -3622.3634 
31790000    132.88936   -4946.2336   -4689.9453   -4946.2336            0    10964.217    19.647795    19.739984     20.22666    7844.8527    11403.242    10771.012    10718.397   -25.386554    159.34297   -325.32815   -3435.5388 
31791000    137.23026   -4951.9945   -4687.3344   -4951.9945            0    11551.351    19.661782    19.626742    20.332514    7846.2509     11198.54    12787.571    10667.941    299.35549     810.3612    681.14463   -3365.5189 
31792000    135.21299   -4958.7759   -4698.0062   -4958.7759            0    9888.6337    19.613082    19.765461    20.309395    7873.1729    8850.0679    11282.109    9533.7238    317.72545   -310.68757    506.24506    -3562.572 
31793000    144.58664   -4958.8563   -4680.0088   -4958.8563            0    9208.7183    19.529715    19.806425    20.349474    7871.4579    10644.914    8255.4561    8725.7849    933.65785    286.28404   -614.34715   -3622.8743 
31794000    134.15568   -4961.0681   -4702.3376   -4961.0681            0    11065.884    19.551311    19.644915     20.42038    7843.1378    12402.952    11079.563    9715.1355   -612.74447    152.16673    134.66608   -3436.5763 
31795000     135.0306   -4972.8723   -4712.4545   -4972.8723            0    8493.5916    19.662441    19.764951    20.284349    7883.0497    7911.1796    9094.3105    8475.2848    274.24921    1407.8231    243.88103   -3735.9786 
31796000    129.74655   -4954.2082   -4703.9811   -4954.2082            0     8812.858    19.593827     19.80557    20.361033    7901.4435    8670.9892    8526.7876    9240.7971    24.076812     444.4508   -634.46795   -3688.4363 
31797000    137.52101   -4954.6737   -4689.4528   -4954.6737            0    11326.831    19.617144    19.657051    20.344021    7844.9636    11734.648    10712.911    11532.932   -272.68078   -652.80633   -629.64362   -3393.5417 
31798000    139.53043   -4982.3567   -4713.2606   -4982.3567            0    8387.6727    19.716647    19.821249    20.279595    7925.4394    9376.0192     6250.828    9536.1711   -254.65257    393.02198    258.29182   -3743.7764 
31799000    136.93979    -4957.843   -4693.7431    -4957.843            0      9701.34    19.548787    19.854942    20.423277     7927.091    10319.034     9683.101    9101.8856   -331.76809    605.44585    -569.6494   -3572.1858 
31800000     137.3427   -4961.0304   -4696.1535   -4961.0304            0    9200.5458    19.474807    19.758927    20.324869    7821.0356    10043.987    8316.5272     9241.123   -496.08777   -496.30105   -727.99072   -3646.7228 
31801000    146.04425   -4929.1071   -4647.4485   -4929.1071            0     11072.94    19.491461    19.787268     20.27224    7818.6536    10137.277    11509.769    11571.774   -652.95326   -536.88719    1942.0336   -3384.8339 
31802000    133.99563   -4958.1643   -4699.7425   -4958.1643            0    9179.4052    19.616542    19.860151     20.18062    7862.1171    8427.0501    9256.3528    9854.8128   -220.70823    140.29075    21.189205   -3647.2235 
31803000    133.65058   -4962.8644    -4705.108   -4962.8644            0    11256.865    19.598175    19.669228    20.336342    7839.2726    10426.129    12370.726    10973.739   -235.38152     296.4376   -203.01273    -3418.136 
31804000    138.21259   -4936.7422   -4670.1875   -4936.7422            0    10453.126    19.488061    19.834851    20.286164    7841.4705    12627.909    8193.5515    10537.918    154.40552   -36.833184    778.94001   -3474.7701 
31805000    141.59737   -4961.4442   -4688.3617   -4961.4442            0    9763.6322    19.641445    19.736015    20.304222    7870.8071    8950.1502     10454.61    9886.1361   -1054.2105    934.49959    938.72414   -3567.6174 
31806000    143.73936   -4940.8182   -4663.6047   -4940.8182            0    9715.9374    19.442235     19.68857    20.435791    7822.6126    11096.586    8870.5881    9180.6378    -450.6779   -404.89212   -25.666894   -3555.1641 
31807000    133.21107    -4958.531   -4701.6222    -4958.531            0    10449.356    19.458006     19.79565      20.3226    7827.9381    10359.791     9552.638    11435.639    247.72146   -788.68719   -595.07251   -3508.6981 
31808000     140.6724   -4949.7673   -4678.4688   -4949.7673            0    11576.055    19.581392    19.609283     20.27534    7785.2653     10072.42    12700.922    11954.822   -169.90585    1220.9541   -973.12863   -3364.1222 
31809000    139.51644   -4958.6275   -4689.5583   -4958.6275            0     10467.24    19.522351    19.624665    20.427732    7826.2644    10054.661    10967.399    10379.659   -282.60122   -27.374132   -384.50288   -3494.8481 
31810000      137.351    -4956.649   -4691.7561    -4956.649            0    9243.5926     19.58639    19.794378    20.290456     7866.618    8295.3711    9523.3461    9912.0605   -1268.6772   -1057.1599    259.48229   -3631.2706 
31811000    140.66489   -4950.2843   -4679.0002   -4950.2843            0    9685.2281     19.35303    19.768704    20.511066    7847.2123    11286.139    8653.1031    9116.4426   -254.89721    1512.5179    580.62628   -3570.5884 
31812000    144.85538   -4945.8882   -4666.5224   -4945.8882            0    10316.007    19.636983    19.751362    20.235729    7848.5726    9887.3592    10175.465    10885.196   -501.49472    1083.5251    1069.5084   -3485.7174 
31813000    144.43901   -4954.1085   -4675.5457   -4954.1085            0    10180.116    19.740441    19.671823     20.25338    7865.0044    8365.4474    10825.149    11349.751   -501.09139   -540.46706   -87.847794   -3507.8557 
31814000    134.69655    -4947.023   -4687.2493    -4947.023            0    11252.051    19.649118    19.637869    20.278705    7824.8792    9865.8509    13254.391    10635.911    206.27162    1131.9009   -1169.3815   -3403.1896 
31815000     136.9803   -4962.1539   -4697.9759   -4962.1539            0    9794.2891    19.676635    19.723598     20.26816    7865.9523    9708.6985    9964.5285    9709.6403   -703.72935    830.71965    360.98756   -3574.4059 
31816000    141.72942   -4947.7563   -4674.4192   -4947.7563            0    8864.4622      19.8513    19.615385    20.344469    7921.9511    7532.2384    10087.153    8973.9952    350.83812   -1631.1618   -41.510395   -3650.2766 
31817000    131.24569   -4948.1617   -4695.0434   -4948.1617            0    9295.8938    19.669434    19.723666    20.206149    7839.0431    9111.1326    9698.4434    9078.1055   -150.98731    510.26184    1376.3232   -3632.2959 
31818000     135.5237   -4952.9048    -4691.536   -4952.9048            0    9621.5984    19.587593    19.599301    20.427443    7842.1591    8107.3723    9871.6293    10885.794    364.78418    838.34785    160.59822   -3591.1152 
31819000     134.6341   -4964.2904   -4704.6373   -4964.2904            0    9833.3843    19.610162    19.722913     20.31732    7858.1204    8777.9498    9322.2948    11399.908   -198.88101   -142.41391   -335.20072   -3577.7056 
31820000    137.69291   -4952.3494   -4686.7971   -4952.3494            0    10408.115    19.642946    19.787645    20.300936    7890.7231    12002.094    9717.6846    9504.5668   -160.92437    -1090.233    352.42541   -3489.0509 
31821000    135.75982   -4949.5736   -4687.7494   -4949.5736            0    9507.0292    19.628791    19.585219    20.492243    7877.9184    11065.545    9367.4011    8088.1412    107.90069   -246.67802    596.85127   -3595.4739 
31822000    143.30205   -4932.8025   -4656.4324   -4932.8025            0     10131.31    19.826628    19.611955    20.192136    7851.4884    9757.9281    9155.9714     11480.03   -123.62379   -352.34894    1715.1761   -3496.3376 
31823000    131.59079   -4959.9003   -4706.1164   -4959.9003            0    9549.5672    19.520395    19.895209    20.224551    7854.4543    9851.8424    8056.2519    10740.607   -168.47418    128.92666   -50.784434   -3612.2215 
31824000    133.14034   -4955.4621   -4698.6897   -4955.4621            0    10868.978    19.362986    19.787102    20.406492    7818.4897    11225.563     9899.956    11481.414    491.93251    -755.9621    1458.2984   -3459.3583 
31825000    136.12534   -4969.1019   -4706.5728   -4969.1019            0    8911.2331    19.626349    19.789115     20.39579    7921.4817    9083.0736     9585.802    8064.8238    551.28213     141.0536   -562.23786   -3677.0875 
31826000    135.84053   -4949.8875   -4687.9076   -4949.8875            0    10428.183     19.62456    19.624763    20.331415    7830.1838    9236.1083    11464.514    10583.927    -354.8227   -50.486038    548.35297   -3497.0592 
31827000    127.04276   -4960.6976    -4715.685   -4960.6976            0    8539.8518     19.62368    19.726302    20.356594    7880.0912    7830.1245    9000.4341    8788.9967   -195.34017    284.14459   -280.77472   -3734.2592 
31828000    145.55346   -4947.3974   -4666.6853   -4947.3974            0     10303.28    19.619973    19.762619    20.244487    7849.6386    10955.063    9874.5014    10080.275   -466.43132    605.54765    168.93046   -3487.1769 
31829000     138.1611   -4964.3322   -4697.8769   -4964.3322            0    10573.932    19.603681    19.690244    20.367267    7861.7907    9726.4315    11657.923     10337.44   -609.05708   -954.75168   -335.11055   -3485.5106 
31830000    140.65572   -4940.8524    -4669.586   -4940.8524            0    11217.372    19.735531    19.633577    20.206876    7829.7414    10891.221    11322.678    11438.216    166.92437    140.23213    -67.90806   -3388.6884 
31831000    138.58987   -4953.3626   -4686.0804   -4953.3626            0    9933.2303     19.69711    19.822649    20.175788    7877.6142    9101.5984    9620.2648    11077.828   -314.37908   -708.84466    833.07202   -3544.8821 
31832000    133.06757    -4961.457    -4704.825    -4961.457            0    8629.1108    19.490009    19.697317    20.538449    7884.7286    8917.4053    8825.8115    8144.1154   -1329.9186    1102.3906   -388.83219   -3712.5577 
31833000    135.26794    -4949.045   -4688.1694    -4949.045            0    9656.2616    19.648179    19.749178    20.317186    7883.7872    9228.2213    8717.1754    11023.388    857.01201    144.60576   -1489.3587   -3577.9219 
31834000    144.76869   -4944.0348   -4664.8362   -4944.0348            0    10295.922    19.610621    19.573653    20.431894     7842.813     10669.15    10254.504    9964.1116    61.927842   -79.336206    1281.4227    -3487.195 
31835000    134.42692   -4950.6659   -4691.4123   -4950.6659            0    10733.424    19.534057    19.605398    20.370859    7801.4884    10362.046    11323.137    10515.089     297.6854    47.145374    781.37612   -3470.1987 
31836000    132.95948   -4955.0245    -4698.601   -4955.0245            0    9121.2757    19.688942    19.538995    20.430842    7859.7888     8270.265    9963.6629    9129.8993   -105.16103    870.31666    473.84776   -3653.0569 
31837000    136.91578   -4965.0702   -4701.0166   -4965.0702            0    8530.6185    19.601798    19.849539    20.279895    7890.6366    8203.0597      7250.74    10138.056    391.25012    1139.8944    395.47423   -3719.3399 
31838000    138.26642   -4964.0899   -4697.4315   -4964.0899            0    7348.6323    19.566183    19.883029    20.390419    7932.5863    7151.0088    6420.2027    8474.6853    214.84562    750.17047    -821.1229   -3847.2782 
31839000    132.03116   -4965.5563   -4710.9231   -4965.5563            0    10204.811    19.458686    19.769542    20.347009    7827.2766     9755.276    10883.828    9975.3281   -497.24545    213.93439    713.99269   -3546.0154 
31840000    130.63694   -4949.5466   -4697.6023   -4949.5466            0    9093.4127     19.51483    19.738082     20.47403     7886.296    8475.7339    9720.4441      9084.06    253.69277   -1406.1778    447.65301   -3651.7367 
31841000    137.13209   -4967.6498    -4703.179   -4967.6498            0    9550.2629    19.595902    19.718018    20.411907    7887.0051    8893.2531    11090.872    8666.6633   -163.79032    1308.8884    1333.6198   -3604.6707 
31842000    134.74628   -4953.2136    -4693.344   -4953.2136            0    10359.119    19.504725    19.624086      20.5421    7862.7433    11052.013    10890.819    9134.5251   -573.25698    69.763609    494.05266   -3505.4634 
31843000    141.93469   -4951.4319   -4677.6989   -4951.4319            0    10100.276    19.655569    19.680128    20.372767     7880.678    11302.272    9831.1932    9167.3628    2.5310268   -304.08051    1026.7802    -3516.858 
31844000    141.88609   -4966.1759   -4692.5366   -4966.1759            0     10336.45    19.673527    19.506744    20.524614    7876.6583    11660.889    9985.2956    9363.1663   -343.04388    983.84532   -61.487208   -3505.1577 
31845000    131.22914   -4962.6279   -4709.5414   -4962.6279            0    10373.729    19.610353    19.635503    20.347586    7835.0241    9527.1985    10845.456    10748.533    36.196617    1027.9288    176.15071   -3524.1791 
31846000     135.9988   -4949.6447   -4687.3596   -4949.6447            0     8859.115    19.600418    19.811347    20.264695    7868.9974    7023.1004    9527.4951    10026.749   -715.24223    532.39767  -0.83176057   -3670.6765 
31847000    140.17627   -4960.9421   -4690.6003   -4960.9421            0    9889.7631    19.567263    19.814501    20.307229    7873.4284    10118.278    10781.461    8769.5502   -643.39562   -297.67464    638.51255   -3554.9996 
31848000    136.10234   -4952.0247   -4689.5399   -4952.0247            0    10107.953    19.663832    19.802859    20.183965    7859.6377    8602.3467    10638.721    11082.791   -406.43692    160.02655    517.62204   -3530.9183 
31849000    129.89402   -4936.6088   -4686.0973   -4936.6088            0    10650.976    19.453011    19.652171    20.471276    7826.0438    11552.365    10517.218    9883.3461    468.22605    985.44054   -519.72832     -3470.45 
31850000    133.38698   -4961.2148   -4703.9668   -4961.2148            0    8166.8651    19.464654    19.789974    20.594405    7933.0676     8681.595    8262.6627    7556.3376   -276.08301   -28.438981    628.59274    -3759.096 
31851000    130.40591   -4963.0537    -4711.555   -4963.0537            0    10268.044    19.511943    19.709718    20.435047    7858.8061    10507.656    10700.262    9596.2142   -425.48995    719.63575   -668.55183   -3534.7075 
31852000    129.68478   -4938.7764   -4688.6684   -4938.7764            0     8821.188    19.528842    19.767771    20.405102    7877.2198     8897.204    7539.8541    10026.506   -259.77163   -151.69755   -16.683009     -3675.28 
31853000    135.80501   -4934.3423   -4672.4309   -4934.3423            0    9645.7074    19.523468    19.689073     20.39219     7838.737    9661.3131    9112.6689     10163.14    548.34373   -276.20478   0.68577391   -3569.7342 
31854000    143.26899   -4958.1723    -4681.866   -4958.1723            0    9064.5834    19.533993    19.619547    20.518278    7863.5909    8966.5001    9035.6735    9191.5767   -418.57079   -158.12921    762.38477   -3642.3178 
31855000    143.71811   -4942.2448   -4665.0723   -4942.2448            0     9597.221    19.552116    19.845808    20.265031      7863.39    8957.0766    9511.8548    10322.732    139.41907    1143.6675   -2178.2241    -3564.468 
31856000    132.49768   -4947.6341   -4692.1012   -4947.6341            0     11014.08    19.603034    19.426496    20.468459    7794.7631     9796.462    13096.263    10149.515   -499.03283    -323.4018    920.87224   -3440.0357 
31857000    132.94723   -4944.6399     -4688.24   -4944.6399            0     8817.095    19.645517    19.626144    20.436126    7879.4704    9308.6881    8870.3656    8272.2312    839.69342   -232.86319    157.94818   -3675.0324 
31858000    132.48596    -4931.443   -4675.9327    -4931.443            0    9298.9654    19.632872    19.678744     20.31015     7846.832    8348.4185    10124.736    9423.7417   -249.42473    486.94295    558.33576   -3611.7777 
31859000     136.2869   -4955.4479   -4692.6072   -4955.4479            0    9153.5516    19.629081    19.827213     20.23251    7874.2902     8906.545    8613.5326    9940.5771   -50.800955    1342.4717   -47.264691   -3641.4275 
31860000    142.87094   -4952.5459   -4677.0073   -4952.5459            0    9310.6724      19.6215    19.718927    20.323436     7863.441    9166.1412    9848.3037    8917.5723    284.99983   -423.17562    64.640152   -3609.2573 
31861000    141.44036   -4936.2052   -4663.4255   -4936.2052            0    11791.824     19.77539    19.592054    20.101539    7788.1504    10644.943    11965.849     12764.68    54.640266   -694.55279   -933.19923   -3324.0844 
31862000    137.28411    -4948.969   -4684.2051    -4948.969            0    9736.9172     19.63509    19.770345    20.308625     7883.656    9380.1379    9552.7234     10277.89    549.46616   -1139.2511    199.31949   -3564.7027 
31863000    135.43545   -4963.9261   -4702.7274   -4963.9261            0     9945.051    19.669596    19.632646    20.329727    7850.6536    9301.6102    10358.896    10174.647    325.05564   -115.12048   -442.55472   -3564.0815 
31864000    136.64013   -4951.9807   -4688.4587   -4951.9807            0    10263.095    19.646084    19.564277    20.474478    7869.5995    10279.386    9870.3408    10639.558   -158.84747     521.4743    286.96863    -3510.563 
31865000    139.68246   -4954.0889   -4684.6995   -4954.0889            0     9169.287    19.578374     19.60548    20.389509    7826.3788    9675.7385    8908.0128    8924.1099    -390.6572     182.8806    928.18354   -3638.1198 
31866000    129.98946   -4960.0343   -4709.3387   -4960.0343            0    10136.063    19.656156    19.690713    20.329569    7868.4324    9663.0632    10856.687    9888.4374   -638.35882   -600.24238   -283.08355   -3546.1949 
31867000     134.9919   -4964.5472    -4704.204   -4964.5472            0     10267.86    19.618181    19.528141    20.459297    7838.0922    10712.293    9350.5817    10740.706   -161.19551    470.55881    491.94793   -3530.4793 
31868000    134.90346   -4953.7993   -4693.6266   -4953.7993            0    10279.096    19.492304    19.643104    20.441727    7826.9196    9777.2265    11500.504    9559.5573   -500.42925    6.8084901   -355.45809   -3520.2926 
31869000    139.86354   -4963.7759   -4694.0373   -4963.7759            0    11076.102    19.609135    19.661363     20.23217    7800.3579    9787.0594    11890.539    11550.707     558.6067   -29.322654   -484.96375   -3434.0175 
31870000    132.95271   -4941.6677   -4685.2572   -4941.6677            0    10315.438     19.61536    19.735419    20.259842    7842.9363     8388.074    12118.064    10440.177   -161.16964   -714.92382    278.71064   -3505.3652 
31871000    128.29925   -4955.5094   -4708.0735   -4955.5094            0    8305.7695    19.577523    19.627654    20.463228    7863.2172    8108.9271    8573.4251    8234.9564   -107.90126   -308.20292   -616.74156   -3755.5931 
31872000     135.6183   -4935.4611   -4673.9098   -4935.4611            0    8990.6542    19.618027    19.777054    20.251192    7857.1948     8104.144    10474.686    8393.1321    342.47045   -77.903522   -340.32096   -3643.6786 
31873000     129.7379   -4938.6063   -4688.3958   -4938.6063            0    9342.8064    19.651494     19.54143     20.46014    7857.0678    8310.0843    9825.7069     9892.628    77.008568    38.004586   -428.49215   -3617.8291 
31874000     131.4386   -4936.0058   -4682.5154   -4936.0058            0     10480.74    19.474007    19.619661    20.483133    7826.0608    10409.023    11360.641    9672.5559    452.27799   -912.44799    269.29887   -3486.2954 
31875000    138.37518   -4938.5457   -4671.6775   -4938.5457            0    10121.949    19.431155      19.7088    20.460738    7835.7413    11047.242    10138.609    9179.9972   -174.33481    5.3073864    690.80893   -3514.9791 
31876000    134.35753   -4961.8311   -4702.7113   -4961.8311            0    9699.9068     19.40751    19.735122    20.451665    7833.1838    9940.4567    9247.4136      9911.85   -506.34337    419.98954   -843.50018   -3594.6041 
31877000    139.18866   -4973.0717   -4704.6347   -4973.0717            0    7815.5024    19.434922    19.731693    20.615741    7905.8051    8922.6358     8620.832    5903.0393    287.24516    912.55292    645.59663   -3803.5225 
31878000     134.2546   -4955.8208   -4696.8995   -4955.8208            0    9569.1493    19.446249     19.79846    20.391604    7850.8857    10591.458    8898.8899    9217.1002   -388.94355    187.00328   -622.57507   -3601.2595 
31879000    144.36095   -4937.5784   -4659.1662   -4937.5784            0    11454.739    19.481905     19.68816    20.360457    7809.5154    11329.593    10432.271    12602.355     66.16925    5.7604053   -425.57899   -3354.5427 
31880000    131.39699   -4965.2168   -4711.8066   -4965.2168            0     8795.185    19.540162     19.67852    20.412585    7849.0771    8577.5148    8862.5623    8945.4778   -45.382893    1065.8073   -228.29214   -3705.0153 
31881000    129.00685   -4952.0728   -4703.2722   -4952.0728            0    10252.039    19.554112    19.684826    20.312559    7818.6961    9750.9882    10685.261    10319.867    525.57488    305.70531    580.82405   -3534.2562 
31882000    141.22708   -4940.4985   -4668.1302   -4940.4985            0     10712.36     19.54306    19.741525    20.330932     7843.873    10781.136     10280.13    11075.813   -242.56546   -23.994037   -1069.9997   -3442.6915 
31883000    140.70396   -4937.3453   -4665.9859   -4937.3453            0    11564.526    19.521885    19.553524    20.483465    7818.9821    11671.112    11545.777     11476.69    55.359059    614.69297    469.51685   -3347.2617 
31884000    124.47056   -4936.1283   -4696.0763   -4936.1283            0    9764.1231    19.596556    19.676077    20.313199    7832.4314    9902.4976    8939.7886    10450.083    -267.3927   -276.20416    514.93787   -3580.7403 
31885000    136.41831   -4956.6825   -4693.5883   -4956.6825            0    9106.9199    19.734991    19.613411    20.345105    7874.9898    9265.3706    9890.0984    8165.2907    77.471415   -48.201768     10.49782   -3647.6709 
31886000    144.44319   -4962.3571   -4683.7862   -4962.3571            0    9725.9102     19.80125    19.417797    20.450852     7863.284    9426.5538    9887.8288    9863.3478   -198.17141    17.043295   -223.14402    -3568.439 
31887000    134.10163   -4948.5567   -4689.9305   -4948.5567            0    11337.383    19.719713    19.305249    20.474869     7794.659    10984.282    11880.519    11147.348    65.425938    589.72471    826.03123   -3401.1296 
31888000    137.12159   -4956.0387   -4691.5881   -4956.0387            0    9508.4509    19.864736    19.324586    20.405953    7833.3922    8435.7035    9955.5109    10134.138    64.276757     1463.476    274.51832   -3605.3238 
31889000    127.58261   -4957.8056   -4711.7518   -4957.8056            0    9996.9356    19.790821    19.508191    20.313713    7842.7813    9577.9653    9804.3259    10608.516    289.88122   -85.561118   -201.49838   -3568.3131 
31890000    141.55845   -4952.7286   -4679.7212   -4952.7286            0    10126.965    19.745393    19.515912    20.317282    7829.2512    10650.194    9655.3595    10075.342    -322.5267    409.94391    100.12453   -3523.4081 
31891000     134.2271    -4947.946   -4689.0778    -4947.946            0    9748.8803    19.655359    19.531891    20.361824    7817.0333      9465.38    9882.8101    9898.4509    290.89091    505.24458   -157.96791   -3577.6722 
31892000    134.39324   -4952.9098   -4693.7211   -4952.9098            0    10282.578    19.722506    19.647973    20.253445    7848.3571    11977.563    8063.5718      10806.6   -129.16609    1386.2803   -316.71565   -3516.7747 
31893000    132.89543   -4952.1301     -4695.83   -4952.1301            0     9767.672    19.847048    19.623708    20.190038    7863.4682    10774.295    8298.6132    10230.108    29.574344    539.33171    -552.4426   -3575.6674 
31894000    133.96204   -4942.3604   -4684.0033   -4942.3604            0    9505.7414    19.787137    19.428128    20.377608    7833.7034    8322.9088    11488.383    8705.9319    549.03785   -616.27565      153.899   -3598.0053 
31895000      134.791   -4954.0105   -4694.0547   -4954.0105            0    9220.8032    19.773161     19.49519    20.414362    7869.3592    8745.2194     10104.58    8812.6097   -459.11629   -327.14167   -346.60037   -3635.8151 
31896000    129.37886   -4950.3464   -4700.8284   -4950.3464            0    9963.8043    19.723017    19.405486    20.523627     7855.105    8709.3667     10409.49    10772.557   -455.51818    641.79196   -655.88996   -3559.3884 
31897000    132.91891   -4964.3263    -4707.981   -4964.3263            0    9337.4088    19.856811    19.516525    20.364105    7891.8231     8194.031    10285.675    9532.5203    125.17887    1445.9295   -678.80934   -3633.2999 
31898000    127.41735    -4944.387    -4698.652    -4944.387            0    10799.768    19.769533    19.407742     20.48775    7860.7805    10688.396    10394.167    11316.741    12.118928    879.35401   -710.21192   -3460.5512 
31899000    144.34225   -4956.4951   -4678.1189   -4956.4951            0    9103.8411    19.798934    19.559691    20.291558    7858.1297    7876.8429    10658.968    8775.7125   -315.37621      868.995    134.06276   -3634.7936 
31900000    138.28728    -4959.142   -4692.4434    -4959.142            0    9801.0424    19.693827    19.521153    20.435269    7856.2614    10304.269    8331.8659    10766.992    25.290849   -69.103637    80.057351   -3569.4839 
31901000    144.27626   -4949.3254   -4671.0765   -4949.3254            0    9028.6158    19.706093    19.563892    20.427285    7875.2877    7747.9497    10086.569    9251.3283   -331.36454    159.69096   -685.77761    -3634.113 
31902000    136.89213   -4941.8058   -4677.7978   -4941.8058            0    9664.0427     19.58203    19.472056    20.508539    7819.9545    10604.145    8474.3724    9913.6102   -336.52875    215.86348   -870.60871   -3575.6523 
31903000    139.01778   -4968.0449   -4699.9374   -4968.0449            0     8711.528    19.770395    19.506098    20.529432    7917.0372    9024.6933    8725.9536    8383.9371    -303.2155    1081.8899   -227.24345   -3694.0882 
31904000    136.95165   -4963.3953   -4699.2725   -4963.3953            0    9151.9912    19.829009    19.413132    20.565342    7916.4882    7941.9463     11126.44    8387.5869     239.7308    469.51577   -1623.4309   -3642.6398 
31905000    135.72268   -4955.0609   -4693.3083   -4955.0609            0    10486.765    19.709985    19.416821     20.49183    7842.3307     9616.618    11635.789    10207.888    324.05869    131.99257    496.03362   -3493.9124 
31906000    130.93943   -4962.8213   -4710.2936   -4962.8213            0    8495.5794     19.71127    19.621722    20.495136    7926.8844     10128.94    6656.5014    8701.2964    -744.1175     192.4335    987.02569   -3728.1581 
31907000    137.81545   -4942.9326   -4677.1439   -4942.9326            0     10134.03    19.648642    19.455277    20.476051    7827.3754    8931.8471    11460.717    10009.527   -483.44282    1314.7137    996.71137   -3520.3014 
31908000    132.59934   -4959.8102   -4704.0812   -4959.8102            0    9950.3061    19.742646    19.397973    20.460122    7835.5579    10729.369    10172.664    8948.8862   -258.85718    1940.9934   -953.77939   -3567.0242 
31909000    131.08323   -4960.7987   -4707.9936   -4960.7987            0    8374.0649    19.691624    19.465575    20.617128    7902.7262    7805.0737    8798.1667    8518.9544   -124.47015   -670.67755    691.50498   -3742.8562 
31910000    142.44536   -4959.2537   -4684.5358   -4959.2537            0    9334.1831    19.697508    19.508937    20.403226    7840.4995    9001.3076    10174.036    8827.2062   -268.97027   -195.52611    98.174049   -3617.2127 
31911000    129.68445   -4951.1933    -4701.086   -4951.1933            0    7853.9768     19.67546    19.454975    20.595976    7883.8431    9717.1143    6375.8536    7468.9625   -156.56222    711.93991   -558.36059   -3798.0533 
31912000    138.76231   -4949.9878    -4682.373   -4949.9878            0    10555.417    19.754571    19.460554    20.334975     7817.474    10660.646    10851.164    10154.441   -407.77075    2047.7465     692.6435   -3478.9516 
31913000    138.36628   -4953.3932   -4686.5422   -4953.3932            0    9754.0253    19.720794    19.348379    20.599888    7860.2042    11596.172     9125.714    8540.1898    286.81106   -1045.3589   -388.83807   -3568.4088 
31914000    135.53055   -4962.2621     -4700.88   -4962.2621            0     10173.01    19.854454    19.491048    20.318204    7862.8224    9888.6011    9763.9799    10866.449   -302.81108    262.11577   -1233.6291   -3534.3287 
31915000    139.46836   -4959.3982   -4690.4217   -4959.3982            0    10670.644    19.842736    19.449942    20.340249     7850.117     11592.56    9241.9718      11177.4     -54.1249    1681.1679     749.7975   -3468.7834 
31916000    140.47932    -4949.606   -4678.6798    -4949.606            0    10741.869    19.696132    19.428994    20.463346    7830.8318    9907.2393    11734.801    10583.567    265.81229   -351.14664    61.623904   -3451.9084 
31917000    143.64003    -4957.391   -4680.3691    -4957.391            0    10657.249    19.647335    19.344579    20.558987    7813.8428    9820.4025      11656.2    10495.144   -334.93555   -72.050371   -2044.5401   -3465.9023 
31918000    143.73253   -4939.3112    -4662.111   -4939.3112            0    10804.779    19.600528    19.492428    20.447533    7812.2227    11826.654    10435.981    10151.701   -251.87883    162.63586    1280.5997   -3431.0874 
31919000    143.59417   -4947.2838   -4670.3504   -4947.2838            0    9776.8363    19.707347    19.438513    20.480694     7845.775    9713.7231     10110.49    9506.2955    30.738769   -465.49215    1290.1057   -3551.6595 
31920000     140.1334   -4954.6763   -4684.4172   -4954.6763            0    8509.5274    19.624373    19.404615    20.652113     7864.395    8795.2384    9929.0262    6804.3176   -130.03697     160.9509   -1010.3722   -3708.4244 
31921000    147.20653   -4965.8808   -4681.9807   -4965.8808            0    9036.7292    19.729681    19.499591    20.430572    7860.0638    9163.7087    8596.0144    9350.4646   -278.73651   -187.95525    -225.0916   -3646.0916 
31922000    133.93076   -4956.9378   -4698.6411   -4956.9378            0    10338.837    19.693614    19.421019     20.55828    7862.9263    10154.834    10228.427     10633.25   -67.666912   -281.18209    1105.1319   -3513.0586 
31923000    133.35272     -4962.31    -4705.128     -4962.31            0     8481.356    19.754621    19.538052    20.393463    7871.1999    9481.2244    6564.7742    9398.0693    840.54467   -862.35725    -483.1357   -3731.5246 
31924000    131.34483   -4947.4234   -4694.1139   -4947.4234            0    9477.8906    19.864112    19.440068    20.414786    7883.3674     9266.876    9878.7032    9288.0927    546.99724   -782.01621   -1550.7845   -3604.4329 
31925000    138.19781   -4960.7686   -4694.2425   -4960.7686            0    8983.8473    19.745131    19.477135    20.451021    7865.0246    8489.8459    9927.9187    8533.7773   -292.96487    620.17929   -45.956231   -3663.7654 
31926000    138.05487    -4975.757   -4709.5066    -4975.757            0    8968.3182    19.994292    19.656095    20.112743    7904.5034    7288.9725    9662.4378    9953.5443    279.23646   -550.10667   -97.998575   -3675.6471 
31927000    134.35207   -4950.3136   -4691.2043   -4950.3136            0    9212.8734    19.826737    19.532013     20.31037    7865.3142    7697.7128    9176.0527    10764.855    420.72047    945.63489    669.35759   -3634.4183 
31928000    137.98286   -4948.1396    -4682.028   -4948.1396            0    11185.899    19.773856    19.417737    20.369912    7821.3035    9181.2177    12105.729    12270.749   -55.981651    267.69907   -14.259845   -3406.1008 
31929000    141.09889   -4938.8425   -4666.7214   -4938.8425            0    10717.303    19.708286    19.482716    20.325201    7804.2866    10190.502    9853.6757     12107.73   -542.61239   -104.81213    881.93429   -3446.9046 
31930000    141.17277   -4940.2366   -4667.9731   -4940.2366            0    11206.708    19.720749    19.401707    20.339066    7782.0559    10347.746    12083.121    11189.258   -433.29018   -277.33736    201.68006   -3396.0867 
31931000    141.50836    -4968.603   -4695.6922    -4968.603            0    9670.4312    19.748972    19.567248    20.302981    7845.7426    10122.843    9551.0893    9337.3614   -873.00394    -430.6433   -226.56569   -3589.1811 
31932000    136.02267   -4952.3015   -4689.9704   -4952.3015            0    8837.1346    19.855632    19.552696    20.247985    7860.8984    10181.359    7656.3475    8673.6971   -25.644482     1655.384   -284.29698   -3676.8535 
31933000    130.44374    -4956.448   -4704.8763    -4956.448            0     10346.77    19.784028    19.398109     20.43669    7843.0445    9954.8877    12141.128    8944.2955   -249.14245    553.35564    1041.2439   -3521.3842 
31934000    136.28869   -4952.3749   -4689.5307   -4952.3749            0    10936.309    19.659153    19.340942    20.427003     7766.889    12087.639     11459.65    9261.6385    -784.5832   -55.367719   -318.40261   -3450.7518 
31935000    143.30597    -4943.115   -4666.7373    -4943.115            0    11521.316     19.52515    19.667002    20.339038     7810.214    11064.881    11890.574    11608.492    333.70384    -117.1827   -348.71892   -3354.4139 
31936000    138.61302   -4943.4289   -4676.1021   -4943.4289            0    8949.4857    19.653661    19.604342    20.380015    7852.3604     9164.538    8012.9306    9670.9885   -356.68137     394.9299    721.85755   -3651.2193 
31937000    139.73875   -4965.9427   -4696.4447   -4965.9427            0    9601.2058    19.608163    19.511507    20.538713    7857.7994    10886.859     9188.121     8728.637   -633.94892   -343.09868   -402.62292   -3596.1663 
31938000    141.70658   -4951.6839   -4678.3909   -4951.6839            0    9925.5158    19.622493     19.43857    20.532905    7831.9318    8690.8946    10855.974    10229.679   -339.92916    1072.1683    590.26795   -3544.6916 
31939000    127.94928   -4943.3519    -4696.591   -4943.3519            0    11112.173    19.656926    19.294625    20.562317    7798.7317    11092.458    11746.766    10497.297   -748.81755   -483.30897    122.71339   -3432.7312 
31940000    140.85665   -4935.8602   -4664.2063   -4935.8602            0    11185.037    19.668802    19.454254    20.466569    7831.3663    12025.515    11166.561    10363.037     883.8549    26.132744   -478.82012   -3386.7358 
31941000    136.77099   -4947.0693    -4683.295   -4947.0693            0     9595.596    19.701951    19.426176    20.492766    7843.2697    9255.3678    9652.1808    9879.2395    -47.67736    -500.6212   -329.70253   -3585.6927 
31942000    137.85481   -4948.3669   -4682.5023   -4948.3669            0    9294.3993    19.696164    19.517016     20.43051    7853.6995    9740.9659    8667.7202    9474.5118    12.016463   -320.81721    327.86959    -3617.939 
31943000    138.28608   -4953.3592   -4686.6629   -4953.3592            0    9666.1274    19.889521    19.543846    20.249257    7871.2454    9315.9399    9220.4657    10461.977   -741.97814   -436.47182   -525.05137   -3577.0491 
31944000    134.62542   -4941.0204    -4681.384   -4941.0204            0    9281.6289    19.872715    19.486926    20.389057     7895.828    9293.3649    9672.6159    8878.9059   -53.715423    397.94791    527.89061   -3612.5807 
31945000    139.98658   -4958.8992   -4688.9234   -4958.8992            0    9493.6797    19.823458    19.392775    20.442778    7858.8552    8683.7085    9945.2477    9852.0827    634.13281    85.888686    -687.8882    -3600.821 
31946000    138.76972   -4957.4061   -4689.7771   -4957.4061            0    9374.4435    19.852743    19.517556    20.241432    7843.0898    8786.1152    9099.3617    10237.854   -952.27867    587.78871    1550.7655   -3617.4962 
31947000    139.66637   -4958.1483     -4688.79   -4958.1483            0    8075.0237    19.653812    19.509671     20.50185    7861.2174    8013.6386     9090.785    7120.6474   -431.36277    169.68946    71.978338   -3763.0064 
31948000    138.41727   -4960.5561   -4693.6068   -4960.5561            0    8695.2049    19.821475    19.613922    20.322353    7900.8609    7408.6925    8831.2165    9845.7055    10.754406   -256.18242   -271.04986   -3691.6935 
31949000    140.37171   -4945.1983   -4674.4797   -4945.1983            0    9873.3065    19.691059    19.814141    20.187191    7876.2633    9544.6037    9198.5057     10876.81    447.55339    573.69688    134.08131   -3540.3604 
31950000    133.76152   -4947.5647   -4689.5944   -4947.5647            0    10769.244    19.469885    19.663854     20.40269    7811.2308    11163.412    10180.823    10963.496    699.00712   -562.47004   -1048.2473   -3462.7752 
31951000    132.95404   -4955.1116   -4698.6985   -4955.1116            0    8724.3528    19.693613    19.701524    20.275029    7866.5934    8667.3128    8322.4895    9183.2561   -63.208915     492.6177    1657.2432   -3697.7867 
31952000    134.27277   -4944.2491   -4685.2928   -4944.2491            0    9829.8153    19.483472    19.611086    20.491327    7829.5733    10371.993    9951.9383    9165.5142    42.684879    12.880833   -551.73592   -3562.8626 
31953000    134.74163   -4964.6698   -4704.8092   -4964.6698            0     10675.03    19.693692     19.70767    20.235998    7853.9304     10830.64    10410.168    10784.282   -509.79052    995.80389   -390.06245    -3482.075 
31954000    139.36554   -4972.7688   -4703.9907   -4972.7688            0    10060.589    19.653853    19.696125    20.310228    7862.1857    11142.801    9103.5098    9935.4558    203.95163   -348.08183    219.82681   -3550.4243 
31955000    130.57506   -4960.4653   -4708.6404   -4960.4653            0    10052.956    19.437297    19.750313     20.42571    7841.2808    11553.643    8080.7611    10524.465    326.42991   -85.161664    958.30838   -3559.0141 
31956000    135.70321   -4965.3386   -4703.6235   -4965.3386            0     10220.47    19.408312    19.811043    20.408534    7847.0588     11529.18    9028.3694     10103.86    122.54578   -79.808258    489.40764   -3533.9796 
31957000     137.9993   -4964.0623    -4697.919   -4964.0623            0    8866.3014    19.496727    19.713891    20.560802    7902.6749    9634.5864    8422.8695    8541.4482   -190.48269    203.98194   -715.64074   -3676.0564 
31958000    137.87367   -4956.6109   -4690.7099   -4956.6109            0    8943.2045    19.595413    19.691689      20.4579    7894.0241    9569.1573     8971.611    8288.8451    29.284794   -103.69463   -476.94051   -3661.1124 
31959000    134.44128   -4952.8576   -4693.5762   -4952.8576            0    9908.8317    19.706858    19.762947    20.197397     7866.191    10532.413    9292.4591     9901.623    277.18931   -277.91298   -217.02341   -3556.8318 
31960000    148.21382   -4959.7837   -4673.9409   -4959.7837            0    10261.726    19.622339    19.756226     20.30129    7870.0663    11113.068    9384.4099    10287.701   -749.29336    145.38631    355.55965   -3496.1323 
31961000    137.16507   -4953.3116   -4688.7772   -4953.3116            0    8645.6228    19.361644    19.831095    20.442297    7849.0778      10739.4    7256.5302    7940.9386    162.46435   -753.34456     62.11509   -3699.1063 
31962000    134.49333   -4949.1417     -4689.76   -4949.1417            0    9882.1489    19.498864    19.755339    20.384578    7852.2752    10120.364    9679.8876    9846.1954   -0.4442756    689.11529    532.36878   -3558.0822 
31963000    142.10779   -4952.6736   -4678.6067   -4952.6736            0    8979.3451    19.517282    19.708682    20.404657    7848.8532     8721.855    8796.9101    9419.2704   -690.18883    1586.0527    842.30822   -3650.7638 
31964000    137.67384   -4956.0163   -4690.5007   -4956.0163            0    9034.0525    19.835911    19.612415    20.307904    7900.3863    8059.6833    9886.3281    9156.1461    422.64244    346.94622   -202.34167    -3649.606 
31965000    128.68888   -4957.8888   -4709.7015   -4957.8888            0    10575.366    19.591115    19.702647     20.22629    7807.2835    8013.7191    12062.359    11650.021    -214.5415   -153.89257   -168.80026   -3505.5774 
31966000    127.76844   -4943.2344   -4696.8223   -4943.2344            0    8685.2519    19.661233    19.682429    20.303534    7857.0781    7814.3789    8288.3211    9953.0558    365.13656     -399.854   -414.46808   -3701.6016 
31967000    136.16738   -4973.1286   -4710.5184   -4973.1286            0       9296.8    19.524026    19.682494     20.43897    7854.3188    10130.721    8442.1038    9317.5753   -49.486154   -627.75958    582.75726   -3645.5961 
31968000    143.33083   -4956.3297   -4679.9041   -4956.3297            0    9923.6411    19.431656    19.721424    20.474175    7846.1122    10746.119    9572.2735     9452.531   -745.23936     331.6462   -467.89195   -3544.3667 
31969000    143.18863   -4956.5351   -4680.3838   -4956.5351            0    10853.358    19.411556    19.704503    20.409081    7806.3731    11690.031    10434.116    10435.926    604.69808    110.79716    407.43218   -3444.7514 
31970000    137.18106   -4962.3083   -4697.7431   -4962.3083            0    11066.651    19.470772     19.70327    20.356347    7809.4662    10939.528    11159.718    11100.708     201.0698    -90.02235   -357.40946   -3437.3284 
31971000    138.66631   -4959.0237   -4691.5941   -4959.0237            0      8950.81    19.498823    19.621527    20.486286    7837.9851     7625.723    10001.669    9225.0378   -169.93945   -776.03879    436.44732   -3668.4362 
31972000    134.29425   -4960.3073   -4701.3095   -4960.3073            0    10987.086    19.456642    19.824187    20.340866    7845.7183    11786.463    10540.504    10634.292   -321.05372      256.596    -369.7561   -3444.1478 
31973000    136.74836   -4965.5959   -4701.8652   -4965.5959            0    8909.3787    19.527111    19.765141    20.401255    7873.9886     10590.31    7753.0465    8384.7796   -551.04395   -480.09812    349.20197   -3678.7652 
31974000    136.99183   -4953.0284   -4688.8282   -4953.0284            0    10392.654     19.52534    19.808906    20.256646    7834.7768    10655.832     9753.336    10768.794   -293.87909    1514.4365    456.01345   -3501.3409 
31975000    134.81411   -4963.0668   -4703.0664   -4963.0668            0    10374.091    19.594941    19.804663    20.267485    7865.2273    10431.041    10005.969    10685.262   -223.93623    -109.9688     553.9809   -3513.0932 
31976000    136.71053   -4951.9704   -4688.3127   -4951.9704            0    10613.606    19.639724    19.610125    20.369967    7845.2371    10732.011    10688.179    10420.627   -108.52326   -189.70695    93.167134   -3473.9598 
31977000    143.37571   -4947.0605   -4670.5484   -4947.0605            0    9269.3033    19.751053    19.653381    20.484622    7951.6174    8639.3528    10229.878    8938.6791   -419.98604   -99.589284    84.088682   -3595.6227 
31978000    141.87609   -4948.7029   -4675.0829   -4948.7029            0    9115.5551    19.574752    19.701396    20.333211    7841.5017    8215.7709    10319.767    8811.1272    476.44894   -106.63996    1479.8767   -3632.6256 
31979000    141.52708   -4958.3514   -4685.4046   -4958.3514            0    10942.468    19.615718    19.568178    20.427043    7840.7951    10925.845    12536.266    9365.2925   -574.85041   -162.79628    821.42084   -3434.1339 
31980000    142.08197    -4936.167   -4662.1499    -4936.167            0    10502.536    19.694961     19.60635    20.228528    7811.1712    8548.5024    10993.505      11965.6   -77.760849    307.30542   -1301.0848   -3465.7229 
31981000    143.79171   -4958.1108   -4680.7964   -4958.1108            0    9655.6419     19.60255    19.670783    20.418369    7873.2721    9188.1975    10487.158    9291.5707    -961.8197    383.19132    666.87506   -3572.1008 
31982000    138.30332   -4953.1754   -4686.4459   -4953.1754            0    9845.5674    19.662284    19.657088    20.352455    7866.2899    8526.6956    10676.372    10333.635   -162.62172   -314.64066    510.68507   -3556.9449 
31983000    135.23486    -4956.377   -4695.5652    -4956.377            0    9758.7181    19.581024    19.945543    20.119457    7857.7375    9317.6809    9058.1279    10900.346   -181.63971    2442.2419    222.60749    -3577.245 
31984000    139.57546    -4956.392    -4687.209    -4956.392            0      9467.32    19.775109    19.718075    20.311238    7919.9016    6781.2268    11302.556    10318.177   -1007.1399    325.57443    438.14747    -3593.699 
31985000     136.1446   -4967.8221   -4705.2558   -4967.8221            0    10079.928    19.744044    19.568395    20.385411    7876.0918    8453.3435    11811.016    9975.4226    31.316824     1218.077    376.31889   -3547.4277 
31986000    138.00079   -4964.4185   -4698.2724   -4964.4185            0    10226.027    19.648807    19.678139    20.324513    7858.5125    10679.702    9787.1943    10211.183    213.59411    -102.7229   -301.19267   -3526.2844 
31987000     133.6191   -4956.3613   -4698.6657   -4956.3613            0    9926.8109    19.705307    19.770173    20.357916    7930.9825     9384.083    10020.761    10375.589    61.230036    584.51657   -167.87359   -3550.4787 
31988000    138.61123   -4949.2149   -4681.8915   -4949.2149            0    9988.8866    19.518126    19.816524    20.270934    7840.4206    11414.491    7886.3462    10665.822   -419.00017    1312.3158    1313.3537   -3539.7173 
31989000    130.60036    -4942.903   -4691.0293    -4942.903            0    9728.0128    19.521895    19.773484    20.349227    7855.1249    10738.481    8772.7058    9672.8512    183.59617   -214.82566   -412.57366   -3576.5984 
31990000    140.71123   -4957.8193   -4686.4459   -4957.8193            0     9470.199    19.433952     19.61345    20.633618     7864.851    9763.8431    11356.281    7290.4725   -226.30834   -324.50421    926.55878   -3600.2066 
31991000    129.47258   -4957.1616   -4707.4629   -4957.1616            0    9107.4612    19.653893    19.758296    20.332062    7895.4973    8419.4579    9326.8731    9576.0526    -271.4026   -744.94009    149.03465   -3658.7594 
31992000     129.7353   -4944.1956   -4693.9902   -4944.1956            0    9526.6978    19.568948    19.667954    20.444051    7868.5305    10300.913     8362.544    9916.6361   -369.78301   -968.33661   -310.91676   -3600.7592 
31993000    143.43563   -4952.4299   -4675.8022   -4952.4299            0    9101.9641    19.532629    19.550651    20.496084    7826.9546    8938.7968    10826.595    7540.5001   -973.19615    464.00899    33.637555   -3636.8303 
31994000     142.1688   -4953.2392   -4679.0547   -4953.2392            0    11141.815    19.718625    19.676723    20.198741    7837.0698    10366.871    11085.492    11973.081    231.12858    953.69919   -167.67481    -3405.594 
31995000    144.21195   -4945.6876   -4667.5627   -4945.6876            0    10840.747    19.691837    19.739059    20.245113    7869.2417    10697.742    11449.471    10375.027    355.18209   -994.04361    1190.8974   -3423.4263 
31996000    139.70839   -4953.5917   -4684.1523   -4953.5917            0    10657.484    19.559301      19.7337     20.37074    7862.6445     11081.99    9727.4121    11163.051    -189.6351    1074.3136    418.26994   -3462.0735 
31997000    136.10519   -4962.4908   -4700.0005   -4962.4908            0    8474.3149    19.663014    19.838121    20.240895    7895.5128    8397.0499    7818.5093    9207.3854   -100.61522    965.65389    131.54195   -3724.2004 
31998000    141.21649   -4940.4103   -4668.0625   -4940.4103            0    10683.998    19.460532    19.769375    20.277476    7801.2021    12596.034    7844.0068    11611.954   -138.21092   -316.48026    1611.3518   -3452.5169 
31999000    128.60401   -4946.0054   -4697.9817   -4946.0054            0    10657.318    19.497778    19.756346    20.306582    7822.1934     10787.04    11279.354    9905.5596   -234.48171    434.90708    909.48709   -3482.2091 
32000000    139.91278   -4949.9534   -4680.1199   -4949.9534            0    8491.4146    19.538424    19.875549    20.451498    7942.0717    8299.0651    8471.0577    8704.1211   -228.37997    834.03824    49.942952   -3696.5851 
Loop time of 338.03 on 64 procs for 250000 steps with 972 atoms

Performance: 127.799 ns/day, 0.188 hours/ns, 739.579 timesteps/s
99.1% CPU use with 64 MPI tasks x 1 OpenMP threads

MPI task timing breakdown:
Section |  min time  |  avg time  |  max time  |%varavg| %total
---------------------------------------------------------------
Pair    | 19.957     | 28.864     | 39.157     |  84.5 |  8.54
Bond    | 0.25782    | 0.27393    | 0.28647    |   1.0 |  0.08
Kspace  | 127.45     | 137.66     | 146.72     |  38.7 | 40.73
Neigh   | 0.93128    | 0.93922    | 0.94702    |   0.4 |  0.28
Comm    | 82.59      | 83.336     | 84.11      |   3.7 | 24.65
Output  | 0.5164     | 0.518      | 0.51988    |   0.1 |  0.15
Modify  | 80.881     | 81.889     | 82.52      |   4.7 | 24.23
Other   |            | 4.547      |            |       |  1.35

Nlocal:        15.1875 ave          20 max          10 min
Histogram: 1 1 2 8 13 12 8 12 5 2
Nghost:        2333.31 ave        2365 max        2312 min
Histogram: 7 8 8 9 12 10 4 3 1 2
Neighs:        4939.22 ave        7141 max        3084 min
Histogram: 2 6 5 12 13 10 8 5 1 2

Total # of neighbors = 316110
Ave neighs/atom = 325.21605
Ave special neighs/atom = 2.0000000
Neighbor list builds = 2894
Dangerous builds = 0

unfix		3
unfix		2
unfix		1

write_data	data.final.${pid}
write_data	data.final.1
System init for write_data ...
PPPM initialization ...
  extracting TIP4P info from pair style
  using 12-bit tables for long-range coulomb (../kspace.cpp:340)
  G vector (1/distance) = 0.37246493
  grid = 24 24 24
  stencil order = 5
  estimated absolute RMS force accuracy = 0.0034764202
  estimated relative force accuracy = 1.0469136e-05
  using double precision FFTW3
  3d grid and FFT values/proc = 2197 216
Last active /omp style is kspace_style pppm/tip4p/omp
WARNING: Not all mixed pair coeffs generated from mixing. Use write_data with 'pair ij' option to store all pair coeffs. (../write_data.cpp:312)

write_restart   restart.lmp.${pid}
write_restart   restart.lmp.1
System init for write_restart ...
PPPM initialization ...
  extracting TIP4P info from pair style
  using 12-bit tables for long-range coulomb (../kspace.cpp:340)
  G vector (1/distance) = 0.37246493
  grid = 24 24 24
  stencil order = 5
  estimated absolute RMS force accuracy = 0.0034764202
  estimated relative force accuracy = 1.0469136e-05
  using double precision FFTW3
  3d grid and FFT values/proc = 2197 216
Last active /omp style is kspace_style pppm/tip4p/omp
Total wall time: 0:05:38
