#include		in.partitions
include		in.temp
variable        temperature equal 238.97
variable	tempDamp equal 100.0
include		in.pressure
variable        pressure equal 7686.3
variable        pressureDamp equal 1000.0 # This is 1 ps
include		in.seed
variable        seed equal 745823

units		real
atom_style	full
read_restart    restart.lmp.${pid}
read_restart    restart.lmp.0
Reading restart file ...
  restart file = 30 Jul 2021, LAMMPS = 30 Jul 2021
  restoring atom style full from restart
  triclinic box = (-3.2545377 -0.15807287 -0.044488044) to (14.864537 22.738072 19.274486) with tilt (-0.11875663 -6.8736253 0.22477569)
  2 by 4 by 4 MPI processor grid
  restoring pair style lj/cut/tip4p/long/omp from restart
  restoring bond style harmonic/omp from restart
  restoring angle style harmonic/omp from restart
  1008 atoms
  672 bonds
  336 angles
Finding 1-2 1-3 1-4 neighbors ...
  special bond factors lj:    0        0        0       
  special bond factors coul:  0        0        0       
     2 = max # of 1-2 neighbors
     1 = max # of 1-3 neighbors
     1 = max # of 1-4 neighbors
     2 = max # of special neighbors
  special bonds CPU = 0.002 seconds
  read_restart CPU = 0.009 seconds

include 	in.setup
variable	out_freq equal 1000
variable	out_freq2 equal 10000
variable	out_freq3 equal 1000

timestep	2.0

neigh_modify    delay 7 every 1

include		in.tip4p
# This is TIP4P/Ice

# create groups ###
group ox type 2
336 atoms in group ox
group hy type 1
672 atoms in group hy

# set charges - beside manually ###
set group ox charge -1.1794
Setting atom values ...
  336 settings made for charge
set group hy charge 0.5897
Setting atom values ...
  672 settings made for charge

# ### TIP3P Potential Parameters ###
pair_style lj/cut/tip4p/long/omp 2 1 1 1 0.1577 8.5
pair_coeff 1 1*2 0.000 0.000
pair_coeff 2 2 0.21084 3.1668
bond_style  harmonic
bond_coeff  1 450 0.9572
angle_style harmonic
angle_coeff 1 55 104.52
kspace_style pppm/tip4p/omp 1.0e-5
pair_modify tail yes

thermo          ${out_freq}
thermo          1000
thermo_style    custom step temp pe etotal epair emol press lx ly lz vol pxx pyy pzz pxy pxz pyz enthalpy

restart 	${out_freq3} restart.lmp.${pid} restart2.lmp.${pid}
restart 	1000 restart.lmp.${pid} restart2.lmp.${pid}
restart 	1000 restart.lmp.0 restart2.lmp.${pid}
restart 	1000 restart.lmp.0 restart2.lmp.0


include         in.dump
dump            myDump all atom ${out_freq2} dump.water.${pid}
dump            myDump all atom 10000 dump.water.${pid}
dump            myDump all atom 10000 dump.water.0
dump            myDump2 all dcd ${out_freq2} dump.dcd
dump            myDump2 all dcd 10000 dump.dcd
dump_modify     myDump append yes
dump_modify     myDump2 append yes


variable natoms 	equal  "count(all)"                        # NUMBER ATOMS
variable H      	equal  "enthalpy/v_natoms"                 # ENTHALPY-per-atom
variable Vol      	equal  "vol/v_natoms"                 # volume-per-atom
fix AVG all 		ave/time ${out_freq} 1 ${out_freq} v_Vol v_H file vol_enthalpy.dat
fix AVG all 		ave/time 1000 1 ${out_freq} v_Vol v_H file vol_enthalpy.dat
fix AVG all 		ave/time 1000 1 1000 v_Vol v_H file vol_enthalpy.dat



fix 		1 all shake 1e-6 200 0 b 1 a 1
       0 = # of size 2 clusters
       0 = # of size 3 clusters
       0 = # of size 4 clusters
     336 = # of frozen angles
  find clusters CPU = 0.000 seconds
fix             2 all nph tri ${pressure} ${pressure} ${pressureDamp}
fix             2 all nph tri 7686.3 ${pressure} ${pressureDamp}
fix             2 all nph tri 7686.3 7686.3 ${pressureDamp}
fix             2 all nph tri 7686.3 7686.3 1000
fix             3 all temp/csvr ${temperature} ${temperature} ${tempDamp} ${seed}
fix             3 all temp/csvr 238.97 ${temperature} ${tempDamp} ${seed}
fix             3 all temp/csvr 238.97 238.97 ${tempDamp} ${seed}
fix             3 all temp/csvr 238.97 238.97 100 ${seed}
fix             3 all temp/csvr 238.97 238.97 100 745823


run             250000
PPPM initialization ...
  extracting TIP4P info from pair style
  using 12-bit tables for long-range coulomb (../kspace.cpp:340)
  G vector (1/distance) = 0.37883589
  grid = 24 27 32
  stencil order = 5
  estimated absolute RMS force accuracy = 0.0024945243
  estimated relative force accuracy = 7.5121858e-06
  using double precision FFTW3
  3d grid and FFT values/proc = 5355 672
Last active /omp style is kspace_style pppm/tip4p/omp
Neighbor list info ...
  update every 1 steps, delay 7 steps, check yes
  max neighbors/atom: 2000, page size: 100000
  master list distance cutoff = 10.8154
  ghost atom cutoff = 10.8154
  binsize = 5.4077, bins = 5 5 4
  1 neighbor lists, perpetual/occasional/extra = 1 0 0
  (1) pair lj/cut/tip4p/long/omp, perpetual
      attributes: half, newton on, omp
      pair build: half/bin/newton/tri/omp
      stencil: half/bin/3d/tri
      bin: standard
Per MPI rank memory allocation (min/avg/max) = 10.31 | 10.32 | 10.33 Mbytes
Step Temp PotEng TotEng E_pair E_mol Press Lx Ly Lz Volume Pxx Pyy Pzz Pxy Pxz Pyz Enthalpy 
 4500000    234.56981   -4832.0012   -4362.8326   -4832.0012            0    6896.1017    18.119074    22.896145    19.318974    8014.6107    6954.9908    7424.6946    6308.6197    -273.2581    552.30748     -1465.88   -3556.7826 
 4501000    238.36673    -4886.108   -4409.3451    -4886.108            0    6334.0782    17.904734    22.927508    19.355727    7945.7374    6679.2367    5741.3791    6581.6187    1331.7565    544.31148    432.12738   -3675.3494 
 4502000    232.30807   -4863.9027   -4399.2579   -4863.9027            0    6307.1315    18.086398    22.817051    19.359637    7989.3016    6348.5971    5389.0848    7183.7127    1113.9886   -457.42567   -766.34738   -3664.3776 
 4503000    238.14597   -4886.4595   -4410.1381   -4886.4595            0    7100.8084    17.982338    22.846532    19.423411    7979.7991    7723.3463    6515.2316    7063.8475    70.093133   -924.09185    858.75349    -3583.766 
 4504000    224.75336   -4881.3882   -4431.8538   -4881.3882            0    6266.7338    18.002464     22.81871    19.360975    7953.3529    4750.0454    7704.2438    6345.9121    576.29455   -402.91919   -194.63202   -3704.9659 
 4505000    240.37186   -4872.6086   -4391.8351   -4872.6086            0    7048.2671    17.993505     22.66054    19.442999     7927.738    7284.6757     8174.062    5686.0636   -168.66241    703.55989    524.39659   -3576.9291 
 4506000    242.43983    -4863.251   -4378.3414    -4863.251            0    6892.8104    18.042875    22.874666     19.32657    7976.5537    7065.5717    6901.7091    6711.1504    747.66908    -281.1642    27.453817   -3576.5018 
 4507000    234.01353   -4867.9075   -4399.8515   -4867.9075            0    7924.5504    18.008989    22.954902    19.203347    7938.5598    6378.9431    8651.7628    8742.9454     1289.691    2167.7375      1331.54   -3482.3808 
 4508000    242.95081   -4873.9541   -4388.0225   -4873.9541            0    8653.3997    17.954618    22.897652    19.224599    7903.5902    8560.4325    8295.4637    9104.3027    55.307455    281.24823      433.362   -3390.5818 
 4509000    244.21942   -4848.9786   -4360.5096   -4848.9786            0    7132.1063    17.926078    22.982403    19.309901    7955.3769    7817.1276    7843.1605    5736.0309   -1636.8406    460.16795   -1049.3833   -3533.0354 
 4510000    243.51495   -4875.3057   -4388.2458   -4875.3057            0    8824.5779     18.04892    22.798476    19.222832    7909.9619    8578.4621    8096.0944    9799.1771   -378.31395   -658.34519   -1063.7172   -3370.2541 
 4511000    239.92185   -4879.6021   -4399.7288   -4879.6021            0    7179.4008    17.923246    23.020277    19.157198    7904.2236     6497.987     7952.039    7088.1765    493.82028    165.58209   -199.91562   -3572.1234 
 4512000    241.35871   -4823.3829   -4340.6356   -4823.3829            0    9754.0651    17.838596    22.921439    19.282395     7884.307    12320.922    8390.9061    8550.3673    839.68757     -1273.09    178.94433    -3219.069 
 4513000    253.10795   -4859.3688   -4353.1216   -4859.3688            0    7687.5911     17.77442     23.08114    19.285819    7912.0818    7252.7926    8204.0925     7605.888   -393.81907     917.4807    -2333.595   -3466.0536 
 4514000    233.92781   -4872.6725    -4404.788   -4872.6725            0    8065.3048    18.061721    23.001208    19.103871    7936.5387    7102.1457    8528.4608    8565.3079     1199.367    380.60337    -335.6637    -3471.259 
 4515000    228.10729   -4849.8289   -4393.5861   -4849.8289            0    8164.1051    17.900211    23.002375    19.296661    7945.3494    9571.2783    7229.9727    7691.0643    953.16702   -393.72872   -377.58911   -3447.5723 
 4516000    249.93119   -4888.6016   -4388.7083   -4888.6016            0    7298.0791    18.032153    22.977438    19.153183      7935.79     8810.423    6210.0827    6873.7317    230.18084    572.58047    154.82981   -3544.0626 
 4517000    239.45333   -4866.1046   -4387.1684   -4866.1046            0    8495.0315    17.817404    22.781009    19.397921    7873.5857    8665.9066    9115.0417     7704.146    1164.5697    608.34021     1538.758   -3411.6995 
 4518000    232.05361   -4874.9041   -4410.7682   -4874.9041            0    7511.2845     17.88487    22.900463    19.391185    7942.0823    7534.2665    7640.9118    7358.6753    181.49166   -1038.4308    -562.5947   -3540.7577 
 4519000    231.17067   -4853.4461   -4391.0762   -4853.4461            0    8595.3124    17.892759    23.021432    19.213059    7914.1845    8630.8343    8377.1685    8777.9342    1120.4145   -1174.7006   -1467.0336    -3399.003 
 4520000    233.53034   -4862.3797   -4395.2902   -4862.3797            0    8184.8537    17.879845    22.949256    19.253497    7900.2708    8525.1887    7955.8591    8073.5133     1014.429   -190.27386   -1083.1144   -3452.2531 
 4521000    235.61345   -4898.0559   -4426.7998   -4898.0559            0    6101.4814    17.947135    22.961923    19.362479    7979.2918    6631.6278    6219.8151    5453.0013   -1401.0549   -241.23635   -2193.4817   -3716.7718 
 4522000    241.15976   -4878.4472   -4396.0979   -4878.4472            0    8342.7512    18.009885    22.959525    19.137733    7913.4219    8614.4827    7141.4022    9272.3687    1230.1444    177.02704    1377.7529   -3433.2681 
 4523000    229.59208   -4887.6835    -4428.471   -4887.6835            0    6993.6103    18.003942    22.856365    19.371842    7971.6036    7629.2456    5918.3359    7433.2494   -444.86383   -214.65583   -225.33922   -3615.4102 
 4524000    248.58073   -4852.2533   -4355.0612   -4852.2533            0    6924.4356    18.090636    22.936085    19.253574    7988.8541    6038.6461    6958.1679    7776.4927    205.86731    557.61939    1135.7313   -3548.3004 
 4525000     246.8949   -4856.4655   -4362.6452   -4856.4655            0    9273.0068    17.967723     22.83479     19.16665    7863.8693    7587.4103    9857.7887    10373.821    464.72395   -1032.0977   -903.04222   -3299.1568 
 4526000    245.57706   -4868.0375    -4376.853   -4868.0375            0    7689.6077    17.784967    22.989806    19.442357     7949.454    9519.2281    6706.1172    6843.4777   -364.97054   -1274.3084   -1311.7478   -3485.3612 
 4527000    241.63936   -4853.9252   -4370.6166   -4853.9252            0    6313.3505    18.032497    22.998727    19.260085    7987.6284    7368.3916    5599.5861    5972.0737    377.89138    109.01577    1096.8463   -3635.1658 
 4528000    230.63202   -4865.1125   -4403.8199   -4865.1125            0    8552.7179     18.00153    22.896607    19.211422    7918.4477    8473.6087    8811.3722    8373.1729    -731.8318    1032.5023     898.1842   -3416.1312 
 4529000    239.95841   -4870.3124    -4390.366   -4870.3124            0    6656.6463    17.870943    23.087284    19.253025    7943.6354    7323.0563    5751.6287     6895.254   -1190.1953   -1015.4467    196.43045    -3619.195 
 4530000    248.10704   -4871.0759   -4374.8311   -4871.0759            0    5636.4944    17.769291    23.030702    19.575849    8011.2059    7657.7513    4498.9103    4752.8215   -1099.5414    87.307246      1447.58   -3716.2901 
 4531000    238.56199   -4845.7724    -4368.619   -4845.7724            0    5845.5921    18.019383    23.021546    19.296462    8004.8297    7189.9203    4836.4046    5510.4516    -399.6778   -261.54621   -865.86049   -3686.1915 
 4532000    242.31226   -4868.9562   -4384.3017   -4868.9562            0    7266.2384    17.873022    23.253277    19.092504    7934.9658    7703.2437    5726.0518    8369.4196    303.74479    735.66321    881.02505   -3543.4284 
 4533000    238.05542   -4865.0211   -4388.8809   -4865.0211            0    9463.7057    17.908041     23.06833      19.1187    7898.0993    9168.2873     7891.161    11331.669   -66.241974     551.9433    471.85399   -3298.7975 
 4534000    234.83065   -4894.0873   -4424.3969   -4894.0873            0     8281.226      17.8778    23.045599    19.150891    7890.2554    9285.4171     7653.798    7904.4627    730.31483   -139.91287   -88.870109   -3471.4657 
 4535000    240.72802   -4904.8786   -4423.3928   -4904.8786            0    8301.8028    17.755709    23.030353    19.244699    7869.5472     11153.59    6659.5192    7092.2986   -1206.2849   -780.15942   -43.802727   -3470.6009 
 4536000     224.9633   -4866.9727   -4417.0183   -4866.9727            0    8787.2498    17.795287    22.855119    19.393898    7887.7581    9266.9698    9405.2405    7689.5391   -330.35916   -236.33411   -845.46264   -3406.1782 
 4537000    244.94694    -4874.963   -4385.0389    -4874.963            0    10122.608    18.062441    22.738702    19.173891    7875.0325    10368.228    9253.5767     10746.02    963.40883   -272.55871    38.377991   -3222.4647 
 4538000    245.48653   -4891.4661   -4400.4627   -4891.4661            0    8187.5249     18.06959    22.693135    19.334421    7928.1886      8449.98     8611.233    7501.3618   -370.75324    823.87381    112.56962   -3453.7842 
 4539000     235.8431   -4880.6253     -4408.91   -4880.6253            0    7927.4776    18.102582    22.764158    19.339539    7969.6316    9148.7571    6225.9582    8407.7177   -36.142426   -389.77367     265.3063    -3487.508 
 4540000    241.90775   -4865.6558   -4381.8105   -4865.6558            0    8544.2236    17.888008    22.578369    19.595634    7914.3246    8709.7441     9429.572    7493.3549    852.85797    813.26587    1678.9832   -3395.6165 
 4541000    243.72771   -4880.0875    -4392.602   -4880.0875            0    7041.5108    18.176126    22.634508    19.351441    7961.3315    6052.9427    7124.3491    7947.2406    21.824623   -955.75462   -620.95141   -3575.0273 
 4542000    246.86347   -4886.1734    -4392.416   -4886.1734            0    8677.7773    18.095504    22.471214    19.463253    7914.3022    8178.4274    9620.2312    8234.6732    619.25599    535.07311   -580.21958   -3390.8098 
 4543000    251.22706   -4878.0529   -4375.5678   -4878.0529            0     9264.767    18.038696    22.511851    19.490947      7914.97    10023.338    9854.6888    7916.2743    198.70501    487.05676   -1262.3529   -3306.1198 
 4544000    242.31043    -4900.753   -4416.1022    -4900.753            0    9207.8016    18.017256    22.745692    19.183099    7861.5208    8931.7847    8904.4551    9787.1651    755.78734    58.093357    217.96323   -3360.4073 
 4545000    238.59996   -4904.5933   -4427.3639   -4904.5933            0    7210.4005    18.015891    22.884186     19.23172    7928.8342     5468.092    7063.2352    9099.8744    981.80336    580.73696   -1126.6058   -3593.5971 
 4546000    232.03063    -4879.472    -4415.382    -4879.472            0    7070.2591    17.996754    22.909207     19.30393    7958.8438    7281.9625    7062.6682    6866.1467     464.5911   -512.64339   -874.25483   -3594.7259 
 4547000    246.92786   -4883.5362     -4389.65   -4883.5362            0    9261.7263    17.732337    23.039501    19.359634    7909.2662    9741.0213    9304.0647    8740.0928    1094.4162   -378.18692    2327.5821   -3321.3234 
 4548000    231.74537   -4872.8601   -4409.3407   -4872.8601            0     8737.607    17.941061    22.984816    19.197978    7916.7082    9240.9042    8790.3226    8181.5942   -120.25648    552.91346   -959.88068   -3400.5222 
 4549000    245.86919   -4869.4813   -4377.7126   -4869.4813            0    7868.8704    17.969098    22.834741    19.350341    7939.8257    7181.0334    7827.1143    8598.4637    103.74601    881.51767    -731.5486   -3466.5429 
 4550000    239.26955   -4891.5356   -4412.9669   -4891.5356            0    7717.3933    18.063463    22.577299    19.419225    7919.6304    6851.0697    8679.6887    7621.4214      1229.05   -710.39196   -325.30275   -3521.6104 
 4551000    254.04479   -4842.5019    -4334.381   -4842.5019            0    8157.9694    18.133772    22.786234    19.218144    7940.9444    5536.2643    9011.9881    9925.6559    1149.8115   -219.32723   -717.88781   -3389.6022 
 4552000    231.43184   -4879.7896   -4416.8974   -4879.7896            0    8694.9777    18.075453    22.612639    19.411001    7933.9301    8677.2063    9377.7714    8029.9555   -72.248838    331.12847   -1593.2887   -3410.8169 
 4553000    232.86906   -4891.5976   -4425.8307   -4891.5976            0    8942.3082    17.943076    22.571573    19.477989    7888.6525    11142.343    8762.3483    6922.2329    1636.0678    673.64501     28.37587   -3397.0369 
 4554000    249.32015   -4856.2176   -4357.5464   -4856.2176            0     8224.311    18.155021    22.739151     19.19774    7925.3988    6821.0916    8823.8278    9028.0137   -981.55493    -442.3789    173.44565   -3406.9492 
 4555000    251.75133   -4877.1235   -4373.5898   -4877.1235            0    8599.5529    17.930082    22.755358    19.408325    7918.7023    7674.9765    9346.3773    8777.3048   -984.94636    -1048.018    1121.0672   -3380.4605 
 4556000    259.96347   -4872.3429   -4352.3839   -4872.3429            0    7338.0626    18.077204    22.641591    19.418756    7948.0321    7217.2551    8657.0531    6139.8796    320.82678   -175.27222   -804.83987   -3501.8005 
 4557000    233.69592   -4894.3146   -4426.8939   -4894.3146            0    6079.9678     18.09346    22.928263    19.117937    7931.1066    5172.6861    6244.7076    6822.5097   -625.14872    157.30233   -2377.1613    -3723.642 
 4558000    240.95712   -4874.7794   -4392.8354   -4874.7794            0    8957.7116    17.874371    22.816277    19.317185    7878.0616    10165.285    8074.0964    8633.7534    661.45609   -581.30904    311.62734   -3363.6531 
 4559000    238.48408   -4876.5716   -4399.5739   -4876.5716            0    7184.9759    18.057855    22.854214    19.205017    7925.8736    7590.4203    5936.3728    8028.1347    244.51399   -384.71311     505.7356   -3569.0573 
 4560000    239.53969   -4872.0292   -4392.9202   -4872.0292            0    5828.8643    18.039973    22.920035     19.26807    7966.9005     4445.676    6598.2504    6442.6663   -1098.9992    426.50714   -1708.6591   -3715.6699 
 4561000    234.33217   -4848.9476   -4380.2543   -4848.9476            0    6710.5335    18.092154    22.962345    19.268064    8004.6915    6274.2743    5297.5679    8559.7583    2598.6615    611.30404    386.20529   -3596.8652 
 4562000    248.11667   -4847.0255   -4350.7615   -4847.0255            0    6348.4722    17.925847    23.041721    19.306989    7974.6045    7807.6456    5875.8416    5361.9294   -64.224373    826.01424   -1480.4676   -3612.4252 
 4563000    252.18543   -4878.5752   -4374.1732   -4878.5752            0    6938.7206    18.003133    23.023285    19.226142    7969.0682    6942.4983    6775.6078    7098.0558    2862.5638    1559.2182    3718.8514   -3567.7503 
 4564000    232.21512   -4868.2682   -4403.8093   -4868.2682            0    6712.7101    17.831806    23.192856    19.244262    7958.8591    6584.4973    5868.7136    7684.9195   -674.68927    57.799718    794.53358    -3624.653 
 4565000    229.00233   -4877.5228   -4419.4899   -4877.5228            0    7532.1102     17.68298    23.263624    19.263182    7924.2991    9397.7665    6492.9508    6705.6132    1121.3976   -297.33922    1689.0387   -3549.0207 
 4566000    245.42139   -4853.3663   -4362.4932   -4853.3663            0    8197.0903    18.002987    23.000705    19.163117    7935.0902    7922.9822    7896.1701    8772.1187   -433.27337   -924.51149   -499.37805   -3413.8836 
 4567000    241.32629   -4887.0239   -4404.3415   -4887.0239            0     8678.059    17.837529    22.755665     19.42801    7885.9234    9902.6262    9846.0492    6285.5017   -1575.4632    804.32706   -231.37733   -3406.2944 
 4568000    239.51067    -4872.003    -4392.952    -4872.003            0    6973.0124     18.17527    22.682064     19.30989     7960.553    6156.3511    6974.6168    7788.0693    351.26607   -413.29258   -494.99734   -3583.4097 
 4569000    238.25013   -4907.1975   -4430.6678   -4907.1975            0    7309.1211    18.167257    22.549956    19.349193    7926.8007    6714.1027    8770.3219    6442.9386   -932.74107    562.54601    1685.3324   -3585.7023 
 4570000    233.47863   -4857.8272   -4390.8411   -4857.8272            0    7919.1426    17.991918    22.823005     19.34138    7942.1436    8540.3563      8534.63    6682.4415   -1854.7051     669.1675   -1787.3813   -3473.5825 
 4571000    234.03045   -4865.6719   -4397.5821   -4865.6719            0     7585.078    17.973351    22.942661    19.298481    7957.8539    8061.6528    7653.9328    7039.6485    1417.7992    113.53192   -647.62331   -3517.2797 
 4572000    251.47152   -4849.1664   -4346.1923   -4849.1664            0    6597.3522    17.850695    23.194441    19.302419    7991.9134    8901.0461    5851.8097    5039.2009   -1017.8268    862.93741    119.56473   -3577.2454 
 4573000    233.76446   -4888.4226   -4420.8648   -4888.4226            0    7466.1967    17.832483    23.289952    19.033497     7904.948    6562.6666    7629.0288    8206.8946   -688.20967     753.0557   -1321.9548   -3560.1202 
 4574000    223.53583   -4874.6111   -4427.5118   -4874.6111            0    7914.5301    17.856549     22.98142    19.327677    7931.4765    8539.9726    7747.9586    7455.6592    129.12557   -102.08655   -2083.4937   -3512.0187 
 4575000    239.39612   -4883.9943   -4405.1725   -4883.9943            0    8579.5343    17.943389    22.848963    19.286363    7907.1738    9149.5774    7606.4944     8982.531    121.67703    418.71383   -1073.7667   -3415.7976 
 4576000    244.02422   -4866.7577   -4378.6791   -4866.7577            0    9718.4279    18.026989     22.68465    19.267915    7879.3426     7563.103    10818.184    10773.996    -10.63037   -123.13841    542.71004   -3261.9138 
 4577000    228.99132   -4901.3817   -4443.3708   -4901.3817            0    8102.9631    18.049899    22.486399    19.455077    7896.3726    8548.1701    8213.2454    7547.4738    1173.3544    361.69261    97.842034   -3510.2296 
 4578000    249.92465   -4849.0225   -4349.1423   -4849.0225            0    8273.2831    18.102978    22.799526    19.192136    7921.3491    6868.9481    8594.9683    9355.9328    485.93709    148.82051    1761.2513   -3393.3734 
 4579000    237.56651   -4889.1918   -4414.0294   -4889.1918            0    7258.1682    18.027051    22.694551    19.448256    7956.5894    9908.4836    6519.5506    5346.4703   -692.19622   -74.142989   -437.08496   -3571.8011 
 4580000    237.11949   -4839.7142   -4365.4459   -4839.7142            0    9299.4126    18.158734    22.672401    19.245063    7923.2328    8248.7493    9298.2471    10351.241    856.96758    449.20413   -1.7312639   -3290.8781 
 4581000    236.05308   -4856.5594    -4384.424   -4856.5594            0    9911.9326    17.945475    22.714789    19.275818    7857.3567    9649.5605    9993.9819    10092.256    1187.6797   -549.91074   -263.68115   -3248.6009 
 4582000    232.86721   -4891.4496   -4425.6864   -4891.4496            0    7732.8371    18.026879    22.695313    19.361167    7921.1506    6903.0039     7980.146    8315.3614    566.45225    257.86124   -1060.4777   -3532.3747 
 4583000    250.39603   -4886.3334   -4385.5104   -4886.3334            0     7811.736    18.005807    22.795827    19.305483    7924.0754     7318.763    7601.2499    8515.1952   -116.70284   -74.969153   -1105.8862    -3482.751 
 4584000    249.17421    -4861.582   -4363.2028    -4861.582            0    8228.4599    17.770817    22.981287    19.358269    7905.8442    9567.7025      7281.79    7835.8871    607.38618   -117.25565    1665.4171   -3414.4727 
 4585000    228.46524   -4869.0937    -4412.135   -4869.0937            0     9340.194     17.92112    22.980043    19.209778     7911.127    10360.728    8139.6407    9520.2134    1284.0485   -664.73363    566.73369   -3334.5038 
 4586000    250.11214   -4909.7563   -4409.5011   -4909.7563            0    7682.3919    17.872715    23.272339    19.005153     7905.001     6406.965    6912.1057     9728.105   -1758.5572   -590.54917   -3615.8887   -3523.8263 
 4587000    233.85594   -4874.8727   -4407.1319   -4874.8727            0    8243.5967    17.959556     23.10948    19.074263    7916.5055    7476.2245    7701.4682    9553.0974    70.769323   -456.90153   -933.78421   -3455.3748 
 4588000     237.2544   -4874.3888   -4399.8507   -4874.3888            0     5736.354    17.885585    22.984965    19.438596    7991.1977    4381.1296    6511.6346    6316.2977    522.68858    212.93611   -1189.0015   -3731.3164 
 4589000    229.41231   -4908.5452   -4449.6922   -4908.5452            0    5978.0744    18.143532    22.786071      19.3232    7988.5934    5616.5935    5665.1413    6652.4883   -1025.3694   -70.986749   -2845.3298    -3753.214 
 4590000    235.51204     -4883.96   -4412.9068     -4883.96            0    7915.0341    18.028893    22.582626     19.51885    7946.8998     9130.126    8385.2836    6229.6925    759.66046   -638.90087    963.50423   -3495.5751 
 4591000    231.44689   -4869.6442   -4406.7219   -4869.6442            0    8466.0653    18.183083    22.467493     19.35925    7908.8015    10044.819    8448.2948    6905.0821    229.89588   -857.61582    1602.0224    -3430.231 
 4592000    238.01325    -4883.503   -4407.4471    -4883.503            0    7412.8169    18.045924     22.69856     19.36616    7932.6987    8616.3422    7052.5011    6569.6075   -1070.3719      -844.32     77.26329   -3549.8563 
 4593000    239.09782   -4862.4322    -4384.207   -4862.4322            0    5991.6523    17.868993    22.960367    19.420136    7967.6672    7980.6714    5508.8783    4485.4072   -1179.7493   -480.21334    874.36108   -3687.9755 
 4594000    235.13434   -4867.3204   -4397.0227   -4867.3204            0    8094.2885    17.880028    23.158086    19.129101    7920.7338     7300.528     8230.509    8751.8285    1611.1075    674.85731   -1133.2661   -3462.0047 
 4595000    233.88806   -4903.7476   -4435.9426   -4903.7476            0     7057.352    17.717933    23.389794     19.14758    7935.1172    6642.4254    5967.3893    8562.2414      94.8803    1035.2344      275.941   -3619.2267 
 4596000    236.17815   -4861.5342   -4389.1487   -4861.5342            0    6898.4898    18.001827    23.079702    19.226271    7988.0693    7248.1375    6442.2101    7005.1216   -33.689027   -266.18318    1329.0621   -3585.4898 
 4597000    237.66941   -4870.2997   -4394.9316   -4870.2997            0    9036.9428    17.908707     22.88071    19.238128    7883.0909     9676.651    9190.5981    8243.5793    1366.0669    1378.1361    26.964569   -3355.9832 
 4598000    234.78868   -4861.5594    -4391.953   -4861.5594            0    9855.4214    17.957014    22.617366    19.428701    7890.7792    11871.169    9439.7784    8255.3171    133.77363   -524.34226     741.4946   -3257.8017 
 4599000     234.9306     -4873.19   -4403.2998     -4873.19            0    5830.9687    18.053605    23.017273     19.20064    7978.7252    4648.1108     5370.089    7474.7062   -183.25151   -944.13802   -180.11296   -3724.7994 
 4600000     241.1494   -4879.6771   -4397.3485   -4879.6771            0    8047.1223    17.797962    22.881413    19.426852    7911.4404    9019.3562    8353.1295    6768.8811    -1225.273   -23.148677   -407.96877   -3468.8696 
 4601000    232.27089   -4904.5045    -4439.934   -4904.5045            0    7377.1342    17.953978    22.941323    19.281044    7941.6309    8176.5994    7116.6124    6838.1907   -787.97734    154.03901    693.07419   -3585.5103 
 4602000    244.41516   -4886.0832   -4397.2227   -4886.0832            0    6585.6544    18.060632    22.858032    19.229552    7938.5458    6252.0803    6169.6423    7335.2407    -998.8514    90.472186    845.20087    -3634.765 
 4603000    233.92007   -4847.0848   -4379.2158   -4847.0848            0    8565.7936    18.012952    22.632308    19.436968    7923.9593    8331.5402     8916.302    8449.5387    2496.6117   -268.61569    835.85789   -3389.3285 
 4604000    244.65906   -4876.6663    -4387.318   -4876.6663            0    6240.8436    18.103765    22.780393    19.321498     7968.396    6280.8357    6185.7679    6255.9273    562.83498    390.11785   -2136.0988   -3662.0641 
 4605000    260.31671   -4880.3699   -4359.7043   -4880.3699            0    8051.8071    18.037143    22.693415    19.402122    7941.7611    7944.1576    7517.6797    8693.5839    991.79692    1377.1506    1476.2619   -3427.1244 
 4606000    233.00927   -4892.6266   -4426.5793   -4892.6266            0    7928.4389    17.902123     22.98849    19.238793    7917.5865    7633.1585    8396.1565    7756.0017   -249.31666    42.783776   -58.527457   -3511.0834 
 4607000    243.71429   -4874.7313   -4387.2726   -4874.7313            0    6746.6147    17.877986     23.01926    19.310967    7947.1972    7488.7345    7060.6434    5690.4664    -1974.743    377.53802   -1037.9934   -3605.3284 
 4608000    242.25914   -4870.3595   -4385.8113   -4870.3595            0    6643.5062    17.885427    23.263895    19.149842    7967.9559    6523.0205    5934.2244    7473.2735   -130.19154   -776.62788   -314.50885   -3613.8062 
 4609000     231.5561   -4867.4063   -4404.2655   -4867.4063            0    7497.2955    17.793569    23.273646     19.18629    7945.4495    10288.779    5190.8183    7012.2892   -183.33401   -1411.0308    1869.3898   -3535.5072 
 4610000    247.83127   -4875.4093   -4379.7162   -4875.4093            0    7831.4768    17.845969    23.068322     19.25185    7925.5351    8489.0656    7462.6129    7542.7517   -96.969033    410.50718   -2286.4691   -3474.5087 
 4611000    255.98867   -4870.8353   -4358.8263   -4870.8353            0    7034.5462    17.950592    22.997297    19.250658    7946.9622    6882.4323    6713.1039    7508.1023    223.48277    415.66221    329.18044   -3543.5344 
 4612000    246.11413   -4880.8434   -4388.5847   -4880.8434            0     8084.925    17.907437    22.716932    19.438116    7907.4651    5444.6151    9380.4322    9429.7278    1122.5245    815.97002   -2297.3066   -3456.2128 
 4613000    239.34165   -4893.5468   -4414.8339   -4893.5468            0     7597.871    18.077021    22.762868     19.27136     7929.873    7957.3366    8199.1241    6637.1524   -109.56703    11.952612   -2319.4753   -3536.1472 
 4614000    248.26323   -4870.7365   -4374.1794   -4870.7365            0    7120.0454    17.850775    22.710113    19.585971    7940.0179    8925.4118    8063.6174     4371.107    1675.2675   -1185.8774    1932.6726   -3549.6993 
 4615000    239.43395   -4882.0076   -4403.1101   -4882.0076            0    7397.8131    18.021469    22.921113    19.252204    7952.5491    6671.1713    7057.9186    8464.3494    338.93772    -542.7283   -569.49132   -3545.1134 
 4616000    232.19374   -4884.7978   -4420.3816   -4884.7978            0    7004.0337    17.910613    22.876858     19.35311    7929.7151    8434.4663    6245.3847    6332.2501   -300.16279   -879.83759    476.55848   -3610.3878 
 4617000    250.12632   -4927.7851   -4427.5016   -4927.7851            0    7090.3711    17.934039    22.790011     19.36848    7916.2262    8353.6104    6859.2375    6058.2653   -1058.7275   -673.72959    36.298137    -3608.918 
 4618000    235.19807   -4883.8403   -4413.4151   -4883.8403            0    7848.8525    18.075884    22.761925    19.238958    7915.7136    7573.2664    8006.7792     7966.512   -887.93287   -1000.4698    750.79628   -3507.3234 
 4619000    242.95641    -4908.095   -4422.1521    -4908.095            0    7282.3383    18.111266    22.692733    19.322837    7941.5722    7517.7011    6419.8401    7909.4739    672.84831    -90.67952    1457.1207    -3578.714 
 4620000    240.55694   -4887.7725   -4406.6289   -4887.7725            0    6826.0508    18.151987    22.541275    19.461012    7962.8415    6222.4166    7830.1432    6425.5925   -2264.5082   -652.85634    1597.0845   -3613.9205 
 4621000    240.70559   -4899.3422   -4417.9013   -4899.3422            0    7637.2527    17.950943    22.636937    19.551165    7944.7016    6791.6048     9326.155    6793.9982    242.84908    1242.2489    307.61542   -3533.0085 
 4622000    241.03674   -4849.0523   -4366.9491   -4849.0523            0    7634.7913    18.181699     22.76227    19.200447    7946.2341    5543.3757     8097.386    9263.6122   -548.12261   -362.23716     1308.186   -3482.1709 
 4623000     236.6023   -4873.1364   -4399.9025   -4873.1364            0    7060.4774    18.005438    22.925624    19.329618     7978.994    4841.4199    8115.9684    8224.0438   -255.72134    1157.2289   -142.46004    -3578.307 
 4624000    245.95397   -4877.0187   -4385.0804   -4877.0187            0    8727.6713    17.717424     23.09196    19.263688    7881.3533    10266.269    8047.9736    7868.7718      410.206   -1136.6235     78.51589   -3381.9092 
 4625000    233.02014   -4836.2203   -4370.1512   -4836.2203            0    10111.091    17.915237     23.09178     19.06243     7886.027    10450.666    9428.0521    10454.555    259.76166    -248.4339    730.53166   -3207.2785 
 4626000    230.78788   -4866.6983   -4405.0941   -4866.6983            0     10192.15    17.710864    23.007726    19.244394    7841.8347    8650.2156    10407.766    11518.469   -1012.2662    479.96859   -986.51938   -3239.4676 
 4627000    229.96311   -4871.5949   -4411.6403   -4871.5949            0    8162.8889     17.87758    23.108599    19.182279    7924.6952    8583.1909     6696.486    9208.9897    2030.7867   -1596.5181    2021.2353   -3468.2262 
 4628000     222.5174   -4860.2365   -4415.1742   -4860.2365            0    7505.0639    17.936946    23.013799    19.227399    7937.0181    7396.2356     7641.779    7477.1771    1020.6999    33.694289   -1014.0097   -3546.4385 
 4629000    246.90186   -4849.2244   -4355.3902   -4849.2244            0    8391.5131    17.849227    22.969189    19.342516    7930.0889    8509.0392    8741.5918    7923.9084    1978.3336    65.254575   -264.23701   -3384.8931 
 4630000    230.92599   -4881.9108   -4420.0303   -4881.9108            0    9665.2266    17.959307    22.877742    19.143153    7865.3164    10174.923     9316.648    9504.1085   -54.147686   -476.59789    245.14494   -3311.3556 
 4631000    230.65106   -4891.1018   -4429.7712   -4891.1018            0    8122.6659    17.837935    22.941103    19.303148     7899.271    7535.7282    8360.4244    8471.8451    1026.3086    324.64086   -603.97848   -3494.0176 
 4632000    247.31307   -4865.5272   -4370.8705   -4865.5272            0    5722.7725    18.029578    22.731592    19.572229    8021.5024    5589.1254    7156.9133    4422.2789   -220.29622    546.45386   -495.60741   -3701.3898 
 4633000     238.3265   -4854.4953   -4377.8129   -4854.4953            0    7852.2319    18.060101    22.687385    19.442929    7966.4772    7277.2153    9168.6678    7110.8126     294.4446    99.085207    430.35663   -3465.5178 
 4634000    237.85123   -4907.4714   -4431.7395   -4907.4714            0    5675.5367    18.141396    22.742857    19.381643    7996.6175    6251.2293    6356.7299    4418.6508    1471.4708    238.96292    1871.0293   -3769.8445 
 4635000    227.70155   -4868.2395   -4412.8083   -4868.2395            0    9309.5079    18.015862    22.654899    19.350036    7897.6696    10114.016    8453.5444    9360.9631    193.29127   -80.343632     122.8784   -3340.5447 
 4636000    238.81759   -4859.9365   -4382.2718   -4859.9365            0    9003.3265    17.901983    22.850562    19.326399    7905.8575    11410.783    8104.5086    7494.6881    576.37939   -168.54757    1732.9189   -3344.1988 
 4637000    231.26787   -4870.0953    -4407.531   -4870.0953            0    7566.6339    17.925336    22.997365     19.21342    7920.4534    6700.9547    7016.7777    8982.1693    131.62919   -852.68965   -55.749836   -3533.4964 
 4638000    241.61745   -4885.8518    -4402.587   -4885.8518            0    7008.1652    17.815965    23.161271    19.224741    7932.9049    6952.7499    7102.7513    6968.9944   -811.39349   -177.34296    834.76356   -3591.7894 
 4639000    235.22493   -4895.8797   -4425.4008   -4895.8797            0    9444.2198    17.732174    23.073987    19.195542    7853.8931    10628.357    8402.0111    9302.2909   -673.33772   -1406.2928   -309.13447   -3343.6506 
 4640000    242.08612   -4863.5271   -4379.3249   -4863.5271            0    6818.1482    17.846996    23.212518    19.113563    7918.2469    7183.6166    6136.1756    7134.6523    247.11477    -921.9283    1775.7876   -3591.9685 
 4641000    229.12943   -4870.2139   -4411.9267   -4870.2139            0    7524.7702    17.854351    23.047552    19.315749    7948.4133    7330.2916    8018.2796    7225.7394   -1071.2127     182.3157   -87.754141   -3539.6594 
 4642000    246.54076   -4891.4415   -4398.3295   -4891.4415            0    8065.1255    17.838281    23.046735    19.264448    7919.8867    8312.2946    7204.5826    8678.4995   -699.96367    1206.8567   -863.09881   -3466.7799 
 4643000    230.83742   -4870.4965   -4408.7931   -4870.4965            0    7323.5512    17.902563    23.127772      19.2334    7963.5201    7168.2398    7882.0741    6920.3396    78.710605    2126.0387   -1347.7444   -3558.2376 
 4644000    240.54834   -4881.5382   -4400.4118   -4881.5382            0    6455.1768    18.017078    22.898682    19.396486    8002.3564    7375.4936     7295.856    4694.1808      454.284   -285.38125     1136.512   -3647.0529 
 4645000     238.7866   -4871.8805   -4394.2778   -4871.8805            0    8725.3122    18.110016    22.636348    19.337459    7927.2875    9005.8478    7998.5164    9171.5724    780.11356   -1296.7734   -823.39905   -3385.5327 
 4646000    233.81139   -4882.5534   -4414.9018   -4882.5534            0     6999.061    17.970461    22.765921    19.427904    7948.2297    7425.4644    7680.8999    5890.8188   -58.235823     0.795592   -552.64032   -3603.5932 
 4647000    227.91118   -4881.7321   -4425.8815   -4881.7321            0    7326.3273    18.075687    22.729506    19.316223     7936.098    7056.5778    6341.3988    8581.0054     355.4893    11.749665    -511.9781   -3577.9335 
 4648000    240.02002   -4891.2784   -4411.2087   -4891.2784            0    7069.6451    18.001878    22.861639    19.323748    7952.7356    7841.1334     7393.353     5974.449    858.43608    237.38479    769.21794   -3591.2536 
 4649000    247.99072   -4873.4036   -4377.3915   -4873.4036            0    5861.0994    17.970521     23.09068    19.247601     7986.822    5804.3518    5310.6488    6468.2977    -668.6523   -360.98719   -1226.9049   -3694.6929 
 4650000     237.0941    -4884.282   -4410.0645    -4884.282            0    7132.8907    17.908397    22.966317    19.264225    7923.1819    6330.8292    7980.2394    7087.6037    890.70308    1124.9299    1236.8336   -3585.8484 
 4651000    246.71656   -4850.1286    -4356.665   -4850.1286            0    7772.8892    17.882881    22.999977    19.269854    7925.8039    8716.7878    6945.6637    7656.2163    -1119.597   -454.27888   -448.31982   -3458.1989 
 4652000    244.82548   -4876.4437   -4386.7624   -4876.4437            0    7879.8477    17.858556    23.041919    19.281227    7934.1364    9261.4646    7302.1244    7075.9541    651.49309   -1176.9935    534.57475   -3474.9755 
 4653000    241.71074   -4866.0945   -4382.6432   -4866.0945            0    8934.0997    18.112638    22.656376    19.259554    7903.4805    8298.3647    8649.4505    9854.4839    883.66496   -1223.6527     260.8492   -3352.8617 
 4654000    244.04089   -4893.5183   -4405.4063   -4893.5183            0    7609.9007    18.071129    22.671687    19.385825    7942.4301    6991.4361    8693.9916    7144.2744   -1239.1134   -636.93418   0.19303255   -3523.9348 
 4655000    225.20582   -4856.2943   -4405.8548   -4856.2943            0    7873.5785    18.007049    22.709199    19.365684    7919.1249    6897.1131     9292.321    7431.3014    132.83326    906.34371    730.67626    -3496.517 
 4656000    241.98347    -4908.182   -4424.1851    -4908.182            0    7403.4459    18.192629     22.55814    19.302635    7921.6445     6438.061    8134.9557    7637.3209   -194.07887    804.31284    292.18088    -3568.872 
 4657000    237.15808   -4881.9929   -4407.6474   -4881.9929            0    5894.3953     18.13333    22.777888    19.316202    7978.3445    5744.4171    5849.1558    6089.6128     557.6022   -350.70542   -328.17702   -3721.7994 
 4658000    227.50776   -4883.4539   -4428.4103   -4883.4539            0    6781.5057    17.852136    22.828487    19.517945      7954.29    9581.9932    5253.7498    5508.7741   -880.49651   -590.29425    229.43658   -3641.7206 
 4659000    234.35185   -4884.5533   -4415.8207   -4884.5533            0    7894.9704     17.94469    22.834086    19.347917    7927.8204    7695.1576    8912.8198    7076.9339     1433.499    131.06419   -425.39787   -3503.0111 
 4660000    247.50892    -4880.142   -4385.0935    -4880.142            0    7554.9779    17.969488    22.836531    19.294564    7917.7322    7320.0916    7106.5391    8238.3028    378.72978   -1084.5284   -781.72604   -3512.7051 
 4661000    229.69189   -4881.5982   -4422.1861   -4881.5982            0    6656.8061    18.016269    22.922624    19.348641    7990.6049    7635.1524    4840.0606    7495.2054    972.76324   -985.46003    749.13684   -3646.4366 
 4662000    241.92059   -4884.5867   -4400.7156   -4884.5867            0    6380.0737    18.063116    22.659164     19.54102     7998.044    6052.4164    7762.7546    5325.0501    826.17425    993.53385   -832.74963    -3656.523 
 4663000     237.5059    -4870.355   -4395.3139    -4870.355            0    9280.2839    18.250953    22.741103    19.027202    7897.1794    6591.7883    10522.491    10726.573   -341.79885    25.701891   -244.14302   -3326.4826 
 4664000    245.90468   -4905.9097     -4414.07   -4905.9097            0    9075.4006    17.953902     22.70734    19.351694    7889.4023    10118.054    8580.6305    8527.5171    1492.1228   -535.92555    1090.2735   -3369.8649 
 4665000    233.85728   -4878.4803   -4410.7368   -4878.4803            0    6653.2807    18.021827    22.684665    19.435208    7945.4844    6926.7455    8231.1112    4801.9856    244.32254    -833.0441    47.928167   -3639.7763 
 4666000     254.7129   -4869.3539   -4359.8966   -4869.3539            0    7255.6321    18.129605    22.648608    19.396352    7964.3422    6396.9956    7025.1837    8344.7171    813.86162    564.59307    356.94507   -3517.1422 
 4667000    236.81595   -4888.8039   -4415.1428   -4888.8039            0    7088.1141    17.990318     22.84621    19.339704     7948.823    7330.5353    5712.1091     8221.698    -1091.054    -922.2108   -39.471495   -3593.4501 
 4668000    247.59785   -4876.7894   -4381.5631   -4876.7894            0    6519.3345    18.005602    22.806972    19.448442    7986.5663    6528.1326    6768.0691    6261.8019   -1222.5148    409.89286   -1976.8147   -3622.2179 
 4669000    263.72028   -4895.0771    -4367.604   -4895.0771            0     6417.054     17.97718    22.846829    19.454219    7990.2671    7388.8615    7174.0369    4688.2635   -1471.1339    574.67272    -376.1493   -3619.8256 
 4670000    239.66316   -4870.4181   -4391.0622   -4870.4181            0    7032.1808    18.022974    22.904277     19.23355    7939.6707    5364.6561    8112.5836    7619.3029    505.82796    830.39719    2006.7522   -3576.7922 
 4671000     243.4381   -4867.5073   -4380.6011   -4867.5073            0    7424.4446    17.843113    23.108843    19.253639    7938.9243     7664.451    7390.3428    7218.5401   -1109.9131   -151.47791   -1938.3097   -3520.9909 
 4672000    242.08121    -4900.519   -4416.3267    -4900.519            0    6282.5841    17.814742    23.139308    19.268079     7942.703    7597.5222    5901.4306    5348.7994   -730.20088   -129.07184   -714.25071   -3688.5762 
 4673000    244.00811   -4910.2805   -4422.2341   -4910.2805            0    8584.8431      17.9824    22.980199    19.102633    7893.9553    7763.4038    7162.8901    10828.235   -602.67382   -554.85822    298.92012    -3433.902 
 4674000     237.6585   -4882.3248   -4406.9785   -4882.3248            0    8001.6848    17.960926    22.807656    19.333526    7919.9138     8831.249    8059.1565    7114.6488    650.77845    971.65357    1353.8403   -3482.7533 
 4675000    234.84094   -4886.1305   -4416.4196   -4886.1305            0    6466.7317    18.073008     22.59524    19.549373    7983.2592    6715.8135    6155.7603    6528.6212    25.017374    -18.09525    141.53145   -3663.5132 
 4676000     236.5834   -4879.8191   -4406.6231   -4879.8191            0    8085.4297    18.114326    22.631956    19.320318    7920.6085    9267.9745    7178.9149    7809.3998    1363.8146   -1514.0766   -1100.5584   -3472.6432 
 4677000    241.83259   -4866.4062   -4382.7112   -4866.4062            0    9162.0021    17.982579    22.647468    19.450679    7921.4811    13287.149    7762.7243    6436.1329   -116.37534   -1624.8584    702.87457   -3324.2555 
 4678000    241.92312   -4873.4161     -4389.54   -4873.4161            0    7206.3136    18.085343    22.777048    19.299822    7950.1894    7638.9868    7908.0873    6071.8667   -1745.3775   -390.19518   -545.89105   -3554.0014 
 4679000    241.80735   -4867.5095   -4383.8649   -4867.5095            0    6121.0282     17.99061    23.029012    19.300382    7996.2635    6770.9492    5441.4871    6150.6484    251.82183   -1039.9227   -216.69908   -3670.0471 
 4680000    223.59318   -4842.7522   -4395.5382   -4842.7522            0    5999.9176    17.992795    23.165192    19.225467    8013.3004    7175.5763    5206.6729    5617.5036   -179.53511    422.42353    1748.5094   -3694.3533 
 4681000    228.16113   -4869.5559   -4413.2055   -4869.5559            0    9359.0099    17.979114    22.912813    19.185303    7903.4255    9968.3375    9059.4576    9049.2345   -540.46361    202.47233   -446.00192   -3334.4546 
 4682000    240.85657   -4878.0195   -4396.2766   -4878.0195            0    8416.0539    17.922767    22.893937    19.323692    7928.9496    8248.7173    8679.1437    8320.3008    -694.4448    943.79245    758.79288   -3423.0812 
 4683000    235.89322   -4894.2822   -4422.4666   -4894.2822            0    7907.0673    18.046203    22.856873    19.194336    7917.2751    7257.8385    7997.1667    8466.1968   -581.11738    475.93734   -117.10297   -3509.4744 
 4684000    238.81804   -4901.1659   -4423.5003   -4901.1659            0    5853.8255    17.977124    22.850925    19.401527    7970.0291    6445.9388    5773.8308     5341.707   -73.284941    1393.2633    2294.1571   -3743.0826 
 4685000    253.24354   -4871.2767   -4364.7583   -4871.2767            0    8354.9631    17.999301    22.804451    19.295588    7920.1474    8362.7852    9044.6895    7657.4145   -1895.2018    325.41592   -103.62614   -3399.6997 
 4686000    249.01233   -4883.8629   -4385.8075   -4883.8629            0    7307.8012    17.947489    22.970409    19.312019    7961.5955    7333.8374    6602.8105    7986.7557   -37.972117    389.39725    1027.8382   -3537.2863 
 4687000    242.07776   -4891.8344    -4407.649   -4891.8344            0    8379.5815     17.70513    23.244136    19.157687     7884.163    10678.504    6689.1761    7771.0646    503.35876   -27.770496    2260.2706   -3444.1443 
 4688000    251.16325   -4883.4808   -4381.1233   -4883.4808            0    7909.8332    17.865925    22.854525    19.335936     7895.196      7957.32    7880.2103    7891.9693     508.8386   -271.01818   -31.746401   -3470.3587 
 4689000    229.17702   -4886.5563   -4428.1739   -4886.5563            0    7936.6238     18.05963    22.665697    19.350032    7920.6276    7427.2809    9255.7434     7126.847    1355.3285    1051.8804    1807.8108    -3511.381 
 4690000    242.04219   -4844.7943   -4360.6801   -4844.7943            0    8611.6431    18.026234    22.818939    19.344293    7957.0723    6887.3496    8912.6062    10034.973   -132.61542    514.92936   -483.80311   -3361.3356 
 4691000    235.26421   -4861.1981   -4390.6406   -4861.1981            0    7410.5404    18.003742    23.021451    19.282463    7992.0462    3939.0271    8614.4541    9678.1401   -470.13282     1677.697    1063.4539   -3526.8992 
 4692000    249.90112   -4886.0917   -4386.2585   -4886.0917            0    6164.7528    17.886753    23.180751     19.21112    7965.4754    4593.2193    6568.8105    7332.2287   -662.00087    693.77916   -92.997452   -3670.1098 
 4693000    237.56651   -4884.6151   -4409.4528   -4884.6151            0     6753.666    17.889444    23.159762    19.168422    7941.7702    4539.2739    7407.3203    8314.4037   -23.865974   -162.57843    1126.3469   -3627.2258 
 4694000    226.90496   -4844.5198   -4390.6818   -4844.5198            0    7487.8154    17.892429    23.038012    19.282546    7948.3809    5018.0323    9174.1142    8271.2997    -16.62878    1652.6737     1353.024   -3522.7019 
 4695000    235.51276   -4866.7968   -4395.7421   -4866.7968            0    9126.6853    18.180415    22.862403    19.044342    7915.7422    7071.4579    9812.4693    10496.129    28.607667    738.11666    928.10345   -3342.1304 
 4696000    233.90394   -4880.1742   -4412.3374   -4880.1742            0    7178.4184    17.957278    22.984257    19.337644    7981.3163    8002.2372    6842.3735    6690.6445   -1365.4605    677.68509    106.15788   -3576.7745 
 4697000    234.42965   -4867.8218   -4398.9336   -4867.8218            0    6535.1991    17.857044    23.093801    19.292145      7955.83    5265.6019    7812.9508    6527.0444   -1010.3334    146.93314    -216.3572     -3640.67 
 4698000    236.27482   -4877.1124   -4404.5335   -4877.1124            0    7226.8855    17.913196    23.053936    19.272789    7959.0773    7980.0173    6442.9023    7257.7368   -166.62805   -369.64657   -210.50092    -3565.673 
 4699000    235.90901   -4857.2642   -4385.4171   -4857.2642            0    7450.6265    18.015874    22.944508    19.294083    7975.5058    6894.7339    7148.8971    8308.2485    1488.0202    324.59069   -412.70417   -3518.8006 
 4700000    241.14094   -4890.1768   -4407.8651   -4890.1768            0    8600.9837    18.014594    22.847125    19.183404     7895.538    10003.636    7862.3539    7936.9615   -804.56084    -919.1678    489.46849   -3417.4763 
 4701000     241.8724   -4877.7605   -4393.9858   -4877.7605            0    8138.7211    17.893304    22.847463    19.374743    7920.7163    7336.5318    8166.7115    8912.9199    587.20669   -221.12732     819.4647   -3453.8372 
 4702000    242.54886   -4886.9038   -4401.7761   -4886.9038            0    8038.1623    17.926644    23.128547     19.06784    7905.8552    7585.8863    7037.3168    9491.2838    505.91174   -690.47059   -1282.6633   -3474.9858 
 4703000    234.49516   -4892.5162    -4423.497   -4892.5162            0    6660.5248    17.969437    22.975683    19.249839    7947.4902    5363.2784    6957.4606    7660.8354    255.83242    327.60403    963.32657   -3651.5022 
 4704000    223.26474   -4878.6943   -4432.1373   -4878.6943            0    7600.6355    17.861211    22.940962    19.389357    7944.8542    7058.6081    8567.4476    7175.8507    287.27467    709.83408    1108.0122   -3551.4703 
 4705000    227.75146   -4881.2802   -4425.7492   -4881.2802            0    8669.0708    18.080841    22.730051    19.236766     7905.896    7627.8046     9622.273    8757.1347    73.106329    559.55737   -505.22884   -3426.2107 
 4706000    229.71744   -4875.6195   -4416.1563   -4875.6195            0       7865.1    17.951102    22.968798    19.181603    7908.8671    7060.7871    8584.8468    7949.6661   -982.44248   -262.93256   -748.22862   -3508.9743 
 4707000    253.54948   -4902.7309   -4395.6006   -4902.7309            0     7747.574    17.867901    22.996097    19.240008     7905.565    7664.5004    7499.5341    8078.6874   -1640.8841   -282.87647   -775.96559   -3502.3475 
 4708000    241.83182   -4859.9449   -4376.2514   -4859.9449            0    6158.2548    17.902536    23.316802    19.059829    7956.1424    5875.9424     5438.025    7160.7969   -455.62757    -1174.854   -191.10648   -3661.6957 
 4709000    239.04164   -4878.3309   -4400.2181   -4878.3309            0    8515.1802    17.923348    22.894597    19.312452    7924.8226    7415.8884    9464.6919    8664.9602   -189.32497    451.37355    55.945721   -3416.0726 
 4710000    245.39029   -4874.0093   -4383.1984   -4874.0093            0    7553.7005    17.953989    22.791319     19.37905    7929.8119    7435.3719    8141.1411    7084.5885    569.68498    951.06913   -957.50737   -3509.6268 
 4711000    240.65675   -4867.7736   -4386.4304   -4867.7736            0    8503.1947    18.125105    22.773107    19.176905    7915.5541    8436.8044    8614.3562    8458.4236    45.266847   -555.59426   -1222.7123   -3404.8196 
 4712000    237.15549   -4866.9398   -4392.5995   -4866.9398            0    9174.9627    17.994384    22.582759    19.433407    7897.0146    10497.225    9791.1004    7236.5629    1795.8715   -179.08806   -96.247414   -3335.9204 
 4713000     231.5935   -4865.3383   -4402.1227   -4865.3383            0    7417.6134    18.101885    22.712213    19.300878    7935.2443    6706.7847    7163.8933    8382.1622   -118.85161   -960.52006   -566.64695   -3543.7016 
 4714000    227.18637   -4856.2966   -4401.8958   -4856.2966            0    7752.5271    17.913826    22.845415      19.3246    7908.5694    8874.7999    8227.4328    6155.3486     560.9815   -650.86549   -66.098656    -3507.732 
 4715000    223.29435   -4889.7441   -4443.1278   -4889.7441            0    8383.2127    17.846574    22.915153    19.342102    7910.0876    10170.606     7635.263    7343.7688    1344.7514   -906.94175   -813.60358   -3476.0361 
 4716000    241.07594   -4888.3597   -4406.1781   -4888.3597            0    6754.4265    17.967796    23.134056    19.152023     7960.883    6661.2039     5998.539    7603.5367    383.34648    5.1319357    374.08021   -3621.9803 
 4717000    243.45854   -4919.0984   -4432.1513   -4919.0984            0     8250.881    17.965138    22.917945    19.186945    7899.7265    7812.6381    8359.2862    8580.7187    1344.9785    1333.1912    1178.9428   -3481.5721 
 4718000    243.06894    -4871.634   -4385.4661    -4871.634            0    7164.4217    17.811984    23.001731    19.446255    7967.2562    9693.6192    6796.9182    5002.7276   -2007.8528    385.12145   -3149.8122   -3553.0014 
 4719000    239.37983   -4878.4765   -4399.6873   -4878.4765            0    7599.9301    18.134035    22.994963    18.985281       7916.7    7299.0442    7265.4799    8235.2663    985.59551   -896.41906   -310.46771   -3522.2225 
 4720000    238.36615   -4906.4977   -4429.7359   -4906.4977            0    8081.7724    17.837355    22.761579    19.418369    7883.9813    9617.0114    8222.6311    6405.6747    158.06046   -579.94039   -1051.9768   -3500.4955 
 4721000    238.44612   -4885.4146   -4408.4929   -4885.4146            0    8379.8276    18.039919    22.890308    19.137428    7902.5962    5708.7973    8843.2346    10587.451    1060.9073    1077.4787    3407.7628   -3442.7072 
 4722000    236.01587   -4903.8667   -4431.8058   -4903.8667            0     6859.337    17.976869     22.83006    19.292573    7917.9226    6265.1445    6812.1433    7500.7231   -538.85413    882.11191   -1043.9459   -3639.7254 
 4723000    228.26148   -4890.0527   -4433.5016   -4890.0527            0    6897.4165    18.063716    22.737993    19.377746    7959.0731    6952.8926    7520.5977    6218.7592   -13.502565    1023.9832    2354.7746   -3632.8845 
 4724000    248.63044   -4894.8365   -4397.5449   -4894.8365            0    7307.3477    18.089125    22.715396    19.298137    7929.6361    5761.8198    7153.6532    9006.5703    477.89681   -991.67097   -1342.7381   -3552.4822 
 4725000    236.61578   -4886.3911   -4413.1303   -4886.3911            0    8435.1235    17.941345    22.792398    19.263545    7877.3694    8532.1999    8828.2947    7944.8759   -2148.5514   -806.80458   -1521.6931    -3444.075 
 4726000    227.46945   -4860.6215   -4405.6545   -4860.6215            0    6314.4187    17.889884    23.023998    19.383698    7984.0801    7398.5975    5674.0629    5870.5956    578.72836    95.615619    123.55561    -3670.406 
 4727000    252.25582    -4846.174   -4341.6312    -4846.174            0     7613.343    17.962646    23.154086    19.078181    7934.7803    8443.1436    6435.0872    7961.7983    1215.8207   -1072.1951   -1415.5284   -3460.6103 
 4728000    237.71596   -4856.8135   -4381.3523   -4856.8135            0    7016.1118    17.935705    23.031736    19.293725    7970.0526    8562.2205    5377.5819     7108.533   -1126.4535    61.330141   -25.932405   -3565.8342 
 4729000    248.68698   -4886.6274   -4389.2227   -4886.6274            0    7268.8917    17.958925    22.895449    19.315346    7942.0385     8999.135    6463.9911    6343.5489   -481.19794   -392.48276   -359.29898   -3547.2925 
 4730000    252.83782   -4867.9882   -4362.2813   -4867.9882            0    8342.1616    18.029896    22.825541    19.237747    7917.1433     7803.318    9558.9077    7664.2592   -1156.6436    1085.4518   -487.05758   -3399.0668 
 4731000    246.92584   -4861.8612    -4367.979   -4861.8612            0     9416.046    18.013567    22.675128    19.284311    7876.8688    9091.2649    9439.7738    9717.0994    24.156513   -1477.3679   -712.01622   -3286.3008 
 4732000    235.12909   -4862.5394   -4392.2521   -4862.5394            0    8670.9764    17.846616    22.931321    19.297422    7897.4019    8463.8706    9131.6945    8417.3642   -982.23651   -44.984232    1016.8991    -3393.568 
 4733000    235.68756   -4882.6063   -4411.2021   -4882.6063            0    8642.9974    17.896407    22.900387    19.212051    7873.7639    7090.7503    8122.8946    10715.347   -648.74978   -653.29961   -166.90129     -3418.72 
 4734000     239.1663   -4854.6354   -4376.2732   -4854.6354            0    9358.8463    17.922019    22.894158    19.241973    7895.1649    7694.6251     9528.038    10853.876    607.82524   -633.67566     830.2392   -3298.6687 
 4735000    226.92491    -4873.461   -4419.5832    -4873.461            0    8775.0294    18.017181     22.79244    19.209426    7888.4563    7796.1432    9436.3367    9092.6083    656.52712    59.537667    577.55648   -3410.0595 
 4736000    239.75522   -4894.1769   -4414.6368   -4894.1769            0     6889.397    18.088489    22.731445     19.39503    7974.7994    8076.3701    5852.0657    6739.7552   -443.87771   -1098.0676   -1630.0359   -3613.3706 
 4737000      228.993   -4866.0964   -4408.0822   -4866.0964            0    6166.4764     18.17533    22.591202    19.477506    7997.5134     4343.933    7553.7248    6601.7714    1008.7844   -198.23538   -86.205703   -3688.8519 
 4738000     251.8451   -4881.7052   -4377.9839   -4881.7052            0    8375.5145    18.121527    22.409572    19.510512    7923.1345    8369.2664    8994.5754    7762.7018    1093.6058    291.16894     608.9137   -3410.1866 
 4739000    230.88461   -4854.6621   -4392.8643   -4854.6621            0    7769.2221    17.996654      22.6624    19.446978    7931.3988    8718.1327    8471.9077    6117.6258   -620.84425    819.40037   -1049.0081   -3494.1882 
 4740000     237.8715   -4856.7944    -4381.022   -4856.7944            0    7890.0699    18.011633    22.852698    19.272429    7932.8095    7879.3706    6578.1903    9212.6487   -217.48254   -874.77245   -1217.1346   -3468.2049 
 4741000    239.45256   -4893.3888   -4414.4541   -4893.3888            0    7443.9081    17.804498     23.17378    19.142556     7898.171     8777.417    6381.4375    7172.8698    18.227333   -1254.9784   -23.999427   -3557.0147 
 4742000     233.1644   -4873.3877   -4407.0301   -4873.3877            0    8171.5626    17.816003    23.022688    19.316843    7923.2339    7640.7791    7506.9685    9366.9402   -514.52566     555.1697   -415.26073   -3462.7877 
 4743000    248.10557   -4857.1247    -4360.883   -4857.1247            0    10129.201    18.020905    22.882227    19.103293    7877.4037      9698.99     9786.175    10902.437    233.23323   -13.311234   -281.49527   -3197.2013 
 4744000    241.18779   -4847.5087   -4365.1033   -4847.5087            0    10437.499    18.038286    22.580953    19.288915    7856.7928    8502.1363    10781.494    12028.866    1333.0347    771.61774    2021.8711   -3169.1406 
 4745000     253.6628   -4866.4635   -4359.1065   -4866.4635            0     10084.89      18.0282    22.413232    19.586749    7914.4223    10811.353    11469.501    7973.8175   -663.11863    113.11669   -3486.7881   -3195.0708 
 4746000    229.88879   -4867.1682   -4407.3622   -4867.1682            0    7376.5753    18.143876    22.656025    19.331745    7946.6636    5892.4651    8719.4877    7517.7731   -657.03613   -365.27549   -1295.2542   -3552.4619 
 4747000    234.33641   -4869.3948   -4400.6931   -4869.3948            0    9050.0575    17.953174    22.612571     19.39244    7872.6988    8993.8276    9194.5284    8961.8164    569.13508    -565.7044    855.88952   -3361.6086 
 4748000    247.64898   -4868.0582   -4372.7297   -4868.0582            0     9357.402    17.835266    22.929633    19.260331    7876.6303     7815.254    9649.3605    10607.592     487.4283    589.11827    1828.1347   -3297.8208 
 4749000    238.47208   -4884.6535   -4407.6799   -4884.6535            0    8666.3377    17.871688    22.922388    19.214925    7871.6201    6885.8598    9270.5161    9842.6373    183.79501    1084.7734    568.93421   -3412.7886 
 4750000    247.64011   -4861.2543   -4365.9435   -4861.2543            0    6148.3563    17.942177    23.032873    19.271932    7964.3163    5694.3637    7641.8789    5108.8264      1482.52    936.31273    486.60507   -3651.8034 
Loop time of 446.229 on 64 procs for 250000 steps with 1008 atoms

Performance: 96.811 ns/day, 0.248 hours/ns, 560.251 timesteps/s
194.6% CPU use with 32 MPI tasks x 2 OpenMP threads

MPI task timing breakdown:
Section |  min time  |  avg time  |  max time  |%varavg| %total
---------------------------------------------------------------
Pair    | 36.954     | 40.269     | 44.91      |  29.0 |  9.02
Bond    | 1.0382     | 1.2515     | 1.5047     |  10.9 |  0.28
Kspace  | 216.35     | 222.21     | 229.33     |  24.5 | 49.80
Neigh   | 3.0363     | 3.3987     | 3.7734     |  10.8 |  0.76
Comm    | 68.744     | 76.829     | 83.685     |  40.3 | 17.22
Output  | 0.54458    | 0.54483    | 0.54631    |   0.0 |  0.12
Modify  | 85.739     | 88.435     | 91.894     |  15.6 | 19.82
Other   |            | 13.29      |            |       |  2.98

Nlocal:        31.5000 ave          36 max          26 min
Histogram: 1 0 1 4 4 7 4 5 3 3
Nghost:        2890.81 ave        2918 max        2856 min
Histogram: 2 1 2 1 4 6 6 5 2 3
Neighs:        10488.2 ave       11968 max        8641 min
Histogram: 1 1 2 3 6 5 5 3 3 3

Total # of neighbors = 335623
Ave neighs/atom = 332.95933
Ave special neighs/atom = 2.0000000
Neighbor list builds = 7821
Dangerous builds = 0

unfix		3
unfix		2
unfix		1

write_data	data.final.${pid}
write_data	data.final.0
System init for write_data ...
PPPM initialization ...
  extracting TIP4P info from pair style
  using 12-bit tables for long-range coulomb (../kspace.cpp:340)
  G vector (1/distance) = 0.3832378
  grid = 24 30 32
  stencil order = 5
  estimated absolute RMS force accuracy = 0.0019638688
  estimated relative force accuracy = 5.9141324e-06
  using double precision FFTW3
  3d grid and FFT values/proc = 5712 768
Last active /omp style is kspace_style pppm/tip4p/omp
WARNING: Not all mixed pair coeffs generated from mixing. Use write_data with 'pair ij' option to store all pair coeffs. (../write_data.cpp:312)

write_restart   restart.lmp.${pid}
write_restart   restart.lmp.0
System init for write_restart ...
PPPM initialization ...
  extracting TIP4P info from pair style
  using 12-bit tables for long-range coulomb (../kspace.cpp:340)
  G vector (1/distance) = 0.3832378
  grid = 24 30 32
  stencil order = 5
  estimated absolute RMS force accuracy = 0.0019638688
  estimated relative force accuracy = 5.9141324e-06
  using double precision FFTW3
  3d grid and FFT values/proc = 5712 768
Last active /omp style is kspace_style pppm/tip4p/omp
Total wall time: 0:07:26
