LAMMPS (30 Jul 2021)
Processor partition = 0
  using 2 OpenMP thread(s) per MPI task
using multi-threaded neighbor list subroutines
variable        pid world 0 1
variable        phase world IceIII Liquid

shell cd ${phase}
shell cd IceIII
include Restart.lmp
echo both
log log.lammps
#include		in.partitions
include		in.temp
variable        temperature equal 262.51
variable	tempDamp equal 100.0
include		in.pressure
variable        pressure equal 7375.0
variable        pressureDamp equal 1000.0 # This is 1 ps
include		in.seed
variable        seed equal 745823

units		real
atom_style	full

read_restart	restart.lmp.${pid}
read_restart	restart.lmp.0
Reading restart file ...
  restart file = 30 Jul 2021, LAMMPS = 30 Jul 2021
  restoring atom style full from restart
  orthogonal box = (-0.068007717 0.060273241 0.095143930) to (20.068009 19.939728 20.604854)
  4 by 2 by 4 MPI processor grid
  restoring pair style lj/cut/tip4p/long/omp from restart
  restoring bond style harmonic/omp from restart
  restoring angle style harmonic/omp from restart
  972 atoms
  648 bonds
  324 angles
Finding 1-2 1-3 1-4 neighbors ...
  special bond factors lj:    0        0        0       
  special bond factors coul:  0        0        0       
     2 = max # of 1-2 neighbors
     1 = max # of 1-3 neighbors
     1 = max # of 1-4 neighbors
     2 = max # of special neighbors
  special bonds CPU = 0.002 seconds
  read_restart CPU = 0.009 seconds
include 	in.setup
variable	out_freq equal 1000
variable	out_freq2 equal 10000
variable	out_freq3 equal 1000

timestep	2.0

neigh_modify    delay 7 every 1

include		in.tip4p
# This is TIP4P/Ice

# create groups ###
group ox type 2
324 atoms in group ox
group hy type 1
648 atoms in group hy

# set charges - beside manually ###
set group ox charge -1.1794
Setting atom values ...
  324 settings made for charge
set group hy charge 0.5897
Setting atom values ...
  648 settings made for charge

# ### TIP3P Potential Parameters ###
pair_style lj/cut/tip4p/long/omp 2 1 1 1 0.1577 8.5
pair_coeff 1 1*2 0.000 0.000
pair_coeff 2 2 0.21084 3.1668
bond_style  harmonic
bond_coeff  1 450 0.9572
angle_style harmonic
angle_coeff 1 55 104.52
kspace_style pppm/tip4p/omp 1.0e-5
pair_modify tail yes

thermo          ${out_freq}
thermo          1000
thermo_style    custom step temp pe etotal epair emol press lx ly lz vol pxx pyy pzz pxy pxz pyz enthalpy

restart 	${out_freq3} restart.lmp.${pid} restart2.lmp.${pid}
restart 	1000 restart.lmp.${pid} restart2.lmp.${pid}
restart 	1000 restart.lmp.0 restart2.lmp.${pid}
restart 	1000 restart.lmp.0 restart2.lmp.0


include         in.dump
dump            myDump all atom ${out_freq2} dump.water.${pid}
dump            myDump all atom 10000 dump.water.${pid}
dump            myDump all atom 10000 dump.water.0
dump            myDump2 all dcd ${out_freq2} dump.dcd
dump            myDump2 all dcd 10000 dump.dcd
dump_modify     myDump append yes
dump_modify     myDump2 append yes


variable natoms 	equal  "count(all)"                        # NUMBER ATOMS
variable H      	equal  "enthalpy/v_natoms"                 # ENTHALPY-per-atom
variable Vol      	equal  "vol/v_natoms"                 # volume-per-atom
fix AVG all 		ave/time ${out_freq} 1 ${out_freq} v_Vol v_H file vol_enthalpy.dat
fix AVG all 		ave/time 1000 1 ${out_freq} v_Vol v_H file vol_enthalpy.dat
fix AVG all 		ave/time 1000 1 1000 v_Vol v_H file vol_enthalpy.dat


timer           timeout 02:55:00 every 1000
New timer settings: style=normal  mode=nosync  timeout=02:55:00

fix 		1 all shake 1e-6 200 0 b 1 a 1
Finding SHAKE clusters ...
       0 = # of size 2 clusters
       0 = # of size 3 clusters
       0 = # of size 4 clusters
     324 = # of frozen angles
  find clusters CPU = 0.001 seconds
fix             2 all nph aniso ${pressure} ${pressure} ${pressureDamp}
fix             2 all nph aniso 7375 ${pressure} ${pressureDamp}
fix             2 all nph aniso 7375 7375 ${pressureDamp}
fix             2 all nph aniso 7375 7375 1000
fix             3 all temp/csvr ${temperature} ${temperature} ${tempDamp} ${seed}
fix             3 all temp/csvr 262.51 ${temperature} ${tempDamp} ${seed}
fix             3 all temp/csvr 262.51 262.51 ${tempDamp} ${seed}
fix             3 all temp/csvr 262.51 262.51 100 ${seed}
fix             3 all temp/csvr 262.51 262.51 100 745823


run             250000
PPPM initialization ...
  extracting TIP4P info from pair style
  using 12-bit tables for long-range coulomb (../kspace.cpp:340)
  G vector (1/distance) = 0.37160258
  grid = 24 24 24
  stencil order = 5
  estimated absolute RMS force accuracy = 0.003581697
  estimated relative force accuracy = 1.0786174e-05
  using double precision FFTW3
  3d grid and FFT values/proc = 3211 432
Last active /omp style is kspace_style pppm/tip4p/omp
Neighbor list info ...
  update every 1 steps, delay 7 steps, check yes
  max neighbors/atom: 2000, page size: 100000
  master list distance cutoff = 10.8154
  ghost atom cutoff = 10.8154
  binsize = 5.4077, bins = 4 4 4
  1 neighbor lists, perpetual/occasional/extra = 1 0 0
  (1) pair lj/cut/tip4p/long/omp, perpetual
      attributes: half, newton on, omp
      pair build: half/bin/newton/omp
      stencil: half/bin/3d
      bin: standard
Setting up Verlet run ...
  Unit style    : real
  Current step  : 21750000
  Time step     : 2
  Walltime left : 2:54:59.93
Per MPI rank memory allocation (min/avg/max) = 10.18 | 10.18 | 10.19 Mbytes
Step Temp PotEng TotEng E_pair E_mol Press Lx Ly Lz Volume Pxx Pyy Pzz Pxy Pxz Pyz Enthalpy 
21750000    266.65873   -4666.6959   -4152.4221   -4666.6959            0    6941.2649    20.136016    19.879455     20.50971    8209.8939    7244.7468    5756.5952    7822.4527   -933.81563   -951.11552    675.67085   -3321.3245 
21751000    264.59394   -4707.0283   -4196.7367   -4707.0283            0    7699.3854    19.804627    19.910962     20.72884    8173.9865    6271.3431    7626.1637    9200.6495   -227.49598    107.60268    525.54454    -3278.899 
21752000    264.69427   -4694.7454   -4184.2603   -4694.7454            0    7800.2374    19.952753    19.686909    20.794084    8168.0833    7160.6786    7720.2497     8519.784    553.50707    1368.0877   -206.98529   -3255.0717 
21753000    258.89239   -4696.9321   -4197.6364   -4696.9321            0    7140.9737    19.859862    20.010415    20.657241    8209.2719    7531.0018     7360.281    6531.6383   -343.16188   -28.239233    189.90905   -3342.6918 
21754000    249.65963   -4712.3784   -4230.8889   -4712.3784            0    7593.6274    19.942053    19.939506     20.46684    8138.3256     6129.213    7690.1853    8961.4838   -173.23284    487.67531    1204.7158   -3329.6078 
21755000    280.68487   -4736.9993   -4195.6749   -4736.9993            0    6939.6518    19.951525    19.960005    20.462119    8148.6815    7506.5097    7290.8123    6021.6333   -101.55988    72.376336   -656.00238   -3370.9656 
21756000    272.35074   -4696.9639   -4171.7125   -4696.9639            0    7365.3329    20.023443    19.626679    20.771234    8162.9639    8307.8111    8347.9362    5440.2513   -1294.9102    423.68335   -14.223507    -3294.881 
21757000      268.178   -4712.0653   -4194.8615   -4712.0653            0    7715.2052    19.927839    19.765546    20.791414    8189.4182    6674.5739    9635.2307     6835.811    669.46204    1469.7734    -453.4779   -3273.4016 
21758000    257.26379   -4679.1318    -4182.977   -4679.1318            0    6999.9004    20.117591    19.915237    20.423849    8182.7453    6709.7226    6715.8563    7574.1221   -41.201805   -146.02684   -1030.0913   -3347.6302 
21759000    268.67561   -4689.6177   -4171.4542   -4689.6177            0    6988.5181     19.97347    20.080461    20.545833    8240.4502    7123.4869    6938.7152    6903.3522   -89.277638    106.55645    901.24101   -3331.5845 
21760000    256.76581   -4659.4068   -4164.2123   -4659.4068            0    8242.4629    19.895742     19.91814    20.455301    8106.1527    8420.6199     7481.902    8824.8666    81.437859   -655.31812    -341.5666    -3189.789 
21761000    256.08372   -4687.8196   -4193.9406   -4687.8196            0    7289.2618      19.9785    19.818227    20.643047     8173.376    8154.0929    7080.4704    6633.2222   -23.784671    993.08979   -1618.8538   -3325.0584 
21762000    273.75656   -4669.0314   -4141.0689   -4669.0314            0    9004.9406    19.703023    19.806473    20.774823    8107.3203    9746.5246    9863.3212    7404.9761    -237.4886    -237.7027   -545.17111   -3076.3521 
21763000    280.21922   -4683.0237   -4142.5973   -4683.0237            0    7316.6508    19.913433    19.742466    20.709279    8141.6514    5357.2313    9118.8151    7473.9061    539.61244   -774.41305    1313.0148   -3273.8355 
21764000    259.49801   -4713.2719   -4212.8082   -4713.2719            0    6192.1394    20.112195    19.973945    20.571089    8263.8155    6712.1751    4101.2376    7763.0056   -95.761214   -325.46779    -787.1585    -3466.536 
21765000    255.03856   -4684.5763   -4192.7129   -4684.5763            0    6454.7294    20.038416    20.019209    20.403883    8185.0839    5418.9292    6453.5514    7491.7075    1001.4219    -146.3383    196.50137   -3422.2051 
21766000    269.18706   -4713.7238   -4194.5739   -4713.7238            0    8342.6052    19.890614    19.941762    20.600829    8171.3991    9040.5945    9181.7142    6805.5068    130.05698    191.56166   -524.40612   -3200.3733 
21767000    265.10625   -4696.2235   -4184.9438   -4696.2235            0    8349.0978    19.931299    19.739972    20.671283    8132.9774      10242.4    6728.5797    8076.3139   -545.97408    666.75527   -361.71378   -3194.6478 
21768000    247.31953   -4698.6732   -4221.6966   -4698.6732            0    6954.7247    19.964526    19.996588    20.509366    8187.7983    5419.9834    8675.3597    6768.8308    62.922094    620.77173   -628.28621   -3391.2285 
21769000    262.99028   -4716.7937   -4209.5949   -4716.7937            0    5836.4905    20.206553    19.882675    20.563956    8261.7821    5583.6814    6185.3327    5740.4573    153.21465    463.61044    185.51783   -3506.3584 
21770000    261.80734   -4707.0374   -4202.1199   -4707.0374            0    7915.4555    19.840828    20.176771    20.398651    8166.0664    8291.1163     7400.149    8055.1011   -349.17446   -2350.3106   -210.54778    -3259.439 
21771000    252.21747   -4718.7599   -4232.3373   -4718.7599            0    6110.7837    20.055366    19.880827    20.592853    8210.7261    5491.2898    7718.7083    5122.3532   -103.63159   -461.83234   -816.89011   -3500.6013 
21772000     259.4122    -4693.227   -4192.9287    -4693.227            0    6149.0136    20.134857    20.046341    20.369439     8221.721    4738.9605    6881.0172    6827.0631   -595.05742    1136.0397    409.81447    -3455.629 
21773000    265.15573   -4725.9272    -4214.552   -4725.9272            0    6327.5377    19.743628     20.00042    20.657299    8157.1714    6060.1437    6904.2284    6018.2412    888.02605   -1062.0697    -933.2796    -3461.803 
21774000     288.8521   -4704.1637   -4147.0881   -4704.1637            0    5842.4969    20.087942    19.818604     20.80817    8284.0437    6796.9148    5169.2528    5561.3231   -700.88038    1043.4488    741.12932   -3441.2311 
21775000    272.42358   -4680.0745   -4154.6827   -4680.0745            0    8335.3374    19.821386     20.04193    20.418701    8111.5091    7876.2394     8263.347    8866.4256   -801.72548    113.65188    1435.9799   -3168.6286 
21776000    268.28189   -4670.3881   -4152.9839   -4670.3881            0    9394.5172    20.040349     19.71885    20.519655    8108.8062    7346.4089     11848.19    8988.9529   -752.13569   -20.247799   -223.31292   -3042.0013 
21777000     269.1327    -4663.321    -4144.276    -4663.321            0    9097.2135    19.872661    19.822397    20.595666    8113.1223    8988.1961     8840.914    9462.5305   -837.93657   -507.81727    427.97265   -3067.8794 
21778000    249.97116   -4693.5534    -4211.463   -4693.5534            0    8525.6108    19.883334    19.872912    20.575896    8130.3543    8252.4312    10149.143     7175.258   -227.85552    982.52212   -885.47151   -3200.5568 
21779000    259.47399   -4679.5478   -4179.1304   -4679.5478            0    9470.7506    19.841745    19.921907    20.538539    8118.5843    10218.492    9014.8135    9178.9461    572.52093    670.87853    -1055.112   -3057.7819 
21780000    263.39022   -4684.7938   -4176.8237   -4684.7938            0    7020.5745    19.985124    19.868426    20.697608    8218.4605    8263.3973    6393.7516    6404.5747    992.15324   -1154.7213    847.25295   -3335.3529 
21781000     276.6204   -4693.1098    -4159.624   -4693.1098            0    7825.3859     20.02103    20.059828    20.317327    8159.8128    8024.0907    6985.4642    8466.6028   -149.79563   -182.92791   -489.99048   -3228.3836 
21782000     268.7211    -4695.662   -4177.4107    -4695.662            0    7411.2361    20.040904     19.89128    20.452702    8153.2494     8766.204    6893.6092     6573.895   -4.0362504   -51.504323   -11.752046   -3296.1645 
21783000    254.04315   -4668.8486    -4178.905   -4668.8486            0     7584.817    19.716504    19.998948    20.769193    8189.4868    7801.7633    8107.4506    6845.2371   -122.34232   -35.313249   -1046.0489   -3273.0104 
21784000    255.97182   -4706.6415   -4212.9783   -4706.6415            0     8512.553    19.916691    19.740311    20.569674    8087.2073    6695.7365    10237.433    8604.4894   -688.54287   -433.87239    585.76555    -3208.977 
21785000    260.61819   -4736.9809   -4234.3568   -4736.9809            0    8620.5001    20.018904    19.839955    20.415079    8108.3421    6593.9895    10647.968    8619.5426    327.45953    -1910.561    1123.3723   -3214.9667 
21786000    256.14791   -4706.7015   -4212.6987   -4706.7015            0    8318.7425    19.921736    20.047062    20.343333    8124.5632    8220.5967     7214.025    9521.6057    862.81064   -644.20252   -1414.7498    -3227.024 
21787000    257.70641   -4695.2633   -4198.2548   -4695.2633            0    6185.1489    20.104406    19.831107    20.559491    8196.9172    7258.1552    5191.1941    6106.0974    56.847206   -1147.7124     -855.842   -3458.8596 
21788000    265.03692   -4688.5015   -4177.3555   -4688.5015            0    7785.9334    19.970681    19.851903    20.621425    8175.4884    8805.4143     8156.683     6395.703   -308.28585    1731.0119   -367.82755     -3249.03 
21789000     256.4868   -4711.1508   -4216.4944   -4711.1508            0    6859.1379    19.919983    19.964741    20.563697    8178.1269         5733    6873.4757    7970.9382   -680.25876    181.69312     631.1233   -3398.4078 
21790000    267.94134   -4708.9658   -4192.2184   -4708.9658            0    8893.5707    20.082771    19.823198     20.31589    8087.8524    10661.542    7824.9278    8194.2419   -363.37954   -999.65883   -980.09209   -3143.1948 
21791000    261.93113   -4693.2657   -4188.1095   -4693.2657            0    7998.8176    20.003325     19.91683      20.4622    8152.1981    8938.6688    6939.2404    8118.5437   -776.19289     450.2851    758.97762   -3237.1185 
21792000    256.46378   -4687.2382   -4192.6262   -4687.2382            0    9825.8512    19.915493    19.696391    20.574817    8070.7464    10166.189    9370.9362    9940.4283    -786.3863    650.77584    761.16981   -3036.0886 
21793000    254.50862   -4653.0481   -4162.2068   -4653.0481            0    8434.4897    19.896266    19.784114    20.527472    8080.2285    8032.0474    8775.5415    8495.8802   -244.94895    453.43412    693.26293    -3168.271 
21794000     251.3575   -4702.7996   -4218.0355   -4702.7996            0    8525.0012    19.753494    19.791603    20.802056    8132.6325    8251.8482    9603.8376    7719.3176   -44.728699    342.78437   -1632.8742   -3206.9184 
21795000    253.39705   -4715.3586    -4226.661   -4715.3586            0    6282.1916    20.001395    19.859897    20.575188    8172.9923    6344.1027    7053.1349    5449.3373    431.16101    446.10302   -32.342501    -3477.857 
21796000    261.90446   -4719.7703   -4214.6655   -4719.7703            0    5935.5226     20.13535    19.821432    20.537678    8196.8227    5747.9269    6160.2789     5898.362   -448.26317    975.40309     1227.714   -3505.1198 
21797000    274.57853   -4716.1522   -4186.6044   -4716.1522            0    8201.2263    19.717183    19.919743     20.68689    8125.0079    9796.9565    7591.4428    7215.2797   -830.76547    665.62216    121.23371   -3214.8008 
21798000    261.01881   -4717.0393   -4213.6426   -4717.0393            0    8227.4959    19.851665    19.709026     20.57749    8051.0865    8435.4173    8666.5271    7580.5432    622.71136     1331.416    1270.7548    -3247.596 
21799000    269.62303    -4693.869   -4173.8784    -4693.869            0    9923.2043    19.783223     20.08513    20.377542    8096.9878    12288.859    7063.4245     10417.33   -253.38311   -1429.0954    984.78189   -3002.0842 
21800000    256.94552     -4713.99   -4218.4489     -4713.99            0    9371.2324    20.066237    19.665469    20.581529    8121.7177    10230.892     9538.192    8344.6127   -665.79593   -91.264071    1669.1012   -3108.4553 
21801000    283.05247   -4670.2963   -4124.4058   -4670.2963            0    7713.9361     19.85591    19.832514    20.664967    8137.7114    7818.5645    6581.0529     8742.191   -308.15091   -411.32905   -86.091983   -3208.9145 
21802000    255.27581   -4706.9034   -4214.5825   -4706.9034            0    7356.1257    19.869667    19.883503    20.631911    8151.2264    7542.0594    7190.3108    7336.0068    919.88675   -865.88055    502.88099   -3340.1063 
21803000    258.74638    -4737.713   -4238.6988    -4737.713            0    6621.8688    20.052297    19.825824    20.624103    8199.1806    5644.8942    7246.4992    6974.2129    899.40277    -1996.054   -1286.2485    -3446.878 
21804000     267.8617   -4688.7373   -4172.1435   -4688.7373            0    7128.5236    19.834027    19.956965     20.73992      8209.42    9206.7686    5939.7694    6239.0329   -195.28558    793.79841    356.90196   -3318.6741 
21805000    267.42765   -4690.0472   -4174.2905   -4690.0472            0    9262.8437    19.864588    19.841319    20.582869    8112.5243    11497.776    8012.7715    8277.9831    342.87021    248.80279   -2729.8781   -3078.3771 
21806000    276.02453   -4682.0176   -4149.6811   -4682.0176            0    8493.1841    19.960428    20.060998    20.413602    8174.1392    8041.9335    9055.9146    8381.7043    472.03993    981.52158    503.78583   -3137.1964 
21807000     262.2557   -4721.8677   -4216.0855   -4721.8677            0    8929.6186    20.028521    19.883959    20.384045    8117.8705    7799.5618     9139.071     9850.223    172.97683   -258.52035   -144.24149   -3158.9007 
21808000    246.97777   -4663.1384    -4186.821   -4663.1384            0    6821.9943     19.86233    19.887012    20.794018    8213.6872    8380.9554    6257.2174    5827.8101    33.361185    1003.5567   -1191.3905   -3369.6266 
21809000    267.14395   -4709.7222   -4194.5126   -4709.7222            0    6653.4985    20.110731    19.891954    20.475181    8190.9266    5605.3464    7885.0766    6470.0724    372.69366   -848.44131    142.17538   -3399.7106 
21810000    259.04681   -4701.1908   -4201.5973   -4701.1908            0    6331.1971    19.928799    20.062399    20.551237    8216.7856    5881.4273     6403.868    6708.2959    488.97361   -429.91286    27.769384   -3442.9085 
21811000    247.98155   -4662.8491   -4184.5959   -4662.8491            0    8164.2666    19.901236     19.75181    20.766169    8162.8783    8086.7359    9344.6707     7061.393    -381.6707    1091.6756     1957.166   -3212.6627 
21812000    276.51372   -4681.8359   -4148.5559   -4681.8359            0    5776.7362    19.995091    19.837641    20.705961    8213.1318    5508.5512     5703.258    6118.3993    184.10864   -1120.3997    553.04759   -3456.6179 
21813000    274.92072   -4696.1824   -4165.9746   -4696.1824            0    7848.2338    19.857197    20.157255    20.497013    8204.2691    9647.6334    6003.5084    7893.5595    186.27324    381.24515    286.23385   -3226.9268 
21814000    259.63492   -4694.4322   -4193.7044   -4694.4322            0     7957.273    20.067401    19.893719    20.466172    8170.4078     8790.443    6258.9392    8822.4368   -705.41359    66.151625   -1090.5101   -3245.5395 
21815000    257.81264   -4697.3785   -4200.1651   -4697.3785            0    7439.2351    20.084249    20.135335    20.209096    8172.6207    7263.8702    6771.5157    8282.3195   -35.487751     1000.563   -883.47987    -3313.488 
21816000    275.68914   -4689.1574   -4157.4677   -4689.1574            0    5118.8051    19.907981    19.969193    20.721293    8237.6735    4082.0417    6175.4722    5098.9014   -476.10949    675.62792     402.1711   -3542.5046 
21817000    258.84721   -4712.6835   -4213.4749   -4712.6835            0    7381.7366    19.989527    19.784638    20.694568    8184.4026    8076.9172    7329.7782    6738.5144    460.59677    -773.4988   -116.73273   -3332.3825 
21818000    265.64748   -4714.2738   -4201.9503   -4714.2738            0    6823.3112    20.057424    20.108196    20.399345    8227.4358    7319.6512    5706.0778    7444.2046   -236.11394    749.06245   -448.16614     -3383.23 
21819000    254.27168   -4718.0786   -4227.6942   -4718.0786            0    6761.6604    19.950927    19.994304    20.580339    8209.5979    6443.3288    7071.3317    6770.3207    -545.2872    463.25082     113.4929   -3418.1304 
21820000    261.86484   -4687.6932   -4182.6649   -4687.6932            0     6203.317    20.031944    19.883344    20.599294    8204.7408    5657.0459    5451.7451    7501.1601   -545.74089   -163.21621   -1692.0855     -3440.39 
21821000    258.12647   -4671.5275   -4173.7089   -4671.5275            0    8264.3448    19.925458    20.017823    20.459613     8160.609    8554.9015    8580.3276    7657.8054   -263.36966    941.19949    1510.1205   -3190.1352 
21822000    276.31772   -4662.8968   -4129.9948   -4662.8968            0    7456.2852     19.89571    19.940695    20.519215    8140.6765    7371.4171     6660.225    8337.2134    540.36736   -46.153794    77.274692   -3244.7591 
21823000     257.6539   -4731.7939   -4234.8867   -4731.7939            0    5582.6269    19.870122    19.954826    20.742415    8224.4674    4845.1319    6791.5378    5111.2111   -210.66825   -809.16132   -286.50034   -3565.2762 
21824000    258.34733   -4709.8712   -4211.6266   -4709.8712            0    7340.7448    19.891329    19.708982    20.729176    8126.6217     7568.675    8309.9933    6143.5662   -31.458547   -150.71503   -188.58487    -3341.613 
21825000    262.79177   -4704.2245   -4197.4085   -4704.2245            0    8557.7806    19.895725    20.073725    20.449339    8167.0841    7724.6437    8768.1481      9180.55    44.537954   -1940.4037    -223.5218   -3178.1037 
21826000    261.01015   -4695.7701   -4192.3901   -4695.7701            0    7257.2922    20.088907    19.929527    20.396563    8166.0174    5359.3082     9041.307    7371.2613   -22.143819    1965.8655   -1023.9838   -3328.0975 
21827000    249.32949   -4725.0106   -4244.1577   -4725.0106            0    5591.7222    19.927824    19.871976    20.692704    8194.4189    5201.3034    7262.2618    4311.6015   -491.11375   -128.89498   -107.73271   -3575.9067 
21828000    268.19099   -4674.8635   -4157.6347   -4674.8635            0    6492.0223    19.969635     19.93425    20.404689     8122.692     7032.507    5474.2111    6969.3487    12.499257   -1285.7293   -1193.3585   -3388.5824 
21829000    262.97008   -4720.4907   -4213.3308   -4720.4907            0    5773.4634    19.830291    20.036453     20.77367    8253.9753    7194.0325    5433.8853    4692.4725    -210.1689   -684.46414    703.92245   -3518.3457 
21830000    274.36536   -4703.7536    -4174.617   -4703.7536            0    6541.9637    19.954788    19.889072    20.588841    8171.3447    6678.8933    6182.1353    6764.8625    -476.1411     1245.506    146.90971   -3395.0067 
21831000    265.56305   -4690.6654   -4178.5048   -4690.6654            0    6192.8507    19.986229    19.954344    20.670259    8243.5493    5473.4711    7663.8763    5441.2046    633.72647   -102.67292   -794.52503   -3433.9773 
21832000    261.59327   -4719.7086    -4215.204   -4719.7086            0     7176.199    20.009688    20.035942    20.301554    8139.1559    7025.6106    6218.4153    8284.5711    96.979763    285.83529   -379.26658   -3363.3803 
21833000    269.66737   -4696.3907   -4176.3145   -4696.3907            0    6449.1873    19.917412    20.091845    20.408092    8166.8604    6231.8625    6712.6448    6403.0546   -218.65441    -189.6022     1097.996   -3408.1822 
21834000    277.48845   -4682.9867   -4147.8269   -4682.9867            0    7688.0718    19.893004    19.841686    20.707284    8173.3871    8557.0754    7570.7422    6936.3977   -314.07303   -1087.0296    1825.0578   -3231.4051 
21835000    252.58364   -4703.9741   -4216.8453   -4703.9741            0    8500.3092    19.983463    19.800688    20.650736    8171.2132    6707.6988    9644.3594    9148.8695   -708.43941   -2031.3504   -450.13497   -3203.8739 
21836000    253.10167   -4689.0901   -4200.9622   -4689.0901            0    9047.2966    19.996141    19.904204    20.376438    8109.9705    8748.8321    9612.6705    8780.3873    218.92011   -24.055208    -266.9939   -3130.8878 
21837000    260.71853    -4713.415   -4210.5974    -4713.415            0    7698.7875    19.879668    20.029344    20.535159    8176.6222    7119.7019     6932.227    9044.4337    -908.6415   -849.00128    516.64017   -3292.5351 
21838000    255.41739   -4680.0785   -4187.4846   -4680.0785            0    7529.8005    19.785697    19.898605    20.696055    8148.1977    7516.4801    8152.9528    6919.9686   -89.474303   -755.27708    302.92406    -3292.695 
21839000    259.05559   -4743.1013   -4243.4908   -4743.1013            0     6038.684    19.996681    19.935179    20.558295    8195.3056    6426.3301    5671.9016    6017.8202    303.19139     795.3676    765.30302   -3521.7465 
21840000    251.62952   -4676.6008   -4191.3121   -4676.6008            0    9123.1467    20.017536    19.942196    20.233229    8076.9765    9900.5543    7671.8015    9797.0843   -464.17629   -1323.6295    -546.0264   -3116.6564 
21841000    267.04246   -4727.7738   -4212.7599   -4727.7738            0    4798.5994     20.00618    19.941303    20.680342    8250.4076    3985.9629    5837.8925    4571.9427   -343.49976     140.2078     312.7603   -3635.3746 
21842000    251.83907   -4682.4803   -4196.7875   -4682.4803            0    6895.0861    19.879235    20.016786    20.504569    8159.1451    8781.8737    4856.6309    7046.7536   -393.26992   -578.26533    -285.6664   -3376.3222 
21843000    274.15422   -4692.8058   -4164.0763   -4692.8058            0     8773.833    20.460927    19.797841    20.137877    8157.4947     6805.242    9911.9968    9604.2601   -395.62968   -1318.6613    146.02269   -3120.2649 
21844000    255.95146   -4694.9662   -4201.3423   -4694.9662            0    6664.1473     19.86139    20.021782    20.718881    8239.0787    8602.9389    5512.8548    5876.6482   -633.23315    314.71017   -205.48943   -3400.5883 
21845000    256.15712   -4731.0319   -4237.0114   -4731.0319            0    7302.5277    20.043567    19.574037    20.866621    8186.6748    8665.3954    6478.6344    6763.5531   -513.08006    206.00038   -1485.9577   -3365.1315 
21846000     273.4509   -4716.9902   -4189.6172   -4716.9902            0    6261.0838     19.89614    20.140369    20.498559    8214.0922    5624.7423    5336.7025    7821.8065    574.16922    352.32832    945.54721   -3439.5762 
21847000    260.41704   -4704.2836   -4202.0475   -4704.2836            0    6508.4391    20.050951    19.861473    20.537397    8178.8422     7882.049    5881.9435    5761.3248   -164.51427    829.98582   -73.823802   -3425.7207 
21848000    261.61396   -4691.6049   -4187.0604   -4691.6049            0    8396.3874    19.886418    19.878422    20.464174    8089.7049    10120.862    7290.8451    7777.4552    1017.1974    935.42635   -895.98526   -3196.4542 
21849000    247.98578   -4681.5812   -4203.3198   -4681.5812            0     6626.698    20.015328    19.837952    20.588637    8174.9883     7197.014    5197.2291    7485.8509    965.65567    120.13492   -1537.3861   -3413.2595 
21850000     264.2044   -4702.1413   -4192.6009   -4702.1413            0    5949.9874    20.285282    19.837606    20.370149     8197.181    5412.7214    6431.1978    6006.0432    209.44111    346.92529   -541.59025   -3481.2949 
21851000    255.35598   -4729.4799   -4237.0044   -4729.4799            0    8717.4792    19.720058    20.017097    20.529189    8103.6574    8955.7383    7648.7357    9547.9636    -378.8092   -1586.5108   -395.12956    -3206.742 
21852000    265.27438   -4710.3273   -4198.7233   -4710.3273            0    7555.0775    20.136859    19.648522      20.8108    8233.9911    6865.1844     8279.393    7520.6551   -27.571723    374.47882    317.51423    -3291.477 
21853000    269.17022   -4688.9496   -4169.8322   -4688.9496            0    7004.9147    19.943588    19.925503    20.507234    8149.2885    5401.6957     8176.459    7436.5894    1367.5501    666.99321   -82.617351    -3337.305 
21854000    268.06561   -4697.2094   -4180.2223   -4697.2094            0    7654.3962     19.97255    19.920369    20.469082    8143.8403    6842.7066    7324.2929    8796.1892    450.98072   -371.19417    1132.6204   -3271.1131 
21855000    272.37788   -4668.6183   -4143.3146   -4668.6183            0    6535.1582    19.880928     19.90525    20.702991    8192.8944    7893.7792    6440.2647    5271.4306    466.81488    1089.8695    773.66642   -3362.4615 
21856000    265.90053   -4731.8044   -4218.9929   -4731.8044            0    8548.3847    19.981727    19.703915    20.607647    8113.6066    7950.2862    9977.2717    7717.5962    -32.95131     486.3843   -779.45795   -3207.4742 
21857000    271.85939   -4705.0644   -4180.7607   -4705.0644            0     8164.343    19.964983    19.705786    20.606386    8107.0815    8243.9998    7579.6655    8669.3637   -91.947518    2456.8795   -329.81196   -3215.4622 
21858000    255.13949   -4658.2197   -4166.1618   -4658.2197            0    7018.6676    19.680284     19.94119    20.791762    8159.6914    8242.5815    6774.0903    6039.3312    230.16754    94.931157   -1979.9369   -3330.9352 
21859000    258.60758   -4690.9268   -4192.1804   -4690.9268            0    9049.8047    20.175721    19.925617    20.368686    8188.4908    7005.4859     10274.61    9869.3182   -513.25819   -76.306626   -758.40571    -3111.446 
21860000    275.32553    -4693.692   -4162.7035    -4693.692            0    8248.9295    19.956025    20.063778    20.474682    8197.9242    8402.8112    8825.6761    7518.3012   -93.760361    1407.5351   -607.31635   -3176.4754 
21861000    267.81395   -4683.6376   -4167.1358   -4683.6376            0    8294.1821    20.035209    19.899704    20.517932    8180.3916    9914.0147    7203.6061    7764.9257   -501.13944    1736.6016    439.93008   -3177.6182 
21862000    264.63836    -4689.701   -4179.3237    -4689.701            0    6759.3352    19.889711    19.885319     20.75683    8209.6011    9264.0386    5585.6043    5428.3626    422.99926    1158.9221    260.47976   -3370.0379 
21863000    258.03629   -4719.0515   -4221.4068   -4719.0515            0    7043.7156    20.256406     19.75638    20.529314    8215.6926    5071.6618    8486.9104    7572.5746    148.31802   -771.22661   -738.12071   -3377.4467 
21864000    256.93009   -4683.2198   -4187.7085   -4683.2198            0    6146.6135    19.875493     20.12418    20.507674    8202.6181    7195.7546    5326.1639    5917.9219   -225.00446   -348.31118   -1066.9193    -3452.409 
21865000    261.72616   -4698.6485   -4193.8876   -4698.6485            0    6591.2822     20.22558    19.841289    20.330046    8158.4793    7640.1504    4652.8187    7480.8776   -483.89837    415.59165   -741.41514   -3409.6367 
21866000    252.12717   -4704.6667   -4218.4182   -4704.6667            0    6670.6382    19.862885    19.878653    20.661822    8158.2668    8689.6641    5932.2689    5389.9816   -27.027235   -79.951476   -340.75053    -3424.746 
21867000    245.24232   -4686.2876   -4213.3171   -4686.2876            0    6273.9045    19.838384    19.670186    20.797663    8115.7618    7026.3709    6116.7005    5678.6421   -163.33613   -923.02344    726.21371   -3470.7374 
21868000     255.1706     -4699.28    -4207.162     -4699.28            0     9112.848    19.943575    20.000746    20.307049    8100.2053    6920.7732    10292.194    10125.577    497.00904     -1132.91    1447.4188   -3130.6322 
21869000    249.89458   -4706.8221   -4224.8794   -4706.8221            0    7314.8582     19.92252    20.034638    20.427563    8153.4672    7568.9246    6559.6594    7815.9907    221.98171     1414.859    1164.3343   -3355.0699 
21870000    263.17407   -4695.4753    -4187.922   -4695.4753            0    7686.8805    20.013686    19.915823    20.412647    8136.2572     5925.917    8908.8712    8225.8533    501.88795    1176.5043    266.03235   -3275.8047 
21871000     258.3375   -4733.8922   -4235.6666   -4733.8922            0    6898.5376    19.844962    19.836906    20.753929    8170.0465    6604.9614    7757.7783    6332.8731    -42.14832   -303.42983    128.96124   -3413.6938 
21872000    274.49123   -4669.5808   -4140.2014   -4669.5808            0    8716.6873    19.845035    19.643122    20.534432    8004.7001     7760.554    9060.6761    9328.8316    -590.4471    2114.6554   -1242.8011   -3122.6124 
21873000    262.45868   -4694.7184   -4188.5448   -4694.7184            0    7772.4279    19.948602    19.863641    20.538014    8138.2264    7181.2466    9740.3546    6395.6824    134.49584    11.242666    45.904594   -3266.0533 
21874000    262.31455   -4704.0654   -4198.1697   -4704.0654            0    7473.3446    20.027721    19.990914    20.443155    8184.8759    7155.3119    6497.5417      8767.18    -463.3357    1380.9205   -17.363676   -3306.0914 
21875000    264.87591   -4676.2791   -4165.4436   -4676.2791            0    7720.4748    19.889206    19.764446    20.826488    8186.8747    7705.1049    8841.2262    6615.0933    440.50554    1043.1791    106.22734   -3243.6408 
21876000    254.11022   -4719.5636   -4229.4907   -4719.5636            0    7898.4535    19.817507    19.988626    20.633007    8173.2443    7720.6938    9619.1174    6355.5492    93.429012   -390.79942    750.35977   -3288.0078 
21877000    263.10499   -4705.9589   -4198.5388   -4705.9589            0    7357.8638    19.893445    20.003348     20.57212    8186.3771     7043.353      8688.14    6342.0984    193.83332    -135.2042   -365.94582   -3320.0841 
21878000     250.9473   -4697.2011   -4213.2281   -4697.2011            0    7762.6579    20.044776    19.920213    20.462648    8170.6575    8223.2865    7338.1476    7726.5397   -299.23533   -1004.1413   -715.62115   -3288.2247 
21879000    263.78326   -4666.7652    -4158.037   -4666.7652            0    6834.9697    20.109345    19.973085    20.566716    8260.5323    5406.2049    7832.0685    7266.6358    340.82705   -279.94216    1826.6049   -3334.6187 
21880000    242.08457   -4693.1685    -4226.288   -4693.1685            0    9108.4689    19.725361    19.876758    20.659778    8100.2079    10635.822    8415.4746      8274.11     324.9012    1196.0429   -215.23201   -3150.2752 
21881000    257.80665   -4730.9094   -4233.7076   -4730.9094            0    8000.9194    19.857058    20.005067    20.405899    8106.0755    7305.3822    8030.2424    8667.1336   -829.08311    -1231.207   -526.06942   -3287.8485 
21882000    273.74352   -4688.3362   -4160.3988   -4688.3362            0    7418.6208    19.847063    20.166145    20.499662     8204.759    8541.8822    5045.4132    8668.5669   -1151.7912   -359.07512    -258.9194   -3272.7015 
21883000     274.0875   -4685.7987   -4157.1979   -4685.7987            0    6868.1117    20.050587    19.927707    20.587058    8225.8109    6062.2844    7130.6903    7411.3603    206.37966    2069.7092   -246.37099   -3333.2648 
21884000    254.23893    -4697.379   -4207.0579    -4697.379            0    9189.1257     19.82926    19.892472    20.592379    8122.7258    8783.3323    9485.2682    9298.7766    543.19797    680.43477    726.71613   -3118.4991 
21885000      273.894   -4731.9058   -4203.6782   -4731.9058            0    5401.9162    19.731553    20.033574    20.737668    8197.4663    4519.0278    5663.8433    6022.8774   -736.50817   -187.96551    -843.7033   -3557.8702 
21886000    262.66433    -4691.721   -4185.1508    -4691.721            0    7481.9227    20.173671    19.747731    20.515193    8172.9294    6941.0605    7291.9189    8212.7886    489.25643    400.42217    727.36803    -3293.352 
21887000    256.85882   -4705.3807   -4210.0068   -4705.3807            0    8936.2712    19.774023       19.971    20.477636     8086.762    10760.664    7470.7973     8577.352   -86.974257   -1057.2292    -450.3033   -3156.0887 
21888000    259.45574   -4694.6118   -4194.2296   -4694.6118            0    8990.7547    20.044582    19.725517    20.444784    8083.6579    9188.1561    8528.7527    9255.3553   -445.97888     1115.357    135.89034   -3134.2928 
21889000    249.99444   -4735.1349   -4252.9996   -4735.1349            0    5099.8146    20.174136     19.93932     20.46789    8233.3842    6109.0564    4552.2856    4638.1017    189.78928    729.51696   -604.40967    -3640.637 
21890000    259.71122   -4673.9612   -4173.0863   -4673.9612            0    6733.0683    19.942943    19.911933    20.447842    8119.8902    6570.4536    6187.8236    7440.9277    487.20345    512.22551    378.55155   -3375.7545 
21891000    260.54304   -4699.8771   -4197.3979   -4699.8771            0    7494.3688    19.922189    19.770124    20.696086     8151.446    6078.2502    9293.4408    7111.4153   -231.12056    -334.3418   -156.55802   -3306.4638 
21892000    268.45211   -4713.0674   -4195.3349   -4713.0674            0    7584.0692    19.893646    19.878418    20.624107    8155.8902    8216.3955    7013.9095    7521.9025   -537.29238    954.09979   -84.806037   -3293.2456 
21893000    250.72977   -4695.0915   -4211.5381   -4695.0915            0    6261.1605    20.013961    19.968652    20.587344    8227.7696    7906.5544    4516.7682     6360.159    19.304944   -611.02719   -1769.5789    -3460.239 
21894000    260.51974   -4696.2209   -4193.7867   -4696.2209            0    6285.3551    20.265102    19.873655    20.382563    8208.9067    6434.8574    5971.5189     6449.689   -647.77997   -395.30563    136.77722   -3441.3135 
21895000    264.52997   -4706.7603    -4196.592   -4706.7603            0    7720.7255    19.914878    19.776772    20.648142    8132.3118    6562.9441     9272.617    7326.6152   -161.02742   -296.32422    806.94169    -3280.903 
21896000     265.2902   -4722.9775    -4211.343   -4722.9775            0    7693.2053    19.905738    19.861401    20.613297    8149.5873    8577.2483    8213.5893    6288.7784    887.71204   -741.88513    352.03277   -3296.9796 
21897000    263.62282   -4727.0269   -4218.6081   -4727.0269            0    7820.6183    20.102386    19.825958    20.356949    8113.2428    4219.5376    10298.759    8943.5587    823.27963    223.00951   -498.79536   -3293.2466 
21898000    258.60071   -4721.3953   -4222.6621   -4721.3953            0    7132.9809    19.890174    20.122511    20.522806    8214.0526    8424.7825    6087.0342    6887.1261   -218.88625   -99.618124   -418.54462   -3368.1771 
21899000     272.9172   -4698.8363   -4172.4925   -4698.8363            0    8291.7655    19.924953    19.894741    20.611147    8170.2954    9730.3948    7009.9286     8134.973   -28.236451   -1318.1871    -129.9806    -3184.484 
21900000    268.89765   -4718.9809   -4200.3892   -4718.9809            0    7955.6105    19.950074    19.876459    20.473566     8118.523    6816.5852    7931.0087    9119.2375    868.74768    188.32619    857.94045   -3258.4423 
21901000    265.80431   -4670.4332   -4157.8072   -4670.4332            0    7070.0908    19.891781    20.117903    20.520201    8211.7931    8002.9516    6046.0869     7161.234    261.61518    1953.1113   -760.46549   -3311.0891 
21902000    272.49433   -4691.6101   -4166.0819   -4691.6101            0      7159.36    20.264541    19.796636    20.330922    8156.1506    6731.0899     6248.918    8498.0723    127.45485    374.22885   -46.501115   -3314.4825 
21903000    260.34562   -4700.9058   -4198.8074   -4700.9058            0    7837.9565    19.731689    20.019724    20.555492    8119.8915     8917.765    6512.8645    8083.2399    465.02366    1057.1355    103.98239   -3270.6343 
21904000    260.68632   -4683.7976   -4181.0422   -4683.7976            0    8743.4271    20.149151    19.735159    20.337996    8087.3369    8153.7627     9392.315    8684.2036   -127.22797    1089.6404    554.89508   -3149.7941 
21905000    258.06819    -4698.449   -4200.7428    -4698.449            0    9072.8986    19.720902    20.001248    20.553069    8107.0071    9803.7591    9069.5038     8345.433    76.052567   -128.45057    1272.1763   -3128.0324 
21906000    259.82922   -4720.2004   -4219.0979   -4720.2004            0    6696.3598    20.167453    19.638901    20.711963    8203.3171    6145.3613    7296.7099    6647.0082   -39.532234    1008.7805    236.43142   -3417.9657 
21907000    262.28745   -4692.3302   -4186.4868   -4692.3302            0    7575.7918    19.900876    19.873047    20.610512    8151.2726    8242.6877    7205.0782    7279.6093   -772.58646   -845.39736   -1107.6332   -3285.8922 
21908000    258.69034   -4728.6022   -4229.6961   -4728.6022            0     7563.441    19.989238     19.88479    20.497672    8147.4516    7233.1742    8451.1579    7005.9909   -500.26782   -886.26113    1467.1467   -3330.9912 
21909000    262.30371   -4723.7991   -4217.9243   -4723.7991            0    5235.9556    20.239694    19.835562    20.491347    8226.5734    3067.9496     6109.804    6530.1133   -601.72553   -213.14493   -405.63077   -3589.7346 
21910000    256.61731   -4684.7186   -4189.8106   -4684.7186            0    8864.2056    19.846704    20.079242    20.455443    8151.6325    10296.971     7594.352     8701.294    -1215.364    1831.3505   -779.87606   -3136.0055 
21911000    257.88744   -4716.4018   -4219.0442   -4716.4018            0    7420.7329    19.997789    19.977404    20.478786    8181.3548    6593.9295     8235.398    7432.8712   -164.45264    1680.7334   -1041.2072   -3333.6271 
21912000    257.51838    -4688.156   -4191.5102    -4688.156            0    5800.7865     19.85059    19.887825    20.803657     8212.973    6733.2966    5781.6513    4887.4117    499.11189    1135.2628   -383.34876   -3496.7048 
21913000    259.47033   -4678.4908   -4178.0805   -4678.4908            0    8190.7071    19.870443    20.032508    20.434827    8134.1811    8293.7569    9540.2921    6738.0723    491.25707   -1096.9435    827.78003   -3206.4276 
21914000    257.62359   -4703.7964   -4206.9477   -4703.7964            0    8188.2378     19.98809    19.896024    20.363477    8098.2192    9506.5761    6924.1214    8134.0159    618.26784    -1473.447   -1023.0214   -3239.8822 
21915000    267.18774   -4707.5528   -4192.2587   -4707.5528            0    7945.7135     19.75386     19.92541    20.668866    8135.3434    9469.2605    7582.1525    6785.7276   -272.11421   -475.40314    -711.7732   -3249.5345 
21916000    268.56976   -4688.8451   -4170.8858   -4688.8451            0    6674.8957    19.903277    19.745792     20.69738     8134.194     6407.589    7919.1753    5697.9228    216.63626    371.72263    106.49354   -3379.0504 
21917000    253.80469   -4671.1333   -4181.6496   -4671.1333            0    8151.9973    20.012531    19.928979    20.353103    8117.4142    7860.4636    9178.7703    7416.7579   -518.02734    417.88314    -428.6549   -3216.5823 
21918000    275.62774   -4698.2569   -4166.6856   -4698.2569            0    7776.8444    20.070958    19.879682    20.502639    8180.6408    7500.3368    7742.5069    8087.6896    201.09615    839.72076    1433.5039   -3238.8594 
21919000    277.58622   -4689.4984     -4154.15   -4689.4984            0    7670.8005    19.682168    20.229186    20.454597    8144.0843    9991.4517    4785.0566    8235.8932   -419.69789   -371.59409   -1524.9005   -3243.0651 
21920000    251.93123    -4666.432   -4180.5615    -4666.432            0    8101.5554    20.111103    19.745282    20.555125    8162.4282    6407.1501    8668.5489    9228.9673     -306.513   -276.04512    376.49341   -3216.1471 
21921000    266.27152    -4689.573    -4176.046    -4689.573            0    7247.6605    19.789429    19.856091    20.841933    8189.6437    8734.5857    6537.0669    6471.3287   -55.581639     16.23168    396.42227   -3310.4032 
21922000    259.21257   -4708.1539   -4208.2406   -4708.1539            0    8424.9137    20.071369    19.771451    20.606927    8177.6547     10550.82    6890.5545    7833.3669    673.86222    614.62185   -835.58546   -3203.4626 
21923000    266.35122   -4736.0724   -4222.3917   -4736.0724            0    8110.7988    19.940933    20.163892    20.284401    8156.0904    9057.6518    7778.2796     7496.465    140.96618    356.36181   -469.00247   -3257.6266 
21924000    271.50394   -4706.3568   -4182.7386   -4706.3568            0    9114.4699    19.967813    19.694486    20.541759    8078.1665    10005.065    7651.2322    9687.1126   -1.8381774   -918.26401    866.77698   -3108.9467 
21925000     258.7889    -4691.042   -4191.9458    -4691.042            0    8003.2934    19.462285    20.143542    20.770923    8143.0192    10770.124    5837.4855    7402.2708    119.01796    1866.4268   -551.74537    -3241.494 
21926000    260.20344   -4713.5099   -4211.6857   -4713.5099            0    7583.9922     20.06352    19.799045    20.485196    8137.5096    7554.1259    8496.6285    6701.2221   -259.20396    374.88308   -99.380948   -3311.6385 
21927000     264.2609   -4700.6451   -4190.9957   -4700.6451            0    7456.8437    19.905155    20.058387    20.533841    8198.4506    6756.3486    7410.3518    8203.8308    218.31693    184.68659     1062.075   -3299.4108 
21928000    267.13908    -4712.615   -4197.4148    -4712.615            0    6912.8697    19.833515    19.922163    20.678509    8170.6276    7948.4152    5226.7621    7563.4319    -315.3361   -798.14075    337.36838   -3373.6757 
21929000     264.9746   -4678.3565   -4167.3307   -4678.3565            0    7415.3471    20.103313    19.944099    20.512565    8224.3584    6684.9639    8693.6579    6867.4194    534.89378     158.1073   -271.79101   -3277.9056 
21930000    278.85251   -4705.9687   -4168.1782   -4705.9687            0    8210.8401    19.820243    20.194828    20.296057    8123.8298    8292.0913    7689.2209     8651.208    1449.6748    336.27583    693.92669   -3195.3765 
21931000    267.98052   -4718.1906   -4201.3676   -4718.1906            0    9649.4857    19.855502    19.777796    20.688246    8124.2342    10730.076    9294.5638    8923.8173   -120.73297    1749.0811    865.12412   -3058.0616 
21932000    271.57095   -4714.5341   -4190.7867   -4714.5341            0    7949.3231    19.933204    19.855011    20.552471    8134.1333    7901.4657    8313.0003    7633.5032   -177.77539   -888.41553    -369.6101   -3247.7744 
21933000    263.97309   -4734.8171   -4225.7228   -4734.8171            0    6016.9926    20.219079     19.80037    20.468309    8194.3901    5178.1155     5925.256    6947.6063   -228.16837    506.39975    716.61491   -3506.6514 
21934000    254.28549    -4718.446    -4228.035    -4718.446            0    7012.5477    19.922421    20.097419    20.545855    8226.3394    8397.0481    4394.5674    8246.0277    246.90821   -2353.9271   -112.47572   -3386.7206 
21935000    268.61354   -4685.0442   -4167.0004   -4685.0442            0    9449.2877    19.915999    19.833701    20.652701    8157.9811    8160.7961    11023.802    9163.2647    280.25699    1517.0238   -306.79768   -3042.7639 
21936000    258.18437   -4660.7394   -4162.8091   -4660.7394            0    7437.9954    19.758491    19.996717    20.705689    8180.9203    8501.5545    5959.7201    7852.7117    165.75302    -1624.441   -41.618408   -3275.3794 
21937000    264.26845   -4706.8168   -4197.1529   -4706.8168            0    7008.9245    19.879488    20.017613    20.366632    8104.6954    7284.1823     6128.683    7613.9082    302.46494    106.93581    221.92681   -3368.7073 
21938000     279.5827   -4710.4249   -4171.2261   -4710.4249            0    7244.8805    20.041787     19.81298    20.450158    8120.5028    5607.7876    7397.6467    8729.2072   -421.64921    739.35368   -688.03771   -3313.2207 
21939000    248.52869   -4702.8188   -4223.5103   -4702.8188            0     5410.451    20.067741    19.720165    20.745794    8209.9231    3513.0307    8780.7842    3937.5381   -728.85505    620.95425    575.63178   -3575.6991 
21940000    279.95234   -4693.6584   -4153.7467   -4693.6584            0    8047.1644     19.84436    19.878703    20.714745    8171.5552    8485.6267    7386.9579    8268.9085   -191.30801    1666.3488    617.97193    -3194.736 
21941000    258.47772   -4676.7751   -4178.2791   -4676.7751            0    6877.0207     19.89019    19.770628    20.603113    8102.0002     6139.405    8636.2417    5855.4154    224.54542    1818.7516    741.94084   -3365.6947 
21942000    270.99628   -4709.8156   -4187.1764   -4709.8156            0    6214.6084    19.820613    19.880498    20.716756    8163.3061    6598.3186    5706.3457    6339.1608    1158.8664    813.25918    4.3223512   -3447.3059 
21943000    268.24005   -4703.0535     -4185.73   -4703.0535            0    7532.4725    20.161683    19.837181    20.461355    8183.5382    5350.2729     8550.017    8697.1274    659.04669    278.24536    614.95191   -3286.7406 
21944000    271.72682   -4683.9822   -4159.9342   -4683.9822            0    8394.2259    19.809657    19.987904    20.532354    8129.8577    8751.7375     8449.429    7981.5111   -90.620449    425.53508     455.8657   -3164.6674 
21945000    264.22412   -4698.1648   -4188.5863   -4698.1648            0    7794.2045     19.96115    19.867019    20.415466     8096.132    5608.2246    9031.2956    8743.0933    65.463499     666.3478    -1149.343   -3268.2951 
21946000    262.47545   -4713.0848   -4206.8788   -4713.0848            0    6735.9464    19.787348    20.093815    20.696913    8229.1611     8346.726    6061.7659    5799.3473    494.71117    261.39507    881.35659   -3398.4718 
21947000    250.80002   -4679.0378   -4195.3489   -4679.0378            0    7953.2175    20.013096    19.842388     20.41863    8108.3935    6545.9647    8833.4111    8480.2768   -765.57809   -219.75325   -1692.8231   -3254.8602 
21948000    253.42508   -4679.9801   -4191.2285   -4679.9801            0    6422.4202    19.891779    20.050539    20.712192    8260.8693    7098.0882    5319.7224    6849.4501    14.376767    162.38645     1484.858   -3417.4791 
21949000    266.27859   -4680.3967   -4166.8561   -4680.3967            0    8424.4504    19.795131    19.864714    20.714296    8145.3711    8520.8203    8190.5633    8561.9676   -796.56671   -196.50713    731.23296   -3166.0998 
21950000    269.47298   -4708.7282   -4189.0269   -4708.7282            0    8221.6258    19.801351    19.809222    20.553322    8062.0272    10973.841    7439.9063      6251.13     256.3787   -1180.4201    303.29401   -3222.3577 
21951000    250.47201   -4681.7321   -4198.6758   -4681.7321            0    7654.3119    19.870313    19.889587    20.552986    8122.7933    7639.0997    6738.4331    8585.4029     252.4126   -413.51106   -758.35657    -3291.926 
21952000    253.69547   -4682.7578   -4193.4848   -4682.7578            0    6379.0778    19.826263    19.801342     21.08233    8276.6404    8943.1863    5917.9476    4276.0994   -321.71936    256.90595    1548.0607   -3423.4898 
21953000    262.09982    -4732.993   -4227.5114    -4732.993            0    6391.7701    19.912185    20.037594    20.477555    8170.3862     7164.595    4767.1172     7243.598   -1162.3955    2334.7636   -465.10586   -3465.8892 
21954000    261.81621   -4724.6044   -4219.6698   -4724.6044            0    7046.0435    19.965157    20.020857    20.374672     8144.155    7423.6357    5525.0895    8189.4053    17.203769    768.72487    -222.6536    -3382.782 
21955000    254.14468   -4727.5721   -4237.4327   -4727.5721            0    7111.6109    19.980181    19.795903    20.712992    8192.5212    6363.2956    8460.5695    6510.9675    228.28371   -843.04062    81.227905   -3387.7408 
21956000    263.86826   -4737.5542   -4228.6621   -4737.5542            0    6898.2301    19.961088    19.748778    20.682559    8153.2115    8457.4282    6807.5817    5429.6805   -353.71904    164.22976    610.21445   -3408.4196 
21957000    255.93212   -4682.4794   -4188.8928   -4682.4794            0    8895.2784    20.013083    19.916837    20.300074    8091.5548    8866.6748    8902.8166    8916.3437   -896.74115    207.77606    1035.6428   -3139.1875 
21958000    272.36932   -4711.8681   -4186.5809   -4711.8681            0    6145.6256    20.178156    19.799599    20.533464    8203.5169    4306.5841    7089.2416    7041.0511     367.0448    15.016541   -1098.6119    -3451.319 
21959000    261.37467   -4715.0059   -4210.9229   -4715.0059            0    6192.9684    19.989029    19.854817    20.675728    8205.7524    7512.4099    5427.9571     5638.538   -205.28794   -627.95881   -1241.7182    -3469.795 
21960000    265.49436   -4678.8744   -4166.8462   -4678.8744            0    5797.0612    19.994876    19.959109    20.614731     8226.925    7543.8834    5562.8219    4284.4785   -670.99961    461.23405   -830.76702   -3471.3075 
21961000    262.32683   -4680.3648   -4174.4454   -4680.3648            0     7319.255    19.707566    19.972995    20.548775    8088.3908    7957.0162    5960.0753    8040.6735    273.93578   -1525.1197   -995.56758   -3311.0596 
21962000    262.00791   -4704.4794   -4199.1751   -4704.4794            0    6075.7864    20.030201    19.828918    20.568576    8169.3701    6163.1132     6431.199    5633.0469    57.717037    461.71847    -359.3389   -3475.2945 
21963000    269.67605   -4687.6526   -4167.5597   -4687.6526            0    8172.1184    20.085048    19.883851     20.44404    8164.6976    6386.0471    8937.2576    9193.0505   -193.29872   -712.58322    959.86484    -3194.475 
21964000    265.70554   -4699.9369   -4187.5014   -4699.9369            0    5928.4987    19.850194     19.97238    20.684167    8200.3541    6052.7548    4812.2081    6920.5332    406.68964   -684.03811   -745.57518     -3478.49 
21965000     241.7015   -4707.5968   -4241.4551   -4707.5968            0    9192.0898    20.025069    19.749206    20.554049    8128.6989     9698.457    9660.0454    8217.7671    68.638058    7.1576542   -1709.3956   -3151.7445 
21966000    245.11361    -4677.512   -4204.7898    -4677.512            0    7601.6304    19.874223    19.965801    20.451117     8115.101    8028.4471    7574.5341      7201.91    25.813386    -635.5106   -513.54878   -3305.1336 
21967000    247.10576   -4702.9152    -4226.351   -4702.9152            0    8797.8428    19.877452    19.833895    20.528473    8093.2952    9411.2525     8009.315    8972.9609   -357.57355    791.11522   -145.97343   -3187.9204 
21968000    260.59062   -4670.1601   -4167.5892   -4670.1601            0    8012.1975    20.271001    19.729546    20.411209    8163.2112    5215.9396    10709.841    8110.8119    -235.9192    1134.8557    664.48008   -3213.7206 
21969000    261.99835   -4675.2818    -4169.996   -4675.2818            0    7585.7017    19.925215    19.997159    20.497598    8167.2207    8313.5688    7145.2288    7298.3074   -481.76244   -219.79656   -1219.6707    -3266.459 
21970000    259.33082   -4723.3757   -4223.2344   -4723.3757            0    7783.4726    20.113019    19.555291    20.795245    8179.1013    8270.9637    6870.7249    8208.7291    928.45358   -1070.8931   -93.312446   -3294.7922 
21971000    252.36551   -4687.2465   -4200.5384   -4687.2465            0    7539.1793    19.828196    19.916349    20.694879    8172.5169    8316.8153    7598.1685    6702.5539   -417.07872   -440.71227   -2613.0447   -3301.9604 
21972000    258.30463    -4712.568   -4214.4058    -4712.568            0    7754.6696    20.022496    19.965313    20.340367    8131.1715     6926.022    8335.1394    8002.8473    1402.2817    1078.3825    742.32361   -3294.8199 
21973000    256.13426   -4706.4737   -4212.4972   -4706.4737            0    8353.5554    19.885087    19.948869    20.457832    8115.3152    8724.0621    6971.9189    9364.6852    112.75347    243.14144   -167.41984   -3223.8243 
21974000    265.26225   -4705.3642   -4193.7837   -4705.3642            0    7138.0767     19.98605    19.930483     20.56788    8192.8371    7513.3248    6108.0522    7792.8531   -297.06885    1093.0013     717.1596   -3340.8968 
21975000    261.07776   -4716.9336   -4213.4232   -4716.9336            0    7555.3406    19.789531    19.834104    20.742281    8141.5034    7445.1025    8199.9747    7020.9445    350.24757    1744.6298    369.27654   -3316.3362 
21976000    255.39402   -4685.9151   -4193.3663   -4685.9151            0    7879.5353    20.172992    19.841727    20.424488    8175.2485    7317.3618    7788.6574    8532.5868   -213.09832     2138.727   -121.50925   -3253.9081 
21977000    273.84401   -4643.0802    -4114.949   -4643.0802            0    7842.3518    19.920762    19.996409    20.386451    8120.8144    9869.5755     6903.213     6754.267    -641.7368    21.842929     338.0722   -3186.1499 
21978000    268.71957   -4680.0331   -4161.7848   -4680.0331            0     7529.978    19.937839     19.74479    20.628035    8120.6063    7653.8126    7041.8535     7894.268    81.945752   -255.92022   -894.15211   -3270.0041 
21979000    263.82306   -4678.5372   -4169.7322   -4678.5372            0    6932.8695    20.092032    19.591658    20.610924    8113.2063    6008.3195    7582.3861    7207.9028   -235.08088   -179.51338   -1942.3279   -3349.4157 
21980000    264.42122   -4658.6394   -4148.6808   -4658.6394            0    7107.0096    19.757598      19.7339    20.890526    8145.1004    9367.2611    6403.5844    5550.1831   -1022.7312   -552.52678    1497.7645   -3304.4538 
21981000    276.15823   -4698.5618   -4165.9674   -4698.5618            0    8404.8246    20.034298    19.528655    20.843513    8154.8758    6599.8435     11288.49    7326.1404    508.41752   -768.90979     499.3066   -3166.3774 
21982000    267.59309   -4712.0677    -4195.992   -4712.0677            0    5572.7152    20.138284    19.955486    20.445013    8216.2221    2717.3584    6848.6331    7152.1543    130.45332    560.71943    -477.0835   -3528.2404 
21983000    260.23255   -4714.5869   -4212.7066   -4714.5869            0    5458.6352     20.06634    20.051147    20.494722    8246.1156    5387.1919    4801.2248    6187.4888    946.26216    1223.2431    495.06668   -3556.2449 
21984000    273.13135   -4704.4162   -4177.6594   -4704.4162            0    7356.3546    19.904531    19.829603    20.705882    8172.5897    6846.4436     8684.993    6537.6271   -84.137692   -508.14636   -1690.9856   -3300.8641 
21985000    253.31767   -4717.5557   -4229.0112   -4717.5557            0    5708.3214    19.988865    19.945594    20.682056    8245.7247    5557.5101    5258.7451     6308.709    226.21569    738.13827   -366.08724   -3542.5546 
21986000    248.49437   -4696.9644   -4217.7221   -4696.9644            0    6918.2347    20.016831    19.896445    20.556266    8186.8165     6801.683    6548.7753    7404.2459    114.48787    568.10121     417.3756   -3391.7103 
21987000     271.3747   -4722.6045   -4199.2356   -4722.6045            0    5917.4605    20.038906    19.948056    20.534825    8208.5339     7415.236    5438.3974    4898.7479   -590.49222    669.32058    3.7000043   -3490.8384 
21988000    254.19062   -4678.2886   -4188.0606   -4678.2886            0    4708.4411    19.982469    20.082034    20.594993    8264.5365    2450.0094    6446.9243    5228.3896    -316.9459    698.43113   -720.11399   -3620.5532 
21989000    251.34126   -4689.9254   -4205.1926   -4689.9254            0    6268.6535    19.942266    20.055995    20.546257    8217.7218    6157.6503    6572.0753    6076.2348    370.13347   -78.089306    393.24257    -3453.913 
21990000    270.97059   -4701.5845    -4178.995   -4701.5845            0    6867.4402    19.982023    19.878637    20.534055    8156.4427    5467.6081    7805.1543    7329.5581   -588.18361   -346.17622   -594.78804     -3362.09 
21991000    257.53771   -4701.7834   -4205.1003   -4701.7834            0    9657.1589    19.900647    19.884212    20.432348    8085.2573    9084.9642    8404.6555    11481.857   -230.59344    757.29503    -67.05749   -3066.3746 
21992000    265.79991   -4697.3228   -4184.7054   -4697.3228            0    8145.8405    19.797592     19.92317    20.738854    8180.0424    10289.777    6693.2668    7454.4771    28.148451   -574.41939    173.84096   -3212.9267 
21993000    261.09389   -4666.7967   -4163.2552   -4666.7967            0    6626.4218    20.010158    19.797979    20.545725    8139.4085    6640.3259     6915.946    6322.9934   -1209.0358   -285.36555    75.435404   -3376.6663 
21994000    273.07933   -4706.4084    -4179.752   -4706.4084            0    6573.8588    20.022614    20.017894    20.360888    8160.8589     6590.924    6091.3059    7039.3465   -667.21115    1529.9139   -1133.1151    -3397.346 
21995000    282.86939   -4695.7887   -4150.2513   -4695.7887            0    6687.0125    20.140113    19.995532    20.394896    8213.2745    6768.9225    5099.8094    8192.3056   -89.676983    968.23418    187.10463   -3349.2663 
21996000    269.90228    -4696.068   -4175.5387    -4696.068            0    7740.9245    19.907597    19.819129    20.578635    8119.3257    6131.9843    8279.2536    8811.5355   -745.79262    1101.0434   -941.46939   -3258.9201 
21997000    254.78349   -4690.6099   -4199.2386   -4690.6099            0    6060.9764    20.077287    20.083276    20.343427      8202.83    5967.5854    5058.6278     7156.716   -123.55731    -434.5654   -1405.1005   -3474.1648 
21998000    268.76119   -4690.2286      -4171.9   -4690.2286            0    6804.9458    19.998957    20.037616    20.561432     8239.612    7183.0464    7043.3389    6188.4522    145.70975   -1083.8684    1313.4704   -3354.1749 
21999000    251.34115   -4693.1787   -4208.4461   -4693.1787            0    8355.0654     19.87121      19.9281    20.528606    8129.2345    8558.4272    7822.5428    8684.2261    408.85806    134.14256    459.20177   -3217.8984 
22000000    277.89535   -4689.8825   -4153.9379   -4689.8825            0    6758.5762    19.663965    20.072784    20.865432    8235.8052    7468.7477    6360.1487    6446.8323    234.39301    -1343.429    98.010211   -3342.1601 
Loop time of 397.898 on 64 procs for 250000 steps with 972 atoms

Performance: 108.571 ns/day, 0.221 hours/ns, 628.302 timesteps/s
193.5% CPU use with 32 MPI tasks x 2 OpenMP threads

MPI task timing breakdown:
Section |  min time  |  avg time  |  max time  |%varavg| %total
---------------------------------------------------------------
Pair    | 27.296     | 35.85      | 49.384     |  78.1 |  9.01
Bond    | 0.8609     | 1.1661     | 1.5861     |  15.4 |  0.29
Kspace  | 170.13     | 179.37     | 193.26     |  44.2 | 45.08
Neigh   | 2.3599     | 2.6526     | 3.1862     |  16.4 |  0.67
Comm    | 72.252     | 83.05      | 89.024     |  50.8 | 20.87
Output  | 0.50636    | 0.50669    | 0.50858    |   0.1 |  0.13
Modify  | 78.404     | 80.583     | 83.609     |  14.9 | 20.25
Other   |            | 14.72      |            |       |  3.70

Nlocal:        30.3750 ave          36 max          24 min
Histogram: 3 1 1 1 3 12 5 3 1 2
Nghost:        2667.44 ave        2715 max        2619 min
Histogram: 2 0 3 6 6 4 5 3 1 2
Neighs:        9547.62 ave       11713 max        6688 min
Histogram: 2 1 2 2 4 6 4 6 3 2

Total # of neighbors = 305524
Ave neighs/atom = 314.32510
Ave special neighs/atom = 2.0000000
Neighbor list builds = 7986
Dangerous builds = 0

unfix		3
unfix		2
unfix		1

write_data	data.final.${pid}
write_data	data.final.0
System init for write_data ...
PPPM initialization ...
  extracting TIP4P info from pair style
  using 12-bit tables for long-range coulomb (../kspace.cpp:340)
  G vector (1/distance) = 0.37266619
  grid = 24 24 25
  stencil order = 5
  estimated absolute RMS force accuracy = 0.0033767898
  estimated relative force accuracy = 1.0169102e-05
  using double precision FFTW3
  3d grid and FFT values/proc = 3458 576
Last active /omp style is kspace_style pppm/tip4p/omp
WARNING: Not all mixed pair coeffs generated from mixing. Use write_data with 'pair ij' option to store all pair coeffs. (../write_data.cpp:312)

write_restart   restart.lmp.${pid}
write_restart   restart.lmp.0
System init for write_restart ...
PPPM initialization ...
  extracting TIP4P info from pair style
  using 12-bit tables for long-range coulomb (../kspace.cpp:340)
  G vector (1/distance) = 0.37266619
  grid = 24 24 25
  stencil order = 5
  estimated absolute RMS force accuracy = 0.0033767898
  estimated relative force accuracy = 1.0169102e-05
  using double precision FFTW3
  3d grid and FFT values/proc = 3458 576
Last active /omp style is kspace_style pppm/tip4p/omp
Total wall time: 0:06:38
