LAMMPS (30 Jul 2021)
Processor partition = 0
  using 1 OpenMP thread(s) per MPI task
using multi-threaded neighbor list subroutines
variable        pid world 0 1
variable        phase world IceII IceIII

shell cd ${phase}
shell cd IceII
include Restart.lmp
echo both
log log.lammps
#include		in.partitions
include		in.temp
variable        temperature equal 64.29
variable	tempDamp equal 100.0
include		in.pressure
variable        pressure equal 43.8
variable        pressureDamp equal 1000.0 # This is 1 ps
include		in.seed
variable        seed equal 745823

units		real
atom_style	full
box tilt large
read_restart	restart.lmp.${pid}
read_restart	restart.lmp.0
Reading restart file ...
  restart file = 30 Jul 2021, LAMMPS = 30 Jul 2021
  restoring atom style full from restart
  triclinic box = (-10.606346 -9.2081770 0.058351908) to (12.586346 12.198175 21.801647) with tilt (-9.2085933 1.9158493 2.8629564)
  4 by 4 by 4 MPI processor grid
  restoring pair style lj/cut/tip4p/long/omp from restart
  restoring bond style harmonic/omp from restart
  restoring angle style harmonic/omp from restart
  1296 atoms
  864 bonds
  432 angles
Finding 1-2 1-3 1-4 neighbors ...
  special bond factors lj:    0        0        0       
  special bond factors coul:  0        0        0       
     2 = max # of 1-2 neighbors
     1 = max # of 1-3 neighbors
     1 = max # of 1-4 neighbors
     2 = max # of special neighbors
  special bonds CPU = 0.005 seconds
  read_restart CPU = 0.015 seconds
include 	in.setup
variable	out_freq equal 1000
variable	out_freq2 equal 10000
variable	out_freq3 equal 1000

timestep	2.0

neigh_modify    delay 7 every 1

include		in.tip4p
# This is TIP4P/Ice

# create groups ###
group ox type 2
432 atoms in group ox
group hy type 1
864 atoms in group hy

# set charges - beside manually ###
set group ox charge -1.1794
Setting atom values ...
  432 settings made for charge
set group hy charge 0.5897
Setting atom values ...
  864 settings made for charge

# ### TIP3P Potential Parameters ###
pair_style lj/cut/tip4p/long/omp 2 1 1 1 0.1577 8.5
pair_coeff 1 1*2 0.000 0.000
pair_coeff 2 2 0.21084 3.1668
bond_style  harmonic
bond_coeff  1 450 0.9572
angle_style harmonic
angle_coeff 1 55 104.52
kspace_style pppm/tip4p/omp 1.0e-5
pair_modify tail yes

thermo          ${out_freq}
thermo          1000
thermo_style    custom step temp pe etotal epair emol press lx ly lz vol pxx pyy pzz pxy pxz pyz enthalpy

restart 	${out_freq3} restart.lmp.${pid} restart2.lmp.${pid}
restart 	1000 restart.lmp.${pid} restart2.lmp.${pid}
restart 	1000 restart.lmp.0 restart2.lmp.${pid}
restart 	1000 restart.lmp.0 restart2.lmp.0


include         in.dump
dump            myDump all atom ${out_freq2} dump.water.${pid}
dump            myDump all atom 10000 dump.water.${pid}
dump            myDump all atom 10000 dump.water.0
dump            myDump2 all dcd ${out_freq2} dump.dcd
dump            myDump2 all dcd 10000 dump.dcd
dump_modify     myDump append yes
dump_modify     myDump2 append yes


variable natoms 	equal  "count(all)"                        # NUMBER ATOMS
variable H      	equal  "enthalpy/v_natoms"                 # ENTHALPY-per-atom
variable Vol      	equal  "vol/v_natoms"                 # volume-per-atom
fix AVG all 		ave/time ${out_freq} 1 ${out_freq} v_Vol v_H file vol_enthalpy.dat
fix AVG all 		ave/time 1000 1 ${out_freq} v_Vol v_H file vol_enthalpy.dat
fix AVG all 		ave/time 1000 1 1000 v_Vol v_H file vol_enthalpy.dat


timer           timeout 10:00:00 every 1000
New timer settings: style=normal  mode=nosync  timeout=10:00:00

fix 		1 all shake 1e-6 200 0 b 1 a 1
Finding SHAKE clusters ...
       0 = # of size 2 clusters
       0 = # of size 3 clusters
       0 = # of size 4 clusters
     432 = # of frozen angles
  find clusters CPU = 0.001 seconds
fix             2 all nph tri ${pressure} ${pressure} ${pressureDamp}
fix             2 all nph tri 43.8 ${pressure} ${pressureDamp}
fix             2 all nph tri 43.8 43.8 ${pressureDamp}
fix             2 all nph tri 43.8 43.8 1000
fix             3 all temp/csvr ${temperature} ${temperature} ${tempDamp} ${seed}
fix             3 all temp/csvr 64.29 ${temperature} ${tempDamp} ${seed}
fix             3 all temp/csvr 64.29 64.29 ${tempDamp} ${seed}
fix             3 all temp/csvr 64.29 64.29 100 ${seed}
fix             3 all temp/csvr 64.29 64.29 100 745823


run             250000
PPPM initialization ...
  extracting TIP4P info from pair style
  using 12-bit tables for long-range coulomb (../kspace.cpp:340)
  G vector (1/distance) = 0.36713772
  grid = 30 40 32
  stencil order = 5
  estimated absolute RMS force accuracy = 0.0045771086
  estimated relative force accuracy = 1.3783827e-05
  using double precision FFTW3
  3d grid and FFT values/proc = 5168 640
Last active /omp style is kspace_style pppm/tip4p/omp
Neighbor list info ...
  update every 1 steps, delay 7 steps, check yes
  max neighbors/atom: 2000, page size: 100000
  master list distance cutoff = 10.8154
  ghost atom cutoff = 10.8154
  binsize = 5.4077, bins = 7 5 5
  1 neighbor lists, perpetual/occasional/extra = 1 0 0
  (1) pair lj/cut/tip4p/long/omp, perpetual
      attributes: half, newton on, omp
      pair build: half/bin/newton/tri/omp
      stencil: half/bin/3d/tri
      bin: standard
Setting up Verlet run ...
  Unit style    : real
  Current step  : 8250000
  Time step     : 2
  Walltime left : 9:59:59.90
Per MPI rank memory allocation (min/avg/max) = 9.437 | 9.441 | 9.447 Mbytes
Step Temp PotEng TotEng E_pair E_mol Press Lx Ly Lz Volume Pxx Pyy Pzz Pxy Pxz Pyz Enthalpy 
 8250000     67.25969   -6852.0171   -6678.9957   -6852.0171            0    249.47771    23.192693    21.406352    21.743295    10794.914    625.56255    80.236144    42.634433    609.93188    -349.6074     540.5958   -6639.7197 
 8251000    64.732572   -6858.3685   -6691.8479   -6858.3685            0    631.96104    23.258801    21.401538    21.631734    10767.717    1323.1885    471.18145    101.51321   -378.45307   -233.00431   -386.09331   -6592.6072 
 8252000    63.555654   -6852.5431   -6689.0501   -6852.5431            0    378.40781     23.26028    21.332688    21.751878    10793.376    552.46292      371.343    211.41751   -488.77339    61.070073    62.573155   -6629.4848 
 8253000    62.002132   -6848.6276   -6689.1309   -6848.6276            0     533.1301     23.24665    21.330074    21.732281    10776.011    702.54467    213.68705    683.15858    107.38485   -370.75158    257.62512   -6605.3458 
 8254000    60.609868   -6854.2065   -6698.2913   -6854.2065            0    283.54329    23.334817    21.326828    21.658591    10778.563   -87.111494    304.39801    633.34337   -21.093234    375.25684   -601.40694   -6653.7199 
 8255000    62.912821   -6852.6595   -6690.8201   -6852.6595            0   -57.712094    23.260415    21.366073    21.742664     10805.75   -203.23986   -6.2775218    36.381095    973.93821   -13.388964   -143.77079    -6699.915 
 8256000    65.345491   -6852.1516   -6684.0543   -6852.1516            0    160.92213    23.173948    21.462514    21.707573    10796.721    321.65666    32.212573    128.89714   -731.34031    230.99486   -356.86826   -6658.7157 
 8257000    62.748395   -6854.6924   -6693.2759   -6854.6924            0    266.47038    23.180675    21.441798    21.700613    10785.972    719.16093   -74.296686     154.5469   -420.54813   -221.35441     27.62903   -6651.3595 
 8258000     66.63485   -6858.7385   -6687.3244   -6858.7385            0    356.50763    23.258417    21.335227    21.718926    10777.444    376.07639    139.46971    553.97678    253.05992   -100.32644    676.59334   -6631.2892 
 8259000    67.112012   -6851.9649   -6679.3234   -6851.9649            0    392.43869    23.321325     21.28907    21.705766    10776.681   -306.81072    923.17178    560.95503    371.04592    135.12169    -203.4508    -6617.645 
 8260000    65.576938   -6856.0315   -6687.3388   -6856.0315            0    125.04813    23.210761    21.355936    21.779727    10795.939    1134.4046   -166.28296    -592.9773    370.89646    -571.1183   -415.83905   -6667.6503 
 8261000    64.396165   -6855.4417   -6689.7865   -6855.4417            0   -295.15417    23.251316    21.389751    21.739649    10811.994   -218.87751   -665.79338  -0.79160762   -75.443895    302.31808    166.92674   -6736.3269 
 8262000    66.484905   -6850.3403   -6679.3119   -6850.3403            0    -373.5183    23.315334    21.481699    21.613243    10825.058   -606.89014   -897.95611    384.29137   -355.10441   -492.79392    384.45607   -6738.2801 
 8263000     65.99582   -6852.0558   -6682.2855   -6852.0558            0   -908.30653    23.264438    21.424256    21.775966    10853.648   -806.61337   -724.59436   -1193.7119    175.95942    182.34031    137.26082   -6826.0608 
 8264000    62.602645   -6858.4288   -6697.3873   -6858.4288            0   -9.7132802    23.196932    21.387392    21.787757    10809.383    127.97777   -326.02097    168.90336    311.88871    630.51081    156.77684   -6698.9186 
 8265000    65.007885   -6857.2135   -6689.9847   -6857.2135            0    131.25923    23.256873    21.390271    21.707413    10798.804    440.90949    402.48654   -449.61835   -776.62386     97.05121   -401.06134   -6669.3127 
 8266000    63.923836   -6856.0567   -6691.6165   -6856.0567            0    43.261995     23.24889    21.432394    21.682351    10803.869     66.93946   -111.02744    173.87397   -530.90022    362.32862    43.529893      -6684.8 
 8267000    64.870073   -6856.2254   -6689.3511   -6856.2254            0    287.71825    23.206047    21.400445    21.696416    10774.868     406.0689     183.0241    274.06173   -1074.0017    627.98252   -39.002628   -6644.1389 
 8268000    63.601189   -6860.1787   -6696.5685   -6860.1787            0   -226.53724    23.227839     21.38973    21.748242    10805.336    552.90155   -204.93694   -1027.5763   -385.31566   -57.775711    128.99095   -6732.2674 
 8269000    66.336581   -6862.0563   -6691.4095   -6862.0563            0    -423.7378      23.2991    21.392327    21.698204    10814.861   -353.35181   -514.76456   -403.09703   -98.825109    226.87657   -115.39813    -6758.243 
 8270000    64.506357    -6857.688   -6691.7493    -6857.688            0   -259.28151    23.284357    21.304295    21.766637    10797.489   -409.76373    141.93955   -510.02036    625.46006    206.81662     145.9316   -6732.5785 
 8271000    61.136742   -6856.5794   -6699.3088   -6856.5794            0    125.14206    23.266329    21.372181    21.719176    10799.908   -186.75609    629.92144   -67.739159    169.10611    -292.5826   -839.81001   -6679.5982 
 8272000    65.650254   -6858.8241   -6689.9428   -6858.8241            0    147.63574    23.213898    21.420606    21.690745    10785.848    166.29126    209.79335    66.822624      185.498    6.9484126    215.61717   -6666.7196 
 8273000    64.685542    -6860.278   -6693.8784    -6860.278            0    77.034801    23.193466    21.434649    21.701173    10788.604   -30.642672     391.8543   -130.10723    474.28157    -39.14664    118.21007   -6681.7577 
 8274000    66.876582   -6843.6485   -6671.6125   -6843.6485            0   -35.926376     23.25077    21.405343    21.719164    10809.426    195.09288   -295.52048   -7.3515277    35.507115   -784.16472   -278.04297   -6677.2761 
 8275000     68.28468   -6855.5708   -6679.9126   -6855.5708            0    15.769193    23.314266    21.334056    21.695257    10790.958   -506.16916    102.52736    450.94938   -338.98135    160.43634     193.7497   -6677.4309 
 8276000    64.057808   -6846.4112   -6681.6263   -6846.4112            0   -313.08192     23.30038    21.364045    21.739995     10821.96   -392.08699   -782.01097    234.85219     131.1143    297.56317    88.135943   -6731.0392 
 8277000    65.464148    -6851.149   -6682.7465    -6851.149            0    189.32621    23.225436    21.354711    21.770159    10797.399    430.08143    355.05188   -217.15469   -757.30188    312.08459   -534.19175   -6652.9335 
 8278000    62.929086   -6859.2395   -6697.3583   -6859.2395            0    853.45747     23.20007    21.349344    21.696859     10746.59    699.80968    1279.9773    580.58544    266.01527   -136.33073    546.71349   -6563.5976 
 8279000    65.075298   -6863.2883   -6695.8861   -6863.2883            0    245.62624    23.251812    21.438841    21.620874    10777.831     663.3939   -309.66421    383.14902    -406.9581   -186.81338   -65.525074   -6657.2777 
 8280000    68.120249   -6854.0884   -6678.8532   -6854.0884            0   -321.78096    23.171376    21.428011    21.779758    10814.009   -188.47869   -228.45799   -548.40619    467.09981    4.1604947   -129.57731   -6729.6017 
 8281000    64.105776     -6844.57   -6679.6618     -6844.57            0    587.56321    23.173662    21.382859    21.742119    10773.636    986.73709    351.89176    424.06078    309.68277    189.84326    417.91129   -6587.3424 
 8282000    65.125969   -6851.8633   -6684.3308   -6851.8633            0    475.63354    23.275321    21.413223     21.63017    10780.469    514.06782   -27.578657    940.41147   -108.05551   -246.90495   -251.80608   -6609.5507 
 8283000    65.222616   -6857.4792    -6689.698   -6857.4792            0   -54.342587    23.286784    21.367075    21.715702    10805.092    259.27805   -150.55923   -271.74658   -326.04208   -196.54164   -166.11031   -6698.2614 
 8284000    62.595493   -6852.1299   -6691.1068   -6852.1299            0   -317.61347    23.308678    21.314291    21.779348    10820.153   -333.80451   -596.51753   -22.518359    382.56961    255.90529    968.04108   -6741.2265 
 8285000    61.412328   -6854.3065    -6696.327   -6854.3065            0    277.24233     23.27197    21.413841    21.648651    10788.438   -2.3690882    166.33134    667.76475    131.93795    -225.4074     170.7658   -6652.7062 
 8286000    64.099249   -6858.2753   -6693.3839   -6858.2753            0   -114.73788    23.155503    21.472594    21.715193    10796.983   -399.08188    319.89846   -265.03023    173.29113    -211.7026    -294.8156   -6711.4508 
 8287000    65.367355   -6855.1388   -6686.9852   -6855.1388            0    355.53761    23.140369    21.415525    21.774281    10790.531    886.98483    585.09101     -405.463    875.10998   -330.76433   -141.13003   -6631.0347 
 8288000    63.236898     -6853.32   -6690.6469     -6853.32            0   -862.32467    23.312812    21.445285    21.686279    10842.053    -1503.592   -469.80506   -613.57697    240.90053    473.24086   -487.38742   -6826.9979 
 8289000    63.734254    -6853.087   -6689.1345    -6853.087            0   -371.58174    23.291297    21.409476    21.697137    10819.374   -628.13793   -642.48858     155.8813   -68.327181    -204.4186    102.77839   -6747.7662 
 8290000    62.347703   -6854.6982   -6694.3125   -6854.6982            0   -36.731355     23.36251    21.242696    21.766159    10802.168   -383.09209    471.52227   -198.62425   -292.76114   -646.70633    963.52389   -6700.0991 
 8291000    65.251182   -6861.9535   -6694.0988   -6861.9535            0     355.4822    23.303383    21.305867    21.738155    10792.967    349.47911    346.52551      370.442    59.982911   -325.65031    215.68425   -6638.1443 
 8292000    63.924395   -6856.0948   -6691.6532   -6856.0948            0   -146.32355    23.220858    21.376347    21.758607    10800.475   -98.411401   -476.75571    136.19647    607.93381   -509.36724    592.60352   -6714.7012 
 8293000    65.843217   -6853.9576     -6684.58   -6853.9576            0   -66.421094    23.187388    21.415799    21.757014     10804.02    321.26832    -49.68271   -470.84889   -54.758778    124.12703   -41.673161   -6695.0457 
 8294000    66.164888   -6856.2568   -6686.0517   -6856.2568            0   -196.11348    23.226956     21.49338    21.657132    10811.799    239.87929   -286.21944   -542.00028   -425.60144    144.30625   -916.70478   -6716.9747 
 8295000    59.891501   -6861.3632   -6707.2959   -6861.3632            0   -109.61254    23.231689    21.391989    21.717713    10793.096   -516.72424    54.586056    133.30056   -304.85559    662.21375    341.09099   -6724.5496 
 8296000    63.842918   -6851.6232   -6687.3912   -6851.6232            0    649.79979    23.224222    21.350082    21.734946    10777.035    1063.5238    517.92989    367.94567    268.72503    181.92694   -319.78523   -6585.2609 
 8297000    63.237121   -6858.3594   -6695.6857   -6858.3594            0   -450.31662     23.32148    21.279736    21.800987    10819.283   -771.68368   -50.520711   -528.74547   -615.24154    510.43517   -574.36879   -6766.7404 
 8298000    65.813191   -6855.3413   -6686.0409   -6855.3413            0    83.441578    23.321344    21.295587    21.734746    10794.381   -155.90621    1014.2346    -608.0037   -746.21914      -255.45   -215.12399   -6672.9051 
 8299000    63.679203   -6849.5369    -6685.726   -6849.5369            0   -12.670146    23.299219    21.371618    21.693622    10802.166   -255.97811   -292.40152    510.36919   -802.52103    356.67036    791.87674   -6687.7221 
 8300000    65.462646    -6857.147   -6688.7484    -6857.147            0   -613.44487    23.177662     21.48693    21.738903    10826.339   -721.14495   -182.01562   -937.17405      437.262    321.84649   -585.28864   -6785.6058 
 8301000    64.644097   -6847.0068   -6680.7138   -6847.0068            0     259.2792    23.137568    21.448499    21.723563    10780.667    985.52294   -416.51498    208.82963   -241.69074   -166.01149   -403.43301   -6639.9487 
 8302000    61.519524   -6853.6584   -6695.4032   -6853.6584            0    506.72537    23.184826    21.472678    21.620897    10763.754     751.5892    14.017623    754.56929    199.58671   -232.22969    212.43455   -6615.8583 
 8303000    64.288613   -6860.0732   -6694.6947   -6860.0732            0   -55.422633    23.258555    21.368749    21.713902    10791.945    -337.5933    357.51509    -186.1897    20.382214   -133.10553   -314.78141   -6703.4176 
 8304000    65.856081   -6855.7795   -6686.3688   -6855.7795            0    249.04723    23.317759    21.252341    21.785447     10795.93    104.61984    963.55139   -321.02952   -200.99205     -579.329   -132.53041   -6647.1569 
 8305000    64.001809   -6849.8884   -6685.2476   -6849.8884            0     -286.927     23.46209    21.224132    21.720442    10815.965   -1920.7722    927.53811    132.45305    394.23989     -18.4936   -276.09962   -6730.5074 
 8306000    65.029709   -6846.5414   -6679.2565   -6846.5414            0   -145.47285    23.317706      21.3648    21.698032    10809.485   -357.89861    46.651178   -125.17114      23.6113   -313.00482   -32.756724   -6702.1896 
 8307000    66.095597   -6858.1597   -6688.1328   -6858.1597            0    452.19874    23.193335     21.41859    21.704795    10782.259    467.96237    850.80811    37.825732     343.0944   -84.992385   -101.76134   -6617.0254 
 8308000    64.677565   -6857.6218   -6691.2427   -6857.6218            0    736.77142    23.135115    21.465984    21.680567     10766.96    905.43195    445.64911     859.2332    631.33246   -92.258849   -55.011877   -6575.5511 
 8309000    62.142327   -6848.2634   -6688.4061   -6848.2634            0   -149.04468     23.19499    21.449232    21.713182    10802.628    302.45295   -227.77799     -521.809   -45.987038    475.87708   -588.30829   -6711.8874 
 8310000    61.590413   -6857.8286    -6699.391   -6857.8286            0   -477.28508     23.25584       21.392    21.753025    10821.889   -86.883955   -680.69751   -664.27377   -936.67166   -40.058308    79.307028   -6774.7191 
 8311000    64.465977   -6855.6955   -6689.8607   -6855.6955            0   -442.84654    23.330074    21.324033    21.752903     10821.88    -193.1836   -475.80359   -659.55245   -358.19301    404.52618    282.27543   -6759.7534 
 8312000    64.063482   -6849.0195   -6684.2201   -6849.0195            0   -279.65459    23.359305    21.309022    21.737611    10820.199   -727.22784   -336.31909    224.58315    99.074064    499.76684    119.54154     -6728.35 
 8313000    66.978118   -6849.1631    -6676.866   -6849.1631            0     117.7228    23.273833    21.332151    21.760874    10803.859    722.59187   -93.205561   -276.21791   -1214.0941   -140.27805   -33.338568   -6658.3172 
 8314000    64.131228   -6858.0235   -6693.0498   -6858.0235            0   -20.921251    23.174887    21.392273    21.789105    10802.243    163.80916   -27.836227   -198.73668    153.58876   -332.05096   -162.04175   -6696.3457 
 8315000    63.591989   -6865.9747   -6702.3882   -6865.9747            0    88.743743    23.149096    21.493437    21.672016     10782.99    343.14714   -448.64283    371.72692    207.99965   -487.79201    376.22021   -6688.4325 
 8316000    64.825346   -6848.3283    -6681.569   -6848.3283            0    214.27192    23.235679    21.449123    21.659678    10794.858    246.41281   -59.432697    455.83563    10.141351    78.154119    27.486848   -6647.8358 
 8317000    63.814619   -6865.6188   -6701.4596   -6865.6188            0    398.63359    23.220102    21.351263    21.723519    10770.054    827.52009     23.10376    345.27691    165.04081    88.366143    46.960651   -6638.8461 
 8318000    62.205181    -6856.298    -6696.279    -6856.298            0    766.18562    23.282335    21.271471      21.7448    10769.102    505.24211    1260.3471    532.96767    -595.7165   -120.72961    241.23537   -6575.9447 
 8319000    59.757111   -6855.8393   -6702.1178   -6855.8393            0   -46.004153    23.348554     21.31528    21.703981    10801.658   -559.70925    338.11708    83.579715   -141.07772    142.89138    257.92529   -6709.3648 
 8320000     63.50712   -6855.4059   -6692.0377   -6855.4059            0    417.08045     23.26416     21.33612    21.713526    10777.876    1090.9524     194.1091   -33.820143   -829.47738    97.700449   -43.249443   -6626.4792 
 8321000    64.608799   -6854.7945   -6688.5923   -6854.7945            0   -135.50398    23.170106    21.468943    21.743365    10815.969   -187.22357   -396.70002    177.41163    139.58346    500.26034    190.68251   -6709.9667 
 8322000    68.517348   -6852.0576   -6675.8009   -6852.0576            0    -200.3323    23.143584    21.521184     21.72086    10818.668    168.01675   -310.32426    -458.6894   -60.979895    482.18584   -276.84049   -6707.4092 
 8323000    61.846557   -6855.8587   -6696.7622   -6855.8587            0   -259.53707    23.245798    21.458646    21.651827    10800.437   -237.54362   -987.29424    446.22664   -37.834445    409.70298    589.66838   -6737.6428 
 8324000    66.692303     -6862.45   -6690.8882     -6862.45            0    292.98459    23.254995    21.368861    21.700936    10783.905    823.05857   -552.90594    608.80116    188.26585   -385.33672    532.51461   -6644.8098 
 8325000    64.461424   -6855.5789   -6689.7559   -6855.5789            0    454.84516    23.374231    21.199287    21.736359    10770.736   -11.595949    724.94941    651.18202   -555.84932    696.93672    57.846777   -6618.3087 
 8326000    66.003189   -6861.2007   -6691.4116   -6861.2007            0   -77.908722     23.26902     21.33756    21.731477    10789.768      526.249    -442.2482   -317.72697    177.80769   -146.81204    263.49436   -6703.6711 
 8327000    64.048199   -6860.5907   -6695.8306   -6860.5907            0   -141.53773    23.207293    21.451277    21.707033    10806.327   -562.13021    80.578845    56.938174   -109.61913    376.12576   -237.64779   -6718.1368 
 8328000     66.65667   -6849.5842    -6678.114   -6849.5842            0   -802.70476     23.17152    21.575139     21.67864    10837.776   -658.94993   -1907.1183    157.95394   -22.218613      262.304    744.16532   -6804.9878 
 8329000    64.248579   -6860.1931   -6694.9176   -6860.1931            0     21.41463    23.187274    21.484684    21.687503    10804.091    276.71307   -940.52283    728.05365    162.68381   -498.10303    195.21234   -6691.5434 
 8330000     64.29822    -6847.046   -6681.6428    -6847.046            0    124.97196    23.251169    21.337069     21.77602     10803.34    86.207516    334.16306     -45.4547   -467.28813    125.71657    72.825672   -6661.9527 
 8331000     62.29055   -6854.0833   -6693.8447   -6854.0833            0    484.11805    23.310024    21.244596    21.781702    10786.561    325.10708     1542.762   -415.51495   -180.52854    72.480043   -464.73337   -6617.6876 
 8332000    62.495472   -6854.5586   -6693.7928   -6854.5586            0   -122.25672    23.369062    21.336919    21.665439    10802.903   -943.02346    101.89721    474.35608    373.60239    523.15579    492.03351   -6713.0542 
 8333000     63.64129   -6854.7049   -6690.9916   -6854.7049            0    228.60216    23.253885     21.35482    21.725794     10788.65   -210.72774    181.04058    715.49363   -572.48822    410.08614    625.51553    -6655.023 
 8334000    65.816517   -6846.3324   -6677.0234   -6846.3324            0      86.2647    23.151089    21.433384    21.787083    10810.885    732.50607    170.40161   -644.11359    832.50607   -424.08602   -646.79338   -6663.4224 
 8335000    64.285779   -6857.0913     -6691.72   -6857.0913            0    204.26284    23.145637    21.457992    21.713137    10784.023    391.60139    293.97402   -72.786904   -81.718255    100.71123   -349.13068   -6659.5948 
 8336000    64.831948   -6860.1173    -6693.341   -6860.1173            0    39.333436    23.270898      21.4125    21.645811     10785.85   -661.75899   -186.90055    966.65985     201.6313    157.59001    84.601597   -6687.1539 
 8337000    62.972435   -6859.1481   -6697.1554   -6859.1481            0    719.26312    23.238831    21.328604    21.737599     10774.28    794.95082     871.8262    491.01233    226.53909   -856.35568   -354.04858   -6584.1363 
 8338000    64.570634   -6854.7929   -6688.6889   -6854.7929            0    889.97799    23.360087    21.221809    21.691573    10753.452    420.68248    1367.9618    881.28966   -247.99268   -758.12882    127.13617   -6549.1154 
 8339000    62.046768   -6862.4964   -6702.8849   -6862.4964            0   -578.44006    23.314004    21.370811    21.706786    10815.171   -740.85222   -807.63221   -186.83575     317.6302   -460.86105      426.438   -6794.1212 
 8340000    63.307725   -6856.8356   -6693.9804   -6856.8356            0   -110.41511    23.277984     21.41177    21.690059    10810.821   -296.71025    58.689768   -93.224839     -1.55253    58.573199   -665.72713   -6711.3889 
 8341000    62.467616   -6859.3299   -6698.6358   -6859.3299            0     299.9859     23.15536    21.385333    21.756008    10773.251    812.14309    420.80989   -332.99527    624.05376    182.90656    176.88209    -6651.503 
 8342000    63.725644   -6852.5813   -6688.6509   -6852.5813            0    646.67659    23.150884    21.422081    21.722519    10773.069      1096.25   -92.605767    936.38552    33.506959    257.69538   -130.97483   -6587.0489 
 8343000    64.759041   -6857.3565   -6690.7679   -6857.3565            0    270.83311    23.254395    21.446755    21.628394    10786.757    777.40245   -319.67637    354.77323   -282.89561    207.43651   -180.78851   -6648.1621 
 8344000    63.704591   -6851.3198   -6687.4436   -6851.3198            0   -345.73585    23.296766    21.341257    21.769074    10823.198   -412.85267    -60.34855   -564.00633   -621.20257    503.92278    244.00856   -6742.0163 
 8345000    63.001959   -6862.0742   -6700.0055   -6862.0742            0   -575.87685    23.395617    21.296699    21.739179    10831.533   -1316.9826   -26.268533   -384.37938    124.56093   -211.75837    3.3502382   -6790.9749 
 8346000    65.372374   -6850.6658   -6682.4994   -6850.6658            0    60.515797    23.330448    21.352413    21.678875    10799.578   -23.855432    422.00667   -216.60384   -422.53141    430.06866   -103.61411   -6672.9681 
 8347000    63.962937   -6856.8956   -6692.3548   -6856.8956            0    109.12024    23.194324    21.436659    21.707841     10793.33    407.47893   -662.35003    582.23182    26.460157    177.33559    534.31287   -6675.1783 
 8348000    62.886745    -6863.627   -6701.8546    -6863.627            0   -595.12196     23.19194    21.490642    21.720817    10825.865   -272.38978   -826.18263   -686.79348    211.10829     161.7727    149.63442    -6795.815 
 8349000    62.826956    -6849.995   -6688.3765    -6849.995            0   -510.17848    23.217801    21.468257    21.722284    10827.379    289.09045   -1260.2219   -559.40394   -799.05453    257.57632    411.50829   -6768.9369 
 8350000    63.741752   -6861.0448    -6697.073   -6861.0448            0   -395.63255    23.285448    21.341212    21.737116    10802.036   -1096.2861    368.54992   -459.16148   -72.686798    529.66576    340.94796   -6759.3996 
 8351000    62.352745   -6859.1987   -6698.8001   -6859.1987            0   -306.88724    23.343222    21.284983    21.765628    10814.472   -586.29419    281.36581   -615.73335   -109.67477    268.68304   -250.05886   -6747.2017 
 8352000    65.241305   -6859.5964   -6691.7672   -6859.5964            0    54.226491    23.387944    21.259139    21.696694     10787.76   -927.91194    505.81515    584.77626   -419.04566    515.23127    387.11629   -6683.2358 
 8353000    64.982463    -6849.014   -6681.8506    -6849.014            0   -492.11176    23.347597    21.335227    21.720876    10819.739   -1080.4524    -371.6509   -24.231967    117.01114   -60.820317    374.93951   -6759.5033 
 8354000    64.764616   -6854.1924   -6687.5893   -6854.1924            0    173.93644    23.184283    21.437157    21.751311    10810.513    559.69003    140.43525   -178.31596    -716.3268    478.95636   -560.89305   -6660.1665 
 8355000    65.944069   -6856.8583   -6687.2212   -6856.8583            0    -159.3795    23.211593    21.425415    21.728045    10805.748   -557.16122    354.24953   -275.22679    407.12723    339.13605   -118.05218    -6712.338 
 8356000    63.150003   -6859.4754   -6697.0258   -6859.4754            0   -160.61896    23.258226    21.485776    21.600864    10794.406   -228.17256   -611.73722    358.05292    44.931663    115.95677    5.9390745   -6722.3113 
 8357000    64.718849   -6861.7703    -6695.285   -6861.7703            0    252.39197    23.195015    21.374226    21.762606    10789.367    637.29404    316.98679   -197.10493   -30.542119   -792.62051   -305.95245   -6655.5706 
 8358000    64.955177   -6859.6195   -6692.5262   -6859.6195            0    638.71552    23.261355    21.260935    21.772686    10767.859     349.0245    1313.0445     254.0776   -159.92847    121.84704   -47.752462   -6592.2235 
 8359000    63.963336   -6860.0769   -6695.5351   -6860.0769            0    232.84463    23.378362    21.309439    21.652831    10787.003   -154.72265    634.61966    218.63687   -258.05264     151.9884   -594.56624   -6658.9046 
 8360000    63.007046   -6857.9686   -6695.8868   -6857.9686            0    150.14653    23.304911    21.337071    21.699168    10790.097   -598.45192    833.90873    214.98277    332.60076     -282.833   -148.52219   -6672.2594 
 8361000     64.23009   -6854.2847   -6689.0567   -6854.2847            0   -229.03787     23.18847    21.369993    21.801759    10803.588   -902.44127    144.40111    70.926548    557.28497    238.10092    740.59566   -6725.1437 
 8362000    61.785884   -6847.3067   -6688.3663   -6847.3067            0    205.03623    23.200604    21.471795    21.660998    10790.613    489.12557    450.42914   -324.44601    18.136232    -697.6298   -1218.9031   -6656.0997 
 8363000    66.338552   -6858.9941   -6688.3422   -6858.9941            0    165.23677    23.190101    21.431891    21.696652    10783.403    392.55768   -354.34168     457.4943   -427.91241     365.4845    596.20164   -6662.3563 
 8364000    64.543457   -6852.3573   -6686.3232   -6852.3573            0   -427.87047    23.263159    21.386847    21.752223    10822.288   -220.68233   -499.68496   -563.24411    65.591347    536.28535   -95.889183   -6753.8549 
 8365000    65.199153    -6854.834   -6687.1131    -6854.834            0   -31.262299     23.29029    21.339175    21.758083    10813.671    147.03158    237.73274   -478.55122    226.79074    90.125154   -502.28375   -6692.0434 
 8366000    63.558404   -6865.7776   -6702.2774   -6865.7776            0   -179.25406    23.292372    21.294096    21.768171    10796.795    7.0946329   -129.30945   -415.54736   -96.434974    135.92206    269.49869   -6730.5028 
 8367000    61.054468   -6864.0989     -6707.04   -6864.0989            0   -178.96499      23.2979    21.332565    21.722003    10795.922     65.03614   -24.475092   -577.45601    470.49894   -343.55713    101.25327   -6735.2176 
 8368000    62.880792   -6859.1732   -6697.4162   -6859.1732            0     141.4923     23.22786    21.449737    21.680313    10801.815    398.47169   -552.47452    578.47973   -294.15405   -7.0235283   -37.623813   -6675.1264 
 8369000    64.219685   -6857.8742   -6692.6729   -6857.8742            0    283.30442    23.167543    21.430886    21.723731    10785.854    513.64148   -135.12894    471.40073    391.21881   -30.935314    105.03531    -6648.109 
 8370000     63.82196   -6856.3432   -6692.1651   -6856.3432            0    177.63196    23.204303    21.456254    21.676098     10792.04    673.66211   -19.945381   -120.82084    733.10064   -868.58005   -775.38408   -6664.2075 
 8371000    62.973667   -6854.3153   -6692.3194   -6854.3153            0    322.64473    23.231188    21.362769    21.741111    10789.733    61.527857    448.33764    458.06869     344.1919    -295.2667    559.99498   -6641.5489 
 8372000    66.261786   -6850.5527   -6680.0983   -6850.5527            0   -17.323918    23.323391     21.31598    21.697918    10787.358   -830.84506     607.4892     171.3841    100.11318     335.5719     247.1723   -6682.8237 
 8373000    62.036056    -6852.366    -6692.782    -6852.366            0    84.872396    23.340717    21.329358    21.690578    10798.492    524.91154   -296.39503    26.100676   -49.106825   -800.82652   -65.004404   -6679.4159 
 8374000    65.906828   -6857.2906   -6687.7493   -6857.2906            0     587.2581    23.257423    21.283086    21.774276    10778.043    849.18834    907.79779    4.7881663   -118.23963    439.72575   -749.14432   -6595.4401 
 8375000    66.676221   -6855.5255    -6684.005   -6855.5255            0   -220.22561     23.20544     21.43537    21.745616    10816.643   -460.12754   -201.08036   0.53105904    386.23381    413.72472    131.14989   -6718.7455 
 8376000    64.006131    -6854.959   -6690.3071    -6854.959            0    243.27609    23.132204    21.507841    21.674785    10783.721     1433.205   -539.97532   -163.40145   -1035.7248   -106.42217   -313.67163   -6652.0472 
 8377000    62.648506   -6853.2531   -6692.0937   -6853.2531            0    395.30847     23.18788     21.45497    21.665492    10778.479    710.73673   -98.363405     573.5521    198.39302   -144.44131    240.86917   -6629.9539 
 8378000    63.484748   -6855.0065   -6691.6958   -6855.0065            0    497.12951     23.22634    21.371566    21.714943    10778.934    136.07519     1012.195    343.11832    19.795228    322.69681   -484.63515   -6613.5472 
 8379000    67.700433   -6853.9689   -6679.8137   -6853.9689            0    39.209976    23.352516    21.280109    21.737422    10802.284     -394.931    858.08091   -345.51998    102.63943    247.19816   -626.12824   -6673.6366 
 8380000     63.84984   -6868.6669   -6704.4171   -6868.6669            0    175.84967    23.305633    21.316614    21.690041    10775.551   -86.386031    262.51657    351.41847   -94.332708   -157.61728    476.03874   -6676.7822 
 8381000    62.550702   -6863.2352   -6702.3273   -6863.2352            0   -351.05029    23.255675    21.457576    21.652625    10804.885   -689.13398   -769.21778    405.20088    -194.7248   -333.69608   -219.30974   -6757.6452 
 8382000    66.408014   -6854.1318   -6683.3012   -6854.1318            0    70.958879    23.142792    21.434063    21.772144    10799.943    560.30871   -251.57225   -95.859821    192.26855     183.0626   -248.79552   -6672.1248 
 8383000    65.240805   -6854.6208   -6686.7929   -6854.6208            0    35.457642    23.161713    21.415354     21.74188    10784.326     481.0028   -208.79915   -165.83072   -14.298086    436.75845    469.99803   -6681.2161 
 8384000    61.921928   -6859.1898   -6699.8994   -6859.1898            0   -96.200688    23.296682    21.424714    21.626721    10794.432   -327.39082   -218.78457    257.57332    -2.574738    120.06542   -459.73276   -6715.0439 
 8385000    60.900449   -6855.1041   -6698.4414   -6855.1041            0   -149.16598    23.282058    21.324197    21.752995    10799.736    -148.5301     387.4887   -686.45655   -25.727555    91.542093    124.16501   -6721.9355 
 8386000    65.532313   -6851.0453   -6682.4674   -6851.0453            0    300.21166    23.302885    21.230851    21.806395    10788.497    346.26633    1338.1002   -783.73156   -291.89144    16.870179   -340.92557   -6635.2324 
 8387000    65.149681   -6860.1142   -6692.5207   -6860.1142            0    650.11347    23.269516    21.285926    21.773778     10784.84    721.67901    787.24713    441.41426    101.01093   -529.37742   -636.24134    -6590.267 
 8388000    61.014062   -6856.6728   -6699.7179   -6856.6728            0    327.81531    23.234943    21.419142    21.672837    10785.976    386.02972   -306.51865    903.93487    122.58694   -32.735826    166.99454   -6648.1517 
 8389000    64.342933    -6860.546   -6695.0277    -6860.546            0   -154.24699    23.148874    21.554822    21.636817    10796.119    762.54771   -1026.9907   -198.29799    416.72033   -463.11814    23.768272   -6719.3139 
 8390000    66.400205   -6863.5023   -6692.6918   -6863.5023            0   -174.22292    23.187384    21.410064    21.775631    10810.368   -222.87564    278.83734   -578.63045     472.7867    30.586118   -162.47756   -6720.1595 
 8391000    64.275815   -6861.3272   -6695.9816   -6861.3272            0    79.441581    23.247178    21.311246    21.775319    10788.066    539.99326    161.65121   -463.31973   -243.83881   -596.38087   -199.14888   -6683.4828 
 8392000    62.957118   -6852.3222   -6690.3689   -6852.3222            0    -168.1869    23.395105     21.31282    21.682386    10811.177   -588.86736   -327.70024    412.00689    29.566969   -316.65992   -111.30824   -6716.8869 
 8393000    64.620666   -6856.4893   -6690.2566   -6856.4893            0   -286.24559    23.361029     21.33714    21.690034    10811.561    -577.9575    135.50456   -416.28383    373.65913   -11.742339   -663.66459   -6735.3905 
 8394000    60.724051   -6849.1699    -6692.961   -6849.1699            0    225.98049     23.21127    21.412438    21.707748    10788.965    996.24423   -587.56076    269.25799    -219.4159    165.96705    264.26238   -6657.4039 
 8395000    66.500988   -6851.4774   -6680.4077   -6851.4774            0    508.92119    23.120386    21.520938    21.669483    10782.136    846.91175    -22.44452    702.29632    15.444541   -607.82363   -104.77843   -6600.3817 
 8396000    63.330599   -6858.1803   -6695.2662   -6858.1803            0   -121.11716    23.176805    21.478216    21.688888    10796.651    211.97367   -371.25526    -204.0699    181.53754    264.18708    10.752771    -6714.337 
 8397000      64.1057    -6862.666    -6697.758    -6862.666            0    124.91223    23.226034    21.342345    21.759447    10786.115   -39.497065    493.09487   -78.861109    -25.53901    435.16979    218.04698   -6678.1087 
 8398000    62.926567    -6861.356   -6699.4813    -6861.356            0    117.28539    23.358648    21.279784    21.706152    10789.412   -656.65592    546.16156    462.35054    793.09179   -391.22467   -326.79844   -6681.0261 
 8399000    65.065875   -6850.6114   -6683.2334   -6850.6114            0    85.310657     23.36909     21.28514     21.68463    10786.246   -221.25315    405.56785    71.617274   -130.73946    -417.7157   -206.47934   -6669.8135 
 8400000     63.06656   -6857.0212   -6694.7863   -6857.0212            0   -160.21038    23.290478     21.34244    21.735354    10804.115   -493.25649  0.026734173      12.5986   -248.53721   -6.1675448    512.18324   -6720.0302 
 8401000    66.943925   -6855.6367   -6683.4275   -6855.6367            0   -224.69362    23.205143    21.457375    21.719122    10814.417   -163.18664    -439.6573   -71.236926    416.25599    327.89548   -49.918836   -6718.8655 
 8402000    62.822645   -6858.2262   -6696.6188   -6858.2262            0    433.71512    23.135834    21.453103     21.69246    10766.736    629.89579    410.94286     260.3067   -146.90412   -54.112716    250.51587    -6628.516 
 8403000    68.366046   -6857.6732   -6681.8057   -6857.6732            0    23.533794    23.232201    21.455564    21.666882    10800.074    81.567338   -332.12652    321.16057   -25.753526    189.84098     41.68092   -6678.0989 
 8404000    66.257159   -6862.2009   -6691.7584   -6862.2009            0   -101.72716    23.321753    21.345202    21.707548    10806.181   -417.97189    213.02724   -100.23684     128.3644    157.49818   -445.91497   -6707.7903 
 8405000    60.689175   -6853.3203   -6697.2011   -6853.3203            0      7.61678    23.274658    21.252805    21.854929    10810.579   -104.42358    1028.8022   -901.52829    113.31841     390.4409   -103.39677   -6696.0003 
 8406000    62.786819   -6867.6953     -6706.18   -6867.6953            0   -119.90023     23.30667    21.358288    21.696297    10800.212   -370.40618    16.858377   -6.1528928   -181.55838   -138.44897   -222.79378   -6725.0655 
 8407000    61.852428   -6853.3648   -6694.2532   -6853.3648            0    392.85118    23.208822    21.447808    21.655478    10779.628     153.4042    250.19321    774.95614   -22.187023     210.6385   -310.23789   -6632.4931 
 8408000    63.701277   -6861.7085   -6697.8409   -6861.7085            0    7.9024257    23.175857    21.403023    21.757449    10792.421   -401.37525    433.40903   -8.3264982    809.62204     347.5042   -310.21576    -6696.597 
 8409000    66.036741   -6860.3382   -6690.4627   -6860.3382            0   -959.31684    23.217255    21.476167    21.744914    10842.398   -988.76355   -1423.0328   -466.15418   -208.67337    138.81354   -234.99792   -6842.1549 
 8410000    62.796529   -6854.9322    -6693.392   -6854.9322            0    20.635327    23.291491    21.336439    21.703794    10785.863    67.475225    642.57034   -648.13959     89.77052   -447.70385   -109.91474    -6690.146 
 8411000    61.841272   -6858.9342   -6699.8513   -6858.9342            0     121.1139    23.357664    21.271535    21.702742    10783.081   -626.70821    637.54219    352.50772   -91.721064    -82.25449    131.40862   -6680.8049 
 8412000    65.058468   -6857.7792   -6690.4203   -6857.7792            0   -41.729045    23.244001    21.370303    21.748236    10803.031    2.8496335    234.97004   -363.00681    143.31949   -312.37748   -197.03665   -6696.9947 
 8413000    63.474727   -6855.5281   -6692.2432   -6855.5281            0   -535.24576    23.239229     21.43883    21.692988    10807.921   -381.18165   -681.99767   -542.55796    454.75621   -147.11831   -362.49111   -6776.6099 
 8414000    62.029687   -6854.7403   -6695.1727   -6854.7403            0    177.52377    23.222753    21.478109    21.649468     10798.34    155.30054   -91.789356    469.06013    688.49207   -472.88931    52.876638   -6667.2157 
 8415000    65.641983    -6860.577    -6691.717    -6860.577            0   -250.55607    23.221875     21.41093    21.748858    10813.575   -380.68933    110.76128   -481.74017   -38.059151      263.913    223.64603   -6731.2309 
 8416000    65.102024   -6849.8677   -6682.3967   -6849.8677            0   -1.6242326     23.27745    21.372908     21.71373    10802.729    136.14323   -167.21939    26.203455   -647.89575   -206.68343   -1.6594895   -6682.6526 
 8417000    64.638183   -6859.2147   -6692.9369   -6859.2147            0    407.84346    23.343401    21.285324     21.69664     10780.45   -388.05049    829.32396    782.25689      93.3286    212.24628   -69.983423    -6628.815 
 8418000    63.820988   -6847.4601   -6683.2845   -6847.4601            0   -352.92799    23.313842    21.307156    21.770313    10814.439   -673.33866    476.98281   -862.42813   -26.223283   -214.36521   -152.63047   -6738.9475 
 8419000    69.055153   -6852.9963   -6675.3561   -6852.9963            0    399.86559    23.200922    21.406563    21.721771    10788.161    919.66595     179.2188    100.71201   -573.77049    258.28353   -521.79329   -6612.4436 
 8420000    64.041669   -6857.0455   -6692.3022   -6857.0455            0     195.2857    23.134233    21.549508    21.615715    10776.111    573.02842   -646.82091    659.64957   -496.91977    318.06019     45.01298   -6661.6114 
 8421000    65.490475   -6862.0631   -6693.5928   -6862.0631            0     520.1056    23.185647     21.40221    21.716154    10776.079   -19.245693    805.11591    774.44659    56.043821    620.17256    349.58597    -6611.854 
 8422000    64.522056   -6856.3655   -6690.3864   -6856.3655            0    546.52307    23.232317    21.342982    21.730272    10774.888    726.38473    760.12608    153.05838    25.891122    381.96938   -9.1888324   -6604.5054 
 8423000      61.1328   -6853.9681   -6696.7077   -6853.9681            0    18.844755    23.362932    21.274755    21.705792    10788.661   -646.61046    612.44766    90.697066    191.20123    522.32715   -152.60878   -6693.7426 
 8424000    62.115992   -6855.8543   -6696.0647   -6855.8543            0   -212.85308    23.328028    21.273965    21.777069    10807.516    -236.1607     114.2704   -516.66895   -556.49532     310.4009   -158.05382   -6729.6138 
 8425000     64.89651    -6857.235   -6690.2927    -6857.235            0    276.14093    23.241192     21.36642    21.747392    10799.344    839.51274    223.99879   -235.08874   -212.16518   -441.41821   -176.85737   -6646.8013 
 8426000    63.686225   -6860.9867   -6697.1577   -6860.9867            0    -435.8593    23.194288    21.444682    21.739609    10813.154    -822.5707   -416.89112   -68.116084    114.53204   -134.43986    355.54999   -6765.8922 
 8427000     65.35023   -6848.1138   -6680.0044   -6848.1138            0  -0.28158474    23.219582    21.457007    21.666406    10794.696     619.6868   -220.71275    -399.8188   -254.07111   -196.74137   -323.23845   -6680.0487 
 8428000    64.611468   -6854.0249   -6687.8158   -6854.0249            0    340.49793    23.224696    21.442321    21.654521    10783.765    251.68794   -286.69462    1056.5005    585.77988    306.18429    231.70306   -6634.2656 
 8429000     64.43166   -6856.2162   -6690.4697   -6856.2162            0    844.52823     23.22123    21.327195    21.738743    10765.975    1358.1895    522.19344    653.20171   -286.66176    22.320008   -197.84112   -6557.8697 
 8430000    62.727902   -6850.8331   -6689.4694   -6850.8331            0    423.92136    23.268427     21.33447    21.704112    10774.346    685.85567    467.21228    118.69611   -90.331281   -216.65508   -342.38039   -6622.8574 
 8431000    65.180052    -6860.821   -6693.1493    -6860.821            0   -43.936922    23.301629    21.351962    21.696049    10794.555   -157.79717   -130.67054    156.65694   -379.09938   -242.32831    271.15015   -6700.0662 
 8432000     65.03981   -6853.8977   -6686.5867   -6853.8977            0   -174.03824    23.215037      21.3803    21.782068    10811.408   -141.88269    75.974828   -456.20685   -144.17573    891.63251   -191.85502   -6714.0279 
 8433000    62.643395   -6858.4662   -6697.3199   -6858.4662            0   -334.61295    23.265652    21.395716    21.726801    10815.282    50.642333   -454.69135   -599.78983   -311.16886     138.1268   -112.76033   -6750.0983 
 8434000    60.272025   -6850.0233   -6694.9772   -6850.0233            0   -265.51743    23.204695    21.447333    21.729703    10814.413    45.431192   -453.85914   -388.12436    408.16482   -11.735104    65.488693   -6736.8539 
 8435000    61.809589   -6843.8266   -6684.8252   -6843.8266            0   -200.60996    23.270821    21.384192    21.728829    10812.868    254.96886   -332.14871   -524.65003   -586.79492   -152.21246    -669.2024   -6716.4603 
 8436000     64.45145   -6849.2353   -6683.4379   -6849.2353            0   -185.60775    23.285274    21.407706    21.712738    10823.459   -132.13547   -616.78476    192.09696    72.942283   -917.84075    657.58989   -6712.7359 
 8437000    62.269676   -6859.8682   -6699.6833   -6859.8682            0    27.965063    23.306728    21.317673    21.746621    10804.705   -794.99858    800.33733    78.556445    527.41212    10.179388   -201.74016   -6695.2767 
 8438000    64.518825   -6848.7356   -6682.7649   -6848.7356            0    757.04772    23.215619     21.34679    21.718145    10763.055    824.33653    420.98033    1025.8263    595.83346   -748.73807    413.00006   -6563.9325 
 8439000    62.536594   -6864.0916   -6703.2201   -6864.0916            0    179.49455    23.229126    21.401718    21.698207    10787.116    187.49383    1065.3105    -714.3207    204.51961   -255.38048   -1023.0727   -6674.9822 
 8440000    64.777586   -6844.2787   -6677.6423   -6844.2787            0   -288.82709    23.237765    21.416137    21.738397    10818.399    -614.9964     99.31955    -350.8044      344.685   -267.54084     49.33847   -6723.2121 
 8441000    66.717507   -6853.5362   -6681.9095   -6853.5362            0    612.49851    23.207491    21.382913    21.698988    10767.987    557.70043   -357.00584    1636.8009   -589.94851    364.16457    947.76801   -6585.7227 
 8442000      63.4465   -6851.5145   -6688.3023   -6851.5145            0    372.17893    23.269207    21.372087    21.675894    10779.672    516.11266   -1.9452192    602.36935   -708.81916    256.00461   -332.50979   -6629.7918 
 8443000    63.725787   -6858.9218   -6694.9911   -6858.9218            0     443.2589    23.247371    21.317991    21.745488    10776.786    688.75827    444.30754    196.71088    97.304778   -170.51051    508.45557   -6625.3248 
 8444000    63.506469   -6853.4094   -6690.0429   -6853.4094            0     391.3065    23.284525    21.319439    21.733258    10788.672   -521.51966    1031.4666    663.97252    79.975354    540.63771   -585.62956   -6628.4741 
 8445000    66.230416   -6855.4624   -6685.0887   -6855.4624            0    294.84048    23.282695    21.365503     21.68331    10786.286   -439.83076    487.46443    836.88779    344.89484    200.12326    13.170062   -6638.7083 
 8446000    65.314741   -6862.2593   -6694.2411   -6862.2593            0     504.1119     23.21948      21.3882    21.702345    10777.881    20.203951     614.9198    877.21195    297.26571   -7.5483747    10.917856   -6615.0026 
 8447000    65.806962    -6859.605   -6690.3206    -6859.605            0    32.602174    23.177873    21.450429    21.693544    10785.495    692.24399   -391.95562   -202.48185    353.09746   -807.38738    79.313085   -6685.1924 
 8448000    65.669704   -6856.1439   -6687.2126   -6856.1439            0   -103.62493    23.250066    21.403545    21.698927    10798.121    192.41276   -432.11702   -71.170537    244.62127    -655.5143    57.506282   -6703.5314 
 8449000    65.339012   -6852.4732   -6684.3926   -6852.4732            0   -569.86232    23.354427    21.345789    21.733057    10834.334   -435.41681   -387.09739   -887.07275    649.21034   -923.53525   -234.30559   -6774.4352 
 8450000     62.76814    -6854.508   -6693.0407    -6854.508            0    362.94892    23.294831     21.29198    21.787788    10806.592    333.27475    1014.4629   -258.89092    245.08139   -822.67474   -630.96369   -6635.8389 
 8451000     66.41554   -6859.7018   -6688.8519   -6859.7018            0   -256.28199    23.274924    21.404544    21.708391    10814.885   -116.51157   -807.97629    155.64189    -32.83821   -128.37792   -177.99042   -6729.2737 
 8452000    63.748411   -6855.3249    -6691.336   -6855.3249            0    354.86901    23.242074    21.439163    21.655945    10790.954    287.13323   -40.437927    817.91171     240.4442    291.19724    346.69207   -6635.4885 
 8453000    61.341496   -6863.2411   -6705.4438   -6863.2411            0   -314.39423    23.196791    21.467878    21.708756    10810.654    273.08878   -1080.3726   -135.89882    93.854128   -270.94214   -270.45696    -6755.012 
 8454000     65.33731   -6862.5008   -6694.4246   -6862.5008            0   -170.79406     23.15908    21.438207    21.768111    10807.631    644.22464   -574.53916   -582.06766   -158.67465   -180.70136    378.31462   -6721.3448 
 8455000    62.412757   -6858.0309   -6697.4779   -6858.0309            0   -343.39204    23.270168    21.421166    21.709537    10821.643   -243.03598   -898.19787    111.05774    182.27223   -120.10629   -341.97776   -6751.6729 
 8456000    63.879291   -6865.3347   -6701.0091   -6865.3347            0    -256.7539    23.362348    21.332485    21.667098    10798.382   -1093.3996    231.26468    91.873194     22.52826    340.82421    359.29973   -6741.4436 
 8457000    62.343237   -6860.7296   -6700.3554   -6860.7296            0   -114.98554    23.330264    21.274202    21.752883    10796.668   -252.35096    737.48415    -830.0898   -291.81582   -410.16646   -165.75706   -6718.4608 
 8458000    62.976209   -6850.7225     -6688.72   -6850.7225            0   -47.099602    23.251563    21.298451    21.834938    10813.148    236.83681    362.15059    -740.2862   -335.75595    33.262202   -219.12362   -6696.1475 
 8459000    66.209386   -6856.1209   -6685.8013   -6856.1209            0    298.47186    23.251268    21.429594    21.649918    10787.401   -128.34245    322.65665    701.10138   -85.278267    302.38976    90.487259   -6638.8448 
 8460000    64.268202   -6860.1389   -6694.8129   -6860.1389            0    116.35333    23.212835     21.50292    21.621272    10792.123    181.45671   -487.83505    655.43834    274.15719     106.7612   -152.84794   -6676.4998 
 8461000    64.067536   -6851.6263   -6686.8165   -6851.6263            0   -474.02624     23.12514    21.465024    21.835554    10838.769    101.00485   -728.08502   -794.99856    120.64462   -94.792718    257.76649   -6761.7469 
 8462000    63.176198   -6858.6593   -6696.1424   -6858.6593            0   -198.14348     23.27615    21.360198    21.735239    10806.395    -449.0374    231.00886   -376.40189    458.47212   -1.3602263   0.68288599   -6727.3699 
 8463000    62.020462   -6852.5556   -6693.0117   -6852.5556            0    81.959009    23.356749    21.362064    21.599474    10777.023   -546.46916   -143.72095    936.06713    27.699196   -212.69596    -217.5329   -6680.1301 
 8464000     64.49985   -6856.4387   -6690.5167   -6856.4387            0     604.1896    23.256675    21.246655    21.793519    10768.756    1.1988019    1190.1785    621.19154    222.46304   -371.56846    18.747889    -6595.628 
 8465000    61.496047   -6858.3222   -6700.1274   -6858.3222            0     581.9875    23.176429    21.303844    21.821403    10774.253    1320.3106    908.48884   -482.83693    143.98587   -558.25172   -101.33145   -6608.6789 
 8466000     63.79787   -6857.3593   -6693.2431   -6857.3593            0    152.11314    23.271559    21.432392    21.635649    10791.109   -175.98258    461.29568    171.02633    107.39748   -168.76038   -175.75836    -6669.304 
 8467000    63.789819    -6856.481   -6692.3855    -6856.481            0    283.51599    23.190076    21.510124    21.611144    10780.101    197.56091    -751.5828    1404.5699   -312.25826    328.44382    123.16072   -6647.8121 
 8468000    64.868312   -6852.3028    -6685.433   -6852.3028            0   -510.42622     23.18494    21.396914    21.840382    10834.711   -876.14523    216.40163   -871.53507    313.87073    841.91194   -149.23765    -6766.087 
 8469000    63.208332   -6856.1465   -6693.5469   -6856.1465            0   -417.23168    23.271168    21.405943    21.733765    10826.486   -430.18284   -529.68239   -291.82981   -110.22745    396.93916    125.26548    -6759.425 
 8470000    61.100872   -6859.2169   -6702.0387   -6859.2169            0   -434.31744    23.388365     21.37708     21.60609    10802.504   -882.56661   -951.84222     531.4565   -628.94599   -110.66797    37.741876   -6770.4625 
 8471000    62.957701   -6856.3406   -6694.3857   -6856.3406            0    324.78791     23.21015      21.3185     21.80319     10788.34    871.13938    769.38657   -666.16223   -351.41874   -270.25367    171.10171   -6643.2846 
 8472000    65.094572   -6864.7081   -6697.2563   -6864.7081            0    52.097491    23.203294    21.388244    21.777449    10807.662    142.65851    501.93197   -488.29801   -13.204485   -86.968864   -586.18869   -6689.0448 
 8473000    63.220176   -6859.9882   -6697.3582   -6859.9882            0   -264.45026    23.245651    21.479183    21.620711    10795.169   -209.92918    -1260.582    677.16043    436.28421    128.74908    334.54238   -6738.9923 
 8474000    68.278479   -6859.1124   -6683.4702   -6859.1124            0    228.10939    23.214066    21.444729    21.673159    10789.318    778.57065   -726.55514    632.31266   -47.978804    273.67174    252.00179   -6647.5769 
 8475000    63.339203   -6858.8105   -6695.8742   -6858.8105            0    23.299508    23.210951    21.361846    21.816583    10817.289    836.60736    367.28512    -1133.994   -85.028193   -126.40504    -725.0841   -6692.1985 
 8476000    64.301408   -6859.1932   -6693.7817   -6859.1932            0   -127.89081    23.255629    21.355481    21.752724    10803.167    148.59136   -51.901178   -480.36262   -386.18757   -60.267415    56.229456   -6713.9313 
 8477000    67.850244   -6852.7198   -6678.1791   -6852.7198            0    380.63105     23.39394    21.359105    21.567126    10776.524   -800.55041    608.38014    1334.0634   -348.47956   -80.598681    361.69411   -6618.3574 
 8478000    66.862604   -6851.7212   -6679.7213   -6851.7212            0   -386.03233    23.188336     21.40678    21.801939    10822.212    450.74496   -720.82729   -888.01465    170.04839   -314.32754    495.42882   -6740.6491 
 8479000    64.387812    -6852.886   -6687.2523    -6852.886            0    379.03524    23.151029    21.378287    21.795138    10787.053    1227.7467     384.5009   -475.14189   -63.431218   -452.19919   -594.18745   -6627.6232 
 8480000    65.051981   -6849.4044   -6682.0622   -6849.4044            0    468.63835    23.259464    21.441735    21.584938    10764.911    863.11225   -584.48963    1127.2924   -471.81387    420.97505     515.1779   -6608.4882 
 8481000    64.827639   -6849.9377   -6683.1726   -6849.9377            0   -169.36189     23.32187    21.374067    21.668131      10801.2   -727.79116     321.3032   -101.59772   -112.36203     943.7399   -540.40299   -6709.8512 
 8482000    65.032857   -6855.0613   -6687.7682   -6855.0613            0   -461.28288    23.197046    21.360773    21.859216    10831.391    289.82415   -455.50986   -1218.1629   -271.83496   -442.59691    357.77125   -6760.6346 
 8483000    63.720197   -6858.9565   -6695.0402   -6858.9565            0   -813.73263    23.360938    21.339477    21.709679    10822.496   -1348.9675   -919.39572   -172.83461    -579.9011    646.91718    211.70774   -6823.4757 
 8484000    64.748303   -6857.9758   -6691.4147   -6857.9758            0    365.86202    23.306187    21.371272    21.636399     10776.72    217.75356    348.88992    530.94258     655.7272    -278.9907    228.13689   -6633.9131 
 8485000    63.658922   -6858.1163   -6694.3576   -6858.1163            0   -49.782826    23.194615    21.403683    21.760299    10802.905    110.60474   -21.975632   -237.97759    258.08814    466.29143    19.661901   -6702.2008 
 8486000    64.005013   -6858.9347   -6694.2857   -6858.9347            0    156.64645    23.193152    21.445931    21.692534    10789.839    817.22057   -614.44557    267.16435   -19.465281   -235.40991    397.60961    -6669.636 
 8487000    62.383137   -6858.1298    -6697.653   -6858.1298            0   -216.29263     23.28309    21.444073    21.626757      10797.9   -430.81768   -1087.4865    869.42631    115.40028   -419.46177    100.68456    -6731.714 
 8488000    67.792077   -6856.8434   -6682.4524   -6856.8434            0   -219.24404     23.26553    21.369366    21.744267    10810.589   -223.14119   -30.348956   -404.24198   -137.67819   -493.51978   -511.67297   -6717.0187 
 8489000    62.775276   -6853.3375   -6691.8519   -6853.3375            0   -642.55905    23.389839    21.228154    21.795225    10821.832   -1154.9461    368.37062   -1141.1016   -207.53585   -510.59307    83.118236    -6793.264 
 8490000    63.969771   -6851.4459   -6686.8875   -6851.4459            0    206.96492    23.368529    21.314156    21.679704    10798.237   -116.09632    346.28237    390.70871    292.07208   -108.03787    484.33115   -6654.2945 
 8491000    60.539729    -6850.056   -6694.3213    -6850.056            0   -472.91096    23.308632    21.362642    21.734831     10822.51   -151.84855   -780.61568   -486.26863   -494.68382   -460.46923   -348.29695   -6768.9633 
 8492000    65.205531   -6863.3677   -6695.6305   -6863.3677            0    99.370314    23.191278    21.439597    21.706623    10792.786    476.36132   -7.9517236   -170.29865    715.14844    -23.06364   -198.07439   -6679.9894 
 8493000    64.502245   -6855.7499   -6689.8219   -6855.7499            0    -124.7747    23.185531    21.473038    21.714843    10811.034    233.34066   -645.61291    37.948156    465.45131   -199.75979    70.947942   -6709.4948 
 8494000    63.315519   -6854.0116   -6691.1362   -6854.0116            0   -993.68689    23.262585    21.425933    21.737313    10834.368   -449.81148     -1436.61   -1094.6392    74.738631   -252.35082    243.91063   -6848.1469 
 8495000    64.531747   -6843.6924   -6677.6884   -6843.6924            0   -115.02075    23.307449    21.319762    21.774581    10819.991   -630.10587    514.15225   -229.10862    187.06434   -17.873041    -270.6538   -6695.8385 
 8496000    62.364784   -6854.7419   -6694.3123   -6854.7419            0    633.66139    23.326339    21.274018    21.720096    10778.488   -116.50037    1339.1828    678.30169   -567.03453    59.310025   -192.76866    -6594.705 
 8497000    66.050951   -6860.6342   -6690.7222   -6860.6342            0   -184.86264    23.276259    21.336432    21.733579    10793.598   -485.37046    72.452455   -141.66992     -47.1305     800.0268    124.16972   -6719.8221 
 8498000    61.710905    -6847.511   -6688.7635    -6847.511            0    15.296346    23.237035    21.437269    21.669965    10794.645    287.34183   -269.23581     27.78302   -69.432198    219.46216   -348.25282   -6686.3554 
 8499000    63.144915   -6857.7211   -6695.2846   -6857.7211            0      45.2495    23.184476    21.484712    21.679633    10798.881    336.39355   -695.38904    494.74398   -175.98118    635.52191    191.75987   -6688.1583 
 8500000    67.463746   -6849.5938   -6676.0475   -6849.5938            0    87.665906    23.136396    21.406789    21.803644     10798.82    430.57549   -383.37944    215.80168   -11.991752   -37.895209    558.67375    -6662.241 
Loop time of 517.966 on 64 procs for 250000 steps with 1296 atoms

Performance: 83.403 ns/day, 0.288 hours/ns, 482.657 timesteps/s
99.1% CPU use with 64 MPI tasks x 1 OpenMP threads

MPI task timing breakdown:
Section |  min time  |  avg time  |  max time  |%varavg| %total
---------------------------------------------------------------
Pair    | 28.528     | 40.053     | 51.98      | 119.9 |  7.73
Bond    | 0.28062    | 0.28885    | 0.30185    |   0.8 |  0.06
Kspace  | 262.26     | 274.74     | 286.5      |  46.0 | 53.04
Neigh   | 0.4274     | 0.4344     | 0.44607    |   0.6 |  0.08
Comm    | 88.147     | 89.259     | 91.466     |  11.5 | 17.23
Output  | 0.66824    | 0.66958    | 0.67116    |   0.1 |  0.13
Modify  | 100.47     | 102.17     | 104.45     |   8.2 | 19.73
Other   |            | 10.35      |            |       |  2.00

Nlocal:        20.2500 ave          26 max          13 min
Histogram: 3 3 7 12 3 6 8 5 8 9
Nghost:        2585.12 ave        2605 max        2565 min
Histogram: 5 3 6 3 11 12 7 9 6 2
Neighs:        6464.66 ave        8323 max        4096 min
Histogram: 3 3 7 10 5 6 7 6 8 9

Total # of neighbors = 413738
Ave neighs/atom = 319.24228
Ave special neighs/atom = 2.0000000
Neighbor list builds = 842
Dangerous builds = 0

unfix		3
unfix		2
unfix		1

write_data	data.final.${pid}
write_data	data.final.0
System init for write_data ...
PPPM initialization ...
  extracting TIP4P info from pair style
  using 12-bit tables for long-range coulomb (../kspace.cpp:340)
  G vector (1/distance) = 0.3682085
  grid = 27 40 32
  stencil order = 5
  estimated absolute RMS force accuracy = 0.0043171773
  estimated relative force accuracy = 1.3001051e-05
  using double precision FFTW3
  3d grid and FFT values/proc = 4845 560
Last active /omp style is kspace_style pppm/tip4p/omp
WARNING: Not all mixed pair coeffs generated from mixing. Use write_data with 'pair ij' option to store all pair coeffs. (../write_data.cpp:312)

write_restart   restart.lmp.${pid}
write_restart   restart.lmp.0
System init for write_restart ...
PPPM initialization ...
  extracting TIP4P info from pair style
  using 12-bit tables for long-range coulomb (../kspace.cpp:340)
  G vector (1/distance) = 0.3682085
  grid = 27 40 32
  stencil order = 5
  estimated absolute RMS force accuracy = 0.0043171773
  estimated relative force accuracy = 1.3001051e-05
  using double precision FFTW3
  3d grid and FFT values/proc = 4845 560
Last active /omp style is kspace_style pppm/tip4p/omp
Total wall time: 0:08:38
