LAMMPS (30 Jul 2021)
  using 1 OpenMP thread(s) per MPI task
package omp 0
using multi-threaded neighbor list subroutines
echo both

include		in.partitions
variable        pid world 0
include		in.temp
variable        temperature equal 265.60
variable	tempDamp equal 100.0
include		in.pressure
variable        pressure equal 9250.0
variable        pressureDamp equal 1000.0 # This is 1 ps
include		in.seed
variable        seed world 745823

units		real
atom_style	full
read_restart	restart.lmp.${pid}
read_restart	restart.lmp.0
Reading restart file ...
  restart file = 30 Jul 2021, LAMMPS = 30 Jul 2021
  restoring atom style full from restart
  orthogonal box = (0.61522954 1.8161904 0.75057860) to (17.592343 21.812987 21.462617)
  4 by 4 by 4 MPI processor grid
  restoring pair style lj/cut/tip4p/long/omp from restart
  restoring bond style harmonic/omp from restart
  restoring angle style harmonic/omp from restart
  864 atoms
  576 bonds
  288 angles
Finding 1-2 1-3 1-4 neighbors ...
  special bond factors lj:    0        0        0       
  special bond factors coul:  0        0        0       
     2 = max # of 1-2 neighbors
     1 = max # of 1-3 neighbors
     1 = max # of 1-4 neighbors
     2 = max # of special neighbors
  special bonds CPU = 1.497 seconds
  read_restart CPU = 1.810 seconds
include 	in.setup
variable	out_freq equal 1000
variable	out_freq2 equal 10000
variable	out_freq3 equal 1000

timestep	2.0

neigh_modify    delay 7 every 1

include		in.tip4p
# This is TIP4P/Ice

# create groups ###
group ox type 2
288 atoms in group ox
group hy type 1
576 atoms in group hy

# set charges - beside manually ###
set group ox charge -1.1794
Setting atom values ...
  288 settings made for charge
set group hy charge 0.5897
Setting atom values ...
  576 settings made for charge

# ### TIP3P Potential Parameters ###
pair_style lj/cut/tip4p/long/omp 2 1 1 1 0.1577 8.5
pair_coeff 1 1*2 0.000 0.000
pair_coeff 2 2 0.21084 3.1668
bond_style  harmonic
bond_coeff  1 450 0.9572
angle_style harmonic
angle_coeff 1 55 104.52
kspace_style pppm/tip4p/omp 1.0e-5
pair_modify tail yes

thermo          ${out_freq}
thermo          1000
thermo_style    custom step temp pe etotal epair emol press lx ly lz vol pxx pyy pzz pxy pxz pyz enthalpy

restart 	${out_freq3} restart.lmp.${pid} restart2.lmp.${pid}
restart 	1000 restart.lmp.${pid} restart2.lmp.${pid}
restart 	1000 restart.lmp.0 restart2.lmp.${pid}
restart 	1000 restart.lmp.0 restart2.lmp.0


include         in.dump
dump            myDump all atom ${out_freq2} dump.water.${pid}
dump            myDump all atom 10000 dump.water.${pid}
dump            myDump all atom 10000 dump.water.0
dump            myDump2 all dcd ${out_freq2} dump.dcd
dump            myDump2 all dcd 10000 dump.dcd
dump_modify     myDump append yes
dump_modify     myDump2 append yes


variable natoms 	equal  "count(all)"                        # NUMBER ATOMS
variable H      	equal  "enthalpy/v_natoms"                 # ENTHALPY-per-atom
variable Vol      	equal  "vol/v_natoms"                 # volume-per-atom
fix AVG all 		ave/time ${out_freq} 1 ${out_freq} v_Vol v_H file vol_enthalpy.dat
fix AVG all 		ave/time 1000 1 ${out_freq} v_Vol v_H file vol_enthalpy.dat
fix AVG all 		ave/time 1000 1 1000 v_Vol v_H file vol_enthalpy.dat


timer           timeout 23:50:00 every 1000
New timer settings: style=normal  mode=nosync  timeout=23:50:00

fix 		1 all shake 1e-6 200 0 b 1 a 1
       0 = # of size 2 clusters
       0 = # of size 3 clusters
       0 = # of size 4 clusters
     288 = # of frozen angles
  find clusters CPU = 0.001 seconds
fix             2 all nph iso ${pressure} ${pressure} ${pressureDamp}
fix             2 all nph iso 9250 ${pressure} ${pressureDamp}
fix             2 all nph iso 9250 9250 ${pressureDamp}
fix             2 all nph iso 9250 9250 1000
fix             3 all temp/csvr ${temperature} ${temperature} ${tempDamp} ${seed}
fix             3 all temp/csvr 265.6 ${temperature} ${tempDamp} ${seed}
fix             3 all temp/csvr 265.6 265.6 ${tempDamp} ${seed}
fix             3 all temp/csvr 265.6 265.6 100 ${seed}
fix             3 all temp/csvr 265.6 265.6 100 745823

run             250000
PPPM initialization ...
  extracting TIP4P info from pair style
  using 12-bit tables for long-range coulomb (../kspace.cpp:340)
  G vector (1/distance) = 0.37425125
  grid = 24 24 24
  stencil order = 5
  estimated absolute RMS force accuracy = 0.0031621835
  estimated relative force accuracy = 9.5228217e-06
  using double precision FFTW3
  3d grid and FFT values/proc = 2535 216
Last active /omp style is kspace_style pppm/tip4p/omp
Neighbor list info ...
  update every 1 steps, delay 7 steps, check yes
  max neighbors/atom: 2000, page size: 100000
  master list distance cutoff = 10.8154
  ghost atom cutoff = 10.8154
  binsize = 5.4077, bins = 4 4 4
  1 neighbor lists, perpetual/occasional/extra = 1 0 0
  (1) pair lj/cut/tip4p/long/omp, perpetual
      attributes: half, newton on, omp
      pair build: half/bin/newton/omp
      stencil: half/bin/3d
      bin: standard
Per MPI rank memory allocation (min/avg/max) = 9.237 | 9.239 | 9.241 Mbytes
Step Temp PotEng TotEng E_pair E_mol Press Lx Ly Lz Volume Pxx Pyy Pzz Pxy Pxz Pyz Enthalpy 
 9250000    264.86013   -3815.8017   -3361.8405   -3815.8017            0    9357.7603    16.977113    19.996797    20.712039    7031.4863    9668.5249    9343.8022    9060.9538    337.23893     286.7441    2024.6463   -2402.2301 
 9251000    267.43206   -3840.2967   -3381.9273   -3840.2967            0    7813.3203    17.018215    20.045209    20.762183    7082.6798    8003.2725    7703.8661    7732.8223   -583.62687    1094.2219    765.92715   -2574.8611 
 9252000     277.0187   -3873.6358   -3398.8353   -3873.6358            0    6617.5223    17.034911    20.064875    20.782551    7103.5455    5902.3325    6559.6709    7390.5635   -838.09095    444.60191    309.75348   -2713.2737 
 9253000    261.10508   -3849.9374   -3402.4122   -3849.9374            0    10035.477    16.926823    19.937562    20.650685    6969.1848    10132.641    8631.7876    11342.004   -1029.3215   -1882.1778    79.147045   -2382.4223 
 9254000    252.86645   -3892.5138   -3459.1094   -3892.5138            0    7305.3034    16.982563    20.003216    20.718687    7038.2599    6646.7545    6581.9462    8687.2095    383.80231    716.80496    88.585836   -2709.2506 
 9255000    268.24006   -3855.3679   -3395.6136   -3855.3679            0    8114.1453    16.935449    19.947722    20.661209    6979.8448    6679.4342    9211.7505    8451.2511   -149.18043    695.08742    712.47156   -2569.6433 
 9256000    260.59364   -3824.7805   -3378.1319   -3824.7805            0    8133.2954    16.924768    19.935141    20.648177    6966.6464    7950.8978    7862.6311    8586.3575   -1103.6612    1821.0876   -1234.4297   -2551.7778 
 9257000     275.0065   -3858.2509   -3386.8992   -3858.2509            0    8310.8916    16.932872    19.944686    20.658064    6976.6582    7512.7829    7791.4436    9628.4483    94.209642   -344.60267    1666.3031   -2541.2875 
 9258000    278.60121   -3866.3232   -3388.8103   -3866.3232            0    7522.5037    16.898059    19.903682    20.615593    6933.7166    8328.4214    5827.6699    8411.4198   -551.53927   -63.855349     -1960.31   -2628.1261 
 9259000    270.70903   -3822.2305   -3358.2445   -3822.2305            0    7765.1628    16.929984    19.941285    20.654541    6973.0898    8965.5644    7933.8567    6396.0672    1167.9547    701.14173   -1332.7377   -2568.5635 
 9260000    265.17117   -3839.6445   -3385.1502   -3839.6445            0    8769.6658    16.862985    19.862369    20.572802    6890.6305    8347.3182    8648.7431    9312.9361   -703.73155   -714.57056    -1105.544   -2503.8621 
 9261000    267.70382   -3863.5099   -3404.6747   -3863.5099            0    8479.1167    16.906947     19.91415    20.626436    6944.6628    8968.1851    8739.5468    7729.6183    1608.5091   -734.36081   -433.29856   -2545.9031 
 9262000     282.5962   -3826.3581   -3341.9979   -3826.3581            0     8055.924    16.916357    19.925234    20.637916    6956.2645     8221.587    8783.6521     7162.533   -179.49286   -226.66864    575.02334   -2524.7246 
 9263000    270.88986   -3821.3408   -3357.0449   -3821.3408            0    9477.7586    16.983608    20.004446    20.719962    7039.5586    9771.4488    8872.1766    9789.6505   -7.4873879   -222.70735    793.19718   -2384.0132 
 9264000    268.69285   -3860.3661   -3399.8357   -3860.3661            0    9203.8128    16.972692    19.991589    20.706645    7025.9942    9560.5773    8304.6047    9746.2565    333.56261    948.44759   -580.65708   -2456.7494 
 9265000    262.83187    -3847.487   -3397.0022    -3847.487            0    12209.429    16.837928    19.832855    20.542232    6859.9587    12424.219     12065.58    12138.488  -0.78525094   -442.15719   -542.18629   -2175.5042 
 9266000     275.0619   -3849.7231   -3378.2765   -3849.7231            0    11200.396    16.882408    19.885247    20.596499    6914.4683    11809.566    10305.917    11485.704    248.20936   -899.00721    1435.7963   -2248.8237 
 9267000    277.48623   -3862.2489    -3386.647   -3862.2489            0    11277.716    16.915108    19.923763    20.636392    6954.7241     12477.56    11227.282    10128.306    -695.5836    605.50473    282.49997   -2242.7763 
 9268000    249.36323   -3879.9475   -3452.5475   -3879.9475            0    7922.8055    17.025297    20.053552    20.770823    7091.5262     6552.273    8366.3961    8849.7473    486.71992    1242.3688   -451.29339     -2633.15 
 9269000    265.91643   -3843.2676    -3387.496   -3843.2676            0    9544.7294    16.983951    20.004851     20.72038    7039.9854    9621.7583    9337.9437    9674.4861   -759.22383   -2090.6952   -1029.2001   -2407.5294 
 9270000    261.89901   -3879.8008   -3430.9149   -3879.8008            0    10073.581    16.944136    19.957954    20.671806    6990.5904    10863.454    8535.6813    10821.606   -504.39153    92.586462   -1004.9541   -2403.9074 
 9271000    261.88599   -3874.6099   -3425.7463   -3874.6099            0    9437.9741    16.923431    19.933567    20.646547    6964.9959    9349.4122    11124.123    7840.3874    256.57708   -287.66964   -664.62533   -2467.0622 
 9272000    275.72804   -3844.8526   -3372.2642   -3844.8526            0    9322.0925     16.96804    19.986109    20.700969    7020.2179    8778.6389     10002.29    9185.3482   -39.947463    251.44389    266.00524   -2417.8434 
 9273000    257.82506    -3862.406   -3420.5027    -3862.406            0    9747.0982    16.974707    19.993962    20.709103    7028.4965    11435.464    10903.016    6902.8145   -517.58484   -672.99109   -1302.8243   -2421.3919 
 9274000    272.04269    -3823.553   -3357.2811    -3823.553            0    9299.3882    16.994893    20.017739     20.73373    7053.6011    10364.302    6883.4508    10650.411    79.539955   -802.45506    1393.8998   -2400.6574 
 9275000     273.8879   -3867.9661   -3398.5316   -3867.9661            0    10296.704    16.940951    19.954203    20.667921      6986.65    10105.414    10717.449    10067.251    923.61402     454.0671   -669.99839   -2349.3682 
 9276000    274.09819   -3846.7615   -3376.9666   -3846.7615            0     8065.945    17.040049    20.070927     20.78882    7109.9753    8637.1996    7147.8051    8412.8303   -654.96018    1181.7941   -586.46774    -2540.595 
 9277000    270.35433   -3812.7313   -3349.3532   -3812.7313            0     10722.89    16.930083    19.941401    20.654662    6973.2117    10424.482    11825.534    9918.6532   -2736.2475    458.14053   -138.00133    -2258.866 
 9278000    267.34373   -3886.0802   -3427.8622   -3886.0802            0    8992.2825    16.939813    19.952862    20.666532     6985.241    8272.8864    10386.583    8317.3783    24.450642   -468.67517     59.18979   -2511.7952 
 9279000    263.27255   -3886.3798   -3435.1397   -3886.3798            0    10874.666    16.888801    19.892777    20.604298    6922.3261    10402.045     10813.96    11407.993   -37.682173   -994.97648    5.7082529   -2337.2875 
 9280000    267.79207   -3841.2426   -3382.2562   -3841.2426            0    8540.8502    16.947348    19.961738    20.675725    6994.5671     9726.249    8115.1579    7781.1435   -912.63561   -2193.9549    169.49373   -2511.0161 
 9281000    265.06265   -3824.0238   -3369.7155   -3824.0238            0    9170.7566    16.917643    19.926748    20.639485    6957.8511    9238.5365    9887.2274    8386.5057     541.4202     107.0392   -71.404612   -2439.1302 
 9282000    263.40805   -3863.8883   -3412.4159   -3863.8883            0    9982.7183    16.931177     19.94269    20.655996    6974.5637    10784.501      9702.59    9461.0635   -287.06085    661.33525   -1502.9488   -2397.0052 
 9283000    266.09816   -3860.4128   -3404.3297   -3860.4128            0    10130.007    16.921985    19.931863    20.644782    6963.2104    10656.155    9714.9542    10018.913    249.07795    -786.4839   -684.32016   -2375.6144 
 9284000    260.68167   -3885.2164   -3438.4169   -3885.2164            0    9299.1887    16.909081    19.916664     20.62904    6947.2931    8601.1316    10937.841    8358.5938    635.80596   -1222.4559    982.47391   -2496.2311 
 9285000    251.60778   -3892.4393   -3461.1922   -3892.4393            0    9060.1611    16.936722    19.949221    20.662761    6981.4182    9005.6057    7505.7703    10669.107   -967.06076   -718.47226    504.40152   -2538.7153 
 9286000    263.79139   -3908.1836   -3456.0542   -3908.1836            0    7035.2781    17.014831    20.041223    20.758054    7078.4551    8122.1746    8212.8583    4770.8014   -755.41714   -1915.8069    374.95728   -2729.7883 
 9287000    275.07946   -3877.3283   -3405.8515   -3877.3283            0    9589.8694    16.920886    19.930569    20.643442    6961.8542    10347.712    9676.1089    8745.7871    771.31111    89.418189    32.939407   -2432.1777 
 9288000    271.04052   -3901.5061   -3436.9519   -3901.5061            0    8098.8788    16.933179    19.945048    20.658439    6977.0377    7042.1452    9361.0887    7893.4024   -326.94406   -1535.5925    615.40556   -2612.8672 
 9289000    257.25372   -3848.4181    -3407.494   -3848.4181            0    8837.6023      16.9279    19.938831    20.651999    6970.5153    8312.2459    9233.6484    8966.9125   -612.83369    3.1810939    1465.1878   -2509.0827 
 9290000    252.06551   -3851.0752   -3419.0435   -3851.0752            0      10167.2    16.935612    19.947914    20.661407     6980.046    10152.887    11930.485    8418.2287    1699.3625    1113.1719    99.624092   -2384.0549 
 9291000    260.50663   -3848.4726   -3401.9732   -3848.4726            0     9493.468    16.952441    19.967736    20.681938    7000.8743    8916.2103    11070.906    8493.2879   -1422.8522   -790.79849   -863.70487   -2432.6847 
 9292000    262.99532   -3843.1218   -3392.3568   -3843.1218            0    8856.1137       16.919    19.928347    20.641141    6959.5263    7930.2516    9367.8709    9270.2184    776.80363    74.138539    581.21382    -2493.483 
 9293000    265.98002   -3844.6528   -3388.7722   -3844.6528            0    6254.5414    17.044339    20.075979    20.794053    7115.3464    7309.7509    5041.0179    6412.8553   -268.86689   -227.49978   -616.90733   -2739.7383 
 9294000     265.0016   -3825.0486   -3370.8449   -3825.0486            0    11300.741     16.88342    19.886439    20.597733    6915.7117    10817.936    12592.385    10491.903    213.56468   -366.12692   -2853.4496   -2231.0684 
 9295000    261.50896   -3905.2801   -3457.0627   -3905.2801            0    8679.3794    16.895431    19.900586    20.612387    6930.4818    8657.9499    9316.5945    8063.5937   -3.6233715    454.11707    764.71464   -2579.8034 
 9296000    266.60905   -3858.1437   -3401.1849   -3858.1437            0    8768.9095    16.937257    19.949851    20.663414    6982.0795    9114.9789    8220.1593    8971.5904    913.39754    305.58807    2014.6546   -2508.2778 
 9297000     272.4261    -3875.473    -3408.544    -3875.473            0    9855.5704    16.903968    19.910641    20.622801     6940.992     11001.51     10975.93    7589.2711    120.46391   -178.26669   -117.87036   -2410.8917 
 9298000    263.68227   -3843.9857   -3392.0433   -3843.9857            0    8946.6522    16.929294    19.940472    20.653699    6972.2367    8809.0248    8617.0613    9413.8706    412.60514    1443.6667   -669.93121   -2482.3216 
 9299000    269.85102   -3840.9505   -3378.4351   -3840.9505            0     7681.455    16.887651    19.891422    20.602895    6920.9121     7114.452     8560.537    7369.3761   -633.27037    248.73174   -218.86307    -2603.112 
 9300000    255.85395   -3816.7533   -3378.2284   -3816.7533            0    10693.859     16.89515    19.900255    20.612044    6930.1359    10175.876     9766.647    12139.055    1324.6211    623.63449   -333.88471   -2297.4116 
 9301000    267.39449   -3819.8173   -3361.5123   -3819.8173            0    8437.3264    16.935132    19.947349    20.660822    6979.4528    6868.7049     8469.371    9973.9033    994.25616    446.05556    1423.5012   -2502.6923 
 9302000    258.63544   -3831.1967   -3387.9044   -3831.1967            0    9797.3989     16.93066    19.942082    20.655366    6973.9252    7582.0603    10404.352    11405.785    541.55184   -1465.5588   -1524.7975    -2391.435 
 9303000    269.25199   -3887.2404   -3425.7517   -3887.2404            0    10523.995    16.906006    19.913042    20.625287    6943.5029    10762.735    9733.3677    11075.883   -2600.5474    395.25113    976.82882   -2360.0513 
 9304000    278.04479   -3862.0767   -3385.5174   -3862.0767            0    9863.3018    16.935658    19.947969    20.661464    6980.1032    8506.1497     11768.88    9314.8758    752.12521   -1006.3824   -1794.5307   -2381.4565 
 9305000    268.04902   -3856.5261   -3397.0992   -3856.5261            0    10418.047    16.925587    19.936106    20.649177     6967.658    7865.3696    10855.957    12532.814    255.42897   -346.98944   -1633.5512   -2338.4575 
 9306000    281.27128   -3834.6802   -3352.5908   -3834.6802            0    10727.776    16.906744    19.913911    20.626188    6944.4126    10201.004    11239.946    10742.377    971.30935    972.62693    1357.2926   -2266.1124 
 9307000    269.25363   -3882.2994   -3420.8079   -3882.2994            0    9419.9826    16.932079    19.943753    20.657097    6975.6784      9848.36    9892.3508    8519.2369   -197.48908    359.69325    1639.9838   -2462.4837 
 9308000    266.32569   -3866.8415   -3410.3684   -3866.8415            0    9109.2438    16.966808    19.984658    20.699466    7018.6892     8713.029    10000.821    8613.8813   -43.165301   -420.98467   -1107.8282   -2477.9427 
 9309000    272.26964   -3853.8172   -3387.1563   -3853.8172            0    9406.3885    16.919402     19.92882     20.64163    6960.0215    10413.747     9400.968    8404.4506   -954.90308    119.25914    -492.2943    -2432.363 
 9310000    246.76179   -3856.9655   -3434.0243   -3856.9655            0     9516.601    16.976664    19.996268    20.711491    7030.9286    8923.0409    8430.3747    11196.387    -1598.211    1715.3015   -344.49817   -2458.2027 
 9311000    272.12991   -3888.2959   -3421.8746   -3888.2959            0    9163.8253    17.009109    20.034484    20.751073    7071.3166    10828.878    7991.1169    8671.4814    62.288531   -398.99909    -1365.258   -2476.8285 
 9312000    261.16618    -3844.289   -3396.6591    -3844.289            0     8527.168    17.042784    20.074149    20.792157    7113.3999    7551.1624    8351.2075    9679.1341    301.12112   -937.17428    114.10098   -2512.0367 
 9313000    271.16575   -3834.8003   -3370.0315   -3834.8003            0    8641.1191    16.959045    19.975515    20.689995    7009.0599    8395.7082    8542.6442    8985.0049   -442.85738    2448.8397   -849.09478   -2486.7367 
 9314000     269.6932   -3858.5942   -3396.3492   -3858.5942            0    8982.5506    16.993428    20.016013    20.731942    7051.7767    6793.5399    10521.457    9632.6544    553.90544   -34.001729    2183.9143   -2472.5574 
 9315000    261.75682   -3862.3544   -3413.7122   -3862.3544            0    9294.4084    16.943356    19.957035    20.670855    6989.6252    9240.2011    9715.7889    8927.2351    651.26894   -1538.5863    953.70881   -2466.2726 
 9316000    268.12084   -3818.9964   -3359.4464   -3818.9964            0    8721.0515    16.998812    20.022355     20.73851    7058.4814    8144.1937    9066.8704    8952.0905    1124.1508    1403.2772    -1298.423   -2461.6952 
 9317000    256.83079   -3839.7251   -3399.5259   -3839.7251            0    8599.6479    16.947398    19.961797    20.675787    6994.6294    7699.8114    8286.2067    9812.9254    101.67944    4.5962435    827.49917   -2522.2802 
 9318000    268.79485    -3828.738   -3368.0328    -3828.738            0    11028.564    16.882873    19.885794    20.597065    6915.0391    12561.036    10105.184    10419.472   -464.34949    150.19309    506.45179   -2255.8159 
 9319000    254.31792   -3866.3052    -3430.413   -3866.3052            0    7731.2701    16.919353    19.928763    20.641571    6959.9617    8678.7427    8798.0374    5717.0301    109.09599    388.46147     2393.049    -2645.659 
 9320000    253.36304   -3837.6696    -3403.414   -3837.6696            0    8364.8165    17.011806     20.03766    20.754363    7074.6804    9966.0331     9381.104    5747.3125    16.596781    -2855.984   -627.62111   -2540.3577 
 9321000     260.0033   -3851.8361   -3406.1994   -3851.8361            0    9241.7651    16.949384    19.964136    20.678209    6997.0882    6769.7846    11144.562    9810.9482    791.79282   -618.99174   -43.343128   -2463.1202 
 9322000     275.3885   -3823.3351   -3351.3286   -3823.3351            0    9084.1817    17.016427    20.043104    20.760002    7080.4481    8885.7122    10037.243    8329.5897    931.23277    339.72796    332.35393   -2413.2863 
 9323000    250.28479    -3839.042   -3410.0625    -3839.042            0    8550.6941    16.905593    19.912555    20.624784    6942.9942    7796.9176    8031.0464    9824.1183    1496.8694   -115.49399    341.77754   -2544.2496 
 9324000    278.72563   -3870.0873   -3392.3611   -3870.0873            0    8338.8062    16.911205    19.919166    20.631631    6949.9117     9341.346    7496.7393    8178.3331    47.880547    699.94994   -669.41705   -2547.1619 
 9325000    264.83232   -3847.7372   -3393.8236   -3847.7372            0    9289.4012     16.92791    19.938842    20.652011    6970.5275    8891.8631    10387.416    8588.9248   -224.25845   -1497.4577   -139.10772   -2449.4817 
 9326000    262.61844   -3848.2312   -3398.1122   -3848.2312            0    9177.6231    16.945655    19.959744     20.67366    6992.4713    6407.8546    11483.332     9641.683    793.33674    1386.4487   -304.05959   -2462.1964 
 9327000    251.80488   -3860.9437   -3429.3588   -3860.9437            0    9498.9857     16.94434    19.958194    20.672055    6990.8428    7206.1032    10967.892    10322.961   -1119.4206   -676.91717    423.72905   -2460.8966 
 9328000    274.76758   -3830.2593   -3359.3171   -3830.2593            0    7189.7114    16.989191    20.011023    20.726774    7046.5039    7425.7179    6556.7713    7586.6449   -148.33217   -287.22692   -729.46269    -2620.459 
 9329000    268.23439   -3853.5296    -3393.785   -3853.5296            0    9127.4442    16.912685    19.920909    20.633437    6951.7365    8995.9875     9568.136     8818.209      1756.45   -1310.5268    389.87565   -2468.4087 
 9330000    279.18069     -3831.39   -3352.8839     -3831.39            0    8073.8378    16.979722     19.99987    20.715221    7034.7282    8759.5513    7374.6871    8087.2748   -315.49065    173.51748   -152.99912   -2524.5542 
 9331000    263.20923   -3841.7108   -3390.5792   -3841.7108            0    10511.607    16.961415    19.978306    20.692886    7011.9985    11102.974    9825.2855    10606.563   -753.30232   -675.50192    1140.8281   -2315.6327 
 9332000    259.45547   -3863.1128    -3418.415   -3863.1128            0    9913.9836    16.880974    19.883558    20.594749    6912.7062    11033.329    8769.5616    9939.0598    50.085829   -811.32699    1129.4877   -2418.9394 
 9333000    253.80097    -3840.687   -3405.6808    -3840.687            0    9070.9586    16.900669    19.906756    20.618777    6936.9297    8030.9739    9075.8956    10106.006    1318.9079    253.12504   -611.31771     -2487.99 
 9334000    279.08744   -3831.6608   -3353.3145   -3831.6608            0    9141.9178    16.893737    19.898591     20.61032    6928.3977    9102.9537    8978.2651    9344.5345    521.29051    1846.9885   -445.65888   -2429.5825 
 9335000    270.40547   -3861.5381   -3398.0724   -3861.5381            0    9863.6371    16.888213    19.892084     20.60358    6921.6024    10405.187    9835.3765    9350.3483    1482.6957   -141.04026    47.619913   -2402.3927 
 9336000     269.4152   -3878.3173   -3416.5489   -3878.3173            0    8802.7225    16.903486    19.910074    20.622214    6940.3991     8149.304    9296.8412    8962.0223   -2007.8658    -202.8328   -1215.5314   -2525.5496 
 9337000     264.4961   -3870.1894   -3416.8521   -3870.1894            0     9623.374    16.876956    19.878825    20.589847    6907.7711    10044.763    9732.4786    9092.8803    454.32096   -1808.6138    150.48997   -2447.3669 
 9338000    270.21382   -3820.1338   -3356.9966   -3820.1338            0     11255.93    16.932055    19.943725    20.657068    6975.6492    9786.6398    12127.431    11853.718    499.72514    835.92129   -585.63232   -2211.9006 
 9339000    257.66372   -3869.2734   -3427.6466   -3869.2734            0    9547.0556    16.863855    19.863394    20.573864    6891.6974    7594.5828    9879.5469    11167.037    10.316693    -1301.007   -71.323089   -2468.0879 
 9340000    267.12607   -3853.1088   -3395.2639   -3853.1088            0    8779.1954    16.938416    19.951217    20.664828    6983.5134    9072.4871    7797.9926    9467.1065    777.55859   -299.01911   -414.07932   -2501.1258 
 9341000    261.99514   -3860.8601   -3411.8094   -3860.8601            0     9614.156     16.89948    19.905356    20.617327     6935.466    8296.5648     10356.01    10189.894    1388.1885   -1460.4506   -787.61858   -2439.3696 
 9342000    284.43374   -3867.8268   -3380.3172   -3867.8268            0    8736.9163    16.946242    19.960435    20.674376    6993.1979    7731.9549    10076.485    8402.3091    651.70848   -590.84842    80.953041   -2489.2511 
 9343000    265.71926    -3891.889   -3436.4553    -3891.889            0    10034.898    16.937729    19.950407     20.66399    6982.6635    8934.6682    8862.9748    12307.052    1937.1764    463.89079   -1079.1853   -2414.5515 
 9344000    260.41374   -3853.9491   -3407.6089   -3853.9491            0    8171.1653    16.930435    19.941816    20.655091    6973.6464    7471.6493    7945.0383    9096.8082    190.70944   -1025.6625    603.84086   -2576.5729 
 9345000    255.85239   -3851.1947   -3412.6724   -3851.1947            0    8793.1958    16.909747    19.917448    20.629851    6948.1133    8516.0011    10320.219    7543.3677   -22.668393   -569.54705   -1668.3165   -2521.6482 
 9346000    274.81371   -3856.0914   -3385.0701   -3856.0914            0    9180.8473    16.912214    19.920354    20.632862    6951.1552    8398.5855    8008.7323    11135.224    551.55341   -914.51836    992.48839   -2454.3574 
 9347000    272.37751   -3877.0787    -3410.233   -3877.0787            0     9662.327    16.884039    19.887168    20.598489    6916.4726     10242.91    8294.1665    10449.904    -38.80432   -738.26807    1126.6511   -2435.5974 
 9348000    253.97336   -3877.5916     -3442.29   -3877.5916            0     8661.847    16.888736    19.892701    20.604219    6922.2466    9886.5912    8773.5235    7325.4264   -216.85282    589.45516   -955.23318    -2567.843 
 9349000    263.52109   -3844.8029   -3393.1367   -3844.8029            0      8066.02    16.914491    19.923036    20.635639    6953.9629    7256.0909    7649.2671    9292.7022    1014.1232    823.80143    602.57236   -2575.1099 
 9350000    262.63175   -3861.8417   -3411.6999   -3861.8417            0    10661.666     16.88313    19.886097    20.597379    6915.3545    11866.355    9844.5315    10274.112   -650.59396    22.574258    2072.5739   -2336.4351 
 9351000    264.48629   -3888.0832   -3434.7628   -3888.0832            0     11139.88     16.88572    19.889148    20.600539    6918.5381    10418.434    10209.933    12791.274   -930.56257     2440.929   -250.32115   -2310.7513 
 9352000    273.70262   -3869.1671   -3400.0502   -3869.1671            0    9587.5122    16.901028    19.907179    20.619215    6937.3716     9056.021    10062.054    9644.4621   -354.76864    1176.4233    787.91832   -2430.0389 
 9353000    259.50892   -3849.0244    -3404.235   -3849.0244            0    7529.0267    16.994795    20.017624    20.733611    7053.4794    7955.5853    7354.6095    7276.8852   -598.87429    1269.0938    478.88735   -2629.7409 
 9354000    276.63807   -3872.4356   -3398.2874   -3872.4356            0    10409.797    16.857871    19.856345    20.566563    6884.3632    12163.131    9844.2409    9222.0201   -750.96504   -773.99839     -755.823   -2353.1295 
 9355000    267.72872   -3846.9191   -3388.0413   -3846.9191            0    9840.5463    16.939259    19.952209    20.665856     6984.556    10355.085    8975.6219    10190.932    162.49006    1142.2047   -1709.5143   -2385.6578 
 9356000    261.89433    -3889.025   -3440.1471    -3889.025            0    8008.1014    16.964014    19.981367    20.696057    7015.2222    7933.5347    8965.2435    7125.5262    962.69436    407.19758   -1374.1292   -2620.8397 
 9357000    268.87382    -3888.598   -3427.7575    -3888.598            0    7510.7042     17.01184    20.037701    20.754405    7074.7237    8118.6013    5509.4797    8904.0318    115.52482    596.76342    446.28739   -2652.8211 
 9358000    272.15547   -3869.4568   -3402.9916   -3869.4568            0    7027.6297    17.022972    20.050813    20.767986     7088.621    7831.7858    8069.8815    5181.2219    1108.0336   -389.24853   -1528.7471   -2676.4734 
 9359000    267.79363   -3857.9564   -3398.9673   -3857.9564            0    9082.4989    16.928824    19.939919    20.653126    6971.6566     9377.116     8882.876    8987.5046    27.815984   -273.36927    11.613288   -2475.5091 
 9360000    264.22481   -3847.5833    -3394.711   -3847.5833            0    7704.2139    16.928637    19.939698    20.652898    6971.4251    4476.3371    11625.801    7010.5036    76.194651   -691.83075    1647.8253   -2611.4152 
 9361000    274.91966   -3851.8493   -3380.6464   -3851.8493            0    9421.8613    16.915745    19.924513    20.637169    6955.5099    9942.8894    8983.6529    9339.0415   -12.492458   -1055.6325    222.67731   -2424.9024 
 9362000    270.74678   -3850.8166   -3386.7659   -3850.8166            0    8349.7176    16.907639    19.914965     20.62728    6945.5154    7906.9056    9201.9625    7940.2847    1459.3481   -792.95351   -663.08571   -2540.9961 
 9363000    267.11411   -3833.7842   -3375.9597   -3833.7842            0    9859.1615    16.855151    19.853141    20.563245    6881.0313    7999.5996    11871.492     9706.393    1800.8033     29.31535    790.90803   -2386.5655 
 9364000    266.22093   -3809.5129   -3353.2193   -3809.5129            0    10824.688    16.858999    19.857674     20.56794    6885.7457    11903.055    8563.6664    12007.341    821.97542   -61.084824   -1069.1205   -2266.1875 
 9365000    265.11766   -3826.9099   -3372.5073   -3826.9099            0    8884.3082    16.913127     19.92143    20.633976    6952.2811    9866.0634    8523.2573    8263.6038    80.862553    777.90104    473.78714   -2471.7105 
 9366000     258.5309   -3841.3103   -3398.1971   -3841.3103            0     9721.604     16.86406    19.863635    20.574114    6891.9482    9230.4896    9044.3231    10889.999   -1423.5578    1043.6608    1501.2647   -2421.0593 
 9367000    249.97356   -3845.3602    -3416.914   -3845.3602            0    10014.325    16.916013    19.924829    20.637497    6955.8408    12625.172    9015.5271    8402.2767    199.84039    2815.9321    1119.8094   -2401.0228 
 9368000    274.44122   -3890.7524   -3420.3695   -3890.7524            0    8658.6437    16.944553    19.958445    20.672315    6991.1066    10513.851    7513.6441    7948.4362   -72.772961   -241.14531    494.83341   -2537.5505 
 9369000    271.67622   -3843.1348   -3377.4911   -3843.1348            0    9285.4604    16.933909    19.945908     20.65933    6977.9406    9480.3072     10468.53    7907.5436    95.795048   -1060.3248    1244.1349   -2432.5459 
 9370000    260.10734   -3832.5477   -3386.7326   -3832.5477            0    8500.1722    16.935812    19.948149    20.661651    6980.2926    6135.2019    8482.6732    10882.642   -1213.2125    725.73522    1980.6768   -2521.4116 
 9371000    264.31451   -3867.3744   -3414.3484   -3867.3744            0    8038.1064    16.966718    19.984553    20.699356    7018.5778    6386.8508    9049.9215     8677.547    416.77019    1199.7107    438.40951   -2591.5778 
 9372000    274.26023   -3839.3172   -3369.2446   -3839.3172            0    9880.0267    16.917421    19.926488    20.639214     6957.578    10108.497     10302.19    9229.3925    54.547577    -801.0833    910.16282   -2366.7268 
 9373000     261.3267   -3885.1229   -3437.2179   -3885.1229            0    8949.7783    16.939205    19.952146     20.66579    6984.4893    10474.553    9091.2984    7283.4838   -1746.2614     648.2562   -384.12707   -2525.5791 
 9374000    267.41316   -3835.0755   -3376.7385   -3835.0755            0    10271.207    16.882076    19.884855    20.596093    6914.0598    10930.578    9545.5066    10337.536    1727.9222    851.38456    799.39704   -2341.0468 
 9375000    286.05398   -3844.3332   -3354.0465   -3844.3332            0    9070.8825    16.964645    19.982111    20.696827     7016.005     7566.836    10115.335    9530.4767    4.6443511    860.48728    51.726737   -2425.9026 
 9376000    255.88726   -3828.1725   -3389.5905   -3828.1725            0    12275.228    16.893555    19.898377    20.610098    6928.1739    14220.974    10693.051    11911.659    193.87877    45.912305    1204.8735   -2149.2977 
 9377000     274.0796   -3847.0133   -3377.2502   -3847.0133            0    8507.6233    16.939736    19.952771    20.666438    6985.1462    9168.7927    8215.8956    8138.1815    -294.1366   -390.50272   -621.28778   -2510.5685 
 9378000    266.54003   -3842.5741   -3385.7336   -3842.5741            0    9934.9277    16.897762    19.903331     20.61523      6933.35    8462.6711    11070.308    10271.804     81.90237    613.91435   -77.503603   -2381.1554 
 9379000    271.63808   -3847.6693   -3382.0909   -3847.6693            0    8620.8476    16.919298    19.928699    20.641505    6959.8943    7430.5318    7836.6425    10595.368    1403.0918    306.77834    2997.8457   -2507.0497 
 9380000    264.18974   -3883.5553   -3430.7431   -3883.5553            0    6681.4004    16.985522    20.006702    20.722297    7041.9397    6209.6626    7551.3343    6283.2044   -74.928815    55.900006   -221.73563   -2744.5668 
 9381000    262.82178   -3872.6291   -3422.1616   -3872.6291            0    9088.2811    16.938341    19.951128    20.664736    6983.4206    8095.3112    10183.307    8986.2251   -1150.4643   -59.803436    1922.3525   -2496.5562 
 9382000    253.99703   -3806.2904   -3370.9482   -3806.2904            0    8447.9466     17.02473    20.052883    20.770131    7090.8172     8528.386    8620.7404    8194.7132    966.52639   -94.052366    1159.7452   -2497.3267 
 9383000    269.99386   -3875.4447   -3412.6845   -3875.4447            0    9010.2139    16.959394    19.975926    20.690421    7009.4922     7874.681    9950.9659    9204.9948    579.12577   -930.78759   -609.56248   -2491.6041 
 9384000     250.4093   -3866.7239    -3437.531   -3866.7239            0    8469.5137    16.980908    20.001267    20.716669    7036.2028    7847.8321    11030.842    6529.8671   -687.58476   -107.43602    1014.1416    -2568.425 
 9385000    265.93724   -3896.9561   -3441.1487   -3896.9561            0    9342.6457    16.869442    19.869974     20.58068    6898.5486    8611.4449    9615.6267    9800.8656   -990.83723    520.63871    538.14687   -2501.2014 
 9386000    260.85436   -3843.3706   -3396.2752   -3843.3706            0    9616.5386    16.931923    19.943569    20.656907    6975.4857    9046.9695     9362.289    10440.357    270.99885   -1521.2413   -1790.3624   -2417.9818 
 9387000      259.069   -3841.0081   -3396.9727   -3841.0081            0    10517.117    16.929313    19.940494    20.653722    6972.2598    10547.344    10882.286     10121.72    368.95438    -1324.356    858.40771    -2327.558 
 9388000     274.0616   -3853.2892    -3383.557   -3853.2892            0    8604.0064    16.932663     19.94444    20.657809    6976.3998    10144.016    9084.5944     6583.409    511.75513   -1201.0389   -293.47241   -2508.1541 
 9389000    259.06261   -3881.9907   -3437.9663   -3881.9907            0    9741.9471    16.859324    19.858056    20.568335    6886.1428    9173.0928    10910.193    9142.5554    625.55258    667.04288   -637.98313   -2459.6086 
 9390000     263.3781   -3813.4094   -3361.9883   -3813.4094            0    9792.7595    16.905185    19.912075    20.624286    6942.4916    8899.2901    10854.068    9624.9207   -1392.9656   -1186.1764   -415.11534   -2370.4801 
 9391000    250.60251    -3850.993   -3421.4689    -3850.993            0    8356.0982    16.928854    19.939953    20.653162    6971.6926    8316.0592    6635.6387    10116.597   -41.747473    -521.7326    1180.2633   -2571.8627 
 9392000    250.88026   -3842.1158   -3412.1156   -3842.1158            0    9872.5582    16.876678    19.878498    20.589508    6907.4299    9556.4387    9599.4331    10461.803    464.96204   -622.29175    339.48019    -2417.576 
 9393000    266.85137   -3857.0557   -3399.6816   -3857.0557            0    7909.5048     16.88824    19.892116    20.603614    6921.6364    9246.4123    8015.8727    6466.2295    -350.0876    645.75005    4.5847949   -2601.2569 
 9394000    264.71254   -3857.5876   -3403.8794   -3857.5876            0    8682.3989    16.895374    19.900519    20.612317    6930.4114     8709.414    8407.3712    8930.4115   -652.47518    2099.6883   -453.57711   -2526.3238 
 9395000     276.6866   -3856.6353   -3382.4039   -3856.6353            0    9046.4616    16.925105    19.935538    20.648588    6967.0619    8110.5109    8889.6697    10139.204   -850.44952   -1818.2966    -373.7558    -2463.216 
 9396000    267.93578   -3886.8907    -3427.658   -3886.8907            0    8821.5234    16.888969    19.892975    20.604503    6922.5328    8204.3946     9496.535    8763.6405    815.68298   -1350.3531    220.07766   -2537.0542 
 9397000    258.77226   -3894.3972   -3450.8704   -3894.3972            0    8888.3623    16.894251    19.899196    20.610947    6929.0298      9447.58    7424.6024    9792.9046   -726.55038    277.40463   -1313.6815   -2552.6766 
 9398000    252.08035   -3886.3466   -3454.2895   -3886.3466            0    9399.9675    16.843247     19.83912    20.548722    6866.4621    11287.963    10906.562    6005.3773    80.463883    -1284.046    498.06278   -2512.9739 
 9399000    282.37774   -3836.9722   -3352.9865   -3836.9722            0    9719.9623    16.939559    19.952563    20.666222    6984.9269    9915.8643    11386.256    7857.7669   -562.69915    95.716787   -2124.4084   -2362.8334 
 9400000     256.2553   -3862.4117   -3423.1989   -3862.4117            0    8093.7332    16.951945    19.967152    20.681333      7000.26    8990.6435    6670.5215    8620.0345    621.16708    498.58581   -787.60228   -2596.8966 
 9401000     271.4177    -3853.507   -3388.3064    -3853.507            0    7828.2788    16.951421    19.966534    20.680694    6999.6109    9003.8755    8130.5009      6350.46   -1013.3708   -1014.6009   -345.05487   -2589.1789 
 9402000    258.09333   -3880.5326   -3438.1695   -3880.5326            0    7892.5704    16.943558    19.957274    20.671102    6989.8759     7588.795    7364.2323     8724.684     1155.959    -738.6784    31.259347   -2633.5995 
 9403000    271.62977   -3841.0961    -3375.532   -3841.0961            0    9466.2336     16.90907    19.916651    20.629026    6947.2798    9510.9215    10034.309    8853.4698    -937.2789   -2324.5159     374.0096   -2416.4231 
 9404000    257.85691   -3874.0317   -3432.0738   -3874.0317            0    9639.5433    16.910256    19.918048    20.630473    6948.7414    9298.7481    10692.481    8927.4006   -760.96368   -972.87648   -1049.4569   -2455.1999 
 9405000    264.43705   -3876.4792   -3423.2431   -3876.4792            0     7776.845     16.98071    20.001033    20.716427    7035.9561    8381.7569    6764.9624    8183.8156    582.56468    300.78687    71.257303   -2625.2439 
 9406000    238.15438   -3857.9197   -3449.7312   -3857.9197            0    8291.6132    16.968211    19.986311    20.701178    7020.4307    9525.1778     8861.643    6488.0189    1241.4141   -349.22114    1023.0378   -2600.7879 
 9407000    265.81242    -3903.985   -3448.3916    -3903.985            0    8554.7071    16.935206    19.947436    20.660912    6979.5439    8748.2418    8909.9956    8005.8839    -500.5502     -93.0382    2245.5494   -2577.6124 
 9408000     249.6481    -3864.021   -3436.1327    -3864.021            0    8127.2218    16.890728    19.895046    20.606649    6924.6956    8756.0019    8580.1927    7045.4709    725.36075   -1373.9142    548.49218    -2615.368 
 9409000    267.08574   -3864.5035   -3406.7277   -3864.5035            0    9245.8561    16.864707    19.864397    20.574903    6892.7413    9713.5028    7529.2007    10494.865    986.39891    948.82223   -1051.5548   -2477.3013 
 9410000    277.51526   -3855.8364   -3380.1847   -3855.8364            0    8719.3078    16.878156    19.880239    20.591311    6909.2452    10822.984    6723.6224    8611.3167   -371.41801   -606.31406    604.50095   -2501.5902 
 9411000    246.56702   -3860.0996   -3437.4922   -3860.0996            0    8078.7259    16.935078    19.947284    20.660755    6979.3851    8477.3369     7924.503    7834.3378    660.18406    1050.3723   -1796.5819   -2615.1815 
 9412000    256.96254   -3855.5658   -3415.1408   -3855.5658            0    9249.1068    16.929317    19.940499    20.653727    6972.2653    7991.8773    10277.119     9478.324    159.19587    133.89909   -20.546112   -2474.6607 
 9413000    282.09185    -3874.861   -3391.3652    -3874.861            0    9913.6017    16.873435    19.874677    20.585551    6903.4485    9425.5266    9375.2378    10940.041     314.0196   -109.52805    595.06934   -2393.2666 
 9414000    269.71936   -3869.7146   -3407.4249   -3869.7146            0    9838.8884    16.895154    19.900259    20.612048    6930.1402    10019.685    9114.8766    10382.103    1192.0752   -1619.8216    95.822309   -2413.0184 
 9415000    255.41831   -3840.4947   -3402.7165   -3840.4947            0    9588.8055    16.881827    19.884563     20.59579    6913.7546    9723.4056    8752.8861    10290.125    760.33449   -2185.6734   -217.93328    -2435.877 
 9416000    253.68815   -3806.8713   -3372.0585   -3806.8713            0    7597.9758    16.908456    19.915927    20.628277    6946.5222     8469.374    6130.4624    8194.0909   -568.08534   -1822.0137    112.49778   -2602.3235 
 9417000    254.58581   -3857.0672   -3420.7158   -3857.0672            0     10628.69    16.799367    19.787435    20.495188    6812.9364    10700.637    11177.837    10007.597    146.05269    480.71649    236.56707   -2364.6524 
 9418000    269.00576   -3808.8461   -3347.7795   -3808.8461            0    10602.275    16.862799     19.86215    20.572576    6890.4024    11624.557      9937.03    10245.237    1557.0509   -2027.2911   -329.89552   -2282.3627 
 9419000    275.39351   -3849.9385   -3377.9234   -3849.9385            0    9986.0708    16.882297    19.885116    20.596363    6914.3318    10370.205    8399.6629    11188.345   -1587.9412   -896.18601   -827.48456   -2370.9437 
 9420000    263.19982   -3850.7261   -3399.6107   -3850.7261            0     10973.37    16.866486    19.866493    20.577074    6894.9232    11180.527    11212.561    10527.022   -791.05961    891.11817   -399.73156   -2296.1793 
 9421000    270.35262   -3859.7158   -3396.3407   -3859.7158            0    10072.071    16.853582    19.851293    20.561331    6879.1098    7733.6212    11270.827    11211.765   -923.10152   -994.25213   -730.63151   -2385.8625 
 9422000    267.31814   -3855.1046   -3396.9304   -3855.1046            0    10936.318    16.802139      19.7907     20.49857    6816.3094    12575.772    8433.0525    11800.131    120.17414   -333.18698    1677.2639   -2309.7633 
 9423000    278.87118   -3859.0071   -3381.0314   -3859.0071            0     11295.68    16.798694    19.786642    20.494367    6812.1174    12879.352    10305.297    10702.391    -753.2665    990.85902   -177.52757   -2258.8311 
 9424000    262.50261   -3853.6279   -3403.7074   -3853.6279            0    9462.3415    16.897725    19.903288    20.615185    6933.3048    9814.6353    9167.1572     9405.232   -111.65278   -1892.1896   -1081.9406   -2446.9215 
 9425000    266.37405   -3852.1602   -3395.6042   -3852.1602            0    8455.6452    16.971011    19.989609    20.704593    7023.9064    9028.8467    9786.5824    6551.5066    532.33049    -552.8878   -1493.4461   -2529.4377 
 9426000    265.91982   -3861.4984   -3405.7209   -3861.4984            0    9470.9684    16.900037    19.906011    20.618005     6936.151    10984.277    10388.403    7040.2244    1165.6879   -374.78148   -672.78848   -2447.6695 
 9427000     273.2811    -3834.371   -3365.9765    -3834.371            0    9178.7085    16.916974    19.925961    20.638669    6957.0259     7277.103    8879.9649    11379.058     -2416.46    346.25424    1903.3548   -2434.6948 
 9428000    267.86228    -3821.237   -3362.1302    -3821.237            0    8368.5746    16.908615    19.916115    20.628471    6946.7186    8897.4241    7252.1759    8956.1237    426.46232   -332.92021    324.01209   -2514.3035 
 9429000    256.08534   -3842.7736   -3403.8521   -3842.7736            0    7719.6535    16.952028    19.967249    20.681434    7000.3627    7218.5898    7464.5767     8475.794     1121.522   -528.74626    1154.1179   -2615.7286 
 9430000    275.26219   -3865.4385   -3393.6485   -3865.4385            0    8223.5899    16.906737    19.913903     20.62618     6944.404    8713.5208    8958.7322    6998.5165   -293.58063   -42.393622    122.06628   -2560.7879 
 9431000    263.93689   -3833.5841   -3381.2053   -3833.5841            0    8938.4254     16.95066    19.965638    20.679765    6998.6683    9526.0774    7597.8511    9691.3477    1666.0317   -568.83046   -1226.9077   -2468.8745 
 9432000    276.55888   -3845.6896   -3371.6771   -3845.6896            0    9148.0253    16.970662    19.989198    20.704168    7023.4736    8205.2279    10490.174    8748.6738   -386.58786    -1721.742   -489.84005   -2434.6434 
 9433000    255.36127   -3877.1797   -3439.4992   -3877.1797            0    10062.323    16.957774    19.974018    20.688445    7007.4842    12775.846     8379.855    9031.2679    91.950035     1286.311    1017.8723   -2411.1603 
 9434000    260.87509   -3869.8782   -3422.7472   -3869.8782            0     9056.874    16.964554    19.982004    20.696716    7015.8926    11055.307    7501.1458    8614.1692   -213.10948    343.24965   -399.37368   -2496.0515 
 9435000    286.92009   -3852.4414   -3360.6702   -3852.4414            0    10159.935    16.957419      19.9736    20.688012    7007.0441    9413.0748    11602.347    9464.3841    1192.8446    1411.9365    1036.9733   -2322.4208 
 9436000    281.30742   -3858.0834   -3375.9321   -3858.0834            0    7431.4257    16.994754    20.017576    20.733561    7053.4284    7253.7192    7877.2971    7163.2607    1145.2134    1370.4093   -737.41555   -2611.4835 
 9437000     263.7788   -3866.7807   -3414.6729   -3866.7807            0    8901.1024    16.906569    19.913705    20.625974    6944.1965    9451.4492      8878.92    8372.9379   -1113.3602   -1057.8375    67.583184   -2513.2228 
 9438000      269.283    -3820.857   -3359.3152    -3820.857            0    11614.495    16.882199       19.885    20.596243    6914.2107    10088.205    11412.155    13343.123    1081.8431   -1231.9766    2533.2388   -2188.1482 
 9439000    252.64193   -3845.1032   -3412.0836   -3845.1032            0     10364.87    16.883177    19.886152    20.597437    6915.4128    10038.031    10808.749     10247.83   -529.45191    801.67011   -1453.9468   -2366.7429 
 9440000    279.34806   -3812.0076   -3333.2145   -3812.0076            0    10934.998    16.828103    19.821282    20.530246    6847.9574    12106.611     9292.425    11405.958    1674.4144   -1182.5829    1555.8958   -2241.1315 
 9441000    260.86958   -3808.6854   -3361.5639   -3808.6854            0    8924.9834    16.889662     19.89379    20.605348    6923.3841    8243.3359    9062.6932    9468.9213   -220.49078    439.60872   -730.79832   -2460.4042 
 9442000    270.30972   -3825.2221   -3361.9205   -3825.2221            0    10515.303     16.88441    19.887604     20.59894    6916.9275    10108.509    11088.504    10348.897    506.39273    154.84853    781.37077   -2301.1757 
 9443000    255.84488   -3800.9662   -3362.4568   -3800.9662            0    10702.912    16.916516    19.925421     20.63811    6956.4609    10141.203    10079.276    11888.255   -1437.6663   -1482.4696   -823.02559    -2276.616 
 9444000    281.52859   -3859.2346   -3376.7042   -3859.2346            0    10006.649    16.918477    19.927731    20.640503    6958.8809    8955.9271    9967.2342    11096.785   -393.16983   -1016.3283   -135.75716   -2361.1481 
 9445000    254.07917   -3844.6593   -3409.1763   -3844.6593            0    10031.474    16.913744    19.922156    20.634728    6953.0418    9344.3057    9789.6427    10960.472    1085.3493   -303.22728   -960.66232    -2391.955 
 9446000    267.29119   -3868.4721   -3410.3441   -3868.4721            0     6715.996    16.984752    20.005794    20.721358    7040.9815    6975.2028    6992.7508    6180.0345   -889.50034    281.78457   -209.50539   -2720.7087 
 9447000     259.8725   -3849.4705   -3404.0579   -3849.4705            0    8578.5592    17.000969    20.024896    20.741142     7061.169    8932.5519    8380.7705    8422.3552   -873.46376    435.61916     1338.723   -2520.6387 
 9448000    269.57556   -3832.0193    -3369.976   -3832.0193            0    10166.523    16.947373    19.961766    20.675755    6994.5975    11418.187     10455.23    8626.1544   -125.20139    583.36127   -736.55246   -2332.8988 
 9449000    276.80216   -3849.5453   -3375.1158   -3849.5453            0    10321.305    16.929242    19.940411    20.653636    6972.1732    9582.8959    9988.9769    11392.041   -1090.4176    1500.8056    152.01061    -2325.625 
 9450000    267.95865    -3844.261   -3384.9891    -3844.261            0    9189.9387    16.945804    19.959918    20.673841    6992.6551    10764.835    8191.8625    8613.1181   -58.444111   -87.641273    578.32712   -2447.7927 
 9451000    257.44609   -3827.9738     -3386.72   -3827.9738            0    8515.4195    16.930096    19.941416    20.654677    6973.2273    10335.706    7045.1957    8165.3566    305.32803    452.85463   -625.25078   -2520.7242 
 9452000    258.58332   -3828.5229   -3385.3199   -3828.5229            0     7754.236    16.942484    19.956008    20.669791    6988.5459    7225.9146    9549.3636    6487.4299    570.48105   -850.22279    761.12335   -2595.0022 
 9453000    255.70551   -3884.2539   -3445.9834   -3884.2539            0    8202.9741    17.007778    20.032916     20.74945     7069.657    7752.0333    7588.2725    9268.6164    211.67848    903.92863   -1732.2957   -2600.2265 
 9454000    258.28133   -3862.8336   -3420.1483   -3862.8336            0    9562.1588    16.954417    19.970063    20.684349    7003.3229    10422.213    10021.145    8243.1182   -436.91127   -1027.2926   -20.930229   -2443.5049 
 9455000    255.40056   -3873.3762   -3435.6284   -3873.3762            0    9973.3137    16.918922    19.928255    20.641045    6959.4292    13720.645    9126.7569    7072.5389    506.64921     388.2592    277.74364   -2423.3756 
 9456000    271.49268   -3924.8484   -3459.5193   -3924.8484            0    9640.9943    16.944316    19.958166    20.672026    6990.8131    9732.1733    8759.8195     10430.99    98.394838    573.78226   -35.131641   -2476.5829 
 9457000     257.5866   -3848.6526    -3407.158   -3848.6526            0    8832.6647    16.937526    19.950169    20.663743    6982.4131    10345.062    7744.4329    8408.4992   -971.39065   -712.95971   -711.33687    -2507.716 
 9458000    264.03136    -3827.964   -3375.4233    -3827.964            0    10009.656    16.947848    19.962327    20.676335    6995.1866    11003.366    10030.252    8995.3485    1862.6435   -1639.7391   -710.57181    -2354.262 
 9459000    265.16172   -3835.7828   -3381.3047   -3835.7828            0    9447.2884    16.926689    19.937404    20.650521    6969.0188    9095.1794    8340.2172    10906.468    1045.5295   -1449.1812   -190.95524   -2421.1202 
 9460000    271.05224   -3828.8401   -3364.2659   -3828.8401            0    8045.9685    16.959603    19.976172    20.690676    7009.7515    7832.5004    6443.7974    9861.6078    943.44811   -260.03109   -1123.6788   -2541.7262 
 9461000    266.70284   -3841.2906   -3384.1711   -3841.2906            0    10782.541    16.865998    19.865917    20.576478     6894.324    9570.5477     11312.15    11464.925   -945.12167    775.59849    428.90957   -2300.0228 
 9462000    264.87589   -3858.0155   -3404.0273   -3858.0155            0     10066.35    16.925684     19.93622    20.649295    6967.7771     9515.614    9985.6266    10697.809    446.53791   -1647.0489    43.014181   -2381.1061 
 9463000    269.55055   -3839.2731   -3377.2727   -3839.2731            0    7222.3281    16.982452    20.003086    20.718552    7038.1223    7010.2127    7102.0913    7554.6804   -1030.2495   -721.88716    -234.1243   -2635.9455 
 9464000    267.57494   -3854.2317   -3395.6174   -3854.2317            0    8477.0955    16.915366    19.924067    20.636707    6955.0422    9505.1573    8659.3464    7266.7829    325.76188    69.669327    -1798.023   -2535.7673 
 9465000    249.63453   -3869.3659   -3441.5008   -3869.3659            0      6982.56    16.956262    19.972237      20.6866    7005.6095    8288.2784    7373.9078    5285.4939    -217.6908   -911.84036   -305.94393   -2728.0953 
 9466000    273.34899   -3865.8961   -3397.3853   -3865.8961            0    10518.306    16.865746    19.865621    20.576171    6894.0155    9827.9751     13173.59    8553.3535   -258.52709    231.27437    262.41313   -2339.8522 
 9467000    264.02784   -3880.0932   -3427.5585   -3880.0932            0    10331.283    16.896799    19.902198    20.614056    6932.1656    10375.307    7936.2596    12682.282   -1130.6114    623.89271    1041.4195    -2383.081 
 9468000      269.612    -3844.007   -3381.9012    -3844.007            0    7154.9048    16.994085    20.016787    20.732744    7052.5951    5474.0179    9440.6794    6550.0172   -529.42358   -613.89039   -605.16944   -2645.9845 
 9469000    276.10874   -3836.7391   -3363.4982   -3836.7391            0     9653.375      16.9507    19.965685    20.679814     6998.718    10500.731    9868.7438    8590.6501   -2069.3739   -63.950542    705.80359   -2378.1867 
 9470000    260.57391   -3867.9802   -3421.3655   -3867.9802            0    9026.4991    16.875061    19.876593    20.587536    6905.4451    9514.3772     9157.586     8407.534   -617.05792   -946.12318     1005.286   -2512.3173 
 9471000    272.19018   -3844.4517    -3377.927   -3844.4517            0    9093.8002    16.961509    19.978417    20.693001     7012.115    8082.6791    8519.0782    10679.643   -212.55424   -3.4230067    123.84362    -2447.954 
 9472000    262.89639   -3841.3359   -3390.7405   -3841.3359            0    7270.3428    16.982177    20.002762    20.718217    7037.7802    6085.8929    7043.1394     8681.996   -434.53932    1038.1608    446.44845   -2644.5212 
 9473000    263.44347    -3848.218   -3396.6849    -3848.218            0    9326.1856    16.965164    19.982722    20.697461    7016.6495    10504.391    8929.8971    8544.2686    1134.1244    1555.2864    -135.3669   -2442.3304 
 9474000    265.96466   -3834.9999   -3379.1455   -3834.9999            0    7914.3733    16.906787    19.913962    20.626241    6944.4659    9448.8148    6395.3992    7898.9058    604.73389   -278.82201    1006.4068   -2577.5943 
 9475000    248.33589   -3828.0907   -3402.4515   -3828.0907            0    8333.1695    16.899078    19.904881    20.616835    6934.9702    7334.6041    9230.2828    8434.6217     1081.566    2519.5567     1333.127   -2559.6395 
 9476000    268.63249   -3852.3932   -3391.9663   -3852.3932            0    9433.0273    16.897969    19.903575    20.615483    6933.6052    7537.2779    10554.551    10207.253    1436.8879   -958.38822    477.31689   -2438.1031 
 9477000    278.32528   -3807.4339   -3330.3939   -3807.4339            0    8800.2846    16.988025    20.009649    20.725351    7045.0527    8392.6944    10900.958    7107.2019    713.77004    454.84436   -1309.8572   -2426.2099 
 9478000    272.25464   -3816.5358   -3349.9006   -3816.5358            0    11856.545     16.81677    19.807933     20.51642    6834.1312    12482.193    10963.784    12123.657   -2062.5717    1106.9456    1111.3417   -2168.1731 
 9479000     280.4239   -3830.9855   -3350.3486   -3830.9855            0    9374.6765    16.915329    19.924023    20.636662    6954.9968    9788.5547    11637.495    6697.9796    162.72277   -504.91832    1134.4845   -2399.4611 
 9480000    278.53742   -3820.6719   -3343.2683   -3820.6719            0    9296.8568    16.924497    19.934822    20.647847    6966.3114    7954.9208    8329.2087    11606.441    1588.2038   -316.69106   -1282.1475   -2398.7401 
 9481000    263.60122    -3824.083   -3372.2795    -3824.083            0    8426.0917    16.937436    19.950062    20.663632    6982.3012    8071.5685    9038.8068    8167.8998    167.74858    338.18059    19.689215   -2514.2531 
 9482000    266.23364   -3853.7621   -3397.4468   -3853.7621            0    9094.3045    16.967871    19.985911    20.700763    7020.0086    9888.6531    8767.3892    8626.8711   -1217.1503    926.46767    2109.6115   -2466.3753 
 9483000    261.40369   -3855.7508   -3407.7138   -3855.7508            0    9979.7008    16.919664     19.92913    20.641951    6960.3458    10295.747    11206.999     8436.356    735.70608      -38.078   -831.78885   -2394.6793 
 9484000    273.89084   -3853.5438   -3384.1042   -3853.5438            0    9963.3027    16.888585    19.892522    20.604034    6922.0599    10946.662    9896.0748    9047.1714    423.02155   -555.19048   -1216.6232   -2378.2974 
 9485000     271.3366     -3893.26   -3428.1984     -3893.26            0    9911.3037    16.845164    19.841378     20.55106    6868.8068    8916.9876    12003.568     8813.356    365.64946    1203.1479    76.879626   -2435.3385 
 9486000    273.03422   -3881.4385   -3413.4672   -3881.4385            0    9887.1189    16.884647    19.887884     20.59923    6917.2198    8926.1473    9645.9366    11089.273   -88.006641   -92.012291    1791.6725   -2416.0491 
 9487000    268.87621   -3868.9668   -3408.1222   -3868.9668            0    10037.405     16.84921    19.846144    20.555997    6873.7576    8841.1059    9501.1099    11769.999   -1317.1489    1606.5801     1120.789   -2401.9054 
 9488000    265.99146   -3851.2544   -3395.3542   -3851.2544            0    9838.6176    16.874929    19.876437    20.587373     6905.282     8328.172    11364.577    9823.1036   -309.17776    -1007.676    1196.2921   -2404.5419 
 9489000    256.75126    -3866.159   -3426.0961    -3866.159            0    7278.8289    16.940701    19.953908    20.667616    6986.3404    6524.1546    8528.7255    6783.6064    4.4631746   -356.47246   -25.339695   -2684.4664 
 9490000     259.6424     -3852.49   -3407.4718     -3852.49            0    9234.8373    16.894549    19.899547     20.61131    6929.3962     9480.381    7791.7859    10432.345    1598.4492    754.26738   -896.55969   -2474.2164 
 9491000    254.50756   -3891.7232   -3455.5059   -3891.7232            0     7593.985    16.909606    19.917282     20.62968    6947.9401    5642.0301    8008.0255    9131.8993    784.58893    564.44025   -2406.2953   -2686.0182 
 9492000    269.48338   -3891.5374   -3429.6521   -3891.5374            0    9247.2894    16.913095    19.921392    20.633937     6952.242    8719.4147      10662.2    8360.2536    605.35977    962.53181    490.60165   -2492.0573 
 9493000    260.96215   -3840.2447   -3392.9646   -3840.2447            0    12130.915    16.849859    19.846908    20.556788    6874.5516    10384.153    11302.817    14705.775   -342.41508    125.21785   -901.40631   -2176.7398 
 9494000    268.65933   -3856.4077   -3395.9348   -3856.4077            0    9645.3417    16.872167    19.873184    20.584005    6901.8927    10144.846    9189.1905    9601.9883    -297.2013   -365.42889    71.108685   -2425.0634 
 9495000    270.57406   -3844.6868   -3380.9321   -3844.6868            0    10342.767    16.826424    19.819305    20.528198    6845.9084     9097.811    11931.899    9998.5913    1950.6226    682.28439    1046.2731   -2348.3045 
 9496000     262.6082   -3860.6477   -3410.5462   -3860.6477            0     8163.171    16.843422    19.839327    20.548936    6866.6766    7385.2686    8221.9872    8882.2573    11.490913    -370.6561    2213.2453   -2593.0583 
 9497000    260.33433   -3860.2155   -3414.0113   -3860.2155            0    8204.8372    16.878954    19.881178    20.592285     6910.225    6597.1017    9697.9168    8319.4931   -1143.5705    -358.9638    583.14236   -2587.1398 
 9498000     275.8158   -3888.5759    -3415.837   -3888.5759            0    7056.2653    16.915293    19.923981    20.636618    6954.9523    7404.5357    6152.1615    7612.0986    782.87525   -1390.2537   -913.18522   -2700.1141 
 9499000    260.31674   -3888.1559   -3441.9819   -3888.1559            0    9666.7553     16.83378     19.82797    20.537173     6854.891    9808.6154     9638.211    9553.4396   -57.266316   -580.89758   -216.46775   -2475.5814 
 9500000    276.57448   -3862.9353   -3388.8961   -3862.9353            0    8412.6922    16.895698      19.9009    20.612712      6930.81    8744.6217    9179.3846    7314.0703     110.0966    433.70348    1451.2894   -2538.5517 
Loop time of 483.742 on 64 procs for 250000 steps with 864 atoms

Performance: 89.304 ns/day, 0.269 hours/ns, 516.804 timesteps/s
99.1% CPU use with 64 MPI tasks x 1 OpenMP threads

MPI task timing breakdown:
Section |  min time  |  avg time  |  max time  |%varavg| %total
---------------------------------------------------------------
Pair    | 22.347     | 27.041     | 31.34      |  47.6 |  5.59
Bond    | 0.2877     | 0.29706    | 0.31063    |   0.9 |  0.06
Kspace  | 203        | 216.31     | 227.56     |  35.4 | 44.72
Neigh   | 5.4375     | 6.6684     | 7.7137     |  25.1 |  1.38
Comm    | 99.538     | 112.94     | 128.73     |  60.0 | 23.35
Output  | 1.6429     | 1.645      | 1.6704     |   0.3 |  0.34
Modify  | 108.82     | 114.09     | 119.59     |  31.9 | 23.59
Other   |            | 4.742      |            |       |  0.98

Nlocal:        13.5000 ave          18 max           8 min
Histogram: 1 1 6 9 5 9 8 11 6 8
Nghost:        2285.77 ave        2320 max        2244 min
Histogram: 1 2 5 8 9 13 8 13 3 2
Neighs:        4451.02 ave        6618 max        2635 min
Histogram: 1 8 12 9 4 10 10 4 4 2

Total # of neighbors = 284865
Ave neighs/atom = 329.70486
Ave special neighs/atom = 2.0000000
Neighbor list builds = 14481
Dangerous builds = 0

unfix		3
unfix		2
unfix		1

write_data	data.final.${pid}
write_data	data.final.0
System init for write_data ...
PPPM initialization ...
  extracting TIP4P info from pair style
  using 12-bit tables for long-range coulomb (../kspace.cpp:340)
  G vector (1/distance) = 0.37464736
  grid = 24 24 24
  stencil order = 5
  estimated absolute RMS force accuracy = 0.0031172674
  estimated relative force accuracy = 9.3875581e-06
  using double precision FFTW3
  3d grid and FFT values/proc = 2535 216
Last active /omp style is kspace_style pppm/tip4p/omp
WARNING: Not all mixed pair coeffs generated from mixing. Use write_data with 'pair ij' option to store all pair coeffs. (../write_data.cpp:312)

write_restart   restart.lmp.${pid}
write_restart   restart.lmp.0
System init for write_restart ...
PPPM initialization ...
  extracting TIP4P info from pair style
  using 12-bit tables for long-range coulomb (../kspace.cpp:340)
  G vector (1/distance) = 0.37464736
  grid = 24 24 24
  stencil order = 5
  estimated absolute RMS force accuracy = 0.0031172674
  estimated relative force accuracy = 9.3875581e-06
  using double precision FFTW3
  3d grid and FFT values/proc = 2535 216
Last active /omp style is kspace_style pppm/tip4p/omp
Total wall time: 0:08:07
