#include		in.partitions
include		in.temp
variable        temperature equal 217.72
variable	tempDamp equal 100.0
include		in.pressure
variable        pressure equal 1604.7
variable        pressureDamp equal 1000.0 # This is 1 ps
include		in.seed
variable        seed equal 745823

units		real
atom_style	full

read_restart	restart.lmp.${pid}
read_restart	restart.lmp.1
Reading restart file ...
  restart file = 30 Jul 2021, LAMMPS = 30 Jul 2021
  restoring atom style full from restart
  orthogonal box = (-0.12244489 -0.014724913 -0.15550615) to (20.122446 20.014726 20.855504)
  4 by 2 by 4 MPI processor grid
  restoring pair style lj/cut/tip4p/long/omp from restart
  restoring bond style harmonic/omp from restart
  restoring angle style harmonic/omp from restart
  972 atoms
  648 bonds
  324 angles
Finding 1-2 1-3 1-4 neighbors ...
  special bond factors lj:    0        0        0       
  special bond factors coul:  0        0        0       
     2 = max # of 1-2 neighbors
     1 = max # of 1-3 neighbors
     1 = max # of 1-4 neighbors
     2 = max # of special neighbors
  special bonds CPU = 0.002 seconds
  read_restart CPU = 0.007 seconds
include 	in.setup
variable	out_freq equal 1000
variable	out_freq2 equal 10000
variable	out_freq3 equal 1000

timestep	2.0

neigh_modify    delay 7 every 1

include		in.tip4p
# This is TIP4P/Ice

# create groups ###
group ox type 2
324 atoms in group ox
group hy type 1
648 atoms in group hy

# set charges - beside manually ###
set group ox charge -1.1794
Setting atom values ...
  324 settings made for charge
set group hy charge 0.5897
Setting atom values ...
  648 settings made for charge

# ### TIP3P Potential Parameters ###
pair_style lj/cut/tip4p/long/omp 2 1 1 1 0.1577 8.5
pair_coeff 1 1*2 0.000 0.000
pair_coeff 2 2 0.21084 3.1668
bond_style  harmonic
bond_coeff  1 450 0.9572
angle_style harmonic
angle_coeff 1 55 104.52
kspace_style pppm/tip4p/omp 1.0e-5
pair_modify tail yes

thermo          ${out_freq}
thermo          1000
thermo_style    custom step temp pe etotal epair emol press lx ly lz vol pxx pyy pzz pxy pxz pyz enthalpy

restart 	${out_freq3} restart.lmp.${pid} restart2.lmp.${pid}
restart 	1000 restart.lmp.${pid} restart2.lmp.${pid}
restart 	1000 restart.lmp.1 restart2.lmp.${pid}
restart 	1000 restart.lmp.1 restart2.lmp.1


include         in.dump
dump            myDump all atom ${out_freq2} dump.water.${pid}
dump            myDump all atom 10000 dump.water.${pid}
dump            myDump all atom 10000 dump.water.1
dump            myDump2 all dcd ${out_freq2} dump.dcd
dump            myDump2 all dcd 10000 dump.dcd
dump_modify     myDump append yes
dump_modify     myDump2 append yes


variable natoms 	equal  "count(all)"                        # NUMBER ATOMS
variable H      	equal  "enthalpy/v_natoms"                 # ENTHALPY-per-atom
variable Vol      	equal  "vol/v_natoms"                 # volume-per-atom
fix AVG all 		ave/time ${out_freq} 1 ${out_freq} v_Vol v_H file vol_enthalpy.dat
fix AVG all 		ave/time 1000 1 ${out_freq} v_Vol v_H file vol_enthalpy.dat
fix AVG all 		ave/time 1000 1 1000 v_Vol v_H file vol_enthalpy.dat


timer           timeout 02:55:00 every 1000
New timer settings: style=normal  mode=nosync  timeout=02:55:00

fix 		1 all shake 1e-6 200 0 b 1 a 1
       0 = # of size 2 clusters
       0 = # of size 3 clusters
       0 = # of size 4 clusters
     324 = # of frozen angles
  find clusters CPU = 0.001 seconds
fix             2 all nph aniso ${pressure} ${pressure} ${pressureDamp}
fix             2 all nph aniso 1604.7 ${pressure} ${pressureDamp}
fix             2 all nph aniso 1604.7 1604.7 ${pressureDamp}
fix             2 all nph aniso 1604.7 1604.7 1000
fix             3 all temp/csvr ${temperature} ${temperature} ${tempDamp} ${seed}
fix             3 all temp/csvr 217.72 ${temperature} ${tempDamp} ${seed}
fix             3 all temp/csvr 217.72 217.72 ${tempDamp} ${seed}
fix             3 all temp/csvr 217.72 217.72 100 ${seed}
fix             3 all temp/csvr 217.72 217.72 100 745823


run             250000
PPPM initialization ...
  extracting TIP4P info from pair style
  using 12-bit tables for long-range coulomb (../kspace.cpp:340)
  G vector (1/distance) = 0.37173769
  grid = 24 24 25
  stencil order = 5
  estimated absolute RMS force accuracy = 0.0034903352
  estimated relative force accuracy = 1.0511041e-05
  using double precision FFTW3
  3d grid and FFT values/proc = 3458 576
Last active /omp style is kspace_style pppm/tip4p/omp
Neighbor list info ...
  update every 1 steps, delay 7 steps, check yes
  max neighbors/atom: 2000, page size: 100000
  master list distance cutoff = 10.8154
  ghost atom cutoff = 10.8154
  binsize = 5.4077, bins = 4 4 4
  1 neighbor lists, perpetual/occasional/extra = 1 0 0
  (1) pair lj/cut/tip4p/long/omp, perpetual
      attributes: half, newton on, omp
      pair build: half/bin/newton/omp
      stencil: half/bin/3d
      bin: standard
Per MPI rank memory allocation (min/avg/max) = 10.19 | 10.19 | 10.20 Mbytes
Step Temp PotEng TotEng E_pair E_mol Press Lx Ly Lz Volume Pxx Pyy Pzz Pxy Pxz Pyz Enthalpy 
 7000000    223.86314    -4754.914   -4323.1751    -4754.914            0    496.70975    20.244891    20.029451     21.01101    8519.8395    47.272594    844.08842    598.76824    -5.350218    971.78201   -129.04145   -4261.4574 
 7001000     217.8737   -4790.9366   -4370.7489   -4790.9366            0    2358.7698    20.116756    20.136669    20.848786    8445.5189    1932.0382    1803.3166    3340.9546   -347.94743   -559.73483   -1203.1479    -4080.221 
 7002000    212.83716   -4779.5075   -4369.0331   -4779.5075            0    1367.7305    20.009065    20.338441    21.016167    8552.5963    2562.8633    376.48445    1163.8439    513.81104   -538.26693   -1358.5184   -4198.4349 
 7003000    214.98451   -4786.5823   -4371.9665   -4786.5823            0    1632.0824    20.362007    19.854157    20.890144    8445.2686    538.87334    2571.8404    1785.5336   -146.21249   -1311.9978    1242.0349   -4170.9502 
 7004000    199.06663    -4780.336   -4396.4193    -4780.336            0     694.8914    20.111484    20.101509    20.981156    8482.0762    291.80403    1590.4872    202.38298    119.89283   -233.92014    406.97257   -4310.4596 
 7005000    216.63808    -4784.894   -4367.0892    -4784.894            0    1726.4417    20.077926    20.081628     21.18494    8541.7139    1734.7712    2030.8362    1413.7177   -60.984383   -783.06755   -585.67139   -4152.0227 
 7006000    219.92451   -4775.7606   -4351.6177   -4775.7606            0    2785.8458    20.002559    20.136298    20.908594    8421.5113     4676.185    1998.7815     1682.571    271.66331    1319.4322   -177.45413   -4009.4626 
 7007000     223.4614   -4794.6762   -4363.7121   -4794.6762            0    1766.4335    20.059713    20.158105     20.87612    8441.5889    1324.1619    1512.0098    2463.1288   -422.62294    940.36561   -722.95772   -4146.2431 
 7008000    223.73631    -4799.406   -4367.9117    -4799.406            0    236.82344    20.292058    20.051323    20.938938    8519.6901    117.78168   -656.78812    1249.4768   -478.11068   -162.88601    1161.3237   -4338.4862 
 7009000     215.2413   -4751.8492   -4336.7382   -4751.8492            0    2755.9355    19.969976    20.093169    21.165008    8492.6728    1818.4659    3639.2463    2810.0942   -256.74627    -662.7793    701.29029   -3995.3965 
 7010000    214.15802   -4764.6586   -4351.6369   -4764.6586            0    2187.5391    20.018678    20.206497    20.903848    8455.7599    4022.6136    1241.9829    1298.0209    86.750386    169.17907   -698.00182   -4081.8727 
 7011000    214.81228   -4786.9245   -4372.6409   -4786.9245            0     2886.486     20.18086    20.066605    20.884387    8457.3694    1562.8281    3994.5781    3102.0517   -316.71923    481.32134    261.79713   -4016.6158 
 7012000    223.60684   -4752.3505   -4321.1059   -4752.3505            0    1517.4141     20.09114    19.867631    21.208872     8465.805    737.55483    2321.2951    1493.3923    75.372627   -294.03511    2098.1964   -4133.7582 
 7013000    227.55676   -4772.5626   -4333.7003   -4772.5626            0    594.75843    20.255969    19.992181     21.07649    8535.1568    112.50991    1301.3176    370.44778    115.80965   -1152.7203   -567.05542   -4259.6668 
 7014000    219.17161   -4798.2095   -4375.5187   -4798.2095            0    2106.2529    20.061345    19.884162    21.158433    8440.1632    904.23311    4048.2121    1366.3135    232.54557    1995.9447    -153.5148   -4116.2576 
 7015000    224.55831   -4798.9855   -4365.9059   -4798.9855            0   -1.2331475    20.113734    20.413056    20.823529    8549.7825   -359.37792   -1676.6308    2032.3093    133.06774   -245.70219   -256.98736   -4366.0597 
 7016000    213.17137   -4777.1292   -4366.0103   -4777.1292            0     880.5934    20.170384    20.133123     20.97427    8517.5006    287.97066    1157.0754    1196.7342   -313.94163   -471.66915     -1156.71   -4256.6238 
 7017000    217.62191   -4791.4464   -4371.7443   -4791.4464            0     509.0866    20.255396    19.983368    21.167277    8567.9006   -1242.7201     3050.841   -280.86105     51.31513   -170.30548    369.71954   -4308.1319 
 7018000    218.15976   -4808.1405    -4387.401   -4808.1405            0    2764.1985    20.312902    19.936241    20.684573    8376.4846    2446.6175    1835.4875    4010.4904   -280.26952    832.26071     -612.557   -4049.7198 
 7019000    209.33615   -4777.0622   -4373.3398   -4777.0622            0    339.35512    20.246198    20.058518    21.110852    8573.3007    1233.8495   -171.40142   -44.382697   -513.23541    681.22332    975.91714   -4330.9093 
 7020000    214.91787   -4787.6004   -4373.1132   -4787.6004            0    2166.0181    20.077659    20.053976    21.135383    8509.8846    1891.4456    2967.6836    1638.9252   -650.04335  -0.36983562    57.724909   -4104.2932 
 7021000    222.98831   -4814.2214   -4384.1697   -4814.2214            0    1003.5031    20.157247    19.952966    21.024875     8456.139     117.7418    1498.5015     1394.266    124.21939   -721.96707    809.37702   -4260.4136 
 7022000    219.76608   -4791.8907   -4368.0533   -4791.8907            0    902.80665    20.121022    20.101887    21.077527     8525.238    1662.9603   -229.78572    1275.2454   -355.31549    191.42558    779.86489   -4255.8057 
 7023000    213.46827   -4796.9315     -4385.24   -4796.9315            0    2506.7978    19.994714     20.18924    20.895844    8435.1942    2453.0327    2028.6858    3038.6748   -425.72351   -73.481834   -11.166226   -4076.8571 
 7024000    224.08995   -4758.0068   -4325.8305   -4758.0068            0    1720.7815    19.956273    20.050387    21.242653    8499.8437    2274.5821    1492.8459    1394.9165   -460.22621    -140.1435    -1059.163   -4112.5198 
 7025000    228.43859   -4779.0057   -4338.4427   -4779.0057            0    2245.9291     20.15136    20.224323    20.774451    8466.5776    1047.1243    2719.4264    2971.2367   -1348.0476    1086.1921   -1385.6391   -4061.1235 
 7026000    222.17472   -4768.7937   -4340.3111   -4768.7937            0    2138.0228     19.96034    20.208793    21.127528    8522.3037    3207.2565    306.75866    2900.0532   -831.07574     891.4214   -365.69697   -4074.5782 
 7027000    224.29441   -4768.1686    -4335.598   -4768.1686            0    1018.6224    20.100711    20.053768    21.176635    8536.1956    98.618672    1206.0224    1751.2262   0.55821456   -733.46734   -512.03292    -4208.788 
 7028000    220.48113   -4802.2116   -4376.9952   -4802.2116            0    1385.4533    20.082587    19.981929     21.08302    8460.3799    1491.9827    1639.2057    1025.1716   -409.05998     685.2935   -182.41607   -4206.0497 
 7029000    217.86999   -4780.6552   -4360.4746   -4780.6552            0    2056.5542     20.28936     20.06052    21.004819    8549.2786    655.93715    3006.4323     2507.293   -630.54495    1424.2241   -114.48297   -4104.0584 
 7030000    226.62041   -4791.8475    -4354.791   -4791.8475            0    1277.1493    20.168537    20.002169    21.117391    8519.0612   -35.958123    2408.4479    1458.9581   -303.44172    471.81538    795.34187   -4196.1157 
 7031000    226.95038   -4781.3678   -4343.6749   -4781.3678            0    870.36548    20.175197    20.217504    20.933625    8538.6606    335.65238      600.667    1674.7771    285.05677    186.84958   -459.58955   -4235.2904 
 7032000    220.75601   -4785.2879   -4359.5414   -4785.2879            0    453.90455    20.133133    20.096724    21.179868    8569.5867    -337.3592    548.40561    1150.6672   -697.97172    902.01947    357.11066    -4302.813 
 7033000    221.30295    -4785.436   -4358.6347    -4785.436            0    3712.9734    20.257632    19.881028    20.971431    8446.0877     3402.458    2916.9349    4819.5275    344.52118   -669.58526    -843.1178   -3901.2798 
 7034000    215.57642   -4797.0884   -4381.3311   -4797.0884            0    1823.9384    20.211877    19.996032     21.03531    8501.5748    2120.2166    1815.6302    1535.9683    515.57585    -85.78029    700.71622    -4155.187 
 7035000    209.94559   -4811.3759   -4406.4782   -4811.3759            0    3868.3011     20.04114     20.05168    20.933657    8412.3685    2799.9427     3430.301    5374.6597    -198.9938    7.3112876    676.48556   -3931.8927 
 7036000    211.22487   -4796.9698   -4389.6048   -4796.9698            0    429.13586    20.024215    20.249175     20.95707    8497.5434    2040.7046   -1437.3138    684.01687   -215.36207    627.35803   -994.13539   -4336.4229 
 7037000    212.21361   -4784.3632   -4375.0914   -4784.3632            0    1416.3402    20.128105    20.279215    20.892127    8527.7939    1193.2006    1072.5115    1983.3084   -536.49236    298.64822   -817.97957   -4198.9424 
 7038000    222.58641   -4777.3853   -4348.1087   -4777.3853            0    1847.9027    20.210082    19.983679     21.02408    8491.0328     749.3456    3029.2453    1765.1171   -9.5405756    807.52141    1827.4275   -4119.2773 
 7039000    213.09211   -4797.0082   -4386.0422   -4797.0082            0    1694.3972    19.927025    20.199247    21.030367    8464.9518     3178.529    85.318809    1819.3438    -354.5741   -15.624325   -296.92503   -4176.8644 
 7040000    213.24746   -4777.8522   -4366.5866   -4777.8522            0   -5.8868447    20.119157    20.287084    20.820746    8498.1754     -1974.83     1424.135    533.03438   -297.04612    -296.9352   -2111.6999   -4367.3162 
 7041000    220.02755   -4781.6563   -4357.3147   -4781.6563            0    831.58275    19.965312    20.045271    21.441037    8580.9192    964.90517    1802.7469   -272.90379   -370.09336   -402.33453    793.64873   -4253.2472 
 7042000     227.9002   -4818.9775   -4379.4528   -4818.9775            0     2591.395    20.093838    20.070658    20.968298    8456.4421    1633.6646    3002.6668    3137.8536    46.820304     698.1326    380.34451   -4059.8598 
 7043000    220.06992   -4778.4429   -4354.0196   -4778.4429            0    1085.6637    20.107076     20.11163    21.007172    8495.0078    1570.7107    1580.1278    106.15256    171.66875   -720.49064    590.43587   -4219.5157 
 7044000    211.73991   -4800.4908   -4392.1326   -4800.4908            0    1519.4873    20.036012     20.08373    21.190253    8526.9125    3233.8313    488.27565      836.355   -506.67378    797.63384    986.89964   -4203.1748 
 7045000     211.3613   -4802.5097   -4394.8817   -4802.5097            0    1345.3335    20.215699    20.145248    20.747287    8449.3382     1527.997    721.16023    1786.8432   -211.07692   -539.97477   -890.73176   -4229.1031 
 7046000    211.66659   -4792.2533   -4384.0365   -4792.2533            0    2542.8559    20.030836    20.131005    20.941867    8444.6164    2216.9215    2558.8359    2852.8104    563.57402   -581.25984    544.11294   -4070.8683 
 7047000    216.59628   -4792.0837   -4374.3595   -4792.0837            0    1970.5665    19.992454    20.021357    21.191105    8482.2919    2049.3915    3637.4093    224.89876     204.7334   -129.34151   -541.91383   -4130.5896 
 7048000    205.97333   -4788.7526   -4391.5157   -4788.7526            0    2945.6216    19.954026    20.155914    20.954046     8427.542    2574.5796    2993.2244    3269.0609   -387.86452   -453.08647    1270.1016   -4029.4781 
 7049000    225.90537   -4789.6585    -4353.981   -4789.6585            0     1223.601    20.166453    20.180823    20.789097    8460.6557    269.26874    1934.6478    1466.8864    1248.4708    1106.0212     602.2387   -4203.0009 
 7050000    210.61906   -4797.4276    -4391.231   -4797.4276            0    1369.9222     20.08314    20.150688    21.166712    8565.9374    1842.5047    678.32048    1588.9413   -415.86953   -816.05771   -185.56352   -4220.0929 
 7051000        227.5   -4745.8245   -4307.0716   -4745.8245            0     1874.354    20.047983    20.225913    21.016957    8522.1397    593.89572    3103.0352    1926.1312    109.78682    221.16124    602.66693   -4074.1144 
 7052000    204.15891   -4786.7609   -4393.0233   -4786.7609            0    1765.3934    20.209821    20.135915    20.974772    8535.5416    1519.8581    2682.0171    1094.3048   -164.49877   -56.016969    525.17405   -4173.2634 
 7053000     212.4932   -4810.1585   -4400.3475   -4810.1585            0    1459.4542    19.990575     20.19809    21.000891    8479.5601    2109.7855    1116.9247    1151.6525   -104.68146    637.77922   -559.09341   -4219.8631 
 7054000    230.43811   -4791.4401   -4347.0208   -4791.4401            0    1942.0044    20.035593    20.036698    20.958236    8413.6236    1862.3697    1004.7884    2958.8551    210.40621   -830.90686   -332.62681    -4108.729 
 7055000    223.01672   -4792.1932   -4362.0867   -4792.1932            0    2122.2189    20.039655    20.161825    21.048991    8504.5504    3159.5552    1520.5923    1686.5091   -182.29631     753.3798    281.57943   -4098.8676 
 7056000    230.25211   -4771.7394   -4327.6788   -4771.7394            0     1838.712    19.951817    20.297153    20.938443     8479.338     2889.414    959.92859    1666.7935    845.91016    15.448255   -105.90084   -4100.2992 
 7057000    210.81976   -4803.6082   -4397.0245   -4803.6082            0    1813.7313    20.167412    19.929449    21.129695    8492.5611     462.7484    4040.7141    937.73148    -368.1629    186.84058   -374.59113   -4172.3843 
 7058000    216.17252   -4783.3844   -4366.4775   -4783.3844            0    187.67984    20.276652    20.095111    20.920932    8524.4756   -796.02486    1497.7422   -138.67779    213.10652    401.23738     283.6259    -4343.145 
 7059000     214.7788   -4790.1075   -4375.8885   -4790.1075            0    1881.8793    20.106558    20.291665    20.902932    8528.3028     1711.053    1217.7547    2716.8301   -305.07574    652.04437   -718.08385   -4141.8268 
 7060000    228.74341   -4807.3882   -4366.2373   -4807.3882            0    1444.3851    19.987719    20.131719    21.199465    8530.3924    2659.5775    1445.2483     228.3294    271.80035    73.688644    -1281.587   -4186.5457 
 7061000    209.85349   -4758.0569   -4353.3368   -4758.0569            0    3601.9513    20.049901    19.956226    21.077805    8433.6593    4153.2959    4496.7654    2155.7925   -215.71779    655.05261    1388.6194   -3910.3102 
 7062000    231.95846   -4773.8331   -4326.4817   -4773.8331            0    4576.6242    20.038347     20.07207    20.795773    8364.2908    5190.9194    4117.2511    4421.7022    760.25978   -74.320934   -805.37803    -3768.204 
 7063000    231.41108   -4796.9105   -4350.6148   -4796.9105            0    1758.2749    19.955339    20.203039    21.025015    8476.4135    2384.6877    1633.0526    1257.0844    111.21532    918.07111    2060.0017   -4133.2572 
 7064000    219.34239   -4792.6941   -4369.6739   -4792.6941            0   -539.33998    20.081124    20.160778    21.130357    8554.6476    880.99816   -2172.7462    -326.2719       73.154    -33.32699    364.87092   -4436.9624 
 7065000    221.59456   -4801.1509   -4373.7871   -4801.1509            0    2847.7966    20.357486     19.88995    20.891184    8459.0363    1461.8392    4286.8895    2794.6611   -1071.3871    824.02545   -135.25522   -4022.4648 
 7066000    218.46066   -4757.1904   -4335.8707   -4757.1904            0    4.0391595    20.278481    20.086878    21.047373    8573.2554   -612.02447    234.27507    389.86688   -178.13839   -614.37382    -749.6648   -4335.3656 
 7067000    211.93226   -4792.0064   -4383.2772   -4792.0064            0    2359.1277    20.117713    19.883618    21.049956    8420.2544    2477.5553    2877.3143    1722.5136    111.76961   -104.61957    1483.5071   -4093.5745 
 7068000    220.46404   -4798.5751   -4373.3916   -4798.5751            0    1606.3173       20.004    20.200804    20.912132    8450.5272     1379.927    1832.6627    1606.3623    53.438126    13.690173    446.26058   -4175.4255 
 7069000    206.44049   -4799.3376   -4401.1998   -4799.3376            0     1026.756    20.180891    20.191113    20.860483     8500.118    1411.3421   -377.34344    2046.2692    183.86312    66.391421   -434.50264   -4273.9175 
 7070000    212.52511   -4765.9767   -4356.1041   -4765.9767            0    1758.8055    20.135667     19.85169    21.286424    8508.7592    923.41006    3000.6755    1352.3309    677.90374   -811.86461    -16.40966   -4137.8513 
 7071000    215.83985   -4774.8679   -4358.6026   -4774.8679            0    1331.2847     20.24058     20.12234    21.041702    8570.0294    1676.9039   -57.879407    2374.8295   -464.17863   -211.53353   -203.99115   -4192.2119 
 7072000    228.56417   -4754.9779   -4314.1726   -4754.9779            0    951.59545     19.97709    20.267835    21.174516       8573.4     2003.108   -55.634191    907.31251    66.703796   -273.91572    384.40825   -4195.1906 
 7073000    211.85724   -4812.2832   -4403.6987   -4812.2832            0    2060.7008    20.155036     20.03557    20.997411    8479.1249   -178.36456    5626.0026    734.46444   -502.23122   -623.37881    1182.3632   -4148.8738 
 7074000    214.32764   -4807.7868   -4394.4379   -4807.7868            0    2777.8053    20.210945    20.105317    20.739919    8427.6132    2171.7823    2145.0255    4016.6082   -519.34598   -68.297661    628.94807   -4053.0231 
 7075000    214.89178   -4796.3188   -4381.8819   -4796.3188            0    195.69858    20.033714    20.047242    21.279496    8546.2867    1039.4597     25.19182   -477.55575    -56.28645    1076.9538    -880.8585   -4357.4903 
 7076000    220.18658   -4795.3761   -4370.7278   -4795.3761            0    2000.3714     20.02111    20.162132    20.896893    8435.4124     2188.682    1310.7536    2501.6787    18.422085   -328.62412    484.39813   -4124.6384 
 7077000    199.39822   -4789.9931   -4405.4369   -4789.9931            0   -81.827394    19.945453     20.42455    21.047904    8574.4298    530.84253   -1361.2933    584.96855   -56.936092   -143.96765     1168.471   -4415.6693 
 7078000    224.75974    -4766.309    -4332.841    -4766.309            0     2531.821    20.160624    20.059676    20.930319    8464.5472   -757.91875    4092.4544    4260.9274   -29.727658    217.40523    50.439599   -4020.2959 
 7079000    204.81584   -4772.8528   -4377.8482   -4772.8528            0    2558.1138    20.066689      19.9885    21.101278    8463.7861    2544.7811     3221.373    1908.1872   -21.655042    908.75888   -528.27178   -4062.0858 
 7080000     214.9985   -4768.6525   -4354.0098   -4768.6525            0     872.4432    20.298021    20.102064    20.835946    8501.7351   -578.40019    2553.7505    641.97932   -482.26816    291.27738    1012.5965   -4245.8364 
 7081000    215.50346   -4771.5412   -4355.9247   -4771.5412            0    1647.3626    20.078529    20.092708    20.941786    8448.5871    2253.9003    1455.5471    1232.6403    210.58119    175.97342   -184.92522   -4152.9466 
 7082000    214.11994    -4801.891   -4388.9427    -4801.891            0   -350.31037    20.054527    20.344653    21.188236    8644.8513    1001.5997   -1776.0745   -276.45625    -93.33004    370.51409   -351.43714   -4433.1085 
 7083000    209.79784   -4761.0732   -4356.4604   -4761.0732            0    2001.3045    20.022948    20.060862    21.112195    8480.2961     2992.767    1974.4279    1036.7187   -188.96981    525.28451    425.96068   -4108.9462 
 7084000    224.51172   -4764.4643   -4331.4746   -4764.4643            0    2885.7142    20.114917    20.221919    20.605912    8381.7069    2900.8309     2510.804    3245.5078   -500.42859    371.49591     255.7406   -3978.7289 
 7085000    209.91172    -4795.304   -4390.4716    -4795.304            0    846.01154    20.075265    20.160319    21.164764    8565.8829     452.0042     1373.297    712.73343   -179.43995    267.82049   -880.76852    -4284.784 
 7086000    214.67066    -4795.658   -4381.6476    -4795.658            0    891.65961    20.096979    20.317866    20.877228    8524.7507     1468.028   -219.40655    1426.3574    109.71076    1140.6051   -41.283311   -4270.7923 
 7087000    209.72543    -4784.735   -4380.2619    -4784.735            0    3067.9861    20.003847    19.998413    20.969562    8388.7726    3426.8415    3344.9571    2432.1599   -134.61717    459.48636    806.77677   -4004.9194 
 7088000    218.04773   -4783.5541   -4363.0307   -4783.5541            0     1511.041    20.086196    20.099128    21.033641    8491.5968    523.43669    2291.2179    1718.4685   -264.56544   -225.85022   -118.96314   -4175.9015 
 7089000    202.10631   -4801.5789   -4411.7999   -4801.5789            0    1997.1059    20.114537    20.151729    20.841897    8448.1106    1885.3959    2451.6277    1654.2941   -201.99791   -1139.3224    391.00155   -4165.7424 
 7090000    210.65033   -4787.6091   -4381.3522   -4787.6091            0    1923.4163    19.965364    20.278719    21.169667    8571.0052    2921.5692    52.832371    2795.8473   -694.64653    381.56066    398.29303   -4140.9265 
 7091000    211.98615   -4791.9559   -4383.1227   -4791.9559            0     1981.433     20.01799    20.078044    21.003676     8441.841    1920.1888    2180.8728    1843.2373      -349.36    17.885652   -14.189084   -4139.1774 
 7092000    212.05117   -4783.4688   -4374.5103   -4783.4688            0    566.48811    20.128598    20.045911    20.982343    8466.2935    1379.2131    733.69195   -413.44069   -200.24672    684.44269   -115.23022   -4304.5648 
 7093000     226.8532   -4789.6216   -4352.1161   -4789.6216            0    918.29543    20.138048    20.190989    20.961349    8523.0331    1556.7643    165.56485    1032.5572    1.5517559   -969.85101    548.46081   -4237.9722 
 7094000    220.34782   -4787.0772   -4362.1179   -4787.0772            0    1779.0079    19.837255     20.07035    21.209156    8444.2271    2157.9915    1907.4933    1271.5388   -29.658162    1703.3609    229.67908   -4143.0324 
 7095000     208.4757   -4804.3338   -4402.2709   -4804.3338            0    1657.2362    20.214712    20.182287    20.775047    8475.7855    1199.1963    1723.4509    2049.0613    -316.1154   -135.09081   -443.78989   -4197.4189 
 7096000    218.67376   -4777.7675   -4356.0367   -4777.7675            0    1819.3043    19.968007    20.043503    21.273062    8514.0924    3008.5772    939.18917    1510.1467    -302.4693    930.88944    320.96954    -4130.135 
 7097000    222.59077   -4793.4046   -4364.1196   -4793.4046            0    1328.9615    20.021769    20.194773    20.988174    8486.2547    2270.9626    1137.2301    578.69174    13.500887   -291.53292   -501.64629   -4199.6429 
 7098000    224.07907   -4806.7943   -4374.6389   -4806.7943            0    2704.4208    20.111254    20.219931    20.830137    8470.5374    3732.9826    1512.7565    2867.5235   -27.037828    857.60996   -576.83662   -4040.5508 
 7099000    214.98306   -4785.3172   -4370.7043   -4785.3172            0    2618.2805    19.976049     19.96642    21.158781    8439.1838    2609.1979    2706.3499    2539.2935    273.92989    392.15083    1082.1228   -4048.4546 
 7100000    213.69615   -4777.9388   -4365.8078   -4777.9388            0    1766.5338      20.2221    20.089253    20.958965    8514.5143    1135.3924    2867.9326    1296.2766   -463.56521   -120.52265    840.31277   -4146.4477 
 7101000    211.91127   -4809.9717    -4401.283   -4809.9717            0    551.87868    20.020088    20.246766    20.899741    8471.5438    908.66991   -63.835457     810.8016    21.722765    666.52965    412.16613   -4333.0991 
 7102000    223.22317   -4797.8282   -4367.3235   -4797.8282            0    1564.4695    20.078915    20.125565    21.085478    8520.6314    209.23198    2536.8122    1947.3643   -534.64281    127.51789    162.81359   -4172.9153 
 7103000    215.08634   -4772.0446   -4357.2325   -4772.0446            0    3054.2643    20.122469    20.003702    21.029644    8464.9336    2969.7606     3689.819    2503.2131   -263.93918    -386.1378    -697.4172   -3980.1763 
 7104000    218.87571   -4774.8337   -4352.7135   -4774.8337            0    2734.6198    20.194776    19.986065    20.835197    8409.3793     1587.949    3145.8527    3470.0576   -380.25198   -111.77003   -278.58489   -4017.3338 
 7105000    233.16814   -4781.2018   -4331.5174   -4781.2018            0    518.06111    20.076828    20.234907    20.949008    8510.5919    390.78663    109.91862    1053.4781   -396.48602    1343.4407    441.36067   -4267.2166 
 7106000    215.76169   -4809.1899   -4393.0754   -4809.1899            0    1859.9515     19.99554    20.165266    21.052051    8488.5107    1384.1251    3138.8476    1056.8816   -663.53575    384.07221    604.34051   -4162.8204 
 7107000    229.05838   -4807.3486   -4365.5902   -4807.3486            0    3130.4677    20.018166    20.013138    21.091942    8449.9871    3845.6806    3141.8648    2403.8576    580.28069   -1494.5305    170.57576    -3979.809 
 7108000    226.10771   -4780.9015   -4344.8337   -4780.9015            0    1819.7997    20.220844    20.270908    20.669068    8472.1446    2061.0164    473.87937    2924.5034    -703.0888   -473.07534   -1087.1881   -4119.9838 
 7109000    218.24215   -4788.3576   -4367.4593   -4788.3576            0     3146.128    20.089495    19.941454    21.007861    8416.0381    2599.0317    3573.0279    3266.3246   -159.19532   -267.64565     308.7084   -3981.3058 
 7110000     224.7185   -4774.1822   -4340.7937   -4774.1822            0    1546.6621    20.120818    20.055966    21.176288    8545.5307    1020.1129    903.60619    2716.2673    795.03293    620.05239   -881.53272   -4148.0366 
 7111000    225.58791    -4778.678   -4343.6128    -4778.678            0    775.91557    20.111746    20.379293    20.769002    8512.4485      60.6869    1612.1253     654.9345    349.89688   -67.399238   -1672.1612   -4247.2865 
 7112000    211.45672   -4767.2552   -4359.4431   -4767.2552            0    1564.7998    20.139481    20.072615    20.946956    8467.8497    2454.1793    1315.1639    925.05622    365.49745   -522.64212    1076.6651   -4166.1983 
 7113000    217.72303   -4808.3247   -4388.4275   -4808.3247            0    2303.9229    19.873685    20.034156     21.12924    8412.6599    3365.1411    2691.8137    854.81386    216.35453    16.474381    -551.6619   -4105.7592 
 7114000    221.73555   -4791.2963   -4363.6607   -4791.2963            0    624.39994    20.231745    20.268046    20.826209    8539.9522    1284.8497   -572.92477    1161.2749   -608.67001   -990.94702   -249.95138   -4285.8939 
 7115000    222.49954   -4803.5152   -4374.4061   -4803.5152            0    928.15006    20.211948    20.072039    21.053575    8541.3302    1242.9409      357.186    1184.3232    -28.79536    524.75677    1350.5011   -4258.7897 
 7116000    208.46333   -4792.5505   -4390.5115   -4792.5505            0    1490.3257    20.007765    19.758361    21.477075    8490.3311    1212.4199    3127.6474    130.90995    9.3167797   -544.05977    1137.8128   -4205.9752 
 7117000    214.91603   -4806.1951   -4391.7115   -4806.1951            0    2811.4825     20.15376    19.935371    20.902828    8398.1851    4026.8552    1028.3737    3379.2188    413.29427    -296.0433   -252.19963   -4047.3642 
 7118000    221.30773   -4810.5163   -4383.7057   -4810.5163            0    536.42825    20.190887    20.117867    20.785131    8442.8699    1445.6988   -61.057891    224.64382   -598.01989   -76.867397   -170.92387    -4317.655 
 7119000    206.24893   -4794.2161   -4396.4477   -4794.2161            0    1731.1142    20.179928    20.108065    21.085741    8556.1572    951.93975    1670.5102    2570.8925     457.7075   -401.12995    495.84264   -4180.4345 
 7120000     225.2383   -4796.2837   -4361.8927   -4796.2837            0    1163.1361    20.077349    19.964776    21.124617    8467.5871    1983.5591    1562.0728   -56.223708   -74.309716    408.10424    476.97881   -4218.2557 
 7121000    209.55271   -4797.4706   -4393.3306   -4797.4706            0    618.29676    20.273873    20.165842    20.880506    8536.7801   -43.809076   -408.37273    2307.0721    278.09564   -740.97384    827.16878   -4316.3526 
 7122000    226.47361   -4779.6097   -4342.8362   -4779.6097            0    2505.2293    20.025115    20.059713    20.864566    8381.2554    2754.7777    1798.2786    2962.6315   -288.74542    93.094125   -330.02143    -4036.617 
 7123000    216.10134   -4781.4024   -4364.6328   -4781.4024            0    1173.1208     20.25534    19.824306    21.169429     8500.543    1123.6669    1626.7381    768.95743   -15.669323   -245.35129     326.2558    -4219.199 
 7124000     211.1541   -4771.0022   -4363.7738   -4771.0022            0    2762.6257    20.283787    19.970563    20.901351    8466.6911    3532.7767    2617.8032    2137.2972      522.088    195.99612    367.25701   -4022.6503 
 7125000    228.78113   -4785.6481   -4344.4245   -4785.6481            0    2817.7679    20.154563    20.047595    20.959176    8468.5659    1959.2705    3676.2901    2817.7431     942.2803     533.5995   -1715.9439   -3996.4151 
 7126000    204.35868   -4795.9969    -4401.874   -4795.9969            0    1519.8507    20.077674    20.117328     21.13451    8536.4223    2106.0047    1411.3631    1042.1842   -771.16894    1023.8352   -223.27302   -4212.6602 
 7127000    211.96915   -4787.5229   -4378.7226   -4787.5229            0    1556.3585    20.026724    20.145565    21.062115    8497.5034    1466.6191    1958.9579    1243.4986   -129.08741    926.51297    525.18113   -4185.8471 
 7128000    216.72699   -4797.8536   -4379.8774   -4797.8536            0     3134.301    20.247843    20.068356    20.925975    8503.0799    735.49018    4729.4403    3937.9725   -1012.3433   -33.737556   -816.54758   -3991.1968 
 7129000    220.62878   -4759.9198   -4334.4187   -4759.9198            0   -280.64644    20.332928    20.053004    21.038209    8578.0414   -1703.0385    1131.4582   -270.35908   -529.35079     763.9724   -29.315992   -4369.5281 
 7130000    212.83021   -4815.0601   -4404.5991   -4815.0601            0    1312.1929    20.085798    20.070391    20.972478    8454.6313    2227.3225    1165.5828    543.67328   -441.35949   -389.26764   -900.24606   -4242.8029 
 7131000    207.09138   -4798.9567   -4399.5636   -4798.9567            0    2673.1131    19.949837    20.216922    20.862345    8414.2906    3222.3486    3313.8868     1483.104   -952.83723    1098.4927   -454.93467   -4071.5357 
 7132000    218.97049   -4761.0791   -4338.7761   -4761.0791            0    2201.6856    20.060915    19.983847    21.146858    8477.6537    2652.0068    1976.1811    1976.8687    27.520474   -1528.3639   -833.08734   -4066.5643 
 7133000    223.62564   -4766.8534   -4335.5726   -4766.8534            0    2491.8316    20.194139     20.06966    20.887431    8465.4562     383.2834     3997.902    3094.3093   -416.85808   -367.32139    61.426499   -4027.9311 
 7134000    211.04862    -4792.239    -4385.214    -4792.239            0     796.7616    20.188217    20.193617    20.843694    8497.4137    2099.6335   -485.12002    775.77137   -371.42514     981.5535    815.58455   -4286.4745 
 7135000    217.40612   -4793.2004   -4373.9144   -4793.2004            0    3020.2454    19.883537    20.037683     21.29158    8482.9917    5279.0891    2508.3151    1273.3319    297.21539   -539.49833    672.61922   -4000.2625 
 7136000    214.37124   -4775.8906   -4362.4576   -4775.8906            0    453.26754    20.045529     20.37022    20.980139    8566.8587    1607.5135    175.86477    -423.5756    878.17114    246.15353    249.12791   -4305.8269 
 7137000    207.41144   -4786.1442   -4386.1338   -4786.1442            0     1020.674    20.237755    20.166962    20.872217    8518.6622    1304.9098     468.2483    1288.8639   -267.62828    604.17605    28.806494   -4259.3294 
 7138000    211.88726   -4791.0291   -4382.3867   -4791.0291            0     1891.019    20.004862    20.102102    21.095567    8483.3668    2835.1179    1145.7513    1692.1878    227.94101    82.064185    343.11601   -4148.4275 
 7139000    206.11416   -4808.8628   -4411.3543   -4808.8628            0    2034.6958    20.169816    20.002595    21.087854    8507.8664    2245.9896    2826.6578    1031.4401   -190.38708    438.40275    1287.6429   -4158.8923 
 7140000    222.54074   -4784.3917   -4355.2032   -4784.3917            0    2320.1973    20.199917    20.157994    20.901294    8510.7937    3044.7368    1955.5487    1960.3065   -371.70116    133.55558    1149.5779   -4067.2175 
 7141000    221.93449   -4808.6655   -4380.6461   -4808.6655            0    568.07824    20.155257    20.040786     21.08201    8515.5969    1490.2304    508.70659    -294.7023    16.010259    269.23333    1123.1219   -4310.0958 
 7142000    218.93433   -4791.8568   -4369.6235   -4791.8568            0     1579.633    20.152491    19.912823    20.996317    8425.6748    2435.3501    229.51184    2074.0371   -333.82038    1396.8784    364.54805   -4175.5185 
 7143000    216.40807   -4797.2588   -4379.8976   -4797.2588            0    2531.6993    20.332078    19.958926    20.884045    8474.8797    2464.3056    3383.8463    1746.9461    841.84574   -539.17656   -1145.2926   -4066.9861 
 7144000    219.42715    -4787.195   -4364.0113    -4787.195            0    1741.4111    20.092847    20.038074    21.042759    8472.2768    66.302937    2734.3756    2423.5548   -370.95393    232.64528   -660.53951   -4148.8435 
 7145000    219.63846   -4799.5666   -4375.9753   -4799.5666            0    707.89015    20.165216    20.269454    20.890636    8538.7948    927.95077   -124.64854    1320.3682    59.139241   -1130.1118   -947.66527   -4287.8221 
 7146000    212.34636   -4800.6572   -4391.1294   -4800.6572            0    1549.1292    20.184794    20.021113    20.813023    8411.0014    1295.9874    2167.7948    1183.6053   -423.74997    -406.4815   -990.86096   -4201.1042 
 7147000    213.95216   -4809.8713   -4397.2465   -4809.8713            0    1608.9773    20.227229    19.867789    21.145432    8497.7218    -352.2122    4844.0627    335.08135   -264.71056   -1073.0758    944.85023   -4197.8451 
 7148000    208.12356   -4787.8473   -4386.4636   -4787.8473            0    2369.2635    20.127501     20.17695    20.862063    8472.3255    2005.1514    2948.5336    2154.1055   -199.33932    1745.3571    111.39296   -4093.7169 
 7149000    223.18279   -4785.2408    -4354.814   -4785.2408            0   -34.352375    20.145649    20.034747    21.258495    8580.2043    106.10298    202.99444   -412.15454   -608.71863    939.38574   -684.19931   -4359.1127 
 7150000    212.57948   -4787.8562   -4377.8788   -4787.8562            0    1498.5438    20.056044    20.142574      20.9021    8444.0375    2787.6653     145.9612    1562.0049   -754.39786    884.85347   -749.64374   -4193.3367 
 7151000    233.51877   -4792.5619   -4342.2013   -4792.5619            0    1952.3652    20.100462    20.204019    21.000547    8528.5346    2018.6363    1303.2497    2535.2095    126.94442   -477.45828    1576.0629   -4099.3663 
 7152000    224.08515   -4785.6117   -4353.4447   -4785.6117            0    2202.9198    20.088261    19.788917    21.362174    8491.9969    1783.7752    2915.4093    1909.5749   -137.88595   -293.45699   -299.65086   -4080.6195 
 7153000    215.81284   -4792.2171   -4376.0039   -4792.2171            0    1855.9576     20.16828    20.107818      20.9371    8490.8338     1623.132    1992.2037    1952.5369   -261.27261   -549.36878    341.32708   -4146.1804 
 7154000    215.68311   -4786.9698   -4371.0067   -4786.9698            0    11.943131     20.27169    20.205698    20.847445    8539.1898   -200.85931   -332.82254    569.51125    578.05034    189.47534   -393.51451   -4369.5194 
 7155000    214.43499   -4792.3013   -4378.7453   -4792.3013            0    2584.3172    20.265635     19.85062    21.026922     8458.824    1560.9076     4128.842     2063.202   -456.96456    715.25929   -259.34248   -4059.9355 
 7156000     219.7315   -4810.2926    -4386.522   -4810.2926            0    2594.4681    20.074564     20.00893    21.047643    8454.2184    3390.6146    2376.5132    2016.2766    -393.9501   -495.92434    221.34522   -4066.6341 
 7157000    219.80567   -4785.9858    -4362.072   -4785.9858            0    1977.3901    20.039302    20.151436    20.971696    8468.8051    2681.4899    534.15144    2716.5289    -72.73866    1472.9255   -739.33315   -4117.8469 
 7158000    214.57367   -4805.4267   -4391.6033   -4805.4267            0    1438.0742    20.204656    20.023839    21.008552    8499.5303    489.10074    2759.0716    1066.0503   -225.66699     291.2887    1045.6858   -4213.3441 
 7159000    206.45752   -4786.5844   -4388.4137   -4786.5844            0    1340.2591    19.941913    20.190333    21.081087    8487.9598    1760.8397    1723.9814    535.95611   -696.69136    1077.9285   -890.03563   -4222.5054 
 7160000    222.60671   -4794.5465   -4365.2307   -4794.5465            0    2109.7708    20.114992    20.094754    20.844176    8425.3369    2641.1945    2021.2191    1666.8988   -258.30519    -14.97737    877.49817   -4105.9928 
 7161000    213.58075   -4804.7582   -4392.8498   -4804.7582            0     1511.479    19.981599    20.072146    21.327246    8553.7949    1906.3273    1571.8752    1056.2345    119.34799    994.12233     303.0502   -4204.2953 
 7162000    220.62761   -4790.8427   -4365.3438   -4790.8427            0    1174.0051    20.045692    20.096946    20.989592    8455.8081    2150.2268    729.61114    642.17746    721.21951    489.47611   -554.67508   -4220.5663 
 7163000    229.52978   -4813.4028   -4370.7353   -4813.4028            0     1326.574    20.276327    20.149568     20.91924    8546.7487     379.2822     1758.826    1841.6137    212.66478    941.18669    914.11885   -4205.3838 
 7164000    220.46625    -4807.346   -4382.1583    -4807.346            0    1756.1507    20.117338    19.903134    21.183365    8481.7787    2235.6707    1272.9388    1759.8427    483.11104   -525.01157   -248.41197   -4164.9258 
 7165000    203.69719   -4765.2332    -4372.386   -4765.2332            0    1952.3974    20.104214    20.127123    21.079171    8529.4755    2547.2001    2162.3018    1147.6903      -154.57    990.67819    86.612103   -4129.5201 
 7166000    217.75849    -4768.382   -4348.4164    -4768.382            0    909.99248    20.435198    19.965342     20.93872    8542.9082   -1127.7288     1772.206    2085.5003   -586.22637   -395.81533   -1317.7315   -4235.0409 
 7167000    228.97965   -4809.3442   -4367.7377   -4809.3442            0    2154.8965    20.100851    19.869268    21.061761    8411.8399    1701.2382    3811.2002    952.25118    429.03572    28.161531    1106.4916   -4103.3792 
 7168000    221.27281   -4765.3675   -4338.6243   -4765.3675            0    1556.8004    20.192894    20.085881    20.943732    8494.6113    1493.6697    1199.2584     1977.473   -581.65987     341.5172   -847.12339   -4145.7598 
 7169000    224.35478    -4772.664   -4339.9769    -4772.664            0    2044.3962    20.208763    20.027483    20.861139    8443.1424    191.63379     2475.165    3466.3898   -67.546621   -14.915757    737.91789   -4088.2411 
 7170000    221.84974   -4786.3875   -4358.5316   -4786.3875            0    3462.3118    20.017255    19.862072    21.191896    8425.5623    3522.1109     3832.231    3032.5935   -516.66369    239.81449   -872.78464   -3933.0891 
 7171000    208.26837   -4758.4323   -4356.7692   -4758.4323            0   -725.03675    20.179717    20.098551    21.120719    8566.2059   -1208.8397    546.19037   -1512.4609    338.76228    898.78707   -582.74987   -4447.3475 
 7172000    219.42993   -4803.0108   -4379.8217   -4803.0108            0    2008.5586    20.124568      20.1046    20.802943    8416.7958    1700.0882     2217.746    2107.8416    639.83955    -1356.064   -314.17579   -4133.2705 
 7173000    213.40004   -4808.5048   -4396.9449   -4808.5048            0    2872.0728    20.078863    19.921116     21.01105    8404.2805    2007.6268    3570.8597    3037.7318     183.6113    380.68371    616.29625   -4044.9212 
 7174000    218.96305   -4792.0842   -4369.7955   -4792.0842            0    1591.1608    20.236262    20.099048      20.9916    8537.9051    1817.5149    981.07044    1974.8971   -547.42789    284.26695    622.93785   -4171.6696 
 7175000    221.41897   -4806.8943   -4379.8692   -4806.8943            0     916.3514    19.992647    20.259742    20.927932    8476.7724    964.95254    560.26042    1223.8412   -317.58635    195.61022    333.61192   -4266.5852 
 7176000      212.183   -4802.3775   -4393.1647   -4802.3775            0    2114.1883    19.892385     20.05078     21.30953    8499.4728    3765.8226    434.68315    2142.0591    -112.1971   -88.701891   -419.56154   -4131.0982 
 7177000    219.17821   -4785.0296   -4362.3259   -4785.0296            0    1408.9332    20.030458    20.160587    20.955397      8462.33    3306.0155   -823.55621    1744.3404    430.49435   -875.76847    822.22552   -4188.4433 
 7178000    212.45758   -4772.8065   -4363.0642   -4772.8065            0     2621.534    20.185334    20.003019    20.828779    8409.9863    667.93365    3733.4268    3463.2417   -118.73039    94.994825    1212.4268   -4041.5304 
 7179000    220.79003   -4770.0352    -4344.223   -4770.0352            0    1331.3345    20.058227    20.093878    21.130474    8516.5863    1186.4116    2774.7343    32.857548   -376.45896    322.01568    516.53382   -4178.8637 
 7180000     224.1367   -4796.6932   -4364.4267   -4796.6932            0    1316.2017     20.29393    20.080711    21.012187     8562.814    -3.741428    2273.7149    1678.6316    491.62303    300.83934     512.7044   -4200.0596 
 7181000    216.74632   -4795.6988   -4377.6853   -4795.6988            0    2468.4976    19.933472    20.053912    21.026251    8405.1199    3967.9599    2271.2769    1166.2561   -304.29855   -160.29612    -1404.651   -4075.0968 
 7182000    223.10168   -4801.0539   -4370.7835   -4801.0539            0    666.01821    20.072268     20.32637    20.883348    8520.3295    792.22971    526.91965    678.90527    659.38415   -985.96002    907.21052   -4288.0239 
 7183000    213.89009   -4810.0595   -4397.5545   -4810.0595            0    524.01133    20.096537    20.095713    21.000409    8481.1042   -306.10445    1491.7515    386.38697   -695.58927   -181.59902   -865.23983   -4332.7405 
 7184000    208.46499   -4795.2511   -4393.2089   -4795.2511            0    2151.2422    20.115761    20.110474    20.856589    8437.2721    2865.0029    855.05142    2733.6724   -534.34013     1810.698   -445.83233   -4128.5007 
 7185000    226.34547   -4790.1492   -4353.6229   -4790.1492            0    2601.3376     20.01168    20.136825    21.068768    8490.1173    1474.6305    2739.1993    3590.1829    121.33502   -160.86407    1106.9584   -4031.5262 
 7186000    225.86141   -4779.0272   -4343.4344   -4779.0272            0    716.88165    20.219806    20.001957    20.918207    8460.0699    1454.1484   -935.05671    1631.5533   -417.82149   -773.08056   -660.53134   -4254.9845 
 7187000    217.45294   -4802.6421   -4383.2658   -4802.6421            0    1864.0841    20.193493    19.893019    21.121245    8484.6054    3030.3557    1923.4305    638.46603   -297.33615    490.64299    1006.2777   -4152.6054 
 7188000    226.38633   -4796.4042   -4359.7991   -4796.4042            0    1443.8579    20.169663    20.045656    21.099158    8530.6877    912.50901    1108.7708    2310.2939   -214.81412   -521.93425    -359.4504   -4180.1668 
 7189000    213.61082   -4809.2986   -4397.3322   -4809.2986            0     2757.614    20.155022    20.159646    20.875456    8482.0758    3921.1142    1268.1724    3083.5554   -591.63581   -127.87789   -124.62806   -4056.2088 
 7190000    218.09124   -4757.6267   -4337.0194   -4757.6267            0    2644.6519    19.984811    20.177025    21.106969    8511.0482    3761.9832    1042.2234    3129.7492    234.99488    728.56219    252.44638   -4008.7522 
 7191000    220.88169   -4790.8936   -4364.9047   -4790.8936            0    2525.3048     20.05144      20.0785    21.089958    8490.8767    2141.3202    2340.6739    3093.9205   -677.53997    586.76134    93.606901   -4052.1944 
 7192000    213.74882   -4773.6056    -4361.373   -4773.6056            0     572.3047    20.297671    20.148945     20.75238     8487.239    -530.4976    668.70769     1578.704   -273.04951    728.15013   -251.52351   -4290.5345 
 7193000    225.81309   -4801.8522   -4366.3526   -4801.8522            0    1219.4207    20.174572    20.027258    21.026728    8495.6677    779.86567    2830.6995     47.69687    260.90139   -726.00424   -812.54259   -4215.2657 
 7194000    220.39906   -4774.5332   -4349.4751   -4774.5332            0    2959.9059    20.086038    19.940957    21.187495    8486.3295    2659.5685    3233.6819    2986.4672    17.500729    45.901464   -503.36132   -3983.1441 
 7195000     220.7764   -4794.9104   -4369.1245   -4794.9104            0   -917.06088    20.233682     20.28178    20.773027    8524.7326   -161.57511   -1892.2644   -697.34317   -160.07801    581.16051    922.28653   -4483.1376 
 7196000    214.85882   -4791.9906   -4377.6173   -4791.9906            0    1861.2583    20.062703    20.074512    21.074448    8487.7126     3053.519     1093.083     1437.173   -282.62545    658.05058    726.97712   -4147.2222 
 7197000    219.47848   -4790.7499   -4367.4672   -4790.7499            0    2238.8011    20.211501    19.938829    20.886634    8417.1812    2029.1627    1962.9262    2724.3145   -393.14493   -757.77401    491.98436    -4092.641 
 7198000    224.70904   -4792.3929   -4359.0226   -4792.3929            0    1732.3803    20.238564    20.034197    20.986939    8509.4349    1321.7948      2313.49    1561.8561   -191.01005   -241.77282    1442.1049   -4144.0318 
 7199000    218.57069   -4769.6065   -4348.0745   -4769.6065            0    802.94306    20.162238    19.955636    21.249577    8549.7733    1201.4032    1447.8456   -240.41963    6.3387532    545.17321    1138.8483   -4247.9558 
 7200000    215.68474   -4795.1483   -4379.1821   -4795.1483            0    3758.3287    20.150331    20.163486    20.877542    8482.5643    1847.3165     5084.677    4342.9927    57.500775    1079.1692   -1264.0608   -3914.2412 
 7201000    212.34773   -4791.4549   -4381.9244   -4791.4549            0    1048.8713    20.224645    20.154704    20.947601    8538.6974    479.71289    1754.1859    912.71531    -124.0638    1032.2216   -2129.9907   -4251.3104 
 7202000    221.59242   -4792.4081   -4365.0485   -4792.4081            0    1985.4276    20.000149    20.064514    21.186793    8502.1174    1567.9666    3109.5175    1278.7987   -12.808117    380.00885   -943.77176    -4118.866 
 7203000    207.21111   -4789.6196   -4389.9955   -4789.6196            0    1620.5218    20.250978    20.058652    20.825868    8459.6197    513.34933    2491.5922    1856.6239   -252.87075     1665.014    822.62259   -4190.0638 
 7204000    219.07371    -4813.638   -4391.1359    -4813.638            0    2192.0976    20.208899    20.084532    20.808294     8445.801    2697.7628    2179.1361     1699.394   -389.63186    1305.8592    499.48686   -4121.1279 
 7205000    208.04015   -4805.9638   -4404.7409   -4805.9638            0    2855.7071    19.913511     20.14294    21.151443    8484.1959    2035.0175    3601.5722    2930.5317   -106.41763   -875.45909   -61.163982   -4051.3948 
 7206000    217.09401   -4814.2114   -4395.5274   -4814.2114            0    2764.2613     20.01461    19.964473    21.057369    8414.1277    4485.4392     2328.337    1479.0077   -307.08788    197.19977    796.23206   -4056.3209 
 7207000    215.20002   -4787.0242   -4371.9929   -4787.0242            0    1501.5664    20.167913    20.326297    20.740666    8502.4078    1441.4074    886.07616    2177.2157   -816.01283   -186.78988   -300.74314   -4185.8003 
 7208000    220.08635   -4785.8844   -4361.4294   -4785.8844            0    2229.1632    20.090893    20.113629    20.848124    8424.7431    3472.1663    624.03387    2591.2895   -533.41824     1502.475   -19.967851   -4087.5405 
 7209000    219.34698   -4803.4256   -4380.3965   -4803.4256            0    689.64037    19.936399    20.274716    21.247621    8588.3912    2071.3484   -617.21891    614.79163   -320.14592   -1101.5336   -945.57998    -4294.017 
 7210000    222.79618   -4775.1027   -4345.4216   -4775.1027            0    1557.8428    20.060203    20.042323    21.022728     8452.252    957.19855    2616.2103    1100.1195    406.88911    163.82257    549.55568   -4153.3903 
 7211000    219.43072   -4790.7589   -4367.5683   -4790.7589            0    3378.7529    20.155642    20.133144    20.690653    8396.1935    2960.0572    3190.8557    3985.3457   -271.11863   -481.40343    547.76261   -3953.8404 
 7212000    222.91145   -4803.8077   -4373.9042   -4803.8077            0    2683.1041    20.064129    20.100213    21.123986    8519.1611    3384.4233    1062.5914    3602.2978   -262.07132   -275.69655   -913.36757   -4040.5467 
 7213000    222.63122    -4779.032    -4349.669    -4779.032            0    1636.8279    20.044368    20.081583    21.062898    8478.2929    2322.5325    1133.7245    1454.2268   -84.593945   -289.49741   -76.027227   -4147.2798 
 7214000    232.38282   -4801.1204   -4352.9506   -4801.1204            0      2644.54    20.168437    20.114227    20.801931     8438.772    843.08685     4655.068    2435.4651   -763.17921    154.63414    234.97403   -4027.4849 
 7215000    204.80729   -4807.3714   -4412.3833   -4807.3714            0     1930.528    20.151008    20.048506    20.887283    8438.4124    2298.4781    1796.2139    1696.8919   -218.61041    722.97294   -195.63942   -4174.8017 
 7216000    215.62846    -4795.119   -4379.2614    -4795.119            0    600.98689     19.89051    20.088902    21.359348    8534.7363     2341.539    571.51731   -1110.0956     573.9079    1021.0742    856.98158   -4304.4563 
 7217000    215.44477   -4822.1924    -4406.689   -4822.1924            0    1223.6212    20.061123    20.098669    21.108515    8510.9924    1129.9022    1271.5048    1269.4566   -1276.7025    189.43496    193.81975   -4254.8081 
 7218000    228.27568   -4787.1031   -4346.8543   -4787.1031            0    1689.2752    20.154332    20.170383    20.913203    8501.6479    1946.4582    1737.0928    1384.2746   -301.61453    1626.2081    8.8908347   -4137.4047 
 7219000    222.95041   -4792.2448   -4362.2662   -4792.2448            0    1128.6219     20.27457    19.966876    21.051419    8522.0318   -298.54927    1984.3517    1700.0632   -103.62618    1149.4036   -76.147538   -4221.9953 
 7220000     208.7861   -4794.1164   -4391.4549   -4794.1164            0    2366.9687    20.148256    19.895143    21.100407    8458.1495    1218.8744    3762.7797    2119.2521   -353.09965     1251.768   -498.69078   -4099.4812 
 7221000    209.03938   -4781.0507   -4377.9007   -4781.0507            0    702.65417    20.139153    20.238771    20.958545    8542.5293    58.005895    1770.1019    279.85472    552.14691   -483.28053   -28.154702   -4290.3612 
 7222000    217.88287   -4808.7882   -4388.5828   -4808.7882            0    2848.1071    20.193736    19.887346    21.052943    8454.8582    1484.9937     4106.521    2952.8065   -460.07697    1187.6822   -1041.7936   -4037.3957 
 7223000    223.76239   -4813.3852   -4381.8406   -4813.3852            0    775.31564    20.182267    20.067474    21.187086    8580.9204    1827.6385    240.40438    257.90403   -271.43362    1008.3395   -400.76957   -4284.8146 
 7224000    213.21632   -4778.9866    -4367.781   -4778.9866            0    1034.2052    20.340795    20.159961    20.665538    8474.3096   -60.594896    1727.5521    1435.6584    47.295149    426.22994    15.481737   -4239.9645 
 7225000    215.69663   -4801.9273   -4385.9382   -4801.9273            0    1935.5676    19.966498    20.088201    21.100801    8463.3416    1730.9215    2004.2619    2071.5194   -408.75087   -214.31305    994.46309   -4147.0328 
 7226000    212.81464   -4781.9199    -4371.489   -4781.9199            0    1150.9612    20.179811    20.180646     21.02269    8561.3146    389.83961    2278.0078     785.0361    74.604481   -183.83642   -407.85079   -4227.7823 
 7227000    230.34462   -4761.9641   -4317.7251   -4761.9641            0    60.800995    20.163444    19.941764    21.246013     8542.908    820.03499   -717.59274    79.960735   -337.26838    492.20414   -1186.7312     -4310.15 
 7228000    228.55399   -4780.9846    -4340.199   -4780.9846            0    3505.7664    19.814704    20.217922    20.918005    8380.0068    4227.8064     3682.079     2607.414    116.19992   -76.507115   -1353.8107    -3911.746 
 7229000    222.66052   -4787.5578   -4358.1383   -4787.5578            0    696.45719     20.21857    20.338999    20.848028    8573.2403    1139.9149    5.5607686    943.89586   -376.63882    599.36129   -552.68975   -4271.0589 
 7230000    227.95392   -4781.8107   -4342.1824   -4781.8107            0    902.19528     20.04623    20.154799    21.221928    8574.2476    1553.4837    156.84043    996.26169    48.093332    216.38899    -149.8497    -4229.366 
 7231000     223.4238   -4784.0046   -4353.1131   -4784.0046            0    3133.5133    20.018293    20.050944    20.987995    8424.2804    3547.3234    1838.3535     4014.863    -271.6132   -548.68506   -3055.3738   -3968.1312 
 7232000    212.33235   -4779.9097    -4370.409   -4779.9097            0    593.97588    20.254065    20.309143    20.922646    8606.3777     913.3095   -449.51107    1318.1292    219.06149    186.60268   -794.45522    -4295.856 
 7233000    213.86701   -4797.4635    -4385.003   -4797.4635            0    783.15362    20.081167    20.104084     21.09523    8516.4285    1277.9658    161.68261    909.81245   -8.2492678   -624.06773   -1082.1802   -4287.7326 
 7234000    223.37239   -4783.7544   -4352.9619   -4783.7544            0    2095.5253    20.009082    20.141795    21.089536    8499.4805    2710.6589    1524.5379     2051.379    132.95931    475.63289   -66.602041   -4093.2086 
 7235000    218.05718   -4812.1136    -4391.572   -4812.1136            0    1278.8026    20.233885    19.976795    20.904302    8449.6898    2172.3112    64.681845    1599.4147    826.52907   -488.65376   -99.085282   -4233.9851 
 7236000    207.56707   -4786.5043   -4386.1937   -4786.5043            0     699.7523    19.990796    20.185362    21.301689    8595.6884    1132.2956     1403.266   -436.30463    112.66646   -182.46343    135.08656   -4298.4733 
 7237000    218.15391   -4795.5555   -4374.8274   -4795.5555            0    2310.8049    20.084194    20.179498    20.917916    8477.8002    390.83282     2944.413    3597.1689    268.43605   -1739.5301    593.63998   -4089.1194 
 7238000    226.85987   -4794.6441   -4357.1257   -4794.6441            0    1899.8901    20.197541    19.781956    21.004717    8392.3692    485.22719    3703.6231    1510.8202   -90.443109    473.12164    74.796587   -4124.5904 
 7239000    209.93259   -4786.3401   -4381.4674   -4786.3401            0    2120.0542    20.063825    20.147053    21.061322    8513.5539    1747.6946    2183.1477    2429.3204    175.76836   -599.52452   -528.62795   -4118.2384 
 7240000    226.91954    -4802.106   -4364.4726    -4802.106            0    1157.9168    20.151964    20.005943    21.058171    8489.7921    656.89373    1718.9291    1097.9275   -568.64552   -435.72174    768.99406   -4221.1053 
 7241000     203.9882   -4785.1082   -4391.6998   -4785.1082            0    353.83815    20.130153    20.217206    20.942067    8522.9071   -611.27428    266.87822    1405.9105   -409.36152    55.247398   -1.1238364   -4347.7184 
 7242000    212.67654   -4785.5452   -4375.3806   -4785.5452            0     854.9626    20.193611    20.224061    20.914199    8541.2921    949.51287   -524.59147    2139.9664   -304.34972    2839.4673    804.11181   -4268.8814 
 7243000    219.01595   -4776.0534   -4353.6627   -4776.0534            0    3158.3684    20.027651    20.003224    21.160737    8477.3636    2321.0273    3541.1672    3612.9108   -380.06424    -965.8239    164.50612   -3963.1821 
 7244000    220.77638   -4780.6893   -4354.9035   -4780.6893            0    2015.2438    20.193581     20.11883    20.724833    8419.9029    3197.9449   -582.27158    3430.0581    50.162718   -1301.0132    -693.2565   -4107.4403 
 7245000     221.5759   -4764.6069   -4337.2791   -4764.6069            0    860.11582     20.12845     20.34093    20.967682    8584.8272    1890.3551   -659.83633    1349.8287    85.904836    176.47617    249.73113   -4229.5918 
 7246000    220.12206   -4780.2555   -4355.7316   -4780.2555            0    2043.6726     20.01715    20.115658    21.001509    8456.4286    2200.6086    1722.4151    2207.9941   -275.69043    91.928261   -1114.9714   -4103.6889 
 7247000    223.44943   -4803.6351   -4372.6941   -4803.6351            0    1093.2268    20.108159    20.018536    21.147916    8512.7958    872.35131    1859.4002    547.92901    362.78734   -304.66362   -213.04114   -4236.9696 
 7248000     225.6605   -4789.6293   -4354.4241   -4789.6293            0    579.62155    20.221337    20.194744    21.011925    8580.5292   -585.80636    1129.5176    1195.1535   -385.58446    654.52111      303.894   -4281.8913 
 7249000    214.00991   -4800.6118   -4387.8757   -4800.6118            0    1428.2137    20.119039    20.153163    20.813081    8438.9194    214.03172    1746.0315    2324.5778   -350.03098   -376.40077    288.03883   -4212.1011 
 7250000    225.92638   -4767.0384   -4331.3204   -4767.0384            0    2504.1657    19.965618    19.943293    21.230472    8453.5527    2911.0498    1960.8655     2640.582   -339.98038    590.29579   -1244.8482   -4022.5908 
Loop time of 359.127 on 64 procs for 250000 steps with 972 atoms

Performance: 120.292 ns/day, 0.200 hours/ns, 696.132 timesteps/s
195.4% CPU use with 32 MPI tasks x 2 OpenMP threads

MPI task timing breakdown:
Section |  min time  |  avg time  |  max time  |%varavg| %total
---------------------------------------------------------------
Pair    | 25.841     | 34.767     | 43.067     |  72.1 |  9.68
Bond    | 1.0601     | 1.2201     | 2.0927     |  16.9 |  0.34
Kspace  | 160.02     | 170.7      | 179.84     |  36.0 | 47.53
Neigh   | 1.8108     | 1.9826     | 2.1623     |   7.3 |  0.55
Comm    | 60.443     | 65.596     | 69.729     |  26.8 | 18.27
Output  | 0.52196    | 0.52235    | 0.524      |   0.0 |  0.15
Modify  | 68.579     | 71.101     | 73.851     |  15.9 | 19.80
Other   |            | 13.24      |            |       |  3.69

Nlocal:        30.3750 ave          37 max          23 min
Histogram: 2 1 4 1 2 8 7 4 1 2
Nghost:        2584.91 ave        2624 max        2548 min
Histogram: 2 2 0 6 5 7 8 1 0 1
Neighs:        9323.91 ave       12282 max        5862 min
Histogram: 1 0 3 3 6 9 3 3 2 2

Total # of neighbors = 298365
Ave neighs/atom = 306.95988
Ave special neighs/atom = 2.0000000
Neighbor list builds = 5910
Dangerous builds = 0

unfix		3
unfix		2
unfix		1

write_data	data.final.${pid}
write_data	data.final.1
System init for write_data ...
PPPM initialization ...
  extracting TIP4P info from pair style
  using 12-bit tables for long-range coulomb (../kspace.cpp:340)
  G vector (1/distance) = 0.37196392
  grid = 24 24 25
  stencil order = 5
  estimated absolute RMS force accuracy = 0.0034615899
  estimated relative force accuracy = 1.0424475e-05
  using double precision FFTW3
  3d grid and FFT values/proc = 3458 576
Last active /omp style is kspace_style pppm/tip4p/omp
WARNING: Not all mixed pair coeffs generated from mixing. Use write_data with 'pair ij' option to store all pair coeffs. (../write_data.cpp:312)

write_restart   restart.lmp.${pid}
write_restart   restart.lmp.1
System init for write_restart ...
PPPM initialization ...
  extracting TIP4P info from pair style
  using 12-bit tables for long-range coulomb (../kspace.cpp:340)
  G vector (1/distance) = 0.37196392
  grid = 24 24 25
  stencil order = 5
  estimated absolute RMS force accuracy = 0.0034615899
  estimated relative force accuracy = 1.0424475e-05
  using double precision FFTW3
  3d grid and FFT values/proc = 3458 576
Last active /omp style is kspace_style pppm/tip4p/omp
Total wall time: 0:05:59
