#include		in.partitions
include		in.temp
variable        temperature equal 49.62
variable	tempDamp equal 100.0
include		in.pressure
variable        pressure equal 8858.3
variable        pressureDamp equal 1000.0 # This is 1 ps
include		in.seed
variable        seed equal 745823

units		real
atom_style	full
box tilt large
read_restart	restart.lmp.${pid}
read_restart	restart.lmp.0
Reading restart file ...
  restart file = 30 Jul 2021, LAMMPS = 30 Jul 2021
  restoring atom style full from restart
  triclinic box = (-10.520405 -9.0535465 0.23962386) to (12.500405 12.043544 21.620375) with tilt (-9.0106240 1.8490021 2.6804023)
  4 by 2 by 4 MPI processor grid
  restoring pair style lj/cut/tip4p/long/omp from restart
  restoring bond style harmonic/omp from restart
  restoring angle style harmonic/omp from restart
  1296 atoms
  864 bonds
  432 angles
Finding 1-2 1-3 1-4 neighbors ...
  special bond factors lj:    0        0        0       
  special bond factors coul:  0        0        0       
     2 = max # of 1-2 neighbors
     1 = max # of 1-3 neighbors
     1 = max # of 1-4 neighbors
     2 = max # of special neighbors
  special bonds CPU = 0.002 seconds
  read_restart CPU = 0.007 seconds
include 	in.setup
variable	out_freq equal 1000
variable	out_freq2 equal 10000
variable	out_freq3 equal 1000

timestep	2.0

neigh_modify    delay 7 every 1

include		in.tip4p
# This is TIP4P/Ice

# create groups ###
group ox type 2
432 atoms in group ox
group hy type 1
864 atoms in group hy

# set charges - beside manually ###
set group ox charge -1.1794
Setting atom values ...
  432 settings made for charge
set group hy charge 0.5897
Setting atom values ...
  864 settings made for charge

# ### TIP3P Potential Parameters ###
pair_style lj/cut/tip4p/long/omp 2 1 1 1 0.1577 8.5
pair_coeff 1 1*2 0.000 0.000
pair_coeff 2 2 0.21084 3.1668
bond_style  harmonic
bond_coeff  1 450 0.9572
angle_style harmonic
angle_coeff 1 55 104.52
kspace_style pppm/tip4p/omp 1.0e-5
pair_modify tail yes

thermo          ${out_freq}
thermo          1000
thermo_style    custom step temp pe etotal epair emol press lx ly lz vol pxx pyy pzz pxy pxz pyz enthalpy

restart 	${out_freq3} restart.lmp.${pid} restart2.lmp.${pid}
restart 	1000 restart.lmp.${pid} restart2.lmp.${pid}
restart 	1000 restart.lmp.0 restart2.lmp.${pid}
restart 	1000 restart.lmp.0 restart2.lmp.0


include         in.dump
dump            myDump all atom ${out_freq2} dump.water.${pid}
dump            myDump all atom 10000 dump.water.${pid}
dump            myDump all atom 10000 dump.water.0
dump            myDump2 all dcd ${out_freq2} dump.dcd
dump            myDump2 all dcd 10000 dump.dcd
dump_modify     myDump append yes
dump_modify     myDump2 append yes


variable natoms 	equal  "count(all)"                        # NUMBER ATOMS
variable H      	equal  "enthalpy/v_natoms"                 # ENTHALPY-per-atom
variable Vol      	equal  "vol/v_natoms"                 # volume-per-atom
fix AVG all 		ave/time ${out_freq} 1 ${out_freq} v_Vol v_H file vol_enthalpy.dat
fix AVG all 		ave/time 1000 1 ${out_freq} v_Vol v_H file vol_enthalpy.dat
fix AVG all 		ave/time 1000 1 1000 v_Vol v_H file vol_enthalpy.dat


timer           timeout 10:00:00 every 1000
New timer settings: style=normal  mode=nosync  timeout=10:00:00

fix 		1 all shake 1e-6 200 0 b 1 a 1
       0 = # of size 2 clusters
       0 = # of size 3 clusters
       0 = # of size 4 clusters
     432 = # of frozen angles
  find clusters CPU = 0.000 seconds
fix             2 all nph tri ${pressure} ${pressure} ${pressureDamp}
fix             2 all nph tri 8858.3 ${pressure} ${pressureDamp}
fix             2 all nph tri 8858.3 8858.3 ${pressureDamp}
fix             2 all nph tri 8858.3 8858.3 1000
fix             3 all temp/csvr ${temperature} ${temperature} ${tempDamp} ${seed}
fix             3 all temp/csvr 49.62 ${temperature} ${tempDamp} ${seed}
fix             3 all temp/csvr 49.62 49.62 ${tempDamp} ${seed}
fix             3 all temp/csvr 49.62 49.62 100 ${seed}
fix             3 all temp/csvr 49.62 49.62 100 745823


run             250000
PPPM initialization ...
  extracting TIP4P info from pair style
  using 12-bit tables for long-range coulomb (../kspace.cpp:340)
  G vector (1/distance) = 0.37167157
  grid = 30 36 32
  stencil order = 5
  estimated absolute RMS force accuracy = 0.0036639684
  estimated relative force accuracy = 1.1033932e-05
  using double precision FFTW3
  3d grid and FFT values/proc = 7344 1152
Last active /omp style is kspace_style pppm/tip4p/omp
Neighbor list info ...
  update every 1 steps, delay 7 steps, check yes
  max neighbors/atom: 2000, page size: 100000
  master list distance cutoff = 10.8154
  ghost atom cutoff = 10.8154
  binsize = 5.4077, bins = 7 5 4
  1 neighbor lists, perpetual/occasional/extra = 1 0 0
  (1) pair lj/cut/tip4p/long/omp, perpetual
      attributes: half, newton on, omp
      pair build: half/bin/newton/tri/omp
      stencil: half/bin/3d/tri
      bin: standard
Per MPI rank memory allocation (min/avg/max) = 10.63 | 10.63 | 10.64 Mbytes
Step Temp PotEng TotEng E_pair E_mol Press Lx Ly Lz Volume Pxx Pyy Pzz Pxy Pxz Pyz Enthalpy 
 7250000    55.115467   -6865.5039   -6723.7227   -6865.5039            0    8896.8921    23.020809    21.097091    21.380751    10384.035     8884.891     9040.845    8764.9402   -219.17854   -307.42127    99.018507    -5376.373 
 7251000    49.757343   -6883.0953   -6755.0976   -6883.0953            0    8741.7157    23.048561    21.116532    21.301614    10367.616    8092.7783    8959.9233    9172.4456    -24.96098   -191.54826    143.58321    -5433.341 
 7252000    50.456267    -6885.761   -6755.9653    -6885.761            0    8598.9222     23.01647     21.14432     21.34008    10385.526    8003.6162    8842.2577    8950.8927    259.65178   -162.69324    -467.9764   -5453.5533 
 7253000    49.524534   -6881.2058    -6753.807   -6881.2058            0    8889.3025    22.986909    21.137744       21.334    10366.007    9299.0398    8979.2685    8389.5992    809.13409   -543.25897   -143.28077   -5409.9438 
 7254000    48.922344   -6884.8999   -6759.0501   -6884.8999            0    9428.5905    22.904533    21.217614    21.304215    10353.412    10065.106    8867.0888    9353.5763    415.23509   -197.62628   -376.68513   -5335.3905 
 7255000    49.684224   -6879.9249   -6752.1152   -6879.9249            0    9379.3082    22.956971     21.21841    21.251492    10351.823    9896.5314    8936.5283     9304.865    664.36095    -341.0587   -112.73826   -5336.1142 
 7256000    51.658371   -6879.8002   -6746.9122   -6879.8002            0     9529.287    22.915133    21.148405    21.362811    10352.814    10124.118    9397.4464    9066.2966    117.15974   -7.8341525    577.14435   -5308.1312 
 7257000    50.305116   -6884.3647   -6754.9578   -6884.3647            0    9416.2656    23.042593    21.174419    21.225778    10356.344    9703.9934    8736.6526    9808.1508    428.80308   -623.30684   -454.81197   -5332.7566 
 7258000    50.181668    -6881.247   -6752.1577    -6881.247            0    9062.3663    23.035123    21.058075    21.373455    10367.736    8787.1904    9655.9855    8743.9229   -195.04846    430.32491    165.62248   -5381.9026 
 7259000    51.189915   -6879.4271   -6747.7441   -6879.4271            0    8741.1721    23.105394    21.104203    21.285185    10379.101    8686.4605    8476.8546    9060.2011    -806.8695    354.32354   -688.04789   -5424.6056 
 7260000    51.041875   -6883.1386   -6751.8365   -6883.1386            0    8798.7453    23.124561    21.033039    21.324227    10371.674    8192.8964    9430.4277    8772.9118   -100.83309    340.15036   -222.61817   -5420.9363 
 7261000    49.775013   -6885.2634   -6757.2202   -6885.2634            0     8452.061    23.056377    21.079315    21.376433    10389.216    8489.0853    8756.2095    8110.8883   -536.83613   -446.04473   -447.82026   -5476.5972 
 7262000    50.899466    -6878.429   -6747.4932    -6878.429            0    8426.8353    23.076531    21.116285    21.313555    10385.895    8173.3345    8502.0904     8605.081    386.55367   -509.67006   -93.184355   -5471.1005 
 7263000     50.91088   -6881.7388   -6750.7737   -6881.7388            0    8554.9213    22.992577    21.162137     21.32715    10377.196    8649.9599    8433.5142    8581.2898    298.51921   -73.856573    183.90725   -5456.0655 
 7264000     48.46154   -6885.1223    -6760.458   -6885.1223            0    8863.6037    22.918576    21.204438    21.350178    10375.664    9237.0046    8609.9643    8743.8422    368.50955    54.555213   -25.229434   -5419.2315 
 7265000    48.958849   -6879.1765   -6753.2329   -6879.1765            0    8631.7862    22.933302    21.262601    21.267655    10370.569     8714.487    8194.7061    8986.1655    15.827344   -21.509073    16.752282    -5447.726 
 7266000    49.859604   -6882.8299   -6754.5691   -6882.8299            0    8720.0997    22.894769    21.262573    21.319282    10378.262    9396.8651    8459.3401    8304.0938    652.50977   -2.2995883    -43.39971    -5434.727 
 7267000     50.39783   -6883.9485   -6754.3032   -6883.9485            0    8761.2678    22.939964    21.218723    21.321387    10378.329    9225.8521    8623.7926    8434.1588   -395.39788    -50.88901    153.80856   -5428.2215 
 7268000    48.234838    -6885.253   -6761.1718    -6885.253            0    8982.4902    22.963095    21.237276     21.26998    10372.807    9776.9253    8234.4305    8936.1147    201.06028   -684.19941   -117.88584   -5402.3299 
 7269000    50.358484    -6884.983   -6755.4388    -6884.983            0    9100.8601    22.953513    21.133131    21.373157    10367.683    9287.1242    9116.0571     8899.399    379.08387    678.23348    209.46556   -5379.3704 
 7270000    49.398465   -6886.3355    -6759.261   -6886.3355            0    8926.8335    23.076939    21.137268    21.269641    10374.979    8684.2287    8920.8432    9175.4286   -575.64635    621.64419   -354.53456   -5408.5559 
 7271000    48.950478   -6892.8492   -6766.9271   -6892.8492            0    7912.3789    23.074757    21.095409    21.391725    10412.881    7667.3193    8350.2976    7719.5196   -340.08105    313.67845   -84.113112   -5565.3439 
 7272000    49.622091   -6883.0747   -6755.4248   -6883.0747            0     8959.021    23.070278     21.05887    21.359557    10377.199    8580.8038    9383.1322     8913.127    191.32077    259.44935    319.30732   -5399.5595 
 7273000    49.868968   -6884.0607   -6755.7758   -6884.0607            0    9166.4118    23.093655    21.078987    21.282863    10360.303    9082.5073    9157.8159    9258.9122   -401.36236    -672.3148    156.60246   -5370.7823 
 7274000    54.868336   -6878.2077   -6737.0622   -6878.2077            0    9422.1591    23.142093     20.99792    21.304565    10352.651    8837.8406    9795.3588    9633.2778   -425.02653    41.967103    262.70342   -5314.4783 
 7275000    52.735371   -6883.1636   -6747.5051   -6883.1636            0    8932.0709    23.056917    21.056367    21.393361    10386.368    9143.5857    9336.5312    8316.0959   -369.40252   -115.78764   -26.295522   -5394.5239 
 7276000    50.798629   -6879.9416   -6749.2652   -6879.9416            0    8589.4506     23.10088    21.130986    21.266153    10380.953    8039.3955    9143.7046    8585.2517   -254.44118    113.85916   -359.93691   -5448.8606 
 7277000    48.718753    -6882.992   -6757.6659    -6882.992            0    7707.9693    23.027908    21.196807    21.351526    10422.066    7653.9778    7916.5649    7553.3652   -74.726135    112.51976   -211.20661    -5586.092 
 7278000    47.880546   -6886.6484   -6763.4786   -6886.6484            0    8553.9358    22.987761    21.148864    21.370173    10389.431    8585.3756    8791.7002    8284.7315    722.27577   -31.782689    -67.08723   -5467.3932 
 7279000    47.232046   -6880.0957   -6758.5941   -6880.0957            0     8466.676    22.988281    21.241067    21.250915    10376.728      9054.51    7734.3034    8611.2145    267.35977    325.47347   -384.25629   -5477.2987 
 7280000    50.808799    -6878.156   -6747.4535    -6878.156            0    8839.4921    22.908764    21.223837    21.346039    10378.698    9363.6604    8614.7305    8540.0853   -403.99597    248.20387   -514.82578   -5409.4844 
 7281000    51.328453   -6880.5661   -6748.5267   -6880.5661            0    8737.7263    22.899104     21.23736    21.335383    10375.749    9243.6728    8357.2925    8612.2136     794.6734    83.200301    22.913969    -5426.337 
 7282000    49.427597    -6876.456   -6749.3065    -6876.456            0    8818.7566    22.953904    21.232389    21.286002    10374.079     9288.025    8211.1462    8957.0986    349.90919   -104.67446    -93.13365   -5415.0701 
 7283000    49.902401   -6882.3063   -6753.9354   -6882.3063            0    8584.6542    22.989908    21.140439    21.343087    10373.098    9162.6354    8735.8763    7855.4508   -104.35529     551.3448    216.34338   -5455.2404 
 7284000    50.140215   -6886.0557    -6757.073   -6886.0557            0      8773.79    23.016216    21.165693    21.306986    10379.787    8636.2014    8273.5345    9411.6341   -222.41665     76.07477   -291.83999   -5428.9095 
 7285000    48.311056   -6878.6125   -6754.3352   -6878.6125            0    9563.1537    23.048872    21.115002    21.251303     10342.52    9274.2336    9087.5818    10327.646   -401.53532     65.18795    466.53301   -5311.8765 
 7286000    50.356522   -6888.5714   -6759.0323   -6888.5714            0    8922.2897    23.020256    21.100697    21.363637    10377.247     8955.721    9672.2908    8138.8574   -382.75686   -410.09985   -984.82722   -5408.7196 
 7287000    48.575159   -6877.1332   -6752.1766   -6877.1332            0    9203.5751    23.056867    21.042734    21.356924    10361.942    9049.9986    9734.9094    8825.8172   -210.15087   -283.89806    904.31678   -5361.3479 
 7288000    50.828396   -6885.1488   -6754.3958   -6885.1488            0    8794.7926    23.068237    21.092232    21.309721    10368.471    9097.0975    9340.9154    7946.3649   -48.902321   -789.36403   -828.56649   -5424.5044 
 7289000    49.678754   -6882.1823   -6754.3867   -6882.1823            0    8865.0901    23.059429    21.045778    21.360826    10366.486    8932.1832    9490.1947    8172.8926    21.839688   -8.9556823   -432.84472   -5414.1219 
 7290000    50.740286   -6889.5157   -6758.9894   -6889.5157            0     8618.491    23.029483    21.120316    21.333772    10376.533    8671.5352    8774.2557    8409.6819     589.8246   -234.98218   -196.03579   -5454.7438 
 7291000     50.38486   -6889.5547   -6759.9427   -6889.5547            0    8837.4411    22.970406    21.178073    21.332761    10377.725    9497.1185    8352.3343    8662.8707    246.98575   -97.455586    297.37741   -5422.4094 
 7292000     48.78933   -6880.8312   -6755.3237   -6880.8312            0    8437.7406    22.970675    21.188179    21.321961    10377.543    8993.5182    8067.5244    8252.1791   -77.948971    218.15822    343.91354   -5478.3069 
 7293000    51.268358   -6883.5902   -6751.7055   -6883.5902            0    8934.1667    22.963594    21.238585    21.279659    10378.393    9137.1607    8280.2687    9385.0709    528.44503    -568.7242     70.87385    -5399.446 
 7294000    49.766434   -6876.9284   -6748.9073   -6876.9284            0    9376.2091    22.908429    21.191389    21.339502    10359.505    9657.7657    9031.4799    9439.3817    590.79144    7.3692265    648.99361   -5332.3238 
 7295000    47.646026   -6889.8666   -6767.3001   -6889.8666            0    9184.2989    22.933617    21.261656    21.277317    10374.961    9374.8656    8626.2848    9551.7464    367.91467   -43.924156    206.00577   -5377.6406 
 7296000    50.861029   -6882.5737   -6751.7368   -6882.5737            0     9082.672    23.013942    21.148979    21.296881    10365.647    8395.5217    9718.6499    9133.8446    664.67992    335.21624    -32.07415   -5378.6881 
 7297000    48.388787   -6886.2685   -6761.7913   -6886.2685            0    8677.0723      23.0043    21.121599    21.379189    10387.883    8520.1393    9083.5562    8427.5214    84.723678    188.36784   -93.045909   -5447.2442 
 7298000    51.600273   -6882.4272   -6749.6887   -6882.4272            0    8769.5407    23.079725    21.140398    21.238504    10362.575     7437.819    9393.7694    9477.0337   -188.18122    681.00404   -20.276926   -5424.3697 
 7299000    51.261414   -6882.6022   -6750.7353   -6882.6022            0    8766.5083    23.025286    21.043371    21.418753     10378.02    8459.2651    9821.8447    8018.4151    643.82069    66.978902   -260.63372   -5423.8999 
 7300000    48.931113   -6883.1812   -6757.3089   -6883.1812            0    8252.1467     23.07721    21.091256    21.346605    10389.976    8476.9986    8027.6339    8251.8075   -215.89163   -313.63837   -86.414238   -5506.8847 
 7301000    51.012606   -6877.8105   -6746.5837   -6877.8105            0    9128.1695    23.070511    21.078111    21.289396    10352.667    8361.7123    9386.9929    9635.8034   -99.424717    206.36846    371.91029    -5368.385 
 7302000    48.314009    -6883.722   -6759.4372    -6883.722            0    8721.7376    23.137089    21.021495    21.347858     10383.09    7851.2924    9377.9628    8935.9576   -10.546309   -312.77976   -256.88434   -5438.7331 
 7303000    49.433004   -6881.9593   -6754.7959   -6881.9593            0    9183.7258    23.105571      21.0359     21.30488    10355.162    9092.5461    9432.5764     9026.055   -290.43376    103.43501    58.549237   -5367.8749 
 7304000    49.442146   -6879.3738   -6752.1869   -6879.3738            0    8853.6367    23.047454    21.118524    21.343726    10388.594    8642.0057    8973.7561    8945.1483   -393.37368    -158.9475   -205.29568   -5410.7991 
 7305000    50.310344    -6880.615   -6751.1947    -6880.615            0    8921.6887    23.021043    21.145588    21.307576    10372.389    8953.6735    8759.2426    9052.1501    264.84792      205.822    123.72121   -5401.6049 
 7306000    50.759187   -6878.0091   -6747.4342   -6878.0091            0    8771.7964    22.956846     21.26379     21.26936    10382.629    8398.1034    8460.1621    9457.1236     166.1552    410.71032    99.850993   -5419.2089 
 7307000    51.117447    -6886.266   -6754.7694    -6886.266            0     8809.961    22.930331    21.199172    21.355246    10380.871    9506.7423    8820.4966    8102.6441    222.49739   -257.67022   -87.144361    -5420.991 
 7308000    50.731912   -6885.5697   -6755.0649   -6885.5697            0    9014.9151    22.974176    21.205387    21.285057    10369.575    8979.9051    8669.6032     9395.237    64.562798    665.68448   -65.430178   -5391.7427 
 7309000    50.149368   -6884.4472    -6755.441   -6884.4472            0    8531.8381    22.932166    21.202976    21.362177    10386.935    9048.7195    8255.0531    8291.7418    393.25752    137.55817   -132.36851   -5463.0143 
 7310000    49.205175   -6888.2164   -6761.6391   -6888.2164            0    8961.0933    22.967362     21.23722    21.257191     10368.47    8456.5499    8813.5797    9613.1504   -167.22893    645.30407    181.12215   -5406.6009 
 7311000    49.258356    -6884.757   -6758.0429    -6884.757            0    8192.6552    22.969274    21.199229    21.358491    10400.109    9066.1897    7790.6526    7721.1234   -374.85042   -470.82716    -205.4366   -5515.4225 
 7312000    51.053662   -6884.3566   -6753.0242   -6884.3566            0    8383.8985    23.035507     21.17376    21.303619    10390.804     8535.792    7470.3488    9145.5547   -157.83056   -50.421397    726.59829   -5482.5347 
 7313000    50.336598   -6878.9588   -6749.4709   -6878.9588            0    8378.6976    23.047584    21.111793    21.374271    10400.203    7910.3155    8658.9036    8566.8737    181.81199   -487.79189    221.04768   -5478.6211 
 7314000    49.428612    -6884.274   -6757.1219    -6884.274            0     8511.831    23.127614    21.107235    21.272061    10384.169    7781.0181    8622.1567    9132.3182   -46.431069    145.08278    516.08012   -5468.0694 
 7315000    48.770333   -6890.9612   -6765.5025   -6890.9612            0    8184.6095    23.126058    21.003974    21.390287    10390.099    7949.6204    9272.4598    7331.7482     -667.571    -505.2912    100.88752   -5525.2973 
 7316000    50.880745    -6880.382   -6749.4943    -6880.382            0    9058.7962    23.136441    21.011555    21.331669     10370.02    8928.6966    9634.0264    8613.6656   -151.27364   -376.14298   -232.14363   -5379.4773 
 7317000     47.99824   -6885.5316    -6762.059   -6885.5316            0    8861.5963    23.070042    21.064139    21.333012    10366.789    8580.2285    9687.8514     8316.709   -225.44904   -314.68687   -347.15402   -5422.2832 
 7318000    47.420233   -6880.8258   -6758.8402   -6880.8258            0    9253.0467    23.020766    21.086128    21.344196    10360.875    9040.9399    9354.7299    9363.4702    602.11994   -499.83423   -190.56519   -5360.6796 
 7319000    46.684176   -6881.2849   -6761.1927   -6881.2849            0    9381.8965    23.018237    21.131031    21.277703    10349.455    8643.1611    9592.6325    9909.8958    811.33963   -372.34659   -23.498807    -5345.125 
 7320000    48.978648   -6882.2344   -6756.2398   -6882.2344            0    8892.0479    22.957786     21.18585    21.325553    10372.327    9279.3725    8558.5613    8838.2099   -17.237101   -290.68928    248.59412   -5411.1419 
 7321000    50.615031   -6884.3184   -6754.1143   -6884.3184            0    8678.0041    22.957506    21.224699    21.307662    10382.502     8535.087    8765.3015    8733.6237   -129.29001    152.21745    90.110741   -5440.1071 
 7322000    51.422027   -6875.2377   -6742.9577   -6875.2377            0    9162.1145    22.928223    21.221649    21.308156    10368.009    8990.2119    8880.3557    9615.7759    762.90094    177.28108   -60.282288   -5357.5838 
 7323000    49.729668   -6888.9602   -6761.0337   -6888.9602            0    8756.1665     22.95674    21.207705    21.315781    10377.796    8618.4114    8532.8906    9117.1975    182.47712    128.46443   -105.19296   -5435.7922 
 7324000    49.845263   -6884.4457   -6756.2218   -6884.4457            0    8747.8511    22.927956      21.2158    21.340344    10380.689    8670.0456    8941.2796     8632.228   -344.06269    918.50702   -139.46104   -5431.8697 
 7325000    51.117134   -6887.9523   -6756.4566   -6887.9523            0     8584.457    22.969715    21.203333    21.328085    10387.514    9128.2362    8427.7288    8197.4061    -396.3414   -822.66059   -145.86215   -5455.9866 
 7326000    49.191988    -6881.935   -6755.3916    -6881.935            0    8987.5796    23.049181     21.12066    21.299462    10368.874      8456.97    9093.2199    9412.5489      132.296   -433.78845    266.07009   -5396.2952 
 7327000    49.096658   -6886.0647   -6759.7665   -6886.0647            0    9031.8888    23.070721    21.067501    21.348925    10376.483    8720.5504    9997.2438    8377.8721    243.74811    -235.8523   -724.47044   -5392.9675 
 7328000    51.280901   -6878.9964   -6747.0794   -6878.9964            0    8776.4417    23.101338    21.082178    21.295677     10371.56      8320.51    8994.1456    9014.6694   -475.25593   -160.32409    65.551568   -5419.5675 
 7329000    48.978342   -6883.9756   -6757.9818   -6883.9756            0    9099.9021    23.067331    21.046394    21.348056    10364.142    9342.4108    8905.3925    9051.9031    141.76081   -462.77681   -84.436717   -5382.5281 
 7330000    53.274896   -6883.8604    -6746.814   -6883.8604            0     9058.597    23.106944     21.02958    21.336115    10367.844    8768.2399    9362.2225    9045.3287    231.03774    -912.0356    109.23709   -5377.1145 
 7331000    49.368554   -6884.9021   -6757.9045   -6884.9021            0    8735.1512    23.057661    21.090088    21.322976    10369.109    8278.3831    8933.8408    8993.2298   -197.90668    66.555191    258.52167   -5436.9503 
 7332000    48.923382   -6883.4213   -6757.5689   -6883.4213            0     8658.311    23.024877    21.153214    21.304554    10376.386    8699.8177    8761.7195    8513.3959   -340.86433    273.39173   -568.82268   -5447.3157 
 7333000     49.89255    -6881.843   -6753.4974    -6881.843            0    8632.7857    22.941271    21.160515    21.349048    10363.876    8874.8607    8656.7057    8366.7906    41.437072    428.07542    390.47781   -5448.6821 
 7334000    49.699782   -6868.9474   -6741.0978   -6868.9474            0    9584.0623    22.937236    21.211297    21.283283    10354.925    9579.6913    8827.7579    10344.738    266.60245    44.329704    48.953613   -5293.7515 
 7335000    49.774969   -6882.3733   -6754.3303   -6882.3733            0    9241.0489    22.910046    21.216904    21.296087    10351.607    9545.6374    9246.7902    8930.7189    734.67554   -284.08021    720.81024   -5359.2316 
 7336000    48.947999   -6884.1506   -6758.2349   -6884.1506            0    8970.0872    22.984469    21.193189    21.297884    10374.502    9066.3376     8957.512     8886.412    11.142664   -15.111697   -119.97214   -5401.0475 
 7337000    48.444545   -6887.2334   -6762.6127   -6887.2334            0    8771.5514    22.945008    21.193993    21.348611    10381.751    9023.1469    8569.1186    8722.3887    582.73175    77.531339    487.77487   -5434.5368 
 7338000    50.270288   -6885.5702   -6756.2529   -6885.5702            0    8514.6669     23.05303    21.168046    21.308529    10398.298    7801.5595    8440.8878    9301.5534    82.924989    76.540466   -36.131945   -5465.0164 
 7339000    48.058904    -6890.755   -6767.1264    -6890.755            0    8211.9308    23.061092    21.131213    21.327906    10393.277    7407.8773    8712.7933    8515.1217    235.60181    7.2353479    149.69723   -5522.4007 
 7340000    48.100711   -6882.6809   -6758.9447   -6882.6809            0    9043.0678    23.070665    21.083222     21.32109    10370.663    8445.2804    9750.7918    8933.1312    479.08279   -298.10434    114.37921   -5391.2216 
 7341000    49.534603   -6888.9096   -6761.4848   -6888.9096            0    9103.2502    23.061471    21.108011    21.302605     10369.72    8572.2048    9603.3914    9134.1544   -355.91366   -218.73327   -157.50404   -5384.7846 
 7342000    49.571507   -6882.9457    -6755.426   -6882.9457            0    8668.3662    23.013843    21.068945    21.391605    10372.305    9389.8797    8290.4448    8324.7741   -83.244651    421.36908    350.28859   -5444.1672 
 7343000    49.537957   -6886.6984    -6759.265   -6886.6984            0    8445.9415    23.051647    21.141733    21.311151    10386.027    8240.9399    8572.9577    8523.9269    6.3495113    213.06992   -471.79811    -5479.962 
 7344000    50.427913   -6883.5763   -6753.8536   -6883.5763            0    8473.2143    23.033771    21.100199    21.362457    10382.521    7992.9947    9216.1205    8210.5276    216.50608   -18.852903   -150.27378   -5470.8529 
 7345000    48.533137   -6886.6782   -6761.8296   -6886.6782            0    8931.6368    23.025354    21.147899    21.290474    10367.138    8320.0985    9207.2767     9267.535    669.49174     707.1802   -124.52726   -5411.4191 
 7346000    52.938632   -6884.7953   -6748.6139   -6884.7953            0    8852.3481    23.003699    21.172212     21.30784    10377.753    8634.1739    9031.5648    8891.3054    337.10854    147.56614    65.821517   -5408.8209 
 7347000    51.745846   -6887.4894   -6754.3764   -6887.4894            0    9062.8526    22.900623    21.199498    21.343343    10361.802    10012.324    8062.0126    9114.2213   -285.79297    263.74529    30.982673    -5384.832 
 7348000    48.120646   -6884.9987   -6761.2112   -6884.9987            0    9347.6543    22.933636    21.237468    21.263522    10356.449     9865.917    8522.2761    9654.7697    650.22389   -402.69996     379.2703   -5349.3585 
 7349000    47.658241   -6876.1204   -6753.5225   -6876.1204            0      9031.25    22.922915    21.185682    21.352686    10369.667    9613.1861    8398.1289     9082.435   -365.21135   -163.25392    362.67202   -5387.7179 
 7350000    48.891473   -6887.0342   -6761.2639   -6887.0342            0     8500.463    23.045828    21.177313     21.28407    10387.663    8966.0145    8035.3397    8500.0348    243.81439   -223.56848    9.1268685   -5473.4998 
 7351000    47.742544   -6884.5181   -6761.7034   -6884.5181            0    8844.4142    23.021208    21.110244    21.353764    10377.573    8927.7608    8697.3947    8908.0871   -263.40559   -183.79544   -95.470412   -5423.1344 
 7352000    49.187292   -6884.2818   -6757.7505   -6884.2818            0    8857.8771    23.098997     21.12119    21.279725    10381.916    8768.8635    8524.8202    9279.9476   -271.25419   -568.29641    -56.42006   -5416.5829 
 7353000    49.624028    -6879.642   -6751.9872    -6879.642            0    8471.1144    23.077651    21.033162    21.416671    10395.566    8989.2909    8222.0269    8202.0255   -703.52596   -504.95991    641.07467   -5467.6929 
 7354000    49.069536    -6879.911   -6753.6826    -6879.911            0    9028.2214    23.046842    21.150444     21.28132      10373.6    9544.2629    8256.6632    9283.7381   -539.74726   -483.52219    240.96932   -5387.8182 
 7355000    49.916711   -6882.8607    -6754.453   -6882.8607            0    8775.3881    23.013523    21.144072    21.348186    10388.019    8703.9893    8743.2566    8878.9184    42.773819    44.169022   -262.82089    -5424.994 
 7356000    47.551975   -6881.6666    -6759.342   -6881.6666            0    8817.6712    22.965341    21.176102    21.337339    10376.698     9104.194    8257.0725    9091.7472    181.11431   -86.951921   -311.94271    -5424.933 
 7357000    50.013472   -6886.1803   -6757.5237   -6886.1803            0    8616.2316    22.966108    21.234013    21.275075    10375.059    8843.1646    8260.7564    8744.7737   -366.30097    174.28737     -777.289   -5453.8052 
 7358000    48.584646    -6880.905    -6755.924    -6880.905            0    8995.3271    22.967605    21.150439    21.341223    10367.031    9206.1667     8612.053    9167.7616    23.935907    312.57368    545.04406   -5395.8978 
 7359000    48.781326   -6882.1534   -6756.6664   -6882.1534            0    9405.6926    22.978943    21.201168    21.267184    10360.956    9883.0124    8673.0754    9660.9899    544.53062   -279.93941   -482.05825   -5335.4294 
 7360000    48.555691   -6884.1481   -6759.2415   -6884.1481            0    8755.8793    23.017399    21.096501    21.366286    10375.182       8790.9    8378.8099    9097.9279    -91.97166    78.804226     473.5263   -5434.3773 
 7361000    49.233715   -6881.6412   -6754.9904   -6881.6412            0    9023.5304    23.081978     21.11021    21.299194     10378.36    9315.4332    8439.8966    9315.2614   -378.00551   -202.22873    242.32416   -5389.2093 
 7362000    50.132242   -6879.5505   -6750.5884   -6879.5505            0    9294.9435    23.093273    21.030012    21.314304     10351.33     9170.237    9358.5808    9356.0127   -188.28126   -247.77652    183.71687   -5347.3909 
 7363000    50.792634   -6884.6136   -6753.9526   -6884.6136            0    8913.2137    23.075966    21.097126    21.315395    10377.114    8876.6148    9299.0907    8563.9355   -96.384484   -514.74427   -138.17273   -5405.0308 
 7364000    50.461141   -6883.0101   -6753.2018   -6883.0101            0    8581.8752    23.030185    21.104949    21.357128    10380.651    9284.1709    8563.5022    7897.9525   -200.48027   -891.08744   -41.260695   -5453.9819 
 7365000    50.227228   -6881.0415   -6751.8351   -6881.0415            0    9156.8979    22.977995    21.168978    21.309624    10365.441    9356.4962    9029.0321    9085.1655    374.35185   -761.28945   -355.33513   -5367.5929 
 7366000    47.615597   -6884.8453   -6762.3571   -6884.8453            0    8953.7512    22.997517     21.16138    21.304758    10368.157    8774.5442    9109.1346    8977.5749    678.10883    248.66892   -259.89434     -5408.47 
 7367000    47.693865   -6889.0564   -6766.3669   -6889.0564            0    9009.6855    22.909657    21.206262    21.320542     10358.12    10008.164    8768.5052    8252.3873   -266.30706    52.696949   -862.52469   -5405.3407 
 7368000    48.080613   -6884.5409   -6760.8565   -6884.5409            0    8762.1401    22.973975    21.203735    21.306772    10379.255    8833.0807     8784.929    8668.4104   -332.04563    619.87349   -544.31085   -5434.5245 
 7369000    51.134933   -6888.4343   -6756.8929   -6888.4343            0    8507.3061     22.98421    21.145629    21.351394     10377.11    8449.2008    8936.3568    8136.3608    351.51624    346.03362   -116.95369   -5469.4013 
 7370000    48.665738   -6882.4064   -6757.2168   -6882.4064            0    8600.6822    23.015989    21.187826    21.299445    10386.861    7855.1742    9032.6159    8914.2565   -460.69975    293.12517   -79.193705   -5454.3707 
 7371000    48.508225   -6882.1871   -6757.4026   -6882.1871            0    8768.8148    23.021168    21.094505    21.370603    10377.995    9242.9372    9163.7206    7899.7866   -544.15942   -138.90279    159.43603   -5430.2213 
 7372000    50.374819   -6877.6516   -6748.0655   -6877.6516            0    9182.0189    23.086935    21.107192     21.30519    10382.027    9232.3298    8927.3584    9386.3685   -316.65478   -132.93002   -122.38547   -5357.8048 
 7373000    48.488084   -6881.1812   -6756.4486   -6881.1812            0     8967.902    23.045718    21.114303    21.306687    10367.712    9164.4583    9215.7002    8523.5475  -0.31783661   -44.821932   -553.61585   -5400.4799 
 7374000     50.01977    -6879.474   -6750.8012    -6879.474            0    9275.5696     23.07427    21.061052     21.33734    10369.273    9433.0645    9523.0184     8870.626    724.87262    -180.0203   -543.93308   -5348.1012 
 7375000    51.186328   -6879.8482   -6748.1745   -6879.8482            0    9266.1059     23.09487    21.084874    21.274042    10359.446    8908.1051    9487.4193    9402.7934   -154.36642    422.23712    172.01908   -5348.2336 
 7376000    48.736248    -6881.026   -6755.6549    -6881.026            0    9209.2101    23.016701    21.080729    21.365822    10366.886    8816.6249     9781.677    9029.3283   -379.86195    101.80649   -134.26344   -5363.3108 
 7377000    50.545373    -6881.257   -6751.2321    -6881.257            0    9907.0034    22.982651    21.110026    21.309453    10338.587    9704.3765    10056.047    9960.5863    236.90184   -278.25105   -112.85882   -5257.4771 
 7378000    49.126566   -6879.6749   -6753.2998   -6879.6749            0     9082.678    22.975389    21.197711    21.270501     10359.28    9422.2482    8569.7305    9256.0555   -265.36805   -284.07674    151.21739   -5381.0936 
 7379000    50.960113   -6877.3626   -6746.2708   -6877.3626            0    9114.1427    22.916292    21.196508    21.337189    10364.441    9612.5151    9712.8505    8017.0626    280.82176   -536.82896   -990.94326    -5368.625 
 7380000    46.901012   -6883.7392   -6763.0892   -6883.7392            0    9006.6504    22.936044    21.188838    21.310386    10356.594     9496.365    8535.8146    8987.7718    138.67108    18.158037    180.76185   -5402.7219 
 7381000    49.570516   -6890.5196   -6763.0025   -6890.5196            0    8533.3972    22.975823    21.196942    21.302193    10374.535    9172.4327    7876.2541    8551.5048    60.806551    -40.08362    83.530704   -5471.8829 
 7382000    51.509859   -6880.0158   -6747.5098   -6880.0158            0     8906.556    22.962238    21.155459    21.350767    10371.705    9250.4677    8661.7812    8807.4192    169.50181    1232.3561    322.13172   -5400.2981 
 7383000    50.139301   -6881.0013    -6752.021   -6881.0013            0    9081.9312    23.066269    21.123228    21.283225    10369.912    9037.5893    8355.0737    9853.1305   -709.94471    814.83787    495.46726   -5378.5194 
 7384000    47.251272   -6885.5418   -6763.9908   -6885.5418            0     8530.433    23.041114    21.110789    21.356895    10388.338    8877.1979    7725.5092    8988.5918   -58.611532   -33.131741    51.173413   -5471.6025 
 7385000     47.74226   -6881.7241   -6758.9101   -6881.7241            0    9499.7081    23.136775    21.061482    21.241197    10350.724    8710.4517    9670.3483    10118.324    19.556638   -190.80474    161.49537   -5324.8845 
 7386000    49.108404   -6878.5929   -6752.2645   -6878.5929            0    9087.1649    23.030374    21.125417    21.346973    10385.863    8712.7287    9292.1219     9256.644    193.82691   -102.88138   -13.470341   -5375.8575 
 7387000    48.563585   -6882.0179    -6757.091   -6882.0179            0    9300.0162    23.108477    21.090454    21.265677    10364.216    8748.6316    9613.2859    9538.1311   -136.35714    248.09264    446.78489     -5351.38 
 7388000    48.234771   -6887.3692   -6763.2882   -6887.3692            0    8729.4532    23.052991    21.148725    21.293696    10381.557    8596.0444     8550.659    9041.6562    -437.7605     9.477173    56.610856   -5441.6109 
 7389000    47.156996   -6884.6864   -6763.3779   -6884.6864            0    8433.4351    22.994087    21.135857     21.39884     10399.83    8507.8898    8984.2945    7808.1209    -203.2884    5.7905465    65.523349   -5484.2716 
 7390000    49.510564   -6883.5286   -6756.1657   -6883.5286            0    9113.1852     23.03801    21.156662    21.271933    10368.098    8765.2453    9257.2366    9317.0735    115.97644    200.55776    85.066182   -5378.1786 
 7391000    49.203606   -6885.6506   -6759.0773   -6885.6506            0    9517.3401    22.904332    21.140906    21.382935    10354.009    10263.621    9268.7247    9019.6748    246.26734   -501.47398   -381.81146   -5321.9342 
 7392000    50.308876   -6883.4754   -6754.0589   -6883.4754            0    8926.1603    23.032902    21.152166    21.262676    10359.086    9369.0202    8292.2248     9117.236    956.27327    -168.3089    448.97381   -5405.5246 
 7393000    48.404036   -6879.4108   -6754.8944   -6879.4108            0    9034.4611    22.922879    21.180685    21.365765    10373.555    9708.9799    8714.0918    8680.3116    -690.9345    79.761301   -360.32228   -5388.0919 
 7394000     49.04567   -6879.5065   -6753.3395   -6879.5065            0    9182.9992    22.997191    21.160478    21.251562    10341.681    9576.6634    8671.5453    9300.7889    82.671587    414.51655    679.12472   -5368.3338 
 7395000    51.707069   -6880.0121   -6746.9988   -6880.0121            0    9154.6783    22.958636    21.142561    21.346468    10361.669    9673.7732    8786.8711    9003.3907   -24.905097   -68.589035     103.2158   -5363.5959 
 7396000    49.935483   -6883.3373   -6754.8813   -6883.3373            0    9459.9461    22.959708    21.119955    21.332415    10344.259    9974.2314    9093.9987    9311.6083   -1034.7315     77.32933    595.66074   -5327.7501 
 7397000    49.612663   -6888.5492   -6760.9236   -6888.5492            0     8734.165    23.067196    21.117326     21.28712    10369.329    9236.8592    8209.1156    8756.5201    10.568439    -759.7972   -127.86675   -5440.0906 
 7398000    48.159356   -6887.2346   -6763.3476   -6887.2346            0     8363.037    23.052793    21.067826    21.392557    10389.771    8955.4906    7938.2975    8195.3229    -279.9598   -61.254705    517.97094   -5496.1455 
 7399000    49.705894   -6876.6798   -6748.8144   -6876.6798            0    8734.2943    23.180243    21.070406    21.253775    10380.708     8278.025    8489.0165    9435.8415   -520.78034    353.32276    -158.4916   -5426.5123 
 7400000    48.617856   -6885.4554    -6760.389   -6885.4554            0    8662.4343    23.052041    21.081729    21.376483    10388.477    8875.0241     8476.796    8635.4827    20.722592   -607.22575    17.878035   -5447.9845 
 7401000    49.181981   -6877.9376     -6751.42   -6877.9376            0    8856.6202    23.079016    21.135199    21.282348    10381.095    8592.5353    8556.0284    9421.2968    635.68157    146.42669    126.70663   -5410.5487 
 7402000    48.766505   -6888.3286   -6762.8798   -6888.3286            0    8871.7863    22.977049    21.197022    21.305842    10376.904    9336.1891    8132.3849    9146.7848   -225.37649    373.78607   -9.6700736   -5420.2546 
 7403000    50.592716   -6881.2073   -6751.0606   -6881.2073            0    8248.4705    22.970614    21.209507    21.322448    10388.198    8951.0539    7676.8285    8117.5292    114.06994    339.49306    165.92802   -5501.4073 
 7404000    48.079771   -6879.9356   -6756.2533   -6879.9356            0    8885.2605    22.940602    21.253639    21.287803    10379.321    9342.9116    8166.3586    9146.5112     335.8847   -499.45031   -228.67542   -5411.2758 
 7405000    46.607433   -6881.1582   -6761.2634   -6881.1582            0    8714.3358    22.960322    21.174261    21.330005    10369.962    8722.2284    8952.5826    8468.1963    54.874992   -247.03042    34.855102   -5443.3486 
 7406000    47.629457    -6888.051   -6765.5271    -6888.051            0    8864.1443    23.008087    21.164846    21.290281    10367.571    8928.5972    9008.0977    8655.7382   -350.72666   -653.05951    351.03274    -5425.265 
 7407000    49.662885   -6886.0208   -6758.2661   -6886.0208            0    8971.3508    23.017311     21.12292    21.306389    10359.013    9144.1704    8888.9912    8880.8908   -161.26886   -23.817306    355.76251    -5402.914 
 7408000    49.049074   -6885.9662   -6759.7904   -6885.9662            0    8781.8472    23.085149    21.144873    21.250603    10373.111    8998.8668    8325.7459    9020.9289   -455.34873   -566.04267   -45.594031   -5431.2622 
 7409000    49.820958   -6884.7639   -6756.6025   -6884.7639            0    8807.8128    23.011041    21.102417    21.390319    10386.894    9132.6526    8783.6938    8507.0922    539.63486   -632.99921    47.317841   -5422.3757 
 7410000    50.094481   -6885.9922   -6757.1272   -6885.9922            0    8672.5334    23.080528    21.093196    21.305658    10372.492    7946.5178    9224.4202    8846.6622    353.89259   -26.325552    126.25285   -5445.2144 
 7411000    48.511892   -6889.5796   -6764.7858   -6889.5796            0    8630.8833    23.018224    21.130494    21.350407    10384.549      8414.65    8750.2302    8727.7697   -311.93245   -390.43546    276.52795   -5457.6558 
 7412000    49.923324   -6883.4976   -6755.0729   -6883.4976            0    8621.7997    23.052577    21.053225    21.355797    10364.633     8371.136    8667.1332    8827.1299    338.34849    771.99089    546.49996   -5451.8229 
 7413000    50.178976    -6883.051   -6753.9686    -6883.051            0    9377.0053    23.014347    21.119426    21.300237    10352.976     9530.619    9052.8778    9547.5192   -346.84923   -190.97052    -3.670109   -5338.1577 
 7414000    47.945226   -6879.8113   -6756.4751   -6879.8113            0    9334.8211    22.975415    21.099004    21.336932    10343.256    10277.125    9298.6517    8428.6867   -170.39511   -519.84082   -127.61242   -5348.3567 
 7415000    49.715951   -6884.0297   -6756.1385   -6884.0297            0    8791.0151    22.958313    21.172044    21.332809    10369.333    9295.0669    8218.1557    8859.8225   -158.95737   -312.98568    184.82667   -5426.7077 
 7416000    51.012938   -6878.3066    -6747.079   -6878.3066            0    8970.9494    22.985319    21.207604    21.253535    10360.323    9451.5832     8886.882     8574.383   -253.46845   -600.26423   -369.96942   -5391.6162 
 7417000    47.794339   -6879.3949   -6756.4469   -6879.3949            0    8832.7879     22.94433    21.139613    21.380458    10370.254    9185.2659    8927.8841    8385.2136    57.678454    72.553688    169.69382   -5420.5802 
 7418000    50.375647   -6879.7574   -6750.1691   -6879.7574            0    9018.6696    22.980303    21.210981    21.300461    10382.585    9609.8753    8368.5692    9077.5643   -154.16664   -272.78032   -889.74858    -5384.568 
 7419000      49.1267   -6870.4403   -6744.0648   -6870.4403            0    9192.1987    23.034531    21.148347     21.28616    10369.388    8972.6162    8956.1565    9647.8233   -92.813472    357.94514    94.984311   -5353.9573 
 7420000    48.673284   -6884.2639   -6759.0548   -6884.2639            0    8825.7468    23.018303    21.111834    21.378284    10388.961    9455.9123    9393.0175    7628.3107   -781.34199   -261.77202   -1540.1202   -5421.8452 
 7421000    50.151896   -6882.8282   -6753.8155   -6882.8282            0    9374.8621    23.060732    21.059598    21.315238     10351.74    9177.6771    9701.5213    9245.3878   -18.461308    150.90433    304.69335   -5338.4972 
 7422000    50.244806   -6883.6298    -6754.378   -6883.6298            0    9076.3448    23.064079     21.08329    21.324858    10369.568    8312.8837    9474.3065    9441.8441    105.78953    189.88032   -8.0223557   -5381.7669 
 7423000    49.596993   -6886.3789   -6758.7937   -6886.3789            0    9051.8036     23.09173    21.021666    21.360043    10368.734    8773.7537    9830.1532     8551.504   -430.96824   -29.857308    124.58901   -5390.0039 
 7424000    47.846057    -6882.046   -6758.9649    -6882.046            0    9055.8259    23.176333    21.069273    21.218606    10361.226    7975.5259    10060.123     9131.829   -363.45848    326.31834   -476.27067   -5390.5586 
 7425000    48.641881   -6882.5455   -6757.4173   -6882.5455            0    8786.5446    23.039401    21.075437     21.40818    10395.072    8544.9472    10210.002    7604.6846   -232.58129    263.47902   -121.53866   -5425.3642 
 7426000    51.826982   -6892.8777   -6759.5559   -6892.8777            0    8890.8005    23.076713    21.106401    21.288483    10368.904    8146.2314    9626.0444    8900.1257    196.75939    57.693637    482.40572   -5415.0906 
 7427000    50.842784    -6882.002    -6751.212    -6882.002            0    8279.1847    22.995416    21.207845    21.323391     10399.06     8505.231    7887.3418    8444.9812   -532.46383    82.862681    63.485635    -5495.594 
 7428000     50.66207   -6885.1811    -6754.856   -6885.1811            0    8556.7866     22.94866    21.193837    21.351725    10384.842    9201.1244    8503.5228    7965.7127     835.6729   -2.4883802     224.0535   -5458.9113 
 7429000    49.730399   -6882.6293   -6754.7009   -6882.6293            0    9060.9803    22.861343    21.304403    21.285782    10367.182    9887.1017    8208.7099    9087.1294   -1.3376438   -156.84879    4.2255999   -5384.7286 
 7430000    47.417857   -6877.0506   -6755.0711   -6877.0506            0    8919.5359     22.93335    21.275009    21.264757    10375.229    9404.5488    7845.4322    9508.6266   -163.08538   -79.673538    339.38642   -5405.4376 
 7431000    48.539333   -6882.8626   -6757.9981   -6882.8626            0    8872.3065    22.944665    21.202341    21.339557    10381.281    8895.6922    8508.4166    9212.8106    269.39856    124.22418    381.19278    -5414.728 
 7432000    49.358158   -6879.9513   -6752.9805   -6879.9513            0    8832.2601    22.921857    21.222576     21.33679    10379.513    9442.4834    8229.1127    8825.1842    94.778626    57.241384   -548.11123    -5416.001 
 7433000    49.797035   -6889.4682   -6761.3684   -6889.4682            0    8532.7796    23.017893    21.173415    21.289026    10375.577    8302.6643    8703.5669    8592.1075    180.49407    466.11069     66.65388   -5470.2125 
 7434000    48.025234   -6883.0629   -6759.5209   -6883.0629            0    9057.2781    22.981922    21.145439    21.344983    10372.869    9331.0093    8855.1238    8985.7013   -98.403037   -168.16409   -415.49633   -5389.3572 
 7435000    50.917885   -6880.1991   -6749.2159   -6880.1991            0    9089.8801    23.069583    21.081987    21.295524    10357.135    9055.8648    9263.4394    8950.3359   -309.76874    76.754718    176.75427   -5376.2061 
 7436000    49.135952   -6879.2034   -6752.8042   -6879.2034            0    8779.4141    23.050741    21.066627    21.392082    10388.024    8677.8494    9116.5256    8543.8671    205.95103    47.927043   -226.33385   -5422.7346 
 7437000    47.259004   -6883.9428   -6762.3719   -6883.9428            0     8565.542    23.095486    21.123718    21.265299    10374.543    8185.4171     8539.373    8971.8358   -588.93446    380.23675   -263.55296   -5466.3877 
 7438000    50.316696   -6879.5381   -6750.1014   -6879.5381            0    8571.5523    23.127856    21.037001    21.342603    10384.046    8375.2156    9404.5875    7934.8539    333.25577    227.24491   -410.48252   -5452.0199 
 7439000    47.847363   -6887.7201   -6764.6356   -6887.7201            0     9057.149    23.004759    21.114923     21.34986     10370.56    8850.1119    8897.9585    9423.3767    329.16943    223.15929    207.55131   -5394.7963 
 7440000    51.676663    -6875.634   -6742.6989    -6875.634            0     8960.484    22.981503    21.212417    21.260013    10364.112    8629.2277    8856.6588    9395.5655    468.24787    519.77483    311.76034   -5388.3222 
 7441000     49.88482   -6877.8814   -6749.5557   -6877.8814            0     9150.144    22.918346     21.17234    21.358809    10364.042    9771.1728    9172.4937    8506.7656    325.47215   -201.60981   -613.45286   -5366.5213 
 7442000    49.544398   -6877.1534   -6749.7035   -6877.1534            0    9291.2791    22.876477    21.248842    21.289034    10348.571    9681.6949    8819.3772    9372.7652   -792.54447    425.61253    337.90831   -5347.4331 
 7443000    49.868054   -6884.8429   -6756.5603   -6884.8429            0    9065.5708     22.98844    21.189522    21.259242    10355.675    8897.8028    8986.3072    9312.6026   -668.23892    158.75073   -163.13971   -5387.4152 
 7444000    49.240065   -6879.5858   -6752.9188   -6879.5858            0    9145.5433    22.924165    21.127626    21.375327     10352.78    9802.4973    8937.3392    8696.7934    139.55947   -357.28278     662.5391   -5372.0819 
 7445000    50.259011    -6882.087   -6752.7987    -6882.087            0     8992.354    23.048602    21.172959    21.262812    10376.403    8582.2587    9417.3587    8977.4444   -789.57865   -443.59304   -405.39619    -5391.993 
 7446000    49.877936   -6887.7539    -6759.446   -6887.7539            0    8938.3501    23.010021       21.036    21.442285    10378.898    8849.5792    9581.5739    8383.8972   -55.467075   -636.49126    366.91958   -5406.4874 
 7447000    50.322929   -6881.6557    -6752.203   -6881.6557            0    9187.1181    23.134343    21.038584    21.288848    10361.576     8877.413    9867.7141    8816.2271   -275.29927   -477.96458    -952.4483   -5363.9104 
 7448000    49.631174   -6879.5835   -6751.9103   -6879.5835            0    9011.8555     23.05032    21.069032    21.362872    10374.834    8905.9559    9321.0693    8808.5414   -225.16488   -9.9746621   -272.88588   -5388.3596 
 7449000    50.478265   -6882.1065   -6752.2543   -6882.1065            0    8640.6075    23.107877    21.067977    21.323184    10380.898    8587.1659     8716.289    8618.3677    212.08447   -49.783438   -240.52499   -5444.1116 
 7450000    47.783998   -6883.3846   -6760.4632   -6883.3846            0    8388.8395    23.081898    21.070589    21.353802    10385.404    8564.2732    8389.6102    8212.6352    169.40787   -133.41491  -0.51544985   -5489.8857 
 7451000    49.808093   -6884.7351   -6756.6068   -6884.7351            0    8836.4574    23.020269    21.140183    21.339268    10384.813    9373.2339    8462.1584    8673.9798    387.53894    -468.8989   -232.67857   -5418.3091 
 7452000     50.30464   -6885.6459   -6756.2403   -6885.6459            0    8878.1437    22.997716    21.138584    21.337841     10373.16    8890.1485    8841.9986     8902.284    584.10922   -77.111195    1029.5779   -5413.1379 
 7453000    48.191645   -6889.9567   -6765.9866   -6889.9567            0    8871.3909     22.97554      21.2134    21.275676    10369.538    9174.4568    8529.8721    8909.8438    58.312772   -270.52395     -681.802   -5424.3744 
 7454000    48.524002   -6883.5255   -6758.7004   -6883.5255            0    9018.1278    22.970776    21.170424    21.331628    10373.593    9060.4322     8932.916    9061.0352    144.06465    895.96102    168.96845   -5394.3639 
 7455000    49.648092    -6889.465   -6761.7483    -6889.465            0    8973.8612    22.908753    21.244812    21.325714    10379.058    9554.9416    8714.7773    8651.8646   -272.47494    -85.68407   -352.67665   -5403.3936 
 7456000    48.116925    -6886.231   -6762.4531    -6886.231            0    8755.4999    23.008453    21.195547     21.25819    10367.125    7936.1502    8948.4925    9381.8572   -311.87137    253.76438   -329.28342    -5438.675 
 7457000    47.889924   -6887.2416   -6764.0477   -6887.2416            0    8742.0954    22.994141    21.150736    21.341241    10379.163    8650.4247    8869.4189    8706.4427    90.777965   -432.30238    69.109842   -5440.7615 
 7458000    49.584676   -6881.3147   -6753.7611   -6881.3147            0    8935.2572    22.992116    21.164986    21.288611     10359.63    8782.1394    8835.1496    9188.4826   -245.23334   -134.16306   -38.210713   -5403.7815 
 7459000    50.292903     -6883.17   -6753.7946     -6883.17            0    8662.9783    23.052832    21.145684    21.295917    10381.076    8259.2582     8362.936    9366.7408    791.48063   -559.37755    469.79526   -5442.2427 
 7460000    47.314522   -6879.6192   -6757.9055   -6879.6192            0    8940.5264    23.058598    21.020977    21.416943    10381.097    9008.1208    9331.7246    8481.7339   -72.894377   -145.57761   -176.33915   -5404.3307 
 7461000    50.561638   -6880.9073   -6750.8406   -6880.9073            0    9123.3453    23.106249    21.077892     21.27041    10359.349    8142.9106    9689.6282     9537.497   -426.60841    426.64506   -32.344483   -5372.4812 
 7462000    48.112515   -6884.4196   -6760.6531   -6884.4196            0    8809.3016    23.018376    21.073202    21.400536    10380.777    8836.6848    9395.0052    8196.2148    78.347913    433.16112   -285.52813   -5426.9866 
 7463000    48.922629   -6882.8886   -6757.0381   -6882.8886            0      8834.98    23.056688    21.094281    21.305674    10362.318    8678.6365    9197.2958    8629.0076    471.72543    426.15371    395.80006   -5421.8626 
 7464000    49.376213   -6884.6259   -6757.6086   -6884.6259            0    8658.1135    23.011595    21.167189    21.307228    10378.554    8910.6968    8773.2038      8290.44    70.841367    226.86442   -908.91335   -5447.1117 
 7465000    46.877798   -6883.7504   -6763.1601   -6883.7504            0    8855.7107    22.944466    21.173482    21.346818    10370.588    8978.5298    8565.3016    9023.3008    264.45235    32.665163    381.92649   -5423.7836 
 7466000    48.403056   -6881.1931   -6756.6792   -6881.1931            0    8678.6383    22.910893    21.311599    21.253617    10377.456    8495.4257    8330.0857    9210.4035    671.90737    59.081942    -330.0574   -5443.2146 
 7467000    49.836367   -6883.7486   -6755.5476   -6883.7486            0     9019.612    22.928534    21.197725    21.323907    10364.118    9334.5961    9160.9766    8563.2632    39.781945     511.5143    76.791476    -5392.233 
 7468000    50.391897   -6881.9713   -6752.3412   -6881.9713            0    8855.7931    22.951786    21.208201    21.316823    10376.307    9071.2174    8970.2254    8525.9365   -279.90264    105.65916   -509.71028   -5412.2136 
 7469000      50.3236   -6886.7463   -6757.2919   -6886.7463            0    8948.1578    22.954096    21.210734    21.302163    10371.453     9403.837    8498.8981    8941.7384   -466.19762    91.335199   -479.68656   -5403.8204 
 7470000    47.603277   -6885.8792   -6763.4227   -6885.8792            0     8879.205    23.044009    21.106774    21.317424    10368.469    8642.7555    8424.5103    9570.3494    194.11708    229.54202    632.82212   -5420.7672 
 7471000    48.930301   -6884.8547   -6758.9845   -6884.8547            0    8855.5933    23.065944     21.10507    21.330555    10383.892    8498.1863    8882.9034    9185.6903   -35.034873   -42.961861    57.908248   -5417.9074 
 7472000    50.669403   -6889.4783   -6759.1344   -6889.4783            0     8892.544    23.104533    21.050659    21.308121    10363.538     8455.537    9118.5654    9103.5296   -13.884649    100.42928    165.01832   -5415.1014 
 7473000    49.448337   -6888.2386   -6761.0358   -6888.2386            0    8976.3669     23.05785    21.073716    21.349269    10373.921     8910.546    9154.9294    8863.6253    248.77278    126.16099   -167.98724   -5402.9743 
 7474000    49.672062   -6877.2095   -6749.4311   -6877.2095            0    9129.4587    23.032978    21.102931    21.327718    10366.622    9255.5621    8975.2436    9157.5704    344.96592    58.059992   -28.457076   -5369.1798 
 7475000    50.160201   -6887.9863   -6758.9523   -6887.9863            0    8949.3742    23.033383    21.121025    21.306716    10365.475    9361.6016    8737.0025    8749.5184    207.93022   -487.84589    412.52616   -5406.0769 
 7476000    49.859852   -6885.2086   -6756.9471   -6885.2086            0     8855.083    22.978476    21.165971    21.319658    10369.067    9200.8453    8346.5355    9017.8683    300.11786   -18.049109    539.93767    -5417.862 
 7477000    52.486665   -6879.7873   -6744.7686   -6879.7873            0    8892.1796    22.950383    21.217704     21.29605    10370.206     8975.314    8446.9928    9254.2319    220.47549    99.882933    256.35963   -5399.9259 
 7478000    51.925105   -6882.7236   -6749.1494   -6882.7236            0    8381.3206    22.962984    21.245376    21.291824     10387.37    8257.8971    8664.3934    8221.6712     197.9983   -340.62336   -154.87547   -5479.4704 
 7479000    50.280553    -6884.984   -6755.6403    -6884.984            0    8274.6909    22.975762    21.196379    21.342285    10393.756    7656.3145     8719.207    8448.5512    67.174572   -117.28936     230.5444   -5501.3439 
 7480000    50.257368   -6881.5718   -6752.2878   -6881.5718            0    8206.2337    23.027781    21.197497    21.301715    10398.034    7857.8842    8161.6776    8599.1393    71.123429   -127.57841    342.24499   -5507.8562 
 7481000    51.418743    -6883.188   -6750.9164    -6883.188            0    8418.6396    23.050351     21.11072    21.353294    10390.716    8427.9459    8554.9271    8273.0459   -290.20828    146.20208    553.55664   -5475.1732 
 7482000    51.362845   -6886.1145   -6753.9867   -6886.1145            0    8969.0169    23.096775    21.070459    21.317315    10374.277    8446.5232    9329.1804    9131.3469   -691.39551    487.17336   -318.39091   -5396.9907 
 7483000    49.873516    -6887.791   -6759.4944    -6887.791            0    8684.5468    23.098979    21.039199    21.353464    10377.443    8331.5728    9033.5227     8688.545   -314.03486    301.32731   -135.53785   -5445.1373 
 7484000    48.917517   -6879.1004   -6753.2631   -6879.1004            0    9234.8628    23.159054    20.997249    21.307083    10361.132    8619.8737    9558.7726    9525.9422    126.46175    157.52457    203.22517   -5357.8154 
 7485000    48.993252   -6882.7061   -6756.6739   -6882.7061            0    9001.1177     23.04814    21.064883    21.368937    10374.755    9382.0123    9256.3862    8364.9546    231.77297   -295.42651   -180.90708   -5394.7584 
 7486000    50.768838   -6886.2542   -6755.6545   -6886.2542            0    9247.6784     23.00475    21.134526    21.303833    10357.806    9393.7542    9245.4618    9103.8191   -703.14947    275.13775   -540.12732    -5358.719 
 7487000     48.87375   -6886.1613   -6760.4365   -6886.1613            0    8967.3974     22.95745    21.171703    21.333698    10369.207     9399.382    9108.6979    8394.1123    281.82638   -69.293373    -619.9308   -5404.3486 
 7488000    51.393097   -6881.9908   -6749.7852   -6881.9908            0    8774.4536    22.980135    21.193231    21.310295     10378.61    8415.0636    8808.8665    9099.4306    553.91614   -172.67978    4.7890802   -5421.6717 
 7489000    50.666689   -6889.0872   -6758.7503   -6889.0872            0     8544.403     22.87956    21.307445    21.308999    10388.243    8945.0705     8105.605    8582.5334   -78.238067   -499.36523   -46.186325   -5464.2573 
 7490000      51.1178   -6884.7883   -6753.2908   -6884.7883            0    9061.6047    22.932172    21.192516    21.337511    10369.826    8953.4414    9457.5289    8773.8438    840.03675    214.48623    450.87352   -5382.8747 
 7491000    47.931893   -6882.6399    -6759.338   -6882.6399            0     8833.256    22.972142    21.222118    21.286664    10377.621    8765.1814    9195.3682    8539.2184    268.38962   -305.25397   -586.23491   -5422.4516 
 7492000    49.567648   -6888.1315   -6760.6218   -6888.1315            0    8629.8363    22.994491    21.197491    21.301774    10383.028    8400.6508    8636.9795    8851.8787   -440.01069    142.15489    346.32749   -5453.8418 
 7493000    48.864215   -6880.2234   -6754.5232   -6880.2234            0    8796.6554    23.003062    21.104158    21.382992    10380.593    9295.0541    8717.4014    8377.5107   -6.5287245   -160.30562    314.16237   -5422.7949 
 7494000    49.464126   -6885.3959   -6758.1525   -6885.3959            0    7845.7336    23.145426    21.106667    21.284424    10397.927    7326.1722    7988.3898    8222.6389   -142.31359    99.648897    324.75076   -5568.4011 
 7495000    52.216156    -6884.281   -6749.9581    -6884.281            0    8426.0614    23.068655    21.061417    21.397692    10396.252    8817.0635    8329.2468    8131.8739   -261.51892     244.1278   -231.40666   -5472.4098 
 7496000      48.9386    -6886.672   -6760.7804    -6886.672            0    8641.2697    23.055254    21.107288    21.331337    10380.551    8001.6659    9191.2641    8730.8791   -9.6058763    570.74441   -306.14943   -5452.5813 
 7497000    49.851154   -6884.8786   -6756.6395   -6884.8786            0    8675.9945     23.03821     21.17536    21.275123    10378.907    8227.2739     8860.974    8939.7355   -274.55046    20.649798   -173.15417   -5443.3914 
 7498000    49.879999   -6882.3308   -6754.0175   -6882.3308            0    8710.6653    22.913092    21.187236    21.394303    10386.187     9277.386    8475.1043    8379.5056   -43.196252    208.35184    18.755591   -5434.5967 
 7499000    49.878234   -6884.3909   -6756.0822   -6884.3909            0    8757.5848    22.945527    21.311057    21.201896    10367.588    9095.9042    7790.8043    9386.0459    7.9058354   -42.918704   -165.46239   -5431.9298 
 7500000    51.597628   -6878.1916   -6745.4599   -6878.1916            0    8868.2168    22.874348    21.213385    21.395839    10382.167    9965.2608    8364.1863    8275.2032   -25.416804    146.53014   -202.15821   -5402.6943 
Loop time of 565.746 on 64 procs for 250000 steps with 1296 atoms

Performance: 76.359 ns/day, 0.314 hours/ns, 441.894 timesteps/s
195.0% CPU use with 32 MPI tasks x 2 OpenMP threads

MPI task timing breakdown:
Section |  min time  |  avg time  |  max time  |%varavg| %total
---------------------------------------------------------------
Pair    | 39.022     | 48.967     | 60.57      | 103.2 |  8.66
Bond    | 0.76295    | 1.0485     | 1.309      |  11.6 |  0.19
Kspace  | 286.56     | 298.15     | 310.31     |  42.5 | 52.70
Neigh   | 0.27007    | 0.28969    | 0.30248    |   1.6 |  0.05
Comm    | 82.87      | 86.265     | 90.475     |  23.8 | 15.25
Output  | 0.67357    | 0.6742     | 0.67547    |   0.1 |  0.12
Modify  | 106.59     | 111.24     | 113.37     |  13.8 | 19.66
Other   |            | 19.11      |            |       |  3.38

Nlocal:        40.5000 ave          50 max          29 min
Histogram: 4 3 2 6 1 0 0 3 9 4
Nghost:        3203.50 ave        3227 max        3179 min
Histogram: 3 1 3 6 5 3 1 1 7 2
Neighs:        13454.8 ave       16635 max        9663 min
Histogram: 2 5 2 6 1 0 0 4 8 4

Total # of neighbors = 430555
Ave neighs/atom = 332.21836
Ave special neighs/atom = 2.0000000
Neighbor list builds = 505
Dangerous builds = 0

unfix		3
unfix		2
unfix		1

write_data	data.final.${pid}
write_data	data.final.0
System init for write_data ...
PPPM initialization ...
  extracting TIP4P info from pair style
  using 12-bit tables for long-range coulomb (../kspace.cpp:340)
  G vector (1/distance) = 0.37009793
  grid = 30 40 32
  stencil order = 5
  estimated absolute RMS force accuracy = 0.0039869624
  estimated relative force accuracy = 1.2006619e-05
  using double precision FFTW3
  3d grid and FFT values/proc = 7888 1280
Last active /omp style is kspace_style pppm/tip4p/omp
WARNING: Not all mixed pair coeffs generated from mixing. Use write_data with 'pair ij' option to store all pair coeffs. (../write_data.cpp:312)

write_restart   restart.lmp.${pid}
write_restart   restart.lmp.0
System init for write_restart ...
PPPM initialization ...
  extracting TIP4P info from pair style
  using 12-bit tables for long-range coulomb (../kspace.cpp:340)
  G vector (1/distance) = 0.37009793
  grid = 30 40 32
  stencil order = 5
  estimated absolute RMS force accuracy = 0.0039869624
  estimated relative force accuracy = 1.2006619e-05
  using double precision FFTW3
  3d grid and FFT values/proc = 7888 1280
Last active /omp style is kspace_style pppm/tip4p/omp
Total wall time: 0:09:25
