LAMMPS (30 Jul 2021)
  using 1 OpenMP thread(s) per MPI task
package omp 0
using multi-threaded neighbor list subroutines
echo both

include		in.partitions
variable        pid world 0
include		in.temp
variable        temperature equal 263.46
variable	tempDamp equal 100.0
include		in.pressure
variable        pressure equal 6375.0
variable        pressureDamp equal 1000.0 # This is 1 ps
include		in.seed
variable        seed world 745823

units		real
atom_style	full

read_restart	restart.lmp.${pid}
read_restart	restart.lmp.0
Reading restart file ...
  restart file = 30 Jul 2021, LAMMPS = 30 Jul 2021
  restoring atom style full from restart
  orthogonal box = (-0.15763236 0.085414671 0.080210908) to (20.157633 19.914586 20.619787)
  4 by 4 by 4 MPI processor grid
  restoring pair style lj/cut/tip4p/long/omp from restart
  restoring bond style harmonic/omp from restart
  restoring angle style harmonic/omp from restart
  972 atoms
  648 bonds
  324 angles
Finding 1-2 1-3 1-4 neighbors ...
  special bond factors lj:    0        0        0       
  special bond factors coul:  0        0        0       
     2 = max # of 1-2 neighbors
     1 = max # of 1-3 neighbors
     1 = max # of 1-4 neighbors
     2 = max # of special neighbors
  special bonds CPU = 0.409 seconds
  read_restart CPU = 0.622 seconds
include 	in.setup
variable	out_freq equal 1000
variable	out_freq2 equal 10000
variable	out_freq3 equal 1000

timestep	2.0

neigh_modify    delay 7 every 1

include		in.tip4p
# This is TIP4P/Ice

# create groups ###
group ox type 2
324 atoms in group ox
group hy type 1
648 atoms in group hy

# set charges - beside manually ###
set group ox charge -1.1794
Setting atom values ...
  324 settings made for charge
set group hy charge 0.5897
Setting atom values ...
  648 settings made for charge

# ### TIP3P Potential Parameters ###
pair_style lj/cut/tip4p/long/omp 2 1 1 1 0.1577 8.5
pair_coeff 1 1*2 0.000 0.000
pair_coeff 2 2 0.21084 3.1668
bond_style  harmonic
bond_coeff  1 450 0.9572
angle_style harmonic
angle_coeff 1 55 104.52
kspace_style pppm/tip4p/omp 1.0e-5
pair_modify tail yes

thermo          ${out_freq}
thermo          1000
thermo_style    custom step temp pe etotal epair emol press lx ly lz vol pxx pyy pzz pxy pxz pyz enthalpy

restart 	${out_freq3} restart.lmp.${pid} restart2.lmp.${pid}
restart 	1000 restart.lmp.${pid} restart2.lmp.${pid}
restart 	1000 restart.lmp.0 restart2.lmp.${pid}
restart 	1000 restart.lmp.0 restart2.lmp.0


include         in.dump
dump            myDump all atom ${out_freq2} dump.water.${pid}
dump            myDump all atom 10000 dump.water.${pid}
dump            myDump all atom 10000 dump.water.0
dump            myDump2 all dcd ${out_freq2} dump.dcd
dump            myDump2 all dcd 10000 dump.dcd
dump_modify     myDump append yes
dump_modify     myDump2 append yes


variable natoms 	equal  "count(all)"                        # NUMBER ATOMS
variable H      	equal  "enthalpy/v_natoms"                 # ENTHALPY-per-atom
variable Vol      	equal  "vol/v_natoms"                 # volume-per-atom
fix AVG all 		ave/time ${out_freq} 1 ${out_freq} v_Vol v_H file vol_enthalpy.dat
fix AVG all 		ave/time 1000 1 ${out_freq} v_Vol v_H file vol_enthalpy.dat
fix AVG all 		ave/time 1000 1 1000 v_Vol v_H file vol_enthalpy.dat


timer           timeout 02:55:00 every 1000
New timer settings: style=normal  mode=nosync  timeout=02:55:00

fix 		1 all shake 1e-6 200 0 b 1 a 1
       0 = # of size 2 clusters
       0 = # of size 3 clusters
       0 = # of size 4 clusters
     324 = # of frozen angles
  find clusters CPU = 0.008 seconds
fix             2 all nph aniso ${pressure} ${pressure} ${pressureDamp}
fix             2 all nph aniso 6375 ${pressure} ${pressureDamp}
fix             2 all nph aniso 6375 6375 ${pressureDamp}
fix             2 all nph aniso 6375 6375 1000
fix             3 all temp/csvr ${temperature} ${temperature} ${tempDamp} ${seed}
fix             3 all temp/csvr 263.46 ${temperature} ${tempDamp} ${seed}
fix             3 all temp/csvr 263.46 263.46 ${tempDamp} ${seed}
fix             3 all temp/csvr 263.46 263.46 100 ${seed}
fix             3 all temp/csvr 263.46 263.46 100 745823


run             250000
PPPM initialization ...
  extracting TIP4P info from pair style
  using 12-bit tables for long-range coulomb (../kspace.cpp:340)
  G vector (1/distance) = 0.37137374
  grid = 24 24 24
  stencil order = 5
  estimated absolute RMS force accuracy = 0.0036119261
  estimated relative force accuracy = 1.0877208e-05
  using double precision FFTW3
  3d grid and FFT values/proc = 2197 216
Last active /omp style is kspace_style pppm/tip4p/omp
Neighbor list info ...
  update every 1 steps, delay 7 steps, check yes
  max neighbors/atom: 2000, page size: 100000
  master list distance cutoff = 10.8154
  ghost atom cutoff = 10.8154
  binsize = 5.4077, bins = 4 4 4
  1 neighbor lists, perpetual/occasional/extra = 1 0 0
  (1) pair lj/cut/tip4p/long/omp, perpetual
      attributes: half, newton on, omp
      pair build: half/bin/newton/omp
      stencil: half/bin/3d
      bin: standard
Per MPI rank memory allocation (min/avg/max) = 9.221 | 9.223 | 9.225 Mbytes
Step Temp PotEng TotEng E_pair E_mol Press Lx Ly Lz Volume Pxx Pyy Pzz Pxy Pxz Pyz Enthalpy 
 9500000    280.47317   -4685.9195   -4145.0034   -4685.9195            0    5766.1337    20.315266    19.829172    20.539576    8274.0579    3261.3448    8022.5553    6014.5009   -343.42213    973.14915    312.45349   -3449.2118 
 9501000    267.98883   -4704.2256   -4187.3867   -4704.2256            0    6185.5774    19.909157    19.945866    20.665204    8206.2637    6334.3127    5735.6978    6486.7219    111.46549    639.46976   -508.15398   -3447.0971 
 9502000    253.93884   -4668.3623   -4178.6199   -4668.3623            0    6184.8224    19.790915    19.893329    20.943011     8245.414    6489.3206    6479.4929    5585.6535    620.51251    1443.7523   -297.66278   -3434.8894 
 9503000    270.45391   -4706.9561    -4185.363   -4706.9561            0     4503.178    20.220687    19.809959    20.624668    8261.6438    5489.9017    3420.1149    4599.5173    -244.0021    131.06635    332.30487   -3642.7859 
 9504000    256.48494   -4711.5582   -4216.9054   -4711.5582            0    7550.9753    19.913138    20.171964    20.306106     8156.701    7612.2607    7484.2237    7556.4416    -109.0215   -603.40674    971.44745   -3318.6631 
 9505000    250.47111   -4676.0799   -4193.0253   -4676.0799            0    5451.5292    20.077707    20.123376    20.443049    8259.6306    5886.3054    4036.8484    6431.4337   -808.22956   -1378.1632    783.29503   -3536.3437 
 9506000    261.33194   -4668.5242   -4164.5235   -4668.5242            0    5618.0291    19.955361    19.826555    20.714894    8195.7663    6229.6711    6886.9697    3737.4465   -329.89396    792.70956   -116.81453   -3493.0182 
 9507000    284.23686   -4729.8486   -4181.6739   -4729.8486            0     4923.682    19.771102    20.158134    20.717509    8256.9322    5898.1998    3426.4699    5446.3764    207.70245   -835.04165   -444.99265   -3588.7696 
 9508000    269.89438   -4695.8581   -4175.3441   -4695.8581            0    6109.3661    19.934114     20.07447    20.560569    8227.6564    6083.8649    5784.1775    6460.0559    396.62168    410.55193    62.214922   -3442.2695 
 9509000    275.67561   -4675.6323   -4143.9687   -4675.6323            0    8190.4555    19.905214    20.130169    20.276204    8124.5801    9428.5704    6040.2833    9102.5129    389.51106    1885.3157    1508.9875   -3173.4926 
 9510000    260.68012   -4668.0142   -4165.2707   -4668.0142            0    3324.9669    20.163823    19.975849    20.685342    8331.8384    1648.1861    4987.8489    3338.8658    364.85753   -1062.7897   -364.09355   -3761.2496 
 9511000    264.68746   -4686.0048   -4175.5328   -4686.0048            0    8172.5552    19.781474    19.986085    20.560744    8128.7771    8606.0765    8521.1538    7390.4353    284.32159    850.88664    1417.1238   -3206.6774 
 9512000    270.03062    -4662.227   -4141.4502    -4662.227            0    6445.5187    19.962529    19.911313    20.666125    8214.3747    6096.6951    6480.5952    6759.2659    4.1021743    1401.4633   -1296.2312   -3369.2885 
 9513000     269.8445    -4653.422   -4133.0042    -4653.422            0    8440.6889    19.983534    19.791812     20.66029    8171.3585    7931.0891     8856.472    8534.5054   -253.62147   -904.62879    -316.7345   -3127.1198 
 9514000     256.8475   -4700.3628   -4205.0108   -4700.3628            0    4636.3645    20.148995    20.056292    20.508273    8287.6828    3153.5976    4809.2884    5946.2074   -71.465024   -26.595961    185.68752   -3644.6257 
 9515000    261.87948   -4693.4911   -4188.4345   -4693.4911            0    7481.8187    19.958935    19.967303    20.544758    8187.6224     6219.076    8849.5101    7376.8701   -250.65737    41.316285   -533.72169   -3295.0449 
 9516000    256.11103   -4668.8543   -4174.9226   -4668.8543            0    6802.0143    19.510304    20.062779    20.965339     8206.482    8038.1702    5744.5221    6623.3506   -584.57731   -185.97825   -283.30637   -3360.8363 
 9517000    250.41336   -4669.3513   -4186.4081   -4669.3513            0    6858.4365    20.076788    19.895688    20.568716    8215.9992    8456.6922    6311.7749    5806.8423    684.11726   -724.78804   -706.52766    -3364.617 
 9518000    252.73344   -4691.6203   -4204.2026   -4691.6203            0    8422.4935    20.082256    19.800902    20.376411    8102.6138    6222.1731     10713.16     8332.147   -258.55104   -182.10678   -673.81975   -3208.9308 
 9519000    260.50757   -4689.8038   -4187.3931   -4689.8038            0    7231.0231    19.974622    20.048555    20.426045    8179.8614    7006.8983    6583.7879    8102.3832   -318.55968    -522.7088    1371.0371    -3324.769 
 9520000    262.63238   -4703.3518   -4196.8432   -4703.3518            0    5664.3075    19.853783    20.159573    20.596192    8243.4977    5226.6052    6305.0757    5461.2417    -284.0334   -424.35201   -1221.7218   -3515.8634 
 9521000    264.12461   -4728.5703   -4219.1838   -4728.5703            0    6392.1072    19.994593    19.885734    20.686424    8225.0704    6186.2403     6722.708    6267.3733   -375.05643   -299.66134     114.9314   -3452.4236 
 9522000    263.99262   -4692.8479   -4183.7159   -4692.8479            0    6119.1306    19.962333    20.057718    20.646805    8266.9569    5842.4093    6287.0989    6227.8836    50.388362   -855.85688    690.77179   -3445.9624 
 9523000    264.65846   -4718.3625   -4207.9464   -4718.3625            0    6346.3214    19.824511    20.045961    20.785771    8260.2942    8287.2279    5672.1112    5079.6253   -407.72992    1461.1184    663.06974   -3443.4183 
 9524000    294.55506   -4695.2836   -4127.2094   -4695.2836            0     6473.737     19.83135    19.970453     20.62171    8167.0433      6984.61    6251.4155    6185.1856    334.48244   -1510.6062    2459.5206   -3356.1358 
 9525000    273.92965   -4677.7346   -4149.4382   -4677.7346            0    8002.2415    19.909649    20.013585    20.554028    8190.0292    6921.3188    8461.6928    8623.7127   -616.33235   -1433.6119   -1104.8138   -3193.6251 
 9526000      268.469   -4657.1099   -4139.3449   -4657.1099            0     9151.129     19.75033    20.089813    20.456737     8116.833    8510.2145    8867.1427     10076.03    96.053346   -1628.1816   -380.00575   -3056.0738 
 9527000    282.76033   -4682.0065   -4136.6794   -4682.0065            0    9209.4909    19.731239    19.942193    20.638613    8120.9676    9458.5697    9150.4602    9019.4429   -147.04692   -204.82498    1061.6847   -3045.9443 
 9528000    253.65846   -4684.8121   -4195.6105   -4684.8121            0    7103.3336    19.889287    19.693551    20.964398    8211.5594    9209.4674    7790.5743    4309.9592   -244.35256    358.35289    -390.9103   -3344.9353 
 9529000     266.1618   -4691.8787   -4178.5633   -4691.8787            0    5651.8055    20.009431    20.003719    20.561664    8230.0737    5982.0479      4419.47    6553.8985     442.1154    830.88318    1414.7513    -3500.193 
 9530000    270.65783   -4682.3385   -4160.3521   -4682.3385            0    4373.0909    19.939898    20.122797       20.659     8289.352    3771.0429    5120.4127    4227.8172     709.6888   -622.50647    210.49792   -3631.6817 
 9531000    269.93551   -4674.8527   -4154.2594   -4674.8527            0     5878.616    20.078759    20.086731    20.464093    8253.5089    4318.5341    7220.0226    6097.2914   -288.23868    509.73445   -376.05347   -3446.6565 
 9532000     262.5372   -4675.2471    -4168.922   -4675.2471            0     6788.936     19.84176    20.081148    20.693015    8245.0353    7681.0965    6538.9941    6146.7173   -585.96844    1170.0725    93.298597   -3352.5839 
 9533000    262.37367   -4676.7988   -4170.7891   -4676.7988            0    6672.6821    19.974771    19.796502     20.69406    8183.0643    9138.9163    5094.0941    5785.0359   -620.49198   -629.83962   -162.14322   -3374.4605 
 9534000    259.70185   -4689.6816   -4188.8247   -4689.6816            0    8835.2256     19.81477      19.8381     20.56942    8085.5795    9792.9072    6789.3175     9923.452    50.414143    1375.0316   -288.40833   -3146.9759 
 9535000    262.77495   -4738.0853   -4231.3017   -4738.0853            0    6721.9697    19.973854     19.89122     20.56516    8170.6271    7360.8524    6333.4785    6471.5782    430.62612   -7.8041179    1300.5617   -3430.3103 
 9536000    263.33934   -4716.6502   -4208.7782   -4716.6502            0    5528.9959    20.066527    20.043077    20.445359    8223.0199    4353.0838    5618.5587    6615.3452   -522.77785   -566.95515   -2352.5214   -3545.7172 
 9537000    267.86018   -4696.6659    -4180.075   -4696.6659            0    7557.6377    19.968685    20.004633    20.327415    8120.1153    8985.2237    5520.4363     8167.253    -170.3224    -1154.063   -423.88556   -3285.0727 
 9538000    269.13613   -4677.8787    -4158.827   -4677.8787            0    7068.0448     19.91722    19.895235    20.696975    8201.3374    7757.8569     7867.051    5579.2265   -626.09437    705.53363     101.7175   -3313.4317 
 9539000    249.40013    -4687.642   -4206.6529    -4687.642            0     7004.223    19.912185    19.904006    20.624154    8174.0174    7579.1391    6347.7802    7085.7496    386.32897    5.1948973   -398.48313   -3371.6819 
 9540000    260.26338   -4685.4655   -4183.5257   -4685.4655            0    7284.5737    19.867181    20.043492    20.419237    8131.0974    6008.0479    7592.8456    8252.8276   -427.69296    121.48593   -225.50288   -3319.6939 
 9541000    274.05149    -4701.086   -4172.5546    -4701.086            0    7666.4887    20.129218    19.856638    20.452366    8174.7821    6756.8658    7444.2958    8798.3045   -179.37162   -488.56858   -100.33153   -3258.5496 
 9542000    266.38101   -4706.0165   -4192.2783   -4706.0165            0    5976.2155    20.125176    19.876148    20.624587    8250.0613    6535.8048    5645.5726    5747.2691    783.36469   -431.95017   -1450.8742   -3473.2279 
 9543000      268.008   -4677.4205   -4160.5445   -4677.4205            0     6242.457    19.777414    19.903385    20.879499    8218.9537    5011.7115    8624.2441    5091.4153   -932.27701    998.64214    124.87525   -3412.2923 
 9544000    267.04817   -4737.0025   -4221.9776   -4737.0025            0    6615.8855    19.933315    19.886555    20.652363    8186.6991    7018.4061    7091.3143    5737.9361   -121.74605    926.40908    181.15845   -3432.0766 
 9545000    256.81048   -4717.3053   -4222.0247   -4717.3053            0    5936.7472    19.987621    19.885028    20.450289    8128.0571    4667.0876    6167.4254    6975.7287   -334.34174    1008.7345     270.8068   -3518.2864 
 9546000    250.86205   -4689.7857   -4205.9771   -4689.7857            0    4704.8187    20.101055    20.025561    20.541024    8268.4793    3762.7315    4774.5614    5577.1632    316.04346    309.99221    1393.8911   -3638.6358 
 9547000    257.04909   -4689.2893   -4193.5485   -4689.2893            0    6568.2804     19.98583    19.893959     20.66535    8216.4871    7896.7283    4182.2041    7625.9088   -409.89044    980.24825    713.43581   -3406.4778 
 9548000    244.60545   -4671.3029   -4199.5607   -4671.3029            0    8438.6023    20.012575    19.542092    20.747656    8114.1506    7073.5506    9011.1001    9231.1561   -624.39933   -348.56055   -312.10326   -3200.9655 
 9549000    267.65126   -4684.5706   -4168.3826   -4684.5706            0    5125.1061    20.165335    19.977653    20.566224    8285.2279    4621.1979    4798.5073    5955.6132   -41.513781    -1031.233    851.63408   -3549.1081 
 9550000    260.24352   -4706.2344   -4204.3329   -4706.2344            0    6674.4731    19.963056     20.12521    20.348406    8175.1898    5893.1295    7339.0082    6791.2815    327.90878      771.379   -887.66331   -3408.5571 
 9551000    278.27695   -4647.3974   -4110.7169   -4647.3974            0    6673.6506    20.105968    20.098607    20.418374    8251.1045    5045.5964    9041.8538    5933.5015   -86.441173   -583.98649    304.69739   -3307.6506 
 9552000    261.56916   -4713.3891    -4208.931   -4713.3891            0    5604.8742     19.90683     19.92488    20.771454    8238.8144    5464.9791      6507.81    4841.8335    267.56188    736.06329    927.25234   -3535.4792 
 9553000    263.61873   -4732.8208   -4224.4099   -4732.8208            0    8243.8727    19.906214    19.950627    20.507138    8144.2344    7795.2171    9364.7975    7571.6036   -201.57319   -1581.0182   -491.45075   -3245.2414 
 9554000    273.97877   -4676.9464   -4148.5553   -4676.9464            0    6211.7316     19.65022    20.217319    20.688182    8218.8926    7867.3875     5475.564    5292.2433    380.51274   -833.37572   -282.73958   -3403.9916 
 9555000    265.94724   -4692.8019   -4179.9003   -4692.8019            0    6379.6972    19.949987    19.994269    20.599971    8217.0276    6444.6226    6797.6494    5896.8196    10.272553   -578.80106   -1312.8406    -3415.377 
 9556000    266.01503   -4645.9696   -4132.9373   -4645.9696            0    6728.1605    19.849134    20.172253    20.533035    8221.4631    7212.1535    5854.1876    7118.1406   -998.18502   -99.154275    1420.2126     -3326.22 
 9557000    248.14702   -4687.1142   -4208.5417   -4687.1142            0    7191.9633    19.687795    19.987073    20.682156    8138.4571    8648.6208    5845.6628    7081.6061     702.1164   -69.868358   -1574.3088   -3354.9201 
 9558000    268.93428   -4702.6189   -4183.9565   -4702.6189            0    6046.2178    19.756812    20.040125    20.771315    8223.9655     6481.879    6223.9432    5432.8311     -785.576    202.01662    560.89516   -3458.7846 
 9559000    254.80893   -4682.2286   -4190.8082   -4682.2286            0     4322.719    19.863593      19.9824    20.792169    8252.8744    4224.3709     4761.966    3981.8202    709.22117   -1736.4177   -759.95084    -3670.527 
 9560000    270.51781   -4720.8381   -4199.1218   -4720.8381            0    4976.8735    19.838542    20.066342    20.867633    8307.1329    4993.6145    6397.1528     3539.853   -121.59504   -45.370693   -421.59539   -3596.1685 
 9561000    265.38695   -4687.8104   -4175.9894   -4687.8104            0    5944.5393    20.033212    19.980411    20.578685    8237.0675    6712.6543    4426.5948    6694.3687    807.15484   -219.61984   -1811.9249   -3461.8767 
 9562000    279.23835   -4676.7086    -4138.174   -4676.7086            0    5392.9282     19.92222    20.204901     20.45635    8234.2227    6780.1915    4194.2577    5204.3353    268.95115    354.93086    9.3144119   -3490.5497 
 9563000     276.5812   -4693.3314   -4159.9213   -4693.3314            0    5992.4579    19.850866    19.969027    20.706286    8208.0232    5747.0088    5891.7591    6338.6057   -756.09221    602.71194    707.84404   -3442.5905 
 9564000    272.57794   -4707.9685    -4182.279   -4707.9685            0    6370.3628    19.912297    19.885064    20.740883    8212.5042     6858.908    6372.8273    5879.3533    855.36122   -976.11555   -627.27241   -3419.2946 
 9565000    266.61566   -4705.2825   -4191.0918   -4705.2825            0     7438.902    19.886018    19.835413    20.605076    8127.6182    9625.1037    6465.6145    6225.9879    504.71993    1722.8026    1212.0082   -3309.3366 
 9566000    270.57837   -4660.0977   -4138.2646   -4660.0977            0    7455.6627    19.945837    20.003858    20.496016    8177.7809    5904.4836    7210.2381    9252.2665    340.34107     -196.475    869.66063   -3249.0684 
 9567000    258.86403   -4703.8977   -4204.6567   -4703.8977            0    4992.6637    19.898259    20.146132    20.553338    8239.2774    5448.5331    3845.2534    5684.2045   -301.99705   -535.60748    681.27738   -3604.7312 
 9568000    260.20277   -4691.0172   -4189.1943   -4691.0172            0    4892.4347    20.209332     19.85994    20.760938    8332.5291    3592.8144    5989.5471    5094.9426     64.69783    1079.4582   -1019.5823   -3594.6588 
 9569000    250.34654   -4703.1328   -4220.3185   -4703.1328            0    5416.8972    19.991615    19.989115    20.607369    8235.0073    4635.6577     7194.174    4420.8598    547.93811     340.6658   -18.422317   -3569.7538 
 9570000    264.95422   -4681.8948   -4170.9083   -4681.8948            0     6418.651    19.930426     20.05989    20.614197    8241.6002    7656.9352     5019.534    6579.4839   -806.56898    1183.8237   -197.33126   -3399.4167 
 9571000    256.34039   -4675.7271   -4181.3531   -4675.7271            0    5677.7091    20.111242    20.099558    20.445224    8264.5133     4821.816    5587.5674     6623.744   -485.23619    1319.7126   -885.98119   -3497.0219 
 9572000    287.57548   -4682.1651   -4127.5516   -4682.1651            0    4491.1108    19.979731    20.110397    20.734826    8331.2596    6093.3854    2566.8435    4813.1037   -967.70866   -122.17655   -1288.0139   -3581.8688 
 9573000    257.46444   -4718.9036   -4222.3618   -4718.9036            0     7567.627    19.910787    19.777173    20.756841    8173.6095    7327.6105    8386.9342    6988.3364    70.759535   -617.23137   -1198.1551   -3320.2726 
 9574000    249.89198   -4698.6194   -4216.6817   -4698.6194            0    5763.6723    19.861653    20.128719    20.643258    8252.9602    6874.5377    4168.3993    6248.0799    661.41781   -825.34839   -1130.7831   -3522.9605 
 9575000    267.06825   -4712.0764   -4197.0128   -4712.0764            0     7237.503    19.910766    20.022674    20.540372    8188.7639    7585.2024    7170.2216    6957.0849    31.557062   -198.83808    313.37924    -3332.676 
 9576000    273.52183   -4721.9905   -4194.4806   -4721.9905            0    6247.6412    19.843949    19.818954    20.981067    8251.5668    6124.3498    8248.4002    4370.1736    287.73239   -1964.9394   -571.18526   -3442.6355 
 9577000    248.77095   -4703.6358   -4223.8601   -4703.6358            0    5549.9364    19.961295    19.765853    20.714548    8172.9671     2622.113    7131.1726    6896.5235    570.44688    329.36121    282.81199   -3562.3391 
 9578000     267.5654     -4664.66   -4148.6376     -4664.66            0    5925.2447    20.023959    20.072263    20.548071    8258.8075    6904.8933    4848.2109    6022.6299   -42.277619    346.60417    803.99901   -3434.9642 
 9579000    246.93364   -4684.0627   -4207.8304   -4684.0627            0    8132.3376    20.006497    19.972927    20.408432    8154.9708    9459.1155    6700.7583    8237.1389   -475.18601   -365.51931   -656.85338   -3240.6362 
 9580000    275.46907   -4692.1391   -4160.8738   -4692.1391            0    5683.2232    19.830387    20.122497     20.61323    8225.4397    8183.4672    3248.6589    5617.5434    66.445421    725.73817      839.034   -3479.1166 
 9581000    271.72686   -4695.5097   -4171.4616   -4695.5097            0    5953.7808    19.798758    20.135394    20.748622    8271.5587    7394.1791    4596.4828    5870.6805   -550.75272    601.28422     405.7649   -3453.2439 
 9582000    249.64926   -4705.9958   -4224.5262   -4705.9958            0    6625.9452    19.891917    19.757583    21.100524    8292.8479    7830.2629    7604.6954    4442.8773    147.16242    1017.9162    1211.9864   -3423.1666 
 9583000    269.72613   -4681.4742   -4161.2846   -4681.4742            0    6418.6632    19.816225    19.955891    20.635259     8160.222    6074.7874    7687.1149    5494.0874   -653.19216   -592.77047    265.60555   -3397.4094 
 9584000    274.91035   -4674.7565   -4144.5687   -4674.7565            0    6140.5957     19.83477    19.978221    20.644772    8180.7681    5398.4751    6717.2606    6306.0512   -522.13873    1030.8049    261.88276   -3411.9459 
 9585000    265.81384    -4715.016   -4202.3717    -4715.016            0    7578.8665    19.931591    19.731482    20.769789    8168.3389    6305.5486    9159.3898     7271.661    234.28585    693.35145    854.48351   -3299.5253 
 9586000    261.60529    -4699.472   -4194.9442    -4699.472            0    6253.8968     19.80095    20.014874    20.871237    8271.5535     6716.662     6750.117    5294.9115   -296.05233   -445.16007    43.232916   -3440.5234 
 9587000      268.207   -4713.5623   -4196.3025   -4713.5623            0    6516.3256    19.920646    20.025728    20.512741    8183.0538      7442.61    4814.5588     7291.808    222.61006    168.01819    1028.4959   -3418.6348 
 9588000    268.47258   -4703.0231   -4185.2511   -4703.0231            0    6240.8934    19.775081    20.321269    20.393998     8195.425    5407.3346    5286.5231    8028.8225    715.38331   -1204.8731   -586.16475   -3439.3279 
 9589000     252.5309   -4714.9063   -4227.8792   -4714.9063            0    6673.8214    20.169734    19.942566    20.357736    8188.6193    4669.8064    8561.6742    6789.9835    291.20718    606.37522   -1238.4356    -3430.874 
 9590000    263.56735   -4709.1082   -4200.7964   -4709.1082            0    6664.8955    19.899547    20.027137    20.626101    8220.1398    6504.4778    7732.1859    5758.0227    117.61096    724.04927    833.80599   -3401.7934 
 9591000     257.9276   -4689.0196   -4191.5845   -4689.0196            0    7100.3558    19.830571    19.714568    20.982901    8203.2889    6028.1222    11144.901     4128.044     585.1839    331.36845    60.284895   -3342.1224 
 9592000    266.13718   -4703.8511   -4190.5831   -4703.8511            0    6697.1847    19.820472      19.9556    20.731703    8199.9981    5754.7018    7566.9145    6769.9377   -416.19509    944.18613   -10.250051   -3389.6765 
 9593000    264.42845   -4675.5766   -4165.6041   -4675.5766            0    5829.8709    19.958589    19.979873    20.645938    8232.9822     6911.207    5270.1353    5308.2703    462.76576    340.55362    493.02792   -3465.6138 
 9594000    263.13491   -4693.9465   -4186.4687   -4693.9465            0    6736.4111    20.055557    19.997857    20.424756    8191.7196    6864.5457    6218.3324    7126.3552    387.04514   -343.05287    10.792201   -3381.6843 
 9595000    248.25501   -4717.7517    -4238.971   -4717.7517            0    6148.2116    20.027816    19.971549    20.649074    8259.3512    5884.8533    6167.4948    6392.2867   -106.59078    1321.0394   -1037.6069   -3498.3933 
 9596000    268.54275   -4696.8169   -4178.9096   -4696.8169            0    4948.4921    19.929385    20.262657    20.498294    8277.6678    4213.8868    3999.7629    6631.8267   -263.62159   -1578.6421   -1014.5281   -3581.5213 
 9597000    268.87795   -4698.9516   -4180.3979   -4698.9516            0    8526.3429    19.848317    19.974333    20.548483    8146.5876    7585.5557    8951.9366    9041.5364      -835.53    740.52356   -2026.5524   -3167.3863 
 9598000    263.91789   -4702.8935   -4193.9057   -4702.8935            0    5485.1105    19.852681    19.901314    20.930486     8269.519    5566.6135      4475.19    6413.5279     84.91181    1343.7438    591.20636   -3532.3879 
 9599000    262.95869    -4697.372   -4190.2341    -4697.372            0    5927.1063    19.970266    20.002568    20.513865    8194.3989    5881.9341    5497.8023    6401.5827   -484.46158    722.23724   -500.95552    -3481.904 
 9600000     268.3747     -4703.69   -4186.1069     -4703.69            0    5836.3569    19.857004    20.174669    20.604045    8254.1554    7465.1354     5094.103    4949.8324    353.75337    398.36292   -1276.1564   -3483.5356 
 9601000    258.09073   -4719.5449   -4221.7952   -4719.5449            0    6479.6184    19.894959    19.960218    20.556579    8163.1758     6710.976    6032.8539    6695.0254    372.71308   -27.763826    915.60311   -3450.3866 
 9602000    262.27554   -4683.0872   -4177.2667   -4683.0872            0    6933.5886    20.179571    19.801743    20.559411    8215.3487     6606.306    7756.7439    6437.7159    232.20579    143.23506   -769.33353   -3346.5366 
 9603000    257.61165   -4656.9247    -4160.099   -4656.9247            0    7167.8565    19.800415    20.188793    20.451795    8175.5329    8748.4138     4364.362    8390.7936     392.7481    1129.5996   -1187.1745   -3305.4628 
 9604000    262.99883   -4674.5033   -4167.2879   -4674.5033            0    6309.9543    20.163972     20.01935    20.363115    8219.9707    6355.0996    5975.8623    6598.9008    -229.3409   -1436.7872    1138.4045   -3410.8516 
 9605000    271.45877   -4664.0786   -4140.5475   -4664.0786            0    7693.3486    19.888626    19.978913    20.571077    8173.9818    7200.4525    7291.5427    8588.0507   -554.76838   -772.89954    703.01256     -3223.43 
 9606000    253.98685   -4705.2824   -4215.4474   -4705.2824            0    6534.3953     20.03325    19.859404    20.753789    8256.8619    5663.8715    7099.1018    6840.2126   -670.85031    925.17943   -400.01977   -3428.5895 
 9607000    265.08897   -4691.9393   -4180.6929   -4691.9393            0     5456.465    19.916587    20.003822    20.644173    8224.8007     5411.562    5045.8218    5912.0113   -41.417452    1942.8518    162.26995   -3526.1884 
 9608000    271.07832   -4691.9818   -4169.1845   -4691.9818            0    5611.9958    20.356882    19.911646    20.411735    8273.6727    4898.2435    6529.4893    5408.2545    700.89083   -169.76975   -945.67611   -3492.0241 
 9609000    267.03513   -4695.8028   -4180.8031   -4695.8028            0    5868.7241    19.842846    20.220304    20.433321    8198.4284    7509.4015    4429.9823    5666.7887   -88.957114    885.78746    1675.3885   -3479.1051 
 9610000     272.1365   -4679.6344   -4154.7963   -4679.6344            0     6193.089    20.087452    20.142314    20.404011    8255.6214    7785.9529    3979.6569    6813.6571    134.80463   -492.48929   -752.20542   -3409.1498 
 9611000    278.88727   -4685.3951   -4147.5375   -4685.3951            0    7377.4444    19.974451    19.871375     20.57099    8165.0333    6471.6597    8497.6688    7163.0047    730.34274    474.69924   -492.62513   -3269.0415 
 9612000    260.15176   -4668.1516   -4166.4271   -4668.1516            0     6250.901     20.06637    19.898788    20.720626    8273.6723    6120.6027    6237.5066    6394.5937   -385.16191   -729.57141   -1576.9133   -3412.1745 
 9613000    253.87361   -4707.0452   -4217.4286   -4707.0452            0     5149.788    19.993592    20.225923    20.500735    8290.2689    4471.3415    4994.8696    5983.1528   -226.66572   -355.87152    -260.0282   -3594.7931 
 9614000    266.37946   -4687.1921   -4173.4569   -4687.1921            0    6318.2652    20.083567    19.939195    20.535856    8223.5864      5521.64    5710.8662    7722.2895    165.74756    283.89956    407.25577   -3415.6911 
 9615000    256.79808   -4683.9194   -4188.6627   -4683.9194            0    6595.9773    19.736953    20.133538     20.71158    8230.2575    6570.8336    7400.4394    5816.6588   -87.243326   -68.009857   -46.036723   -3396.9484 
 9616000    253.78687   -4702.9123    -4213.463   -4702.9123            0    3400.5165    20.164293    19.849344    20.745512    8303.3494    4782.0954    3555.7113    1863.7428    18.337419     972.1516   -355.37483   -3801.6746 
 9617000    248.53902   -4704.0255   -4224.6971   -4704.0255            0    5495.3682    19.705207    20.073703    20.853286    8248.6521     7195.357    4327.6143    4963.1332    -394.8491   -964.74186   -325.74868   -3563.6146 
 9618000    254.13293   -4695.9791   -4205.8624   -4695.9791            0    6151.3966    19.978782    19.964149    20.578807    8208.0498     5656.761    5557.1595    7240.2693    -88.31101    1812.3471    839.02917   -3469.5034 
 9619000     251.5053   -4693.8022   -4208.7531   -4693.8022            0     6769.416    20.113274    20.041672    20.400099    8223.3544    9082.4981    4051.1641    7174.5856   -185.02032   -599.47945   -64.456362   -3396.9025 
 9620000     264.1311   -4698.7193   -4189.3202   -4698.7193            0    6401.6774    20.204695    19.948668    20.455843     8244.866    6052.2734    5857.3626    7295.3961    490.64843    727.49636   -619.48181   -3419.5639 
 9621000    253.31231   -4702.6553   -4214.1212   -4702.6553            0    7759.8503    19.769542    19.845913     20.77736    8151.8851    6022.0476     9216.005    8041.4983    71.678513   -495.31566     511.6584   -3291.5768 
 9622000    272.40961   -4678.6357   -4153.2708   -4678.6357            0    7123.4927    19.803167    19.856452    20.903282     8219.602    7049.6166    7977.1236    6343.7378   -94.386246   -202.31063   -652.00366    -3299.346 
 9623000    265.28416   -4692.6937   -4181.0709   -4692.6937            0    8267.0297    19.976268    19.815466    20.626939    8164.9478    7350.1008    9332.7805    8118.2078    973.88121   -968.08211   -958.31509   -3196.6546 
 9624000    268.90146   -4693.4227   -4174.8236   -4693.4227            0    6443.3153    19.903091    19.942402    20.538327    8151.9792    5700.1477    5806.5977    7823.2007   -114.50236    287.49088   -962.74092   -3408.7891 
 9625000    268.99146   -4663.2968   -4144.5241   -4663.2968            0    7768.2189    19.673253    19.741836    21.058472    8178.8187     9154.616    7616.5866    6533.4542   -507.32017    1023.9797   -846.48937   -3217.9335 
 9626000    247.34051    -4694.817      -4217.8    -4694.817            0    7654.6317    19.854909    19.911563    20.744982    8201.3686    8753.0737    7622.0165     6588.805   -0.9113206    305.66018    554.83828   -3302.2407 
 9627000    263.66211   -4689.8029   -4181.3083   -4689.8029            0    7078.7926    20.110071    19.992425    20.377928    8192.9272    6469.2336    7648.9956    7118.1485    1063.3863    71.253196    456.88451   -3335.4957 
 9628000    259.91199   -4690.8217   -4189.5596   -4690.8217            0    8835.3915    20.159321     19.84382    20.388022    8155.9824    11073.769    7945.5469    7486.8587    -673.1361    1716.0343     399.3524   -3138.6195 
 9629000     272.4666   -4672.7844   -4147.3097   -4672.7844            0    4450.3262    20.027334    20.133072    20.616186    8312.6887    4387.2806    4474.6843    4489.0135    482.02158    162.18013   -127.66107   -3607.7876 
 9630000     262.9527   -4731.6414    -4224.515   -4731.6414            0    7348.0031    19.874367    19.872799    20.754381    8197.1359    6703.3015    7941.7668    7398.9409    295.86183    838.37601    -191.8501   -3346.0846 
 9631000    261.90953   -4731.1467   -4226.0321   -4731.1467            0    5532.8246    19.797095     19.92763    20.759889    8189.9668    5338.9905    6158.8344    5100.6489   -219.11257    433.26772   -544.03253    -3565.179 
 9632000    273.24954   -4678.0119   -4151.0272   -4678.0119            0    6266.2177    20.025249    19.999864    20.662774    8275.4879    5503.5149    6929.1096    6366.0285    75.384992    774.17297   -377.69222   -3394.7605 
 9633000    278.99295    -4680.627   -4142.5657    -4680.627            0    8174.0191    19.882768    20.058898     20.51174    8180.6239    6483.6041    9059.5645    8978.8885   -657.11629    1290.9146   -468.84814   -3167.3561 
 9634000    265.59819   -4715.3731   -4203.1447   -4715.3731            0    6818.3856    19.939769    20.052699    20.506505    8199.4478     7769.766    6195.1326    6490.2584   -409.98425    336.34089    1016.6803   -3387.7985 
 9635000    252.48696    -4687.503   -4200.5607    -4687.503            0    7214.8834    19.880538    19.938199    20.649312    8185.0184    7947.6701    7284.7701    6412.2101   -519.87851   -371.44677   -1034.2169   -3339.3194 
 9636000    260.40557   -4673.7683   -4171.5542   -4673.7683            0    6126.8867    20.114209    19.717126    20.785855    8243.5538    5970.7947    6334.1245     6075.741    1586.9565   -581.90053    427.83848   -3434.9568 
 9637000    258.56433   -4705.5164   -4206.8533   -4705.5164            0    6279.4464     20.09398    19.951558    20.626124    8269.1409    5466.0238    6740.9987    6631.3168    111.63041   -250.16538    1132.1904   -3449.5713 
 9638000    268.24402   -4704.8879   -4187.5568   -4704.8879            0    7018.8232    19.855032    19.901123    20.706288    8181.8298    7156.4004     6845.446     7054.623    9.1851761    242.98519    965.12752   -3350.0456 
 9639000    240.51457   -4702.4113   -4238.5588   -4702.4113            0    4805.3453    19.839199    20.035368    20.826694    8278.3121    5620.2299    4799.6732     3996.133   -862.45353    775.97239    889.83371   -3658.4061 
 9640000    278.15932   -4710.7278   -4174.2742   -4710.7278            0    6810.9036    20.035228    20.087482    20.517856    8257.5608    6014.9157    6718.1363    7699.6588    1186.7763   -164.21006    1166.3002   -3354.0503 
 9641000    258.21741   -4683.6634   -4185.6694   -4683.6634            0    5495.7435    20.190991    20.149957    20.334874    8273.1946    4616.3901    5961.6859    5909.1546   -421.44772     708.6492   -489.63366   -3522.5747 
 9642000    257.01429   -4693.8779   -4198.2042   -4693.8779            0    5616.0507     20.11861    20.007796    20.578524    8283.4538    3653.9796    6543.3829    6650.7896    106.52199   -871.17614    2.2697327   -3519.7534 
 9643000    247.19943    -4673.463   -4196.7181    -4673.463            0    5322.5759     19.91542    20.175859    20.512223    8242.0313     5646.085     5379.316    4942.3267   -152.06543   -898.64971    697.64468   -3556.9362 
 9644000    268.80082   -4691.5229   -4173.1179   -4691.5229            0    7021.7879    19.809481    19.905242    20.789069    8197.3901    7488.5634    7268.9554    6307.8448   -311.88833    58.510038    85.333592   -3333.6594 
 9645000    259.77232   -4686.8371   -4185.8443   -4686.8371            0    7598.3212    19.900345    19.932733    20.681476    8203.6856    7703.7798    7388.4075    7702.7762   -285.86009   -29.379984    1376.5537   -3276.7634 
 9646000    258.95656   -4713.9554   -4214.5359   -4713.9554            0     6196.747    20.050763    19.999006    20.506148    8222.8697     4976.724     5695.626    7917.8909    122.61859    1205.2096    -1165.258   -3471.4088 
 9647000    264.79224   -4714.8293   -4204.1552   -4714.8293            0    7549.2307    19.709056    20.053916    20.569269    8129.8749    8760.7902    6499.3714    7387.5304    165.41835    1103.2229    265.58354   -3309.0739 
 9648000    271.13604   -4713.7071   -4190.7984   -4713.7071            0    7861.3335    20.145898     19.49774    20.750213    8150.6726    6949.9789    10168.054    6465.9675   -233.98478    433.48365    636.23388    -3256.328 
 9649000    272.98776   -4686.7123   -4160.2324   -4686.7123            0     6484.491    20.003865    19.898112    20.572988    8188.8549    8064.0413    4810.7877     6578.644     285.5862    1426.3037    -1042.103   -3385.8153 
 9650000    263.64829   -4705.8853   -4197.4174   -4705.8853            0    3820.7348    20.040412    20.122982    20.489924    8263.0299    2690.4479    3177.5431    5594.2132   -210.01364   -713.79473     520.6531    -3736.989 
 9651000    270.07349   -4663.8077   -4142.9482   -4663.8077            0    7122.1503    19.828949    19.857498    20.684961    8144.7719    7721.2324    7514.9644    6130.2539   -312.09847    799.25317   -177.08521   -3296.9568 
 9652000    265.82014   -4679.9628   -4167.3063   -4679.9628            0    6331.9799    19.790886    19.975826    20.784499     8216.929    6336.0201    6778.6394    5881.2803   -715.17161    -793.5994   -304.67095   -3408.5105 
 9653000    251.46842   -4675.9925   -4191.0145   -4675.9925            0     7765.019    20.031107    19.770332    20.569409    8145.9311    7792.4222    9091.9594    6410.6754    -203.4634    262.13679    170.15668   -3268.5298 
 9654000    256.10715   -4676.4361   -4182.5119   -4676.4361            0    7327.1915    19.934256    19.984834    20.368735    8114.5537    9187.4551    4812.3476    7981.7719   -264.51705   -475.62879    902.44222   -3315.3941 
 9655000    259.72676   -4689.3957   -4188.4908   -4689.3957            0    5945.1912    19.944537    20.190816    20.278879    8166.2328    5256.5454    4794.0847    7784.9434    361.28117   -605.72448   -926.58023   -3480.4416 
 9656000    254.21231   -4694.6869   -4204.4171   -4694.6869            0    6229.4219    19.869655    19.855676    20.737414    8181.4373    7719.0641    5425.8614    5543.3404    88.910628    410.44476    -784.3948   -3461.1357 
 9657000    265.47161   -4698.7822   -4186.7978   -4698.7822            0    7696.9394    19.871112    20.085875    20.564042    8207.6991    7068.3059    7772.8409    8249.6715    244.84289   -410.18091    997.11283   -3265.4675 
 9658000    248.08936    -4703.592   -4225.1308    -4703.592            0    4909.5625    19.999352    20.029213    20.626649    8262.4432    4771.7604    5340.7166    4616.2106    106.07087    888.59818   -1385.6835   -3633.5322 
 9659000       252.38   -4704.1997   -4217.4636   -4704.1997            0    5021.0777    19.983355    19.994228    20.676569    8261.3592    5469.9855    4184.6785     5408.569    584.70988    74.967212   -396.52531   -3612.5069 
 9660000    260.28984   -4687.7056   -4185.7147   -4687.7056            0    5059.5037    20.170931    20.044452    20.524439    8298.3439    4363.9935    5448.0919    5366.4257    121.98041    581.39408    1101.4441   -3573.3993 
 9661000     258.7779   -4705.1215   -4206.0465   -4705.1215            0    6426.8712    20.085848    19.975887    20.440042    8201.2119    5410.3749    6667.1916    7203.0472    -721.8212   -622.58958   -612.06221   -3437.3525 
 9662000    263.77717     -4693.64   -4184.9235     -4693.64            0    4436.2489    19.823697     20.13327    20.860391    8325.7124    3874.5982    4824.9569    4609.1917    487.29896    1899.6507   -1556.6782   -3646.2654 
 9663000    276.71996   -4716.5646   -4182.8868   -4716.5646            0    5685.4982    20.087982    19.869331    20.748228     8281.339    4945.1675    6459.2169    5652.1101    242.94823   -689.89678   -982.56792   -3496.2217 
 9664000    265.64798   -4710.6983   -4198.3738   -4710.6983            0    6314.4253    20.016677     19.83914    20.612538    8185.5201    7075.1007    6227.8042     5640.371   -30.849064    400.09628   -1719.3774    -3444.574 
 9665000    257.87636   -4677.2746   -4179.9383   -4677.2746            0    7519.2894    19.984734    19.884064    20.561956    8170.8632    7022.9037    7566.9625    7968.0019    985.43082   -311.94357   -2050.4938   -3283.9123 
 9666000    268.26797   -4682.9776   -4165.6002   -4682.9776            0    6387.9862    19.799042     19.95143    20.775643    8206.7778    8476.6271    5378.2303    5309.1013    252.41239    367.55485     145.1452   -3401.0385 
 9667000    272.90318   -4710.5863   -4184.2696   -4710.5863            0    6845.3482    19.901268     19.78264    20.783991    8182.6493    5659.6074    9134.5927    5741.8443   -511.86506   -118.53757    204.61004   -3367.3762 
 9668000     258.1759   -4654.4453   -4156.5314   -4654.4453            0    5753.4796    19.884491    20.171532    20.540712    8238.8928    5978.9758    5326.3721    5955.0908   -645.46985   -738.69302   -354.51026   -3465.2174 
 9669000     274.3501   -4682.2001   -4153.0929   -4682.2001            0    5120.1387    20.192591    19.771306    20.686174    8258.6219    1547.4322    7130.1359     6682.848    856.87833    1371.1477   -514.91733   -3536.4053 
 9670000    264.00377   -4694.4485    -4185.295   -4694.4485            0    6067.7155    19.954391    19.816842     21.00344    8305.4537    7141.9169    7079.4651    3981.7645    480.88322    1532.0825    1130.0638   -3450.3337 
 9671000    258.17249   -4666.0509   -4168.1436   -4666.0509            0    7246.1729    20.040429    19.938337    20.581193    8223.6853    7926.0261    6446.7537    7365.7391    629.55959    -1651.157   -192.85356    -3299.081 
 9672000    261.72162   -4696.7895   -4192.0373   -4696.7895            0    6772.7144    20.098884    19.942405    20.424712    8186.6345    5041.6153    7750.9327    7525.5953   -88.185911    148.06386    -836.1517   -3383.4181 
 9673000    252.06675    -4698.581   -4212.4491    -4698.581            0    7400.2986    19.702876    20.044747    20.867031     8241.208    5854.4719    9796.0029    6550.4211    -689.4818   -458.98752   -248.67102   -3323.0104 
 9674000    265.38936   -4694.6872   -4182.8615   -4694.6872            0    5770.5411    20.090009    19.913225    20.663417    8266.5419    6574.4957    6341.0985     4396.029    436.11691   -116.65234   -120.92602   -3487.1707 
 9675000    259.66181   -4694.4641   -4193.6845   -4694.4641            0    5336.8936    19.961343    20.106146    20.516941    8234.3856    4098.8058    5034.3169     6877.558   -282.53415    1159.7405   -443.51443   -3552.7766 
 9676000    253.72358   -4714.8922   -4225.5649   -4714.8922            0    6448.9995    19.879142    19.886926    20.864634    8248.5207    7221.5436    7779.8761    4345.5788   -148.30657    719.21679     1051.366   -3449.7747 
 9677000    272.55721   -4716.6267   -4190.9772   -4716.6267            0    4475.0564     20.12299    19.900424    20.569515     8237.186    2222.2185    5926.6743    5276.2764   -484.72325    918.98765    923.54596   -3653.3846 
 9678000    252.26016    -4670.559    -4184.054    -4670.559            0     6530.214    19.744657    20.228388    20.473329    8177.1006    7258.7278    5152.7636    7179.1506   0.97967435     1320.126    245.42475   -3405.2958 
 9679000    266.18948   -4659.6892   -4146.3204   -4659.6892            0      6859.21    19.742528    19.947484    20.675444    8142.2744    7408.5081    6095.6093    7073.5127    58.105484    962.23513   -711.49376   -3331.8118 
 9680000    271.21643   -4693.5156   -4170.4519   -4693.5156            0    6082.7667     19.96506    19.971539    20.758058     8276.922    6523.4907    5330.6513    6394.1582   -660.77487    1424.2801    1191.6729   -3436.1986 
 9681000    257.04462   -4700.3329   -4204.6008   -4700.3329            0    5995.3032    19.852703    20.108993    20.588944    8219.4744    4803.2775    6545.5581    6637.0741   -68.002943    1583.4913   -32.661828   -3485.9281 
 9682000    258.99603   -4691.2768   -4191.7811   -4691.2768            0    6932.1942    19.948276    20.321283     20.28483    8222.9542     6935.586    6578.0204    7282.9763   -361.40112     1107.561   -2152.8536   -3360.4492 
 9683000    249.83563   -4709.0117   -4227.1826   -4709.0117            0    6997.5542    19.993522    19.971156    20.606146    8227.9053    7772.6775     5001.573    8218.4121    55.955781   -248.02985    903.72238   -3387.5072 
 9684000    263.07103    -4707.814   -4200.4594    -4707.814            0    7112.0208    19.835706    20.063027    20.516996    8165.0325    7409.7911    5259.0153    8667.2561   -320.54542    1680.5031    94.749186   -3353.5697 
 9685000    274.35165   -4694.5245   -4165.4143   -4694.5245            0    6019.2094    19.939528    19.913298    20.696646    8217.8467    4179.6983    7890.3275    5987.6025   -322.72494   -1232.9911      -1105.3   -3444.0189 
 9686000    265.22061   -4659.9035   -4148.4033   -4659.9035            0     5801.043    19.808552    19.980455    20.757572    8215.5128    6165.3388    6607.4042     4630.386   -521.33752    383.97435    1522.4752   -3453.3523 
 9687000    261.78213   -4701.7395   -4196.8706   -4701.7395            0    6434.1266    20.011209    20.021114    20.609744    8257.2261    7340.5726    6952.8558    5008.9515   -240.07592   -595.19197    132.70597   -3422.0527 
 9688000    271.60296   -4692.9192     -4169.11   -4692.9192            0    5733.7426    20.051034    20.142103     20.46397    8264.7831    5825.2936    4809.2377    6566.6966    62.576544    897.18728      463.996   -3478.0026 
 9689000    250.39759   -4692.7569   -4209.8441   -4692.7569            0    6525.6217    20.026246    19.693821    20.864192    8228.6976    5246.0584    8575.7672    5755.0394    560.23709     2091.492    895.16336    -3426.723 
 9690000    272.06017   -4671.6872   -4146.9962   -4671.6872            0     6324.731    20.022716    20.002812    20.571191    8238.9806    6410.5574    7584.9243    4978.7113    193.21859    1063.4904    561.16046    -3387.035 
 9691000    261.88944   -4690.2072   -4185.1313   -4690.2072            0    5521.8024    20.142753    20.057916    20.422144    8250.9883    4697.1532    6563.8338    5304.4202    765.31605    412.68491   -338.05376   -3520.6807 
 9692000     258.3484   -4667.0915   -4168.8449   -4667.0915            0    6121.4202    19.913235    20.020244    20.589497    8208.3698    6433.6115    6021.5843    5909.0649   -576.09865   -2041.7966    449.08526   -3436.0456 
 9693000    265.00279   -4691.0001   -4179.9199   -4691.0001            0    5578.0933    19.805632    20.168623    20.710415    8272.8236    8641.4951    3517.5337    4575.2512   -73.298881   -1286.3873   -917.46055   -3506.9193 
 9694000    269.45247   -4692.2345   -4172.5727   -4692.2345            0    5615.7768    20.102306    19.956295    20.544465    8241.7725    4929.9132    6151.1027    5766.3144    254.22083    193.27126    1124.7331   -3497.5687 
 9695000    261.31404   -4688.9306   -4184.9645   -4688.9306            0    7620.1631    19.756233    20.044712    20.710261    8201.4293    9473.1488    5858.3158    7529.0247    419.14803   -862.97353   -833.97273   -3273.5211 
 9696000    258.16236   -4674.4368   -4176.5489   -4674.4368            0    8417.8758     20.01996    19.692247    20.647887    8140.1814    8014.6835    9405.3747    7833.5692   -385.39706   -376.53027   -534.12439   -3177.2107 
 9697000    264.11035   -4694.6034   -4185.2444   -4694.6034            0    5471.3625    19.885409    20.081309    20.681027    8258.4519    5367.8801    4353.6683    6692.5391    -615.1102    1486.4538   -423.70889   -3526.2677 
 9698000    279.90618   -4725.1049   -4185.2823   -4725.1049            0    6239.5443    20.147247    19.901516    20.583342    8253.1124    5548.2238     7022.608    6147.8013   -15.568494    498.91199    915.83781   -3434.2709 
 9699000    262.10029   -4672.0464    -4166.564   -4672.0464            0    4946.0821    20.030882    19.945643     20.72079    8278.5529    5408.3442    4863.4218    4566.4805   -297.98341    535.77868   -1281.1833   -3569.4027 
 9700000    264.17047   -4702.7332   -4193.2582   -4702.7332            0    7225.4366    19.736078    20.246513    20.598093     8230.725    7024.1665    8116.1728    6535.9704    371.27169    249.88066   -205.72436   -3325.9408 
 9701000    257.62454   -4688.5395   -4191.6889   -4688.5395            0    4331.1387    20.093506    19.970774     20.64989    8286.4471    3746.4682    5218.8138     4028.134   -612.03285   -921.16135     579.1316   -3668.2737 
 9702000    268.56192   -4692.8616   -4174.9173   -4692.8616            0    5968.8087     19.65812    20.116268    20.921926    8273.5338     8428.995    5019.6688    4457.7623   -114.41544   -344.93465    88.248383   -3454.7149 
 9703000    261.40061   -4719.9294   -4215.7964   -4719.9294            0    7481.1197    20.066418    19.856344     20.64693    8226.6804    5707.2727    9602.4299    7133.6566   -1345.1678   -738.66445    964.38769   -3318.2289 
 9704000     252.8001   -4690.2651   -4202.7189   -4690.2651            0    7690.2183     19.85585    19.759897    20.750112    8141.2974    8153.4991    7587.5998     7329.556   -64.218495    271.69458     193.7898   -3289.6402 
 9705000    251.15432   -4705.1916   -4220.8194   -4705.1916            0    6110.3278    19.950451    20.072422    20.425621    8179.5189    6209.5971    4711.9976    7409.3888   -237.24646   -459.06772    1731.4904    -3491.919 
 9706000    257.13073   -4725.6439   -4229.7457   -4725.6439            0    6486.9222    20.175476    20.049738    20.414449    8257.9102    7571.6947    4890.1678    6998.9041    69.899729    618.75131   -1082.1686   -3448.5052 
 9707000    265.72258   -4700.5709   -4188.1026   -4700.5709            0    4575.7439    19.956467    20.130328    20.554089    8257.1991    4986.5219    3916.8192    4823.8907     225.8625    -795.5583   -557.42972   -3637.0788 
 9708000    265.65678    -4683.763   -4171.4216    -4683.763            0    9018.8353    19.760386    19.973894    20.576392    8121.3345    7526.5763    10670.923    8859.0067   -351.54317     306.8012    -475.8052   -3103.2187 
 9709000    259.94338     -4692.69   -4191.3673     -4692.69            0    5182.5363    19.944648    19.991309    20.498533    8173.1673    4353.4051    5837.1265    5357.0774    209.22042   -1042.4876   -1625.0869   -3573.6232 
 9710000    271.15325   -4672.8577   -4149.9158   -4672.8577            0     6696.902    19.949804    19.999355    20.593966    8216.6467    6996.9594    5632.5203    7461.2262   -366.25257    1480.8698    1168.9055   -3347.4169 
 9711000    278.69695   -4717.6477   -4180.1572   -4717.6477            0    6881.3304    19.813346    19.982902    20.583844    8149.7235    7986.7423    5377.3968    7279.8521    -373.7187   -1190.8777    512.24291   -3362.2742 
 9712000    259.30466    -4684.073   -4183.9822    -4684.073            0    7089.2205    19.868807    19.891719    20.711657    8185.7591    7585.2691    7028.7917    6653.6007   -252.67494   -994.08072   -165.01592   -3337.6647 
 9713000     267.6686   -4670.4301   -4154.2087   -4670.4301            0    6437.9539    19.912252    19.881775    20.700431    8195.1125    6044.8719    6025.0921    7243.8976    574.45396   -1547.0541   -871.09631   -3384.7618 
 9714000    255.98468    -4674.209    -4180.521    -4674.209            0    5350.6771    20.143476    19.998691    20.456818    8240.8888    4327.3628    5108.3639    6616.3045      700.515   -910.36439    -312.7789   -3537.4503 
 9715000    261.58248   -4740.0628    -4235.579   -4740.0628            0    7028.7789    19.767358    20.151928      20.6439    8223.5055    10174.598    4344.0449    6567.6935    159.03202       1445.9   -258.74313   -3392.6078 
 9716000    260.84661   -4701.8904   -4198.8257   -4701.8904            0    5693.5554    20.086658     19.76261    20.760694    8241.2647    5027.8715    6824.9039    5227.8907   -335.03542   -321.22763    138.77202   -3514.5151 
 9717000    252.76923   -4713.3768   -4225.8901   -4713.3768            0    7203.2843    19.672358    19.755251    20.914948    8128.2259    7152.0337    8692.5254    5765.2939    71.406316    111.99586   -98.146818   -3371.9996 
 9718000    271.13841   -4688.4963    -4165.583   -4688.4963            0    6065.9028    19.956812    20.032987    20.725722    8286.0308    8121.2944    4014.4771     6061.937    33.972686     368.5011   -747.39385   -3432.5596 
 9719000    257.34802   -4670.9142   -4174.5969   -4670.9142            0    6206.5103    19.788156    20.297331    20.503815    8235.2908    5873.3986    5519.9342     7226.198    739.98088   -1766.2244   -1385.9138   -3429.1747 
 9720000    253.32425   -4711.4557   -4222.8986   -4711.4557            0    6360.2876    19.990937    19.921111     20.67796    8234.8255    5193.9568     7408.661    6478.2451    -65.14846    -2007.217    1068.4339   -3459.0504 
 9721000    268.33741   -4703.2535   -4185.7422   -4703.2535            0    7453.8404    19.955188    19.776802    20.684873     8163.281    6988.1137    8656.4203    6716.9873   -154.17258      882.205    1348.7364   -3298.3395 
 9722000    260.60392    -4713.419   -4210.8224    -4713.419            0    6388.6423    19.771432    19.920616    20.812069    8197.0227    8208.5867    5930.7056    5026.6345   -862.64383    735.55162   -106.95884   -3447.0911 
 9723000    262.97239   -4711.2002   -4204.0359   -4711.2002            0    6513.1978    20.049556    19.936934    20.521579    8203.0227    5852.3684     7125.212    6562.0131    514.15223    49.873086   -837.38855   -3424.8446 
 9724000    265.61873   -4697.8066   -4185.5386   -4697.8066            0    7148.7624     20.03532    20.146449    20.362202    8219.0102    6385.4634    6780.6366    8280.1873   -230.19806    503.55855     535.3571   -3328.6462 
 9725000    265.29053   -4720.8128   -4209.1777   -4720.8128            0    5534.1682    20.078854    19.881429    20.501804    8184.2446    5110.4419    5875.3864    5616.6763   -1205.5776    562.78355    103.76487    -3548.626 
 9726000     265.1739    -4685.508   -4174.0978    -4685.508            0    6752.1702    19.640099    19.998496    20.866759    8195.8874     7154.998    6695.3754    6406.1373    41.029422    653.61926   -50.989413   -3367.0203 
 9727000    279.28884   -4666.5714   -4127.9394   -4666.5714            0     4882.286    20.100712    19.951437      20.7547    8323.4254    5123.4634    5843.8938    3679.5008   -42.601375   -377.08789    279.47169   -3535.2854 
 9728000    274.94232   -4695.4506   -4165.2012   -4695.4506            0    5970.4655    20.102024    19.972227    20.534175    8244.1056    2676.0163    6889.3039    8346.0763   -337.41043   -1085.6953    950.46815   -3447.3612 
 9729000    265.93712   -4689.6249   -4176.7428   -4689.6249            0    5511.7798    19.685997    20.151189    20.866409    8277.6265    6295.6913    4281.7656    5957.8825   -349.98162    1605.9665    1677.5074    -3511.357 
 9730000    276.38955   -4674.7166   -4141.6761   -4674.7166            0    6237.4222    19.925649    19.852894    20.740544    8204.5813    6396.9379    6522.5013    5792.8274    493.94467   -1436.0131    341.04892   -3395.3348 
 9731000     270.3327   -4677.2169   -4155.8576   -4677.2169            0     7451.371    19.909514    20.149711    20.391796    8180.5963    8819.3503    4492.1754    9042.5873   -904.14329    861.53796   -875.15176   -3266.8673 
 9732000    275.45112   -4713.5724   -4182.3417   -4713.5724            0     5199.578    20.081855    19.915996    20.491018    8195.3853    4440.6452    5397.6861    5760.4028    -474.5031    891.65478   -183.28676   -3560.8814 
 9733000    272.72225   -4724.6251   -4198.6573   -4724.6251            0    4514.5369    19.939925    20.207504    20.503425    8261.5703    4346.2241     3907.569    5289.8176   -126.95477    426.30226    361.84007   -3654.7164 
 9734000    265.79257    -4688.931   -4176.3277    -4688.931            0    6569.8378    19.930953      19.9397     20.75822    8249.6739    7438.9202    6790.9369    5479.6562   -108.08326    580.23869    963.25906   -3385.8906 
 9735000    260.70067   -4706.0929   -4203.3098   -4706.0929            0    7159.5374    19.638091    19.956572    20.832257    8164.3484    8060.6099    7155.7899    6262.2126    187.20118   -2052.3031   -179.08549   -3350.8333 
 9736000    258.25463   -4699.4165   -4201.3507   -4699.4165            0    7187.2685    19.903005     20.07215    20.516642    8196.3183    8971.5168    5457.6933    7132.5954    290.86928    -953.5495    728.26644   -3342.2213 
 9737000    259.01078   -4684.4393   -4184.9152   -4684.4393            0    6986.4467    20.107883    20.037663    20.257161    8161.9135    7920.7112    5477.8602    7560.7687   -151.12256   -509.56734   -624.77557   -3353.2966 
 9738000    266.49293   -4687.3772   -4173.4232   -4687.3772            0    5404.7203    20.023991    20.070366    20.603185    8280.1897    6020.4087    4748.0871    5445.6651    236.87873   -441.47759    314.36258   -3520.7596 
 9739000    256.54678   -4687.8684   -4193.0964   -4687.8684            0    5323.7567    19.827671    20.038258    20.570658    8172.9688    5821.5032    4830.2301    5319.5367    361.85909    1336.2074    757.41937   -3558.5346 
 9740000      279.647   -4709.4795   -4170.1567   -4709.4795            0    6849.0379    19.683061    19.883518    20.982965    8212.0713    6929.8444    8212.2382     5405.031    230.08165    1978.5178   -211.78953   -3349.8842 
 9741000    257.06368   -4705.2722   -4209.5033   -4705.2722            0    5350.0565    20.037259    19.838337    20.679766    8220.3291    5595.7875    5708.2764    4746.1055   -675.06708    45.730397    1125.6911   -3568.1114 
 9742000    252.34228   -4659.2856   -4172.6223   -4659.2856            0    6475.8676    20.178579    19.996808    20.287901    8186.3138    5449.6324    7096.0855    6881.8848   -354.28527    793.08472   -960.27158    -3399.475 
 9743000    261.28665   -4672.2814   -4168.3681   -4672.2814            0    7127.1275    19.986242    20.009649    20.487253    8193.2146    9795.6552    5584.6958    6001.0317   -1187.1756    223.56282    1302.1044   -3316.7503 
 9744000    267.58265   -4682.6584   -4166.6027   -4682.6584            0    7082.1837    19.848733    20.020126    20.576329    8176.5009    6482.4827    7690.7209    7073.3475    1084.5561   -199.13138   -379.56457   -3322.0815 
 9745000    272.29863   -4675.9564   -4150.8056   -4675.9564            0    5480.8528    19.865804    20.108403      20.7739    8298.5414    5885.9039    4483.3819    6073.2725   -646.61429    966.73161    529.34669   -3487.4815 
 9746000    280.02099   -4712.9311   -4172.8871   -4712.9311            0    6868.8819    20.026225    19.772741    20.815869    8242.5297     8186.462     7604.006    4816.1777    850.33473   -624.98286    102.45945   -3347.1867 
 9747000    261.43322   -4695.9876   -4191.7916   -4695.9876            0    6345.6532    19.982443    19.925632    20.687314    8236.9189    8275.8454    4487.4376    6273.6766   -718.01292    160.96833   -156.21791   -3429.5073 
 9748000    270.96253    -4678.248   -4155.6739    -4678.248            0    6466.6578     19.64099    20.180852    20.624471    8174.9612    7338.3947    4745.4689    7316.1097    94.946262    9.8107922    274.08882   -3384.6969 
 9749000    257.54751   -4701.2552   -4204.5532   -4701.2552            0    4802.8644    20.060152    19.862309    20.680324    8239.8876    4779.1232    5657.2735    3972.1964    35.041596    401.22003   -284.05328   -3627.3915 
 9750000    267.81592   -4657.8173   -4141.3118   -4657.8173            0    5770.6766    19.946748    19.976693    20.758735    8271.7345     6405.457    5681.9075    5224.6654   -321.56876    466.27459   -119.93043   -3445.1676 
Loop time of 424.162 on 64 procs for 250000 steps with 972 atoms

Performance: 101.848 ns/day, 0.236 hours/ns, 589.398 timesteps/s
99.0% CPU use with 64 MPI tasks x 1 OpenMP threads

MPI task timing breakdown:
Section |  min time  |  avg time  |  max time  |%varavg| %total
---------------------------------------------------------------
Pair    | 20.237     | 28.358     | 37.18      |  78.8 |  6.69
Bond    | 0.26946    | 0.27948    | 0.29091    |   0.8 |  0.07
Kspace  | 171.26     | 181.41     | 195.2      |  42.7 | 42.77
Neigh   | 3.2163     | 3.6892     | 4.2502     |  14.7 |  0.87
Comm    | 87.921     | 96.832     | 104.66     |  38.8 | 22.83
Output  | 0.79706    | 0.79936    | 0.81087    |   0.3 |  0.19
Modify  | 105.1      | 106.8      | 108.23     |   7.0 | 25.18
Other   |            | 5.989      |            |       |  1.41

Nlocal:        15.1875 ave          19 max          11 min
Histogram: 1 7 5 9 0 11 15 9 5 2
Nghost:        2237.89 ave        2277 max        2210 min
Histogram: 3 11 14 5 6 8 7 5 4 1
Neighs:        4756.45 ave        6452 max        3384 min
Histogram: 4 6 4 18 8 5 8 3 6 2

Total # of neighbors = 304413
Ave neighs/atom = 313.18210
Ave special neighs/atom = 2.0000000
Neighbor list builds = 8205
Dangerous builds = 1

unfix		3
unfix		2
unfix		1

write_data	data.final.${pid}
write_data	data.final.0
System init for write_data ...
PPPM initialization ...
  extracting TIP4P info from pair style
  using 12-bit tables for long-range coulomb (../kspace.cpp:340)
  G vector (1/distance) = 0.37255383
  grid = 24 24 25
  stencil order = 5
  estimated absolute RMS force accuracy = 0.0033899351
  estimated relative force accuracy = 1.0208689e-05
  using double precision FFTW3
  3d grid and FFT values/proc = 2366 288
Last active /omp style is kspace_style pppm/tip4p/omp
WARNING: Not all mixed pair coeffs generated from mixing. Use write_data with 'pair ij' option to store all pair coeffs. (../write_data.cpp:312)

write_restart   restart.lmp.${pid}
write_restart   restart.lmp.0
System init for write_restart ...
PPPM initialization ...
  extracting TIP4P info from pair style
  using 12-bit tables for long-range coulomb (../kspace.cpp:340)
  G vector (1/distance) = 0.37255383
  grid = 24 24 25
  stencil order = 5
  estimated absolute RMS force accuracy = 0.0033899351
  estimated relative force accuracy = 1.0208689e-05
  using double precision FFTW3
  3d grid and FFT values/proc = 2366 288
Last active /omp style is kspace_style pppm/tip4p/omp
Total wall time: 0:07:05
