LAMMPS (30 Jul 2021)
  using 1 OpenMP thread(s) per MPI task
package omp 0
using multi-threaded neighbor list subroutines
echo both

include		in.partitions
variable        pid world 0
include		in.temp
variable        temperature equal 266.44
variable	tempDamp equal 100.0
include		in.pressure
variable        pressure equal 9625.0
variable        pressureDamp equal 1000.0 # This is 1 ps
include		in.seed
variable        seed world 745823

units		real
atom_style	full
read_restart    restart.lmp.${pid}
read_restart    restart.lmp.0
Reading restart file ...
  restart file = 30 Jul 2021, LAMMPS = 30 Jul 2021
  restoring atom style full from restart
  triclinic box = (-3.0394509 -0.19835291 -0.076275813) to (14.649450 22.778352 19.306274) with tilt (-0.37564574 -6.2028240 0.11691400)
  4 by 4 by 4 MPI processor grid
  restoring pair style lj/cut/tip4p/long/omp from restart
  restoring bond style harmonic/omp from restart
  restoring angle style harmonic/omp from restart
  1008 atoms
  672 bonds
  336 angles
Finding 1-2 1-3 1-4 neighbors ...
  special bond factors lj:    0        0        0       
  special bond factors coul:  0        0        0       
     2 = max # of 1-2 neighbors
     1 = max # of 1-3 neighbors
     1 = max # of 1-4 neighbors
     2 = max # of special neighbors
  special bonds CPU = 0.921 seconds
  read_restart CPU = 1.193 seconds

include 	in.setup
variable	out_freq equal 1000
variable	out_freq2 equal 10000
variable	out_freq3 equal 1000

timestep	2.0

neigh_modify    delay 7 every 1

include		in.tip4p
# This is TIP4P/Ice

# create groups ###
group ox type 2
336 atoms in group ox
group hy type 1
672 atoms in group hy

# set charges - beside manually ###
set group ox charge -1.1794
Setting atom values ...
  336 settings made for charge
set group hy charge 0.5897
Setting atom values ...
  672 settings made for charge

# ### TIP3P Potential Parameters ###
pair_style lj/cut/tip4p/long/omp 2 1 1 1 0.1577 8.5
pair_coeff 1 1*2 0.000 0.000
pair_coeff 2 2 0.21084 3.1668
bond_style  harmonic
bond_coeff  1 450 0.9572
angle_style harmonic
angle_coeff 1 55 104.52
kspace_style pppm/tip4p/omp 1.0e-5
pair_modify tail yes

thermo          ${out_freq}
thermo          1000
thermo_style    custom step temp pe etotal epair emol press lx ly lz vol pxx pyy pzz pxy pxz pyz enthalpy

restart 	${out_freq3} restart.lmp.${pid} restart2.lmp.${pid}
restart 	1000 restart.lmp.${pid} restart2.lmp.${pid}
restart 	1000 restart.lmp.0 restart2.lmp.${pid}
restart 	1000 restart.lmp.0 restart2.lmp.0


include         in.dump
dump            myDump all atom ${out_freq2} dump.water.${pid}
dump            myDump all atom 10000 dump.water.${pid}
dump            myDump all atom 10000 dump.water.0
dump            myDump2 all dcd ${out_freq2} dump.dcd
dump            myDump2 all dcd 10000 dump.dcd
dump_modify     myDump append yes
dump_modify     myDump2 append yes


variable natoms 	equal  "count(all)"                        # NUMBER ATOMS
variable H      	equal  "enthalpy/v_natoms"                 # ENTHALPY-per-atom
variable Vol      	equal  "vol/v_natoms"                 # volume-per-atom
fix AVG all 		ave/time ${out_freq} 1 ${out_freq} v_Vol v_H file vol_enthalpy.dat
fix AVG all 		ave/time 1000 1 ${out_freq} v_Vol v_H file vol_enthalpy.dat
fix AVG all 		ave/time 1000 1 1000 v_Vol v_H file vol_enthalpy.dat



fix 		1 all shake 1e-6 200 0 b 1 a 1
       0 = # of size 2 clusters
       0 = # of size 3 clusters
       0 = # of size 4 clusters
     336 = # of frozen angles
  find clusters CPU = 0.031 seconds
fix             2 all nph tri ${pressure} ${pressure} ${pressureDamp}
fix             2 all nph tri 9625 ${pressure} ${pressureDamp}
fix             2 all nph tri 9625 9625 ${pressureDamp}
fix             2 all nph tri 9625 9625 1000
fix             3 all temp/csvr ${temperature} ${temperature} ${tempDamp} ${seed}
fix             3 all temp/csvr 266.44 ${temperature} ${tempDamp} ${seed}
fix             3 all temp/csvr 266.44 266.44 ${tempDamp} ${seed}
fix             3 all temp/csvr 266.44 266.44 100 ${seed}
fix             3 all temp/csvr 266.44 266.44 100 745823


run             250000
PPPM initialization ...
  extracting TIP4P info from pair style
  using 12-bit tables for long-range coulomb (../kspace.cpp:340)
  G vector (1/distance) = 0.38435928
  grid = 24 30 32
  stencil order = 5
  estimated absolute RMS force accuracy = 0.0018555361
  estimated relative force accuracy = 5.5878919e-06
  using double precision FFTW3
  3d grid and FFT values/proc = 4080 384
Last active /omp style is kspace_style pppm/tip4p/omp
Neighbor list info ...
  update every 1 steps, delay 7 steps, check yes
  max neighbors/atom: 2000, page size: 100000
  master list distance cutoff = 10.8154
  ghost atom cutoff = 10.8154
  binsize = 5.4077, bins = 5 5 4
  1 neighbor lists, perpetual/occasional/extra = 1 0 0
  (1) pair lj/cut/tip4p/long/omp, perpetual
      attributes: half, newton on, omp
      pair build: half/bin/newton/tri/omp
      stencil: half/bin/3d/tri
      bin: standard
Per MPI rank memory allocation (min/avg/max) = 9.341 | 9.347 | 9.349 Mbytes
Step Temp PotEng TotEng E_pair E_mol Press Lx Ly Lz Volume Pxx Pyy Pzz Pxy Pxz Pyz Enthalpy 
10750000    273.01099   -4790.9274   -4244.8717   -4790.9274            0    10524.337    17.688901    22.976705     19.38255     7877.701    11548.975    10420.541    9603.4935    2187.0322    532.21378    1047.8953   -3035.7497 
10751000    257.05966    -4797.507   -4283.3559    -4797.507            0    8847.4018    18.022616    23.045279    19.058442     7915.661    6773.9385    9398.7699    10369.497   -1015.9956    -833.8824   -2317.4206    -3261.996 
10752000    271.37575   -4807.5225   -4264.7374   -4807.5225            0    9527.9602    17.735115    22.995279    19.410458    7916.0493    11437.939    8129.7921    9016.1496    427.53317   -814.72506    1269.5176   -3164.7586 
10753000    261.69771   -4806.6486   -4283.2209   -4806.6486            0    9277.4329    17.970333    23.020439    19.169676    7930.2066    10158.352     7785.199    9888.7478   -584.40587   -14.093239   -559.91905   -3210.2493 
10754000    255.55378    -4823.494   -4312.3549    -4823.494            0    8842.5673    17.584489     23.19143    19.369714     7899.152    10333.811    8429.5181    7764.3726    1850.1653    775.78588   -241.62054    -3293.682 
10755000    259.14505   -4787.0535   -4268.7314   -4787.0535            0    8862.9739    18.054805    23.150673    18.984412    7935.1215    8483.5551    8501.8111    9603.5554   -726.98612    254.30521   -1096.1375   -3243.0583 
10756000    269.21701   -4796.0115   -4257.5442   -4796.0115            0    9069.2842    17.955245    23.054553    19.198331    7947.1517    8865.8093    8939.4711    9402.5723    142.15304    419.72585   -1660.5008   -3206.4046 
10757000    268.08105   -4807.5367   -4271.3415   -4807.5367            0    11332.748    17.846628    22.989435    19.188019    7872.5351    10061.488    11387.812    12548.945   -460.26767    343.31811    406.25965   -2970.1964 
10758000    279.88273   -4820.5789   -4260.7789   -4820.5789            0    10611.747    17.839931    22.973878    19.204058     7870.829    10245.573    10918.628    10671.041   -8.0204204   -721.03967    870.45973    -3042.678 
10759000    267.76928   -4765.1387   -4229.5671   -4765.1387            0    12974.732    17.783711    22.911966    19.229289    7835.1622    13089.497    13488.659     12346.04   -784.97545   -531.21207   -276.41422   -2746.9729 
10760000    263.92844   -4788.9776   -4261.0882   -4788.9776            0    10418.427    17.943203    22.956885    19.186574    7903.3343    11611.368    8623.7989    11020.114   -57.222019     181.0649   -1483.8772   -3060.2392 
10761000    259.05218   -4786.6489   -4268.5126   -4786.6489            0    11353.234    17.829268    22.874198    19.184424    7823.9877    10567.391     11956.58    11535.731    1806.6026    62.022188   -245.26458   -2973.0536 
10762000    269.85074   -4770.6808    -4230.946   -4770.6808            0    9165.8791    17.852257    22.931357     19.37622    7932.1688     8681.813     9513.111    9302.7132   -463.50551   -114.53883   -844.75034   -3170.6138 
10763000    272.09895   -4769.5256   -4225.2941   -4769.5256            0    9919.4425    17.879609    22.883249    19.298998    7896.0603    11004.904    9520.3879    9233.0353   -1569.4936   -256.03238   -759.02284   -3083.0114 
10764000    262.06464   -4798.8744   -4274.7127   -4798.8744            0    8578.1055    17.861572    23.277894    19.085875    7935.5205    10462.982    6793.7673    8477.5673    751.35027   -1346.5855   -256.66056   -3281.9563 
10765000     268.2032   -4797.4606    -4261.021   -4797.4606            0    10323.445     17.83208    22.819615    19.321457    7862.3104    10258.653    10683.024    10028.658    40.090554   -260.62007   -866.13837   -3077.2963 
10766000    277.20689   -4812.1669   -4257.7189   -4812.1669            0      10143.3    18.065891    22.904848    19.148256     7923.481    8564.1449    10498.121    11367.635   -1190.4854    360.59292   -71.499174   -3085.6013 
10767000    271.55774   -4806.1704   -4263.0214   -4806.1704            0     11406.11    17.759302    22.883808    19.302691    7844.6226    11138.928    11644.466    11434.935   -1434.8585    711.93782    973.42307   -2958.0966 
10768000    261.90589   -4813.3088   -4289.4647   -4813.3088            0    9328.5287    17.893768    23.012447    19.226989    7917.2775    10163.375    9456.8744    8365.3368    161.60869    8.8074028     516.3516   -3212.3426 
10769000    259.61651   -4789.1605   -4269.8954   -4789.1605            0    10083.296    17.800788    22.812038    19.434511    7891.8157    9679.7964    11344.526    9225.5652    730.47809    505.71454   -198.09008   -3109.3682 
10770000    261.05639   -4807.4138   -4285.2688   -4807.4138            0    6893.4054    17.967318     23.12341    19.239423    7993.3194    7751.4399    6593.7716    6335.0046   -443.11468   -1122.3924    353.93147   -3481.6744 
10771000    268.35116   -4828.9807   -4292.2452   -4828.9807            0    9408.3876    17.970159    22.805246    19.232467    7881.7321    10055.592    8210.1175    9959.4529    53.657135    240.63916   -871.27759   -3210.7795 
10772000    259.19209   -4781.0988   -4262.6826   -4781.0988            0    10412.049    17.755046    22.941722    19.372903      7891.19    10514.252    10585.574     10136.32    1192.0261   -631.10327    504.86516   -3064.4129 
10773000    258.30257   -4818.4864   -4301.8493   -4818.4864            0    7759.3972    18.077343     22.83503    19.273255    7955.9357     6671.458    8609.3423    7997.3912    316.15665   -988.81179   -413.61309    -3401.533 
10774000    284.28755   -4795.6072   -4226.9969   -4795.6072            0    8724.1028    17.992581     22.77277    19.323358    7917.5701      8155.93    9559.4874    8456.8911    102.86923    317.07578   -1385.1576   -3219.6279 
10775000    292.19353   -4830.2635   -4245.8403   -4830.2635            0    9862.3349    17.991782    22.945102    19.199958    7926.1892    8322.5684    11236.893    10027.543   -1033.9782     1462.661    1384.2978   -3105.8004 
10776000    277.96018   -4799.8345   -4243.8798   -4799.8345            0    8310.7533    18.131338    22.748609    19.210538    7923.6305    7039.7391    8999.7718     8892.749    739.44429     501.9088    1123.8763   -3283.5056 
10777000    278.53346   -4796.0384    -4238.937   -4796.0384            0    9523.3217    17.906917    22.812098    19.343053    7901.5276    8599.6112    10397.394    9572.9603   -514.80504    202.97329   -317.29224   -3141.5106 
10778000    262.29496   -4810.5216   -4285.8993   -4810.5216            0    10044.796    18.114679     22.88157    19.117878    7924.2129    9057.2106    10442.339    10634.839    1107.6956    719.86832     134.1292   -3125.0572 
10779000    263.54005   -4801.5531   -4274.4404   -4801.5531            0    8343.8686    17.897567    23.136427     19.22044    7958.9102    9968.7379    6646.9388    8415.9292    1581.0615    772.50873    75.491586   -3305.9464 
10780000    272.57474    -4788.854   -4243.6709    -4788.854            0    7586.3794    17.802746    23.145055    19.361438    7977.7939    10234.439    6811.8582     5712.841    881.41984   -373.24287   -629.62642   -3361.0113 
10781000     266.3617   -4777.5425   -4244.7862   -4777.5425            0    8804.1161     17.90659      23.0814    19.226862    7946.6382    9677.7168    8836.2956    7898.3358   -421.71508    721.74184   -1392.3122   -3224.4458 
10782000    270.51241   -4796.0895   -4255.0313   -4796.0895            0    11359.148    17.848542    22.836539    19.308186    7869.9959     13315.23    10244.295    10517.917     621.6219   -106.82918   -317.25649   -2951.2759 
10783000    255.19164   -4770.2755   -4259.8607   -4770.2755            0    12709.561     17.99773     22.75018    19.176239    7851.7416    12325.411    12287.211     13516.06    -859.8348    1414.4742   -726.80075    -2804.494 
10784000    259.07932    -4823.853   -4305.6623    -4823.853            0    9545.5947    17.777838    22.783338    19.477076    7888.9657    11511.796    9397.2941    7727.6941    1782.1737    873.07147   -382.92218   -3207.4181 
10785000    270.50965   -4852.9544   -4311.9017   -4852.9544            0    8656.7316    18.024956    22.962955    19.131259    7918.5478    10159.056    8412.6056    7398.5338    766.61943    93.809532   -22.185968   -3312.1886 
10786000    264.39222   -4825.6565   -4296.8394   -4825.6565            0    9000.7964    17.640926    23.284289    19.224615    7896.6344    10415.997    7441.4349    9144.9575   -158.00469   -1642.2875     55.11054   -3260.2689 
10787000    279.26842   -4824.5338   -4265.9625   -4824.5338            0    9342.5795    17.911905    23.071975    19.058811    7876.3017    7181.0588    9728.2705    11118.409   -934.13604    212.05465    -2369.937   -3192.8011 
10788000    264.37665   -4798.3766   -4269.5907   -4798.3766            0    9833.8982    17.720342    22.998926    19.410479    7910.7181    9114.1149    10014.527    10373.053    147.60361    138.17195    979.65785   -3135.0567 
10789000    247.53852   -4771.4557   -4276.3481   -4771.4557            0    9906.5609     17.94521    22.993772    19.142316    7898.6567    7686.1857    9655.2517    12378.245   -929.38308    218.66364    1012.7488   -3135.1737 
10790000    276.11146   -4817.7188   -4265.4618   -4817.7188            0    9918.7512    17.661163    23.316395    19.129661    7877.4922    11641.919    9071.1468    9043.1881     346.1044    -221.4507    296.29306   -3125.9446 
10791000    259.79915   -4788.8992   -4269.2688   -4788.8992            0     9616.161    17.817888    23.211252    19.183424    7933.7939    10118.407    9786.2532    8943.8227    -1538.807    530.51281   -607.50433   -3156.6189 
10792000    270.12604   -4808.8728   -4268.5873   -4808.8728            0    9285.5632    17.858371    22.961932    19.256489    7896.3679    9230.8215    8793.3907    9832.4775   -475.67146    766.77536   -1589.3606   -3199.2579 
10793000     274.7834   -4804.8267    -4255.226   -4804.8267            0    7724.5705    17.962841    23.045155    19.178813    7939.1934    7213.5289    7784.7811    8175.4015   -282.66034    91.119476    887.40885   -3360.8366 
10794000    255.92653   -4814.9782   -4303.0936   -4814.9782            0    9545.2691    17.908644    22.960108    19.203193    7896.0532    8070.5328     9735.016    10830.258    -1524.432   -603.64234    138.59987   -3203.9001 
10795000     266.7133   -4846.4188   -4312.9593   -4846.4188            0    8576.0553    17.813418    22.864881    19.425094    7911.8732    9069.0569    8866.8872    7792.2218   -789.20519   -1435.9069    650.41161   -3323.3978 
10796000    275.80841   -4838.6226   -4286.9717   -4838.6226            0    10280.867    18.024905    22.696432     19.23917    7870.7647    9417.0036    9969.0024    11456.595   -14.208075   -664.30494   -735.93317   -3106.8615 
10797000    277.46839   -4822.8321   -4267.8611   -4822.8321            0    10223.977    18.055792     22.49392     19.41416    7884.9745    11025.559    9880.9819    9765.3884   -1815.1642    321.95529    713.97418   -3092.1624 
10798000    272.05505   -4832.3063   -4288.1626   -4832.3063            0    10612.243    18.168893    22.576831    19.224897    7885.9764    9043.6326    11869.982    10923.114    -291.0424    1129.4721    -734.1029   -3067.6604 
10799000    272.44964   -4803.9957   -4259.0627   -4803.9957            0    8057.5962    18.063596    22.831603    19.341846    7976.9804    10388.683    7642.4552    6141.6502    228.51766    972.95471    1135.3404   -3321.6736 
10800000    274.40231   -4845.9687   -4297.1302   -4845.9687            0    11063.098    17.846126    22.771809    19.284159    7836.8618    11519.077    11396.069    10274.147    392.80946    639.38501    876.67894   -3032.7001 
10801000    279.30823   -4764.9669   -4206.3159   -4764.9669            0    10136.753    17.937584    22.813367    19.417818     7946.095    10882.271    10487.841    9040.1473   -296.25593    244.19251   -768.82724   -3031.6117 
10802000    257.75244   -4802.3447    -4286.808   -4802.3447            0    9406.0561    17.935928    22.719389    19.402304    7906.3094    11947.526    7816.4371    8454.2051   -1737.0792   -1774.3952    266.03915   -3202.2388 
10803000    258.31568    -4829.664   -4313.0008    -4829.664            0    9998.4976    18.020258    22.740916     19.24189    7885.2724    8431.2503    10764.081    10800.162   -8.1110821    37.150534    40.256559   -3163.1874 
10804000    279.39203   -4795.4061   -4236.5875   -4795.4061            0    9999.8465    17.943266    22.746566    19.361836    7902.4887     8461.767    10175.434    11362.338   -78.371132   -257.57022    556.89083   -3084.1083 
10805000    274.50568   -4804.4359   -4255.3906   -4804.4359            0    9680.3457    18.027552    22.617852    19.449488    7930.4217    9913.3902    10922.987      8204.66   -1250.6811    902.34296   -488.28156   -3135.7903 
10806000    281.21577   -4787.7712    -4225.305   -4787.7712            0    10452.502    18.081137    22.598897    19.320927    7894.7965    8550.2858    11349.036    11458.186    1449.8693    1528.5206    467.82097   -3021.8299 
10807000    264.12009   -4827.0446   -4298.7718   -4827.0446            0     10635.34    18.037313    22.610186     19.28644     7865.531    10328.832    11147.277     10429.91   -1924.0422   -417.26958    -3120.036   -3078.7845 
10808000    269.06525   -4814.2192   -4276.0555   -4814.2192            0    7989.2387    17.974366     22.80141    19.353175    7931.7223    7061.4704    8846.2762    8059.9694   -339.29052   -908.33022   -593.80921   -3351.8921 
10809000     267.4263   -4815.7328   -4280.8471   -4815.7328            0    8525.4519    18.075357    22.960868    19.172253    7956.9813    8837.1739     8106.668    8632.5137    139.67078   -501.23137    511.33406   -3291.5161 
10810000     260.5085   -4806.0878   -4285.0386   -4806.0878            0    8934.7013    17.891004    23.027677    19.249828    7930.7028     9452.335    8701.7027    8650.0661    1394.4723   -462.38678    60.913569   -3251.6407 
10811000    280.78397   -4800.1768   -4238.5741   -4800.1768            0     9996.966    17.711593    23.140713    19.201106    7869.7443    8778.3879     9051.786    12160.724    820.08132    1547.7384   -315.56624   -3091.2009 
10812000    278.01879   -4768.8035   -4212.7316   -4768.8035            0    8859.1645    18.018585    23.047398    19.120136    7940.2387    10240.224    8018.1778    8319.0914     816.8604   -800.95811   -668.18174   -3186.8383 
10813000    266.81988   -4779.9235   -4246.2507   -4779.9235            0    7780.1442     17.81656    23.023679    19.425165    7968.2564    7234.6113    7761.1361    8344.6851    474.65536    -985.0218   -342.46677   -3342.1292 
10814000    261.76438   -4805.2614   -4281.7003   -4805.2614            0    9785.4563     17.93366    22.999412    19.187588     7914.182     9656.485    9170.1211    10529.763    820.78576    399.78788   -1043.2152   -3152.2607 
10815000    258.08096   -4809.9069   -4293.7131   -4809.9069            0    11823.732    17.745715    23.007811    19.205499    7841.4144    14105.145    10948.653    10417.398   -422.72098   -722.82431    497.35984   -2941.5631 
10816000    277.80273   -4789.0838    -4233.444   -4789.0838            0    9197.5933    17.775399    23.127501    19.228224    7904.7336     10288.49    8671.3525    8632.9374   -816.85529    403.39696   -444.27786   -3173.1231 
10817000     268.2695   -4830.3994   -4293.8273   -4830.3994            0    8223.5988    17.842116    23.289386    19.055034    7917.9748    8943.5634    7374.7886    8352.4444    12.757302    111.61883    980.72901   -3344.2028 
10818000    272.44053   -4808.2341   -4263.3194   -4808.2341            0    10048.482    17.713731    23.300405    19.066883    7869.6101    10579.226    10115.141    9451.0792     528.7528    712.39776    774.46548   -3110.0532 
10819000    252.50339   -4808.9112   -4303.8732   -4808.9112            0    10000.626     17.85531    22.969015    19.174455    7863.8065    10813.702    9958.9567    9229.2198    1796.9199    912.01974    928.46638   -3156.9459 
10820000    262.50323   -4786.3463   -4261.3074   -4786.3463            0    8169.9295    17.917609    23.097826    19.258992    7970.4845    9030.1308    7330.7315    8148.9262    -304.3071   -1399.9705    198.88471   -3311.6238 
10821000    271.82305   -4816.1046   -4272.4249   -4816.1046            0      9287.29    17.883402    22.868999    19.334506    7907.3393    7711.7281    11266.158    8883.9837   -939.75439    1959.5042    -2282.166   -3201.4106 
10822000    274.25676    -4765.764   -4217.2166    -4765.764            0    8456.9659    18.023847    22.824091     19.28315    7932.6623     6855.428    8680.3134    9835.1563    1165.4722   -825.92736   -881.50838   -3238.8324 
10823000    265.07723   -4845.0344   -4314.8472   -4845.0344            0     8670.403    17.967379    22.932522    19.219144    7919.0043    8816.0709    8359.4315    8835.7066   -287.92087    471.42854   -1231.8581   -3313.4975 
10824000    249.52678   -4811.7781   -4312.6937   -4811.7781            0    8571.5166    17.866734    22.877539    19.417338    7936.7767    9448.8107    8567.1874    7698.5516   -255.55632     96.87819   -1023.4864   -3320.5428 
10825000    263.79729   -4821.7621   -4294.1349   -4821.7621            0    9642.6436    18.095986      22.8849    19.101546    7910.4247    7750.1334    9948.3512    11229.446    1601.6606    766.59608    643.15963   -3181.7072 
10826000    278.84248   -4819.5737   -4261.8543   -4819.5737            0    9312.9564    17.703101    23.081725    19.391373    7923.6662    10011.867    8758.7893    9168.2128    176.43225   -316.27455   -1201.7494   -3185.6626 
10827000    247.62347   -4809.3741   -4314.0966   -4809.3741            0    10763.784    17.923988    22.903984    19.127008    7852.2244    9833.3358    10391.124    12066.892    626.94175    -676.9563     1255.816   -3081.4643 
10828000    281.68902   -4774.3473   -4210.9345   -4774.3473            0    11815.491    17.701695    22.879126    19.380787    7849.2053    12694.442    11215.181    11536.849   -127.21233   -162.30287   -1874.9263   -2858.3844 
10829000    271.10304   -4828.1118   -4285.8722   -4828.1118            0    9040.1937    17.980023    23.024308    19.186902    7942.9474    8623.5016    8695.2753    9801.8043    378.01892    1080.4943    553.55415   -3238.6585 
10830000     268.4655   -4776.2316   -4239.2675   -4776.2316            0     9329.062    17.884585    23.040463    19.175499    7901.6311     10279.22    7944.5182     9763.448   -805.70701    -564.7966    183.79281   -3164.2126 
10831000    266.25177   -4805.4185   -4272.8821   -4805.4185            0    8364.1013    18.003714    22.918729    19.257026    7945.8774    8524.7817    9542.5005    7025.0218    159.98631    550.41238    226.77635   -3303.6294 
10832000    252.69306   -4801.2343   -4295.8169   -4801.2343            0    10717.394    18.014349    22.709482    19.264829    7881.1749    10103.113    10781.031    11268.036   -1391.7769    37.178084   -2182.3461    -3063.972 
10833000    276.90128   -4802.9312   -4249.0944   -4802.9312            0    10579.641    17.968844    22.666332    19.340201    7877.0275     10998.85    10462.994    10277.079     1400.617   -1401.0436   -120.10221   -3033.7225 
10834000    266.91378   -4771.3681   -4237.5076   -4771.3681            0    8217.4099    18.141615    22.631349    19.401321    7965.5852    8679.1116    7779.1065    8194.0117   -1187.6205   -1285.8506    -635.1734    -3282.892 
10835000    268.02422   -4831.5496   -4295.4681   -4831.5496            0    8931.9222    17.999598    22.612909    19.460091    7920.7097    10733.015    8048.3654    8014.3863    1185.3217   -1278.2757   -491.79223   -3263.6933 
10836000    262.08558   -4802.0103   -4277.8068   -4802.0103            0    11575.448    18.046908     22.64094    19.174172    7834.5464    10772.698    11904.159    12049.487    935.65331    445.00661    2596.6828   -2955.2097 
10837000    251.42183   -4790.0501   -4287.1754   -4790.0501            0    8259.2457    17.946611    22.693379    19.526663    7952.6095     8027.865    9469.0256    7280.8464   -1573.2522    44.313603   -233.23086   -3329.2627 
10838000    269.98458    -4815.037   -4275.0344    -4815.037            0    8098.5812    18.025993    22.813449    19.348349    7956.7196    8024.9893    8107.7131    8163.0412   -876.32058     278.6492   -26.997527   -3335.2703 
10839000    255.34732   -4830.5424   -4319.8163   -4830.5424            0    10708.782    17.809521    22.860059    19.316115    7864.1061     11569.87    10541.493    10014.982    728.57921    77.230206    -1097.851   -3091.6269 
10840000    268.75116   -4809.9426   -4272.4071   -4809.9426            0    10614.204    18.118664    22.913013    18.954726    7869.1151    10303.098    9623.8476    11915.667    286.94001    645.36379    731.68916   -3054.2894 
10841000    255.59382   -4810.4556   -4299.2364   -4810.4556            0    7370.9525    17.924453    22.979845    19.373455    7979.9483    8730.3233    6643.3712    6739.1631    596.14448   -986.36117    -520.5817   -3441.4097 
10842000    272.21214   -4822.8009    -4278.343   -4822.8009            0    9678.7883     17.89612     22.94877    19.157965    7868.0602     8263.695     11012.42    9760.2502   -523.06082    1567.2659   -213.93367   -3167.7254 
10843000     275.3559    -4809.671   -4258.9252    -4809.671            0    7844.8447    17.934186    23.060394    19.260202    7965.4302    6535.6113    7828.9118    9170.0112   -1860.8031   -603.21482    2098.5546   -3347.6081 
10844000    260.67045   -4798.8677   -4277.4946   -4798.8677            0    10875.504     17.77453      23.0469    19.205017    7867.2932    11167.779    9675.5401    11783.192   -2377.7781   -99.022062    -1681.464   -3029.6785 
10845000    258.92814   -4829.2739   -4311.3857   -4829.2739            0    10857.358    17.921529    22.915323    19.050707    7823.6988    9654.6565    11049.164    11868.252    949.69062   -71.441011    1951.7432   -3072.5544 
10846000    272.67833   -4792.3446   -4246.9542   -4792.3446            0    12057.696    17.686897    23.098019    19.201029    7844.2403    12646.669    12418.875    11107.544    210.47267    127.90808    1239.0856   -2867.5514 
10847000    256.75647   -4790.1408   -4276.5961   -4790.1408            0    11293.324    18.007569    23.040321    19.015725    7889.6273    9315.5852    10951.444    13612.941   -583.61439   -54.464423   -1263.2293   -2977.1623 
10848000    277.09976   -4833.1093   -4278.8756   -4833.1093            0    8170.7978    17.835098    22.863039    19.457585    7934.1134    8569.5107    9204.9291    6737.9535    -1343.228    126.41388    452.67993   -3333.4252 
10849000    269.34066   -4816.3612   -4277.6466   -4816.3612            0    11060.184    17.918953    22.742392    19.282924    7858.1744    11083.434    11266.489     10830.63   -37.845843   -36.672107    645.47964   -3010.1118 
10850000    276.70748   -4829.7181    -4276.269   -4829.7181            0    10956.073    18.019158    22.581552    19.434954     7908.094    10245.265    11279.728    11343.225   -271.77566    189.19252    313.67421   -3012.6893 
10851000    245.29764   -4808.1554   -4317.5298   -4808.1554            0    9643.8935    18.044396    22.809122    19.180023    7894.0527    6403.4403    12098.659    10429.581    1300.4246    430.53847   -1708.1243   -3207.2605 
10852000    267.68494   -4805.4321   -4270.0291   -4805.4321            0    8219.0591    17.921191    22.828503    19.408128    7940.1363    9865.4078    7752.3848    7039.3848   -501.70829    773.75625    556.74265   -3318.2724 
10853000    266.80937   -4790.2901   -4256.6384   -4790.2901            0    9732.1142    18.124111    22.823423    19.167923    7928.8927    8649.4651    9398.1422    11148.735   -1239.2501   -1458.2498   -1392.8205   -3131.2676 
10854000    280.10286   -4825.1431   -4264.9028   -4825.1431            0    8707.8052    17.953394     22.79476    19.382681    7932.2327    8768.4449    9315.8716    8039.0989     355.1197   -2358.8977   -512.08686   -3257.5536 
10855000    271.82936   -4769.9802   -4226.2879   -4769.9802            0     10319.89    17.996827    22.841225    19.195307     7890.607    9088.9882    10665.216    11205.465    634.34248    414.87022    1835.6181   -3038.7121 
10856000     263.9201   -4842.5649   -4314.6921   -4842.5649            0    7238.5661     17.98325    22.983078    19.307599    7980.0323    5869.6269    7945.3704    7900.7008    231.75531    25.096886   -553.43433   -3472.2636 
10857000    271.60116   -4808.9157   -4265.6798   -4808.9157            0     9927.404    18.130825    22.882555    19.107564    7927.3384    8875.4936    10164.607    10742.111    1239.4027     1390.489    1082.9032   -3117.9518 
10858000    273.92131   -4800.2926   -4252.4161   -4800.2926            0    7994.4583     17.93264    22.828385    19.420892    7950.3929     7935.935    8451.9808    7595.4593   -729.13201   -1338.6092   -871.52979    -3325.472 
10859000    262.44062   -4816.3211   -4291.4075   -4816.3211            0    9272.5174     18.10666    22.638997    19.332216    7924.5968    8252.8133    10347.712    9217.0271    384.82965     694.3576    1078.6166    -3219.763 
10860000    261.08683   -4769.9272   -4247.7212   -4769.9272            0    10416.016    17.892969    22.783772     19.35985    7892.4167    9663.5572    11413.512     10170.98   -644.22305    11.488523    603.00079   -3048.8086 
10861000    280.79828   -4787.9016   -4226.2704   -4787.9016            0    10424.353    17.936587    22.789021    19.262645    7873.7463    9617.8707    11887.344    9767.8453    1130.6153    929.47916    291.34845   -3029.2365 
10862000    261.41179   -4787.4412   -4264.5853   -4787.4412            0    9617.0981    17.970545    22.743309    19.332909    7901.5466    10304.754     9568.966    8977.5745    797.66783   -136.73927   -442.40012   -3156.3498 
10863000    271.01047   -4824.7977   -4282.7433   -4824.7977            0    9793.5129    17.974712    22.701173    19.284448    7868.9618    10422.097    9198.2712    9760.1708    451.38447   -457.21108    715.48463   -3158.8326 
10864000    271.11281   -4801.0517   -4258.7925   -4801.0517            0    8900.2596    18.008509    22.806242    19.340027    7943.0731    8645.3298     8303.773    9751.6761     255.4425   -739.25745   -1997.2946   -3227.7724 
10865000    264.69951   -4812.8419   -4283.4101   -4812.8419            0    7919.6921    17.746685    22.843822    19.608884    7949.4831    9390.3301    7213.8968    7154.8496    822.81286   -1058.3133   -1601.4853   -3365.2402 
10866000    265.83914   -4833.9369   -4302.2258   -4833.9369            0    10243.667    18.102249    22.760961    19.113115    7875.0732    9243.7073    9607.3441    11879.949    458.77925    109.02394     -1237.84   -3125.7421 
10867000     260.8229   -4821.1998   -4299.5218   -4821.1998            0    9479.7422    17.941115    22.617043    19.401657     7872.707    9812.9476    9423.5569    9202.7222    -417.5776    169.72678   -652.40401   -3211.1018 
10868000    254.30743   -4814.8994   -4306.2531   -4814.8994            0    7296.5194    18.238529    22.619804    19.313896    7967.9857    5090.4001    8483.6395    8315.5188   -279.79748   -871.04803   -655.14934   -3458.3618 
10869000    262.62807   -4831.5586     -4306.27   -4831.5586            0    9128.3287    17.874453     22.75191    19.475061    7920.0776    9374.3315    9789.9369    8220.7177    360.13163    512.72794    1047.6597   -3251.8914 
10870000    269.15466   -4818.2848   -4279.9422   -4818.2848            0    9171.4487    18.123103    22.866346    19.153955    7937.5743     8064.502    10805.629     8644.215    372.41136    1658.3329    516.61239   -3218.2427 
10871000    264.52128   -4813.5013   -4284.4261   -4813.5013            0    9128.1401    17.770315    23.069546    19.276104    7902.2985    9063.4783    8090.3091    10230.633    2246.5029    895.73182    -1276.532   -3232.4361 
10872000    276.26421   -4782.4512   -4229.8887   -4782.4512            0    10360.975    17.860378    23.046378     19.09579    7860.1521     8450.363    10539.191     12093.37   -493.05227   -336.01976    674.70458   -3042.1868 
10873000    267.54707    -4815.485   -4280.3578    -4815.485            0    7783.0141    17.843634    23.023719    19.347142    7948.3247    8129.7254    6790.7128    8428.6041   -514.66609   -412.24868    27.063685   -3378.1651 
10874000    272.40305   -4800.6344   -4255.7946   -4800.6344            0    10786.842    17.902889    23.129322    19.006044    7870.0547    9105.7841    10514.392     12740.35   -494.55184   -464.18678    1990.9504   -3017.7167 
10875000    266.69476   -4777.5785    -4244.156   -4777.5785            0    9395.3593    17.932545    22.878735     19.30704    7921.1756    10416.574    7792.0544     9977.449    560.81916   -1096.5947   -518.16157   -3158.7832 
10876000    265.49745   -4808.2102   -4277.1825   -4808.2102            0    10038.986    17.958186     22.90153    19.286179    7931.8256    10341.925    9506.6374    10268.395   -1249.4088   -758.84605    1349.7312   -3115.8973 
10877000    257.40238   -4806.7895    -4291.953   -4806.7895            0    10846.949    17.878628    22.957149    19.252394    7901.9973    9364.5858    11689.155    11487.105    530.66792    1175.4324    905.11559   -3041.9232 
10878000    269.87088   -4823.0115   -4283.2364   -4823.0115            0    10343.964    17.821193    22.852178     19.21867    7826.8626    10498.149    11028.467    9505.2758    -236.2029   -74.007731    310.85641   -3102.5064 
10879000    279.30265   -4780.3728    -4221.733   -4780.3728            0    9366.4257    17.922425    23.017853    19.160915    7904.5627    7821.8614    9288.9573    10988.458   -801.38163   -876.00875    658.65432   -3141.9721 
10880000    255.35593   -4817.9231   -4307.1797   -4817.9231            0    10743.248     17.90089     22.79098    19.304073    7875.6529    10102.649    11146.149    10980.945    2410.6446     1790.335   -2173.2602   -3073.2283 
10881000    262.29586   -4827.7608   -4303.1367   -4827.7608            0    9419.1349    17.897784    22.880011    19.232987     7875.937     10315.78     8694.595    9247.0292    1374.2595    638.23404   -331.17405   -3221.2317 
10882000    278.55165   -4799.8549   -4242.7172   -4799.8549            0    8202.5102    17.801424     22.86125    19.540857    7952.4021    8884.3499    8707.6131    7015.5675    798.08663   -1605.0423   -845.34929   -3291.4096 
10883000    264.32596   -4776.8994   -4248.2148   -4776.8994            0     9510.108    18.037907    22.857299    19.257808    7939.9526    8846.6573    11039.938    8643.7291   -997.80899    240.29506    194.49837   -3146.9817 
10884000    259.78555   -4824.2991   -4304.6959   -4824.2991            0    10136.576    17.853343    22.660864    19.476398    7879.6087    11650.692    9691.4253    9067.6106   -363.18426   -434.99524    609.91659    -3139.841 
10885000    267.04666   -4815.2424   -4281.1161   -4815.2424            0    10860.311    18.146385    22.679052    19.121323    7869.2433    9891.6456    10701.296    11987.993    1403.5272    33.942909    445.78186   -3034.7342 
10886000    272.16783   -4798.1876   -4253.8183   -4798.1876            0    9802.5998    17.926291    22.622963    19.496288    7906.6379    10988.702    9759.1863    8659.9112   -78.138028    1118.2311   -2097.8903   -3123.4785 
10887000    250.68619   -4788.7045   -4287.3011   -4788.7045            0    8609.9816    18.283464    22.646311    19.200074    7949.8482    6361.2122    9251.7005    10217.032    665.22039    1184.2049   -358.27887   -3289.0566 
10888000    264.80574   -4797.8633   -4268.2191   -4797.8633            0    9819.1597    17.898601    22.569884    19.500021    7877.4109    10731.721    10148.973    8576.7853    671.61285   -961.23954    757.71198   -3140.1552 
10889000    261.55417   -4830.9301   -4307.7894   -4830.9301            0    9169.5184    18.068931    22.763017    19.153785    7878.0169    9755.2852    9269.7989    8483.4711    474.70998   -1003.4062   -1472.7085   -3254.2778 
10890000    269.76759   -4806.0844   -4266.5159   -4806.0844            0    8546.0186    18.005689    22.685361    19.476243    7955.3748     8002.288    9499.3773    8136.3904    594.38398    420.29025    1167.8634   -3274.9984 
10891000    263.26677   -4815.3928   -4288.8267   -4815.3928            0    8511.2607    18.147311    22.903139    19.156837    7962.1638    8405.4699    7066.6178    10061.694   -1141.6629   -443.22019   -1459.5361   -3300.4992 
10892000    265.05849   -4806.4873   -4276.3375   -4806.4873            0    8699.5202    17.850577    22.828412    19.407532    7908.5758    9327.8149    9399.1696    7371.5761    106.71851   -84.536338    110.41383   -3272.9482 
10893000     262.4499   -4809.8121   -4284.8799   -4809.8121            0    8727.1796    18.088777    22.857243    19.177409    7929.0832    7639.9446    8959.7925    9581.8018   -1242.6643    58.208651   -199.35722   -3275.6903 
10894000    268.24087   -4792.1756   -4255.6607   -4792.1756            0    10200.578    17.769624    22.783754    19.418913    7861.9166    12661.342    9919.8697    8020.5211    621.84764    489.06641    1576.9075    -3086.083 
10895000    263.93686   -4816.0812   -4288.1749   -4816.0812            0     8776.035    18.004592    22.968216    19.213515    7945.4292    8959.4563    8725.7668    8642.8819   -1323.6709    259.87296   -935.11789   -3271.2436 
10896000    269.61107   -4834.5045    -4295.249   -4834.5045            0    9020.8668    17.893295    22.792779    19.401251    7912.5656    9081.4219    8987.4643    8993.7141    1600.8039   -570.69862    1774.3955   -3254.2712 
10897000    256.08125   -4803.1719   -4290.9778   -4803.1719            0    10771.782    17.726525    23.278692      19.0031    7841.6356    11061.651    10365.051    10888.644    192.59283   -757.79844     1259.101   -3059.0929 
10898000    262.29045   -4811.2251   -4286.6118   -4811.2251            0    9702.1928    17.841401    22.967698    19.354492    7931.0048     12659.54     8924.693    7522.3453   -374.49899    780.30554    918.16047   -3164.4021 
10899000    262.61433   -4777.0827   -4251.8216   -4777.0827            0    9222.1943    17.992316    22.935077     19.19755     7921.968     7856.983    10173.707    9635.8934    649.37366   -29.835899   -204.82367   -3186.3466 
10900000    265.02704   -4827.5578    -4297.471   -4827.5578            0    8373.9947    17.848014    23.100749    19.176237    7906.4102    7592.2829    8133.0963    9396.6049    328.17631   -287.90399   -471.42985   -3331.8917 
10901000    274.60831   -4769.4288   -4220.1783   -4769.4288            0    10122.935    17.778411    23.017242    19.278058    7888.7742    10134.191    9398.1041    10836.512   -1713.7886    374.97421   -172.73436   -3055.5378 
10902000    275.71028   -4821.9416   -4270.4869   -4821.9416            0    10424.574    17.851821    22.944428    19.237603    7879.7189    9745.6318    11346.982    10181.108   -605.41551   -163.14674     456.0499   -3072.5197 
10903000    274.82332   -4804.2379   -4254.5574   -4804.2379            0    8470.1712    17.752318    23.147697    19.263398    7915.8169    9567.0596    8792.2937    7051.1603    196.73653    1620.7268   -301.99695   -3276.7263 
10904000    270.96722   -4810.7024   -4268.7345   -4810.7024            0    10213.434    17.781927    23.337627    18.919687    7851.4425    10617.589    7827.4137      12195.3   -143.29864   -1544.1897   -1183.6382   -3099.2428 
10905000    260.74625   -4804.6669   -4283.1422   -4804.6669            0     11400.45     17.61841    23.224907    19.150229    7836.0044    12864.503    11570.657    9766.1917    1033.0836   -215.39085    220.16037   -2980.2977 
10906000     247.7656   -4799.8035   -4304.2417   -4799.8035            0    10415.365     17.77551    23.235244     19.06512    7874.2439    9889.8678    9749.8268    11606.401    58.306534    285.09907   -442.62311   -3108.1644 
10907000    263.36623   -4808.7074   -4281.9424   -4808.7074            0    8695.9938    17.748957    23.256026    19.216539     7932.015    9449.0355    8667.1249    7971.8211   -982.56201    201.14318   -1141.5639   -3275.9872 
10908000    257.32636   -4819.4156   -4304.7311   -4819.4156            0    9907.9785     17.95923    23.047374    19.031745    7877.4882    9521.0897    10124.238    10078.608   -645.53718    316.71302    733.82177   -3166.4522 
10909000    261.88406   -4813.2091   -4289.4086   -4813.2091            0    9944.7092    17.607359    23.053017    19.402102    7875.3665    10641.992    9929.8038    9262.3312    397.83738    44.526693    2139.0393   -3147.2176 
10910000    268.36987   -4790.2827   -4253.5098   -4790.2827            0    10065.603    17.823644    23.138789    19.125607    7887.7357    10318.884    9967.7672    9910.1559    -752.6614   -143.31181    408.13024   -3095.6179 
10911000    252.97461   -4810.3663   -4304.3858   -4810.3663            0    8507.6481     17.95855      22.8856     19.37247    7961.9341    7168.8972    9671.2822    8682.7649   -529.13362    970.04442    802.94645   -3316.5063 
10912000    262.42956   -4806.0421   -4281.1506   -4806.0421            0    8127.4798    17.989524    22.841861    19.383543    7964.9731    8456.2467    8724.6545    7201.5381    -413.9841   -955.65568    857.06407   -3337.0547 
10913000    266.34915    -4801.155   -4268.4237    -4801.155            0    12081.273    18.036718    22.673214    19.189084    7847.3826    9440.3847    12970.502    13832.932    734.32717    30.568689    3187.7081   -2885.7701 
10914000    278.44023   -4837.1653   -4280.2505   -4837.1653            0    10766.434    17.828739    22.754993    19.365298    7856.3624    9202.1033    12817.775    10279.423    -406.2516    273.57406    1038.8511   -3046.6649 
10915000    271.49636   -4820.5873    -4277.561   -4820.5873            0    9961.9836    18.012606    22.807877    19.189278    7883.5176    9842.0404    9985.5455    10058.365     789.9441    -746.3344   -500.31783   -3132.2017 
10916000    277.01556   -4782.7467   -4228.6814   -4782.7467            0    8205.3616    17.897303    22.797818    19.447602    7934.9999    8003.2171    8323.2662    8289.6016    856.52743     538.1689   -816.39317   -3279.1254 
10917000    262.47377   -4813.0885   -4288.1085   -4813.0885            0     6782.138    18.236871    22.694265    19.269282    7975.0234    5168.8507    6467.3918    8710.1714    673.43296   -1220.2927    323.95927   -3499.2947 
10918000    274.91586   -4793.5332   -4243.6675   -4793.5332            0     9750.027    18.071757    22.384156    19.527104    7899.1243    11416.259    9519.3421    8314.4803   -3494.7681   -292.06492   -708.31897   -3120.4583 
10919000    284.74191   -4794.9431   -4225.4241   -4794.9431            0     8833.354    18.072607    22.718023    19.254211     7905.276    7835.5698    8910.6139    9753.8781    525.66107   -769.69528    1885.5621   -3207.0237 
10920000    270.73325   -4796.2049   -4254.7049   -4796.2049            0    9615.5688    17.794011    22.693347    19.540812    7890.6905    10852.551     9053.853    8940.3024   -910.79363   -211.36634   -427.12224   -3148.1681 
10921000    272.22667   -4802.8591   -4258.3721   -4802.8591            0    10506.648    18.129464    22.765984    19.193252    7921.7289     11041.74    9085.0966    11393.108   -68.788151    573.66343     508.3582    -3044.536 
10922000    268.08219   -4838.6425    -4302.445   -4838.6425            0    9304.6747    17.952353    22.811893    19.349512    7924.1508    12036.838    7600.8853    8276.3007   -421.99058    295.01269   -1692.6283   -3227.1446 
10923000    260.51885   -4827.7545   -4306.6846   -4827.7545            0    9905.6911    17.938076    23.113983    19.055707    7900.8846    7791.3438    10888.202    11037.528   -1489.7744    452.24712   -809.92575   -3165.2885 
10924000    261.67639   -4800.4801    -4277.095   -4800.4801            0    12785.867    17.817269    23.011188    19.019878    7798.0839    13947.906    11324.709    13084.987   -186.48214   -274.50224    1168.2501    -2822.996 
10925000    257.19919   -4794.2875   -4279.8574   -4794.2875            0    9326.0996    17.791561    23.031795    19.304476    7910.4256    9109.3351      9118.28    9750.6837   -696.80457   -147.69433    287.06225   -3203.9478 
10926000    271.70744   -4819.0616   -4275.6132   -4819.0616            0    10385.857    17.778648    22.887352    19.311896    7858.1296    9063.0652    11944.481    10150.026   -204.19909   -1025.9014    502.93743   -3085.3652 
10927000    284.59539   -4814.6183   -4245.3923   -4814.6183            0     11200.65    18.024756    22.945904    19.038481    7874.2075    10268.986    11268.603    12064.361   -1286.4797    730.45277   -2073.1339   -2959.1406 
10928000    267.60305   -4796.3658   -4261.1266   -4796.3658            0    8958.2146    17.823353    22.860251    19.486403    7939.6634    10020.581    9116.0133    7738.0498    -1201.774   -391.83507   -630.77418   -3223.8384 
10929000    272.39636   -4804.2222   -4259.3958   -4804.2222            0    8629.4227     18.11474    22.739316    19.268055    7936.8353    5260.9439    10139.364     10487.96   -1284.0342    13.400114    427.98078   -3260.5349 
10930000    253.91797    -4771.069   -4263.2017    -4771.069            0    9138.4249    17.942826    22.500614    19.612992    7918.2475    9045.3461    9318.9167    9051.0119   -963.30897   -469.38613    599.56431   -3207.9008 
10931000    270.82096   -4823.7924   -4282.1171   -4823.7924            0    10989.334    17.888151    22.890804     19.17136    7850.1769    12520.803    9613.5891    10833.611   -102.52349   -2013.5295   -131.88637   -3023.9836 
10932000    278.30281    -4826.152    -4269.512    -4826.152            0    8570.9716    17.874148    22.710693     19.56858    7943.5574    10217.574    8019.0331    7476.3081   -1822.8189   -346.26093   -407.61332   -3276.5766 
10933000    261.23227   -4827.5173   -4305.0205   -4827.5173            0    8141.5492    17.963295    22.902815    19.302731    7941.3372    6685.5759    8553.8509    9185.2209    36.901136    6.1824883    2473.0401   -3362.0967 
10934000    256.98796   -4823.0691   -4309.0614   -4823.0691            0    8070.3101    18.035925     22.81677    19.342328    7959.7846    6849.7321    8883.7648    8477.4334    505.34836   -70.640186      411.083   -3372.2171 
10935000    271.61132    -4782.457   -4239.2008    -4782.457            0    11352.157    18.061298    22.453936    19.418645    7875.1777    9656.1054    11185.383    13214.982    489.96872    1032.5148    2360.4827   -2935.3898 
10936000    269.34231   -4793.2331   -4254.5152   -4793.2331            0    9351.4023    17.983543    22.528631    19.533963    7914.0798    8702.6334    10284.988    9066.5854    837.08843    525.62545   -29.144341   -3175.1882 
10937000    268.08667   -4823.5703   -4287.3638   -4823.5703            0    9057.7877    17.982172    22.690725    19.360196    7899.5121    7463.4259    10525.105    9184.8325   -1677.6373    427.36165    -166.2498   -3243.8498 
10938000    262.84425   -4777.6741   -4251.9531   -4777.6741            0    10718.755    18.069909    22.681242    19.307361     7913.083    9808.0334    10689.797    11658.434   -738.21947   -313.44678   -923.12956   -3014.9638 
10939000    263.78829   -4829.5456   -4301.9364   -4829.5456            0    10998.725    17.970335    22.731124    19.217581    7850.1112    9089.2436    11236.571     12670.36     686.4688   -132.36075   -293.04717   -3042.7384 
10940000    275.20146   -4777.9436   -4227.5067   -4777.9436            0    8337.7835    17.835009    22.904095    19.445189    7943.2575    10162.429    8971.4023    5879.5194   -126.82027    1320.5391   -69.479076   -3261.6223 
10941000    261.83048   -4780.5581   -4256.8648   -4780.5581            0    9364.1373    18.030344    22.944651    19.171301    7931.1663    8808.9396    9099.8598    10183.612    3320.4655    798.36102    1609.5807   -3173.7344 
10942000     273.9406   -4797.4158   -4249.5007   -4797.4158            0    9875.5947    17.820071    23.032917    19.236509    7895.5913     8960.784    9111.9925    11554.008    582.42533    1040.3807   -414.52563   -3112.3349 
10943000    260.71706    -4793.663   -4272.1967    -4793.663            0    10631.282    17.847429    22.888336    19.314708    7890.0188    10691.495    10846.442    10355.909   -262.27565   -131.02584     -921.515   -3048.8781 
10944000    259.31667   -4779.0437   -4260.3783   -4779.0437            0    11004.113    17.911195    22.814736    19.284186    7880.2742     10053.57    11433.128    11525.643   -16.916056   -697.15059   -328.38905   -2995.7227 
10945000    265.05685    -4801.982   -4271.8356    -4801.982            0    8913.3785    17.900476    22.819058    19.395797      7922.64    10500.941    8259.9326     7979.262   -409.57059   -100.95267   -171.87075   -3241.9519 
10946000    265.85447   -4826.2864   -4294.5446   -4826.2864            0      8054.88    18.021769    22.782174    19.364143    7950.4348    8671.3688    6706.5809    8786.6904   -259.30193   -98.551913    75.820825   -3360.5899 
10947000    263.68209   -4774.2366   -4246.8398   -4774.2366            0    12420.493    17.908716    22.559688    19.358305    7821.0463    11813.638     12036.57    13411.273    1487.6271   -288.69582   -496.91802   -2830.1342 
10948000    261.20164   -4801.6328   -4279.1972   -4801.6328            0    8260.1673    17.985599    22.855238    19.329938    7945.8639    7708.4764    8674.2315    8397.7939   -2216.1122   -629.56299   -971.64828   -3321.9902 
10949000    276.62812   -4812.4296   -4259.1392   -4812.4296            0    10140.882    17.926606    22.808092    19.352384    7912.6416    11431.766    9448.2617     9542.617   -347.08787   -259.05929   -546.73537   -3088.9042 
10950000    270.95278   -4822.9032   -4280.9642   -4822.9032            0    9791.6511    17.876926    22.976775    19.173822    7875.7259    9507.3763     9942.924    9924.6529    313.45827    538.91036    38.402436   -3156.3012 
10951000    263.00932   -4795.6147   -4269.5635   -4795.6147            0    9590.5833    17.862476    23.046866     19.20895    7907.8268    9799.1409    9856.8813    9115.7276   -1850.4884   -44.291757   -2158.8578   -3163.5051 
10952000    266.25183   -4805.9171   -4273.3806   -4805.9171            0    8429.2078    17.880852    23.087054    19.134275    7898.9387    9783.5897    7028.4762    8475.5574   -491.83037   -27.311908      583.728   -3302.3534 
10953000    267.46793   -4835.6752   -4300.7063   -4835.6752            0    9993.7046    17.644063    23.206451    19.242214    7878.8418    12390.324    8110.4905    9480.2995   -448.83923    84.603743   -927.41615   -3152.3814 
10954000    264.69519   -4844.8227   -4315.3997   -4844.8227            0    9379.7822    18.010353    23.028186    19.120567    7930.1741    8872.3484     8554.793    10712.205    43.726157     120.6047   -14.290114   -3230.5954 
10955000    253.51431   -4803.0145   -4295.9545   -4803.0145            0    10775.629    17.725639    23.026534    19.247314    7855.9843    9863.0659     9712.896    12750.925    587.64848   -186.36914   -383.53423   -3061.3748 
10956000    262.98096   -4820.2369   -4294.2425   -4820.2369            0     9552.848    17.889505     22.78407    19.434166    7921.2832    10461.583    9364.6926     8832.268     2207.831    306.73475    914.44083   -3190.6613 
10957000    260.37749   -4790.0573   -4269.2701   -4790.0573            0     8969.744    18.005502    23.033046    19.161423    7946.6552    7739.4855    9628.4236    9541.3228   -320.34794   -174.52795    116.77332   -3229.7323 
10958000     263.8649   -4788.0076   -4260.2452   -4788.0076            0    9635.1253     17.88842    22.966581    19.244856    7906.4767    8957.0074    8770.0507    11178.318   -716.80595   -694.20492   -1063.8062   -3149.2396 
10959000     266.7272   -4793.0311   -4259.5438   -4793.0311            0    11870.705    17.804675    22.931203    19.131733    7811.1539    11915.406     11494.58    12202.127   -405.44827    1027.4169   -3231.9917   -2907.2608 
10960000    263.80658   -4777.5892   -4249.9434   -4777.5892            0    9384.6757     17.91204    22.970533    19.189412    7895.4665    9109.8416    9468.9261    9575.2596    -340.8053    333.69376    -1087.497   -3169.3235 
10961000    269.50884   -4802.8744   -4263.8234   -4802.8744            0    10692.854     17.76189    23.180597    19.178703    7896.4709    10302.018    10724.647    11051.896   -364.14638    1313.8711   -336.50593   -3032.4137 
10962000    265.49109   -4807.3368   -4276.3218   -4807.3368            0    7620.1672    17.791776    23.338104    19.165887    7958.1805    7117.0275    7297.2848    8446.1894    386.96235   -223.77619   -476.78104   -3391.9107 
10963000    251.05825   -4775.8001   -4273.6526   -4775.8001            0    11133.094    17.620802    23.310388    19.118669    7852.9499    12823.884    9680.3829    10895.016    264.83087   -1158.7213    68.311236   -2998.6103 
10964000    264.78391   -4811.5311   -4281.9306   -4811.5311            0    8969.2289    17.744116    23.118466    19.265327    7902.9593    10113.198    7828.2726    8966.2158    -644.5355    818.91015   -2083.5541   -3248.1682 
10965000    242.07931   -4809.6604   -4325.4719   -4809.6604            0    9478.7761    17.926308     23.14682    19.106285    7927.9051    10098.885    8465.6878    9871.7554    -864.5062    153.45977   -115.11243   -3229.5324 
10966000    262.74479   -4812.6084   -4287.0864   -4812.6084            0    9661.7907    17.854685    23.283739     19.04525     7917.564    9967.2234    8480.4368    10537.712    881.80584    1353.7026     801.8389   -3171.4437 
10967000    260.15951   -4833.7897   -4313.4385   -4833.7897            0    10133.971    17.705211     23.32346    19.053804    7868.2071     10359.09    8715.3806    11327.442   -393.07717    -521.6476      1105.49   -3150.5681 
10968000    271.75531    -4808.777   -4265.2328    -4808.777            0    9238.7785     17.95853    23.069114    19.132849    7926.4977    10671.508    8296.8994    8747.9283     233.4655    585.22172   -527.83005   -3197.2315 
10969000    264.87483   -4802.1291   -4272.3467   -4802.1291            0     8845.265    17.775846    22.960302    19.354319    7899.2484    11319.905    6500.3069     8715.583   -975.23918   -1798.8874    1190.1941   -3253.3506 
10970000    253.04907   -4813.1302   -4307.0008   -4813.1302            0    10655.378    18.013201    23.034759    19.006329    7886.2912    12575.688    9384.0947     10006.35   -64.864801    441.63219     763.4824   -3081.4888 
10971000    264.62124   -4815.5004   -4286.2253   -4815.5004            0    9417.4946    17.867644    22.868972    19.340327    7902.7412    9456.1889    10800.871    7995.4236   -254.35438   -630.35382      333.971   -3200.8272 
10972000    254.50448   -4829.7561   -4320.7157   -4829.7561            0    8965.2737    17.929394    23.080852    19.133838    7918.0735    8087.8466     8483.295    10324.679   -1105.3848    234.72707   -1496.9183   -3285.4329 
10973000    261.93829   -4830.0669    -4306.158   -4830.0669            0    9625.7731     17.79792    23.059397    19.212519    7884.9964    10795.392    9360.4553    8721.4725    1342.6312    564.35854   -342.03694   -3199.2462 
10974000    257.48651   -4787.7995   -4272.7947   -4787.7995            0      9783.05    17.885886    23.093702    19.120186     7897.618    10008.363    8839.2843    10501.503    1146.9283   -168.72397    115.32997   -3145.9961 
10975000    269.56977   -4835.1769   -4296.0041   -4835.1769            0    8991.7098    17.759537    23.051913    19.251047     7881.211     9559.385    8826.3213     8589.423    451.79934    -553.6982    1670.8525   -3262.5025 
10976000    260.23141   -4797.8119    -4277.317   -4797.8119            0    10231.443    17.717556    23.404641    18.998917    7878.3386    8714.6738    9756.5142     12223.14   -586.38642    636.82587   -425.04997   -3101.7499 
10977000    287.24351   -4786.8682   -4212.3457   -4786.8682            0    10025.364     17.93543    23.108675    19.135088    7930.8057    8858.1479    9776.8663    11441.078    557.17836   -84.672091   -1150.0988   -3052.7854 
10978000    277.04678   -4803.5171   -4249.3893   -4803.5171            0     8976.334    17.876729    22.850851    19.305483    7886.2605    7330.2735    10382.365    9216.3633   -543.54495    553.31634    369.29389    -3216.994 
10979000    273.01051   -4805.7438    -4259.689   -4805.7438            0    8916.0634    17.883372    22.927453    19.384834    7948.1727    8722.9665    10168.633    7856.5909    516.15477    340.79031   -1037.0407   -3226.1751 
10980000    280.93966   -4801.2181    -4239.304   -4801.2181            0    7560.9964    18.186421    22.852509    19.266367    8007.2054    7332.0741    6758.6071    8592.3081    554.68746    32.173854   -1336.2032   -3356.3545 
10981000    283.47782   -4812.5937   -4245.6031   -4812.5937            0    10064.067    17.833699    22.840797    19.380648    7894.4337    10610.208    10570.061     9011.932   -445.58376    1660.9212   -448.58221   -3086.9047 
10982000    262.49246   -4789.8974   -4264.8801   -4789.8974            0    10902.361    17.944033    22.876944    19.194061    7879.2511    10197.389    11642.119    10867.574   -224.72622   -769.01193    1056.6951   -3012.0811 
10983000    262.31976   -4805.7592   -4281.0872   -4805.7592            0    11478.345    17.868019    22.607174    19.437096    7851.5257    11810.301    13003.642    9621.0909    230.21968    1116.4675    358.34099   -2966.7427 
10984000    278.03855   -4798.3853   -4242.2738   -4798.3853            0    11655.234    17.966715    22.827695    19.191391    7871.1322    11912.607    12243.516    10809.579    255.36988    1496.4358    1507.3075   -2904.3416 
10985000    258.48417    -4812.612   -4295.6117    -4812.612            0    10455.797    17.887844    22.785418    19.294506    7864.0936     9667.854    11026.959    10672.579    635.29484    1805.1322    1149.2968    -3096.439 
10986000    259.61714   -4814.1681   -4294.9017   -4814.1681            0    8768.5796    17.954559    22.971208    19.247568    7938.4265    7320.8118    9078.3352    9906.5919   -385.51035    187.80613   -1292.7886   -3279.7299 
10987000    257.05705   -4798.5316   -4284.3858   -4798.5316            0    9873.8944    17.812229    22.846877    19.327301    7865.3186    12069.613    8960.3396    8591.7307   -984.73212   -1679.2339   -556.93228    -3151.775 
10988000     266.5015   -4784.3641   -4251.3281   -4784.3641            0    7963.5459    18.025601    22.921255    19.135812    7906.3319    8767.5702    7692.9493     7430.118    357.60606     464.7721    1420.1928   -3333.0856 
10989000    262.90813   -4797.0466   -4271.1979   -4797.0466            0    8724.1907    17.988299    22.739035    19.371181    7923.5213    7567.6118    9872.0644    8732.8959    44.593394    441.94312   -683.28518   -3263.0615 
10990000    266.23038   -4788.4926   -4255.9989   -4788.4926            0    10091.645    17.804764    23.060906     19.25229    7904.8744    11232.342    9000.5533    10042.039   -733.55243   -230.62504    375.03937   -3092.5889 
10991000     253.9406   -4807.7032   -4299.7906   -4807.7032            0      9247.34    17.879897    23.016824    19.179288    7893.0141    9339.5578     9398.812      9003.65    277.82794   -1050.9568    1501.7202   -3235.3153 
10992000    263.68153   -4811.5448   -4284.1491   -4811.5448            0    8689.4047    17.823547    23.095037    19.261188    7928.5885    9010.4481    8811.2645    8246.5015    -15.59359    78.526767   -1078.9553   -3279.3904 
10993000    276.64774   -4794.5206   -4241.1909   -4794.5206            0    8039.4975    18.049164    22.981015     19.10967    7926.4641     8388.848    7028.1452    8701.4993    829.32401   -416.23724    1062.2617   -3311.8303 
10994000    271.75167   -4788.5931   -4245.0562   -4788.5931            0    10406.764     17.84341    22.796598    19.363297      7876.39    11841.453    10597.634    8781.2031   -617.29259    79.321163    1101.0731    -3049.641 
10995000    284.44542   -4805.2028   -4236.2768   -4805.2028            0    8071.4153    18.047684    23.100889    19.145344    7982.0301     5780.641     8556.221    9877.3838    891.07609   -297.91136   -1065.9409   -3296.6856 
10996000    264.55342   -4806.8503   -4277.7108   -4806.8503            0    8117.1947    17.830851    22.928513    19.384474    7925.0495     8387.262    8283.1175    7681.2046   -1200.4725    85.716679   -2510.1424   -3339.5358 
10997000    260.52101   -4788.4879   -4267.4137   -4788.4879            0    9244.8314    18.037168    22.805753    19.219922    7906.1381    8511.9574    8983.2705    10239.266    1130.7858   -801.12973    1647.1399   -3201.4577 
10998000    265.84265   -4770.5491    -4238.831   -4770.5491            0    10001.418    18.042606    22.723503    19.326344    7923.6313    9798.0927    10222.443    9983.7173    1159.5759    -285.2696   -161.75756   -3083.0868 
10999000    267.80108    -4819.254   -4283.6188    -4819.254            0     10277.02      17.9695     22.66879    19.310904    7866.2354    12393.013    9015.7723    9422.2763   -294.63687   -1101.3616    438.08378    -3104.629 
11000000    268.72309   -4780.2036   -4242.7243   -4780.2036            0    8954.2768    18.037184    22.747909    19.358268    7942.8565    8570.1911    9866.5224    8426.1169    350.82359   -652.73188    524.74002    -3205.475 
Loop time of 533.461 on 64 procs for 250000 steps with 1008 atoms

Performance: 80.981 ns/day, 0.296 hours/ns, 468.638 timesteps/s
99.2% CPU use with 64 MPI tasks x 1 OpenMP threads

MPI task timing breakdown:
Section |  min time  |  avg time  |  max time  |%varavg| %total
---------------------------------------------------------------
Pair    | 29.605     | 32.882     | 36.577     |  32.5 |  6.16
Bond    | 0.28945    | 0.2972     | 0.31036    |   0.9 |  0.06
Kspace  | 245.97     | 255.77     | 268.69     |  40.5 | 47.95
Neigh   | 4.5728     | 5.3233     | 6.481      |  26.3 |  1.00
Comm    | 101.01     | 114.77     | 125.65     |  67.1 | 21.51
Output  | 0.90518    | 0.90611    | 0.90731    |   0.0 |  0.17
Modify  | 112.94     | 117.02     | 120.3      |  18.9 | 21.94
Other   |            | 6.495      |            |       |  1.22

Nlocal:        15.7500 ave          21 max          12 min
Histogram: 1 6 9 14 14 11 3 4 1 1
Nghost:        2497.94 ave        2540 max        2460 min
Histogram: 1 5 6 7 17 10 12 1 2 3
Neighs:        5261.06 ave        6983 max        4013 min
Histogram: 1 7 8 14 14 11 3 3 1 2

Total # of neighbors = 336708
Ave neighs/atom = 334.03571
Ave special neighs/atom = 2.0000000
Neighbor list builds = 10029
Dangerous builds = 0

unfix		3
unfix		2
unfix		1

write_data	data.final.${pid}
write_data	data.final.0
System init for write_data ...
PPPM initialization ...
  extracting TIP4P info from pair style
  using 12-bit tables for long-range coulomb (../kspace.cpp:340)
  G vector (1/distance) = 0.37958151
  grid = 24 27 32
  stencil order = 5
  estimated absolute RMS force accuracy = 0.0024054827
  estimated relative force accuracy = 7.2440396e-06
  using double precision FFTW3
  3d grid and FFT values/proc = 3825 384
Last active /omp style is kspace_style pppm/tip4p/omp
WARNING: Not all mixed pair coeffs generated from mixing. Use write_data with 'pair ij' option to store all pair coeffs. (../write_data.cpp:312)

write_restart   restart.lmp.${pid}
write_restart   restart.lmp.0
System init for write_restart ...
PPPM initialization ...
  extracting TIP4P info from pair style
  using 12-bit tables for long-range coulomb (../kspace.cpp:340)
  G vector (1/distance) = 0.37958151
  grid = 24 27 32
  stencil order = 5
  estimated absolute RMS force accuracy = 0.0024054827
  estimated relative force accuracy = 7.2440396e-06
  using double precision FFTW3
  3d grid and FFT values/proc = 3825 384
Last active /omp style is kspace_style pppm/tip4p/omp
Total wall time: 0:08:55
