LAMMPS (30 Jul 2021)
  using 1 OpenMP thread(s) per MPI task
package omp 0
using multi-threaded neighbor list subroutines
echo both

include		in.partitions
variable        pid world 0
include		in.temp
variable        temperature equal 254.04
variable	tempDamp equal 100.0
include		in.pressure
variable        pressure equal 10375.0
variable        pressureDamp equal 1000.0 # This is 1 ps
include		in.seed
variable        seed world 745823

units		real
atom_style	full
read_restart	restart.lmp.${pid}
read_restart	restart.lmp.0
Reading restart file ...
  restart file = 30 Jul 2021, LAMMPS = 30 Jul 2021
  restoring atom style full from restart
  orthogonal box = (0.67728242 1.8892805 0.82628298) to (17.530290 21.739897 21.386913)
  4 by 4 by 4 MPI processor grid
  restoring pair style lj/cut/tip4p/long/omp from restart
  restoring bond style harmonic/omp from restart
  restoring angle style harmonic/omp from restart
  864 atoms
  576 bonds
  288 angles
Finding 1-2 1-3 1-4 neighbors ...
  special bond factors lj:    0        0        0       
  special bond factors coul:  0        0        0       
     2 = max # of 1-2 neighbors
     1 = max # of 1-3 neighbors
     1 = max # of 1-4 neighbors
     2 = max # of special neighbors
  special bonds CPU = 0.371 seconds
  read_restart CPU = 0.679 seconds
include 	in.setup
variable	out_freq equal 1000
variable	out_freq2 equal 10000
variable	out_freq3 equal 1000

timestep	2.0

neigh_modify    delay 7 every 1

include		in.tip4p
# This is TIP4P/Ice

# create groups ###
group ox type 2
288 atoms in group ox
group hy type 1
576 atoms in group hy

# set charges - beside manually ###
set group ox charge -1.1794
Setting atom values ...
  288 settings made for charge
set group hy charge 0.5897
Setting atom values ...
  576 settings made for charge

# ### TIP3P Potential Parameters ###
pair_style lj/cut/tip4p/long/omp 2 1 1 1 0.1577 8.5
pair_coeff 1 1*2 0.000 0.000
pair_coeff 2 2 0.21084 3.1668
bond_style  harmonic
bond_coeff  1 450 0.9572
angle_style harmonic
angle_coeff 1 55 104.52
kspace_style pppm/tip4p/omp 1.0e-5
pair_modify tail yes

thermo          ${out_freq}
thermo          1000
thermo_style    custom step temp pe etotal epair emol press lx ly lz vol pxx pyy pzz pxy pxz pyz enthalpy

restart 	${out_freq3} restart.lmp.${pid} restart2.lmp.${pid}
restart 	1000 restart.lmp.${pid} restart2.lmp.${pid}
restart 	1000 restart.lmp.0 restart2.lmp.${pid}
restart 	1000 restart.lmp.0 restart2.lmp.0


include         in.dump
dump            myDump all atom ${out_freq2} dump.water.${pid}
dump            myDump all atom 10000 dump.water.${pid}
dump            myDump all atom 10000 dump.water.0
dump            myDump2 all dcd ${out_freq2} dump.dcd
dump            myDump2 all dcd 10000 dump.dcd
dump_modify     myDump append yes
dump_modify     myDump2 append yes


variable natoms 	equal  "count(all)"                        # NUMBER ATOMS
variable H      	equal  "enthalpy/v_natoms"                 # ENTHALPY-per-atom
variable Vol      	equal  "vol/v_natoms"                 # volume-per-atom
fix AVG all 		ave/time ${out_freq} 1 ${out_freq} v_Vol v_H file vol_enthalpy.dat
fix AVG all 		ave/time 1000 1 ${out_freq} v_Vol v_H file vol_enthalpy.dat
fix AVG all 		ave/time 1000 1 1000 v_Vol v_H file vol_enthalpy.dat


timer           timeout 23:50:00 every 1000
New timer settings: style=normal  mode=nosync  timeout=23:50:00

fix 		1 all shake 1e-6 200 0 b 1 a 1
       0 = # of size 2 clusters
       0 = # of size 3 clusters
       0 = # of size 4 clusters
     288 = # of frozen angles
  find clusters CPU = 0.232 seconds
fix             2 all nph iso ${pressure} ${pressure} ${pressureDamp}
fix             2 all nph iso 10375 ${pressure} ${pressureDamp}
fix             2 all nph iso 10375 10375 ${pressureDamp}
fix             2 all nph iso 10375 10375 1000
fix             3 all temp/csvr ${temperature} ${temperature} ${tempDamp} ${seed}
fix             3 all temp/csvr 254.04 ${temperature} ${tempDamp} ${seed}
fix             3 all temp/csvr 254.04 254.04 ${tempDamp} ${seed}
fix             3 all temp/csvr 254.04 254.04 100 ${seed}
fix             3 all temp/csvr 254.04 254.04 100 745823

run             250000
PPPM initialization ...
  extracting TIP4P info from pair style
  using 12-bit tables for long-range coulomb (../kspace.cpp:340)
  G vector (1/distance) = 0.37485551
  grid = 24 24 24
  stencil order = 5
  estimated absolute RMS force accuracy = 0.003093898
  estimated relative force accuracy = 9.3171819e-06
  using double precision FFTW3
  3d grid and FFT values/proc = 2535 216
Last active /omp style is kspace_style pppm/tip4p/omp
Neighbor list info ...
  update every 1 steps, delay 7 steps, check yes
  max neighbors/atom: 2000, page size: 100000
  master list distance cutoff = 10.8154
  ghost atom cutoff = 10.8154
  binsize = 5.4077, bins = 4 4 4
  1 neighbor lists, perpetual/occasional/extra = 1 0 0
  (1) pair lj/cut/tip4p/long/omp, perpetual
      attributes: half, newton on, omp
      pair build: half/bin/newton/omp
      stencil: half/bin/3d
      bin: standard
Per MPI rank memory allocation (min/avg/max) = 9.236 | 9.241 | 9.244 Mbytes
Step Temp PotEng TotEng E_pair E_mol Press Lx Ly Lz Volume Pxx Pyy Pzz Pxy Pxz Pyz Enthalpy 
25500000    274.92129   -3902.4136    -3431.208   -3902.4136            0    10202.078    16.853008    19.850617     20.56063    6878.4065    9898.6324    9873.2991    10834.302    864.64017    2223.2034   -1167.2054   -2407.7916 
25501000    258.08136   -3909.2597    -3466.917   -3909.2597            0    9537.9866    16.839295    19.834465      20.5439    6861.6297    8924.0815    9915.0787    9774.7997   -1000.2998    1568.6321   -312.42357   -2512.4523 
25502000    258.24411   -3915.4158   -3472.7942   -3915.4158            0    11432.637    16.844434    19.840518     20.55017    6867.9137    10855.293    11081.844    12360.773     1142.726   -535.33987    1939.7774   -2327.6844 
25503000    245.77383    -3875.529    -3454.281    -3875.529            0     10826.57    16.826392    19.819268     20.52816    6845.8698    10119.196     11871.26    10489.254   -854.83924    1425.0828    147.91779   -2373.3564 
25504000    239.23146   -3926.6489   -3516.6144   -3926.6489            0     9102.958    16.870303    19.870989    20.581731    6899.6055    11265.406    6808.0809    9235.3867   -64.150101    1389.8038     205.5146   -2600.6414 
25505000    258.08711   -3897.2474   -3454.8949   -3897.2474            0    9538.2384    16.883596    19.886646    20.597948    6915.9283    9982.1446    8177.5278    10455.043    840.74363   -1034.5197    247.13848   -2492.8518 
25506000    257.84358   -3891.7012   -3449.7661   -3891.7012            0    9705.9009    16.891383    19.895819    20.607448    6925.5019     9341.512    10172.939    9603.2518    205.36046   -403.40923   -121.09194   -2469.4571 
25507000    254.16992   -3889.4407   -3453.8022   -3889.4407            0    10941.701    16.864263    19.863874    20.574361     6892.197    10473.173    12698.304    9653.6259   -843.00364   -7.9740566    246.81996   -2353.9903 
25508000    259.08919   -3893.2411   -3449.1711   -3893.2411            0    11613.305    16.868345    19.868683    20.579342    6897.2034     11856.75    12249.536     10733.63   -181.61816   -1854.1401    312.52906   -2281.0046 
25509000    263.71141   -3886.5893   -3434.5969   -3886.5893            0    11089.531    16.858755    19.857386    20.567641    6885.4456    11062.395    10918.194    11288.004   -261.94951    1186.6915    316.54864   -2321.0177 
25510000    254.16369   -3894.9756   -3459.3478   -3894.9756            0     11642.94    16.893889     19.89877    20.610505    6928.5844    11880.038    12004.491    11044.291   -427.05595   -2512.1644   -1745.5099   -2282.8718 
25511000    262.82761   -3903.4021   -3452.9246   -3903.4021            0    10373.693    16.809716    19.799625    20.507814    6825.5352     11021.87    9223.5254    10875.684     765.8355    1290.5848     -557.141   -2420.2916 
25512000     281.2779   -3887.8733   -3405.7726   -3887.8733            0    9602.5341    16.848014    19.844735    20.554538    6872.2945     10995.39    10679.263    7132.9496    629.44256    541.50979    357.37189   -2443.3551 
25513000    260.29379   -3869.6995   -3423.5648   -3869.6995            0    12735.725    16.817514     19.80881    20.517328     6835.039    13125.988    13647.172    11434.015    1582.2692   -85.461267    971.72008   -2154.0419 
25514000    254.56715   -3924.6206   -3488.3012   -3924.6206            0    11702.275    16.804021    19.792918    20.500867    6818.6008    11305.608    13162.549    10638.668    -86.29556   -1960.2168   -380.82253   -2324.6001 
25515000     248.5467   -3910.1304   -3484.1298   -3910.1304            0    11484.903    16.833272    19.827371    20.536553    6854.2702    9994.5743    12549.329    11910.806     265.7734    12.600682    -618.3103   -2336.0702 
25516000    259.21493   -3900.9531   -3456.6676   -3900.9531            0    11533.742    16.797525    19.785266    20.492942    6810.6963    11181.876    11080.408    12338.942   -1601.1923    -837.1762    376.96558   -2311.0554 
25517000    259.44365   -3894.9554   -3450.2779   -3894.9554            0    10539.639    16.812338    19.802714    20.511014    6828.7302    9902.4064    10853.923    10862.587      -122.97    682.53224    1044.3351    -2400.635 
25518000    247.26934   -3897.9908   -3474.1796   -3897.9908            0    10648.174    16.804714    19.793734    20.501712    6819.4444    11269.788    10298.787    10375.946    1380.6626    -1971.789   -515.23724   -2415.1697 
25519000    262.43618   -3895.6321   -3445.8255   -3895.6321            0    12583.062    16.808213    19.797855    20.505981    6823.7051    13263.488    12876.806    11608.892   -846.78457     1492.102    865.72938   -2193.6002 
25520000    242.55123   -3885.5577   -3469.8332   -3885.5577            0    11115.011    16.836411    19.831069    20.540382    6858.1055    10604.275    9885.9553    12854.804   -91.397631    1991.6291   -351.56769   -2358.1272 
25521000    261.71331   -3918.4214   -3469.8538   -3918.4214            0    11486.655    16.829525    19.822958    20.531982    6849.6943    10541.711    11905.178    12013.075   -870.21143   -577.89277    859.63666   -2322.3856 
25522000    262.25803   -3888.0952   -3438.5939   -3888.0952            0    10123.005    16.805683    19.794875    20.502894    6820.6238    12663.888    8218.3932    9486.7348   -874.13841   -698.58036   -1138.3142   -2431.6403 
25523000    240.56027   -3882.2211    -3469.909   -3882.2211            0    11339.768    16.787598    19.773573     20.48083    6798.6275     10547.83    13036.465    10435.008    1642.2411    1658.3854    915.75579   -2345.5596 
25524000     269.7163   -3866.0745     -3403.79   -3866.0745            0    10160.342    16.883534    19.886573    20.597872    6915.8518    11111.929    10321.919    9047.1786   -230.51725   -2259.3636   -647.06134   -2379.0118 
25525000    258.66074   -3887.0774   -3443.7417   -3887.0774            0    10599.099    16.830289    19.823857    20.532913    6850.6267    10388.355     10747.35    10661.593    404.30747   -1996.4077   -464.79419   -2384.7924 
25526000    267.66585   -3868.9167   -3410.1466   -3868.9167            0    11822.937    16.818955    19.810507    20.519086    6836.7959    11304.543    11505.796    12658.473    985.39542   -317.98505   -55.122141   -2231.3092 
25527000    255.39547   -3870.4105   -3432.6714   -3870.4105            0    10908.197     16.84251    19.838253    20.547823    6865.5616    9168.5234     11115.05    12441.018    1245.7986   -1697.7996   -463.87538   -2340.4644 
25528000     256.7315   -3924.2628   -3484.2338   -3924.2628            0    9328.7064    16.871398    19.872278    20.583066    6900.9483    10177.432    10929.438    6879.2495   -787.97752    -1589.297   -56.006383   -2545.3624 
25529000    252.33572   -3912.9855   -3480.4907   -3912.9855            0     13987.16    16.720926    19.695042    20.399491    6717.9469    12887.207    16284.479    12789.793    1458.8701   -164.43102   -804.83375   -2110.1076 
25530000     269.8486   -3895.1188   -3432.6076   -3895.1188            0    11162.781    16.743476    19.721603    20.427001    6745.1627    9496.4763    12736.561    11255.306    1437.9687    875.85055    115.01379   -2334.5105 
25531000    256.39251   -3875.6867   -3436.2387   -3875.6867            0    10543.523    16.816269    19.807344    20.515809    6833.5212    8238.4823    10632.664    12759.424    288.36453    283.25464   -2281.6724   -2385.4723 
25532000    252.65683   -3886.9908   -3453.9456   -3886.9908            0    10787.329    16.813601    19.804201    20.512554    6830.2687    9573.6195    10408.386    12379.983    846.16084   -655.78119    895.21938   -2379.3931 
25533000    254.51876   -3899.9382   -3463.7017   -3899.9382            0    7702.9368    16.852903    19.850494    20.560502    6878.2785    6451.5456     6616.394    10040.871    206.65336    1.8019626   -268.96705   -2690.9998 
25534000    260.95326   -3944.1371   -3496.8721   -3944.1371            0    10912.605    16.782086    19.767081    20.474106    6791.9334     11223.85    11553.156    9960.8096       -800.8    482.98356   -612.17231   -2415.9416 
25535000    246.52162    -3922.658   -3500.1284    -3922.658            0    9512.1653    16.772623    19.755934    20.462561    6780.4504    6239.8821    12481.746    9814.8681    538.51731    751.55226    -985.2518   -2559.5092 
25536000    249.71118    -3885.969   -3457.9726    -3885.969            0    11203.461    16.788766    19.774949    20.482255    6800.0468    10486.381    12209.288    10914.713    1530.3736   -1156.4385    -487.3798   -2346.9062 
25537000     246.8188   -3859.3337   -3436.2947   -3859.3337            0    11399.574    16.755063    19.735251    20.441138    6759.1764    10877.224    13226.284    10095.216   -15.629821    1581.0933   -665.49688   -2312.5742 
25538000    245.75373   -3886.6012   -3465.3877   -3886.6012            0    10506.464    16.751886     19.73151    20.437262    6755.3329     10661.74    12478.222    8379.4289   -152.45159    744.48054   -428.93526   -2430.2952 
25539000     268.2645   -3931.5426   -3471.7465   -3931.5426            0    9730.1177    16.763393    19.745063      20.4513    6769.2627    10074.595     9498.278    9617.4799   -195.89388   -657.81889    -17.80898   -2511.1625 
25540000    249.76924   -3911.8332   -3483.7373   -3911.8332            0    10543.655    16.847488    19.844116    20.553896    6871.6505     8768.241    11787.862    11074.861    1582.2543   -1334.9184    1001.0063   -2427.0947 
25541000    239.00526   -3893.7844   -3484.1376   -3893.7844            0    7355.0281    16.907533     19.91484     20.62715    6945.3844     8519.064    7159.6215    6386.3989    1916.6274    1219.4966   -261.02186   -2739.1372 
25542000    247.60627   -3900.9172   -3476.5286   -3900.9172            0    11825.724    16.788252    19.774344    20.481629     6799.423    13205.376    12028.157    10243.638   -304.17456   -260.14332   -414.58196   -2303.8589 
25543000    270.46372   -3916.6222   -3453.0566   -3916.6222            0    9990.4132    16.826468    19.819357    20.528252    6845.9621    11272.434    9956.7375    8742.0681   -672.92056   -686.19418    932.49062   -2455.6004 
25544000     257.1817   -3897.3425   -3456.5419   -3897.3425            0    10995.251    16.801123    19.789504    20.497331    6815.0732    12402.426    9678.5213    10904.804     792.8316   -917.09493     975.1418   -2363.7146 
25545000    238.22581    -3927.045   -3518.7341    -3927.045            0    9977.7197     16.83231    19.826237    20.535378    6853.0944    10299.205    10692.096    8941.8578   -517.00274   -40.553216   -645.37974   -2521.5074 
25546000    275.55929   -3929.2585   -3456.9593   -3929.2585            0    11909.341    16.837799    19.832703    20.542075    6859.8013    10953.778    11227.866    13546.378   -731.46651     582.6636    770.87373   -2265.5112 
25547000    264.32302   -3931.3597   -3478.3191   -3931.3597            0    11452.484    16.797416    19.785137    20.492808    6810.5628    11986.292    9993.3548    12377.805   -475.56761    1008.2482    994.35849   -2340.8003 
25548000    255.31133   -3889.9051   -3452.3102   -3889.9051            0    10429.877    16.879037    19.881276    20.592386     6910.327     10831.21    8069.7445    12388.677    752.79214   -642.20042    843.63517   -2401.1869 
25549000    244.75909   -3868.4729   -3448.9642   -3868.4729            0    11702.144    16.865723    19.865594    20.576143    6893.9872    12734.084    11814.716    10557.634    556.99654     495.4927   -702.15598   -2272.4103 
25550000    252.76232   -3884.5424   -3451.3164   -3884.5424            0    11374.741    16.841146    19.836646    20.546159    6863.8937    10461.451    11131.178    12531.593   -868.09048   -360.73548    1478.9949   -2312.6725 
25551000    262.07823    -3870.814   -3421.6209    -3870.814            0    7984.2495    16.901345    19.907552    20.619601    6937.7615    8403.6367    9194.0091    6355.1028   -1180.2363    800.49321   -340.66252   -2613.7734 
25552000    250.22016   -3862.3823   -3433.5136   -3862.3823            0    10955.664    16.911264    19.919235    20.631702    6949.9836    10912.773    10468.722    11485.497   -1028.9304    1171.5475   -199.73498   -2323.0652 
25553000    249.21076   -3894.0311   -3466.8924   -3894.0311            0    11193.867    16.842374    19.838092    20.547657    6865.3946    10823.287    11411.516    11346.797   -93.079147   -479.43275   -317.55794   -2346.1095 
25554000    263.13803   -3872.9344   -3421.9248   -3872.9344            0    10714.051    16.855553    19.853614    20.563735    6881.5231    9987.9496    10034.319    12119.885   -1436.4446    790.65238    1473.6932   -2346.6631 
25555000    254.99478   -3889.1481   -3452.0958   -3889.1481            0    8956.0027    16.848184    19.844935    20.554745    6872.5015    9808.0516    7998.0549    9061.9016   -1738.4188    213.13894    734.31548   -2554.4501 
25556000    269.26342   -3874.4669   -3412.9586   -3874.4669            0    11258.063    16.843656    19.839602    20.549221    6866.9628    10837.905    11750.717    11185.567    1733.3705    45.571638    14.879339   -2285.4905 
25557000    257.47073   -3880.1929   -3438.8969   -3880.1929            0    12140.939    16.843143    19.838998    20.548595    6866.3353    10492.965    12007.303    13922.548    564.63121    305.33633   -1052.6134    -2223.122 
25558000    248.50554   -3875.2887   -3449.3587   -3875.2887            0    11549.946    16.879984    19.882391    20.593541    6911.4895    12541.484    9334.5391    12773.814    671.58793    792.91627    1051.8564    -2285.159 
25559000    250.39154   -3880.9949   -3451.8324   -3880.9949            0     9342.916     16.87944    19.881751    20.592878    6910.8221    8861.4397    10339.834    8827.4748    1460.7915    985.77654    -650.0959   -2510.1856 
25560000    241.35239   -3887.7916   -3474.1219   -3887.7916            0    12165.764    16.809376    19.799225    20.507399    6825.1211    14215.781    10529.014    11752.497     1162.904    367.56245   -1531.0584   -2263.1735 
25561000    235.56577   -3852.0813   -3448.3297   -3852.0813            0    9950.0242    16.881064    19.883663    20.594858    6912.8164    11136.703    12218.893    6494.4762     1373.268   -278.46636   -1722.4461   -2445.2047 
25562000    254.84015    -3859.494   -3422.7067    -3859.494            0    10264.243     16.85673    19.855001    20.565171    6882.9651    10523.698    10437.134    9831.8975   -820.02666    593.52613   -245.70465   -2392.3719 
25563000    266.75339   -3881.9259   -3424.7197   -3881.9259            0    8303.8665    16.961603    19.978528    20.693116    7012.2321    8042.9959    8230.1797    8638.4237    96.324227    2479.4554    1262.1541   -2575.5147 
25564000    264.58543   -3902.6628   -3449.1725   -3902.6628            0    12846.944    16.772415     19.75569    20.462307    6780.1983    12787.264    13667.171    12086.396   -473.43959     998.0604   -1113.9552   -2178.8379 
25565000    248.83561   -3917.4404   -3490.9447   -3917.4404            0    10348.286    16.784119    19.769476    20.476586    6794.4024     8727.201    11709.948    10607.709    -700.2989    434.65436   -609.10862   -2465.5393 
25566000    261.19944   -3893.3561   -3445.6692   -3893.3561            0     9126.408    16.854298    19.852136    20.562204    6879.9862    8502.2216    9236.9409    9640.0616    162.61958   -19.980983    -1102.901   -2529.9479 
25567000    240.79023   -3901.5436   -3488.8374   -3901.5436            0    9662.6331     16.80066    19.788958    20.496766    6814.5097    8874.0336    10461.535    9652.3305    1183.8145   -272.75179    41.285577   -2528.5395 
25568000    257.64911   -3918.1394   -3476.5376   -3918.1394            0    10343.026    16.813716    19.804336    20.512694    6830.4086    10753.952    12624.022    7651.1053    1887.1933    100.28103   -1131.9755   -2446.2222 
25569000    242.70622   -3914.5423   -3498.5521   -3914.5423            0    8937.3973    16.858786    19.857423    20.567679    6885.4837    8668.4044    9310.3246    8833.4629    1950.4335    -1406.038   -1090.1554   -2601.0791 
25570000    250.99566   -3862.7499   -3432.5519   -3862.7499            0    11484.356    16.818453    19.809916    20.518473    6836.1838    11954.404    10022.492    12476.172    1487.8083    -201.8486    -1018.577   -2287.5762 
25571000    261.94696   -3903.2922   -3454.3241   -3903.2922            0    9757.9795    16.800076    19.788271    20.496054    6813.7995    8112.1754     10577.72    10584.043   -900.32453   -164.88613    94.643423   -2484.6514 
25572000    269.86979   -3875.4172   -3412.8696   -3875.4172            0    9539.7889    16.838614    19.833664     20.54307    6860.7982    9070.9015    9439.7035    10108.762    493.09402    1260.8801   -733.30285   -2458.3403 
25573000    247.58851   -3910.7603    -3486.402   -3910.7603            0    12472.981     16.79551    19.782893    20.490483    6808.2455     12259.91     13025.71    12133.322   -3431.0727    501.81643   -117.43221   -2247.9439 
25574000    254.74591   -3886.4975   -3449.8718   -3886.4975            0    10930.468    16.809002    19.798784    20.506944    6824.6659    9968.0946    11530.609      11292.7    1057.3824    106.15252   -1164.9676   -2361.9541 
25575000    257.52146   -3877.4185   -3436.0355   -3877.4185            0    10687.676     16.80574    19.794942    20.502964    6820.6937    8567.5055    11498.226    11997.296   -552.01825    294.13848   -261.71468   -2372.9023 
25576000    251.51481   -3879.2961   -3448.2083   -3879.2961            0    11095.232    16.836367    19.831016    20.540328     6858.051    11625.197    10446.792    11213.708   -1776.4714   -901.51989     -2052.87   -2338.4894 
25577000    239.71675   -3866.6847   -3455.8184   -3866.6847            0    12508.205    16.791269    19.777897    20.485309    6803.0888    13487.391    14009.125    10028.097   -533.90958    855.22703     1656.139   -2214.8035 
25578000     269.2939   -3858.2245    -3396.664   -3858.2245            0    9102.6943    16.952354    19.967634    20.681833    7000.7673    7568.5482    8282.1177    11457.417   -33.863108   -154.96079   -10.900679   -2467.2879 
25579000    251.99605   -3874.8003   -3442.8877   -3874.8003            0    10446.867    16.828352    19.821575     20.53055    6848.2612    9084.7831      10840.7    11415.118   -1239.3315    749.06356    84.334606   -2399.5082 
25580000    264.50983   -3845.2833   -3391.9225   -3845.2833            0     10557.28    16.807207    19.796669    20.504753     6822.479     8706.153    10831.051    12134.635    1512.8142    137.76658   -378.79968   -2341.4853 
25581000    251.13714   -3888.9574   -3458.5169   -3888.9574            0    8420.3974    16.861064    19.860106    20.570458    6888.2753    8883.0202    9664.4164    6713.7555    1279.4802    1613.9505   -1353.7211    -2612.617 
25582000    250.51498   -3900.4724   -3471.0983   -3900.4724            0    9534.6486    16.815084    19.805948    20.514363    6832.0763    10679.235    7653.7637    10270.947    1957.6401    1182.8652   -761.50704   -2521.0771 
25583000    253.76341    -3921.016   -3486.0742    -3921.016            0    10462.417    16.816381    19.807475    20.515945    6833.6574    11571.549    9665.9426    10149.759    1036.9404   -322.29739   -891.61819     -2443.37 
25584000    261.77528   -3871.6923   -3423.0184   -3871.6923            0    9642.2974    16.895606    19.900792      20.6126    6930.6971    9225.5904    10691.689     9009.613    107.54955   -306.46457    568.56496   -2448.4029 
25585000    246.29945   -3887.8974   -3465.7486   -3887.8974            0    11827.131    16.886347    19.889886    20.601304    6919.3088    13122.436     11991.89    10367.066    650.41873    410.60538   -1202.3579   -2272.2608 
25586000    249.01741   -3875.2116   -3448.4043   -3875.2116            0    11028.162    16.855839    19.853952    20.564084    6881.8737    12172.396    11026.246    9885.8436    836.00843    -419.1063    796.62381   -2341.5621 
25587000    254.03193   -3909.6569   -3474.2549   -3909.6569            0    11078.196    16.822947    19.815209    20.523956    6841.6651    13845.249    9088.4441    10300.895    233.08296    919.09408   -389.29592   -2368.8872 
25588000    264.34723   -3892.4478   -3439.3657   -3892.4478            0    10500.321    16.892546    19.897187    20.608866    6926.9314     10134.42    10979.418    10387.126   -365.88487   -318.61659    261.68551   -2378.6003 
25589000    243.43526    -3915.247   -3498.0073    -3915.247            0    10623.471    16.831931    19.825791    20.534916    6852.6318    11488.041    10457.893    9924.4803     924.4333    907.10513     308.3072   -2436.3124 
25590000    268.76296   -3927.6637   -3467.0132   -3927.6637            0    9996.2704    16.833319    19.827426    20.536609    6854.3271     9807.996    9555.3816    10625.434    5.0479378    450.04504   -734.94834   -2467.7527 
25591000    238.49098    -3905.504   -3496.7386    -3905.504            0    9494.8043    16.849317     19.84627    20.556128    6873.8888    9783.6346    9266.5744    9434.2039   -1849.5061   -1204.9531   -34.260937   -2544.8976 
25592000    268.44091   -3906.9124   -3446.8139   -3906.9124            0    12293.396    16.822914    19.815171    20.523916    6841.6251    12016.567    11739.308    13124.313   -722.24397   -902.73109    8.1442677   -2220.2024 
25593000    242.39794   -3888.6124   -3473.1506   -3888.6124            0      11192.7    16.747787    19.726681    20.432261     6750.375    10966.037    8323.3299    14288.733    318.06346   -661.88707    975.96688   -2371.2596 
25594000    245.99063   -3904.8297   -3483.2102   -3904.8297            0    8897.8301      16.8864    19.889948    20.601368    6919.3736    7732.8875    8760.4355    10200.167   -601.76498    771.10473   -832.06025   -2585.3126 
25595000    260.17216   -3940.7055   -3494.7793   -3940.7055            0     9446.243    16.802534    19.791166    20.499052    6816.7903    11450.865    7187.0498    9700.8141   -1243.1595   -901.41629   -9.6629768   -2555.6726 
25596000    261.74791   -3901.9256   -3453.2986   -3901.9256            0     10132.75    16.862873    19.862237    20.572666    6890.4929    8936.3653      10773.6    10688.284    11.504788   -62.887381    583.98049   -2435.0508 
25597000    248.52944   -3893.1951   -3467.2241   -3893.1951            0    10164.099    16.823913    19.816347    20.525135    6842.8439    9741.6916    10848.612     9901.994   -1248.3263    155.06263    1241.9662   -2452.8891 
25598000    252.69415    -3941.894   -3508.7849    -3941.894            0    9210.8419    16.869327    19.869839     20.58054     6898.408    9359.1929    8448.3952    9824.9374   -871.57863   -1025.7452   -754.12977   -2582.1171 
25599000    247.30939   -3900.2555   -3476.3756   -3900.2555            0    10211.754    16.875548    19.877167     20.58813     6906.043    10352.196    9786.4437    10496.621    121.42949    1195.5397   -168.40939   -2447.8728 
25600000     241.8533   -3913.4365   -3498.9082   -3913.4365            0    12445.871    16.801223    19.789621    20.497452    6815.1944    11787.365    11768.195    13782.053   -615.91535    120.03655    423.20639   -2261.8805 
25601000    246.58746   -3933.5475    -3510.905   -3933.5475            0    10142.685    16.810161    19.800149    20.508357    6826.0768    10731.368    9816.5734    9880.1128    315.98182    861.98062   -1431.5856   -2501.1873 
25602000    256.89482   -3909.5507   -3469.2418   -3909.5507            0    9798.6739    16.859104    19.857797    20.568067    6885.8734     9984.708    9298.5735     10112.74   -152.02005    379.85179    -2191.198   -2485.2257 
25603000    268.48473    -3923.599   -3463.4254    -3923.599            0     10484.23    16.837512    19.832365    20.541726    6859.4511    12573.938    9177.9973    9700.7536   -811.03567    1345.9462   -763.95065   -2414.6034 
25604000    256.51159   -3923.7026   -3484.0505   -3923.7026            0    9342.0927    16.848077    19.844809    20.554615    6872.3711    9115.4378    8122.9978    10787.843   -1574.9049   -947.00644    2468.4932   -2547.7254 
25605000    267.65328   -3876.7603   -3418.0118   -3876.7603            0    11058.288    16.774837    19.758542    20.465262    6783.1357    12713.714    9914.9829    10546.166    1729.8858    328.57544    798.86247   -2324.0698 
25606000    252.48978   -3920.7907   -3488.0319   -3920.7907            0     9693.205    16.797698    19.785469    20.493152    6810.9057    9337.5233    8350.5864    11391.505    1347.6581    406.65062    389.59646   -2525.2051 
25607000    243.70801   -3902.0354   -3484.3283   -3902.0354            0      13446.5    16.756984    19.737514    20.443481    6761.5017    12965.842    12296.937    15076.721    580.43049    588.35868     1436.916   -2158.3747 
25608000    255.22208   -3907.2756   -3469.8337   -3907.2756            0    10878.404    16.822148    19.814269    20.522982    6840.6907    12191.396    9593.1967    10850.618    1129.6204   -437.32106     -131.048   -2384.5557 
25609000    247.50657   -3894.3371   -3470.1193   -3894.3371            0    12547.444    16.735434    19.712131    20.417191    6735.4488    14766.468    11831.254    11044.611   -1506.3187   -1953.1197    623.20056   -2237.5887 
25610000    245.48159   -3915.8427   -3495.0956   -3915.8427            0    10681.502    16.797714    19.785488    20.493172    6810.9253    11955.989    8729.3578    11359.161   -722.25736    136.64141   -586.10241   -2434.0981 
25611000    256.39693   -3909.2746   -3469.8191   -3909.2746            0    9899.8361    16.802899    19.791595    20.499497    6817.2341    7635.1592     10605.64    11458.709     1253.276    478.29041   -1153.6876   -2485.5539 
25612000    257.81019   -3904.3551   -3462.4772   -3904.3551            0     10276.52     16.78175    19.766685    20.473696    6791.5255    9358.9382    10599.672     10870.95   -1293.3053   -1176.9839    2242.1386   -2444.6143 
25613000    249.75541   -3909.1206   -3481.0483   -3909.1206            0    9126.5386    16.814969    19.805813    20.514223    6831.9364    8921.5903    9688.0029    8770.0226   -2046.3383    1907.7601    468.12891   -2571.7094 
25614000    269.42319   -3901.5375   -3439.7554   -3901.5375            0    10128.726     16.84184    19.837462    20.547005    6864.7412    10150.476    9130.7707     11104.93   -277.34289    358.92455    388.95338   -2425.7159 
25615000    255.37632   -3890.5443    -3452.838   -3890.5443            0    9376.6789    16.849409    19.846378    20.556239     6874.001    9484.9467    8237.0114    10408.079    1150.2146   -677.33988   -1431.5935   -2512.8236 
25616000    252.38823   -3925.7818    -3493.197   -3925.7818            0    9685.6373    16.830826     19.82449    20.533569    6851.2832     9670.388    8269.4638     11117.06    562.93127    324.06153    184.54137   -2525.4184 
25617000    245.00958   -3932.1292   -3512.1911   -3932.1292            0    9555.1214    16.809322    19.799161    20.507334    6825.0558    11516.711    9348.7381    7799.9151     -296.044   -1877.5818   -1198.4422   -2561.1084 
25618000    247.41437   -3904.3923   -3480.3325   -3904.3923            0    8513.8084    16.759086    19.739989    20.446045     6764.046     8228.189    8657.2395    8655.9967     257.1429    471.08575    34.820475   -2640.4736 
25619000    266.97272    -3904.653   -3447.0709    -3904.653            0    10109.606    16.695168    19.664702    20.368066    6686.9479    9853.2292    8751.4797     11724.11    1106.7207   -701.66165    502.77618   -2461.1591 
25620000    253.04631   -3930.3557    -3496.643   -3930.3557            0    9933.3471    16.815516    19.806457    20.514891    6832.6035    11301.514    9503.1894    8995.3382    168.95215    -1266.078   -1270.2721   -2506.8196 
25621000    258.29882   -3924.2667   -3481.5513   -3924.2667            0    9864.4198    16.775588    19.759427    20.466179    6784.0474    10190.034    8647.3274    10755.898    575.91568    -1243.077    677.39109   -2505.5817 
25622000    255.85765    -3872.392   -3433.8607    -3872.392            0    11040.212    16.826162    19.818997    20.527879    6845.5888    11678.802    11916.303    9525.5313   -2228.3405    528.86007   -4008.3899   -2331.6513 
25623000    239.29033   -3886.4894    -3476.354   -3886.4894            0     9598.798    16.781228     19.76607    20.473059    6790.8915    8191.1395     9868.211    10737.044    141.60006    442.85467   -1265.8961   -2525.7064 
25624000    266.93016   -3901.0866   -3443.5774   -3901.0866            0    10502.818    16.876095    19.877811    20.588796    6906.7139    11567.474    9186.2215    10754.759   -54.559373    1438.0838   -860.17983   -2385.6565 
25625000    268.38603   -3894.9329   -3434.9285   -3894.9329            0    9820.6242    16.863377    19.862831    20.573281    6891.1111    8990.2121     11310.14    9161.5202    827.80564    700.99054    1083.1582   -2447.9578 
25626000    260.46975   -3922.9007   -3476.4645   -3922.9007            0    11619.586    16.854322    19.852165    20.562234    6880.0161    13266.074    10563.254    11029.428    114.00125    1739.6822    909.86075   -2310.5787 
25627000    265.70447   -3935.4587   -3480.0503   -3935.4587            0     8924.585    16.853851     19.85161    20.561659    6879.4394    9179.4324    9253.0777     8341.245   -968.20139    1567.0885   -41.330468   -2584.6506 
25628000    262.95473   -3905.3321   -3454.6367   -3905.3321            0     11485.96    16.778601    19.762976    20.469854    6787.7029    10523.078    13330.931     10603.87    1030.6196   -2865.6293    1489.3189   -2317.6222 
25629000    261.45626   -3886.0457   -3437.9187   -3886.0457            0    9942.3201    16.828728    19.822018    20.531008    6848.7203    9837.9035    12394.661    7594.3955   -1178.8562     718.7448   -17.392421   -2444.8642 
25630000     255.2864   -3933.5927   -3496.0406   -3933.5927            0    10572.524    16.842118     19.83779    20.547344    6865.0812    12539.539    8550.5794    10627.455    692.83997   -521.45217    1698.8154   -2437.5176 
25631000    245.13794   -3931.4991    -3511.341   -3931.4991            0    10240.002    16.866941    19.867029    20.577629    6895.4816     8640.898    10365.101    11714.006    1064.2312   -192.69805    1396.2686   -2481.5703 
25632000    250.65712   -3873.7992   -3444.1814   -3873.7992            0    12140.812    16.839145    19.834289    20.543718    6861.4471    14152.297    8112.2767    14157.863    410.89764    687.76512   -951.17117   -2229.2847 
25633000    245.29688   -3910.4611   -3490.0306   -3910.4611            0    8099.1223    16.885156    19.888483    20.599851    6917.8447    7901.0204    6966.9969    9429.3495   -760.56667    730.87622   -521.01545   -2672.9128 
25634000    250.93389    -3926.863   -3496.7709    -3926.863            0     12072.45    16.815238    19.806129    20.514551    6832.2637    12643.639    11392.811    12180.901     267.6293    795.34998   -283.13095   -2293.8531 
25635000    242.35137   -3941.2149   -3525.8329   -3941.2149            0    9439.8073    16.878657    19.880828    20.591922    6909.8595    8656.8444    10113.864    9548.7131     -22.6874    -1540.105    421.60602   -2574.5532 
25636000    249.11351   -3883.0822   -3456.1102   -3883.0822            0    9969.7968    16.859057    19.857743    20.568011    6885.8168     9460.044    10086.703    10362.643    -1263.606    674.39606    1984.6022   -2454.9175 
25637000    252.43202   -3900.8044   -3468.1446   -3900.8044            0    10392.761    16.830359     19.82394    20.532999    6850.7123    10697.979    9253.3814    11226.923    262.51955    1520.3576   -289.81461   -2429.7975 
25638000     249.0362   -3880.6254   -3453.7859   -3880.6254            0    11478.515    16.777245    19.761379      20.4682    6786.0577    11967.272    11741.112    10727.161    1195.4274   -37.959017   -584.34367   -2317.7837 
25639000    241.86789   -3909.3879   -3494.8346   -3909.3879            0    10048.977    16.796797    19.784408    20.492053      6809.81    10525.536    11639.931     7981.462    2356.7929   -473.62694    964.03942   -2496.8296 
25640000    252.88461   -3895.6786   -3462.2431   -3895.6786            0    9695.8408    16.841479    19.837037    20.546565       6864.3    11155.707    11013.145    6918.6702    994.36848   -730.21092    -176.6456   -2491.6043 
25641000    256.27947   -3934.9909   -3495.7367   -3934.9909            0    9061.0579    16.870765    19.871532    20.582294    6900.1716    8700.0555    7548.3912    10934.727    657.66328   -1542.3698    2811.5586    -2583.905 
25642000    255.29286   -3906.8977   -3469.3345   -3906.8977            0    11698.967    16.825442    19.818148       20.527    6844.7094    11250.254    11290.659    12555.989    2104.5637    55.326479   -479.46447   -2301.5077 
25643000    250.14232   -3880.7235   -3451.9882   -3880.7235            0    11565.703    16.828214    19.821413    20.530381    6848.0928    11965.915    11344.628    11386.566    1341.2774   -614.70911   -125.65319   -2296.8935 
25644000    238.48463   -3865.9864   -3457.2319   -3865.9864            0    8320.8549     16.94691    19.961221     20.67519    6994.0242    8097.4047    9114.1204    7751.0397   -855.37643     210.4154   -103.35682   -2608.4992 
25645000    260.34778   -3851.5959   -3405.3688   -3851.5959            0    9220.0774     16.89034     19.89459    20.606176     6924.219    10326.725    6730.0922    10603.416    512.18548    272.73886   -197.32991   -2474.3011 
25646000    248.84171   -3869.8215   -3443.3153   -3869.8215            0    8843.6995    16.876661    19.878477    20.589487    6907.4088    9204.3291    7596.3723     9730.397   -271.07837   -161.27445    715.14505   -2552.4234 
25647000    248.06975   -3914.0104   -3488.8274   -3914.0104            0    10378.614    16.855109    19.853092    20.563194    6880.9803    10166.271    10269.158    10700.413    1212.4273    590.76544   -934.26329   -2447.3123 
25648000    245.66337   -3874.6475   -3453.5888   -3874.6475            0    10800.774    16.815563    19.806512    20.514948    6832.6605    13808.429    8533.7502    10060.141    416.83856   -262.42666   -927.08022   -2377.3204 
25649000    255.56222   -3858.7316   -3420.7067   -3858.7316            0    9619.5861    16.879343    19.881637     20.59276    6910.7032    9941.4333    8266.3263    10650.999   -977.89574    857.68181    412.56109   -2451.1917 
25650000     255.0172   -3910.1498   -3473.0591   -3910.1498            0    10294.021    16.837089    19.831867     20.54121    6858.9342    10156.517    10265.103    10460.443    835.12506    513.68087   -1169.9922   -2443.3428 
25651000    265.21223   -3884.3838   -3429.8191   -3884.3838            0    10131.348    16.803873    19.792743    20.500686    6818.4206     9893.973    8107.2841    12392.787     823.8203    997.34539   -1811.1687   -2422.3612 
25652000    241.95931   -3906.7251   -3492.0151   -3906.7251            0    9074.7643    16.798685    19.786632    20.494357    6812.1069    7289.3482    9487.4617    10447.483    845.43032    947.57125   -870.20554   -2590.4592 
25653000    250.53536   -3897.2528   -3467.8438   -3897.2528            0    8050.0489    16.869289    19.869795    20.580494    6898.3615    9470.2861    6826.7809    7853.0798   -403.63405    352.74484     742.8404   -2657.9644 
25654000    243.77836   -3921.1119   -3503.2842   -3921.1119            0    10011.967    16.794401    19.781586     20.48913    6806.8962    11336.617    9279.3479    9419.9371   -41.230581    1121.9734    1070.3378   -2509.3802 
25655000     253.0165   -3909.4461   -3475.7845   -3909.4461            0    9729.7102    16.808392    19.798065    20.506199    6823.9223    11280.973    8881.4892     9026.668    1254.1199   -1228.6957   -2010.1466   -2507.4846 
25656000    236.15338   -3923.5445   -3518.7857   -3923.5445            0    9214.2671    16.812321    19.802694    20.510993    6828.7092    8645.6047    8369.3832    10627.813   -669.40695   -744.66099    384.79844   -2601.1394 
25657000    249.15576   -3925.3506   -3498.3062   -3925.3506            0    10027.017    16.805497    19.794656    20.502667    6820.3973    10443.557    10265.421    9372.0735    151.34096     1914.295   -139.71044   -2500.9338 
25658000    255.28976   -3928.1095   -3490.5516   -3928.1095            0    12212.395    16.788321    19.774425    20.481712    6799.5064    12788.137    11247.953    12601.096   -2661.7707    623.16554    538.47556   -2279.5237 
25659000    258.29149    -3934.063   -3491.3602    -3934.063            0     7385.821    16.871886    19.872853    20.583661    6901.5474    8074.0143    7340.8539    6742.5948    1272.1625   -87.594304   -297.53529   -2747.9626 
25660000    266.26374   -3902.1201   -3445.7531   -3902.1201            0    8295.7482     16.85328    19.850938    20.560963    6878.7405    6481.2827     10540.52    7865.4413    484.25789    -201.8679    1829.9125   -2613.5289 
25661000    240.84018   -3896.3118     -3483.52   -3896.3118            0    11615.833    16.772058    19.755269    20.461871    6779.7651      12215.2    11496.051    11136.249    1240.7045   -465.40779    83.778106   -2334.9938 
25662000    245.33627   -3913.2028   -3492.7048   -3913.2028            0    10972.176    16.855843    19.853957    20.564089     6881.879    12156.168    10017.983    10742.378   -358.66014    -1106.871   -481.48199   -2391.4807 
25663000    249.02744   -3902.3449   -3475.5204   -3902.3449            0    9505.7308    16.889776    19.893926    20.605488    6923.5254    10091.819    10077.602    8347.7718   -479.60194    -665.4041    1186.2774   -2515.7028 
25664000    250.42279   -3897.2452   -3468.0291   -3897.2452            0    10604.103    16.805325    19.794453    20.502457    6820.1878    7996.7591    12404.178    11411.371   -1436.8209   -1225.0829    2324.6693   -2413.2873 
25665000    251.34523   -3884.7664   -3453.9693   -3884.7664            0     8811.161    16.832835    19.826856    20.536019    6853.7363    8451.9152    8217.2663    9764.3014    1225.6137   -48.233618    575.44544   -2573.2522 
25666000    252.38243   -3872.4332   -3439.8584   -3872.4332            0    11713.035    16.800554    19.788833    20.496636    6814.3804    13484.979    8512.0177    13142.109    147.27688    2522.2738   -671.72854   -2275.8082 
25667000    249.41482    -3915.165   -3487.6765    -3915.165            0    8090.9818     16.85668    19.854942     20.56511    6882.9036    9068.1685    7785.5825    7419.1944    603.14995   -871.19038   -780.04331    -2675.503 
25668000    259.66861   -3856.8024   -3411.7392   -3856.8024            0    10497.093    16.825923    19.818715    20.527587    6845.2973    13644.951    8270.1609    9576.1676    951.35542   -1293.7477    24.638311   -2363.7972 
25669000    264.62699   -3882.0337   -3428.4721   -3882.0337            0    9834.9105    16.869096    19.869567    20.580258    6898.1244    9543.0855    9431.7849    10529.861   -442.81622    253.17788   -480.60055   -2439.0597 
25670000    250.20548    -3893.121   -3464.2773    -3893.121            0    10235.779    16.847585     19.84423    20.554014    6871.7689    10005.247    10055.956    10646.135    813.88365    364.44419    560.40418   -2438.4711 
25671000    247.56863   -3892.9898   -3468.6657   -3892.9898            0    10152.371    16.831646    19.825456    20.534569    6852.2844    10019.334    11124.356    9313.4236   -270.38226    749.40307     430.1409   -2454.1033 
25672000    251.10655   -3887.5983   -3457.2103   -3887.5983            0    11944.087    16.798597    19.786528    20.494249    6811.9994    10938.504    12678.424    12215.332   -323.46139   -1686.8861   -44.265824   -2270.6127 
25673000    250.40396   -3897.7292   -3468.5454   -3897.7292            0    10280.576    16.845587    19.841876    20.551576    6869.3242    9687.4901    11635.989    9518.2489   -990.66207    1199.6328   -103.23117   -2438.6163 
25674000    245.33845   -3896.6955   -3476.1938   -3896.6955            0    10580.985    16.858964    19.857632    20.567896    6885.7017    10575.459    9506.3841    11661.113   -637.41631   -484.66392   -206.93257   -2413.6418 
25675000    263.19852   -3922.5395   -3471.4263   -3922.5395            0    11913.237    16.853559    19.851266    20.561303    6879.0818    12839.884     12263.23    10636.599   -1803.2462   -24.590467   -971.80702   -2276.2384 
25676000    252.17352    -3927.937   -3495.7202    -3927.937            0    10131.213    16.840095    19.835407    20.544876    6862.6079    10342.488    9361.3751    10689.775   -385.34396    478.75225    497.89456   -2481.7469 
25677000    261.20947   -3900.2809   -3452.5768   -3900.2809            0    11229.927    16.861854    19.861036    20.571422    6889.2437    11322.842    10548.615    11818.325   -775.78578   -284.26147   -648.56055   -2324.2774 
25678000    258.49678   -3905.1126    -3462.058   -3905.1126            0    10578.642    16.880392    19.882872    20.594039    6911.9913    12385.893    8911.8246     10438.21    568.59903   -280.43581    605.70655   -2395.6853 
25679000    247.13334   -3898.1954   -3474.6173   -3898.1954            0    8330.4249    16.919806    19.929297    20.642124     6960.521    6962.3084    8543.2266    9485.7398   -2663.8673   -1564.4137    1089.0571   -2628.9788 
25680000    254.16424   -3899.1689   -3463.5401   -3899.1689            0    9550.4687    16.858783     19.85742    20.567676    6885.4809    8498.4783    8526.7089    11626.219    426.26626   -1055.8076   -811.57104   -2504.5042 
25681000    260.03389   -3888.2501   -3442.5609   -3888.2501            0    9212.0027    16.796492    19.784049    20.491681    6809.4396    10562.658     7702.384     9370.966    714.38414   -1257.1656    687.08473    -2527.729 
25682000     255.8198   -3864.2734    -3425.807   -3864.2734            0    12349.768     16.74503    19.723433    20.428897    6747.0413    11308.632    12553.128    13187.544   -775.35921   -59.016796    1154.3349   -2210.6062 
25683000    252.38507   -3921.2834    -3488.704   -3921.2834            0     11178.96    16.807051    19.796486    20.504563    6822.2896    10104.699    11153.655    12278.527    2019.1822   -740.89864   -74.916244   -2376.4411 
25684000    246.59011   -3904.8713   -3482.2243   -3904.8713            0    10271.407    16.828645     19.82192    20.530907     6848.619    10348.748    10982.871    9482.6026    748.28951   -1340.2168    405.59954   -2456.3153 
25685000    249.18607   -3859.6618   -3432.5654   -3859.6618            0    11827.804    16.740673    19.718301    20.423581    6741.7756    11915.101    11153.503    12414.808    426.68538    684.79944    886.65005   -2269.6334 
25686000    259.63896   -3909.2705   -3464.2582   -3909.2705            0    10218.264    16.820425    19.812239    20.520879    6838.5887    10983.597    10040.842    9630.3535     -13.7635    -76.54047   -764.70271   -2445.1519 
25687000    255.94426    -3924.563   -3485.8833    -3924.563            0    11560.298    16.797068    19.784728    20.492384    6810.1402    11780.388    10680.405      12220.1   -332.00806    198.45938    1682.0233   -2337.7271 
25688000    265.96301    -3889.522   -3433.6705    -3889.522            0    10876.031    16.789735     19.77609    20.483437    6801.2245     12536.77    10872.343    9218.9786    547.48965   -803.88012   -966.41656   -2354.8892 
25689000    249.52538   -3919.0741   -3491.3962   -3919.0741            0    8801.9616    16.794459    19.781654      20.4892    6806.9665    9946.6457    7566.7318    8892.5074    867.24128   -305.20518   -681.93867   -2617.6024 
25690000    259.34521   -3873.8836   -3429.3747   -3873.8836            0    11294.241    16.817478    19.808768    20.517284    6834.9951    12176.966    11353.197    10352.562    362.85477    136.25025   -800.45623    -2303.549 
25691000     253.3989   -3913.3607   -3479.0437   -3913.3607            0    10475.551    16.823507    19.815869    20.524639    6842.3481    9818.7896     10422.71    11185.152    1306.0431   -327.35043    215.75491   -2433.7029 
25692000    255.79445   -3924.7195   -3486.2966   -3924.7195            0    9546.0847     16.87736    19.879301     20.59034    6908.2679    10441.358    7482.8511    10714.045    1122.2373   -628.95748   -1434.0152   -2524.5286 
25693000    251.90267   -3904.4746   -3472.7221   -3904.4746            0    9251.8808    16.831383    19.825146    20.534248     6851.963    6351.5241    10504.644    10899.474   -422.31556    52.255883    603.74532   -2548.1923 
25694000    257.20906   -3891.3849   -3450.5373   -3891.3849            0     10452.59    16.829128     19.82249    20.531497     6849.209    9166.0074    10603.039    11588.725   -180.65236   -831.88947   -1488.9676   -2406.4418 
25695000    244.63518   -3904.2684   -3484.9721   -3904.2684            0    9664.8323    16.868367    19.868708    20.579369    6897.2303    7971.5015    10125.922    10897.073   -130.54117   -333.50778    -248.9396    -2512.796 
25696000    249.23729   -3898.6169   -3471.4327   -3898.6169            0    9271.8228     16.84235    19.838064    20.547628    6865.3653     10494.57    8044.3774    9276.5212   -842.43018   -571.95454   -990.71442   -2543.0979 
25697000    241.07279   -3887.7485    -3474.558   -3887.7485            0    8987.1012    16.836189    19.830807    20.540111     6857.834    9699.4222    8033.2515    9228.6299   -150.90705   -378.47255   -156.96279   -2575.7178 
25698000    249.90197   -3901.0036   -3472.6802   -3901.0036            0    10243.866    16.875364     19.87695    20.587905    6905.8168    12342.403    9314.2844    9074.9089    482.09895    413.89876   -539.36534   -2440.9769 
25699000    263.28844   -3899.6497   -3448.3824   -3899.6497            0    10635.937    16.845193    19.841413    20.551096    6868.8429    8825.9989    12653.992     10427.82    55.276693   -402.50257    1236.8467   -2382.9271 
25700000    251.09168   -3903.0816   -3472.7191   -3903.0816            0    11125.983    16.871881    19.872847    20.583655    6901.5411     11544.21    11947.407    9886.3332   -1497.3449   -898.20075    392.10483   -2352.8677 
25701000    251.00517   -3898.7094   -3468.4951   -3898.7094            0    9436.7074     16.87229    19.873329    20.584154    6902.0434    8476.4451    9794.4347    10039.242    1065.8023   -366.00401   -1324.9013   -2518.6035 
25702000    265.63678   -3906.8203   -3451.5279   -3906.8203            0    10154.014    16.813732    19.804356    20.512714    6830.4289     10064.09    10607.752    9790.1981   -145.69954   -1592.5647    -917.4616   -2440.0379 
25703000    248.35559   -3929.5794   -3503.9064   -3929.5794            0    10159.773     16.82265    19.814859    20.523593    6841.3024    9732.2942    9700.9099    11046.114   -438.95841    426.05835   -618.68694   -2490.2316 
25704000    254.90342   -3923.3042   -3486.4084   -3923.3042            0    11899.778    16.825012    19.817642    20.526476    6844.1853    11150.494      11503.2    13045.639   -952.20735    422.44135   -298.41223   -2298.6271 
25705000    236.79254   -3926.0174   -3520.1631   -3926.0174            0    9033.4618    16.893243    19.898009    20.609717    6927.7892    7772.5969    9517.9457    9809.8429   -778.87253    162.63483   -1022.5447     -2607.47 
25706000    245.57305   -3901.4017   -3480.4979   -3901.4017            0    10702.391     16.79044     19.77692    20.484297    6802.0808    10626.941    11598.666    9881.5649   -437.73153     225.7323    692.50845   -2418.8061 
25707000    244.52383   -3896.2684   -3477.1629   -3896.2684            0    8678.9606    16.885159    19.888487    20.599854    6917.8483    9822.7014    9639.1854     6574.995    2387.7441    487.87424   -744.10199    -2601.545 
25708000    256.23319   -3885.0075   -3445.8326   -3885.0075            0     9706.608    16.881576    19.884267    20.595483    6913.4458    10036.659    9563.0402    9520.1251   -529.61203    1002.7132   -892.78556   -2467.1589 
25709000    251.69559   -3889.5532   -3458.1556   -3889.5532            0    12501.486    16.809733    19.799645    20.507835    6825.5557     11656.57    11243.216    14604.672    626.23336   -978.44405   -45.473808   -2213.7111 
25710000    266.61384   -3871.0662   -3414.0992   -3871.0662            0    11420.681    16.782405    19.767456    20.474495    6792.3207    10565.319    13930.047    9766.6771    1120.6414    924.54195    -1804.597   -2282.7776 
25711000    250.44342   -3900.9983   -3471.7468   -3900.9983            0    8681.4517    16.883776    19.886858    20.598167    6916.1491    6759.4651    11561.484    7723.4064   -207.86845   -1449.0813   -980.37705   -2596.0927 
25712000    262.23275   -3898.9594   -3449.5015   -3898.9594            0    10155.067    16.833046    19.827104    20.536276    6853.9936    8782.3635    10539.261    11143.577    1069.3833   -655.79102   -1425.0488   -2434.4165 
25713000    271.83247   -3900.7655   -3434.8539   -3900.7655            0    9554.5069    16.838236    19.833218    20.542608    6860.3354    9113.0363    10483.565    9066.9196    1084.3144     1378.014   -817.72138   -2478.9164 
25714000    252.08051   -3925.6981   -3493.6407   -3925.6981            0    12114.118    16.802753    19.791424     20.49932    6817.0573    11444.246    11635.875    13262.234   -578.04586    -4.891753   -1028.2578   -2289.2576 
25715000    244.72349   -3968.1607    -3548.713   -3968.1607            0    9084.8622    16.807252    19.796722    20.504808    6822.5338    8999.1944    9783.0865    8472.3059    562.50949    809.56757    717.74809   -2644.7723 
25716000    252.62275   -3908.2326   -3475.2458   -3908.2326            0    12047.751    16.789614    19.775947     20.48329    6801.0772    11505.982    13681.473    10955.799    1323.6192    1527.6733    660.72122   -2280.2687 
25717000    256.58616   -3936.0743   -3496.2944   -3936.0743            0    9708.7643     16.80362    19.792445    20.500377     6818.112    11373.594    9171.9782    8580.7208   -1567.2819   -895.62943   -528.11238   -2530.9017 
25718000    261.52714   -3903.4881   -3455.2395   -3903.4881            0    10632.655    16.820231    19.812011    20.520643    6838.3526       9182.5    10290.273    12425.192    2141.0207    1059.4014    980.37333    -2394.841 
25719000     256.1998   -3900.3741   -3461.2564   -3900.3741            0    9243.7098    16.862938    19.862313    20.572745    6890.5723    8531.9416    9053.6422    10145.546   -582.02998   -315.02149    1232.6101   -2532.3382 
25720000    239.20697   -3897.3351   -3487.3425   -3897.3351            0     11391.06    16.758167    19.738908    20.444925    6762.9342    10802.799    11935.603    11434.779   -1266.3671   -34.946227   -1200.5808    -2363.837 
25721000    252.28833   -3887.5101   -3455.0965   -3887.5101            0    11056.529    16.764426    19.746279     20.45256    6770.5136    12622.621    12178.825    8368.1408     2004.227   -1167.3352    712.73709   -2363.3638 
25722000    259.92169   -3921.4193   -3475.9224   -3921.4193            0    9829.3264    16.806981    19.796404    20.504478    6822.2046    9828.5783    9690.2186    9969.1823   -970.48562    843.61335    -1237.653    -2497.955 
25723000    238.79738   -3885.4584   -3476.1679   -3885.4584            0    10723.871    16.829085     19.82244    20.531445     6849.157    10182.068    10719.913    11269.632    36.915844   -819.62442      993.775   -2404.9826 
25724000     259.2518   -3899.5982   -3455.2495   -3899.5982            0    10313.091    16.810285    19.800295    20.508508    6826.2284    10383.393    11239.128    9316.7508   -303.91649   -169.72284   -1044.5665   -2428.5449 
25725000    252.31728   -3908.1036   -3475.6404   -3908.1036            0    10392.725    16.792492    19.779337    20.486801    6804.5751     11212.18    9724.5913    10241.404    -610.1765    858.24617   -138.36591   -2444.2898 
25726000     266.9901    -3904.038   -3446.4261    -3904.038            0    11061.353    16.803669    19.792502    20.500437    6818.1714    10629.738    11527.764    11026.556   -896.01953    178.14999     380.6528    -2346.529 
25727000    269.09293   -3845.9262   -3384.7101   -3845.9262            0     10591.55    16.800524    19.788798      20.4966    6814.3445    9126.8736    13260.187    9387.5911    1557.5187    762.01069    664.12514   -2332.1194 
25728000    257.86193   -3857.4606   -3415.4941   -3857.4606            0     8401.581    16.915284     19.92397    20.636607    6954.9414    8024.2581    7770.0188     9410.466    28.197458    1199.2394    1193.8289    -2563.316 
25729000    259.59902   -3867.5667   -3422.6229   -3867.5667            0      8670.63    16.838682    19.833743    20.543153    6860.8807    8234.5735    9357.0737    8420.2429    46.499059    755.73146    695.33529   -2555.0491 
25730000    260.78653   -3848.9623   -3401.9832   -3848.9623            0    8484.0659    16.857962    19.856453    20.566674    6884.4748    9407.2746    9349.3173    6695.6058   -582.04272    1286.8097   -1196.0891   -2550.1575 
25731000     262.0404   -3874.3314   -3425.2031   -3874.3314            0    12052.215    16.778334    19.762661    20.469528    6787.3789    11546.125    10988.155    13622.366   -3529.9612    843.92403    706.42584    -2232.191 
25732000    259.95887    -3895.329   -3449.7684    -3895.329            0    11026.524    16.843417    19.839321     20.54893    6866.6705    10830.669    11262.751    10986.152    343.44722    -384.5288   -212.08509   -2345.5354 
25733000    252.49726   -3898.2958   -3465.5242   -3898.2958            0    11270.287    16.857166    19.855514    20.565703    6883.4989    11553.282    11467.983    10789.597    85.176335   -381.06108   -234.25165   -2334.1139 
25734000    255.94208   -3839.9026   -3401.2266   -3839.9026            0    11360.496      16.8425    19.838241    20.547811    6865.5493    11991.956     9953.953    12135.578   -616.39686     298.9328   -666.49735   -2263.7344 
25735000     243.6544   -3873.2636   -3455.6483   -3873.2636            0    10008.896    16.810739     19.80083    20.509063    6826.7819    10020.127    10568.829    9437.7308   -47.122329    -308.4851    1775.5598   -2459.1465 
25736000    244.67539    -3874.369   -3455.0037    -3874.369            0    9506.4048    16.790188    19.776624     20.48399    6801.7751     8351.941    10842.683     9324.591    1013.2094    63.380755   -240.57319   -2511.9977 
25737000    251.28371   -3905.6335   -3474.9418   -3905.6335            0    9721.3493    16.867628    19.867838    20.578467    6896.3236    9454.8582     9133.858    10575.332    540.96358   -258.61174    293.33152   -2497.2093 
25738000    252.89009   -3883.8673   -3450.4224   -3883.8673            0    9145.4261    16.871692    19.872625    20.583425    6901.3097    9754.0035    7098.1694    10584.106   -664.84007    316.82396    751.22424   -2529.9488 
25739000    250.35166   -3890.2947   -3461.2005   -3890.2947            0    7894.0675    16.891386    19.895822    20.607452    6925.5051    7012.0847    7369.3424    9300.7755   -1673.0172   -55.834358   -712.91176   -2663.8887 
25740000    250.47412   -3890.9493   -3461.6452   -3890.9493            0    9983.4847    16.836876    19.831616    20.540949    6858.6731    13647.542    7129.9621    9172.9499   -274.41499    513.43799   -495.89721   -2463.0301 
25741000    246.78944   -3912.1474   -3489.1588   -3912.1474            0    12861.059    16.758014    19.738727    20.444738    6762.7483     14037.28    13245.512    11300.386   -425.80535   -459.90477   -853.86837   -2220.7015 
25742000    265.54345   -3915.4205   -3460.2882   -3915.4205            0    11887.553    16.806085    19.795349    20.503385    6821.1136    10257.947    14015.501    11389.212    1839.7181    213.30304    2.6452214   -2277.7269 
25743000    252.11648   -3880.0991   -3447.9801   -3880.0991            0    8178.2258    16.920427    19.930027    20.642881    6961.2865     7384.588    10368.032    6782.0577   -495.94723   -631.94026   -775.94568   -2617.7002 
25744000    249.77304   -3872.5505   -3444.4481   -3872.5505            0    11497.484    16.811691    19.801951    20.510224    6827.9415    9234.7146    10990.477     14267.26     1490.368   -1277.5477   -252.17817   -2299.5456 
25745000    254.02218   -3863.9978   -3428.6125   -3863.9978            0    12008.842    16.836266    19.830897    20.540205    6857.9281     10845.67    12119.416    13061.439   -1584.5585   -388.05268   -433.87399    -2227.538 
25746000    243.41818   -3895.7018   -3478.4914   -3895.7018            0     10171.74    16.819791    19.811492    20.520106    6837.8155    11567.325    9423.6568     9524.239   -379.05108   -284.25891   -1578.5432   -2464.1397 
25747000    251.54163   -3926.0717    -3494.938   -3926.0717            0    10145.232    16.849385     19.84635     20.55621    6873.9715    11701.995    11871.507    6862.1928   -438.97948   -1483.3348    850.38798   -2477.8803 
25748000    258.54546   -3892.8912   -3449.7531   -3892.8912            0    11985.728    16.744848    19.723219    20.428675    6746.8211    11976.295     11310.99    12669.899    2506.0092    -1048.871    123.79943   -2270.4118 
25749000    244.76684    -3919.259    -3499.737    -3919.259            0    11220.012    16.739983    19.717489    20.422741    6740.9431    12082.052    11813.228    9764.7554   -172.91597   -23.987855    2274.2462   -2396.7005 
25750000    259.22095   -3897.1227   -3452.8268   -3897.1227            0    9936.6914    16.831341    19.825097    20.534197    6851.9117     10680.67    8835.2493    10294.155   -249.31304   -134.93776   -565.91441   -2459.8721 
Loop time of 405.837 on 64 procs for 250000 steps with 864 atoms

Performance: 106.447 ns/day, 0.225 hours/ns, 616.011 timesteps/s
99.1% CPU use with 64 MPI tasks x 1 OpenMP threads

MPI task timing breakdown:
Section |  min time  |  avg time  |  max time  |%varavg| %total
---------------------------------------------------------------
Pair    | 22.289     | 27.471     | 31.92      |  47.0 |  6.77
Bond    | 0.26368    | 0.27985    | 0.28836    |   0.7 |  0.07
Kspace  | 168.21     | 178.64     | 191.79     |  37.0 | 44.02
Neigh   | 4.6121     | 5.4986     | 6.756      |  24.5 |  1.35
Comm    | 80.788     | 93.166     | 101.7      |  53.8 | 22.96
Output  | 1.4463     | 1.448      | 1.4567     |   0.1 |  0.36
Modify  | 93.404     | 95.135     | 96.802     |   8.6 | 23.44
Other   |            | 4.199      |            |       |  1.03

Nlocal:        13.5000 ave          18 max           9 min
Histogram: 3 4 7 7 11 9 9 7 6 1
Nghost:        2300.73 ave        2343 max        2273 min
Histogram: 2 8 13 11 9 11 2 4 2 2
Neighs:        4493.73 ave        6356 max        2597 min
Histogram: 3 5 1 11 13 10 9 5 4 3

Total # of neighbors = 287599
Ave neighs/atom = 332.86921
Ave special neighs/atom = 2.0000000
Neighbor list builds = 13149
Dangerous builds = 0

unfix		3
unfix		2
unfix		1

write_data	data.final.${pid}
write_data	data.final.0
System init for write_data ...
PPPM initialization ...
  extracting TIP4P info from pair style
  using 12-bit tables for long-range coulomb (../kspace.cpp:340)
  G vector (1/distance) = 0.37496127
  grid = 24 24 24
  stencil order = 5
  estimated absolute RMS force accuracy = 0.0030820854
  estimated relative force accuracy = 9.2816086e-06
  using double precision FFTW3
  3d grid and FFT values/proc = 2535 216
Last active /omp style is kspace_style pppm/tip4p/omp
WARNING: Not all mixed pair coeffs generated from mixing. Use write_data with 'pair ij' option to store all pair coeffs. (../write_data.cpp:312)

write_restart   restart.lmp.${pid}
write_restart   restart.lmp.0
System init for write_restart ...
PPPM initialization ...
  extracting TIP4P info from pair style
  using 12-bit tables for long-range coulomb (../kspace.cpp:340)
  G vector (1/distance) = 0.37496127
  grid = 24 24 24
  stencil order = 5
  estimated absolute RMS force accuracy = 0.0030820854
  estimated relative force accuracy = 9.2816086e-06
  using double precision FFTW3
  3d grid and FFT values/proc = 2535 216
Last active /omp style is kspace_style pppm/tip4p/omp
Total wall time: 0:06:47
