LAMMPS (30 Jul 2021)
  using 1 OpenMP thread(s) per MPI task
package omp 0
using multi-threaded neighbor list subroutines
echo both

include		in.partitions
variable        pid world 0
include		in.temp
variable        temperature equal 263.83
variable	tempDamp equal 100.0
include		in.pressure
variable        pressure equal 5750.0
variable        pressureDamp equal 1000.0 # This is 1 ps
include		in.seed
variable        seed world 745823

units		real
atom_style	full

read_restart	restart.lmp.${pid}
read_restart	restart.lmp.0
Reading restart file ...
  restart file = 30 Jul 2021, LAMMPS = 30 Jul 2021
  restoring atom style full from restart
  orthogonal box = (0.13309489 -0.069582836 0.055603513) to (19.866906 20.069584 20.644394)
  4 by 4 by 4 MPI processor grid
  restoring pair style lj/cut/tip4p/long/omp from restart
  restoring bond style harmonic/omp from restart
  restoring angle style harmonic/omp from restart
  972 atoms
  648 bonds
  324 angles
Finding 1-2 1-3 1-4 neighbors ...
  special bond factors lj:    0        0        0       
  special bond factors coul:  0        0        0       
     2 = max # of 1-2 neighbors
     1 = max # of 1-3 neighbors
     1 = max # of 1-4 neighbors
     2 = max # of special neighbors
  special bonds CPU = 2.021 seconds
  read_restart CPU = 2.332 seconds
include 	in.setup
variable	out_freq equal 1000
variable	out_freq2 equal 10000
variable	out_freq3 equal 1000

timestep	2.0

neigh_modify    delay 7 every 1

include		in.tip4p
# This is TIP4P/Ice

# create groups ###
group ox type 2
324 atoms in group ox
group hy type 1
648 atoms in group hy

# set charges - beside manually ###
set group ox charge -1.1794
Setting atom values ...
  324 settings made for charge
set group hy charge 0.5897
Setting atom values ...
  648 settings made for charge

# ### TIP3P Potential Parameters ###
pair_style lj/cut/tip4p/long/omp 2 1 1 1 0.1577 8.5
pair_coeff 1 1*2 0.000 0.000
pair_coeff 2 2 0.21084 3.1668
bond_style  harmonic
bond_coeff  1 450 0.9572
angle_style harmonic
angle_coeff 1 55 104.52
kspace_style pppm/tip4p/omp 1.0e-5
pair_modify tail yes

thermo          ${out_freq}
thermo          1000
thermo_style    custom step temp pe etotal epair emol press lx ly lz vol pxx pyy pzz pxy pxz pyz enthalpy

restart 	${out_freq3} restart.lmp.${pid} restart2.lmp.${pid}
restart 	1000 restart.lmp.${pid} restart2.lmp.${pid}
restart 	1000 restart.lmp.0 restart2.lmp.${pid}
restart 	1000 restart.lmp.0 restart2.lmp.0


include         in.dump
dump            myDump all atom ${out_freq2} dump.water.${pid}
dump            myDump all atom 10000 dump.water.${pid}
dump            myDump all atom 10000 dump.water.0
dump            myDump2 all dcd ${out_freq2} dump.dcd
dump            myDump2 all dcd 10000 dump.dcd
dump_modify     myDump append yes
dump_modify     myDump2 append yes


variable natoms 	equal  "count(all)"                        # NUMBER ATOMS
variable H      	equal  "enthalpy/v_natoms"                 # ENTHALPY-per-atom
variable Vol      	equal  "vol/v_natoms"                 # volume-per-atom
fix AVG all 		ave/time ${out_freq} 1 ${out_freq} v_Vol v_H file vol_enthalpy.dat
fix AVG all 		ave/time 1000 1 ${out_freq} v_Vol v_H file vol_enthalpy.dat
fix AVG all 		ave/time 1000 1 1000 v_Vol v_H file vol_enthalpy.dat


timer           timeout 02:55:00 every 1000
New timer settings: style=normal  mode=nosync  timeout=02:55:00

fix 		1 all shake 1e-6 200 0 b 1 a 1
       0 = # of size 2 clusters
       0 = # of size 3 clusters
       0 = # of size 4 clusters
     324 = # of frozen angles
  find clusters CPU = 1.563 seconds
fix             2 all nph aniso ${pressure} ${pressure} ${pressureDamp}
fix             2 all nph aniso 5750 ${pressure} ${pressureDamp}
fix             2 all nph aniso 5750 5750 ${pressureDamp}
fix             2 all nph aniso 5750 5750 1000
fix             3 all temp/csvr ${temperature} ${temperature} ${tempDamp} ${seed}
fix             3 all temp/csvr 263.83 ${temperature} ${tempDamp} ${seed}
fix             3 all temp/csvr 263.83 263.83 ${tempDamp} ${seed}
fix             3 all temp/csvr 263.83 263.83 100 ${seed}
fix             3 all temp/csvr 263.83 263.83 100 745823


run             250000
PPPM initialization ...
  extracting TIP4P info from pair style
  using 12-bit tables for long-range coulomb (../kspace.cpp:340)
  G vector (1/distance) = 0.37165726
  grid = 24 24 24
  stencil order = 5
  estimated absolute RMS force accuracy = 0.0035771726
  estimated relative force accuracy = 1.0772549e-05
  using double precision FFTW3
  3d grid and FFT values/proc = 2197 216
Last active /omp style is kspace_style pppm/tip4p/omp
Neighbor list info ...
  update every 1 steps, delay 7 steps, check yes
  max neighbors/atom: 2000, page size: 100000
  master list distance cutoff = 10.8154
  ghost atom cutoff = 10.8154
  binsize = 5.4077, bins = 4 4 4
  1 neighbor lists, perpetual/occasional/extra = 1 0 0
  (1) pair lj/cut/tip4p/long/omp, perpetual
      attributes: half, newton on, omp
      pair build: half/bin/newton/omp
      stencil: half/bin/3d
      bin: standard
Per MPI rank memory allocation (min/avg/max) = 9.222 | 9.224 | 9.226 Mbytes
Step Temp PotEng TotEng E_pair E_mol Press Lx Ly Lz Volume Pxx Pyy Pzz Pxy Pxz Pyz Enthalpy 
 7000000    267.73481   -4646.1952   -4129.8461   -4646.1952            0    6565.6089    19.733811    20.139167    20.588791    8182.4491    7961.5694    4762.5961    6972.6611    1183.9246    520.22417     1114.769   -3346.3547 
 7001000    261.23832   -4678.0075   -4174.1874   -4678.0075            0    6396.4587    19.760656    19.978571    20.694015    8169.7834     7584.932    6442.4705    5161.9737   -428.44775   -2.4641718    400.51823   -3412.0627 
 7002000    266.56997   -4686.5545   -4172.4519   -4686.5545            0    4121.3294    20.067387    20.075373    20.615752    8305.2678    2945.7767    4784.9334    4633.2781    63.858823      1949.88    331.37817   -3673.2607 
 7003000    273.09776   -4718.0577   -4191.3657   -4718.0577            0    4458.9861    19.977027    20.176996    20.560879    8287.6048    4616.9195    3761.1883    4998.8505   -47.724621    902.73699    313.55132   -3652.4249 
 7004000     261.7787   -4715.1859   -4210.3237   -4715.1859            0    4906.4551    19.890658    20.001009    20.746364    8253.5931    5167.7887    3521.1833    6030.3932   -375.04758     959.0601     -775.686   -3619.7328 
 7005000    265.20729   -4690.4007   -4178.9261   -4690.4007            0    7151.0452    19.949563    19.985456    20.746445    8271.6307    9280.5762    5706.2929    6466.2664    339.87825    1839.2023    -72.74746   -3316.2723 
 7006000    262.25298   -4656.5923   -4150.8153   -4656.5923            0    5917.0807    20.129897    19.811266    20.667915    8242.3387    3505.7387    8509.4199    5736.0835   -431.95057   -576.62287   -1147.5985   -3439.5464 
 7007000     271.1312   -4688.3473    -4165.448   -4688.3473            0    6609.4003    20.093378    20.084637    20.429733     8244.791    5278.4259    7209.2101     7340.565    -68.52173    453.08899     1992.933   -3370.7216 
 7008000    261.36775   -4678.4808   -4174.4111   -4678.4808            0    6161.9034    19.931733    20.187198    20.645793    8307.1617     7781.128    5032.0556    5672.5265    181.44353   -406.46337    431.29235   -3427.8877 
 7009000    280.44417   -4684.3856   -4143.5254   -4684.3856            0    5707.1647    19.861992    19.949754     20.84197    8258.4608    6741.8312     5366.912     5012.751   -43.646319   -692.53784    1399.7511   -3456.1478 
 7010000     263.2515   -4661.3243   -4153.6216   -4661.3243            0    5460.7211    19.832999    20.110924    20.800235    8296.3804    4012.8122     7975.754    4393.5972    70.260243    769.16375   -476.72524    -3492.906 
 7011000    260.72358   -4685.3525   -4182.5251   -4685.3525            0    5987.3527    20.107948    19.884955    20.742018    8293.6056    5424.9021    7057.5805    5479.5754    11.813699    1262.0148    202.87412   -3458.3325 
 7012000    285.08158   -4678.5647   -4128.7609   -4678.5647            0    5004.3256    19.987916    20.149972    20.599742    8296.6684    5582.1901     3495.083    5935.7038    374.08403   -309.65491    76.298097   -3523.2455 
 7013000    275.88916   -4667.6692   -4135.5938   -4667.6692            0     4454.595    20.133081    19.989337    20.497376    8249.1063     4657.004    3909.6551     4797.126   -79.492301   -102.72303    1585.7502   -3599.6848 
 7014000    269.45438   -4704.0317   -4184.3662   -4704.0317            0    5271.1955    19.878604    20.122303    20.703906    8281.6303    5796.7649    5186.1258    4830.6958    341.32898    -1656.048    1699.0274   -3547.7161 
 7015000    265.17537   -4691.3599   -4179.9469   -4691.3599            0    5274.9335     20.14841    19.852055    20.768343    8307.0742    4884.5273    7153.1893    3787.0837   -615.81734    1168.6199    599.23036   -3540.8879 
 7016000     251.9763     -4651.48   -4165.5225     -4651.48            0      7116.52    20.044889     20.07574    20.447986    8228.5961    6383.6003    7569.2375    7396.7222    352.28407    169.72669    1057.7834      -3311.5 
 7017000    266.75364   -4691.4361   -4176.9793   -4691.4361            0    5900.6165    19.962025    20.116515    20.622567    8281.3295    5852.2167    6142.6952    5706.9376    422.67294   -369.77714    270.42178   -3464.3341 
 7018000    257.95351   -4708.5702   -4211.0851   -4708.5702            0    4281.3662    19.933257    19.877053    20.892911    8278.0725    3680.1151    5555.1086     3608.875    55.369578   -388.78605    579.29283   -3694.2078 
 7019000    259.02674    -4684.756   -4185.2011    -4684.756            0    4596.1864    19.969316    20.040252    20.726872    8294.6895     2926.736    5793.2992    5068.5239   -751.85203   -521.01119   -18.603576   -3629.2026 
 7020000    261.66824   -4686.7612    -4182.112   -4686.7612            0    5586.3814    19.974811    20.112624    20.565422    8262.0732    6436.8737    4517.4064    5804.8642    268.85353   -497.74561    1750.9005   -3508.9873 
 7021000    264.35948   -4707.2893   -4197.4498   -4707.2893            0    5679.7714    19.855177    19.969534    20.666862    8194.3823    5374.5992    5486.0088    6178.7062   -901.77267    72.832053    4.6535242   -3518.6793 
 7022000    266.88565   -4681.2562   -4166.5448   -4681.2562            0    4127.9216    20.089212    19.900896    20.701814    8276.4468     4178.697    3492.8184    4712.2492    602.94933    377.35768     327.5224   -3668.2903 
 7023000    255.23026   -4692.4767   -4200.2437   -4692.4767            0    4833.7987    19.788731    20.025945    20.880053    8274.5152    5097.4219    4978.6911     4425.283    98.860332   -861.69674    553.22807   -3616.9235 
 7024000    272.61187   -4656.0666   -4130.3117   -4656.0666            0    4451.7521    20.226938    19.936468    20.610572    8311.2895    3558.4575    5406.7643    4390.0346    223.57177    560.00023    361.00886   -3590.7076 
 7025000    271.48581    -4664.034   -4140.4508    -4664.034            0     6454.858    19.763871    20.270641    20.590729    8249.1883     6469.442    5378.2189    7516.9132    460.45981    874.48071    223.05233   -3363.8929 
 7026000    267.23227   -4663.5615   -4148.1816   -4663.5615            0    5852.6072    19.945845    19.937683    20.706459    8234.4192    6317.4096    6495.5009    4744.9111    -235.2595   -1117.5445   -307.02205   -3445.3388 
 7027000    274.75023   -4664.6042   -4134.7253   -4664.6042            0    7112.8373    19.901439     19.88682    20.681225    8185.1392    5579.0919    8583.9537    7175.4662    269.78379    227.38394     135.3299   -3285.6527 
 7028000    265.23327   -4702.7779   -4191.2533   -4702.7779            0    6152.2261    19.947205    19.964994    20.685706    8237.9962    6131.2719    6046.6156    6278.7908    208.57701    265.65307   -847.30875   -3452.1081 
 7029000    253.64992   -4661.5439   -4172.3587   -4661.5439            0    4744.2004     20.15887    20.023636    20.613812    8320.8448    3803.4227    6641.9042    3787.2743    691.87348   -453.82911    706.30676   -3596.6453 
 7030000    266.01258   -4667.1568   -4154.1292   -4667.1568            0    4867.5473    20.083086    19.918936    20.764034    8306.3139    3302.8202    6543.9099    4755.9117   -291.96497   -434.10212    495.40282    -3564.479 
 7031000    275.04178   -4671.4772    -4141.036   -4671.4772            0    4592.0249    19.996009    20.078332    20.649445     8290.473    6009.1115    2786.2082     4980.755    156.91072    1688.0471   -432.03959   -3585.8232 
 7032000    262.10094   -4659.5457    -4154.062   -4659.5457            0    7010.8459    20.065065     19.94046    20.563606    8227.6354    7236.7786     7069.879      6725.88    172.89181   -1507.0121    317.82048   -3312.8192 
 7033000    254.99784   -4655.5984   -4163.8136   -4655.5984            0    5582.2307    20.005165    20.072992    20.568474    8259.5486    6828.1311    4281.3152    5637.2457     702.0454    205.26428    460.16316   -3491.3946 
 7034000    264.34746    -4707.319   -4197.5027    -4707.319            0    6563.4618    20.139255     19.80252    20.661249    8239.8716    5716.7916    8104.5245    5869.0693    399.84532   -663.83494    1078.3655    -3408.771 
 7035000    248.81567   -4704.8377   -4224.9757   -4704.8377            0    4364.0295    19.954336    20.232228    20.535666     8290.673    4277.4387    4641.7749    4172.8749   -538.95804    750.34769    288.94675   -3697.3167 
 7036000    256.81081   -4698.7745   -4203.4933   -4698.7745            0    7514.3135    19.897373     20.04974    20.551275    8198.6673    8944.6313    6901.5782    6696.7309    120.49787   -705.22918   -875.55148   -3305.0132 
 7037000    271.84497   -4700.5328   -4176.2569   -4700.5328            0    5417.0587    20.064998    19.762643     20.88173    8280.3865    3879.0478    7354.6065    5017.5219   -66.602112    1389.4876   -1803.3311   -3522.0878 
 7038000    270.05999   -4687.6207   -4166.7873   -4687.6207            0    5670.8934    20.011701    20.069897    20.680387    8305.9215    5974.6559     5167.847    5870.1774   -271.89051    538.69539   -1129.0056    -3479.853 
 7039000     262.5187   -4707.2635   -4200.9741   -4707.2635            0    4813.1595    19.872793    20.203027    20.528541    8242.0158    5241.7377    3908.7414    5288.9995   -319.37745    494.33899    1298.3108   -3622.4258 
 7040000    254.90684   -4674.6384   -4183.0291   -4674.6384            0    5142.6265     20.15119    20.048251    20.605338    8324.4765    4702.1534    5787.3826    4938.3434    412.99396     1350.597    822.46038   -3558.6939 
 7041000    263.60211   -4679.4162   -4171.0373   -4679.4162            0    6229.9245    19.877827    20.018293    20.848041    8295.8559    7702.0248    5203.6499    5784.0987    254.43166     58.10685   -15.321524   -3417.3003 
 7042000     263.5835   -4690.2665   -4181.9236   -4690.2665            0     6606.684    20.005507    19.862063    20.697549    8224.1847    7520.7419    6972.4396    5326.8706   -219.69247     280.8573    497.82105   -3389.5093 
 7043000    281.63022   -4703.6472   -4160.4996   -4703.6472            0    5234.7288    19.975718    20.127735    20.634436    8296.4042    4871.6334    5610.5557    5221.9973   -662.89617    749.83715   -628.88998    -3527.126 
 7044000    270.40172   -4724.6221   -4203.1297   -4724.6221            0    7777.3022    19.752253    20.160948    20.541539    8180.1368    6982.0603    8756.4252    7593.4211   -1192.8521      75.8369   -1545.3729    -3275.306 
 7045000    259.35224   -4713.5813   -4213.3987   -4713.5813            0     5747.816    19.894601    20.029778    20.614859    8214.7004    5062.1668    6351.5457    5829.7356    -134.3013    99.786718   -62.469356   -3524.7932 
 7046000    260.87522   -4698.0304   -4194.9106   -4698.0304            0    6333.5856    19.751511    19.989855    20.838877    8227.8105    6357.1217    6622.3925    6021.2427    577.27639   -443.72753     44.70195   -3434.9172 
 7047000    273.12299   -4710.0697   -4183.3291   -4710.0697            0    5403.4744    19.981558    20.039708    20.640738     8265.059    5000.0494    5433.6412    5776.7327   -482.55663     662.4394    946.38845   -3532.0083 
 7048000    255.65714   -4703.0908   -4210.0345   -4703.0908            0    4730.0263    20.039462    20.211989    20.440735    8279.2615    5085.0788    4529.5986    4575.4016     466.6366   -462.19308    1337.2218   -3638.9097 
 7049000     270.7695   -4684.9339   -4162.7321   -4684.9339            0    4901.7804    20.080705    20.088877    20.568395    8297.2662    5143.8042    3851.1522    5710.3849   -517.22815   -959.03032    300.04931   -3569.5818 
 7050000    263.88182   -4710.7632   -4201.8449   -4710.7632            0    4588.7324    19.996352    19.848641    20.801216    8256.0113     5281.661    4547.1597    3937.3766     9.446515    235.02905   -1270.5505   -3649.3364 
 7051000    285.52706   -4654.7879   -4104.1249   -4654.7879            0    5536.5193    19.970381    20.055025     20.69767    8289.5515    7160.1931    5950.6789    3498.6859   -511.57494   -1532.3581    658.54946   -3434.7896 
 7052000    258.29352   -4698.3655   -4200.2247   -4698.3655            0    6733.7747    20.181706    19.808053     20.62356    8244.4804    5154.1418    8408.5423    6638.6401   -410.33139    2042.9073    301.10566   -3390.5739 
 7053000    257.47539   -4713.9612   -4217.3983   -4713.9612            0    5421.4577    19.979613    20.021869    20.695071    8278.6325    6474.4538    5376.5214    4413.3978   -302.50772    957.58109    778.27948   -3562.8366 
 7054000    276.86001    -4676.501   -4142.5532    -4676.501            0    5821.7579    20.226126    20.253194    20.143605       8251.7    6714.3133    2859.0197    7891.9406   -925.10232    1698.0982   -991.32692   -3441.9478 
 7055000    263.71299   -4672.7402   -4164.1475   -4672.7402            0    7412.0631    20.178457     19.76694    20.486958    8171.5582    7117.8247    6837.8969    8280.4677   -486.34606    1137.9711    200.73575   -3280.8238 
 7056000    277.87839   -4662.2174   -4126.3056   -4662.2174            0    6611.1346    20.144466    19.943256    20.543213    8253.1586    5122.5102    7529.5717     7181.322   -169.63709    737.51542    376.03574    -3330.564 
 7057000    245.90423   -4680.7336   -4206.4867   -4680.7336            0    5335.0051    19.828335    20.000864    20.846382    8267.3379     7394.087    4014.7798    4596.1484     244.1343     703.9346    -700.8668   -3563.2417 
 7058000     258.3088   -4670.2453    -4172.075   -4670.2453            0    5685.5512    20.124263     19.91987    20.726125    8308.5379    5727.6681     5505.076    5823.9095     115.1449    717.50046   -267.55323   -3483.1482 
 7059000    253.58922   -4679.4526   -4190.3845   -4679.4526            0    4869.0831    20.254759    20.223955    20.394057    8354.0447    4437.0082    4857.8452    5312.3958    693.32389   -780.72749   -1221.0512   -3597.1589 
 7060000    260.00386    -4677.744   -4176.3047    -4677.744            0    6319.7319    20.118312     19.81207    20.663703    8236.2506    6863.8763    5665.5059    6429.8135     834.8394    494.74685   -853.89174   -3417.1958 
 7061000    271.58923   -4688.8742   -4165.0915   -4688.8742            0    6675.2315    19.984424    20.013034    20.605403    8241.1096      7995.16    6039.2056    5991.3289   -952.30318   -323.28273   -375.59334   -3362.8079 
 7062000    276.43376   -4668.1553   -4135.0295   -4668.1553            0    4996.6874     20.08368    20.039352    20.612332    8295.7203    4949.4431    4570.7648    5469.8542     699.7983   -913.67388   -624.63906   -3530.5075 
 7063000    272.42896   -4670.3013   -4144.8992   -4670.3013            0     6543.628    20.085824     19.99631    20.556474    8256.3508    6299.7283    6639.5014    6691.6543    221.25087   -1133.1745    820.42022   -3356.9783 
 7064000    259.15058   -4673.6432   -4173.8495   -4673.6432            0    6967.9265    20.047275    19.851324    20.654562     8219.792    6577.4101     7010.949    7315.4205    134.84985    774.53875    1092.4357   -3338.5537 
 7065000    263.26891   -4697.3198   -4189.5836   -4697.3198            0    6317.6604    19.727021     20.24263    20.692055    8262.8919    10937.446    2356.0776    5659.4581    979.10207    1866.8237    545.57647   -3428.2688 
 7066000       282.27   -4672.2594    -4127.878   -4672.2594            0     6028.928    19.889852    19.923531    20.793315    8239.8938    6296.6623    6105.4527     5684.669    -83.98906   -1489.4656   -709.78356   -3403.3793 
 7067000    255.60963   -4690.9035   -4197.9388   -4690.9035            0    4800.9066    20.125138    19.849785    20.773545    8298.6088    4785.0816    6632.7686    2984.8696    189.97881    198.05536    125.60059   -3616.9009 
 7068000    256.73485   -4670.0334   -4174.8987   -4670.0334            0    6415.8386    19.882763    20.057622    20.779249    8286.7844    6997.1908    5408.5425    6841.7823    682.02347   -479.08058   -861.03654   -3399.5173 
 7069000    260.44594   -4708.5207   -4206.2288   -4708.5207            0    5420.9956    20.189485    19.980309    20.523897    8279.1789    4439.9012     5869.998    5953.0876    7.6843524   -569.24665    236.89582   -3551.6797 
 7070000    270.09979   -4681.8033   -4160.8932   -4681.8033            0     6578.169    20.013223    20.164485    20.343421    8209.7169    6281.9227    5410.5807    8042.0037   -425.55825    930.85567    1515.4351    -3373.287 
 7071000    261.19904   -4670.6795   -4166.9352   -4670.6795            0    5900.0391    20.133879    19.963529    20.603823    8281.5681    4620.4302    7745.7773    5333.9097    225.45231   -1969.0829   -844.66481   -3454.3392 
 7072000    292.04618   -4665.5596    -4102.324   -4665.5596            0    4867.8505    19.872254    20.136814    20.622107    8252.2223    6345.3382    4060.5078    4197.7054   -541.63892    1225.9316   -0.2229096   -3516.4772 
 7073000    256.15579   -4716.0426   -4222.0246   -4716.0426            0    6720.0966    19.824714    20.033705    20.834951    8274.8607    8688.1589    5879.8248    5592.3062    267.72706    95.026151    1353.8953    -3411.041 
 7074000     264.3514   -4712.1853   -4202.3614   -4712.1853            0    5536.5946    19.944791    19.901841    20.724462    8226.3276    5312.9852    6500.5027    4796.2959   -296.93007   -46.159179   -1528.7269    -3538.122 
 7075000    263.56959   -4693.2193   -4184.9032   -4693.2193            0    5384.4005    19.960157    20.287761    20.379037    8252.4278    7282.8825    2651.0655    6219.2533   -414.17625    69.778675   -908.80913   -3536.8734 
 7076000    266.42049    -4680.922   -4167.1077    -4680.922            0    6345.1479    19.829726    20.016422    20.498869    8136.4147    6611.1167     6039.889    6384.4381   -666.88105    893.09388    1381.8578   -3414.1844 
 7077000    254.67101   -4715.5061   -4224.3516   -4715.5061            0    5813.3382    19.948038    19.982718    20.689693     8247.243     5297.736    8038.4618    4103.8166    162.91675    364.53014   -1013.1341   -3525.1373 
 7078000    271.33683   -4659.2655   -4135.9696   -4659.2655            0    6249.2147    19.736654    19.907737    20.895651    8210.1545    8089.9726    5205.3753    5452.2962    347.36314    794.53477   -1181.7838   -3387.7094 
 7079000    261.69263    -4692.682   -4187.9858    -4692.682            0    6374.5442    19.983293    19.839914    20.659664     8190.871    4106.8506    8846.2794    6170.5026    1030.2525     883.3128    720.89213   -3426.5117 
 7080000    274.87103   -4667.2287   -4137.1168   -4667.2287            0    7193.6256    20.249597    19.918315    20.241166    8164.0283    6694.7536    6880.4331    8005.6902   -81.293459   -901.42246   -589.67511   -3280.6151 
 7081000     271.4043    -4688.383    -4164.957    -4688.383            0    6212.1726    20.088416    20.026071    20.496595     8245.617    5596.8765       7233.4    5806.2413    228.08398    1444.8966    -578.0097   -3417.9193 
 7082000    253.74476   -4684.1537   -4194.7856   -4684.1537            0    5530.5003    20.108483    20.072034    20.375255    8223.8226    5636.0586    4980.3721    5975.0702    585.76177    -1456.582    267.53085   -3531.4795 
 7083000    273.58862   -4671.3353   -4143.6967   -4671.3353            0    6167.4163    19.901741    19.939049    20.696764    8212.9266    7403.2153    5504.8843    5594.1492   -125.29257    539.14121    437.73151   -3404.9814 
 7084000    266.28653   -4636.6874   -4123.1314   -4636.6874            0    6927.9142    20.060169    19.931003    20.592274    8233.1883    6570.2114    6769.9674    7443.5638    82.185151    485.31383   -1199.3649   -3291.2787 
 7085000    259.34733   -4702.1719   -4201.9987   -4702.1719            0    5050.4724    20.072095     20.19321    20.596711    8348.2597    5008.2909    4401.9451    5741.1811   -273.94623    1152.3885    489.26301   -3587.0996 
 7086000    250.33773   -4670.4797   -4187.6823   -4670.4797            0    6341.4259    20.039744    20.064344    20.435455    8216.7761    5198.8737    8292.5733    5532.8308   -188.77487    547.84885   -2585.1664   -3427.7686 
 7087000     266.1845   -4708.6706   -4195.3114   -4708.6706            0    4415.8793    20.034314    20.094878    20.613735    8298.8236    4854.0206    3409.7983     4983.819   -292.12943    256.32728    1298.9068   -3660.8582 
 7088000    267.88955   -4681.8111   -4165.1636   -4681.8111            0    6339.7252    19.752221    19.933895    20.757981    8173.2203    8026.1251    5605.2833    5387.7671   -246.78076    988.68499    368.75999   -3409.4808 
 7089000    244.77264   -4695.6451   -4223.5804   -4695.6451            0    6050.2403    20.043843     19.95423    20.557865    8222.3126    5439.1215    6978.6993       5732.9   -732.91702   -501.23182   -779.94067    -3498.072 
 7090000     256.8257   -4681.2795   -4185.9696   -4681.2795            0    6091.0817    20.014855    20.238743    20.415007    8269.6195    6662.0561    5420.8334    6190.3554    800.49768   -714.18085   -1167.9208   -3451.3613 
 7091000     260.3782   -4696.7589   -4194.5976   -4696.7589            0    4407.1637    20.193301    19.843429    20.747992    8313.8104    3053.0803    5564.1904    4604.2205    50.712231   -167.13252    -942.1732   -3660.2361 
 7092000    269.58832   -4697.9274   -4178.0037   -4697.9274            0    5485.4086    19.771422    19.672118     21.11976    8214.4407    5123.0749    7329.4573    4003.6935    244.99681    70.620051    786.71158   -3520.8562 
 7093000     259.0414   -4642.3908   -4142.8077   -4642.3908            0    8436.4678    19.951161     19.94786    20.600184    8198.5223    10541.473    5550.5153    9217.4145   -326.11252   -295.06739   -1097.8008   -3134.0842 
 7094000    265.55096   -4683.8293   -4171.6919   -4683.8293            0    5563.1207    19.869281    20.192749       20.581    8257.4141    5307.2432    6711.7385    4670.3804   -244.89852   -5.0844125   -1188.1128    -3501.748 
 7095000    266.07368   -4734.1848   -4221.0394   -4734.1848            0    4365.3992    20.126161    19.918767    20.631149    8270.7866    2994.9541    6436.1795    3665.0639    111.28032   -425.15348   -687.03206   -3694.4808 
 7096000    269.79591   -4684.7623   -4164.4382   -4684.7623            0    6170.1081     19.65266    20.042718    21.051025    8291.8452    7349.6577    6292.1557     4868.511    177.90219     506.4841    408.07889    -3418.299 
 7097000    265.90176   -4691.8787   -4179.0648   -4691.8787            0    5232.3053    19.990241    20.103269    20.580829    8270.8007    5979.4496    4935.2961    4782.1703   -440.22152    1343.1133    74.734042   -3547.9381 
 7098000    270.50888   -4683.8516   -4162.1525   -4683.8516            0    7318.0975    19.853983    20.221218    20.287347    8144.7963    7920.4047    6416.7752    7617.1125   -320.72631    -144.7815   -1164.2524   -3292.8833 
 7099000    260.67927   -4676.6589    -4173.917   -4676.6589            0    6177.3793     19.87461    20.005683    20.619109    8198.2636    7215.9345    6597.1806    4719.0228    597.54811    1738.5294   -294.42027   -3435.3294 
 7100000    263.67022   -4677.6314   -4169.1212   -4677.6314            0    7331.8962    20.076658    19.768416    20.714067    8221.0759     5381.929    8642.6072    7971.1524   -346.75338    290.30075    298.89782   -3290.0565 
 7101000    253.63173   -4704.1609   -4215.0107   -4704.1609            0     7151.843    19.850306    19.973843    20.549164    8147.4743    8113.8634    5738.5554    7603.1103    602.24091    354.77718    1750.2638   -3365.2105 
 7102000    256.51565    -4671.018    -4176.306    -4671.018            0    4927.7961    19.941732    20.146669    20.496962    8234.8484    5051.8238    3965.9518    5765.6127   -287.66195    170.22331    1073.7703   -3584.4934 
 7103000    267.61243   -4676.0354   -4159.9223   -4676.0354            0    4654.0851     20.17285    20.001891    20.545441    8289.9858      4733.68     4014.658    5213.9174   -204.39377   -1536.2086   -76.468012   -3597.2391 
 7104000    271.91229   -4693.7632   -4169.3575   -4693.7632            0    4714.4688    19.875921    19.940202     20.87729    8274.2938    5139.4521    5078.7515    3925.2027    543.10255    698.28312    -909.2863   -3600.4527 
 7105000    271.04331   -4651.1991   -4128.4693   -4651.1991            0    4678.4177    20.086702    20.104751    20.618746    8326.6358    4259.4344    4909.2738     4866.545    423.19775    586.02048     417.3142   -3560.3435 
 7106000    254.41069   -4701.8669   -4211.2144   -4701.8669            0    4057.1581    20.103019    20.216871     20.50457    8333.4698    3986.1986    3151.6157    5033.6599     19.57613    1237.4498    1798.5084   -3718.1273 
 7107000     273.2838   -4696.2694   -4169.2186   -4696.2694            0    5505.2819    19.839463    19.894503    20.923041    8258.2462    6082.5685    6401.2377    4032.0395      308.515   -288.83328   -1141.2053   -3506.1732 
 7108000     274.5327   -4683.8049   -4154.3455   -4683.8049            0    5125.5127    19.955314    19.974499    20.740774    8267.2189    4139.4687    6017.9333    5219.1361     37.52573    212.00656    372.08751    -3536.368 
 7109000    265.93801   -4686.3081   -4173.4243   -4686.3081            0      5758.71     20.01621     20.15005    20.536343    8282.8749    5077.3974    7231.5405    4967.1921    678.79974    467.51238    -542.0501   -3477.7881 
 7110000    268.83489   -4666.7912   -4148.3205   -4666.7912            0    5590.8651    20.273052    20.024681    20.452013    8302.7278    5216.5497     4809.518    6746.5276    218.08327     355.9262   -539.61075   -3471.3408 
 7111000    272.10449   -4671.5157   -4146.7393   -4671.5157            0    4187.2003    20.028847    20.017769    20.755569     8321.589     4557.687    4411.3537    3592.5602    310.63933   -27.282332    1703.8135    -3638.573 
 7112000    272.50447   -4675.0299   -4149.4821   -4675.0299            0    9113.2663    20.005063    19.839335     20.43313    8109.6465    6904.9509    10099.932    10334.916     36.85958   -779.77231   -901.59057   -3071.6481 
 7113000    248.21762   -4686.3282   -4207.6196   -4686.3282            0     6546.297    19.989827    20.163072    20.517853    8269.8499    5286.5558    8412.8009    5939.5344   -402.33595   -1097.1872    378.91005   -3418.0885 
 7114000    262.85965   -4663.2407   -4156.2937   -4663.2407            0    4479.3918    20.209141    20.203711    20.316328    8295.1494    4659.5768    2948.5215    5830.0771   -251.14134    1276.3256   -699.77976   -3614.3937 
 7115000    256.48131   -4675.0095   -4180.3637   -4675.0095            0    6691.3987     19.89749    19.991425    20.686646    8228.7171    6941.5051    5858.7809      7273.91   -506.06512   -283.65576   -571.08764   -3377.3463 
 7116000    252.95838   -4689.6021   -4201.7506   -4689.6021            0    6219.2259     19.68582    20.077554    21.000965    8300.4869    7055.5619    6547.2761    5054.8397    307.51755     1737.242   -381.52777   -3448.8879 
 7117000    261.12945   -4716.2242   -4212.6141   -4716.2242            0    6496.2431    19.912101    20.081216    20.630561    8249.3194    7063.7098     6639.856    5785.1636   -639.78501    513.16128   -355.90941    -3431.065 
 7118000    255.93203   -4689.3401   -4195.7536   -4689.3401            0    6722.1671    20.138924     19.97676    20.453095    8228.4941    8009.7939    6837.9126    5318.7947     -625.881   -660.96993   -1263.0995   -3389.0657 
 7119000     260.3713   -4704.4087   -4202.2608   -4704.4087            0    7152.6859    19.878222    20.031612    20.616969     8209.529    9180.0314    5633.5429    6644.4836   -182.30369   -1089.6018    108.27714   -3345.8872 
 7120000    265.21528   -4685.9312   -4174.4413   -4685.9312            0    3558.7027    20.001409    19.953427    20.867677    8328.2201    3109.1544    3935.6122    3631.3415    -141.2155    973.67908    -364.5541   -3742.2064 
 7121000     259.6474   -4716.5863   -4215.8344   -4716.5863            0     4945.173    20.118439    19.941796     20.76724    8331.7711     5416.529    4410.9111    5008.0787   -199.66323   -852.05655   -1859.7472   -3614.9448 
 7122000    260.78809   -4651.4512   -4148.4995   -4651.4512            0    4181.2619    19.942553     20.08646    20.762911    8317.1091    3722.0161    4862.5751    3959.1944     146.8912   -217.08951   -662.48453    -3641.327 
 7123000    267.27556   -4680.6249   -4165.1615   -4680.6249            0    4886.0786    19.970512    19.962804    20.679563    8244.2675    1814.9145     6849.548    5993.7734   -219.77372    395.75947    272.34567   -3577.6879 
 7124000    277.36232   -4697.9942   -4163.0776   -4697.9942            0    6850.0254    19.933071    20.100045    20.550027    8233.4837    7387.4332    5966.5832    7196.0598   -45.028808    1416.7346   -1604.2374   -3340.5477 
 7125000     271.4413   -4677.0397   -4153.5423   -4677.0397            0    5288.8674    20.047817    20.127948    20.693836    8350.4056    4766.9228     4844.468    6255.2115   -169.98603    517.18136    491.87409   -3509.4529 
 7126000    255.18764    -4693.926   -4201.7751    -4693.926            0     6295.665    20.164174    19.806407       20.667    8253.9826    7217.8744    5445.0518    6224.0688   -202.23478   -729.57667   -1354.7189    -3443.929 
 7127000    266.43564   -4685.6818   -4171.8383   -4685.6818            0    5991.0005    19.688025    20.310087    20.684417    8270.9847    7831.4794    5111.5479    5029.9742    5.7099819    870.19394   -143.32723   -3449.1808 
 7128000    263.19742   -4692.9293   -4185.3309   -4692.9293            0     4762.994     20.08534    19.968313    20.633114    8275.3307    3565.4384    6468.3602    4255.1833    33.388824    406.08005   -998.92538   -3610.4985 
 7129000    278.85223   -4674.3216   -4136.5316   -4674.3216            0    3620.2031    20.011445     20.32954    20.615673    8386.9395    5818.4499    839.04674    4203.1128   -24.366576    477.01478    590.62129   -3693.7268 
 7130000    247.22222   -4694.3971   -4217.6083   -4694.3971            0    6851.7563    19.966649    19.940761    20.540964    8178.3883    5381.4089    8722.4725    6451.3876   -188.06067    148.71088    1444.8206    -3400.376 
 7131000    252.79438   -4697.6538   -4210.1186   -4697.6538            0     7301.033    19.954756    19.897353    20.625368    8189.2369    8629.9814    6593.8344     6679.283    218.79707    78.363686    1207.4135   -3338.1444 
 7132000    270.96854   -4659.4665   -4136.8809   -4659.4665            0    6789.7786    19.903295    20.018613    20.544787    8185.7904    8557.7862    6539.4959    5272.0537   -653.16137   -469.50469   -1357.6053   -3326.3079 
 7133000    269.26662   -4672.8377   -4153.5344   -4672.8377            0    5450.3717    19.985044    20.232762    20.600428    8329.8376    7591.4248    2564.9214    6194.7688    86.607704    -363.7473    191.04151   -3491.4116 
 7134000    259.27567    -4704.196    -4204.161    -4704.196            0     5819.833    20.157865     19.82288    20.693185    8268.7267    7217.4779    6083.5737    4158.4474   -83.338645   -447.13826   -999.21647   -3502.3421 
 7135000    264.85063   -4692.3282   -4181.5414   -4692.3282            0    6978.8384    19.881867    20.057523    20.586508    8209.5082    5949.1212     6930.659    8056.7349    -1102.796    41.597383   -623.41582   -3345.9843 
 7136000    271.16271   -4681.5904   -4158.6303   -4681.5904            0    7465.1836     20.00483    20.214878    20.305392    8211.4029    7006.6437    6027.0117    9361.8955    987.02274    265.64957   -569.96727   -3264.6381 
 7137000    257.59194   -4692.8078   -4196.0201   -4692.8078            0    5729.2898      20.1669    20.023879    20.411403    8242.5241    5736.8654    5433.5604    6017.4435   -300.03097   -834.86001   -184.98955   -3507.3093 
 7138000    264.37108   -4696.7088    -4186.847   -4696.7088            0    6916.1567    19.856683    19.916195    20.703094    8187.4437    6121.0378     8139.737    6487.6953   -166.48751   -1457.3273   -2060.2884     -3361.02 
 7139000    250.55932   -4706.6039   -4223.3792   -4706.6039            0    4644.9765     19.99784    19.907628    20.894517    8318.3069    4966.3939    5338.4781    3630.0575    527.42021   -456.14662   -581.44298   -3659.8786 
 7140000    276.91885   -4691.9588   -4157.8975   -4691.9588            0     5457.816    20.027922    19.967023    20.611988    8242.6923    4532.3868    6522.7033     5318.358   -448.72085    1106.1627    380.18978   -3501.8068 
 7141000    249.16628   -4669.6551    -4189.117   -4669.6551            0    4413.4975    20.053792     20.29258    20.536115     8357.032    6217.7299    2000.1083    5022.6544    143.17847    458.25798   -171.49457   -3651.2054 
 7142000    259.82864   -4668.6525   -4167.5511   -4668.6525            0    5929.7146    20.030784    19.912145    20.550589    8196.7228    4788.8944    5958.3928    7041.8568    109.03311    706.37581   -529.56604   -3458.7083 
 7143000     265.4152   -4701.9065    -4190.031   -4701.9065            0    4844.8572    19.674662    20.318004    20.859097    8338.4211    5683.2497    4522.8773    4328.4447    23.715267    877.17444   -1049.4768   -3600.8609 
 7144000    266.56911   -4688.0284   -4173.9275   -4688.0284            0    5590.4588    20.088832    19.868001    20.733907    8275.4192    5789.2375    4802.9267    6179.2121   -213.18492    1088.9647   -316.18577   -3499.2234 
 7145000     256.6893   -4669.4253   -4174.3784   -4669.4253            0    5675.8332    19.870988    19.957191    20.869576    8276.2288    5725.8862    6231.9888    5069.6247   -209.23533    1270.8916    231.18642   -3489.3036 
 7146000    257.50402   -4697.8869   -4201.2687   -4697.8869            0    6423.2249    19.913397    20.126795    20.594659    8254.1927    6546.6326    5818.0261    6905.0159   -305.26974   -312.43766   -1455.4928   -3428.0478 
 7147000    256.55925   -4708.5517   -4213.7556   -4708.5517            0    4511.0441    20.263354    20.111503    20.392629    8310.5367    2840.8265    4382.4049    6309.9009    115.31945    485.48071    811.38334   -3667.0141 
 7148000     254.5773   -4696.2251   -4205.2514   -4696.2251            0    5074.5455    19.915539    20.002226    20.722969    8255.1009     5412.064    5607.0386    4204.5338    70.526393   -712.42962   -1040.5138   -3594.3158 
 7149000    278.97313   -4701.3036   -4163.2804   -4701.3036            0    4856.1925    20.027248    20.001916    20.634536    8265.8512    4832.7216    4600.2736    5135.5824   -894.15387   -8.2493035   -958.70522   -3577.8715 
 7150000    257.66477   -4681.7411   -4184.8129   -4681.7411            0     5585.801    20.064596    20.234043     20.37099    8270.3749    4669.2762    5598.1693    6489.9576   -283.20195   -368.74034   -1075.5103   -3511.0819 
 7151000    266.70588   -4648.6964   -4134.3317   -4648.6964            0    5925.3048    20.069088    19.924887    20.689206     8273.082     5422.166    6722.0973    5631.6512   -373.47309    888.79247   -1426.7459   -3419.4175 
 7152000    275.15649   -4689.2307   -4158.5682   -4689.2307            0    5311.2931    20.153579    19.909624    20.704139    8307.5398    4828.5694    5274.3111    5830.9987    395.45862    19.446388    254.64292   -3515.0682 
 7153000    267.60816   -4698.8949   -4182.7901   -4698.8949            0    4766.2255     19.91533    20.113935     20.74879      8311.46    3720.0379    5298.9397     5279.699    380.77929    976.38161    911.68943   -3605.0563 
 7154000    266.13072    -4690.706   -4177.4506    -4690.706            0    5455.1069     19.97608      19.9474    20.688171    8243.6334    4435.6626    6979.7909    4949.8671    191.53273   -203.65654    1206.0165   -3521.6107 
 7155000    252.16017   -4665.9499   -4179.6378   -4665.9499            0    6489.1416    19.816818    20.216079    20.487681    8207.7411    7293.6977    6104.6827    6069.0443    -36.20755    2545.7255    90.202799   -3402.8779 
 7156000    246.25246   -4682.7766    -4207.858   -4682.7766            0    3562.3486    20.071055    20.096114    20.716732    8356.0982    2445.9091    4154.4864    4086.6502    454.81299   -358.55918   -657.05849    -3773.732 
 7157000    263.18514    -4690.512   -4182.9373    -4690.512            0     5223.525    19.800375    20.217459     20.81531    8332.6452    6207.4268    5010.1554    4452.9929   -326.14192   -273.72662   -167.97429   -3548.1584 
 7158000    260.84968   -4718.3678   -4215.2972   -4718.3678            0    4081.3394    20.009717    20.120823    20.716872     8340.861    3693.8598    5105.5171    3444.6412    196.66899    578.32717   -879.86533   -3718.8312 
 7159000      260.519   -4705.9589   -4203.5261   -4705.9589            0    4348.3401    20.104879    20.052733    20.676202    8335.7714    1456.6537    6130.6507    5457.7159    884.81949    417.21182   -272.43056   -3674.9042 
 7160000    272.13373   -4696.6693   -4171.8365   -4696.6693            0    4636.4347    20.279315      19.9058    20.669745    8343.8792    2993.4445    5509.6868    5406.1727   -489.55739   -336.45749   -518.93064   -3607.6431 
 7161000    262.58463   -4707.1125    -4200.696   -4707.1125            0    5242.0638    19.808643    20.178278     20.61197    8238.6933    4948.3174    4189.1396    6588.7344    -727.8151    919.53552   -150.52544   -3570.8469 
 7162000    255.34444   -4670.4326   -4177.9793   -4670.4326            0    4213.7819    20.144764    19.907711    20.670458    8289.6007    3186.3331    4422.0375    5032.9752    287.30045    105.48087   -746.17225   -3668.5528 
 7163000    267.15649   -4679.6851   -4164.4514   -4679.6851            0    5454.6493    19.914848     19.96254    20.734132    8242.8739    6649.9892    4896.4827     4817.476   -560.10935     804.8581   -1466.0315   -3508.7269 
 7164000    269.55382   -4723.1624   -4203.3052   -4723.1624            0    4746.3084    19.886573    20.120889    20.740494    8299.0084    4069.9154    5597.1321    4571.8776    370.51175   -231.75658   -362.56853   -3628.8475 
 7165000    265.31137   -4690.2075   -4178.5322   -4690.2075            0    5894.3965    20.011231    19.976348    20.640573     8251.096    6075.9442    6755.9606    4851.2848    1130.2101   -1178.5356   -1116.8097   -3469.2373 
 7166000    266.79669   -4665.0052   -4150.4654   -4665.0052            0    5570.9006      19.8989    20.130337    20.748231    8311.1513    7556.7641    4923.1629    4232.7749    394.98324    277.65859    -590.1876   -3475.2187 
 7167000     262.2356   -4684.5182   -4178.7748   -4684.5182            0    3741.3529    20.259383    19.947406    20.500712    8284.7917    1876.4502      4739.89    4607.7187   -148.79463    -267.6176    753.81345   -3726.7251 
 7168000    267.26987   -4661.0775   -4145.6251   -4661.0775            0    6728.9924    19.986817    20.129993     20.51675    8254.5964     7590.802    4975.8939    7620.2813    161.10431    -157.0579   -2035.4199   -3335.5565 
 7169000    261.14775   -4646.3699   -4142.7245   -4646.3699            0    6533.7261    19.980342    20.100197    20.725531     8323.556    7566.5276    6772.9499    5261.7007    958.60508     -765.744   -777.60443   -3349.5921 
 7170000    266.49981   -4679.3135   -4165.3462   -4679.3135            0    4672.9421    19.987935     19.81952    20.975015    8309.2791     6864.119    3718.3838    3436.3233   -33.682449    1376.8164   -23.581819   -3599.0683 
 7171000     264.4539   -4677.8943   -4167.8727   -4677.8943            0    3746.7925    20.184999    20.023002    20.590688    8322.0202    1997.3949    5231.6006     4011.382   -308.81476    1281.7069   -363.63887   -3713.1315 
 7172000    272.40326   -4711.4589   -4186.1063   -4711.4589            0    5659.6284    19.907574    19.958687    20.667421    8211.7664    5759.9678    5605.8066    5613.1106   -899.16587    989.46587   -173.66562   -3508.3081 
 7173000    256.10647   -4705.6379   -4211.7151   -4705.6379            0     5760.946    19.930902    19.808201    20.948713    8270.4539    5929.1089     8218.517    3135.2121   -109.16568   -654.25017    157.28519   -3516.8523 
 7174000    259.00877   -4673.4971   -4173.9769   -4673.4971            0    6219.5895    19.918808    19.999617    20.664814    8232.2118    5189.6466    7023.5754    6445.5465    104.00619   -53.149958   -40.265493   -3427.2632 
 7175000     276.6989   -4723.1507   -4189.5136   -4723.1507            0    5442.9453    20.020394     20.10255     20.48593    8244.7875    5290.7869    5799.3374    5238.7116   -72.466408   -1161.1851   -185.65588   -3535.0442 
 7176000    267.24892   -4718.8105   -4203.3985   -4718.8105            0     5833.269    19.883495     20.07645    20.470699    8171.6981    6575.6317     5359.137    5565.0383    449.75973    762.05803    1135.4049   -3508.2138 
 7177000    253.64872   -4665.4836   -4176.3007   -4665.4836            0     5046.503    19.949335     19.92804    20.860479    8293.1071    5349.1703    4446.1388    5344.1999   -383.78773    399.20464   -437.14202    -3565.944 
 7178000    260.69863   -4689.1078   -4186.3286   -4689.1078            0    3173.4531    19.981122    20.027882    20.874257    8353.4511    1096.9134    5485.1102    2938.3357    101.41296     1307.251    861.55528   -3799.7178 
 7179000    274.36738    -4675.082   -4145.9414    -4675.082            0    6597.0883    19.909586    20.069046    20.557307    8214.0089    6254.4382    6433.3552    7103.4714    456.03596    48.407368    631.77643   -3355.6571 
 7180000    271.81332   -4680.9737   -4156.7588   -4680.9737            0    6077.2982    19.699744    20.018868     20.98123     8274.296    7222.3848    5701.7442    5307.7655   -444.58962   -423.36163   -585.99792   -3423.3984 
 7181000    252.20988   -4678.9222   -4192.5143   -4678.9222            0    4669.3896     20.14818     19.92767    20.784519    8345.1147    4354.7294    4222.4031    5431.0365   -203.73562   -259.45526    328.86116   -3624.2265 
 7182000    261.61907   -4679.2913   -4174.7369   -4679.2913            0    8174.0718    20.115907    19.769952    20.526459    8163.1782     8120.153    8209.8532    8192.2091    281.40305    637.93271   -481.30438   -3201.6008 
 7183000    251.96633   -4700.9999   -4215.0616   -4700.9999            0    4392.4291    20.016252    20.286867    20.418041    8291.0936     3892.852    4397.1317    4887.3035   -55.946736    2396.5601   -18.900525   -3683.9419 
 7184000    260.37276    -4714.191   -4212.0402    -4714.191            0    4627.4978     19.85939    20.097376    20.745144    8279.8354    6354.3571    2734.6945    4793.4418    12.607159    854.07301    90.848863   -3653.2564 
 7185000    266.32158   -4671.5231   -4157.8995   -4671.5231            0    5754.8946    19.896281    19.925654    20.891881    8282.5115    5864.0471    6541.7665    4858.8702   -1296.2601     742.5737    706.90493   -3462.7546 
 7186000    265.75781   -4656.2826   -4143.7463   -4656.2826            0    6146.6819    19.821626    20.143641     20.62294    8234.3216    7221.5324    4264.4149    6954.0984    137.86489   -1243.8885   -342.58777   -3405.5966 
 7187000    250.47584   -4674.9718    -4191.908   -4674.9718            0    3970.7583    20.147814    20.282012    20.408204    8339.5718    2850.5724    4330.7592    4730.9435   -185.08368    425.86426    360.68702   -3708.9681 
 7188000    263.44242   -4665.0459   -4156.9751   -4665.0459            0    7210.4216    20.100259    19.936686    20.509808    8218.9479     6663.596    6940.7998    8026.8689   -144.08322   -162.79727    470.67324   -3292.6984 
 7189000     253.5183   -4693.2894    -4204.358   -4693.2894            0    6909.2236    19.852788    19.841897    20.785753    8187.8609    7537.7226    7042.1433     6147.805     172.4726    -515.7759   -310.59429   -3379.3169 
 7190000    277.57551   -4677.4409   -4142.1132   -4677.4409            0    6424.2498    19.946401    20.096162    20.589859    8253.3644    6887.8373    5588.2386    6796.6735    248.73677    788.64591    461.96784   -3368.8464 
 7191000    266.71428   -4688.2976   -4173.9167   -4688.2976            0    5364.1293    20.149554    19.697002    20.928982    8306.4156    2747.5727    8323.0746    5021.7405     61.19017    1135.4347    634.71029   -3524.1031 
 7192000    267.22738   -4679.3499   -4163.9794   -4679.3499            0    4009.0043    19.990311    20.110317    20.628653    8292.9555    4199.9483    3638.2111    4188.8534    342.26474    1471.7112   -1129.7016   -3679.1134 
 7193000    263.09441   -4680.7773   -4173.3776   -4680.7773            0    4387.8456    20.199503    19.906903    20.647894    8302.7151    3283.2722       4919.1    4961.1648   -293.97716   -1064.4716   -322.51013   -3642.0684 
 7194000    267.22484   -4675.5137   -4160.1481   -4675.5137            0    6956.6516    19.906086    20.003845    20.639209    8218.4973     4723.563     8573.429    7572.9627   -113.28984    -582.0953   -815.22427   -3326.3353 
 7195000    260.87999   -4681.9109   -4178.7819   -4681.9109            0    5814.6688    20.161253    19.695988    20.932864    8312.3523    5966.6234    6775.6165    4701.7667    934.08821   -993.11919   -1247.3205   -3473.8862 
 7196000    266.35047    -4700.232   -4186.5528    -4700.232            0    6759.5882    19.928633    20.003211    20.652634    8232.8968    7486.2292    6669.2919    6123.2436   -488.44466    1060.7798    849.15822   -3374.9401 
 7197000    264.22019      -4689.2   -4179.6291      -4689.2            0    4769.7625    20.120408    20.211771    20.408101    8299.3436     2492.794    4446.7045    7369.7891    -115.0541   -102.69208    1567.6716   -3602.3094 
 7198000    259.27154    -4674.745    -4174.718    -4674.745            0    7066.8319    19.951428    20.015387    20.795727    8304.4733    9104.9918    5449.5191    6645.9846    179.46231    24.246526    499.85369   -3318.8383 
 7199000    271.36204   -4674.2361   -4150.8916   -4674.2361            0    5793.1054    20.148929    19.924228    20.645345    8288.1118    3655.6273    8004.1032    5719.5858   -39.514813   -752.25137   -126.22251    -3450.658 
 7200000    259.38836    -4694.124   -4193.8717    -4694.124            0    5264.3631    19.802492    20.170491    20.657965    8251.3281    5229.5849     4594.928    5968.5764   -225.39728    1892.2764    138.70302   -3560.3732 
 7201000    258.55557   -4683.0147   -4184.3686   -4683.0147            0    4714.1205    19.929711    19.923932    20.970324    8326.8588    2606.6728    6320.8898    5214.7988   -46.271727   -157.32834   -560.20635   -3611.8919 
 7202000    246.93277   -4639.9062   -4163.6755   -4639.9062            0    5420.8969    20.079132     19.87467    20.730306     8272.763    5182.0794     6559.698    4520.9132    164.98644   -956.05547   -553.89999   -3509.6456 
 7203000    249.12095   -4686.0833   -4205.6326   -4686.0833            0    5778.7211    20.051161    20.121858    20.532194    8284.0549    5243.9933    4894.5436    7197.6263   -879.13727    819.12561   -360.36527   -3507.4796 
 7204000    249.57135   -4690.9163   -4209.5969   -4690.9163            0    4440.3517     19.70687    20.175077    20.860653    8293.9373    5751.5938    2964.5284    4604.9329   -873.71015    2187.6872    415.94757   -3672.4984 
 7205000    259.15201   -4712.5505   -4212.7541   -4712.5505            0    6720.8289    20.098864    19.679701    20.972935    8295.6269    5418.5038    8345.9119    6398.0711    88.139445    791.04197     307.9114   -3399.6467 
 7206000    264.71465    -4715.792   -4205.2676    -4715.792            0    6062.1596     19.86055    19.999842    20.668061    8209.5163    6972.5644    5656.5036    5557.4109    650.59884   -252.27701    474.39329   -3479.4611 
 7207000    258.98493   -4682.6926   -4183.2184   -4682.6926            0    5581.2751    20.135028    20.055128    20.440774    8254.2001    3900.5936    6468.9109    6374.3207    1232.9799   -1043.7729    283.83822   -3511.3499 
 7208000    271.43789   -4691.8829   -4168.3921   -4691.8829            0    4574.0165    19.948151    20.085264    20.769016    8321.3947    6619.4145    3638.3123    3464.3227    192.95603   -1317.8415   -152.20431   -3613.2941 
 7209000    267.37635   -4708.5958    -4192.938   -4708.5958            0    5789.5898    20.050314    19.881767    20.799429    8291.3944      4556.87    7590.8905     5221.009   -175.22946    1231.1559    885.52398   -3492.8522 
 7210000    273.13743   -4670.3639   -4143.5954   -4670.3639            0    6787.9027    19.917237    19.998868    20.629135    8217.0422    4957.8075     7196.363    8209.5374    138.94563    1640.5942    446.27241   -3330.1526 
 7211000    275.15501   -4697.7007   -4167.0411   -4697.7007            0    6943.3601    20.085779    20.054946    20.347841    8196.5014    5701.9517    6926.2767    8201.8518   -357.19876    1298.8994   -353.31597   -3337.0488 
 7212000    261.58164   -4684.3115   -4179.8293   -4684.3115            0    5550.0471     20.04258    19.915937    20.694804     8260.678    5415.1584    5203.7719     6031.211    817.98035    361.32465     228.2682   -3511.1956 
 7213000    270.00059   -4675.1244   -4154.4055   -4675.1244            0      4390.46     19.99044    19.865154    20.954008    8321.1126    3916.2908    4999.6615    4255.4276    156.64654    1249.2564    484.67124   -3621.6017 
 7214000    261.52974   -4679.4208   -4175.0387   -4679.4208            0    4369.6204    19.968676    19.907102    20.879625    8300.0366    3611.3162     5269.499    4228.0461    45.472445    1578.4278    331.64263    -3646.107 
 7215000    257.85602    -4729.093    -4231.796    -4729.093            0     5944.764    19.971231    20.111378    20.537841    8249.0029    3796.2308    6855.8397    7182.2214   -641.87911    447.42904    598.60204   -3516.6215 
 7216000    267.73141    -4707.329   -4190.9864    -4707.329            0    6935.2829    19.912059    20.047507    20.509114    8186.9748    6447.4179    6788.4489    7569.9821    253.96116    466.75125   -243.18101   -3362.9232 
 7217000    249.66349   -4693.8252   -4212.3282   -4693.8252            0    7288.2934    19.764834     19.99151    20.689227     8174.911    7025.6723    7857.8514    6981.3566    345.67255    1681.1239     344.2515   -3343.3982 
 7218000    271.90991    -4692.056   -4167.6548    -4692.056            0    4539.7521    20.003108    19.976126    20.787909    8306.5283    4115.1189    5379.8581    4124.2794   -293.63086   -383.07316    263.73808   -3617.6993 
 7219000    253.99689   -4656.9108   -4167.0564   -4656.9108            0    6508.4018    19.748444    20.159855     20.86117    8305.3695    6445.7895    6529.7226    6549.6933    179.10583    1154.9315    736.48185   -3378.7243 
 7220000     268.4596   -4722.1736   -4204.4267   -4722.1736            0     6375.774    19.918022    19.848244    20.664097    8169.2974    7014.2359    6275.9349    5837.1511    787.95484    588.16881    955.92075   -3444.8117 
 7221000    265.40414   -4699.2678   -4187.4136   -4699.2678            0     5243.352     19.95988    20.168952    20.527027    8263.5626    5865.2277    4442.9591    5421.8692    232.31688    636.03955    1184.5497    -3555.508 
 7222000    268.00561   -4725.7122   -4208.8409   -4725.7122            0    5230.8256    19.971705    19.927435      20.7044    8240.0373    5708.0844    4816.5497    5167.8427   -222.64017    480.59594    1086.4676   -3580.2395 
 7223000    259.86635   -4697.7813   -4196.6072   -4697.7813            0    3718.6953    20.007333    19.944084    20.671156    8248.3687    1951.4647    4335.5328    4869.0884     506.0218    1076.2769   -755.79316   -3749.2704 
 7224000    238.89726   -4642.8261   -4182.0926   -4642.8261            0    4645.0131    19.951971    20.026165    20.842853    8328.0009    3510.1578    6035.1839    4389.6975   -394.61886    2305.3912    -586.0026   -3617.9309 
 7225000    261.67888   -4691.7454   -4187.0757   -4691.7454            0    7212.5522    19.910788    20.091224    20.469882    8188.6097    7567.9075     7668.986    6400.7632    538.80035    1449.9424    509.32208   -3325.7348 
 7226000    263.32767   -4680.1312   -4172.2817   -4680.1312            0    4270.7747    19.927903    20.313117    20.566573    8325.3044    2769.5617    5248.2409    4794.5216    -496.7848   -123.75389    444.71024   -3653.7412 
 7227000    271.12855   -4632.9136   -4110.0194   -4632.9136            0    5003.0118    19.776393    19.984702    20.986497    8294.3952    6185.1527     4430.575    4393.3076    162.61355   -45.113955     175.0955   -3504.8288 
 7228000    281.52214   -4694.1011    -4151.162   -4694.1011            0    6158.7435    19.724936    20.006184    20.894188    8245.2788    6135.8767    5834.7656    6505.5882   -264.49286    604.29105    150.47213   -3410.5796 
 7229000     263.3574   -4675.5707   -4167.6638   -4675.5707            0    4079.4408    19.808645    20.195638    20.808014    8324.2091    5290.9834    1889.1415    5058.1976   -55.883578   -227.90569    2178.3876   -3672.4195 
 7230000    270.20228   -4663.4704   -4142.3626   -4663.4704            0    4329.4837    19.755523    20.160395    21.018942    8371.4066     6252.757    3702.5535    3033.1406    960.67082    2013.6207    1577.8908   -3613.7829 
 7231000    281.63752   -4697.1752   -4154.0136   -4697.1752            0    6254.5131    19.894652    20.040129     20.58874    8208.5537    5811.8745     6591.304    6360.3608    149.33055   -559.82692    1050.4078   -3405.2649 
 7232000    271.21921   -4702.0005   -4178.9315   -4702.0005            0     5114.782    20.004207    20.202654    20.480583    8276.9833    4527.2453    4551.9756    6265.1252   -718.17509    983.20231    516.81158   -3561.5194 
 7233000    264.06575   -4697.3469   -4188.0739   -4697.3469            0    5946.6638    19.806091    20.223726    20.513705    8216.8249     5072.114    6704.4193    6063.4581   -779.79412    933.39909     360.6789   -3475.4616 
 7234000    278.00816   -4695.1112   -4158.9491   -4695.1112            0    6967.2786    19.907146    19.969839    20.758641    8252.4419    7025.2147    6323.4113    7553.2099   -365.81487   -165.86838    -419.1613   -3320.4134 
 7235000     256.7314   -4705.7726   -4210.6445   -4705.7726            0    4600.3117    19.757756    20.187071    20.802225    8296.9929    4343.8843    5857.1619    3599.8888    397.73467    1189.2955    882.65513   -3653.9924 
 7236000     273.2423   -4727.8541   -4200.8833   -4727.8541            0    5629.6974    20.011934    20.028358    20.694111    8294.3277    5709.1403    4347.8801     6832.072   -575.55155     -66.1788    298.83646   -3519.8911 
 7237000    265.41916   -4684.4493   -4172.5661   -4684.4493            0     5140.997    20.304825    19.942395    20.428661    8272.1132    5451.2911    4356.7742    5614.9256   -986.31709   -57.682479    64.302247   -3552.3548 
 7238000    258.49885    -4663.415   -4164.8783    -4663.415            0    6134.5513    20.004364    20.051202     20.62519     8273.002    7128.5457    5636.3205    5638.7877    616.60797    990.07579   -1179.5776   -3424.7247 
 7239000    247.69226   -4658.7809   -4181.0856   -4658.7809            0    5721.5467    19.951987    19.815774    20.744423    8201.5993    5977.8834    6769.3053    4417.4514    561.97328    282.41531    1137.4304   -3496.7204 
 7240000    275.43628   -4702.1153   -4170.9133   -4702.1153            0    5935.1451    19.909973    20.137466    20.625088    8269.3483    5647.4086    6762.9009    5395.1258   -45.140269   -180.12794    1029.8769    -3455.135 
 7241000    255.97568   -4694.2373   -4200.5667   -4694.2373            0    6021.6933    19.867329    19.964307    20.698075    8209.6317    6845.4362    6772.8388    4446.8047    109.05982    129.91249    805.67913   -3479.5951 
 7242000    265.50876   -4701.9647   -4189.9088   -4701.9647            0    2350.0244    19.968673    20.205673    20.772309    8381.2208    2797.7657    1897.4169    2354.8906   -677.19325    1163.8186   -815.01582   -3902.6617 
 7243000    258.44581   -4653.7007   -4155.2662   -4653.7007            0    5576.8945    20.001924    20.049219    20.693661    8298.6331    3996.3816    8196.4868     4537.815    639.77804    231.44211    1502.1731   -3480.3111 
 7244000    272.77182   -4692.2906   -4166.2272   -4692.2906            0     4865.945     20.00344    20.025283      20.7187    8299.3838    3363.8799    7706.8192     3527.136   -137.02282    549.01005   -484.55728    -3577.263 
 7245000    277.93041   -4676.4475   -4140.4354   -4676.4475            0    4318.0632    20.248552    19.946207    20.592617    8316.9833    4317.4104    4921.8846    3714.8946   -163.64197    150.85349    592.15983   -3616.6773 
 7246000    269.23682   -4679.3294   -4160.0836   -4679.3294            0    5826.1876    20.292832    19.874119    20.433698    8240.9547    4848.8087    6859.7208    5770.0333      451.962   -1553.0889   -615.34489   -3459.8582 
 7247000      259.688    -4683.443   -4182.6128    -4683.443            0    3988.7228     19.97515    20.163789    20.654615    8319.1565    4720.4694    4061.5106    3184.1884   -693.51616   -74.857896    127.63725   -3698.6756 
 7248000    263.00854   -4662.6526   -4155.4185   -4662.6526            0    6006.7572    19.908601    20.073328    20.679628    8264.2386    5183.6154    6954.0344    5882.6217   -32.193151    338.25842    1081.9126   -3431.4515 
 7249000    264.46881   -4702.6791   -4192.6288   -4702.6791            0    7479.0824    19.985647    19.972361    20.560048    8206.7602    7632.2187     7470.037    7334.9915    180.84633    1080.2736    1339.7652   -3297.4785 
 7250000     268.8946   -4655.0429    -4136.457   -4655.0429            0    5915.5297    19.928045    20.279792    20.518281    8292.1885     8625.791    3623.4182    5497.3799    852.73725    -394.7427   -954.97066   -3421.0739 
Loop time of 451.167 on 64 procs for 250000 steps with 972 atoms

Performance: 95.752 ns/day, 0.251 hours/ns, 554.118 timesteps/s
99.1% CPU use with 64 MPI tasks x 1 OpenMP threads

MPI task timing breakdown:
Section |  min time  |  avg time  |  max time  |%varavg| %total
---------------------------------------------------------------
Pair    | 20.579     | 28.34      | 36.75      |  78.1 |  6.28
Bond    | 0.27069    | 0.27919    | 0.29897    |   1.0 |  0.06
Kspace  | 182.53     | 193.59     | 207.06     |  39.9 | 42.91
Neigh   | 3.2429     | 3.7311     | 4.4521     |  17.1 |  0.83
Comm    | 96.851     | 105.39     | 112.88     |  40.9 | 23.36
Output  | 1.1085     | 1.11       | 1.1111     |   0.0 |  0.25
Modify  | 111.13     | 112.89     | 114.63     |   8.6 | 25.02
Other   |            | 5.827      |            |       |  1.29

Nlocal:        15.1875 ave          19 max          10 min
Histogram: 1 5 5 4 8 11 9 9 7 5
Nghost:        2218.77 ave        2244 max        2189 min
Histogram: 2 3 5 5 14 10 8 9 4 4
Neighs:        4739.86 ave        6759 max        2642 min
Histogram: 1 6 4 7 14 11 11 2 6 2

Total # of neighbors = 303351
Ave neighs/atom = 312.08951
Ave special neighs/atom = 2.0000000
Neighbor list builds = 8520
Dangerous builds = 1

unfix		3
unfix		2
unfix		1

write_data	data.final.${pid}
write_data	data.final.0
System init for write_data ...
PPPM initialization ...
  extracting TIP4P info from pair style
  using 12-bit tables for long-range coulomb (../kspace.cpp:340)
  G vector (1/distance) = 0.37133265
  grid = 24 24 24
  stencil order = 5
  estimated absolute RMS force accuracy = 0.003615945
  estimated relative force accuracy = 1.0889311e-05
  using double precision FFTW3
  3d grid and FFT values/proc = 2197 216
Last active /omp style is kspace_style pppm/tip4p/omp
WARNING: Not all mixed pair coeffs generated from mixing. Use write_data with 'pair ij' option to store all pair coeffs. (../write_data.cpp:312)

write_restart   restart.lmp.${pid}
write_restart   restart.lmp.0
System init for write_restart ...
PPPM initialization ...
  extracting TIP4P info from pair style
  using 12-bit tables for long-range coulomb (../kspace.cpp:340)
  G vector (1/distance) = 0.37133265
  grid = 24 24 24
  stencil order = 5
  estimated absolute RMS force accuracy = 0.003615945
  estimated relative force accuracy = 1.0889311e-05
  using double precision FFTW3
  3d grid and FFT values/proc = 2197 216
Last active /omp style is kspace_style pppm/tip4p/omp
Total wall time: 0:07:36
