LAMMPS (30 Jul 2021)
Processor partition = 0
  using 2 OpenMP thread(s) per MPI task
using multi-threaded neighbor list subroutines
variable        pid world 0 1
variable        phase world IceIh IceIII

shell cd ${phase}
shell cd IceIh
include Restart.lmp
echo both
log log.lammps
#include		in.partitions
include		in.temp
variable        temperature equal 85.22
variable	tempDamp equal 100.0
include		in.pressure
variable        pressure equal 2073.6
variable        pressureDamp equal 1000.0 # This is 1 ps
include		in.seed
variable        seed equal 745823

units		real
atom_style	full
#include		in.box
read_restart	restart.lmp.${pid}
read_restart	restart.lmp.0
Reading restart file ...
  restart file = 30 Jul 2021, LAMMPS = 30 Jul 2021
  restoring atom style full from restart
  orthogonal box = (0.14915534 0.21164257 0.078887795) to (18.058417 23.417535 22.134308)
  2 by 4 by 4 MPI processor grid
  restoring pair style lj/cut/tip4p/long/omp from restart
  restoring bond style harmonic/omp from restart
  restoring angle style harmonic/omp from restart
  864 atoms
  576 bonds
  288 angles
Finding 1-2 1-3 1-4 neighbors ...
  special bond factors lj:    0        0        0       
  special bond factors coul:  0        0        0       
     2 = max # of 1-2 neighbors
     1 = max # of 1-3 neighbors
     1 = max # of 1-4 neighbors
     2 = max # of special neighbors
  special bonds CPU = 0.002 seconds
  read_restart CPU = 0.007 seconds
include 	in.setup
variable	out_freq equal 1000
variable	out_freq2 equal 10000
variable	out_freq3 equal 1000

timestep	2.0

neigh_modify    delay 7 every 1

include		in.tip4p
# This is TIP4P/Ice

# create groups ###
group ox type 2
288 atoms in group ox
group hy type 1
576 atoms in group hy

# set charges - beside manually ###
set group ox charge -1.1794
Setting atom values ...
  288 settings made for charge
set group hy charge 0.5897
Setting atom values ...
  576 settings made for charge

# ### TIP3P Potential Parameters ###
pair_style lj/cut/tip4p/long/omp 2 1 1 1 0.1577 8.5
pair_coeff 1 1*2 0.000 0.000
pair_coeff 2 2 0.21084 3.1668
bond_style  harmonic
bond_coeff  1 450 0.9572
angle_style harmonic
angle_coeff 1 55 104.52
kspace_style pppm/tip4p/omp 1.0e-5
pair_modify tail yes

thermo          ${out_freq}
thermo          1000
thermo_style    custom step temp pe etotal epair emol press lx ly lz vol pxx pyy pzz pxy pxz pyz enthalpy

restart 	${out_freq3} restart.lmp.${pid} restart2.lmp.${pid}
restart 	1000 restart.lmp.${pid} restart2.lmp.${pid}
restart 	1000 restart.lmp.0 restart2.lmp.${pid}
restart 	1000 restart.lmp.0 restart2.lmp.0


include         in.dump
dump            myDump all atom ${out_freq2} dump.water.${pid}
dump            myDump all atom 10000 dump.water.${pid}
dump            myDump all atom 10000 dump.water.0
dump            myDump2 all dcd ${out_freq2} dump.dcd
dump            myDump2 all dcd 10000 dump.dcd
dump_modify     myDump append yes
dump_modify     myDump2 append yes


variable natoms 	equal  "count(all)"                        # NUMBER ATOMS
variable H      	equal  "enthalpy/v_natoms"                 # ENTHALPY-per-atom
variable Vol      	equal  "vol/v_natoms"                 # volume-per-atom
fix AVG all 		ave/time ${out_freq} 1 ${out_freq} v_Vol v_H file vol_enthalpy.dat
fix AVG all 		ave/time 1000 1 ${out_freq} v_Vol v_H file vol_enthalpy.dat
fix AVG all 		ave/time 1000 1 1000 v_Vol v_H file vol_enthalpy.dat


timer           timeout 23:50:00 every 1000
New timer settings: style=normal  mode=nosync  timeout=23:50:00

fix 		1 all shake 1e-6 200 0 b 1 a 1
Finding SHAKE clusters ...
       0 = # of size 2 clusters
       0 = # of size 3 clusters
       0 = # of size 4 clusters
     288 = # of frozen angles
  find clusters CPU = 0.000 seconds
fix             2 all nph aniso ${pressure} ${pressure} ${pressureDamp}
fix             2 all nph aniso 2073.6 ${pressure} ${pressureDamp}
fix             2 all nph aniso 2073.6 2073.6 ${pressureDamp}
fix             2 all nph aniso 2073.6 2073.6 1000
fix             3 all temp/csvr ${temperature} ${temperature} ${tempDamp} ${seed}
fix             3 all temp/csvr 85.22 ${temperature} ${tempDamp} ${seed}
fix             3 all temp/csvr 85.22 85.22 ${tempDamp} ${seed}
fix             3 all temp/csvr 85.22 85.22 100 ${seed}
fix             3 all temp/csvr 85.22 85.22 100 745823


run             250000
PPPM initialization ...
  extracting TIP4P info from pair style
  using 12-bit tables for long-range coulomb (../kspace.cpp:340)
  G vector (1/distance) = 0.37194482
  grid = 24 27 25
  stencil order = 5
  estimated absolute RMS force accuracy = 0.0031360913
  estimated relative force accuracy = 9.4442458e-06
  using double precision FFTW3
  3d grid and FFT values/proc = 4410 672
Last active /omp style is kspace_style pppm/tip4p/omp
Neighbor list info ...
  update every 1 steps, delay 7 steps, check yes
  max neighbors/atom: 2000, page size: 100000
  master list distance cutoff = 10.8154
  ghost atom cutoff = 10.8154
  binsize = 5.4077, bins = 4 5 5
  1 neighbor lists, perpetual/occasional/extra = 1 0 0
  (1) pair lj/cut/tip4p/long/omp, perpetual
      attributes: half, newton on, omp
      pair build: half/bin/newton/omp
      stencil: half/bin/3d
      bin: standard
Setting up Verlet run ...
  Unit style    : real
  Current step  : 33750000
  Time step     : 2
  Walltime left : 23:49:59.93
Per MPI rank memory allocation (min/avg/max) = 10.20 | 10.22 | 10.23 Mbytes
Step Temp PotEng TotEng E_pair E_mol Press Lx Ly Lz Volume Pxx Pyy Pzz Pxy Pxz Pyz Enthalpy 
33750000    92.425485   -4587.9312   -4429.5171   -4587.9312            0    1767.6834    17.909262    23.205893     22.05542    9166.2416     1971.362    1422.4026    1909.2855    116.83571    346.68605    542.96884   -4193.2128 
33751000    86.593815   -4587.1957   -4438.7768   -4587.1957            0    2416.7107    17.800601    23.225563    22.097871    9135.9002    2196.3729    2546.6148    2507.1444   -193.34923    191.91081   -175.73498   -4116.7798 
33752000    84.680306   -4587.6689   -4442.5297   -4587.6689            0    1799.9367    17.905371    23.289858    21.986415    9168.6325    815.01344    1460.3283    3124.4683   -838.62282   -93.201842    302.63302    -4201.851 
33753000    85.000442   -4588.6668    -4442.979   -4588.6668            0    2237.0381       17.836    23.377382     21.95228    9153.2004    2246.0915    2994.0859     1470.937    330.72561    149.90556   -93.586067   -4144.3567 
33754000     77.71677   -4588.9072   -4455.7034   -4588.9072            0    1398.6113    18.017213    23.191766    21.983833    9185.9666    1375.7928    1985.0258    835.01536    499.60998   -273.83423   -188.68067   -4268.3343 
33755000    87.897362   -4589.6759   -4439.0228   -4589.6759            0     2064.632     17.99823    23.196809    21.898428    9142.6267    1828.8125    2374.5819    1990.5016    863.23174    -517.8152   -105.77402   -4163.7334 
33756000    82.487041   -4578.2429    -4436.863   -4578.2429            0    2372.7155    18.051504     23.11093    21.919311    9144.4522    1504.5517    2457.0005    3156.5943     215.1259    15.035473    12.888863   -4120.4318 
33757000    87.429842   -4595.0959   -4445.2442   -4595.0959            0    1652.2412    18.056134    23.262599    21.885923    9192.8014    863.14048    2188.5589    1905.0241    109.89199    331.21209    735.32363   -4223.7322 
33758000    88.025063   -4587.2881   -4436.4161   -4587.2881            0    2464.6668    17.954283    23.391216    21.739354    9129.9309    2607.7632    2140.9079    2645.3294    184.10201    20.545101     58.42287   -4108.2441 
33759000    86.515414   -4580.0356   -4431.7512   -4580.0356            0    2025.3309    17.902962    23.428234      21.8387    9159.9102    2620.7108    1811.9715    1643.3104    234.26453    272.78865   -421.55404   -4161.1915 
33760000     88.86148   -4592.9479   -4440.6424   -4592.9479            0    1985.4053    17.923544    23.219891    22.015961    9162.6633    1841.5238    2514.7115    1599.9806   -49.345826     -303.684   -283.45107   -4175.3366 
33761000    86.237701   -4590.7451   -4442.9366   -4590.7451            0     2408.233    17.952317    23.174575     21.94989    9131.9729    2277.7981    2788.2849     2158.616    258.22429   -554.67701   -336.10889    -4122.207 
33762000    89.479494   -4580.6194   -4427.2546   -4580.6194            0    1408.8288    17.900273    23.217675    22.074705    9174.3076    1233.1247    1380.8788    1612.4829   -558.52973    52.734203   -3.3998145   -4238.7563 
33763000    87.427775   -4582.7511   -4432.9029   -4582.7511            0    3171.9585    17.972668    23.158812    21.900091     9115.379    2633.6785    3058.0065    3824.1904   -525.86396    577.64542    182.81113   -4011.2276 
33764000     84.91413   -4596.1416   -4450.6017   -4596.1416            0     1222.839    17.988659     23.24525    21.973142    9188.0883     1293.804    1802.2344    572.47856    6.2610122    259.93733   -376.43108   -4286.7427 
33765000    84.655691    -4587.163   -4442.0661    -4587.163            0    1740.4191    18.051386    23.232438    21.872577    9172.8708    1330.1159    2063.0133     1828.128    170.81358    308.02701   -162.26473   -4209.2382 
33766000    87.621597   -4589.7015   -4439.5211   -4589.7015            0    2559.9259    17.924955    23.178233    21.970351    9127.9947    2469.5492    2853.9073    2356.3211    126.11508   -812.99923   -173.99983   -4098.7375 
33767000    86.181846   -4587.7389   -4440.0262   -4587.7389            0    2498.1404    17.900346    23.415138     21.83476     9151.801    1875.1685    2497.6178     3121.635   -197.58564     468.3017    166.40456   -4106.6003 
33768000    77.655253   -4586.2886   -4453.1901   -4586.2886            0    1577.3797    17.975821    23.445697       21.824     9197.848    1663.6691    971.07838    2097.3916    322.53903   -7.1351569   -144.98048   -4241.5986 
33769000    86.625003   -4588.8539   -4440.3816   -4588.8539            0     1990.293    17.861505    23.380455    21.925301    9156.2272    2571.0642    1683.6225    1716.1923   -97.397146   -410.41319    492.31958   -4174.6095 
33770000    83.851124   -4592.9535   -4449.2356   -4592.9535            0    1988.5959    17.832501    23.452709    21.900973    9159.4348    2321.1313    2291.7505     1352.906    569.66298   -182.41358    313.98018    -4183.597 
33771000    83.628526    -4591.845   -4448.5085    -4591.845            0    2126.2327    17.895396    23.421272    21.853914    9159.6951    2605.8139    1296.7727    2476.1114   -313.89578   -405.62645    8.6915348   -4164.4763 
33772000    84.378639   -4577.3275   -4432.7054   -4577.3275            0     2566.342    17.815411    23.415356    21.898775    9135.1658    2395.5325    2650.8891    2652.6044   -386.96162    54.414308   -101.48077   -4090.7993 
33773000    79.417702   -4585.9983   -4449.8791   -4585.9983            0    2435.0357    17.911372    23.360583    21.880262    9155.1414    2056.1852    3525.5689    1723.3529   -85.026225   -204.18306    45.903584   -4124.7572 
33774000    93.014813   -4584.8782   -4425.4539   -4584.8782            0    1936.5162    17.896311    23.402252    21.886958    9166.5643    1890.9967    2070.9511    1847.6008    522.82734   -435.61594    -246.4322   -4166.5709 
33775000    87.612878   -4589.3388   -4439.1733   -4589.3388            0    2535.4612    17.836637    23.400249     21.90425    9142.4342    2818.2736    2925.4358    1862.6743   -601.25378   -26.356172    288.42058   -4101.1126 
33776000    88.003751   -4584.5934    -4433.758   -4584.5934            0    2262.3667    17.877995    23.364437    21.905713    9150.2199    2618.5974    2446.3199    1722.1826    -74.76546    147.79797   -123.42636   -4131.8529 
33777000    90.283735   -4590.7144   -4435.9712   -4590.7144            0    1251.0484    17.873391    23.506144    21.909845    9205.0817    1649.8096    1200.9225    902.41314      154.425   -294.69665    185.89847   -4268.0221 
33778000    87.447911   -4596.2914   -4446.4087   -4596.2914            0    2404.1758    17.881267    23.441964    21.823733    9147.8981    2771.2109    2481.6612    1959.6552    1062.9587    58.449187   -524.98922   -4125.6611 
33779000    80.907112   -4592.7048   -4454.0328   -4592.7048            0    2282.9838     17.88886    23.264467    21.923085    9123.8355    1754.8006    1809.6388    3284.5122    31.579144   -12.968688   -43.506642   -4150.2549 
33780000    85.035984   -4581.6392   -4435.8905   -4581.6392            0      1932.62    17.949703    23.315464    21.947766    9185.2642     2114.583    1343.5525    2339.7245   -217.07436   -600.22443   -223.54836   -4177.0012 
33781000    86.756862   -4579.6632   -4430.9649   -4579.6632            0    2157.1414     17.88942    23.392501     21.89307     9161.774    2363.7491    1960.2101     2147.465    411.84315   -131.40955    137.77099   -4142.7382 
33782000    88.301325   -4585.5983   -4434.2529   -4585.5983            0    3275.8429    17.847102    23.380609    21.805036    9098.7206    2927.3549    2990.9624    3909.2113    109.42139   -72.256622   -170.86865   -3999.5633 
33783000    87.035544   -4590.2385   -4441.0626   -4590.2385            0    2315.4902    17.971704    23.458513    21.738556    9164.7463    2482.9541    1976.5188    2486.9977     -293.797     75.53342   -156.80809   -4131.5778 
33784000     84.91313   -4596.0206   -4450.4824   -4596.0206            0    2519.0921    17.878233    23.326948    21.902723    9134.4126    3053.2398    2753.7557    1750.2808   -451.29484     26.03331   -31.169116   -4114.8989 
33785000    82.929162   -4596.4389   -4454.3011   -4596.4389            0    1725.3903    18.037421    23.208601    21.908129    9171.2534    1389.7811    2013.7272    1772.6626    368.15619    7.8907692    217.26979   -4223.5245 
33786000    78.622132   -4582.9934   -4448.2377   -4582.9934            0    1858.4244    17.973654    23.268512    21.905648    9161.3843    1709.8431    2406.8339    1458.5961    671.34853    255.87785    72.870431   -4199.9348 
33787000    85.740151   -4587.4714   -4440.5157   -4587.4714            0    1528.2086    17.928461    23.282979    21.987401    9178.1562    1869.7803     1290.875    1423.9704    385.35324   -135.68469   -215.34537   -4235.9589 
33788000    83.592841    -4583.536   -4440.2607    -4583.536            0    2124.0047     17.82348     23.40424    21.932795    9149.1559     2567.932    2581.7491    1222.3329    -449.0283   0.95109043    420.70154   -4156.8525 
33789000    84.671305   -4585.1685   -4440.0448   -4585.1685            0    2095.8333    17.842657    23.375929    21.953572    9156.5867    2485.7031    1583.4817    2218.3151    101.21515   -58.396942    337.19751   -4160.1684 
33790000    83.100936   -4586.7299   -4444.2977   -4586.7299            0    1503.8149    17.890648     23.35068    21.996053    9189.0444    715.00917    1206.6588    2589.7767    -238.9794   -283.08532   -115.81055   -4242.7673 
33791000    80.443941   -4580.7179   -4442.8397   -4580.7179            0    1920.4026    17.983333     23.22722    21.898215    9146.9463    1422.0126    1926.2112    2412.9838     232.5585    344.83334    439.33023   -4186.6602 
33792000    84.594632   -4590.5719   -4445.5796   -4590.5719            0    1667.6048    17.895208    23.327415    21.991671    9180.3996    2072.2208    1570.8858    1359.7079   -92.931864    21.513706   -128.73093   -4222.3095 
33793000    87.989393    -4588.463   -4437.6522    -4588.463            0    2555.5561    17.866168    23.392999      21.8621    9137.1173    2342.4497    2457.9849    2866.2337    34.269093    323.69922   -229.19508   -4097.1103 
33794000    86.724394   -4588.5869   -4439.9443   -4588.5869            0    2099.2056    17.938781    23.301856    21.920887    9163.0817    2877.8964    1910.1465    1509.5738    306.52011    -432.9351   -53.412956   -4159.4187 
33795000    76.648254   -4590.4373   -4459.0648   -4590.4373            0    1615.8441    17.956177    23.242015    22.013006    9186.8581    1332.4645    2363.7362    1151.3317   -407.84432    -270.3306   -30.184945   -4242.5725 
33796000    89.162877   -4587.4812   -4434.6591   -4587.4812            0    2616.2582    17.910129    23.280138    21.895375    9129.2827    3095.0796     2310.495    2443.2001   -442.54384     415.4328   -71.679288   -4086.3273 
33797000      78.6877   -4585.1346   -4450.2666   -4585.1346            0    1415.4004    18.119403    23.253967    21.830899    9198.4057    918.83905    1748.3626    1578.9995    78.875124    314.13552   -153.52714   -4260.3916 
33798000    88.567329   -4591.0186   -4439.2172   -4591.0186            0    1878.8136    17.926873    23.236054    21.945343    9141.3279     2399.475    1730.9695    1505.9963   -216.70009    210.67638    458.51103   -4188.7396 
33799000    87.392118   -4586.0664   -4436.2793   -4586.0664            0    1753.4487    17.846518    23.326085     22.01101    9162.9504    2326.4577    1209.5104    1724.3779    266.27571   -277.87994    440.88021    -4201.962 
33800000    89.104328   -4601.7441   -4449.0223   -4601.7441            0    2092.7904    17.872173       23.434    21.841863    9147.7325    2019.2161    1692.8541    2566.3008     82.73133    -153.0603    379.93274   -4169.8225 
33801000    89.816827   -4589.8121   -4435.8691   -4589.8121            0     2114.061    17.915352     23.32266    21.925853    9161.3592    2691.0916    2555.9857    1095.1056   -777.79191    27.869377    181.53507   -4153.4115 
33802000    83.614154   -4585.5278    -4442.216   -4585.5278            0    1560.8009    17.986105    23.227721    21.982216    9183.6474     1805.248    1491.3458    1385.8087    382.96924   -361.93139   -390.25045   -4233.1716 
33803000    80.116391   -4584.0121   -4446.6954   -4584.0121            0    2299.1667    18.001716    23.229423    21.851611    9137.6766     2158.959    2565.7358    2172.8055    92.674922    177.41614    232.62476      -4140.3 
33804000    86.603183   -4584.2128   -4435.7779   -4584.2128            0    1699.1821    18.101471    23.116345    21.901059    9164.2759    1179.2608    2042.1925    1876.0931   -263.04715    50.915035    150.92233   -4208.6796 
33805000     83.18651   -4587.3852   -4444.8064   -4587.3852            0    1663.7101    18.015851    23.311312    21.870898    9185.1893    1174.6365    1718.0574    2098.4365    187.92493    5.5667443    83.869033   -4221.9415 
33806000    88.581452   -4581.6117   -4429.7861   -4581.6117            0    1584.9445    18.002804    23.203128    21.950434    9169.1655    1296.6388    1983.6418    1474.5528    71.498063   -507.77755   -314.28169   -4217.8427 
33807000    87.397444   -4592.0713   -4442.2751   -4592.0713            0    2294.6421    17.844597    23.344608    21.995213    9162.6589    2669.6988    2396.2101    1818.0173   -258.95004   -174.29333   -497.26046   -4135.6467 
33808000    81.921152   -4582.5646   -4442.1546   -4582.5646            0    2463.2141    17.883883    23.449595    21.805717    9144.6593    3283.7537    2097.1379    2008.7506   -87.205931    -29.69242    -244.2701   -4113.6469 
33809000    87.445447    -4591.174   -4441.2955    -4591.174            0    1512.8863    17.849058    23.268206     22.10302    9179.7282     2246.332    1511.5205    780.80648   -190.25346   -358.18286   -119.49862   -4238.7549 
33810000    84.773655    -4598.816   -4453.5168    -4598.816            0    1865.4055    17.918412    23.246228    22.012208    9168.8658    1972.3542    1922.0302    1701.8322    508.23589   -157.39673   -305.43809   -4204.0776 
33811000    86.659938   -4592.4978   -4443.9656   -4592.4978            0    2430.3985    18.017291    23.316787    21.776721    9148.5169    1815.4501     2351.548    3124.1973    354.23055    41.439234   -361.61989   -4119.6976 
33812000    85.014794   -4581.8831   -4436.1706   -4581.8831            0    2037.3322     17.94654     23.25581    21.942652    9158.0144    2572.7726    1609.8738    1929.3503   -246.72503    18.848865    504.26314    -4164.064 
33813000    87.239068    -4580.409   -4430.8843    -4580.409            0     1917.981    18.026533    23.253214    21.892339    9176.7176    1167.2234    2042.9866    2543.7329    192.81587   -262.03083   -487.52648   -4174.1951 
33814000    85.292139   -4588.9028    -4442.715   -4588.9028            0    2527.3219    17.998606    23.329379    21.815693    9160.3285    2268.2833    2624.4739    2689.2085    316.43376   -320.02585    353.03795     -4105.08 
33815000    82.528572    -4593.788   -4452.3368    -4593.788            0     2013.837     18.04486    23.114917    21.944086    9152.9975    1732.7576     2171.126    2137.6274   -2.9661127    180.95287     412.1515   -4183.5156 
33816000    87.172214   -4582.6962   -4433.2861   -4582.6962            0    2250.3964    17.964753    23.199091     21.96873    9155.8183    2227.2091    2466.6946    2057.2855    -678.9347    53.671179    439.78601   -4132.7946 
33817000    80.672834   -4594.5042   -4456.2337   -4594.5042            0    2161.9931    17.869395    23.291258     22.00414    9158.1379      2618.11    2711.8837    1155.9857   -1029.2448    723.16697    123.83757   -4167.4735 
33818000    86.757732   -4591.0006   -4442.3009   -4591.0006            0    3009.1842    17.858995    23.351263    21.846906    9110.8171     2992.671    2397.2686    3637.6129   -197.78318     -251.428    76.427081   -4042.4648 
33819000    80.309533      -4594.3   -4456.6523      -4594.3            0     1790.266    17.798414    23.526186    21.908618    9173.7693    2122.1243    2018.3926     1230.281    49.306265   -260.66309   -72.265102   -4217.1325 
33820000    87.556473   -4590.9096   -4440.8408   -4590.9096            0    1694.7145     17.84071    23.438638    21.923436    9167.5464    1939.1752    2118.0258    1026.9424   -57.259512   -99.776203   -242.75136   -4214.2587 
33821000    85.391732   -4587.7643   -4441.4058   -4587.7643            0     3196.163    17.885737    23.316509    21.802871    9092.5155    2902.8164    3251.2387    3434.4341   -763.88024    198.30335   -81.256766   -4017.5785 
33822000    88.054596   -4576.0001   -4425.0775   -4576.0001            0    2113.4347    17.846457    23.439933    21.908314    9164.6811     2287.098    1022.1186    3031.0876   -108.22389   -757.78387   -57.899538   -4142.6012 
33823000    82.751586   -4594.8684    -4453.035   -4594.8684            0    1787.7103    17.872099    23.399864    21.914184    9164.6144    2116.0383    1547.6457    1699.4469   -341.37747      784.753   -342.25159   -4214.0959 
33824000    89.263223   -4597.2372    -4444.243   -4597.2372            0    2471.7869    17.760441      23.4247    21.945225    9129.9381    2948.7002    2057.9658    2408.6949   -700.41655   -67.472215    111.51609   -4115.1227 
33825000    87.197972   -4594.0583   -4444.6039   -4594.0583            0    1975.2345    17.877551    23.449144    21.867599    9167.1876     2309.493     1379.419    2236.7914   -37.719598   -337.27887   -292.95523   -4180.5269 
33826000    79.917968   -4580.9838   -4444.0071   -4580.9838            0     1940.589    17.880334    23.389432    21.953773    9181.3064    1769.1352    1954.2401    2098.3915   -656.59756    221.50481    172.86713   -4184.1624 
33827000    85.668364   -4594.0217   -4447.1891   -4594.0217            0    2233.1457    17.926444    23.382194    21.823478    9147.5203    1511.8275    1963.5258    3224.0837   -193.34643    95.730611    276.45058   -4149.2714 
33828000    91.111778   -4584.9774   -4428.8149   -4584.9774            0    2980.9459    17.919356    23.317033    21.840538    9125.5495    1830.1643     3765.958    3346.7154   -436.12216    297.92027    163.29069   -4032.0904 
33829000    86.271201   -4592.7019    -4444.836   -4592.7019            0    1838.0092    17.814109    23.386163     21.99949    9165.0679    2827.1356     621.3475    2065.5444    115.79293   -24.423447    -435.0514    -4199.162 
33830000    87.398948   -4580.1521   -4430.3533   -4580.1521            0    2107.9165    17.913984     23.52229    21.706719    9146.7323    1626.6838    1816.1372    2880.9285    -215.4139    240.39631    565.78771   -4149.1663 
33831000    82.126624   -4581.4918   -4440.7296   -4581.4918            0    2689.5023    17.863653    23.396686     21.86291    9137.6095    2842.0877    2366.9734    2859.4457    106.39242   -457.64787    254.85019   -4082.3193 
33832000    84.618707   -4594.0524   -4449.0189   -4594.0524            0     1924.166    17.876497    23.332849    21.997162    9175.2276    2698.9466     1857.481    1216.0703   -52.418853   -893.48187    34.814142   -4191.5437 
33833000    79.626963   -4587.0745   -4450.5966   -4587.0745            0    1476.9147    18.110069    23.243271    21.804674    9178.3992    703.27268    2091.9567    1635.5148   -6.5957782   -256.92484   -455.17861   -4252.9005 
33834000    93.593033   -4588.5373    -4428.122   -4588.5373            0    2610.3649    17.966688    23.250328    21.885263    9142.1612    1474.2941    2914.5368    3442.2639    241.44989    4.7792479    -166.4493   -4080.0846 
33835000    87.239949   -4592.2915   -4442.7652   -4592.2915            0    1850.5376    17.885866    23.416977     21.87541     9162.142    1862.8534     747.2537    2941.5057    55.250067    70.118379   -64.987742   -4195.4955 
33836000     82.36498   -4582.0038    -4440.833   -4582.0038            0    2230.6775    17.799156    23.566397    21.788207    9139.3243    2332.2727    1123.5667    3236.1931   -608.90997   -356.15916      166.733   -4143.5112 
33837000    83.815193    -4590.376   -4446.7196    -4590.376            0    2276.0286    17.890939    23.400805    21.854485     9149.651    2389.0289    2377.7978     2061.259   -383.00898    366.05563    192.48057   -4143.0103 
33838000    87.589053   -4581.1748   -4431.0502   -4581.1748            0    2585.2491     17.94702    23.264355    21.882147    9136.3618    2351.7222    2679.1281     2724.897   -2.7098498   -19.701111    219.35606     -4086.58 
33839000    80.863079   -4593.0208   -4454.4243   -4593.0208            0    1889.9495    17.913223    23.323243    21.953766    9172.1619    2013.8576     1773.492    1882.4988    -992.5254   -553.85982    189.72116   -4201.6122 
33840000     86.10954   -4588.0153   -4440.4265   -4588.0153            0    1990.6257    17.927129    23.329676    21.903831    9160.9292    1104.0872    2137.1962    2730.5937   -26.742275    454.96448    -72.82294   -4174.4734 
33841000    83.858701   -4597.1848   -4453.4538   -4597.1848            0    2956.6322     17.88811    23.365919     21.82122    9120.6618    2551.9961    2676.2666    3641.6341     245.1328   -424.17687     300.2543   -4060.1759 
33842000    87.100107   -4587.3971   -4438.1105   -4587.3971            0    1460.4721    18.004887    23.364104    21.870729    9200.3171    1823.3031    452.25122    2105.8619   -207.64421   -63.925262    -27.89657   -4242.1485 
33843000    83.711429   -4590.1461   -4446.6676   -4590.1461            0    3296.1834    17.817189    23.301043    21.924679    9102.2294    3542.1466     3343.465    3002.9385    140.63349   -358.18226     34.96762   -4009.1102 
33844000    82.739429   -4586.1208   -4444.3082   -4586.1208            0    1711.8411    17.939498    23.374903    21.857098     9165.425    2193.6849    2183.1901    758.64842     282.9539   -637.13201   -77.915233   -4215.4893 
33845000    83.745622   -4591.6953   -4448.1581   -4591.6953            0    2719.2651      17.8316    23.326176    21.981161    9142.9109    4587.3408    1817.5521    1752.9024    496.90265   -45.499185    227.47325   -4085.5714 
33846000     90.00242   -4592.1457   -4437.8847   -4592.1457            0    1500.5648    17.833245    23.391048    21.984373    9170.5241    1838.6595    1488.7495    1174.2853   -450.28854    137.49507    196.69579   -4237.1951 
33847000    90.327416   -4596.4697   -4441.6516   -4596.4697            0    2226.5733    17.882636    23.395002    21.866271     9148.067     1359.214    2232.0209    3088.4849    260.86948    -249.2459    122.08234   -4144.5929 
33848000     81.30416    -4589.493   -4450.1404    -4589.493            0    2534.4709    17.829703    23.239407    22.006765    9118.5414    2767.1143    3058.2628    1778.0357     569.4466    238.89738    136.60902   -4113.0949 
33849000     88.62375   -4590.1026   -4438.2045   -4590.1026            0    2885.2637    18.005654    23.256757    21.733946    9101.1577    2132.9801    3212.3941     3310.417   -1101.0336    133.27273    327.46927   -4055.2404 
33850000    84.244935   -4594.3317   -4449.9388   -4594.3317            0    2767.5107    17.975438    23.303787    21.786324    9126.1991    2401.1018    2921.1246    2980.3056   -364.29094   -11.995617    506.34683   -4081.5935 
33851000    83.310546   -4596.2103   -4453.4189   -4596.2103            0    1789.0956    17.993741    23.291123    21.899554    9177.9811    1030.3198    2286.1143    2050.8528   -618.94938    5.5005011   -389.74773   -4213.9459 
33852000    89.625929   -4589.8036   -4436.1878   -4589.8036            0     2880.814    17.961108    23.262304    21.813601    9114.0882    3328.5905    1927.8729    3385.9787    516.49403   -200.81488   -25.821729   -4053.2711 
33853000    81.926096   -4578.8337   -4438.4152   -4578.8337            0    2025.3525    17.774685    23.485651    21.958748    9166.6805    1802.9255    1633.1527    2639.9792   -717.03532   -60.355045    -22.10339   -4167.6526 
33854000    86.298615   -4591.8039   -4443.8911   -4591.8039            0     1741.317    17.897471    23.319436    21.968849    9168.8956    2006.2328    1941.0517    1276.6665   -378.33419   -153.61103      111.792    -4211.044 
33855000    85.193203        -4583   -4436.9818        -4583            0    2479.1717    17.714579    23.560266    21.883122    9133.1438    3407.2286    867.51229    3162.7741   -149.57936    140.16428   -181.02036   -4106.7622 
33856000    83.771816   -4596.7889   -4453.2068   -4596.7889            0      1380.26     17.90857    23.417737    21.908475    9187.9363     1188.729    425.65352    2526.3976   -218.90185   -20.921772   -171.96983   -4268.2566 
33857000    86.299511   -4594.6795   -4446.7651   -4594.6795            0    2370.7329    17.834077    23.422248    21.863686    9132.7712    2404.0462    2571.5989    2136.5537   -313.36792   -260.76797    184.05478   -4131.0022 
33858000    82.361812   -4584.7868   -4443.6215   -4584.7868            0    1189.4806    17.831423    23.502031     21.97379    9208.6585    1445.8211    969.41453     1153.206    680.02968    272.84769    339.30946   -4283.8756 
33859000      84.2207   -4589.8932   -4445.5418   -4589.8932            0    1879.9042    17.973278    23.282555    21.866891    9150.5032    1873.2822    2051.0654     1715.365   -68.664504    219.46809   -28.691593   -4194.6672 
33860000    82.753455   -4588.2168   -4446.3802   -4588.2168            0    1639.5269    17.922891    23.361366    21.916791    9176.6306     1450.724    2041.3815    1426.4754    -130.8797   -90.564026   -258.89975   -4226.9595 
33861000    88.740579   -4591.5586   -4439.4603   -4591.5586            0    1494.1431    17.785857    23.603681    21.828695    9163.9417    1965.1047    452.09183    2065.2327    253.60502   -665.73374    -157.9485    -4239.773 
33862000    82.937452   -4584.4269   -4442.2749   -4584.4269            0    2658.5523    17.862336    23.528978    21.747847    9140.2399    2894.6608    1330.4753    3750.5209    359.64091    98.746517    195.58123   -4087.8872 
33863000     83.85825   -4587.8472   -4444.1171   -4587.8472            0    2028.3766    18.055579    23.300779    21.780869    9163.4088    1502.6364    2235.6262    2346.8673    529.04849    480.23672   -28.614837    -4173.047 
33864000    87.440034   -4579.9296   -4430.0603   -4579.9296            0    1810.5008    17.967572    23.368912    21.878835    9186.5427    1467.2914    1925.0523    2039.1587   -300.72229   -230.79475    144.39032   -4187.4961 
33865000    85.539246   -4581.0613     -4434.45   -4581.0613            0    2186.1186     18.05754    23.214738    21.878548    9171.5101    891.97158    1743.0753    3923.3089   -98.720629   -339.43777   -145.27215   -4142.0411 
33866000    81.440822   -4586.9348   -4447.3481   -4586.9348            0    1996.5995    18.038655    23.149449    21.972408    9175.3464    2150.7351    3432.9958    406.06756   -688.02718   -448.98849    85.521027   -4180.1771 
33867000    80.053422   -4590.8009    -4453.592   -4590.8009            0    2253.9245     17.85898    23.214402    22.039062     9137.076    2519.5413    2888.9188    1353.3135    720.33941    71.353738    468.75643   -4153.2456 
33868000    87.560571   -4599.4944   -4449.4186   -4599.4944            0    2385.1126    17.924079    23.186352     21.99316    9140.2257    2006.1652    2466.8609    2682.3117   -122.20385   -229.76307    230.93281   -4131.4811 
33869000    86.538899   -4584.4096   -4436.0849   -4584.4096            0    2509.8133    17.769158    23.258669    22.106096     9136.161    2659.7444    2419.2946     2450.401   -151.21102    162.79805   -82.872701   -4101.6735 
33870000    84.465725   -4592.8621   -4448.0907   -4592.8621            0    1867.7082    17.841937    23.323902    22.005711    9157.5358    2236.0491    2045.6123    1321.4633    116.11986   -212.55368    -343.6801   -4198.6522 
33871000    84.966486   -4596.0734   -4450.4437   -4596.0734            0    764.18389    17.903204     23.40597    22.023775    9228.8836    1774.5491    325.79736    192.20521   -126.83455   -162.92482   -203.01177   -4347.5893 
33872000    91.180471   -4588.3655   -4432.0853   -4588.3655            0    2135.3037    17.927583    23.239517    21.981975    9158.3147    1880.6309    2046.6875    2478.5926    -95.96177    143.06646   -248.18231   -4146.8843 
33873000    79.648138   -4590.9301   -4454.4159   -4590.9301            0    2563.3584    17.943392    23.342724    21.852758    9152.9763     1841.295      2111.43    3737.3504   -125.89364   -16.622346    468.44248   -4112.2415 
33874000    86.416294   -4583.7562   -4435.6416   -4583.7562            0     2675.289    17.797066      23.3006    22.002882    9124.2063    3405.2223    2852.2363    1768.4085   -322.57882    39.149367    124.97615   -4079.6484 
33875000    88.502072   -4581.4496     -4429.76   -4581.4496            0    1039.4639    17.976401    23.393345    21.902897    9210.7852    599.23666     832.1776    1686.9775    113.64785   -111.58025   -230.91861    -4290.129 
33876000    88.447024   -4593.7311   -4442.1359   -4593.7311            0    2514.9555    17.954884    23.258002    21.924912    9155.7274    2906.9652    2840.9249    1796.9763   -328.42385    -125.7624    -163.4917   -4106.3217 
33877000    86.505688   -4588.7477   -4440.4799   -4588.7477            0      2070.65    17.935147    23.283151    21.947911    9165.1563    2796.6038    2504.0818    911.26442   -493.40175   -67.712585    452.57839   -4163.7077 
33878000    87.919409   -4592.0246   -4441.3338   -4592.0246            0    2198.4103    17.978159     23.26553    21.927171    9171.5085    1832.0762    1991.6976     2771.457    31.808368    -504.4138   -52.376926   -4147.2809 
33879000    89.605017   -4585.9794   -4432.3995   -4585.9794            0     2495.256    17.937929    23.373066    21.818126    9147.5636    2354.0806    2254.8117    2876.8757   -451.92586    93.818003    126.03193   -4099.5128 
33880000    82.148787   -4591.4441   -4450.6439   -4591.4441            0    2568.4951    17.890509    23.333975      21.8792    9133.6185    2827.6757    2351.4192    2526.3904   -311.80058   -383.93402   -146.56857   -4108.5089 
33881000    83.600699   -4594.5019   -4451.2132   -4594.5019            0    2137.9814    17.893674    23.294261    21.973237    9158.8827    2084.1283    2542.4773    1787.3385   -397.22644   -98.644944   -98.891522   -4165.6368 
33882000    90.469475    -4588.725   -4433.6634    -4588.725            0    2695.1666    17.750032    23.341967    22.043659     9133.143    2883.1205    3915.4923    1286.8871   -496.96688   -453.93881   -127.80038   -4074.6739 
33883000    80.917612   -4589.0642   -4450.3742   -4589.0642            0    1104.4234    17.892774    23.397313    22.007568    9213.3109    1397.1744     913.7227    1002.3731   -755.03657    251.90738     416.2026   -4301.9765 
33884000    82.580567   -4592.6639   -4451.1237   -4592.6639            0    2880.7857    17.936756    23.210787    21.896724    9116.1805    2671.7308    3089.8436    2880.7827    325.09958   -324.26617    561.94157   -4068.1228 
33885000    83.830618   -4598.6341   -4454.9512   -4598.6341            0     2513.974    17.956986    23.259049    21.889135     9142.269    3287.4898    1942.5831    2311.8491   -25.916255   -135.41268    462.51425   -4119.7615 
33886000    84.172421    -4588.138   -4443.8693    -4588.138            0    1158.1442    18.110483    23.184055    21.921238    9204.1676    184.91716    1956.9709    1332.5444   -37.701517    547.26314    110.98963   -4288.4078 
33887000    82.650775   -4593.3171   -4451.6565   -4593.3171            0    1973.2929     18.02273    23.302316    21.867945    9183.9102    1549.9232      1915.65    2454.3056    82.448482   -315.69349   -111.09136   -4187.3577 
33888000    87.761417   -4593.7282   -4443.3081   -4593.7282            0     2458.705     17.85695    23.390866    21.911659    9152.2705    2453.0762       2061.8    2861.2387    454.07041    18.665135   -188.94942   -4115.1288 
33889000    84.047265    -4604.112   -4460.0578    -4604.112            0    1379.5596    17.908716    23.307104    21.992472    9179.6646    1135.0126    1320.9768    1682.6893    342.57392      271.418   -105.90784   -4275.3679 
33890000     82.51074   -4584.6071   -4443.1865   -4584.6071            0    2335.1065    17.968291    23.246694    21.876033    9137.6926    1927.8791    2334.8415    2742.5989   -78.701275   -412.53994   -70.106786   -4132.0012 
33891000    83.015119   -4594.8125   -4452.5274   -4594.8125            0    2399.8303     17.98502    23.339867    21.780692    9142.8367     1514.736    2362.4076    3322.3474    25.293537   -210.83883   -210.26084   -4132.5367 
33892000    82.920105   -4590.3587   -4448.2365   -4590.3587            0    2409.7397    17.941428    23.257941    21.883503    9131.5627    2860.6801    2338.3956    2030.1433    -501.6537    388.54017   -470.12587   -4127.3206 
33893000    84.195286   -4592.8322   -4448.5243   -4592.8322            0    2187.2951    17.939758      23.3068    21.850103     9135.929    2425.0257    1936.3725     2200.487    302.57902   -86.628036   -93.211261   -4157.0932 
33894000     85.40835   -4591.7788   -4445.3919   -4591.7788            0     2255.067    17.915446    23.347835    21.863047    9145.0253    2020.8525    2116.4639    2627.8847    107.10254   -329.50375   -17.848517   -4144.6317 
33895000    87.254997   -4585.2415   -4435.6894   -4585.2415            0    2192.8865    17.899683    23.363764    21.881728    9151.0253    2675.0945     2242.223    1661.3419    346.63809   -556.97184   -229.84142   -4143.0305 
33896000    84.324057   -4593.4953   -4448.9668   -4593.4953            0    1124.8104    17.949248    23.165876    22.107859    9192.6701    1145.8617    1590.9611    637.60823   -397.22341   -144.22445   -57.075248   -4298.1683 
33897000    78.180095   -4586.4932   -4452.4952   -4586.4932            0     3060.216    17.828307    23.270444    21.938839    9101.8237    3279.8428    3007.5678    2893.2375    -261.8843    318.46475   -132.97619   -4046.2798 
33898000    83.375143   -4599.2735   -4456.3713   -4599.2735            0    1428.0837    17.922232    23.334574    21.952837    9180.8444    1165.8201    1407.0334    1711.3977    174.18805   -89.122127    194.82881   -4265.1606 
33899000    89.286207   -4585.7388   -4432.7053   -4585.7388            0    1822.3071    17.897646    23.385654    21.885729    9160.2315    2133.4186    1268.6207     2064.882     360.9901   -369.87466    143.25843   -4189.2586 
33900000    83.328908   -4588.8597   -4446.0368   -4588.8597            0     2150.499     17.91446    23.213271    22.012294    9153.8832    2141.9178    2927.7506    1381.8285    1235.4215   -37.893455    420.22143   -4158.9452 
33901000    85.959747   -4582.8009   -4435.4688   -4582.8009            0    2121.7107    17.895277    23.473636    21.789097    9152.8854    2183.2786    1754.3122    2427.5412   -818.49022    241.36293    604.77714   -4152.2513 
33902000     82.52388   -4595.3876   -4453.9445   -4595.3876            0    1643.6224    17.894974    23.274619    21.967132    9149.2817    1297.9858    1825.1724    1807.7091   -3.5454527    213.98268    185.81093   -4234.6313 
33903000     87.64164     -4591.26   -4441.0452     -4591.26            0    1935.4335    17.854257    23.454208    21.862391    9155.0396    1820.7043    1011.6208    2973.9754    653.14916    499.91363   -332.60119   -4182.6322 
33904000    79.747789   -4585.1555   -4448.4705   -4585.1555            0    3463.4671    17.825047    23.352682    21.845695    9093.5472    4115.4585    2685.2227    3589.7201   -440.09853    176.27001    360.76823   -3989.1453 
33905000    86.227374   -4593.3532   -4445.5624   -4593.3532            0    2521.4294    17.898859    23.346381    21.832996    9123.4325    2466.1439    3668.7916    1429.3527   -360.46364    -44.38892    231.91245   -4110.0714 
33906000    76.928073   -4592.0295   -4460.1774   -4592.0295            0    1975.2636    17.921572    23.203968    22.060595    9173.9336    1014.5535    3172.5936    1738.6436    251.03929    508.10343   -161.85077   -4195.9021 
33907000    81.949299   -4586.3289   -4445.8707   -4586.3289            0    1171.1933     17.93493    23.491507    21.783058    9177.6062    1446.2822    926.77349    1140.5243   -618.21327   -94.921898   -244.02421   -4289.1111 
33908000     83.96074   -4593.4069   -4449.5011   -4593.4069            0    2116.3969    17.883932    23.417573    21.869158    9158.7657    2613.8606    1256.9637    2478.3665    -75.96991    439.39958   -569.03107   -4166.8114 
33909000    86.888738   -4595.9697   -4447.0453   -4595.9697            0    1796.4791    17.814831     23.50679    21.921835    9180.1954    2906.3252    1045.4137    1437.6985   -368.47885    281.92874    15.442819    -4206.526 
33910000    84.882691   -4579.2349   -4433.7489   -4579.2349            0    1729.4037    17.881744    23.528559    21.834546    9186.4854    1497.5132     1534.206    2156.4919      77.5822    145.16063    240.27685   -4202.0512 
33911000    82.976528   -4597.8443   -4455.6254   -4597.8443            0    1554.9848    17.829298    23.432421    21.978213    9182.1376    2205.4577    1345.6818    1113.8148   -789.11325   -76.727309    28.700297   -4247.3942 
33912000    81.896744   -4588.4622    -4448.094   -4588.4622            0     1766.074    17.858987    23.304882    22.013399     9162.011    1656.3156    1665.5598    1976.3466   -705.42179   -2.1048119   -64.607014   -4212.1138 
33913000    82.565452   -4584.5926   -4443.0783   -4584.5926            0    2147.1275     17.97195    23.411236    21.779559    9163.6528    2037.5679    1742.0159    2661.7986   -157.58711   -42.524512    366.84957   -4156.1308 
33914000    84.443322   -4592.3996   -4447.6666   -4592.3996            0    1718.3717    17.871822    23.496407    21.867269    9182.5825    1246.6671    1440.4227    2468.0254   -29.925754      277.603    278.51663   -4217.5448 
33915000    80.218957    -4578.273   -4440.7805    -4578.273            0    3365.6827    17.953788    23.225376    21.827618     9101.756    2656.7995    3910.5254     3529.723   -192.70259   -177.82621      192.888   -3994.0205 
33916000    83.419672   -4581.8771   -4438.8986   -4581.8771            0    2514.0361     17.91999    23.364986    21.808424    9131.1939    3219.4392    2010.1429    2312.5261   -17.056367    56.264378    371.84082   -4104.1067 
33917000    83.651528   -4594.9468   -4451.5709   -4594.9468            0    2391.0874    17.900034    23.312028     21.86715     9124.858    2781.5201    1573.4026    2818.3396   -196.75433   -192.85514   -145.20777   -4133.3729 
33918000    89.896713   -4585.0015   -4430.9216   -4585.0015            0    2395.7646    17.872027    23.265827    21.980144    9139.5083    3512.8055    2282.3345    1392.1537   -506.46425   -980.88982   -115.95309   -4111.5893 
33919000    85.628537   -4581.1552   -4434.3908   -4581.1552            0    2117.4138    17.890284    23.376686    21.912976    9164.3474     998.2222    2279.1157    3074.9037    623.71367   -364.83414    450.23562   -4151.3929 
33920000    85.445642   -4591.8441   -4445.3932   -4591.8441            0    1292.8753    17.790003    23.652051     21.85316    9195.1554    1797.2008     744.5602    1336.8648      414.263   -47.732036   -16.552292   -4272.0161 
33921000    84.808174   -4588.4744   -4443.1161   -4588.4744            0    2685.2972    17.869849    23.306404    21.901135    9121.4266    2435.2864    2486.0123     3134.593   -646.75587    361.59581    12.232813      -4085.9 
33922000    84.022908   -4594.5885   -4450.5761   -4594.5885            0    1724.0959    17.948459    23.374287    21.897496    9186.7103    1815.4069    1491.0343    1865.8463    -530.7609   -201.06952    54.298466   -4219.5839 
33923000    79.759978   -4582.8137   -4446.1078   -4582.8137            0    1735.9444     17.89215    23.479203    21.830428    9170.8192     1232.646    2189.2534    1785.9339   -550.60466    157.86313   -120.82782   -4213.9305 
33924000    81.897932   -4590.4556   -4450.0854   -4590.4556            0    2208.7668    17.962198    23.256998    21.904896    9150.7003    2341.7958    2067.6404    2216.8644    -438.4818   -256.27159   -18.869205   -4155.3175 
33925000    86.817929   -4587.0217   -4438.2187   -4587.0217            0     1613.074      17.9686    23.357659    21.915743    9198.1345    2667.6576    1991.1687    180.39555   -447.73611   -437.15754    128.99747   -4221.8324 
33926000    88.215244   -4599.4308   -4448.2329   -4599.4308            0    1465.5418    17.887146    23.456643    21.813848    9152.4882    1294.9839    440.75861    2660.8828   -672.36451    -71.76747    439.72142   -4252.6129 
33927000    88.095048   -4585.9712   -4434.9793   -4585.9712            0     1604.337    17.963269    23.296054    21.949893    9185.4439    1067.0174    2570.4865    1175.5071   -225.35988    66.762553    122.76525   -4220.0619 
33928000    90.832032   -4595.0732   -4439.3902   -4595.0732            0    2056.4875    18.014983    23.321284    21.837004    9174.4364    2189.7571    1264.2536    2715.4518    65.701386    35.273499    141.85315   -4164.2327 
33929000    82.905208   -4587.5602   -4445.4635   -4587.5602            0    1895.1561    17.895917    23.316718     21.97115    9167.9908    2508.5477     2000.657    1176.2636    184.59541    546.54808    338.33475   -4192.0702 
33930000     85.82583   -4593.2707   -4446.1682   -4593.2707            0    1774.2987    17.975434    23.334891     21.92877    9198.1272    1639.5646    2632.7707    1050.5609    229.63551    238.73484   -217.27338   -4208.1544 
33931000    86.649859   -4591.9398   -4443.4249   -4591.9398            0    1337.1701    17.779456    23.449276    22.041708    9189.5268    1086.3821    606.81674    2318.3116    247.27266   -14.639419      244.395   -4264.2176 
33932000    93.888619   -4593.0788   -4432.1569   -4593.0788            0    2243.8327    17.846407      23.3853    21.906698    9142.6199    2199.3712    2441.7624    2090.3645   -88.778195   -44.087518   -311.09757   -4132.9738 
33933000    86.320029   -4597.4888   -4449.5392   -4597.4888            0    1512.1798    17.815794    23.479246    21.930256    9173.4568    2451.1318    1248.1443     837.2633    148.44705    312.42571    12.506785   -4247.2316 
33934000    86.835995   -4599.0502   -4450.2162   -4599.0502            0     2037.151    17.832503    23.377287     21.97148    9159.3729    2662.6165    1465.7333    1983.1032    301.01708    308.69311    449.65059   -4178.0935 
33935000    87.766963   -4585.6931   -4435.2635   -4585.6931            0    2770.6018    17.834983    23.298517      21.9678    9128.2504    3272.9508    2951.5004    2087.3541   -554.91434   -269.34574    -96.99418   -4066.4239 
33936000    82.979993   -4577.6426   -4435.4177   -4577.6426            0    2800.2163    17.828429    23.298735     21.95527    9119.7767     2994.377    2564.8041    2841.4679    430.56709    475.74599   -523.18513   -4062.9817 
33937000    86.160392   -4595.9574   -4448.2814   -4595.9574            0     2669.425    17.915668    23.416488    21.733681    9117.7579    2758.0281    3649.1542    1601.0926   -18.549559   -87.274988   -144.48191   -4093.3196 
33938000    87.658968   -4581.6191   -4431.3746   -4581.6191            0    2286.1751    17.935991    23.332286    21.885283    9158.7209    1706.5047    2367.8072    2784.2134   -240.35301   -515.00422    254.13841   -4126.0089 
33939000     82.46676   -4596.1204   -4454.7752   -4596.1204            0    1557.6515    17.964494     23.34109    21.936114     9198.051    1993.5996    899.42387    1779.9309    265.03561   -446.55418    275.55303   -4245.8254 
33940000     85.79809   -4577.5249   -4430.4699   -4577.5249            0    2090.0183    17.996414    23.397159    21.771355    9167.1545    2094.8071     1185.821    2989.4267   -217.38307    26.133719    675.60317    -4151.048 
33941000    86.450169   -4589.5435   -4441.3709   -4589.5435            0    2123.8769    17.897279    23.359783    21.909325    9159.7749    2159.3208    2498.8433    1713.4667    648.99213    -572.2584   -214.57299   -4157.6508 
33942000    86.054382   -4586.6821   -4439.1878   -4586.6821            0    1656.7927    17.843926    23.467784    21.955278    9193.9349    2056.0779    2208.8152    705.48507   -7.5349302    51.771245     3.959075   -4217.0382 
33943000    86.126149   -4589.2067   -4441.5894   -4589.2067            0    2608.4147    17.863579    23.445416    21.803444    9131.6973    1847.2716     2295.206    3682.7666   -216.41673    385.24348    399.24552     -4094.21 
33944000    86.896953   -4580.7884     -4431.85   -4580.7884            0     2233.963    17.761492    23.366905    22.036862    9145.9828    2654.7033    2201.3593    1845.8265   -544.02624    620.45311    393.55475   -4133.8733 
33945000    83.715739   -4588.4741   -4444.9882   -4588.4741            0    2794.4926    17.847302    23.304478    21.941995      9126.16    3382.7707    3056.7507    1943.9563    -273.6896    90.371953    30.720015   -4073.0533 
33946000    82.106358   -4583.1115    -4442.384   -4583.1115            0    2058.6863    17.831641    23.370099    21.949312    9146.8754    1544.6815    1756.3375    2875.0398   -432.06193   -587.56106   -82.848529   -4167.7598 
33947000     84.38542   -4587.6472   -4443.0135   -4587.6472            0    1535.9823    17.905427    23.374621    21.911312    9170.5975    2183.1352    577.12858    1847.6831    48.487985    26.612695    758.24418   -4237.5855 
33948000    84.396028   -4581.3005   -4436.6486   -4581.3005            0    2806.9206    17.895786    23.326996    21.857197    9124.3944    3124.7212    2597.3488    2698.6919   -497.40541    107.36439    509.27991   -4063.1319 
33949000    89.497901   -4588.2682   -4434.8718   -4588.2682            0    2667.2568    17.832401    23.351033    21.907598    9122.4334    2937.1602    2132.8092     2931.801   -33.554882    -70.44989    117.07786   -4080.0164 
33950000    85.949439   -4591.9089   -4444.5945   -4591.9089            0    1408.4339    18.029228    23.265876    21.902207    9187.2261    1271.2417     2136.794    817.26611     25.91953   -168.40484    542.65203   -4255.8837 
33951000    82.576716   -4585.5962   -4444.0626   -4585.5962            0    1602.1449    17.920539    23.316935    21.986838    9187.2452    1805.3449    1647.0027    1354.0872    329.49908    53.151785   -204.07025   -4229.3967 
33952000    86.140954   -4586.4383   -4438.7956   -4586.4383            0    2827.6615    17.851509    23.167911    22.053329    9120.8642     3463.626    2884.0947    2135.2637   -1020.3668   -274.46865    472.03111   -4062.6645 
33953000    84.215419   -4593.2645   -4448.9221   -4593.2645            0    2531.7097    17.888149    23.474901    21.755324    9135.5507    2006.2046    2351.6914    3237.2332    -817.8123    211.20376     893.9308   -4111.6158 
33954000    80.805114   -4587.2981   -4448.8009   -4587.2981            0    2121.9612    17.813685    23.463578    21.892579    9150.5019    1653.6376    1757.0802    2955.1658    236.67988    448.47051    -55.85309   -4165.6237 
33955000    84.429006    -4597.829   -4453.1205    -4597.829            0    1192.2536    17.886754    23.309991    22.047121    9192.3284    1787.2842    1611.6569    177.81965     -171.077    194.43935   -237.95495   -4293.2862 
33956000    82.795281   -4590.3215   -4448.4132   -4590.3215            0    2861.6362    17.831476    23.330265      21.9214    9119.5891    2406.7805    3394.8987    2783.2295   -897.65553   -258.07211   -84.285394    -4067.816 
33957000    84.867206   -4592.1756   -4446.7161   -4592.1756            0    1904.1845    18.005372    23.270324    21.873523    9164.8056       1496.5    1673.2819    2542.7716    87.512183    8.5725663    441.32211   -4192.2042 
33958000    89.701072   -4591.9735    -4438.229   -4591.9735            0    2202.1997    17.957943    23.163931    22.027157    9162.7811    2288.2788    2996.4084    1321.9119    182.16337    -84.69169    128.96777   -4143.9495 
33959000    82.307112   -4583.2831   -4442.2115   -4583.2831            0    2414.0991    18.023281     23.16501    21.903447     9144.897    2407.5087    2395.9664    2438.8221    -935.0474    57.822442    371.97594   -4120.2457 
33960000    86.580673   -4582.3787   -4433.9824   -4582.3787            0    2031.1643     18.05016    23.269716    21.837642    9172.2919     1367.469    1866.3349    2859.6889    213.42214    414.36767   -80.722594   -4162.2767 
33961000    86.803004   -4594.9802   -4446.2028   -4594.9802            0    2209.7243    17.971099    23.117242    22.035874    9154.6328    2533.5817    2676.8397    1418.7515    151.05111   -125.57403    209.57515   -4151.1805 
33962000    87.846351   -4594.2859   -4443.7202   -4594.2859            0    1869.6501    18.023806    23.163029    21.951676    9164.5163    910.51688     2836.269    1862.1644   -882.95031    323.68676    238.25893    -4193.832 
33963000     87.31629   -4588.9717   -4439.3146   -4588.9717            0    1853.7738    18.036673     23.15466     21.98724    9182.5977     1572.047    1640.5158    2348.7585   -882.38223   -507.98559    276.81979   -4191.0595 
33964000    83.698463   -4591.0066   -4447.5503   -4591.0066            0    1912.9111    17.854919     23.28961      22.0046    9150.2633    2366.0812    1973.9473    1398.7047    252.89792    414.25345   -193.58869   -4192.2777 
33965000    80.104897   -4597.3073   -4460.0102   -4597.3073            0    2527.0204     17.81187    23.319409    21.983297     9131.032    3609.6735    2335.0828    1636.3047    80.867576   -316.12357    70.460849   -4123.4952 
33966000     81.83149   -4587.9251   -4447.6687   -4587.9251            0    2263.4957    17.856934    23.425919    21.867805    9147.6328    2665.3874    2690.1294    1434.9704    467.38243   -274.08457    265.59397   -4145.6984 
33967000    82.098823   -4593.5574   -4452.8428   -4593.5574            0      1388.08    17.917828    23.343879     21.97485    9191.4556    1454.0158    1247.4671    1462.7573    631.91114   -382.28799    235.30019   -4266.7735 
33968000    84.759076   -4587.0348   -4441.7607   -4587.0348            0    2471.0112    18.000755    23.155592    21.939434    9144.7544     1749.718    3262.7378    2400.5777   -278.60886    341.25164    57.869142   -4112.2097 
33969000     86.02708   -4587.8167   -4440.3692   -4587.8167            0    2035.5411    17.915763    23.297008    21.929002    9152.8077    1573.8985    2922.3362    1610.3887    306.57866     151.6935   -151.80218   -4168.6564 
33970000    81.273689   -4591.3284   -4452.0281   -4591.3284            0    1885.2072    17.985077    23.255603     21.94103    9176.9197    2668.7512    1510.5427    1476.3278   -339.72826    -695.5799   -49.023387   -4199.7196 
33971000     82.31798   -4584.5616   -4443.4714   -4584.5616            0    2033.2393    17.984574    23.269785    21.891589    9161.5681    1747.6042    2468.8617     1883.252    480.74049    2.8210676   -40.011147   -4171.8061 
33972000     83.73249   -4594.1626    -4450.648   -4594.1626            0    2237.5843    18.074854    23.309985    21.731634    9156.0714    2071.2306       2177.9    2463.6223   -397.29525    -288.3856    404.80158   -4151.8591 
33973000    84.491507   -4593.5965    -4448.781   -4593.5965            0    1578.2659      17.9178    23.319858    21.983138    9185.4461    1676.8398    1314.8726    1743.0853    70.446689   -265.42641    52.955973    -4237.356 
33974000    84.011865   -4588.2377   -4444.2442   -4588.2377            0    2173.7634    17.950125    23.314722     21.84235    9141.0709    2166.9282     1839.957    2514.4049    154.76802   -294.74021 0.0092808745    -4154.453 
33975000    80.864859   -4588.4658   -4449.8662   -4588.4658            0     1324.313    17.877835    23.526307     21.85288     9191.309    1189.7798    1189.7273    1593.4319   -234.23456    8.6236755   -68.390806   -4272.3476 
33976000    89.904284   -4597.4995   -4443.4067   -4597.4995            0    2325.9144    17.789043    23.375694    22.006556    9151.0128    3862.6024    1983.9947     1131.146    339.12326   -144.66225   -110.05667   -4132.9945 
33977000    94.391074   -4584.9641    -4423.181   -4584.9641            0    2112.8533    17.960107    23.290819    21.845626    9138.1475    1691.5105    2048.5749    2598.4745    205.98525   -204.36182   -24.416445      -4141.6 
33978000    86.066416   -4582.9067   -4435.3918   -4582.9067            0    1988.4271     17.83584    23.300825    22.036935    9158.3251    3161.1083    2286.1864    517.98669    2.4188623    171.19783    264.04644   -4169.8079 
33979000    86.213362   -4586.9957   -4439.2289   -4586.9957            0    1966.4541    17.817155    23.403631    21.983273    9166.7194    1699.9527    2679.1992    1520.2102   -223.05429    -130.7464    19.382256   -4176.3392 
33980000    84.548558   -4576.7179   -4431.8045   -4576.7179            0    1827.4136    17.843321    23.290669    22.079212    9175.7427    3265.5427    2030.9467    185.75161    648.26501    -114.5081   -34.738534   -4187.2622 
33981000    84.898174   -4582.1765   -4436.6639   -4582.1765            0    2375.0736    17.863369    23.397343     21.86367    9138.0382    3005.8531    2407.7471    1711.6205   -501.60809    77.872411   -240.44583   -4120.1404 
33982000    87.065369   -4590.7076   -4441.4806   -4590.7076            0     2231.143    17.816504    23.453584    21.870103    9138.6602    1519.2669    2508.5145    2665.6477   -279.43399   -63.386398    244.86583   -4144.1183 
33983000    83.113037   -4589.1733   -4446.7204   -4589.1733            0    2929.8422    17.999908    23.252332    21.770552    9111.8436    2441.4324    3334.5112     3013.583     255.9526    165.56558    108.31888   -4057.3828 
33984000    86.752536   -4585.4061   -4436.7152   -4585.4061            0    2588.3634    17.912789    23.417247    21.803081    9145.6993    2934.2098    2095.9421    2734.9381    -794.5804    333.73293   -461.89453   -4091.4776 
33985000    85.544517   -4598.5582   -4451.9378   -4598.5582            0    1317.5124     17.90065    23.356099    21.974709    9187.3919    1553.2786    1365.0489    1034.2098   -37.308607   -465.44695    163.48582    -4275.406 
33986000    85.359357   -4592.0408   -4445.7378   -4592.0408            0    3032.9938    17.880836     23.35234    21.830017    9115.3282    3698.9808    3278.6123    2121.3883   -87.199118   -69.361994    30.406888   -4042.5385 
33987000    89.047418   -4597.7161   -4445.0918   -4597.7161            0    2592.5806    17.768407    23.412734    21.925722    9121.2537    2516.9988    2098.1253    3162.6178    91.634461   -526.18603   -42.509441   -4100.2161 
33988000    86.272856   -4585.8413   -4437.9725   -4585.8413            0    1771.0901    17.946334    23.270677    21.953044    9168.1039    1242.4409    2027.8552    2042.9741    256.07778   -262.76232    547.26325   -4201.1647 
33989000    86.267853   -4591.2857   -4443.4256   -4591.2857            0     1754.921    17.963994    23.371681    21.835347    9167.5433    1114.5277    1455.2266    2695.0088    306.20957   -431.91546    27.235184    -4208.794 
33990000    86.038167   -4588.9016   -4441.4351   -4588.9016            0    1554.3016    17.833354    23.403888    21.990177    9178.0359    2134.1115    976.46449    1552.3289    405.16086     562.2012   -394.71779   -4233.3884 
33991000    80.672219   -4588.3933   -4450.1239   -4588.3933            0    2579.7287    17.836852    23.388695    21.871902    9124.5351     3506.939    2734.7483    1497.4987   -925.54872    23.169184    274.26557   -4106.8343 
33992000    86.409519   -4592.3835   -4444.2806   -4592.3835            0    2169.4047    17.840361    23.469469    21.822353    9137.1021    1939.5212    2043.4872    2525.2056    67.597199   -528.14627    419.25221    -4155.196 
33993000    87.837589   -4587.1109   -4436.5603   -4587.1109            0    2229.1848    17.887256    23.411073    21.862761    9155.2464    2453.7996     1120.186    3113.5689    137.61144    61.343863    175.64222   -4138.9198 
33994000    85.644266   -4585.3963    -4438.605   -4585.3963            0    1517.7719     17.95842    23.396294     21.86854    9188.2962    1390.4606    2052.1198    1110.7352    -31.75098   -52.877232    597.62225   -4235.2207 
33995000    86.574053   -4583.6671   -4435.2821   -4583.6671            0    1592.5485    17.967462     23.44605    21.787061    9178.1483    2093.9532    1315.9413    1367.7511   -599.36746    172.18382   -298.56719   -4222.1133 
33996000    87.512824   -4591.2532   -4441.2592   -4591.2532            0    2202.2331     18.01358    23.129224     21.96186    9150.1922    1831.9047    2620.4457    2154.3489    -20.37796    42.813991   -203.67299   -4147.3796 
33997000    81.250182   -4585.8933   -4446.6333   -4585.8933            0    2643.7667    17.967742    23.280097    21.858804    9143.3358    2652.6494    2778.8648     2499.786   -537.28437   -466.76571   -393.63026   -4094.0971 
33998000    86.942752   -4584.4098   -4435.3929   -4584.4098            0    1730.8165    17.917131    23.437947    21.869903    9184.0637    2090.6964    768.11166    2333.6414   -129.18362    219.04274    147.48166   -4203.5671 
33999000    84.701477   -4596.5081   -4451.3327   -4596.5081            0    2387.6855    17.722945    23.553157    21.903876    9143.3633    3265.0403    1856.6169    2041.3992    -192.3877    201.89927   -594.75938    -4132.943 
34000000    88.438245   -4582.6195   -4431.0394   -4582.6195            0    2406.8354    17.798125    23.453111    21.920608    9150.1306    2726.6034    2537.9967    1955.9059    202.44737   -71.510394   -100.89555   -4109.8586 
Loop time of 358.829 on 64 procs for 250000 steps with 864 atoms

Performance: 120.392 ns/day, 0.199 hours/ns, 696.712 timesteps/s
194.9% CPU use with 32 MPI tasks x 2 OpenMP threads

MPI task timing breakdown:
Section |  min time  |  avg time  |  max time  |%varavg| %total
---------------------------------------------------------------
Pair    | 17.228     | 24.94      | 36.005     | 117.5 |  6.95
Bond    | 0.99974    | 1.2012     | 1.7037     |  12.8 |  0.33
Kspace  | 175.73     | 191.94     | 201.24     |  48.7 | 53.49
Neigh   | 0.32823    | 0.37901    | 0.40929    |   3.5 |  0.11
Comm    | 51.239     | 55.894     | 62.24      |  35.3 | 15.58
Output  | 0.58124    | 0.58163    | 0.58325    |   0.0 |  0.16
Modify  | 65.555     | 67.957     | 73.184     |  20.2 | 18.94
Other   |            | 15.93      |            |       |  4.44

Nlocal:        27.0000 ave          39 max          19 min
Histogram: 8 2 6 0 2 5 0 3 4 2
Nghost:        2142.56 ave        2264 max        2038 min
Histogram: 12 4 0 0 0 0 0 5 7 4
Neighs:        6634.44 ave        9586 max        4524 min
Histogram: 6 4 5 1 2 5 0 4 3 2

Total # of neighbors = 212302
Ave neighs/atom = 245.71991
Ave special neighs/atom = 2.0000000
Neighbor list builds = 1237
Dangerous builds = 0

unfix		3
unfix		2
unfix		1

write_data	data.final.${pid} nocoeff
write_data	data.final.0 nocoeff
System init for write_data ...
PPPM initialization ...
  extracting TIP4P info from pair style
  using 12-bit tables for long-range coulomb (../kspace.cpp:340)
  G vector (1/distance) = 0.37197474
  grid = 24 27 25
  stencil order = 5
  estimated absolute RMS force accuracy = 0.0031337935
  estimated relative force accuracy = 9.4373259e-06
  using double precision FFTW3
  3d grid and FFT values/proc = 4410 672
Last active /omp style is kspace_style pppm/tip4p/omp

write_restart   restart.lmp.${pid}
write_restart   restart.lmp.0
System init for write_restart ...
PPPM initialization ...
  extracting TIP4P info from pair style
  using 12-bit tables for long-range coulomb (../kspace.cpp:340)
  G vector (1/distance) = 0.37197474
  grid = 24 27 25
  stencil order = 5
  estimated absolute RMS force accuracy = 0.0031337935
  estimated relative force accuracy = 9.4373259e-06
  using double precision FFTW3
  3d grid and FFT values/proc = 4410 672
Last active /omp style is kspace_style pppm/tip4p/omp
Total wall time: 0:05:58
