LAMMPS (30 Jul 2021)
Processor partition = 1
  using 2 OpenMP thread(s) per MPI task
using multi-threaded neighbor list subroutines
variable        pid world 0 1
variable        phase world IceIh IceIII

shell cd ${phase}
shell cd IceIII
include Restart.lmp
echo both
log log.lammps
#include		in.partitions
include		in.temp
variable        temperature equal 85.22
variable	tempDamp equal 100.0
include		in.pressure
variable        pressure equal 2073.6
variable        pressureDamp equal 1000.0 # This is 1 ps
include		in.seed
variable        seed equal 745823

units		real
atom_style	full

read_restart	restart.lmp.${pid}
read_restart	restart.lmp.1
Reading restart file ...
  restart file = 30 Jul 2021, LAMMPS = 30 Jul 2021
  restoring atom style full from restart
  orthogonal box = (-0.0020544979 0.069151675 -0.089174027) to (20.002055 19.930849 20.789172)
  4 by 2 by 4 MPI processor grid
  restoring pair style lj/cut/tip4p/long/omp from restart
  restoring bond style harmonic/omp from restart
  restoring angle style harmonic/omp from restart
  972 atoms
  648 bonds
  324 angles
Finding 1-2 1-3 1-4 neighbors ...
  special bond factors lj:    0        0        0       
  special bond factors coul:  0        0        0       
     2 = max # of 1-2 neighbors
     1 = max # of 1-3 neighbors
     1 = max # of 1-4 neighbors
     2 = max # of special neighbors
  special bonds CPU = 0.002 seconds
  read_restart CPU = 0.006 seconds
include 	in.setup
variable	out_freq equal 1000
variable	out_freq2 equal 10000
variable	out_freq3 equal 1000

timestep	2.0

neigh_modify    delay 7 every 1

include		in.tip4p
# This is TIP4P/Ice

# create groups ###
group ox type 2
324 atoms in group ox
group hy type 1
648 atoms in group hy

# set charges - beside manually ###
set group ox charge -1.1794
Setting atom values ...
  324 settings made for charge
set group hy charge 0.5897
Setting atom values ...
  648 settings made for charge

# ### TIP3P Potential Parameters ###
pair_style lj/cut/tip4p/long/omp 2 1 1 1 0.1577 8.5
pair_coeff 1 1*2 0.000 0.000
pair_coeff 2 2 0.21084 3.1668
bond_style  harmonic
bond_coeff  1 450 0.9572
angle_style harmonic
angle_coeff 1 55 104.52
kspace_style pppm/tip4p/omp 1.0e-5
pair_modify tail yes

thermo          ${out_freq}
thermo          1000
thermo_style    custom step temp pe etotal epair emol press lx ly lz vol pxx pyy pzz pxy pxz pyz enthalpy

restart 	${out_freq3} restart.lmp.${pid} restart2.lmp.${pid}
restart 	1000 restart.lmp.${pid} restart2.lmp.${pid}
restart 	1000 restart.lmp.1 restart2.lmp.${pid}
restart 	1000 restart.lmp.1 restart2.lmp.1


include         in.dump
dump            myDump all atom ${out_freq2} dump.water.${pid}
dump            myDump all atom 10000 dump.water.${pid}
dump            myDump all atom 10000 dump.water.1
dump            myDump2 all dcd ${out_freq2} dump.dcd
dump            myDump2 all dcd 10000 dump.dcd
dump_modify     myDump append yes
dump_modify     myDump2 append yes


variable natoms 	equal  "count(all)"                        # NUMBER ATOMS
variable H      	equal  "enthalpy/v_natoms"                 # ENTHALPY-per-atom
variable Vol      	equal  "vol/v_natoms"                 # volume-per-atom
fix AVG all 		ave/time ${out_freq} 1 ${out_freq} v_Vol v_H file vol_enthalpy.dat
fix AVG all 		ave/time 1000 1 ${out_freq} v_Vol v_H file vol_enthalpy.dat
fix AVG all 		ave/time 1000 1 1000 v_Vol v_H file vol_enthalpy.dat


timer           timeout 02:55:00 every 1000
New timer settings: style=normal  mode=nosync  timeout=02:55:00

fix 		1 all shake 1e-6 200 0 b 1 a 1
Finding SHAKE clusters ...
       0 = # of size 2 clusters
       0 = # of size 3 clusters
       0 = # of size 4 clusters
     324 = # of frozen angles
  find clusters CPU = 0.000 seconds
fix             2 all nph aniso ${pressure} ${pressure} ${pressureDamp}
fix             2 all nph aniso 2073.6 ${pressure} ${pressureDamp}
fix             2 all nph aniso 2073.6 2073.6 ${pressureDamp}
fix             2 all nph aniso 2073.6 2073.6 1000
fix             3 all temp/csvr ${temperature} ${temperature} ${tempDamp} ${seed}
fix             3 all temp/csvr 85.22 ${temperature} ${tempDamp} ${seed}
fix             3 all temp/csvr 85.22 85.22 ${tempDamp} ${seed}
fix             3 all temp/csvr 85.22 85.22 100 ${seed}
fix             3 all temp/csvr 85.22 85.22 100 745823


run             250000
PPPM initialization ...
  extracting TIP4P info from pair style
  using 12-bit tables for long-range coulomb (../kspace.cpp:340)
  G vector (1/distance) = 0.37248321
  grid = 24 24 25
  stencil order = 5
  estimated absolute RMS force accuracy = 0.0033980335
  estimated relative force accuracy = 1.0233077e-05
  using double precision FFTW3
  3d grid and FFT values/proc = 3458 576
Last active /omp style is kspace_style pppm/tip4p/omp
Neighbor list info ...
  update every 1 steps, delay 7 steps, check yes
  max neighbors/atom: 2000, page size: 100000
  master list distance cutoff = 10.8154
  ghost atom cutoff = 10.8154
  binsize = 5.4077, bins = 4 4 4
  1 neighbor lists, perpetual/occasional/extra = 1 0 0
  (1) pair lj/cut/tip4p/long/omp, perpetual
      attributes: half, newton on, omp
      pair build: half/bin/newton/omp
      stencil: half/bin/3d
      bin: standard
Setting up Verlet run ...
  Unit style    : real
  Current step  : 33750000
  Time step     : 2
  Walltime left : 2:54:59.93
Per MPI rank memory allocation (min/avg/max) = 10.19 | 10.20 | 10.21 Mbytes
Step Temp PotEng TotEng E_pair E_mol Press Lx Ly Lz Volume Pxx Pyy Pzz Pxy Pxz Pyz Enthalpy 
33750000    86.275344   -5072.2587   -4905.8695   -5072.2587            0    1362.7939     20.00411    19.861698    20.878346    8295.2923    2074.6621    946.19574     1067.524   -50.749037   -575.13798   -93.919773   -4741.0009 
33751000    86.647691   -5086.3635   -4919.2561   -5086.3635            0     2324.911    20.034105    19.888373     20.64961    8227.7494    2493.6817    2036.4461     2444.605    226.11238   -2.7925772   -309.87477   -4640.2824 
33752000    86.403009   -5086.0226   -4919.3872   -5086.0226            0    2004.2431    19.911955    19.998227    20.813009    8287.8193    3080.4284    865.57296    2066.7279   -626.29256    190.75475    41.722186   -4677.1356 
33753000    85.978388   -5088.9676    -4923.151   -5088.9676            0    1976.9032    20.028885    19.872683    20.766764    8265.7471    1592.4232    2540.0653    1798.2211    149.78273    -257.7259    329.92706   -4684.8404 
33754000    81.074192   -5088.0583   -4931.6999   -5088.0583            0    1739.3459    20.002103    19.955044    20.659184    8245.9658    2116.6125    905.06649    2196.3588   -405.97928    127.69117   -91.967233    -4722.528 
33755000    86.242045   -5083.3365   -4917.0115   -5083.3365            0    2149.1399    19.879007    20.043466    20.642676    8224.9547    3263.2652    1015.6753    2168.4793    217.09946    515.76041   -455.33656   -4659.2167 
33756000    84.227489   -5073.5061   -4911.0663   -5073.5061            0    1754.3576    20.002069    19.884383    20.767191    8259.7099    515.85069     2521.578    2225.6441    39.657465     43.73883   -887.17173   -4699.7374 
33757000    85.340028   -5084.0947   -4919.5093   -5084.0947            0    1585.1912    19.895399    19.941242    20.817658    8259.1763    2980.2852    544.56147    1230.7271   -430.36781    898.86577   -272.85348   -4728.5705 
33758000    84.324972   -5077.5486   -4914.9208   -5077.5486            0    2307.4748    19.853193    19.926594    20.783724    8222.1768    2805.7433     1834.782    2281.8991   -256.15868   -761.40801    473.56383   -4638.2269 
33759000    90.294994   -5081.8662   -4907.7247   -5081.8662            0    2311.2425    19.989804    19.865672    20.813493     8265.265    2395.3537     2776.977    1761.3969   -28.287074   -295.75282    348.41559   -4629.1266 
33760000    85.758151   -5078.4869   -4913.0951   -5078.4869            0    1539.7775    19.859503    20.030847    20.737442    8249.4098    2531.4869    1085.8513    1001.9942    43.101848    976.28644   -216.40109   -4727.8458 
33761000    84.155109   -5081.6078   -4919.3076   -5081.6078            0    2008.1205    19.866915    19.963697    20.837515    8264.5142    3575.5389     988.3697    1460.4529   -15.296301   -682.29733    565.70186   -4677.2699 
33762000    87.734842   -5069.5974   -4900.3934   -5069.5974            0    1967.1708    19.895319    19.982172    20.710836    8233.6278    2338.2422    1417.6941    2145.5761   -415.96823    495.09299    64.766881   -4664.1774 
33763000    87.350073   -5072.3488   -4903.8869   -5072.3488            0    2191.0407     19.99136    19.962255    20.678023    8252.0328    1586.2313    2309.9591    2676.9317    180.45853    147.50253    975.30224   -4640.2008 
33764000    88.592974   -5093.6121   -4922.7531   -5093.6121            0    2465.2502    20.003193    19.968578    20.653325    8249.6677     1820.104    2891.5916    2684.0551   -309.25461    123.59142    711.81189   -4626.1516 
33765000     84.03196   -5081.7117    -4919.649   -5081.7117            0    3601.2435    19.887317    20.012206    20.594836    8196.5194     4042.921    3054.4138    3706.3957   -57.103057    427.11514    3.3391875   -4489.1642 
33766000    83.255344   -5079.4198   -4918.8548   -5079.4198            0    2385.8991    19.918368    19.900922    20.815029    8250.9503    1595.2552    3824.1245    1738.3177   -996.28345    484.01439    384.08808   -4631.7557 
33767000    85.489473   -5087.6698   -4922.7962   -5087.6698            0    405.44306    20.029157    19.977266     20.83948    8338.4555    487.23623    174.82795      554.265   -362.16145    -63.49037     444.6753   -4873.4911 
33768000    83.887178   -5089.4847   -4927.7012   -5089.4847            0    2094.6859    19.859533    20.067417    20.722552     8258.549    2789.2663     1388.061    2106.7304   -319.72647    293.73915    352.60841   -4675.4121 
33769000    82.877096   -5082.5937   -4922.7583   -5082.5937            0    1205.0706    19.943051    19.971856    20.842086    8301.3974    1040.3483    1953.9541    620.90935    488.99283   -281.38695    766.62298   -4776.8636 
33770000    85.593057   -5085.6211   -4920.5477   -5085.6211            0    2769.4741    19.878262    19.917243    20.828437    8246.3984    2518.2003    3164.3217    2625.9002    65.276333    331.07627   -836.80149   -4587.4762 
33771000    82.502533    -5085.594    -4926.481    -5085.594            0    2822.9858    19.990348    19.936507    20.685271    8243.8608    2949.6277    2154.5116     3364.818    236.17015   -103.28255    14.081605   -4587.0783 
33772000    86.019457   -5079.7812   -4913.8854   -5079.7812            0    3293.8597    19.996035    19.775033    20.684224    8179.0028     3104.957    3433.4768    3343.1454   -214.35157    233.96537   -120.47642    -4520.986 
33773000    82.822732   -5088.3309   -4928.6003   -5088.3309            0    1460.0396    19.975461    20.073877    20.665787    8286.6694    1274.8944    709.20941    2396.0149    496.02333    78.718179    206.61814   -4752.1508 
33774000    88.683525    -5073.371   -4902.3373    -5073.371            0    1318.2017    19.942154    20.076546    20.632493    8260.6224    2349.7874   -53.677886    1658.4956    101.30615    257.08883   -965.23519     -4743.53 
33775000    88.212651   -5080.8516    -4910.726   -5080.8516            0    2088.4831    20.026722    19.876071    20.714528    8245.4706     2628.539    2872.0588    764.85159   -48.692326    155.67169    328.01035   -4659.5823 
33776000    90.127841   -5081.7983   -4907.9792   -5081.7983            0     1632.903    19.968515    19.945205    20.763738    8269.7011    2030.4392    1116.0577     1752.212   -117.25923    953.91466    191.58605   -4711.0427 
33777000    92.756958   -5085.4197   -4906.5301   -5085.4197            0    2758.3394    19.966772    19.822014    20.838329    8247.4281    3478.6441    2310.9525    2485.4216   -408.34538    285.12802   -586.04017   -4574.7563 
33778000    86.689705   -5092.5593   -4925.3709   -5092.5593            0    854.14661     19.96795     19.94123    20.938204    8337.2887    1221.4854    1032.1391     308.8154    18.762284   -155.88476   -686.36401   -4821.5145 
33779000    87.591716   -5083.6688   -4914.7408   -5083.6688            0    2511.9893    19.936901    19.916563    20.703716    8220.9186    2100.7971    3010.5782    2424.5926   -245.95703   -79.549334    260.78251   -4613.5692 
33780000    83.641211   -5073.7509   -4912.4418   -5073.7509            0    1464.1505    19.977756    20.005276    20.774125    8302.5978    1979.0196    524.46027    1888.9716   -298.68259    369.60447     661.7849   -4735.1553 
33781000    84.431941   -5069.7341      -4906.9   -5069.7341            0    2693.8701    20.051578    19.793788    20.718306    8223.0271    1952.5194    2999.4845    3129.6065   -91.480467    -519.4957    316.24988   -4583.8392 
33782000    88.356561   -5083.0314   -4912.6283   -5083.0314            0    2237.5979    19.910709    19.922185    20.693873    8208.5313    3573.9783    975.19524    2163.6202   -307.24858   -391.74949    178.48074   -4644.7587 
33783000    88.951686   -5088.8326   -4917.2818   -5088.8326            0     1572.237    20.005144    19.895664    20.713237    8244.1918    2660.5909    331.95509    1724.1649   -75.655044   -414.17942   -533.50692   -4728.2469 
33784000    85.064975     -5088.02    -4923.965     -5088.02            0    2069.7623    19.932994     20.00993    20.638049     8231.647     1751.515     2092.317    2365.4548   -186.20395    371.87898   -363.50031   -4675.4898 
33785000    80.318202   -5085.7238   -4930.8234   -5085.7238            0    2975.8912    20.078478    19.838263    20.610892    8209.7742     3002.888    2778.6304    3146.1551   -244.44467    1428.2473   -226.65036   -4574.5165 
33786000    82.766282   -5089.0281   -4929.4064   -5089.0281            0    1578.7837     20.02561    19.934629    20.763587    8288.8883    2529.1278    832.50482    1374.7185   -345.70483    885.42411    171.58536   -4738.5552 
33787000    83.068826   -5079.8651   -4919.6599   -5079.8651            0    1672.0814    19.886404    20.042307    20.705935    8252.7525    2604.5937    1189.3869    1222.2635   -46.901712    251.15271   -143.40069   -4718.4116 
33788000    83.272967   -5072.7279    -4912.129   -5072.7279            0    1966.1514    19.886928    19.972141    20.774725    8251.3994    2633.8146     1566.282    1698.3576    -632.5441   -22.581268   -495.21222   -4675.5259 
33789000    88.455531   -5093.1057   -4922.5118   -5093.1057            0    2143.8024    19.999825    19.885501    20.717571    8239.5135    1866.3243    2734.4457    1830.6372   -182.87691    237.96529    570.79704   -4664.9021 
33790000    80.478575   -5074.0353   -4918.8256   -5074.0353            0    2039.4142    20.005511    19.876419    20.736656    8245.6812    2645.7897    1649.5911    1822.8619   -409.60135   -450.09969    -658.4455   -4673.5763 
33791000    85.326357    -5080.771   -4916.2119    -5080.771            0    1967.1382    19.917565    19.974061    20.706721     8237.851    1925.4253    2522.0943    1453.8948   -170.60008     30.58756   -45.424262   -4679.8787 
33792000    83.500318   -5084.6091   -4923.5717   -5084.6091            0    2053.9082     20.03188    19.957763    20.581592    8228.3461     1216.471    1716.6813    3228.5724    61.415311     358.9901   -21.272346   -4677.0986 
33793000    89.565206   -5085.0046   -4912.2706   -5085.0046            0    1285.0176    19.945658    19.954778    20.822897     8287.746    1981.6119    720.29142    1153.1494   -72.337377    1088.7683    399.73122   -4756.9527 
33794000    82.371607   -5087.1719   -4928.3113   -5087.1719            0    1994.6873    19.906824    19.919676    20.799872    8247.9287    2272.4108    2090.7892    1620.8619   -122.71421   -280.85164   -259.05792   -4688.3752 
33795000    83.478367   -5089.0516   -4928.0565   -5089.0516            0    2933.8251    20.114017    19.780905    20.662674    8221.1295    1307.6086    4409.2574    3084.6092   -212.04638    1332.3827     791.2735   -4576.3005 
33796000    83.459923    -5084.601   -4923.6415    -5084.601            0    1802.0651    19.958815    19.897862      20.8783    8291.5612    2419.7104    1971.1261    1015.3589    363.34365   -447.35731   -878.85631   -4705.7288 
33797000    82.045959   -5078.5718   -4920.3393   -5078.5718            0    2398.8343    19.979514    19.881198    20.726184     8232.786    3458.1281    1343.5698     2394.805    24.920497    450.54296    150.23201   -4632.3191 
33798000    81.661455   -5088.6379   -4931.1469   -5088.6379            0    995.66231    20.055805    19.951987    20.867894    8350.3541    573.33362    1606.3872    807.26615   -293.22263    435.56997    183.94984   -4809.8938 
33799000    84.751904    -5080.252   -4916.8009    -5080.252            0    1416.5184    19.878499    19.939762    20.937509    8299.0538    1580.4435    1627.3243    1041.7876    143.40963   -72.003467   -1162.0423   -4745.3551 
33800000    83.383434        -5085    -4924.188        -5085            0    3150.6553    19.876122      19.9196    20.746228    8213.9376    3113.9775    3330.6083    3007.3799   -11.003945    399.13558    601.72426   -4546.7652 
33801000    93.971005   -5078.2582   -4897.0272   -5078.2582            0    2072.3089    20.001139    19.914426    20.743412    8262.3333    1559.5546    2720.5424    1936.8297   -339.03378    498.53985   -264.46937   -4647.3189 
33802000    84.281975   -5088.2227   -4925.6778   -5088.2227            0    2569.8338    19.910372    20.004269    20.609735    8208.7018    2490.4828    2348.7503    2870.2684    173.99426     463.8631    287.10792   -4618.0289 
33803000    82.323743   -5088.9209   -4930.1526   -5088.9209            0    2358.8442     19.83866    19.985721    20.747994    8226.3703    2128.8993    2668.2837    2279.3494   -414.49919    10.153509    176.45963   -4647.1546 
33804000    85.943763   -5075.4368   -4909.6871   -5075.4368            0    1530.4648    19.882989    19.932758    20.793945    8241.1145    1931.1135    1546.3084    1113.9725    269.26786     41.57189    514.95141   -4725.7433 
33805000    82.372229   -5075.4545   -4916.5927   -5075.4545            0    1398.4542    19.937656    20.046555    20.679168    8265.0773    1584.6708    503.37724    2107.3146    -532.6671   -755.03451    883.66364   -4748.0263 
33806000    89.650891   -5080.3655   -4907.4662   -5080.3655            0    1444.3416    19.933522    20.071893    20.725851    8292.4859    2248.4475    106.10786    1978.4693   -82.787335   -343.52419   -859.46018   -4732.7913 
33807000    83.981834   -5095.9294   -4933.9633   -5095.9294            0    831.92735    20.010371    19.995655    20.752723    8303.5896    1186.8592     419.7136    889.20922    146.58099    408.49716   -160.95559   -4833.2175 
33808000    84.831994    -5083.311   -4919.7054    -5083.311            0    2240.1974    20.040991    19.924892    20.695173    8263.8846    1165.4905    2565.4905    2989.6111    55.365612    320.86916   -28.287067   -4649.7162 
33809000     82.81359   -5080.0206   -4920.3076   -5080.0206            0    2387.4723    19.933305    19.951927    20.740483    8248.6527    2029.5657    3032.8722     2099.979   -372.41969    700.49287    1110.6919   -4633.0992 
33810000    84.475827   -5082.2617    -4919.343   -5082.2617            0    2036.5876    19.911407    19.939026    20.795199    8255.9865    2647.8494    1142.6012    2319.3121    -201.1044    260.33271    557.23133   -4674.1275 
33811000    88.354009   -5085.0852   -4914.6871   -5085.0852            0    1726.9402    20.069888    19.909974    20.689984    8267.5302    1224.4714      1519.23    2437.1193    73.313534    381.18885   -186.66371   -4706.4639 
33812000    88.536372   -5075.9174   -4905.1676   -5075.9174            0    1066.1748    20.013005    19.853489    20.953161    8325.2773    1518.9464    1554.1157    125.46229   -359.18827    125.32581   -301.70076   -4775.7173 
33813000    86.284201   -5076.5037   -4910.0973   -5076.5037            0     1799.957     19.97645    19.866591     20.81299    8259.9254    1725.9686    2107.4284    1566.4739   -141.02139    455.67834   -17.525999   -4693.2699 
33814000     84.31753   -5080.7275    -4918.114   -5080.7275            0    2302.2968     20.10779    19.873934     20.64509    8250.2092    1348.1128    2440.1166    3118.6609   -4.3523182   -556.39094    615.03319   -4641.0997 
33815000    83.476063   -5082.5417   -4921.5511   -5082.5417            0    2534.0354    19.965458    19.906905    20.679333    8219.0105    3136.6419    2098.1072     2367.357   -438.59194    388.77545    265.99327   -4617.8068 
33816000    87.188061   -5073.3273   -4905.1778   -5073.3273            0    2614.9465    19.924326    19.851411    20.824528    8236.6417    2901.4022    2658.5199    2284.9173   -104.11851   -65.557618   -242.13098   -4591.0626 
33817000    82.466238   -5080.5076   -4921.4645   -5080.5076            0    2387.0354    20.069673    19.929644     20.55538    8221.7704    1831.5756    2458.8882    2870.6425    -173.7114   -337.02659    528.13364   -4635.2445 
33818000    87.837608   -5087.5834   -4918.1812   -5087.5834            0    1835.4756    20.041245    19.896092    20.709449    8257.7367    1052.9567     1670.392     2783.078   -405.83782    450.17277   -72.748227   -4697.1337 
33819000    84.550995   -5094.7247    -4931.661   -5094.7247            0    2459.3795      20.0108    19.822734    20.745644    8229.1488    2988.8389    1910.8799    2478.4199    -216.2682    873.37682   -84.997998   -4636.5017 
33820000    85.887196   -5079.0777    -4913.437   -5079.0777            0    2685.8658    20.014322    19.844471     20.74922    8241.0429     4011.412    1984.4087    2061.7768    524.05494    270.84766    45.558741   -4590.6305 
33821000    85.131151   -5079.6436   -4915.4611   -5079.6436            0    2629.4331    19.966046    19.852345    20.817631    8251.5434    2625.9495    2894.3661    2367.9836   -86.558194   -405.29396   -583.54125   -4599.0343 
33822000    89.479223   -5074.8766   -4902.3084   -5074.8766            0    1352.4271    20.071569    19.932169    20.759348    8305.1903    529.83632    1924.7207    1602.7244   -113.94862    532.86992    48.179192   -4738.4988 
33823000    85.069893   -5094.5129   -4930.4485   -5094.5129            0    1729.5515    19.881048    20.014575    20.785789    8270.8883    3169.0675    638.99073    1380.5963    -432.3793     869.6171     656.7553   -4721.8258 
33824000    85.498398   -5093.8859   -4928.9951   -5093.8859            0    399.12465    20.123233    19.923917    20.754374    8321.1263    868.44613   -520.51781    849.44563   -305.55547    120.24791   -32.392131   -4880.5593 
33825000    85.386444   -5086.9962   -4922.3213   -5086.9962            0    2018.0036    20.049197    19.903892    20.654739    8242.4193    2122.8026    2116.0926    1815.1156   -14.037555    299.17182   -13.212952   -4679.7426 
33826000    88.705992   -5091.2298   -4920.1528   -5091.2298            0    1573.2963    20.012562     19.84735    20.783274    8255.0404    1583.1979    1955.8492     1180.842   -238.02902    1180.4223   -312.14819   -4730.7417 
33827000    83.527059   -5089.8534   -4928.7645   -5089.8534            0    2261.7746    19.930625    19.918872    20.665115    8203.9592    2439.6821    1869.8858     2475.756   -65.233954      440.479   -147.41918   -4658.1514 
33828000     88.25215   -5073.8027    -4903.601   -5073.8027            0    2265.2868    20.070858    19.859466    20.664265    8236.7044    933.58009    2853.6244    3008.6558   -51.469608   -382.05525   -337.59689    -4631.486 
33829000    82.528681   -5085.8756   -4926.7121   -5085.8756            0    2578.0735    20.062302    19.790276    20.733534    8232.0108    2164.5277    3078.0924    2491.6003   -53.115571    147.67931    108.71249   -4617.2004 
33830000    87.917529   -5080.2524   -4910.6961   -5080.2524            0    1860.8406    20.039606    19.868849    20.746883      8260.66    783.32571    3614.7576    1184.4383     38.80693    463.03057   -6.8985089   -4686.5145 
33831000    84.430264    -5078.854   -4916.0231    -5078.854            0    2236.6616    19.941626    20.001266    20.661737    8241.0943    2614.9662    1276.6364    2818.3822   -110.32724    557.42076     158.3007   -4647.2035 
33832000    85.943761   -5091.6165   -4925.8667   -5091.6165            0    1925.1273    20.029137    19.835163    20.674604    8213.6311    1053.0483    2311.1422    2411.1915   -443.09875    512.64651    767.80439   -4695.2607 
33833000    84.703749   -5075.1302   -4911.7719   -5075.1302            0    2442.6003    20.015748    19.803561    20.727972    8216.2178    1682.1591    2808.3493    2837.2924   -125.47356    326.83239     208.0724   -4619.0871 
33834000    85.400042   -5069.8123   -4905.1111   -5069.8123            0    1639.6169    19.923412    19.959413    20.794033    8268.9466    2255.0901    906.61194    1757.1485   -152.58894   -1037.5645    794.98066    -4707.383 
33835000    84.568088   -5089.1263   -4926.0297   -5089.1263            0    1906.5216      19.8975    19.932361    20.875686    8279.3838    2633.1426    1980.1084    1106.3138   -423.20814    5.4901356   -102.94834   -4695.8242 
33836000    89.382578   -5093.9243   -4921.5425   -5093.9243            0    2165.3353     19.95666    19.951213    20.623838    8211.5787    2360.7166    1408.7531    2726.5362   -343.48371   -166.51821   -898.88475   -4662.2275 
33837000    85.285975   -5086.2985   -4921.8173   -5086.2985            0    1343.6848    20.041829    19.968182    20.669662    8271.9759    158.60623    1587.1165    2285.3317    -643.3914   -218.05169     590.7336   -4759.7175 
33838000    87.387826   -5087.8326   -4919.2978   -5087.8326            0    2389.5819    19.979295    19.929085    20.699574    8241.9297    1751.9942    2821.6452    2595.1062   -131.82923    472.78044   -123.71477   -4632.0699 
33839000    80.975293   -5089.5803   -4933.4126   -5089.5803            0    3153.2574    19.939314    19.942879    20.602354    8192.4709    3859.0486    2719.3893    2881.3344   -173.61478    94.369893    -814.8085   -4556.6652 
33840000    85.448955   -5086.1306   -4921.3351   -5086.1306            0    1822.2157    19.896336    19.867728    20.832477    8234.9739    2096.7932    1866.0152    1503.8388   -322.77364    918.81035   -147.41809   -4702.4895 
33841000    84.114524   -5085.7181   -4923.4962   -5085.7181            0    2616.5237    19.956133    19.930063    20.693056    8230.1868    3491.2382    1899.4759    2458.8569   -180.38375    1177.4702    627.42002   -4609.4379 
33842000     83.19967   -5080.2711   -4919.8135   -5080.2711            0     1994.758    19.925676    19.966737     20.69351    8232.9283    742.64437    2760.4424    2481.1871    115.74219    481.74344    456.35566   -4680.3053 
33843000    87.297371   -5082.8686   -4914.5083   -5082.8686            0    1953.9494    19.944346    20.101696    20.602866    8260.0017    2454.8379    1566.8336    1840.1767   -57.010695   -717.64492    979.03608   -4679.1284 
33844000    81.981688    -5076.017   -4917.9084    -5076.017            0    1652.1275    19.953376    19.925053    20.703669    8231.2011    1828.2536    1630.4658     1497.663   -136.89261    428.67717    174.12108    -4719.581 
33845000    82.889487   -5089.7971   -4929.9377   -5089.7971            0    1904.3713    19.925754    20.002528    20.536063    8184.9656    2576.1763    1162.2326    1974.7051   -313.79537    52.152274   -729.33694   -4702.6142 
33846000    86.135334   -5081.5219   -4915.4026   -5081.5219            0    1885.4473    19.983637    19.875142    20.758872    8244.9597     812.6328    3499.5668    1344.1422   -3.9870295    419.28463    277.51631   -4688.6884 
33847000    86.035068   -5084.6943   -4918.7684   -5084.6943            0    2258.9625    19.908626    19.891148    20.855442    8258.8683    2975.0109    1653.3352    2148.5413   -532.68592     1072.136    316.60674   -4646.6829 
33848000    85.922782   -5084.9396   -4919.2303   -5084.9396            0    3173.1355    19.912462    19.828054    20.887915    8247.0788    2921.0716    3867.8755    2730.4595   -467.74357    775.99879   -584.50856   -4537.5808 
33849000    83.079752   -5080.4321   -4920.2058   -5080.4321            0    2005.9955    19.879524     19.87818     20.82456    8229.2158    3093.7451    1820.8504    1103.3909   -125.89687    165.49995    354.54906    -4679.457 
33850000    88.528961   -5090.7268   -4919.9913   -5090.7268            0    2778.0797    20.009076    19.853791    20.803281    8264.2283    3012.3686    3104.8707    2216.9997    16.671924   -261.70891      332.812   -4585.1624 
33851000    80.474013   -5087.8793   -4932.6784   -5087.8793            0    1665.8557    20.047319    19.917529    20.703404    8266.7257     1849.783    1402.4792    1745.3049    114.99218   -22.849401    115.46967     -4731.84 
33852000    86.652993   -5085.6815   -4918.5639   -5085.6815            0    1215.8136    19.904173    20.030523    20.602435    8214.0052     2588.344    172.59366    886.50302   -499.38345    231.31148   -563.15533   -4772.9181 
33853000    86.630235   -5079.2845   -4912.2108   -5079.2845            0    1503.8675    19.953086    20.000861    20.688586    8256.3784    660.33091    2011.9243    1839.3472   -4.2847189    386.20974    25.365493   -4731.1289 
33854000    86.089657   -5080.1291    -4914.098   -5080.1291            0    2153.2816    19.971791    19.936236    20.724279    8251.6271    3215.7105    1979.5631    1264.5713   -183.99805    -86.73715   -265.83014   -4654.9688 
33855000    91.429405   -5079.5638   -4903.2345   -5079.5638            0    2572.6842    19.874053    19.926137    20.852303    8257.7853    3017.7457    2561.7895    2138.5175    9.6791222   -156.58158    331.21828   -4593.4027 
33856000    84.107005   -5089.8381   -4927.6307   -5089.8381            0    2065.4345    19.973455    19.882744    20.798669    8259.7149    2846.1734    1654.4485    1695.6817    110.82657    428.19077    280.75336   -4678.8296 
33857000    83.350346   -5080.0005   -4919.2523   -5080.0005            0    1797.9102    19.982937      19.9281    20.759618    8266.9361     1766.737    1239.5011    2387.4925   -248.90602      572.596   -319.11549   -4702.4877 
33858000    82.927194   -5072.5975   -4912.6654   -5072.5975            0    556.68463    20.043127    20.029429    20.704428    8311.8421    189.27521    762.16164    718.61703    15.668165    220.31307    757.20445   -4845.1843 
33859000    82.445905   -5079.3261   -4920.3222   -5079.3261            0    1331.3424    19.886559    19.966905    20.828538    8270.4511    2901.0726    6.4459714    1086.5087    -203.6782     -96.1198    521.44192    -4759.741 
33860000    88.314475    -5081.307   -4910.9851    -5081.307            0    1811.6353    19.936772    19.962561    20.766196     8264.718    1817.0997    1844.0845    1773.7218   -266.98224    224.91541   -457.60841   -4692.6243 
33861000    86.993417   -5075.4805   -4907.7063   -5075.4805            0    2800.7733     19.99007    19.801395     20.80818    8236.5283    2269.8569    4241.6696    1890.7934    90.942878    138.94773   -224.35704   -4571.2738 
33862000    84.784479   -5076.4415   -4912.9275   -5076.4415            0    3146.9438    19.838403    19.815438    20.939902    8231.6147    3066.3426    4487.2308    1887.2582    203.02793    199.73659    925.09602   -4535.1379 
33863000    84.687818   -5092.3157   -4928.9881   -5092.3157            0    2398.5205    19.905259    19.990872    20.717966    8244.1655    2719.7493    2020.7397    2455.0726   -43.209499    1241.6024   -239.91986   -4640.6075 
33864000    85.534566   -5079.7889   -4914.8283   -5079.7889            0    2706.1794    19.888014    19.947471     20.72088    8220.2962     2492.502    3034.0591    2591.9772   -35.350185    248.93939   -200.98553   -4590.3991 
33865000    85.230698    -5084.284   -4919.9095    -5084.284            0    1843.2962    19.967174    19.907081    20.744738    8245.7872    1585.9206    2481.3636    1462.6045   -64.014664    -277.4268   -457.99712   -4698.2414 
33866000    82.778316   -5087.3541   -4927.7092   -5087.3541            0    1227.2733    20.074532    19.820814    20.739772    8252.2218    13.140287    2147.3267    1521.3529    112.61397    642.29473   -159.24469   -4780.0066 
33867000     81.50652   -5087.1251   -4929.9329   -5087.1251            0    1002.6914    19.839934    20.053141    20.779706    8267.2683    797.85497    1506.7983    703.42096    -496.5292    249.19757    879.85114   -4809.0388 
33868000    81.828103    -5082.841   -4925.0286    -5082.841            0    2121.6466     19.79975    20.063132    20.768908    8250.3448    3830.5811     821.2432    1713.1155   -148.81868   -278.49988   -240.95175   -4669.7462 
33869000    82.810874   -5087.5378     -4927.83   -5087.5378            0    1435.7657     20.04268    19.962258    20.663951     8267.588    1540.4746    947.54202    1819.2803    184.53842    65.688495    326.00248   -4754.7136 
33870000    86.624611   -5085.8115   -4918.7486   -5085.8115            0    2675.7902    19.976426    19.877679    20.722162    8228.4596    4077.7081    1896.7199    2052.9426    48.809843    768.79486   -99.827032   -4597.6441 
33871000    81.610809   -5086.4946   -4929.1013   -5086.4946            0    1772.0938    19.940065    19.992373    20.661319    8236.6187    1864.1933    1431.9005    2020.1877   -134.43893    124.31558    523.51582   -4716.2328 
33872000    86.838618   -5077.1835   -4909.7079   -5077.1835            0    2577.2692    19.881456    19.969872    20.743386    8235.7493    2683.0498    2305.8902    2742.8676    -350.2775    267.27685    513.92478   -4600.1522 
33873000    87.500487   -5087.1061    -4918.354   -5087.1061            0    2029.5222    19.836762    19.976271    20.786913    8237.1162     2996.933    2004.1479    1087.4858   -193.97405    159.69612   -333.80297   -4674.5477 
33874000    84.040218   -5079.5276    -4917.449   -5079.5276            0     2532.563    20.080128    19.864963    20.693217    8254.3376    2388.1578    2418.6266    2790.9045    184.01716    362.20752    738.99415   -4612.5764 
33875000    86.797324   -5079.4553   -4912.0594   -5079.4553            0    1641.7681    19.954327    19.966294    20.677015    8238.0116    1998.8396    1202.9631    1723.5015   -347.85692   -595.84705    524.37234   -4714.8125 
33876000    83.713868   -5091.6221   -4930.1729   -5091.6221            0    1506.7803    19.871064    20.009874    20.665714    8217.0492    2049.9373    701.52474    1768.8787    49.592011    17.098216    283.89882   -4749.6045 
33877000     86.58744   -5089.0466   -4922.0555   -5089.0466            0    2021.5336    20.028152     19.88546     20.66283    8229.3649    2098.7004    2280.5993    1685.3011   -159.77291   -330.19278   -383.72698   -4679.4374 
33878000    83.055475   -5085.4236   -4925.2441   -5085.4236            0    1639.8493    19.905179     19.95729    20.766966    8249.7485    961.37581    3248.0956    710.07641   -235.00728   -147.49309   -179.49045   -4727.9471 
33879000    90.549594   -5078.8227   -4904.1902   -5078.8227            0    1900.2273    19.941469    19.906502    20.773533    8246.3636    2169.4994    753.51006    2777.6725   -180.87557    527.35539     681.7591   -4675.6598 
33880000    82.097793   -5091.0229   -4932.6904   -5091.0229            0    2009.4935    19.825954    20.007151    20.830867    8262.7898    2949.0211    1485.0852    1594.3743   -225.66191   -426.89817   -94.902036   -4690.5377 
33881000    83.007477   -5092.3928   -4932.3059   -5092.3928            0     2759.134    20.024738    19.843038    20.778939    8256.5454    2687.4193    3120.1112    2469.8715   -668.20097   -1154.6872    132.63785   -4600.0696 
33882000    88.001126   -5077.1304   -4907.4129   -5077.1304            0    2368.3938    19.996251    19.951042    20.639493    8234.0443    1555.7286    2981.7191    2567.7336    50.661412   -841.63304   -96.195301   -4623.0041 
33883000     87.04006   -5075.5464   -4907.6823   -5075.5464            0    2813.7581    20.020562    19.866386    20.691111    8229.6042    2299.4756    2771.2769    3370.5217     130.3598   -17.945431   -360.09634   -4569.9741 
33884000    80.119907   -5079.4376   -4924.9196   -5079.4376            0    1459.8695    20.167096    19.948369    20.549233    8266.9704    1061.5776    1265.9152    2052.1157   -116.87778    481.77204   -306.54447     -4748.91 
33885000    84.131054   -5085.1574   -4922.9036   -5085.1574            0    1589.9776    19.985363    19.978475    20.788143    8300.2289    1293.5681    1607.7788     1868.586   -374.90598   -90.741544    228.42581   -4730.4363 
33886000    89.016089   -5086.3981   -4914.7231   -5086.3981            0    3384.6921    19.927898    19.818359    20.788315    8210.1002    3252.5084    4073.2382    2828.3297   -87.545185    389.52232   -88.528498    -4509.454 
33887000    85.359456   -5091.5027   -4926.8798   -5091.5027            0     1139.573    19.990945    19.908582    20.903885     8319.566    2434.9974    242.49873    741.22278   -156.03438    175.69788   -126.23958   -4788.6127 
33888000    80.362817   -5078.6515    -4923.665   -5078.6515            0    2125.2552    20.071287    19.804078    20.765208    8254.0316    2178.8058    2603.5982    1593.3615   -31.723955    25.714656    576.72978   -4667.8341 
33889000     84.30497   -5095.4911   -4932.9018   -5095.4911            0     2839.311    19.852382    19.882811    20.802343     8211.125    3197.3975    3005.9448    2314.5906   -154.00969   -307.76752    140.30586    -4592.892 
33890000    85.267413   -5079.8275   -4915.3821   -5079.8275            0    1701.3083     20.02665    19.956352    20.744978    8290.9147    1043.9043    2427.1932    1632.8274   -66.581082     21.86188   -242.45155   -4709.6693 
33891000    86.402804   -5087.8259   -4921.1908   -5087.8259            0    2709.0838    20.107785    19.830545    20.648923    8233.7236    2060.7129    2515.8501    3550.6884   -386.10205    271.55832    544.46095   -4595.8829 
33892000    83.840435   -5081.6799   -4919.9865   -5081.6799            0    2217.2088    19.902058    19.919956    20.773255     8235.518    2033.6861    2309.3346    2308.6055   -348.16622   -492.29426   -239.29606   -4653.6852 
33893000    82.713369     -5082.89   -4923.3703     -5082.89            0    2082.3154    19.970022    19.935222    20.710587    8245.0263    1677.1909     2367.097    2202.6584   -86.156941    97.124717    -132.9245   -4672.9818 
33894000    84.176892   -5080.9238   -4918.5816   -5080.9238            0    2255.6501    19.955956    19.907389    20.759205    8247.0297    2500.9294    2353.3887    1912.6322   -174.17939    455.34295   -327.97605   -4647.2844 
33895000    81.930996   -5078.0048    -4919.994   -5078.0048            0    2128.4405    19.865829    19.934627    20.826927    8247.8355    3671.7855    1267.9333    1445.6028    558.19544    49.582777    259.26644   -4663.9719 
33896000    81.427816   -5083.5495   -4926.5091   -5083.5495            0    2117.6181      19.8829    19.925724     20.78996    8236.5912    2935.5165    2311.2395    1106.0982    165.94077    899.26849   -271.78111   -4672.1361 
33897000      83.7723   -5091.4774   -4929.9155   -5091.4774            0    2893.6543    20.034835     19.87886    20.608524    8207.7502    2887.3292     2694.138    3099.4957   -95.113309   -322.89552   -276.61444   -4583.5404 
33898000    84.516509    -5088.168   -4925.1708    -5088.168            0    2238.1528    19.987264      19.8989    20.683119    8226.1848    2264.4334    2305.7681    2144.2568   -221.97379    700.78962    411.75034   -4656.6586 
33899000    92.706137   -5091.7933   -4913.0017   -5091.7933            0    2455.9576    19.911105    20.009131     20.75587    8269.2196    2565.0864    2008.0646    2794.7219   -505.98882   -151.09262   -601.99134   -4616.8179 
33900000    84.021635   -5082.5906   -4920.5479   -5082.5906            0    2120.3192      19.9406    19.804477    20.817935    8221.2762    2558.7364    1909.0233    1893.1978   -313.89031    846.03977    878.90711    -4666.324 
33901000    85.894114   -5074.2753   -4908.6213   -5074.2753            0    1805.9147    20.027762     19.88822    20.970375    8352.8471    1029.6567    2056.0172    2332.0702   -217.76032    1303.5882   -13.141043   -4688.6289 
33902000    83.817801   -5073.9698   -4912.3201   -5073.9698            0    2255.9066    19.970771    19.928368    20.771442    8266.7198    2782.5041     1705.671    2279.5446   -187.67567   -627.64154    328.41983   -4640.3444 
33903000    83.292795   -5080.4098   -4919.7726   -5080.4098            0      2332.97    19.958681    20.019737    20.670844    8259.3982    2986.2169    1134.7133    2877.9799   -440.94117    86.751546   -398.36883   -4638.7551 
33904000    84.220063   -5080.9371   -4918.5116   -5080.9371            0    1643.4121    19.967645    19.853426    20.845739    8263.7965    2128.9986    1813.6589    987.57879   -40.743318    493.57807    161.31093   -4720.4493 
33905000    87.539017   -5090.5265   -4921.7002   -5090.5265            0     2023.371    19.962778    19.995606    20.698442    8262.1525    1766.4362    1748.4104    2555.2663   -242.42017    1077.0525    491.27935   -4677.8941 
33906000    84.846447   -5091.2213   -4927.5878   -5091.2213            0    1451.3274    19.980869    19.966724    20.725245    8268.3883    1366.5169    1366.8791    1620.5862    138.61562    446.28626    450.17809   -4752.5781 
33907000    86.343626   -5085.2211   -4918.7002   -5085.2211            0    2233.9438    19.877677     19.93645    20.851105    8263.0912    2865.3883    2424.8698    1411.5733   -171.63194    360.08827    17.260953   -4649.4905 
33908000    79.111841   -5084.3792   -4931.8053   -5084.3792            0    1733.4342    19.912804    19.964868    20.837204    8283.9655    989.92326    2142.3148    2068.0644    189.22648   -109.28714   -500.54002   -4722.3837 
33909000    84.694758   -5090.9986   -4927.6576   -5090.9986            0    1686.0632    20.009669    19.935589     20.77255    8286.2639    1600.8721    1422.9344    2034.3831    98.754405    352.60668    1027.2058   -4723.9025 
33910000    85.024641   -5082.4502    -4918.473   -5082.4502            0     1806.489    19.917926    19.887084    20.888733    8274.2248    2569.1971    1602.3436    1247.9263   -560.90083   -224.85769    474.26666    -4700.482 
33911000    86.082627    -5091.133   -4925.1154    -5091.133            0    2792.5395    19.895175    19.985152     20.74992    8250.3364    3485.8664    2033.4231    2858.3289    -501.8419    554.06094     1119.382   -4589.1095 
33912000    85.560381   -5080.4729   -4915.4625   -5080.4729            0    2617.5876    19.870133    19.820439    20.951076    8251.2623    3265.4937    2425.3455    2161.9237   -432.78034    145.32523    344.64224    -4600.472 
33913000    87.026223   -5083.6941   -4915.8567   -5083.6941            0    2255.9449    20.063096    19.825672    20.678824    8225.2993    1932.7254    2143.3689    2691.7404    21.695343    522.47933    519.60832   -4645.2391 
33914000    86.290588   -5094.8867    -4928.468   -5094.8867            0    1527.9189    20.043798    19.872044    20.729753    8256.8937    664.62919    1603.8321    2315.2953   -212.00677    788.68491    789.78158   -4744.4786 
33915000    87.937775   -5092.6018   -4923.0064   -5092.6018            0    1661.5092    19.953902    19.912222    20.801747    8265.0859    1848.8121    1934.4911    1201.2244   -122.46574    194.05316    -287.5203   -4722.7317 
33916000    85.350516   -5080.5556   -4915.9499   -5080.5556            0    2634.7914    19.971726    19.925185    20.668639    8224.8853    2257.1809    2462.6544    3184.5388    22.748237    825.22239   -226.17779   -4599.9027 
33917000    88.264852   -5085.1097   -4914.8835   -5085.1097            0    2645.6934    19.826412    20.006232    20.690292    8206.8416    2899.3273    2996.0481    2041.7047    111.94865   -544.78936   -4.7751634   -4598.2248 
33918000    88.413828   -5077.5339   -4907.0204   -5077.5339            0    2032.3808     20.01909    19.931507    20.658411    8242.9258    1946.4449    2498.9196    1651.7778    3.0497427    277.75127   -41.706004   -4662.6986 
33919000    88.626503   -5080.0197    -4909.096   -5080.0197            0    2081.4986    19.908395    19.902552    20.845395    8259.5268    3496.8675    1004.1356    1743.4928   -476.78595    463.21045   -148.34117   -4658.3655 
33920000     85.03728    -5080.148   -4916.1465    -5080.148            0     2276.667    19.918597    19.923278    20.763141    8239.7226    1064.4027    3584.2407    2181.3577   -52.323713    666.71702    723.69234   -4642.5642 
33921000    84.377259   -5076.2072   -4913.4785   -5076.2072            0    2596.1272    20.008821    19.747939     20.91729     8265.111    1982.2055    3834.1363    1972.0397   -99.992891   -791.74109   -711.99074   -4600.5461 
33922000    85.185055   -5089.6393   -4925.3528   -5089.6393            0    2211.5109    19.917275    19.823062    20.880086    8243.9043    1946.2739    3314.8015    1373.4574   -217.04844    397.80997   -302.77614   -4659.4653 
33923000    84.782904   -5091.9731   -4928.4621   -5091.9731            0    1280.8617    19.864705    20.045313    20.783015    8275.6767    2344.3211    231.35012    1266.9138   -234.76458    173.90547    249.67328   -4773.8721 
33924000    83.263596   -5081.3261   -4920.7452   -5081.3261            0    1651.9895    19.958621    19.920692    20.772522    8258.9378    1925.9504     1571.809    1458.2092   -398.38962    742.16283    223.83092   -4721.7662 
33925000     82.72142   -5081.5756   -4922.0404   -5081.5756            0    2286.6229    20.011565    19.903477    20.717887    8251.9288    2473.8944    2308.3482    2077.6259    173.15865     585.9715    570.17804   -4646.8546 
33926000    87.240715   -5095.8396   -4927.5886   -5095.8396            0    3027.7072    19.934949    19.889314    20.811896    8251.7594    3397.9761    2840.1451    2845.0004   -159.75421   -45.210015    556.12714   -4563.2238 
33927000     88.42327    -5089.334   -4918.8023    -5089.334            0    2392.6454    20.073472    19.884231    20.667075    8249.1714    2320.0079    2015.3589    2842.5693   -251.39071    826.61867   -132.32361   -4630.9534 
33928000    88.060457   -5085.5888   -4915.7568   -5085.5888            0    3030.4171    19.825796    19.907578    20.700567    8170.1743    3256.7748    2755.4381    3079.0384    67.618883    272.68029    178.35201   -4554.6716 
33929000    87.618919   -5077.9776   -4908.9971   -5077.9776            0    2121.8608    20.010458    19.818228    20.733271    8222.2311    1421.7133    3214.8302    1729.0388    156.08101    287.62515    41.053351   -4654.5589 
33930000    85.752115   -5077.7899   -4912.4097   -5077.7899            0    1926.8635    20.001747    19.951425    20.625423    8230.8503    1161.7039    2264.9765    2353.9101    134.32798   -942.79067   -271.18625   -4681.1119 
33931000     82.38467   -5082.5772   -4923.6914   -5082.5772            0    1978.9685    19.840487     20.02969    20.798763    8265.4035    3991.8833    729.14585    1215.8765   -455.93833     288.5342    8.7062942   -4685.1418 
33932000    83.992353   -5082.4552   -4920.4689   -5082.4552            0    1760.8773    19.954425    19.867994    20.826172    8256.6275    1668.4728    1806.2285    1807.9306    5.4492914    197.57291    654.26975   -4708.4338 
33933000    85.212823   -5093.3182   -4928.9781   -5093.3182            0     2472.376    19.944377    19.981713     20.70684    8252.1479     3198.253     1367.469    2851.4061    317.67133    600.86856    74.967487   -4631.4298 
33934000    82.120035   -5087.6993   -4929.3239   -5087.6993            0    2372.7723    19.965916    19.824643    20.886968    8267.4202    2225.8074    2743.7597    2148.7497   -232.30328    81.530084   -219.34813   -4643.2344 
33935000     82.89641   -5073.5693   -4913.6966   -5073.5693            0    2137.6635    19.979328    19.971521     20.74059    8275.8601     1777.728    2518.7376    2116.5248   -351.07948   -488.62814   -438.60299   -4655.6915 
33936000    89.522556   -5084.4384   -4911.7866   -5084.4384            0    2580.6822    19.931296    19.918767    20.728117    8229.2043    3299.1377    2127.9976    2314.9113   -191.74039    446.71877    -751.7822   -4602.0674 
33937000     81.06272   -5080.4727   -4924.1365   -5080.4727            0    1739.8517    19.964423    19.925282    20.766082    8260.6799    1718.4021    2133.5867    1367.5663   -426.92448    416.67844   -306.90922   -4714.5304 
33938000    89.687122   -5087.8888   -4914.9196   -5087.8888            0    1972.9125    20.036956    19.839911    20.807585    8271.6688    1798.3861     1806.525    2313.8264     248.6342    389.06272    282.87656   -4676.9197 
33939000    84.699582   -5091.6614   -4928.3111   -5091.6614            0    1843.9796    19.977282    19.921595    20.710494    8242.3487    1693.4171    1349.8337    2488.6878   -363.37322    645.56592    71.884911   -4706.6533 
33940000    88.579011   -5079.2128   -4908.3807   -5079.2128            0    2286.6586    19.963522    19.875981     20.73692    8228.2976    1326.6717    3102.4301    2430.8738   -25.621871    359.09523    -467.0368   -4633.9788 
33941000    82.355362   -5075.8396   -4917.0104   -5075.8396            0    2650.4769    19.991117    19.942738    20.589331    8208.5052    1758.7406     3659.222     2533.468   -71.204831    1286.6749   -396.21762   -4599.7148 
33942000    84.965174   -5082.5387   -4918.6762   -5082.5387            0     1056.325    20.053434     19.97852    20.745526    8311.4443    581.63748    1175.0724    1412.2652    57.275647    365.40138    1085.1852   -4790.6349 
33943000    84.278098   -5077.0809   -4914.5435   -5077.0809            0     3179.832    20.031629    19.775303    20.658201    8183.3646    2630.9999    3881.0549    3027.4411   -475.31751    82.343014   -386.76373   -4535.0433 
33944000    87.920798   -5080.8986   -4911.3359   -5080.8986            0    2479.6309    19.931401    19.949558    20.690634    8227.0646     2686.113    2267.1921    2485.5875   -249.51337    351.40572   -669.90181   -4613.8216 
33945000    84.900696   -5083.6164   -4919.8783   -5083.6164            0    1886.5141    19.966673     19.89949    20.785121     8258.482    2431.1267    2244.5252    983.89047    9.9728871   -754.80267    669.92793   -4692.6637 
33946000    85.465373   -5084.7367   -4919.9095   -5084.7367            0    3211.1268    20.017729    19.910422    20.568537    8197.8252    3919.2997    2580.8936     3133.187   -432.27084   -670.93329   -660.90472   -4535.9972 
33947000    84.773359   -5082.2731   -4918.7806   -5082.2731            0    2450.0685    19.958004    19.982692    20.644492    8233.3262    1783.4429    2667.0417    2899.7209   -53.136727    148.65944    254.55929   -4624.5895 
33948000    89.604424   -5088.5943   -4915.7847   -5088.5943            0    2153.5748    19.890621    19.923727    20.772923    8232.2117    2900.3836    1884.6948     1675.646   -340.01906    484.73211    157.97127     -4657.23 
33949000    86.072118   -5075.4394    -4909.442   -5075.4394            0    2182.2334    19.989604    19.919964    20.650803    8222.9886    2206.4966    2498.2068    1841.9968    93.418049   -428.70469    342.09528   -4647.7402 
33950000    80.772808   -5078.3813   -4922.6041   -5078.3813            0    2260.3142    19.924819     19.92002    20.699379    8215.6412    2079.2118    2105.6013    2596.1296   -436.03217   -65.068337   -202.84442   -4651.7808 
33951000    82.416134   -5081.3628   -4922.4164   -5081.3628            0    1532.0248     19.93543    19.940366    20.815902    8274.7327    1835.7811    1959.2722    801.02123    100.58629   -463.84274   -397.49653   -4737.5339 
33952000    85.306319   -5082.2866   -4917.7662   -5082.2866            0    1528.3015    19.931942    20.065914    20.631253    8251.5241    1357.0106    1220.5597    2007.3343   -479.39129   -83.859373    -242.2541   -4733.8503 
33953000    84.245023   -5089.5677   -4927.0941   -5089.5677            0    2529.5172    19.934292    19.882041    20.736849    8218.7267    1363.7098     4219.446    2005.3958    42.106012   -437.06337   -689.60235   -4623.9018 
33954000    78.273595   -5078.5334   -4927.5761   -5078.5334            0    1571.7724     19.98247    19.937988    20.795122    8284.9897     2341.224    1162.9346    1211.1585    32.314417   -387.38605    424.41072   -4737.6619 
33955000    80.266325   -5085.6446   -4930.8443   -5085.6446            0    832.35906    20.051924    20.018681    20.656017    8291.5951    854.12415    1075.6137     567.3393   -78.171945    357.89069    593.91352   -4830.1917 
33956000    84.615788   -5093.5174   -4930.3288   -5093.5174            0    1777.1697    19.958085     19.93521    20.776254    8266.2193    2997.6965    934.26231    1399.5504   -100.72244    69.850933    319.12694   -4716.0833 
33957000    84.703771    -5082.848   -4919.4897    -5082.848            0    1532.7553     20.06227    19.900024    20.645234    8242.3964    808.11084    1801.2157    1988.9393    -18.10674    470.01202    -599.5262   -4735.2419 
33958000    86.110325   -5082.1833   -4916.1123   -5082.1833            0    1750.4672    19.943499    19.926303    20.752719    8247.1349    2715.7526    1577.1608    958.48815   -17.623116    345.92899    31.112318   -4705.5731 
33959000    84.372017   -5081.1731   -4918.4546   -5081.1731            0    2502.3835    20.109755    19.732582    20.748539     8233.381    2555.0058    2632.5034    2319.6413    119.79963     41.56423    774.31923   -4617.9799 
33960000    86.721786   -5077.6532   -4910.4029   -5077.6532            0    2322.1235    19.973315    19.938761    20.766543    8270.1334    1731.1882     3511.495    1723.6872   -209.52172    518.42102    814.84625   -4630.3283 
33961000    87.104842   -5084.7897   -4916.8007   -5084.7897            0    1931.1319    19.930474    19.973778    20.752586    8261.3321    2771.1749    1311.4686    1710.7521    178.05483    290.60818    105.84094    -4684.132 
33962000    85.176012   -5081.1359   -4916.8668   -5081.1359            0    1754.4543    20.010132    19.848277    20.796204    8259.5587    1470.5427    2040.5347    1752.2854   -271.55479    718.23546   -274.44859   -4705.5302 
33963000     86.36465   -5079.8565    -4913.295   -5079.8565            0     1846.522    20.115049    19.875312    20.691809    8272.4378    1298.4554    1442.9142    2798.1963    65.359863    567.97666    921.05067   -4690.5214 
33964000    86.011433   -5084.4521   -4918.5718   -5084.4521            0    1711.0634    19.968166    19.933055    20.778346    8270.3336    2578.4828    810.03377    1744.6737   -128.33869   -99.377561    786.16161   -4712.1931 
33965000    81.623525   -5093.7678   -4936.3499   -5093.7678            0    2788.1684    19.918319    19.858756    20.859837     8251.172    2222.6413    3934.6629    2207.2009   -228.32702   -436.30701   -221.18474    -4600.836 
33966000    85.112619   -5090.5481   -4926.4013   -5090.5481            0    1934.7138    19.922869    19.930481    20.771424    8247.7583    2594.8878     1070.852    2138.4018   -248.62656    101.36158    281.50456    -4693.684 
33967000    81.781368   -5091.5978   -4933.8756   -5091.5978            0      1464.35    20.010831    19.862552     20.82102     8275.651    2181.7433    1752.3826    458.92406   -225.58673   -33.618181    367.05157   -4757.1404 
33968000    86.681181   -5079.5011   -4912.3292   -5079.5011            0    1772.3743    19.915698     19.99478     20.73576    8257.1872    2144.2328    1534.9771    1637.9131   -112.73792   -340.75612   -173.46578   -4698.8953 
33969000    84.448123    -5079.113   -4916.2477    -5079.113            0    2321.9657    20.033473    19.929167    20.661587    8249.1475    2156.3338    2057.4127    2752.1505      107.409    -235.3294   -163.43798   -4636.9028 
33970000    81.851153   -5088.3552   -4930.4984   -5088.3552            0    1158.7735    19.993596    19.901144    20.832651    8289.2167    528.61394    2262.9165    684.79003    43.862008   -553.47343    67.800968   -4790.4146 
33971000    84.327254   -5083.7605   -4921.1283   -5083.7605            0     2037.239     19.93956    19.961499    20.681387    8231.6781     2739.389      1792.11    1580.2181    -567.2638    -59.63344   -228.95263   -4676.5566 
33972000    82.469175   -5084.1096   -4925.0608   -5084.1096            0    2078.7297    20.007158    19.896961    20.665319    8226.4845    1906.2446    1404.9317    2925.0127   -196.99811    649.98729   -283.07143   -4675.6656 
33973000    84.102672   -5085.9429   -4923.7439   -5085.9429            0    2643.6728    19.996802    19.893934    20.657092     8217.702    2878.6568     3108.695    1943.6665   -37.203616    -405.4318   -381.00752   -4606.9083 
33974000    85.061548   -5079.4664   -4915.4181   -5079.4664            0    2365.3463    19.899064    19.947265    20.692022    8213.3235    3130.3461    2147.6474    1818.0455   -290.30197   -95.422121    -161.5921     -4632.09 
33975000     85.36938   -5090.4719   -4925.8299   -5090.4719            0    1312.1613    20.014696     19.95495    20.733479    8280.7912    1064.8775    1550.1182    1321.4883    101.67382   -205.36024   -652.08815   -4767.3643 
33976000    84.349949   -5081.3629   -4918.6869   -5081.3629            0    1340.2718     20.02312    19.912691    20.706028    8255.7874    1881.3976    556.30209    1583.1158   -34.465423    63.286571    733.97677   -4757.3152 
33977000    88.925061   -5072.3982   -4900.8987   -5072.3982            0    2039.9601    19.902615     19.95418    20.854239      8282.06    3035.3296    1413.8987    1670.6521   -125.52173    438.01457   -124.37186   -4654.5014 
33978000    86.333235   -5083.1976   -4916.6967   -5083.1976            0    1606.5452    19.871927    19.913561    21.083963    8343.3633    2148.4399    1826.4078      844.788   -170.68235   -847.64775    541.37711   -4721.2132 
33979000     85.56132    -5080.829   -4915.8168    -5080.829            0    1668.5481     19.98261    19.916163     20.78824    8273.2399    1667.3435     2443.124    895.17698   -329.74292    186.56912   -36.175118   -4714.4953 
33980000    87.849028   -5077.3028   -4907.8786   -5077.3028            0     1609.394    19.952647    19.945924    20.743775    8255.4827    1835.1583    1567.6041    1425.4195   -142.46691    514.77292    415.64038   -4714.1112 
33981000    89.499702   -5082.9679   -4910.3602   -5082.9679            0    1647.0571     20.04556    19.970329    20.566031    8232.9199    2563.1822   -20.897712    2398.8869   -564.00563    662.25637    390.44498   -4712.6002 
33982000    85.694696   -5083.0184   -4917.7489   -5083.0184            0    2700.9169    19.812648    19.997641    20.739545    8217.1369      2780.81    2470.3447    2851.5961    213.70191    454.41207    203.34285   -4594.0751 
33983000    86.075545   -5092.8574   -4926.8534   -5092.8574            0    1265.6771    19.996141    19.926511    20.801828    8288.5576    938.82445      1469.33    1388.8769    13.120151    624.37288   -81.151692   -4773.8583 
33984000    85.268818   -5080.1259   -4915.6778   -5080.1259            0    1506.8621    19.838643    20.010503    20.925056    8306.8547    2015.3883    1396.1758    1109.0221      168.263   -57.761386   -230.55198    -4733.126 
33985000    81.371346   -5084.5459   -4927.6145   -5084.5459            0    1646.6593    19.890777    20.020306     20.77311    8272.2561    2548.3407    1444.7204    946.91688   -714.53674    451.41731    218.99859   -4728.9576 
33986000    84.442022   -5087.4586   -4924.6051   -5087.4586            0    1923.4296    19.965923    19.901052    20.698825    8224.5303    1846.4211    1201.1006     2722.767   -96.515738    614.23211    254.64631   -4693.8967 
33987000    86.625747   -5084.0065   -4916.9415   -5084.0065            0    3220.9835    19.884134    20.020122    20.563775    8186.0851    3593.7915    2891.9746    3177.1845    356.45397    1142.3445     145.7006   -4532.4022 
33988000    87.924613   -5084.9246   -4915.3546   -5084.9246            0    2098.0108    19.845445    20.031952    20.684387    8222.9333    2559.6501    1717.7821    2016.6003    144.58878    865.36644   -582.25811   -4663.7548 
33989000    84.530341     -5080.52   -4917.4961     -5080.52            0    1739.7083    19.966745    19.960344     20.61885    8217.5002    1387.0777    1423.6485    2408.3988   -42.215285    49.471116   -1.3466138   -4709.0028 
33990000    87.726693   -5083.9902   -4914.8019   -5083.9902            0    2584.3446    19.849316    19.834988    20.878759    8220.1961    3422.1197    2201.9214    2128.9927    164.80542   -65.899416    211.67715   -4604.9826 
33991000     80.84635   -5082.0292   -4926.1102   -5082.0292            0    1894.8651    19.951696    19.947257    20.749479     8257.911    1286.4661    2758.8603     1639.269   -63.188148    87.060333    41.497989   -4697.9056 
33992000    82.839837   -5081.5214   -4921.7578   -5081.5214            0    1580.3012    20.008469     19.96932    20.728296    8282.1051    1377.8705     1669.235     1693.798   -157.94621   -136.05778    697.67774   -4730.8795 
33993000    83.794754   -5074.4101   -4912.8049   -5074.4101            0    2423.1675    19.997514    19.947968    20.719066    8265.0381    3495.4957    1346.1864    2427.8202   -150.03675   -121.28891    916.73642   -4620.7233 
33994000     85.75964   -5080.8115   -4915.4168   -5080.8115            0    1160.8222    20.058216     19.91083     20.73833    8282.3857    252.50055    2331.7558    898.21026   -253.01329    -37.88755    38.768752   -4775.2009 
33995000    91.790733   -5084.5335   -4907.5073   -5084.5335            0     1592.591     19.96371    19.964784    20.839878    8306.1743    2262.8173    845.56415    1669.3916   -33.494741    431.83393    52.668881   -4714.5856 
33996000    87.426655   -5081.8477   -4913.2381   -5081.8477            0    2509.6994    19.912644    19.877001    20.828051    8243.8184    2325.4738    2932.3936    2271.2308    117.63941     815.3918   -110.45742   -4611.5028 
33997000    81.710377   -5078.8297   -4921.2444   -5078.8297            0    1458.3547    19.905248    19.950035    20.907359    8302.5295    1713.4381    1695.4163     966.2099    130.71206    447.74857   -249.07328   -4744.6611 
33998000     85.88798   -5075.6956   -4910.0535   -5075.6956            0    1792.7993    20.019637    19.957747    20.737115    8285.4494    3049.9174    1070.1684    1258.3122   -454.67431    182.88322   -304.44837   -4693.4209 
33999000    81.638446   -5083.5191   -4926.0725   -5083.5191            0    2208.3471    19.988194    19.935033    20.684688    8242.1307    2284.4093    1704.4004    2636.2316   -140.01182   -73.691657    53.917765   -4660.6225 
34000000    86.815903    -5072.104   -4904.6723    -5072.104            0    2190.6087    20.125493    19.905788    20.662735    8277.7767    2387.8182    1605.1063    2578.9015   -230.03764    438.20951    85.763803   -4640.2157 
Loop time of 365.981 on 64 procs for 250000 steps with 972 atoms

Performance: 118.039 ns/day, 0.203 hours/ns, 683.096 timesteps/s
195.0% CPU use with 32 MPI tasks x 2 OpenMP threads

MPI task timing breakdown:
Section |  min time  |  avg time  |  max time  |%varavg| %total
---------------------------------------------------------------
Pair    | 24.932     | 34.514     | 42.835     |  78.1 |  9.43
Bond    | 0.99971    | 1.2193     | 1.4203     |   8.9 |  0.33
Kspace  | 163.56     | 172.75     | 185.05     |  38.5 | 47.20
Neigh   | 0.23833    | 0.2575     | 0.27906    |   3.2 |  0.07
Comm    | 62.461     | 67.026     | 71.664     |  28.8 | 18.31
Output  | 0.60444    | 0.6049     | 0.60646    |   0.0 |  0.17
Modify  | 71.478     | 73.994     | 76.964     |  14.7 | 20.22
Other   |            | 15.61      |            |       |  4.27

Nlocal:        30.3750 ave          36 max          24 min
Histogram: 2 3 2 1 3 9 3 5 2 2
Nghost:        2622.91 ave        2650 max        2589 min
Histogram: 2 3 2 2 4 4 5 3 2 5
Neighs:        9524.56 ave       12677 max        7030 min
Histogram: 2 2 3 9 3 4 5 2 1 1

Total # of neighbors = 304786
Ave neighs/atom = 313.56584
Ave special neighs/atom = 2.0000000
Neighbor list builds = 762
Dangerous builds = 0

unfix		3
unfix		2
unfix		1

write_data	data.final.${pid}
write_data	data.final.1
System init for write_data ...
PPPM initialization ...
  extracting TIP4P info from pair style
  using 12-bit tables for long-range coulomb (../kspace.cpp:340)
  G vector (1/distance) = 0.37135034
  grid = 24 24 24
  stencil order = 5
  estimated absolute RMS force accuracy = 0.0036156569
  estimated relative force accuracy = 1.0888443e-05
  using double precision FFTW3
  3d grid and FFT values/proc = 3211 432
Last active /omp style is kspace_style pppm/tip4p/omp
WARNING: Not all mixed pair coeffs generated from mixing. Use write_data with 'pair ij' option to store all pair coeffs. (../write_data.cpp:312)

write_restart   restart.lmp.${pid}
write_restart   restart.lmp.1
System init for write_restart ...
PPPM initialization ...
  extracting TIP4P info from pair style
  using 12-bit tables for long-range coulomb (../kspace.cpp:340)
  G vector (1/distance) = 0.37135034
  grid = 24 24 24
  stencil order = 5
  estimated absolute RMS force accuracy = 0.0036156569
  estimated relative force accuracy = 1.0888443e-05
  using double precision FFTW3
  3d grid and FFT values/proc = 3211 432
Last active /omp style is kspace_style pppm/tip4p/omp
Total wall time: 0:06:06
