#include		in.partitions
include		in.temp
variable        temperature equal 227.72
variable	tempDamp equal 100.0
include		in.pressure
variable        pressure equal 1565.9
variable        pressureDamp equal 1000.0 # This is 1 ps
include		in.seed
variable        seed equal 745823

units		real
atom_style	full
#include		in.box
read_restart	restart.lmp.${pid}
read_restart	restart.lmp.0
Reading restart file ...
  restart file = 30 Jul 2021, LAMMPS = 30 Jul 2021
  restoring atom style full from restart
  orthogonal box = (-0.0039909304 0.12520568 0.079000538) to (18.211563 23.503972 22.134195)
  2 by 4 by 4 MPI processor grid
  restoring pair style lj/cut/tip4p/long/omp from restart
  restoring bond style harmonic/omp from restart
  restoring angle style harmonic/omp from restart
  864 atoms
  576 bonds
  288 angles
Finding 1-2 1-3 1-4 neighbors ...
  special bond factors lj:    0        0        0       
  special bond factors coul:  0        0        0       
     2 = max # of 1-2 neighbors
     1 = max # of 1-3 neighbors
     1 = max # of 1-4 neighbors
     2 = max # of special neighbors
  special bonds CPU = 0.002 seconds
  read_restart CPU = 0.006 seconds
include 	in.setup
variable	out_freq equal 1000
variable	out_freq2 equal 10000
variable	out_freq3 equal 1000

timestep	2.0

neigh_modify    delay 7 every 1

include		in.tip4p
# This is TIP4P/Ice

# create groups ###
group ox type 2
288 atoms in group ox
group hy type 1
576 atoms in group hy

# set charges - beside manually ###
set group ox charge -1.1794
Setting atom values ...
  288 settings made for charge
set group hy charge 0.5897
Setting atom values ...
  576 settings made for charge

# ### TIP3P Potential Parameters ###
pair_style lj/cut/tip4p/long/omp 2 1 1 1 0.1577 8.5
pair_coeff 1 1*2 0.000 0.000
pair_coeff 2 2 0.21084 3.1668
bond_style  harmonic
bond_coeff  1 450 0.9572
angle_style harmonic
angle_coeff 1 55 104.52
kspace_style pppm/tip4p/omp 1.0e-5
pair_modify tail yes

thermo          ${out_freq}
thermo          1000
thermo_style    custom step temp pe etotal epair emol press lx ly lz vol pxx pyy pzz pxy pxz pyz enthalpy

restart 	${out_freq3} restart.lmp.${pid} restart2.lmp.${pid}
restart 	1000 restart.lmp.${pid} restart2.lmp.${pid}
restart 	1000 restart.lmp.0 restart2.lmp.${pid}
restart 	1000 restart.lmp.0 restart2.lmp.0


include         in.dump
dump            myDump all atom ${out_freq2} dump.water.${pid}
dump            myDump all atom 10000 dump.water.${pid}
dump            myDump all atom 10000 dump.water.0
dump            myDump2 all dcd ${out_freq2} dump.dcd
dump            myDump2 all dcd 10000 dump.dcd
dump_modify     myDump append yes
dump_modify     myDump2 append yes


variable natoms 	equal  "count(all)"                        # NUMBER ATOMS
variable H      	equal  "enthalpy/v_natoms"                 # ENTHALPY-per-atom
variable Vol      	equal  "vol/v_natoms"                 # volume-per-atom
fix AVG all 		ave/time ${out_freq} 1 ${out_freq} v_Vol v_H file vol_enthalpy.dat
fix AVG all 		ave/time 1000 1 ${out_freq} v_Vol v_H file vol_enthalpy.dat
fix AVG all 		ave/time 1000 1 1000 v_Vol v_H file vol_enthalpy.dat


timer           timeout 23:50:00 every 1000
New timer settings: style=normal  mode=nosync  timeout=23:50:00

fix 		1 all shake 1e-6 200 0 b 1 a 1
       0 = # of size 2 clusters
       0 = # of size 3 clusters
       0 = # of size 4 clusters
     288 = # of frozen angles
  find clusters CPU = 0.002 seconds
fix             2 all nph aniso ${pressure} ${pressure} ${pressureDamp}
fix             2 all nph aniso 1565.9 ${pressure} ${pressureDamp}
fix             2 all nph aniso 1565.9 1565.9 ${pressureDamp}
fix             2 all nph aniso 1565.9 1565.9 1000
fix             3 all temp/csvr ${temperature} ${temperature} ${tempDamp} ${seed}
fix             3 all temp/csvr 227.72 ${temperature} ${tempDamp} ${seed}
fix             3 all temp/csvr 227.72 227.72 ${tempDamp} ${seed}
fix             3 all temp/csvr 227.72 227.72 100 ${seed}
fix             3 all temp/csvr 227.72 227.72 100 745823


run             250000
PPPM initialization ...
  extracting TIP4P info from pair style
  using 12-bit tables for long-range coulomb (../kspace.cpp:340)
  G vector (1/distance) = 0.371471
  grid = 24 27 25
  stencil order = 5
  estimated absolute RMS force accuracy = 0.0031782045
  estimated relative force accuracy = 9.5710685e-06
  using double precision FFTW3
  3d grid and FFT values/proc = 4410 672
Last active /omp style is kspace_style pppm/tip4p/omp
Neighbor list info ...
  update every 1 steps, delay 7 steps, check yes
  max neighbors/atom: 2000, page size: 100000
  master list distance cutoff = 10.8154
  ghost atom cutoff = 10.8154
  binsize = 5.4077, bins = 4 5 5
  1 neighbor lists, perpetual/occasional/extra = 1 0 0
  (1) pair lj/cut/tip4p/long/omp, perpetual
      attributes: half, newton on, omp
      pair build: half/bin/newton/omp
      stencil: half/bin/3d
      bin: standard
Per MPI rank memory allocation (min/avg/max) = 10.20 | 10.22 | 10.23 Mbytes
Step Temp PotEng TotEng E_pair E_mol Press Lx Ly Lz Volume Pxx Pyy Pzz Pxy Pxz Pyz Enthalpy 
 5250000    236.15747   -4287.4255   -3882.6596   -4287.4255            0     1077.395    18.215554    23.378766    22.055195    9392.3632   -1429.6487     3218.757    1443.0767    212.46023   -241.00696   -63.391759   -3735.0802 
 5251000    235.16714   -4311.6922   -3908.6238   -4311.6922            0     1138.169    18.149683    23.353981    22.095688    9365.6406    1132.8635    2066.1889    215.45464    15.175357   -498.50223    307.14101   -3753.1633 
 5252000    227.89283   -4303.9396   -3913.3391   -4303.9396            0    1833.0659    17.768117    23.693437    22.056461       9285.5     3228.242    375.45689    1895.4988    1522.9867   -738.93844    10.717284   -3665.1062 
 5253000    229.79105   -4314.9999   -3921.1459   -4314.9999            0    1571.6346    18.003368    23.522844    22.080071    9350.6989     1039.938    1377.5804    2297.3854    896.12353     476.5982    354.69479   -3706.8215 
 5254000    215.41813   -4318.0052   -3948.7859   -4318.0052            0    1443.4808    18.159525    23.144028    22.180288    9322.0326    437.40583     2975.642    917.39448    293.08947   -93.224722   -309.59228   -3752.5414 
 5255000     238.3216   -4309.1888   -3900.7138   -4309.1888            0    1115.0042    18.160304    23.432261    21.905354    9321.5381    981.59287    1752.8834    610.53629    81.606096   -909.69855    771.89355   -3749.1344 
 5256000    240.04868   -4309.7865   -3898.3513   -4309.7865            0    737.52001    17.823366    23.695049    22.163735    9360.3112    1676.9189    999.49228   -463.85112    134.02831    359.41686    481.98114    -3797.672 
 5257000    232.20503   -4308.5698   -3910.5783   -4308.5698            0    1966.2355    17.987818    23.454359    21.956306    9263.2061    1808.4752    1662.8222    2427.4092    196.11109    418.03178    696.01149    -3644.951 
 5258000    230.56594   -4297.1913   -3902.0092   -4297.1913            0    961.78042    17.922042    23.487347    22.289777    9382.6859    2251.8983    75.175281     558.2677   -29.090622   -553.96979    654.74861   -3770.4022 
 5259000    234.75375   -4284.7731   -3882.4132   -4284.7731            0    1681.0838    18.173182    23.486439    21.760822    9288.0266    672.74039    1195.0534    3175.4577   -199.53216   -311.04672    817.55364   -3654.6997 
 5260000     236.9184   -4314.5546   -3908.4846   -4314.5546            0    1001.4352    18.088811    23.290363    22.140764    9327.7925    2002.2474    1411.4838    -409.4257   -602.22041   -175.18801    563.68678    -3772.253 
 5261000    230.01228   -4312.3983   -3918.1651   -4312.3983            0    1521.7419    18.158886     23.35351    22.025319    9340.3587    838.13668     1288.859    2438.2301   -244.71419   -523.97986    118.68802   -3710.8741 
 5262000    233.03699   -4274.1938   -3874.7764   -4274.1938            0    1254.5256    17.999293    23.530249    22.138142    9376.1197     1933.856    2110.2621   -280.54123   -865.86552    281.92442   -112.99499   -3703.2312 
 5263000    225.30666   -4280.6728   -3894.5049   -4280.6728            0    1443.1574    18.127296     23.33271    22.109302    9351.3276    1596.8583    2774.3221   -41.708052   -90.821525   -978.44571   -601.58317   -3697.6877 
 5264000    221.96728   -4311.4593    -3931.015   -4311.4593            0    1194.9357    18.130711    23.427411    22.058727    9369.5682    587.11346    1211.3826     1786.311     535.0643    177.54876   -803.03536   -3767.7323 
 5265000     226.6048   -4301.1542   -3912.7613   -4301.1542            0    2940.9054     17.83691    23.535692    22.033747    9249.8554    2871.3661    2462.0266    3489.3234   -516.35632   -258.19362    435.48791   -3516.0342 
 5266000    224.40423   -4296.3326   -3911.7114   -4296.3326            0    2786.7454    18.056468    23.447228    21.923886    9282.0061    3222.8098    2838.8109    2298.6155   -416.60132     367.5085   -36.138556   -3534.4738 
 5267000    227.24864   -4298.8012   -3909.3048   -4298.8012            0    846.40533    18.085113    23.239368    22.337727    9388.2472    1395.3288    268.03777    875.84944   -684.94059   -195.64221   -89.981915   -3793.4168 
 5268000    216.77716   -4311.6626    -3940.114   -4311.6626            0    1949.3591    18.074197    23.419761    21.903048    9271.4152    2751.6539    1225.5773    1870.8461   -104.27012    1052.3982    -411.4121   -3676.5332 
 5269000    230.10183   -4303.8254   -3909.4387   -4303.8254            0    1957.9476    17.728799    23.592377    22.220068    9293.8659    2104.7585    1524.6749    2244.4095   -116.92862    24.615893   -684.40652   -3644.0556 
 5270000    217.23583   -4301.7519   -3929.4172   -4301.7519            0    1267.9822    18.151987    23.531829    21.896304    9352.9946    587.48107    690.91006    2525.5553   -131.91377    832.89308    -28.97772   -3756.4595 
 5271000    222.44478   -4307.4915   -3926.2287   -4307.4915            0    1543.9919    18.066094    23.291733    22.120557    9308.1231   -329.50305     3422.585    1538.8938    351.10693   -263.26325   -96.602401   -3716.6327 
 5272000    237.05796   -4304.0782    -3897.769   -4304.0782            0    1459.6127    17.993064    23.664097    21.906369    9327.5042    2083.5636    708.76663    1586.5079    511.05807   -816.88091   -442.98847   -3699.2148 
 5273000    210.74547   -4295.4567   -3934.2462   -4295.4567            0     1069.985    18.043858    23.437604    22.177009    9378.7637    779.69436    1234.3858    1195.8749     438.7186   -573.74631    409.95248    -3787.894 
 5274000    237.67029   -4270.6668    -3863.308   -4270.6668            0    51.318994    18.291005    23.391709    22.106093    9458.2658   -1439.8327     1016.842    576.94775    6.8951638   -689.22218    752.52314   -3856.2291 
 5275000    235.17914   -4310.3206   -3907.2316   -4310.3206            0    1001.5381    18.120821    23.310889    22.107891    9338.6484    2344.3188    2221.1518   -1560.8565     408.4412    39.853623    337.77289   -3770.8275 
 5276000    245.11989   -4304.8077   -3884.6806   -4304.8077            0    1542.5116    17.928458    23.572128    22.116128    9346.5394    1345.7217    1703.1501    1578.6629     183.8199    222.66929    510.90433   -3674.4213 
 5277000    231.77254    -4290.947   -3893.6968    -4290.947            0    2180.4344    18.062286    23.533448    21.947758     9329.287    1777.7949     2303.906    2459.6023    373.82723     486.1818    494.47605   -3597.0311 
 5278000    227.99138   -4315.8971   -3925.1276   -4315.8971            0    643.16078    18.052433    23.119453    22.378458    9339.9263    1439.2726    761.72701   -271.51725   -713.64639   -620.67187   -855.33083   -3837.5206 
 5279000     215.4735     -4313.32   -3944.0058     -4313.32            0    2038.2378    18.058982    23.569909    21.826918    9290.5964    962.79313    2433.7002    2718.2201    122.22939    29.245319   -356.29789   -3667.8372 
 5280000    243.07823   -4312.6282   -3896.0004   -4312.6282            0    1314.2349    17.798725    23.519348    22.306591    9337.8604    2253.3992    2646.3645   -957.05901   -341.89022    344.62055   -498.51683   -3717.0238 
 5281000     244.8606   -4303.7631   -3884.0804   -4303.7631            0    1843.8466    18.118218    23.423159    21.999347    9336.2129    488.14393    2098.9857    2944.4102     -134.926    140.56431    -197.8835    -3633.024 
 5282000    220.58925   -4275.8108   -3897.7283   -4275.8108            0    2263.3469    18.010751    23.414983    21.944085    9254.2906    4658.1177    1640.2496    491.67334    106.86555    446.46754     2.709292   -3592.2572 
 5283000    229.31338   -4293.9892   -3900.9539   -4293.9892            0    1554.9019    17.927685    23.427076    22.101123    9282.3222    1910.6455    573.39102    2180.6691   -1070.3466   -923.62766     273.3579    -3690.462 
 5284000    219.31075   -4314.5993   -3938.7082   -4314.5993            0    1148.4519    18.208152     23.48267    21.849582    9342.3571    146.68274    817.38606     2481.287    53.501408   -22.042823    348.17271   -3782.2331 
 5285000    221.01152   -4323.8214   -3945.0152   -4323.8214            0    2330.3328    18.029798     23.11116    22.299871    9292.1233    2400.1558    3474.5249    1116.3176   -66.708141   -230.95729    99.076283   -3629.2176 
 5286000    222.16586   -4318.9574   -3938.1727   -4318.9574            0    1357.8658    18.036498    23.709449    21.858771    9347.5852    1265.1992    770.44206     2037.956   -229.25116   -328.51436    232.10652   -3753.0618 
 5287000    231.32141    -4303.931   -3907.4541    -4303.931            0    1715.8955    17.889813    23.454678    22.204573    9317.0342    2308.3739     1445.342    1393.9707   -199.01646    489.27448   -363.85727   -3674.2992 
 5288000     228.7231   -4308.6072   -3916.5837   -4308.6072            0    1680.2395    18.187342    23.498069    21.819138    9324.7887    888.81361    971.97857    3179.9262   -237.97583   -875.55183   -578.00568   -3688.0838 
 5289000    231.49795   -4308.6668   -3911.8873   -4308.6668            0    1402.8132    18.074427    23.256657    22.249899    9352.7616    281.59056    2781.2034    1145.6456    225.95461   -345.24166    389.87266   -3720.5429 
 5290000    221.15153    -4302.284   -3923.2378    -4302.284            0    1892.2316     17.97902    23.598587    21.928847    9303.9594    1868.7475    1814.1991    1993.7481   -11.632113   -515.33396    525.89297   -3666.4834 
 5291000    241.44323   -4336.7207   -3922.8953   -4336.7207            0    1308.7278    17.954706    23.498288    22.141516    9341.6131    896.72306    1260.3287    1769.1316    254.07821   -1255.4547    17.093569   -3744.5971 
 5292000    216.23876   -4293.4439   -3922.8181   -4293.4439            0    1422.6087    18.228911     23.27949    21.988355    9330.9729    2688.2785    41.203216    1538.3443   -238.51208   -126.53882     699.3546   -3729.2257 
 5293000    227.51774   -4299.3949   -3909.4373   -4299.3949            0    2216.5502    17.943314    23.393775    22.078093     9267.541     2519.776    3269.3859     860.4886    178.85875    355.49106   -768.63469   -3609.8537 
 5294000    235.43052   -4307.3138    -3903.794   -4307.3138            0    2920.9377    17.873099    23.466862    22.043498    9245.6059     4086.092    2859.2047    1817.5164   -1153.7446   -105.70495   -858.13578   -3509.9415 
 5295000    206.99252   -4314.7663   -3959.9882   -4314.7663            0    541.29662      18.2667    23.361615    21.983898    9381.4002     638.3479   -681.25398    1666.7959    140.71613   -287.07686    267.21949    -3885.929 
 5296000    229.56594   -4290.2462    -3896.778   -4290.2462            0     2486.705    18.049286    23.428759    21.995001    9301.0782    1696.1134    2282.4758    3481.5259    417.08818   -242.28123   -343.60255   -3559.4648 
 5297000    219.84661   -4304.4166    -3927.607   -4304.4166            0    985.49539    17.797719     23.83529    22.055582    9356.2823    2210.4328    35.447741    710.60559    114.58407    378.69591   -629.56438   -3793.1344 
 5298000    226.96615   -4294.2444   -3905.2322   -4294.2444            0    1623.1905    18.124598    23.186451    22.118586    9295.2271    2689.5594    1439.5867    740.42532    157.37137    604.43382   -43.272326   -3685.1903 
 5299000    224.09882   -4286.1895   -3902.0917   -4286.1895            0    1228.2559    18.124061     23.54287    22.005879    9389.7415    625.44042    1701.5198    1357.8074    431.85893     1159.068   -566.12394   -3733.8947 
 5300000    226.60544   -4316.6509    -3928.257   -4316.6509            0    3149.4656    17.867831    23.375021    22.120853     9239.016    3452.7153    3614.5029    2381.1786   -1087.7224    52.599599   -497.36386    -3503.893 
 5301000    225.67285   -4279.2442   -3892.4487   -4279.2442            0    1791.3422    18.081084    23.462485    21.895874    9288.8241    967.33014    1750.2968    2656.3996    117.80365   -59.327773   -154.68282   -3649.7792 
 5302000    230.18365   -4312.3027   -3917.7758   -4312.3027            0    2954.5398    18.075257    23.195888    22.055032    9247.0495    3600.9478    2327.3493    2935.3223    1028.8227    120.63578    131.15049   -3519.3303 
 5303000    218.43102   -4304.0557   -3929.6724   -4304.0557            0    873.31021    18.073407    23.505732    22.120143    9397.2706    986.66331   -1204.0238    2837.2911   -1019.4041    120.92295    -334.9334   -3809.9856 
 5304000    232.18799   -4297.0622   -3899.0999   -4297.0622            0    1106.4797    18.014616    23.566473    22.078563    9373.2547    1843.6858    1053.3149    422.43827   -285.49623    -655.2902    525.06588   -3747.8449 
 5305000    224.44804   -4301.0706   -3916.3743   -4301.0706            0    3373.3165    17.945563    23.389418    22.030462    9246.9845    3957.0737    2778.5682    3384.3076    383.42136   -573.53258   -645.93379   -3461.4563 
 5306000    228.87774   -4268.5281   -3876.2394   -4268.5281            0    805.00505    18.257119    23.376153    21.903769    9348.1167   -63.519525    315.27803    2163.2567   -49.565032   -192.15837   -616.21867   -3766.4909 
 5307000    231.25448   -4306.9848   -3910.6225   -4306.9848            0    2214.0865    18.068452    22.916118     22.43015    9287.4007    2692.3815    3106.1752    843.70285   -31.859283    145.03701    629.84379   -3610.7307 
 5308000    227.53711   -4299.5359   -3909.5451   -4299.5359            0    1808.3846    18.057769    23.588497    21.891679    9324.8839    2844.8766    1006.1747    1574.1026   -424.83195    1226.9167   -362.44586   -3663.6159 
 5309000    228.04152   -4301.7912   -3910.9359   -4301.7912            0    237.78582    17.844353    23.685153    22.271334    9412.8954    847.43485   -46.180493   -87.896897   -151.55774    223.11505    571.30832   -3878.2933 
 5310000     227.6894   -4337.2909    -3947.039   -4337.2909            0    624.07501    18.133105    23.445974    21.980556    9344.9962    761.88949    884.53148    225.80407    513.15655    417.05452    637.47967   -3861.9856 
 5311000    225.73916    -4299.438   -3912.5288    -4299.438            0    1233.0203    18.139091    23.116814    22.268669    9337.6534    245.76306    2451.9279    1001.3698   -711.79115    193.23543    534.18875    -3744.616 
 5312000    229.66335   -4296.8107   -3903.1756   -4296.8107            0    693.62105    18.120428    23.604929     21.94131    9384.9878     1363.492   -566.80928    1284.1805    275.29703   -267.91846   -220.80435   -3808.2394 
 5313000    233.38366     -4275.73   -3875.7184     -4275.73            0    3643.1509    17.823541    23.485076    22.090464    9246.7861     4958.411    2921.4316    3049.6101    499.24499   -521.16666   -606.45586   -3384.4216 
 5314000    217.28528   -4281.8219   -3909.4024   -4281.8219            0    1833.3808    18.018514    23.553685    22.008846    9340.6072    1149.0779    1557.2798    2793.7847    605.41274    224.64047    340.89772   -3659.6534 
 5315000    223.81555   -4324.7008   -3941.0886   -4324.7008            0     723.0281    18.247098     23.15757    22.146983    9358.3947    787.96137    1663.3697   -282.24679    11.681722   -699.90574    -91.97172   -3842.4079 
 5316000    233.09867   -4286.6801    -3887.157   -4286.6801            0     740.3201    18.234105    23.440147    22.009663    9407.1526   -338.37492    1547.5867    1011.7485   -451.01249    98.597878    151.37817   -3785.5897 
 5317000    212.98469   -4316.9062   -3951.8577   -4316.9062            0    1392.0299    17.941304    23.471044    22.186727    9342.8557    2026.3023    1081.3422    1068.4453   -607.87049   -162.08375    235.85777   -3762.1853 
 5318000    228.07396   -4309.0191   -3918.1081   -4309.0191            0    2366.9186    17.849124    23.540848    22.010943     9248.635    2661.1488     1813.622     2625.985   -98.622411     166.4602   -449.96704   -3598.8538 
 5319000    225.38951   -4341.7373   -3955.4274   -4341.7373            0    801.21829    18.213411     23.38447    21.929148    9339.8646    280.86098    994.58501    1128.2089   -427.62002   -305.38452    385.65096   -3846.2915 
 5320000    231.61371   -4306.7065   -3909.7285   -4306.7065            0    2285.5738    17.979159     23.28596    22.208126    9297.6976    3699.9206      2673.19    483.61066    1168.5564    420.67683   -71.967246   -3599.8107 
 5321000    224.99692   -4302.9586   -3917.3215   -4302.9586            0    1616.2405    17.988246    23.681687    21.984282    9365.1286    3461.6543    790.24524    596.82182    432.79418    24.103729    14.860252   -3696.5741 
 5322000    247.07199   -4277.7297   -3854.2568   -4277.7297            0    1208.3312    18.158516    23.187488    22.290583    9385.4581    2102.1861    1006.5915    516.21601    -756.4845   -138.42871   -437.89968   -3688.8637 
 5323000    215.60978   -4315.6325   -3946.0847   -4315.6325            0    1360.1395    18.074695    23.440683    22.083994    9356.6168    1710.3054    649.75251    1720.3608    1336.0377    319.80661    -831.7888   -3760.4846 
 5324000    224.77496   -4310.5998   -3925.3432   -4310.5998            0    840.77197    17.871531    23.592309    22.162479    9344.3815    2775.8931   -250.25659   -3.3206089    211.55368    456.38515    107.23168   -3810.7643 
 5325000    230.76215   -4315.3626   -3919.8441   -4315.3626            0    2015.4829    18.071563    23.501549    21.862675    9285.2905    2748.1169    2044.4676    1253.8642    408.00757    49.527372    327.18475   -3646.9146 
 5326000    223.81123   -4304.6685   -3921.0637   -4304.6685            0    545.40703     18.18362    23.303842    22.218544    9415.0683   -564.59392    2172.0476    28.767427     265.4735    -509.3363    1.5264923   -3846.1744 
 5327000    221.29844   -4311.3209    -3932.023   -4311.3209            0    1358.5307    18.032449    23.411817    22.039894    9304.6353    929.53015    449.49706    2696.5648     52.78297    484.54679    420.48002   -3747.6723 
 5328000     250.7306   -4307.7057    -3877.962   -4307.7057            0    734.57275    18.002472    23.635411    22.121859    9412.7585    983.81516   -169.03088     1388.934    512.68451    -748.6716    294.04563   -3777.1233 
 5329000    220.71391   -4303.1295   -3924.8335   -4303.1295            0    2599.4113    18.018026    23.386099    21.944697    9246.8663    3399.2576    3208.1789    1190.7975   -111.32738   -519.92027    313.42103   -3574.2871 
 5330000    252.35349   -4314.6067   -3882.0815   -4314.6067            0    2072.6454    18.137213    23.460803    21.908116     9322.201    2110.6889    3158.4673    948.77985    398.19942    1666.8673    137.89496   -3600.2955 
 5331000    228.84435   -4310.8816   -3918.6502   -4310.8816            0    644.57678    17.984332    23.411666     22.27368    9378.1808    84.493279    1393.9983     455.2388    344.50576    -266.6291   -245.66528   -3830.4907 
 5332000     228.3167   -4323.8074   -3932.4804   -4323.8074            0    822.46744    18.170125    23.484918     21.95872    9370.3104    7.5121777    880.00383    1579.8863    767.18582    176.95533   -248.71423   -3820.0849 
 5333000     219.3392   -4309.4179    -3933.478   -4309.4179            0    1502.2431    18.081938    23.394147    22.138279    9364.7473    1904.1904    737.59155    1864.9472   -457.60223    93.675988    -59.95264   -3728.3088 
 5334000    222.12285   -4257.8808   -3877.1699   -4257.8808            0    2676.1967     18.09516    23.556467    21.855393     9316.037     1775.319    2050.9877    4202.2833   -502.74037     37.48972   -197.44691   -3513.5688 
 5335000    229.22799   -4308.0613   -3915.1724   -4308.0613            0    828.65751    17.953207    23.490142    22.200623    9362.5215    1892.7588    823.76746   -230.55375    500.62585    581.69319   -356.25042   -3802.0252 
 5336000    222.56422   -4295.7934   -3914.3259   -4295.7934            0    1431.5489    18.035096    23.494997    22.033788    9336.4768    2210.5178    462.08191     1622.047    410.28153   -257.91109   -356.47364    -3719.402 
 5337000    223.64719   -4313.8416    -3930.518   -4313.8416            0    1768.5261    18.234416    23.358129     21.98112    9362.2392    2009.5431    2027.8145    1268.2207   -1591.0818   -163.48366   -59.770242   -3689.0458 
 5338000    232.04345   -4287.5971   -3889.8826   -4287.5971            0    1762.0476    18.006447    23.420835     22.23655    9377.7318    2325.0718    1736.6104    1224.4605    353.21738   -982.65284     102.5175   -3648.8968 
 5339000    222.79923   -4328.7736   -3946.9033   -4328.7736            0    1918.4598    18.009776    23.575001    21.873063    9286.8754    948.86813    2412.8251    2393.6863    1077.9368   -694.42584    84.373527    -3687.068 
 5340000    230.36696   -4305.3067   -3910.4656   -4305.3067            0   -6.1143639    17.826579    23.531339    22.420142    9404.8744    1395.7759   -174.10358   -1240.0154    1042.7201   -35.139869   -296.28192   -3911.3042 
 5341000    216.78179   -4307.3128   -3935.7562   -4307.3128            0    1740.4758    18.162659    23.474352    21.832784    9308.5526     542.5173    1143.0771    3535.8331    75.096209    284.39129    -607.1063   -3699.4767 
 5342000    228.24775    -4286.723   -3895.5142    -4286.723            0    1590.0538    18.010221    23.370489    22.224284    9354.3717    2881.3423    1321.0989     567.7202   -527.48509    423.11132    1105.0059   -3678.5928 
 5343000    230.27499   -4327.8364    -3933.153   -4327.8364            0    2341.8193    18.090102    23.544499    21.734966    9257.4083    1719.6851    2183.4681    3122.3047     -363.017    29.759743   -137.54552   -3616.9844 
 5344000    227.52115   -4312.6966   -3922.7331   -4312.6966            0    2629.4589    17.992499    23.301124    22.089206    9260.7988    4042.9172    1449.3291    2396.1304   -553.82195    19.879172   -383.02804   -3567.6004 
 5345000    218.28975   -4311.7161   -3937.5749   -4311.7161            0    682.37673    18.209071    23.650553    21.890667    9427.3167   -845.42515     1309.853    1582.7023   -399.09608    501.31594   -294.24326   -3843.7565 
 5346000    234.76237   -4301.7146     -3899.34   -4301.7146            0    1844.1154    17.958192    23.383298    22.207496    9325.4107    1547.3249    2244.3396    1740.6815   -211.41157   -314.98688    1164.3388   -3648.5374 
 5347000    234.71748   -4315.5747    -3913.277   -4315.5747            0    2204.0659    17.966107    23.681823     21.84217    9293.1914    3114.7913    1393.7858    2103.6206    1287.1453   -111.60598   -308.44767   -3614.5563 
 5348000    214.37983    -4311.991   -3944.5513    -4311.991            0    1940.8344    18.004662    23.390289    22.124546    9317.4037    3083.4408    886.11084    1852.9517    90.812493    -755.9572    861.01582   -3680.8214 
 5349000    226.74486   -4295.8129     -3907.18   -4295.8129            0     1125.981     18.16708    23.355413    22.017856    9342.1686    1806.1846    888.52233    683.23597    252.28611    277.43763   -517.42053   -3753.7696 
 5350000    212.42256   -4295.0772   -3930.9922   -4295.0772            0    2568.6544    18.125639     23.38789    21.863505    9268.3869    3091.9329    1924.0553    2689.9748    1222.1579     167.4343   -676.79487   -3583.7874 
 5351000    225.06976   -4328.1256   -3942.3637   -4328.1256            0    2126.9156    17.927955    23.476737     22.08973    9297.3439    2589.2985    3161.6153     629.8331   -698.11224   -1116.8047   -169.03749   -3653.9705 
 5352000     232.1395   -4298.7331    -3900.854   -4298.7331            0    1349.3332     18.11169    23.435085    21.956244    9319.3057    1094.2019    1983.2376    970.56016    621.24501    201.25326    223.47636   -3717.4627 
 5353000    230.88606   -4296.5934   -3900.8626   -4296.5934            0    2021.3147    18.085163    23.196104    22.118385    9278.7802    1420.4207    2940.0327    1703.4907    29.645457    374.44881      201.173   -3627.3353 
 5354000    228.50281   -4309.2806   -3917.6345   -4309.2806            0     1623.145    18.057006    23.476322    21.979247    9317.2684    625.01719    1359.5418    2884.8761    -499.7994    271.99138    94.910535   -3697.0771 
 5355000    230.17269   -4289.4614   -3894.9533   -4289.4614            0    1893.3378    17.811399    23.491822    22.234224    9303.2933    1901.8771    2719.2438    1058.8924     5.933828   -204.31802   -587.73882   -3638.0671 
 5356000    215.38495   -4310.4929   -3941.3305   -4310.4929            0    2124.6592    18.091625    23.509068    21.879425    9305.6967    1795.9893    1703.2869    2874.7014   -946.19657   -870.68101   -137.81472   -3652.9844 
 5357000     220.4532   -4315.5069   -3937.6576   -4315.5069            0    1518.1688    18.106039    23.416873     22.04913    9348.5406    804.68906    1919.0255     1830.792    417.78843    921.39992   -66.875527   -3730.6722 
 5358000    223.86123   -4300.2057   -3916.5152   -4300.2057            0    1281.1464    18.016941    23.428474     22.20374    9372.4081     1998.374    1278.2027     566.8624    177.74728   -929.74283    214.92714   -3741.3992 
 5359000    221.40124   -4302.6398   -3923.1656   -4302.6398            0    2406.8805     18.19833    23.349045    21.882533    9298.1866    1598.1421    2858.4916    2764.0078   -1085.1015    533.07819   -176.19435   -3596.7818 
 5360000    228.79104   -4310.0566   -3917.9166   -4310.0566            0    2257.0259    17.883842    23.657122    22.102004    9350.9207    3016.7736    1981.1504    1773.1535   -126.07513   -257.54148   -32.853913   -3610.1179 
 5361000    228.04408   -4302.5879   -3911.7281   -4302.5879            0     1257.326    17.981382    23.608438    22.073356    9370.4118    2521.1114    860.03945    390.82724   -380.55084   -103.86915    60.351094   -3739.9047 
 5362000    226.10033    -4299.348   -3911.8198    -4299.348            0    88.411958    18.146577    23.410647    22.146235    9408.2322    454.41664    217.34764   -406.52841   -178.40699     33.47086   -577.56866   -3899.6888 
 5363000    211.90932   -4283.2954     -3920.09   -4283.2954            0    1655.4972    18.124394     23.32111    21.989419    9294.5091    1330.2125    2275.0094    1361.2698    1073.6834    928.75495   -270.66027   -3695.6859 
 5364000    243.51368   -4300.9738   -3883.5997   -4300.9738            0    968.19038    17.885591    23.794993    21.996394    9361.3906    1449.4008     50.14813    1405.0222    951.52485   -258.76393   -10.942125   -3751.4163 
 5365000    238.66109    -4299.936   -3890.8791    -4299.936            0    840.36544    18.060403    23.441716    22.067769    9342.7617     861.2361    979.01416    680.84605    100.16056    105.05417   -333.12366   -3776.3754 
 5366000    221.01465   -4310.4066    -3931.595   -4310.4066            0    912.61828    18.185805    23.419357    21.941583    9344.9174    1631.2492    239.03227    867.57331   -466.69428    500.58722   -502.91188   -3807.2179 
 5367000    214.55336   -4313.5692   -3945.8321   -4313.5692            0    2799.3346    17.978397    23.212263    22.123598    9232.6039    2810.2306    2350.9549    3236.8183    423.00544    337.17744   -179.40224   -3568.9071 
 5368000    220.90729   -4314.4884   -3935.8609   -4314.4884            0    1149.9687    17.994517    23.689776    21.930262    9348.5653    1640.6486    -14.21776    1823.4753   -112.98002   -139.13431    550.83165    -3779.075 
 5369000    230.35396   -4297.3677   -3902.5489   -4297.3677            0    1856.4551    17.934139    23.489674    22.066564    9295.9171    1023.7965    2519.8964    2025.6723   -288.55443    191.05104     -119.809   -3650.8666 
 5370000    222.51543   -4308.3194   -3926.9356   -4308.3194            0    269.90871    18.201816    23.328756     22.14228    9402.1818   -1305.1677     789.0504    1325.8434   -182.43888    379.20022   -426.54737   -3889.9254 
 5371000    228.47744   -4319.6965    -3928.094   -4319.6965            0    1475.7499    18.177425    23.396184    21.924215    9323.9822    819.31969    456.17696    3151.7532   -216.42248    20.508325   -717.13646   -3727.4204 
 5372000    254.19407   -4323.0961   -3887.4161   -4323.0961            0    1487.9936    17.800151    23.703154    22.245761    9385.9255    2766.3408    602.52062    1095.1192   -709.83711    92.124022   -4.1836998   -3683.7335 
 5373000     218.7458   -4328.9982   -3954.0753   -4328.9982            0    1762.1425    18.103031    23.605087    21.804356    9317.5161    708.18867    1000.6512    3577.5877   -731.33186    590.16248   -646.19122   -3714.6241 
 5374000    228.01525   -4286.3043   -3895.4939   -4286.3043            0     2987.346    18.039503    23.035693    22.246916    9244.7602    3700.6791    4038.1309     1223.228   -256.44574   -168.30406   -715.82035    -3492.724 
 5375000    238.51087   -4285.9589   -3877.1595   -4285.9589            0    1942.3817    18.233247    23.464652    21.892499    9366.4168    1538.9059    2825.2676    1462.9715   -23.676835    41.575909     113.1061   -3611.8309 
 5376000    232.22868   -4315.0258   -3916.9938   -4315.0258            0    2576.2326    17.985434     23.37667    22.190974    9329.9633    4504.9144    1826.0675     1397.716    237.80576    571.16034    582.66233   -3566.4511 
 5377000    227.00791   -4298.7874   -3909.7036   -4298.7874            0    1990.1153    18.144414    23.545681    21.807264    9316.5556    1406.7902    1733.3967     2830.159    249.62094   -350.35371   -227.78549   -3639.3018 
 5378000    220.51705   -4293.0904   -3915.1317   -4293.0904            0    2156.2606     17.94677    23.574752    22.103925    9351.9642    3026.6583     1265.588    2176.5355   -300.69323   -707.18561  -0.14076556   -3621.0419 
 5379000    231.24839     -4283.14   -3886.7881     -4283.14            0    1852.5619    18.035426    23.290469    22.144368    9301.8197    1300.0902    1215.7822    3041.8132   -619.30639    539.74694    859.00586   -3635.4742 
 5380000    234.03639   -4340.6677   -3939.5374   -4340.6677            0    1830.7978    18.190622    23.320736    22.001121    9333.2869    1972.2367    1055.3293    2464.8275    930.48194    -729.6777    237.49952   -3690.3357 
 5381000    224.64153   -4335.4438   -3950.4159   -4335.4438            0     1686.911    17.949291    23.504531    22.119969    9332.1866    1552.1948    883.35084    2625.1874    488.15983   -639.62561    23.796095   -3720.8267 
 5382000     229.6377   -4277.9576   -3884.3665   -4277.9576            0    2447.0992    18.018772    23.586883    21.885753    9301.5905    1950.8873    1671.2529    3719.1573    50.318657   -398.20442   -319.38648   -3552.4073 
 5383000    225.67373   -4314.2804   -3927.4833   -4314.2804            0    2848.3229    18.170457    23.155825    22.041033    9273.8074    897.13602    3236.9252    4410.9075    798.34833   -1284.3364    357.35432   -3542.2506 
 5384000    223.05862     -4331.39   -3949.0751     -4331.39            0    1534.4228    18.078767    23.302036      22.1579     9334.505    1988.6309    2066.1641    548.47336   -19.316876   -612.96105   -355.47064   -3740.1878 
 5385000    229.02099   -4342.8216   -3950.2875   -4342.8216            0    83.403337    18.006474    23.606775     22.06307    9378.4546    986.50644   -308.05165   -428.24478   -775.14138   -51.198975   -699.34627     -3938.88 
 5386000    228.02326   -4308.0889   -3917.2649   -4308.0889            0    741.52931    18.096559    23.506107    22.160531    9426.6391    300.12659    688.91842    1235.5429   -527.70328   -384.96301   -182.79457    -3815.321 
 5387000     222.1538   -4316.5933   -3935.8293   -4316.5933            0    1109.6588     18.18612    23.357302    22.090752    9383.6811    1031.6707    1859.2155    438.09014   -373.44709   -213.64629   -231.95105   -3783.9709 
 5388000    234.85136   -4319.5106   -3916.9834   -4319.5106            0    1596.4492    18.051211    23.246708    22.183642    9308.9487    2085.8442    1192.8836    1510.6197    427.81839   -566.31968    420.50829   -3700.2471 
 5389000    218.51007   -4338.5655   -3964.0467   -4338.5655            0    839.25729    18.056252    23.631705    21.926037    9355.8401    1466.4211   -120.31356    1171.6643   -643.56049   -330.70775     525.6002    -3849.534 
 5390000    220.91427   -4296.8292   -3918.1897   -4296.8292            0    1651.7273    18.001402    23.419673    22.082278    9309.6001    1777.7104    2494.7812    682.69024    89.936977   -8.5991771   -77.924846   -3693.9331 
 5391000    232.00755   -4341.6721   -3944.0191   -4341.6721            0    2339.2331    18.288788    23.308455    21.704314     9252.189    1790.6963    2022.7899     3204.213   -469.73933     143.5345   -567.34283   -3628.3777 
 5392000    232.62579   -4330.2417    -3931.529   -4330.2417            0    333.15227    17.961859    23.391791    22.354145    9392.3184    1007.7167    565.36086   -573.62078    993.27544   -3.9783413    466.52024   -3885.8947 
 5393000    229.06341   -4326.8201   -3934.2133   -4326.8201            0    981.55754    18.019124     23.60941    21.967559    9345.4586    1752.6977    1.6533026    1190.3216   -430.71834    608.24883   -537.89946    -3800.433 
 5394000    224.29207   -4312.3086   -3927.8797   -4312.3086            0    1171.2052    18.027497    23.350024    22.252864    9367.1759    2042.4173    1075.3212    395.87708   -13.905663   -1697.7591   -501.21368   -3767.8806 
 5395000     239.2413   -4305.3961   -3895.3447   -4305.3961            0    2400.6512    18.095104    23.399474    21.971206    9302.9582    1436.9029    1829.4819    3935.5687      40.0727    465.43738    424.96728   -3569.6385 
 5396000    228.39599   -4326.5411   -3935.0782   -4326.5411            0    208.54506    17.988951    23.661718    22.146337     9426.577    1303.9769   -1206.4282    528.08644    118.79102   -241.63849    309.41252   -3906.4081 
 5397000    223.38177   -4323.2183   -3940.3496   -4323.2183            0    3588.7085    17.868222    23.426706    22.005949    9211.5485    3636.6645    3408.9786    3720.4823    1333.2147     36.47279   -108.35123    -3458.239 
 5398000    217.34567   -4319.4754   -3946.9523   -4319.4754            0     2692.844    18.105702    23.313339    21.877302    9234.5047    1561.3127    3786.1538    2731.0655   -473.42262    175.43931   -245.26048   -3584.2915 
 5399000    240.56199   -4293.7502   -3881.4352   -4293.7502            0     1840.837      18.1169      23.1186     22.20548    9300.4847    1842.9274     2724.809    954.77464    787.62572   -39.529669   -162.21663   -3631.7477 
 5400000    235.27874   -4331.6997     -3928.44   -4331.6997            0    827.86118    18.105768    23.499134    21.948098    9338.2541    256.86677     1749.469    477.24774   -148.34422    446.74075   -87.580336   -3815.6945 
 5401000    231.89099    -4298.586   -3901.1328    -4298.586            0     959.5308    17.950846    23.500976    22.212259     9370.517    984.64826    1122.6367    771.30746    26.963187   -174.67471   -269.88619   -3770.0039 
 5402000    214.82254   -4313.6182   -3945.4197   -4313.6182            0    1557.0381    17.913451    23.587781    21.960849    9279.3051    1682.0108     423.2979    2565.8056   -95.232678   -37.445175    61.641628   -3734.7071 
 5403000    217.41234   -4283.0152   -3910.3779   -4283.0152            0    2684.6337    18.145451    23.188796    22.042474    9274.8375    3791.6068    2920.4839    1341.8103   -53.052413   -27.495796   -448.79931   -3547.2436 
 5404000    222.05206   -4317.6575   -3937.0679   -4317.6575            0    1291.0801    18.257359     23.28919    22.029739    9367.0252    1260.4984    979.54222    1633.1998    155.61032   -613.41145    508.37999   -3760.6954 
 5405000    224.17909   -4306.0703    -3921.835   -4306.0703            0    948.96647    17.954178    23.482514    22.106709    9320.3926    1725.5157    1088.4132    32.970576    1015.0348   -111.70159    110.84437   -3792.8436 
 5406000    209.99531   -4325.3102   -3965.3854   -4325.3102            0    1569.0307    17.945787    23.547896    22.096479     9337.652    2447.2376    518.33872    1741.5157    182.24939   -3.0700344    63.681009   -3751.7147 
 5407000    220.40272   -4308.3733   -3930.6106   -4308.3733            0    717.58413    17.970104    23.424544    22.113659    9308.5563    1826.8258    381.35056   -55.423972   -258.75644   -26.067638    96.345683   -3833.1944 
 5408000    230.09605   -4323.1052   -3928.7285   -4323.1052            0    1607.7961    18.158943    23.150578    22.051628    9270.2842    1317.4059    1849.2789    1656.7036   -72.244897    433.90903    405.46292   -3711.3583 
 5409000    226.74193   -4313.6665   -3925.0386   -4313.6665            0    1137.5284    18.010674     23.58151    21.913409    9307.0388    2075.5594    1165.7392    171.28662   -35.041492    177.47343    30.303398   -3770.6378 
 5410000    231.77238   -4289.8993   -3892.6494   -4289.8993            0    2349.5751    17.783627    23.536092    22.199179    9291.6238    3186.6523    3853.4029    8.6702575   -91.528678    824.31511   -76.707259   -3574.2613 
 5411000     211.9348   -4306.7679   -3943.5189   -4306.7679            0    1069.9349     18.13434    23.390947    21.970735     9319.533   -260.28227    3406.9414    63.145615    152.54234   -388.96231    536.34595   -3798.0978 
 5412000    221.46982   -4307.6195   -3928.0278   -4307.6195            0    1639.0321    18.118688    23.251904    22.070321    9298.0939    349.19002    2308.2311    2259.6751    174.60324   -446.05406    114.70249   -3705.7699 
 5413000    228.14708   -4311.7596   -3920.7233   -4311.7596            0    1655.4132    18.033544    23.480221    22.037813    9331.5065    1176.6751    1254.6943    2534.8702   -940.17141    278.20056    486.02918   -3695.4374 
 5414000    228.31922   -4315.8824   -3924.5511   -4315.8824            0    485.98051    17.977799    23.549445     22.13613    9371.7115    1139.5978    1160.6212   -842.27748    158.02381   -690.61498    -421.3766   -3858.1288 
 5415000    216.80227   -4280.0783   -3908.4866   -4280.0783            0    3796.6023    17.978253     23.36712    21.864092    9185.1051    3739.9196    4825.6186    2824.2688    996.58028    221.01661   -1241.0269   -3399.9114 
 5416000    222.21872   -4283.8841   -3903.0088   -4283.8841            0    2749.8667    18.061507    23.211259    22.010731    9227.5659    2729.4307    2402.0936    3118.0757   -417.22352    241.02049   -40.634913   -3532.9466 
 5417000    221.02321   -4324.4861   -3945.6598   -4324.4861            0    1218.0965    17.951949    23.452867    22.178146    9337.5467    1549.7634    1851.7624    252.76349   -930.61785   -119.76548    319.22741   -3779.7813 
 5418000    238.93909   -4299.7134   -3890.1799   -4299.7134            0    1820.3277    17.942089    23.635614    21.997778    9328.6479    2894.5221     591.7158     1974.745    335.09307     268.4702    413.17196   -3642.5266 
 5419000    237.20089   -4297.6282    -3891.074   -4297.6282            0      2118.67    18.145603    23.267135    21.979287    9279.5713    1782.2423    3098.1413    1475.6265   -56.871312   -7.8054281    43.719555    -3604.348 
 5420000    227.69959   -4308.7883    -3918.519   -4308.7883            0    549.63591    18.163027    23.394361    22.053834    9370.9479    1633.6153    312.91599   -297.62352   -852.78187   -135.05688     149.6553   -3843.4026 
 5421000    233.24562   -4316.3964   -3916.6214   -4316.3964            0    625.36983    17.969279    23.657892    22.079843    9386.4779    1704.4105    169.52364    2.1753186   -209.17527   -318.84353   -147.82983   -3831.0132 
 5422000    228.46552   -4323.1965   -3931.6144   -4323.1965            0    1936.4972    17.769073    23.585023    22.182387    9296.2834    2120.4307    1592.5706    2096.4904    395.56444    249.19238   -340.33514   -3669.0704 
 5423000    222.70186   -4307.6166   -3925.9132   -4307.6166            0    2447.7299    18.086995    23.255257    22.077549    9286.2079    2032.9468    2895.4476    2414.7952    212.93826   -387.50289   -321.42885   -3594.4176 
 5424000    213.48848    -4301.003    -3935.091    -4301.003            0    1646.5269    18.206676    23.405759    21.902268    9333.4558    1239.1238    1338.9882    2361.4687    507.52839   -581.59822    10.827073   -3710.9676 
 5425000    246.92665   -4328.0879   -3904.8641   -4328.0879            0    1346.8302     17.77678    23.568136    22.300325    9343.0688    2329.9852    1699.9126    10.592779    282.07233    14.919704   -110.64976   -3721.3462 
 5426000    223.61779   -4312.4279   -3929.1546   -4312.4279            0    871.72347    18.101066    23.520295    21.943217    9342.1581    1438.2722    1318.4169   -141.51871   -441.24972    889.55565    424.49739    -3810.386 
 5427000    235.54371   -4289.1384   -3885.4246   -4289.1384            0    1065.8029    18.117667    22.956092    22.444106    9334.7469    449.68889    1407.3044    1340.4155     332.6162    691.47802   -394.83593   -3740.3286 
 5428000    227.30662    -4289.243   -3899.6472    -4289.243            0    1556.7901    18.088259    23.480144    21.921057       9310.2    502.46694    1984.5675    2183.3358   -179.75116   -371.65584    469.60346   -3688.2667 
 5429000    219.85921    -4292.808   -3915.9769    -4292.808            0    694.55364    17.827892    23.434091    22.385634    9352.2804     1209.902    746.62825    127.13071   -371.28976   -351.82327     475.6019   -3821.2443 
 5430000    226.05306   -4309.0093   -3921.5621   -4309.0093            0     1501.153    17.976527    23.634133    21.885042    9298.0706    774.84771     1316.758    2411.8533    31.046054   -84.516509   -379.42193   -3718.0015 
 5431000    234.36897   -4308.5011   -3906.8007   -4308.5011            0    636.99676    17.944177    23.400614    22.297278     9362.733    941.90597    2331.7892   -1362.7049   -623.10504   -414.22492   -381.37844   -3819.8214 
 5432000    234.70108   -4290.8474   -3888.5778   -4290.8474            0    1743.3813    18.146193    23.423811    21.887445    9303.3238    1018.2293    481.14073    3730.7739   -687.12613    587.17046   -672.85718   -3652.0368 
 5433000     228.9497   -4323.0603   -3930.6483   -4323.0603            0    3181.9343    17.981567    23.264205    22.072503    9233.5209     3486.827    2185.7675    3873.2083    88.185859    197.22055   -252.47412   -3502.1645 
 5434000    226.98269   -4328.3122   -3939.2716   -4328.3122            0    1876.0146    17.918968    23.480778    22.000001    9256.5291     1995.413    2001.9811    1630.6499   -604.17418   -112.37631    58.119333   -3686.0153 
 5435000    231.66047   -4292.6208   -3895.5626   -4292.6208            0    1699.7023    18.001817     23.44817     22.05867    9311.1779    1517.8978    2114.3457    1466.8633    568.98894   -1325.6129   -498.68821   -3664.7533 
 5436000    238.66462   -4309.5833   -3900.5203   -4309.5833            0    1423.4628    18.108353    23.239314    22.260519    9367.7981    1952.6264    1523.6817    794.08029   -549.44124   -607.51322   -954.16619   -3706.0472 
 5437000    226.28982   -4311.8054   -3923.9524   -4311.8054            0    2806.0446    18.117392    23.355554    21.824647    9234.9187    2797.1736    1318.5909    4302.3692    264.17013    176.61069   -56.054717   -3546.0292 
 5438000    244.12662   -4307.4463   -3889.0216   -4307.4463            0    1722.8398    17.978642    23.330468    22.208401    9315.3165    3328.5877    1005.9553    833.97645   -981.78133   -737.30228    516.15466   -3654.9663 
 5439000    217.27643   -4311.5947   -3939.1903   -4311.5947            0    1403.5356       18.156    23.643247    21.723698    9325.2623    2227.2488    646.08597    1337.2721    642.42861     439.4205   -104.44093   -3748.3103 
 5440000    238.56215   -4294.6673   -3885.7799   -4294.6673            0    1266.8106    17.990494    23.382209    22.253988    9361.3067    1593.7304    1259.1733    947.52808   -574.55248     163.9543   -793.41214   -3712.8285 
 5441000    221.78899   -4286.3052   -3906.1665   -4286.3052            0    1886.3414    18.156799    23.514252    21.792345    9304.1009    967.23308    3221.3232    1470.4678   -509.09307   -21.980516   -547.14156   -3650.2074 
 5442000    234.60342   -4313.0214   -3910.9192   -4313.0214            0    846.16983    18.100772    23.398853    22.209126    9406.3932    469.53187    632.01466     1436.963   -141.45744   -313.95529    226.01823   -3794.8394 
 5443000    227.65366   -4309.2918   -3919.1012   -4309.2918            0    1261.3688     18.01108    23.589364    21.921764    9313.8985    1901.1299    1856.2301    26.746324    649.61463    17.271105   -310.80973   -3747.7649 
 5444000    229.46998   -4292.0095   -3898.7058   -4292.0095            0    525.95248    18.038087    23.637579    22.062159     9406.791    490.08218   -474.51667    1562.2919   -530.26875   -300.83827    213.08585   -3826.5512 
 5445000    226.32956   -4309.5928   -3921.6717   -4309.5928            0    2640.4656    18.118561    23.161221    22.025575    9242.9882    2517.5608    3587.7115    1816.1244   -457.81973    162.60209    568.51187   -3565.7383 
 5446000     231.5564   -4312.4492   -3915.5695   -4312.4492            0    1569.4573    18.063747    23.373315     22.07312    9319.4842    1240.1004    2291.5547    1176.7167     866.9947    32.652452   -256.52954   -3702.2565 
 5447000    239.49354   -4322.2539   -3911.7701   -4322.2539            0    635.25624    17.659294    23.780146    22.268373     9351.394    1898.1271    546.78135    -539.1397   -697.81627    110.04114   -733.62236   -3825.1336 
 5448000     224.1682   -4296.2015   -3911.9849   -4296.2015            0    491.98662    18.018998    23.610508    22.019253    9367.8208    47.661669    268.82382    1159.4744   -175.19914   -163.70297    946.03676   -3844.7697 
 5449000    235.61721   -4292.6601   -3888.8203   -4292.6601            0    535.14579    18.203676    23.113333    22.281599    9374.9296    1863.1155   -127.18867   -130.48945    576.77594   -422.98353   -682.86794   -3815.6532 
 5450000    220.49488   -4294.3088   -3916.3881   -4294.3088            0    2485.7959    18.157911    23.327987    21.859731    9259.5093    3637.5557    1420.2093    2399.6227   -729.85357    276.26924     993.3665   -3580.7051 
 5451000    225.01288   -4302.1636   -3916.4992   -4302.1636            0     1442.086    18.073864    23.459261    21.998987    9327.5594    1631.8306    1290.9349    1403.4925    287.28495   -112.92398   -132.42889   -3720.3281 
 5452000    228.87873   -4301.3005   -3909.0102   -4301.3005            0     1220.466    17.793808     23.73799    22.144345    9353.5326    2004.9085    1397.4412     259.0483    120.28243    110.38237   -86.271532   -3742.5244 
 5453000    215.66891   -4307.9998   -3938.3507   -4307.9998            0     634.9464     18.05554    23.546315      22.0386    9369.5221    1773.8827   -921.98516    1052.9417    118.11868   -617.94995   -242.71886   -3851.5885 
 5454000    210.61405   -4290.7951   -3929.8098   -4290.7951            0    805.45274     18.25863    23.331596    22.065733     9400.068    208.97008   -472.99033    2680.3785   -1204.4708    336.08878    196.47653     -3819.39 
 5455000    220.12166   -4321.9484   -3944.6674   -4321.9484            0    1333.5817    18.065791    23.169992    22.197662     9291.591    1047.5332    2096.0855    857.12644    442.70397    91.858211    600.24297    -3763.956 
 5456000    217.80438   -4314.7409   -3941.4317   -4314.7409            0    758.13014    18.100862    23.523848    22.036001    9382.9718    719.52008    1085.8207    469.04962   -490.95825    294.93764    239.65946   -3837.6884 
 5457000    224.93547   -4305.9653   -3920.4336   -4305.9653            0    1969.1962    17.777802    23.534662    22.336027    9345.2723    2810.4458    1983.2659    1113.8769     285.6682    80.264615   -18.303807   -3652.0495 
 5458000     226.2877   -4285.7211   -3897.8717   -4285.7211            0    2146.4043    18.186408    23.451761    21.897755    9339.4645    1201.9999    1454.8659    3782.3471   -471.47062   -406.18716    559.50881   -3605.5175 
 5459000    219.78911   -4301.8977   -3925.1866   -4301.8977            0    260.92941    18.145262    23.377997    22.179274    9408.4451    714.69891   -966.73549    1034.8248   -47.900431    545.83987   -612.90023   -3889.3839 
 5460000     226.8388   -4282.0623   -3893.2684   -4282.0623            0    845.37655    17.962815    23.635402    22.013902    9346.1861    2080.4457   -352.34127     808.0252    312.12928   -139.88425    723.92284   -3778.0397 
 5461000    225.02994    -4312.921   -3927.2274    -4312.921            0    547.31823    18.084665    23.519953    21.953378    9337.8798    883.46248    25.100132    733.39207    525.66888    324.63286   -171.72218   -3852.6917 
 5462000    233.49696    -4315.137   -3914.9312    -4315.137            0    2997.4379    17.995392    23.185593    22.086849    9215.3809    2656.5687    2874.0525    3461.6927   -584.93574    385.88921    673.09033   -3512.0849 
 5463000    239.37494   -4308.0677   -3897.7873   -4308.0677            0    1986.5613    18.032489    23.527415    21.939543    9308.0234    2082.9822     2764.224    1112.4778   -59.208247    519.49878    -385.8156   -3628.1156 
 5464000    222.92345   -4304.2513   -3922.1681   -4304.2513            0    2454.7386    17.707768    23.682887     22.09292    9265.1314    3477.3438    2814.7432    1072.1287   -30.022859    23.006283   -42.384323   -3590.4779 
 5465000    214.17233   -4333.5743   -3966.4903   -4333.5743            0     2270.545    18.177788    23.233157    21.997669    9290.2182    2962.5471    2917.3039    931.78402    809.18507    310.82592   -1072.4851    -3658.858 
 5466000     225.9062   -4318.0804   -3930.8849   -4318.0804            0    1814.3862    18.076104    23.311392    22.063847    9297.2453   -386.34899    1196.8134    4632.6942    -1223.403   -1018.3056   -324.66876   -3684.8708 
 5467000    233.00556   -4344.8424   -3945.4789   -4344.8424            0    1864.7504    17.857738    23.710053    21.973924    9303.9333    1984.1247    1677.9491    1932.1773   -366.52295    163.78261    353.73857    -3692.454 
 5468000    228.22654   -4302.7933   -3911.6208   -4302.7933            0    2240.3005    18.005502    23.473628     21.98275    9291.1075    1020.9625    2705.8353    2994.1035   -308.42984   -420.47424   -128.75512   -3608.0573 
 5469000    222.69404   -4285.8621   -3904.1721   -4285.8621            0    1085.0964    18.264806      23.1403    22.199594    9382.7265    406.97089     2713.454    134.86435    415.24968    1011.0051    435.13819   -3755.6903 
 5470000    212.36813   -4305.9382   -3941.9465   -4305.9382            0    1185.3129    18.012222    23.608385    21.927853    9324.5889    2206.3159    1424.7566   -75.133726   -406.59016   -5.0162216   -464.15425   -3780.7564 
 5471000    231.99737   -4315.2194   -3917.5838   -4315.2194            0    2724.0014    17.760849    23.449265    22.152165    9225.9084    3976.9258    2751.7185    1443.3598    808.18974    82.556206    266.63886   -3551.0683 
 5472000    227.50721   -4322.6223   -3932.6827   -4322.6223            0    2021.6027    18.117266    23.371981    21.825702    9241.7969    3333.7996   -70.068689     2801.077   -1009.4045    541.06157    209.17811   -3660.2068 
 5473000    220.56545   -4308.6726    -3930.631   -4308.6726            0    1009.5798    18.066591    23.474461    22.045753    9349.6807    294.64128    1063.3575    1670.7407    74.860554    467.86416   -425.86825   -3792.9692 
 5474000    224.11904   -4300.8334    -3916.701   -4300.8334            0    696.02302    17.814731    23.689023    22.314348     9416.958    2410.7456    269.50968   -592.18625    375.18562   -319.96723    443.96898   -3821.1115 
 5475000    223.08167   -4322.0014    -3939.647   -4322.0014            0    1691.6667     18.10202    23.447352    21.909552    9299.3874    1341.7706     1650.123    2083.1066     1097.442   -712.65387    325.03495   -3710.2197 
 5476000    230.20738   -4307.1869   -3912.6194   -4307.1869            0    1694.9939    18.185145    23.280842    22.003606    9315.5672    530.84391    2767.1349    1787.0029    118.03019    713.19976    437.08876   -3682.3409 
 5477000    243.29848   -4278.7545   -3861.7493   -4278.7545            0    1451.3608    17.924865    23.579993    22.082219    9333.4517    942.41009    1585.2303    1826.4419    645.47117   -11.702648    145.07977   -3664.1918 
 5478000    239.72332   -4310.7719   -3899.8944   -4310.7719            0    761.50926    18.137958     23.41965    22.046234    9364.9014    506.28646    742.46244    1035.7789    774.32313   -293.22246   -658.25589   -3795.8894 
 5479000    227.51383   -4290.8557   -3900.9048   -4290.8557            0    1413.9933    18.059595    23.392461    22.129135    9348.6383    859.57238     1309.773    2072.6344    -143.9081   -555.09386    87.454106   -3708.1205 
 5480000     237.4735   -4292.4882   -3885.4668   -4292.4882            0   -232.23138    17.914075    23.789947     22.08527    9412.1876    532.01007    -1106.548   -122.15622   -857.55202    230.01209     -406.521   -3917.3445 
 5481000    235.44452   -4305.4354   -3901.8916   -4305.4354            0    1972.6341    17.978954    23.422185    22.007041    9267.3054    1840.7184    2510.9007    1566.2831    1195.9665   -66.563882   -222.05216   -3635.2819 
 5482000    229.75405   -4307.9074   -3914.1168   -4307.9074            0    1194.7283    18.152553     23.34292     22.01029     9326.499    1624.4736     2188.974   -229.26283   -645.98175   -207.49687    422.49649   -3751.6129 
 5483000    215.23907   -4301.6198   -3932.7074   -4301.6198            0    2254.7168    18.047292    23.234931     22.03601    9240.3067    2016.5666    3532.1461    1215.4377   -2.3821372   -401.71114   -587.07661   -3628.8608 
 5484000    221.76161   -4277.6818     -3897.59   -4277.6818            0    1248.6643    18.082798    23.454818    22.074221    9362.3114    1254.0593    1844.3878     647.5458    18.867893   -730.68953   -123.47212   -3727.0977 
 5485000    230.08014   -4329.3884   -3935.0389   -4329.3884            0    1504.7002    18.053582    23.526686    22.026135    9355.4021    1270.9536    394.83567    2848.3113    431.45381   -689.83206    421.58081   -3729.7392 
 5486000     232.5926    -4319.787   -3921.1313    -4319.787            0    2210.4162    17.887003    23.428995    22.081122    9253.6351    1253.5989    1505.1631    3872.4865   -925.00595   -112.95006   -612.38352    -3622.825 
 5487000    231.32391   -4316.6621   -3920.1808   -4316.6621            0    810.14528    18.322156    23.316172     21.82563    9323.9645     900.9025    961.79198    567.74137    172.72845    435.61533   -481.67385   -3810.0169 
 5488000     228.8097   -4291.7123   -3899.5403   -4291.7123            0    1746.7889    18.158138    23.300174    22.039023    9324.4413    93.094605     2210.716    2936.5561   -573.46585   -81.528297    74.898526    -3661.999 
 5489000    226.47792   -4304.2356   -3916.0602   -4304.2356            0    1809.6618    17.889152    23.548331    22.013598    9273.4409    1973.9336    2170.7952    1284.2568    174.20583   -982.93487   -416.22893    -3671.315 
 5490000    223.37461   -4298.8751   -3916.0186   -4298.8751            0    1803.6824    17.804183    23.625904    22.100001    9296.1426    3476.6294    609.64373     1324.774   -220.24851   -688.07707    50.384523   -3671.4849 
 5491000    219.09294   -4312.5536   -3937.0358   -4312.5536            0    872.83489    18.097856    23.370885    22.118561     9355.331   -9.8147272    1358.1447    1270.1747   -523.05843    -236.1884    544.61957    -3817.948 
 5492000    229.88592   -4312.0958   -3918.0792   -4312.0958            0    1712.9792    18.139037    23.223525    22.059874    9292.7746    541.63414    3481.0308    1116.2726   -963.41152   -133.07329    1343.5076   -3685.9267 
 5493000    237.71168   -4296.6419   -3889.2122   -4296.6419            0    1655.3013    17.908166     23.59557    21.996429    9294.6651    2454.3295    288.63255    2222.9418   -118.40448   -201.57613   -237.37961   -3664.8309 
 5494000    228.40087   -4300.2694   -3908.7981   -4300.2694            0    3476.5047     17.92361    23.389977    22.016615    9230.0876    2033.8263    4697.8866    3697.8011    59.661879     130.1273     165.4404   -3440.8211 
 5495000     229.3533   -4287.3138   -3894.2101   -4287.3138            0    1013.5838    18.109477    23.375202    22.053393    9335.4813     200.6799    1392.5554    1447.5162   -915.05165    662.90749   -669.67602   -3756.2122 
 5496000    222.31479   -4305.7111   -3924.6712   -4305.7111            0    447.46986    18.159741    23.526728    22.092824    9438.9226   -59.252305   -526.42508     1928.087   -323.13584   -106.28033   -79.943487   -3863.0738 
 5497000    226.48329   -4306.6409   -3918.4563   -4306.6409            0    3087.6634    17.858582    23.474324     21.97592    9212.7046    4270.4546    3742.2602    1250.2754   -82.848682    287.04898   -811.44813   -3503.6045 
 5498000    234.16375   -4295.6665   -3894.3179   -4295.6665            0    1600.9505    18.127207    23.453678    21.932281    9324.5021   -342.38047     2702.423    2442.8089    516.28757    269.36386    479.36079   -3676.6073 
 5499000    223.44723   -4325.5722   -3942.5913   -4325.5722            0    1879.7498    18.030829    23.376042     22.07856    9305.8793    1676.4031    1898.7521    2064.0941    -545.4449     24.01025    376.28914   -3687.4778 
 5500000    236.60505   -4290.6287   -3885.0957   -4290.6287            0    1756.1795     18.08319    23.669364    21.768489    9317.2963    976.50345    355.17592    3936.8592    230.39385    -181.5132   -264.91823   -3646.4604 
Loop time of 383.651 on 64 procs for 250000 steps with 864 atoms

Performance: 112.602 ns/day, 0.213 hours/ns, 651.633 timesteps/s
192.1% CPU use with 32 MPI tasks x 2 OpenMP threads

MPI task timing breakdown:
Section |  min time  |  avg time  |  max time  |%varavg| %total
---------------------------------------------------------------
Pair    | 17.154     | 24.573     | 32.231     | 101.6 |  6.40
Bond    | 0.98251    | 1.1731     | 1.4455     |  11.2 |  0.31
Kspace  | 190.05     | 199.62     | 211.99     |  43.3 | 52.03
Neigh   | 1.392      | 1.4855     | 1.6599     |   6.4 |  0.39
Comm    | 58.681     | 64.484     | 67.358     |  28.3 | 16.81
Output  | 0.64656    | 0.64689    | 0.64843    |   0.0 |  0.17
Modify  | 69.58      | 72.333     | 76.5       |  16.8 | 18.85
Other   |            | 19.34      |            |       |  5.04

Nlocal:        27.0000 ave          40 max          18 min
Histogram: 6 4 4 3 2 4 2 1 3 3
Nghost:        2109.31 ave        2211 max        2010 min
Histogram: 11 5 0 0 0 0 0 0 7 9
Neighs:        6535.59 ave        9542 max        4363 min
Histogram: 6 4 4 3 2 2 4 1 4 2

Total # of neighbors = 209139
Ave neighs/atom = 242.05903
Ave special neighs/atom = 2.0000000
Neighbor list builds = 5124
Dangerous builds = 0

unfix		3
unfix		2
unfix		1

write_data	data.final.${pid} nocoeff
write_data	data.final.0 nocoeff
System init for write_data ...
PPPM initialization ...
  extracting TIP4P info from pair style
  using 12-bit tables for long-range coulomb (../kspace.cpp:340)
  G vector (1/distance) = 0.37170797
  grid = 24 27 25
  stencil order = 5
  estimated absolute RMS force accuracy = 0.003150484
  estimated relative force accuracy = 9.4875889e-06
  using double precision FFTW3
  3d grid and FFT values/proc = 4410 672
Last active /omp style is kspace_style pppm/tip4p/omp

write_restart   restart.lmp.${pid}
write_restart   restart.lmp.0
System init for write_restart ...
PPPM initialization ...
  extracting TIP4P info from pair style
  using 12-bit tables for long-range coulomb (../kspace.cpp:340)
  G vector (1/distance) = 0.37170797
  grid = 24 27 25
  stencil order = 5
  estimated absolute RMS force accuracy = 0.003150484
  estimated relative force accuracy = 9.4875889e-06
  using double precision FFTW3
  3d grid and FFT values/proc = 4410 672
Last active /omp style is kspace_style pppm/tip4p/omp
Total wall time: 0:06:23
