LAMMPS (30 Jul 2021)
  using 1 OpenMP thread(s) per MPI task
package omp 0
using multi-threaded neighbor list subroutines
echo both

include		in.partitions
variable        pid world 0
include		in.temp
variable        temperature equal 226.74
variable	tempDamp equal 100.0
include		in.pressure
variable        pressure equal 2625.0
variable        pressureDamp equal 1000.0 # This is 1 ps
include		in.seed
variable        seed world 745823

units		real
atom_style	full
read_restart    restart.lmp.${pid}
read_restart    restart.lmp.0
Reading restart file ...
  restart file = 30 Jul 2021, LAMMPS = 30 Jul 2021
  restoring atom style full from restart
  triclinic box = (-3.2046655 -0.24728727 -0.15064346) to (14.814664 22.827286 19.380641) with tilt (-0.34142362 -6.5458124 0.16642192)
  4 by 4 by 4 MPI processor grid
  restoring pair style lj/cut/tip4p/long/omp from restart
  restoring bond style harmonic/omp from restart
  restoring angle style harmonic/omp from restart
  1008 atoms
  672 bonds
  336 angles
Finding 1-2 1-3 1-4 neighbors ...
  special bond factors lj:    0        0        0       
  special bond factors coul:  0        0        0       
     2 = max # of 1-2 neighbors
     1 = max # of 1-3 neighbors
     1 = max # of 1-4 neighbors
     2 = max # of special neighbors
  special bonds CPU = 2.028 seconds
  read_restart CPU = 2.459 seconds

include 	in.setup
variable	out_freq equal 1000
variable	out_freq2 equal 10000
variable	out_freq3 equal 1000

timestep	2.0

neigh_modify    delay 7 every 1

include		in.tip4p
# This is TIP4P/Ice

# create groups ###
group ox type 2
336 atoms in group ox
group hy type 1
672 atoms in group hy

# set charges - beside manually ###
set group ox charge -1.1794
Setting atom values ...
  336 settings made for charge
set group hy charge 0.5897
Setting atom values ...
  672 settings made for charge

# ### TIP3P Potential Parameters ###
pair_style lj/cut/tip4p/long/omp 2 1 1 1 0.1577 8.5
pair_coeff 1 1*2 0.000 0.000
pair_coeff 2 2 0.21084 3.1668
bond_style  harmonic
bond_coeff  1 450 0.9572
angle_style harmonic
angle_coeff 1 55 104.52
kspace_style pppm/tip4p/omp 1.0e-5
pair_modify tail yes

thermo          ${out_freq}
thermo          1000
thermo_style    custom step temp pe etotal epair emol press lx ly lz vol pxx pyy pzz pxy pxz pyz enthalpy

restart 	${out_freq3} restart.lmp.${pid} restart2.lmp.${pid}
restart 	1000 restart.lmp.${pid} restart2.lmp.${pid}
restart 	1000 restart.lmp.0 restart2.lmp.${pid}
restart 	1000 restart.lmp.0 restart2.lmp.0


include         in.dump
dump            myDump all atom ${out_freq2} dump.water.${pid}
dump            myDump all atom 10000 dump.water.${pid}
dump            myDump all atom 10000 dump.water.0
dump            myDump2 all dcd ${out_freq2} dump.dcd
dump            myDump2 all dcd 10000 dump.dcd
dump_modify     myDump append yes
dump_modify     myDump2 append yes


variable natoms 	equal  "count(all)"                        # NUMBER ATOMS
variable H      	equal  "enthalpy/v_natoms"                 # ENTHALPY-per-atom
variable Vol      	equal  "vol/v_natoms"                 # volume-per-atom
fix AVG all 		ave/time ${out_freq} 1 ${out_freq} v_Vol v_H file vol_enthalpy.dat
fix AVG all 		ave/time 1000 1 ${out_freq} v_Vol v_H file vol_enthalpy.dat
fix AVG all 		ave/time 1000 1 1000 v_Vol v_H file vol_enthalpy.dat



fix 		1 all shake 1e-6 200 0 b 1 a 1
       0 = # of size 2 clusters
       0 = # of size 3 clusters
       0 = # of size 4 clusters
     336 = # of frozen angles
  find clusters CPU = 0.111 seconds
fix             2 all nph tri ${pressure} ${pressure} ${pressureDamp}
fix             2 all nph tri 2625 ${pressure} ${pressureDamp}
fix             2 all nph tri 2625 2625 ${pressureDamp}
fix             2 all nph tri 2625 2625 1000
fix             3 all temp/csvr ${temperature} ${temperature} ${tempDamp} ${seed}
fix             3 all temp/csvr 226.74 ${temperature} ${tempDamp} ${seed}
fix             3 all temp/csvr 226.74 226.74 ${tempDamp} ${seed}
fix             3 all temp/csvr 226.74 226.74 100 ${seed}
fix             3 all temp/csvr 226.74 226.74 100 745823


run             250000
PPPM initialization ...
  extracting TIP4P info from pair style
  using 12-bit tables for long-range coulomb (../kspace.cpp:340)
  G vector (1/distance) = 0.38331704
  grid = 24 30 36
  stencil order = 5
  estimated absolute RMS force accuracy = 0.0019363123
  estimated relative force accuracy = 5.831147e-06
  using double precision FFTW3
  3d grid and FFT values/proc = 4320 480
Last active /omp style is kspace_style pppm/tip4p/omp
Neighbor list info ...
  update every 1 steps, delay 7 steps, check yes
  max neighbors/atom: 2000, page size: 100000
  master list distance cutoff = 10.8154
  ghost atom cutoff = 10.8154
  binsize = 5.4077, bins = 5 5 4
  1 neighbor lists, perpetual/occasional/extra = 1 0 0
  (1) pair lj/cut/tip4p/long/omp, perpetual
      attributes: half, newton on, omp
      pair build: half/bin/newton/tri/omp
      stencil: half/bin/3d/tri
      bin: standard
Per MPI rank memory allocation (min/avg/max) = 9.352 | 9.359 | 9.365 Mbytes
Step Temp PotEng TotEng E_pair E_mol Press Lx Ly Lz Volume Pxx Pyy Pzz Pxy Pxz Pyz Enthalpy 
 5500000    223.51638   -4851.7538   -4404.6935   -4851.7538            0    2943.1644     18.01933    23.074574    19.531285    8120.8808    3103.6585    1821.5376    3904.2973    2291.9693   -753.15679    1006.5983   -4056.1206 
 5501000    218.32307   -4879.3871    -4442.714   -4879.3871            0    2894.9467    18.172705     23.17768    19.264909    8114.4019    3879.5667    2039.3088    2765.9647   -53.941985   -776.72248   -339.03487   -4100.1253 
 5502000    226.36103   -4886.5258   -4433.7758   -4886.5258            0    1802.9065    18.250237    22.926857    19.443204    8135.4369     589.3906    2299.4399    2519.8889    49.019119    957.39503   -952.15293   -4219.8663 
 5503000    221.07948   -4883.0174   -4440.8311   -4883.0174            0    4014.4298    18.130819    22.802966    19.594179    8100.9478    3832.9049    4763.7789    3446.6055   -1128.2142   -81.311274   -1570.7052   -3966.5502 
 5504000    221.62238    -4913.836   -4470.5639    -4913.836            0     1787.993    18.283783    22.882809    19.530131    8171.1007    1513.4102    2140.7002    1709.8684    308.92874    185.34271     1411.355   -4257.4939 
 5505000    228.85093   -4890.3649   -4432.6348   -4890.3649            0    1758.6402    18.154176    23.027718      19.4295    8122.4879    1506.2092    1443.2143    2326.4971     295.3075   -159.41682    1356.1835   -4224.3095 
 5506000    228.69232   -4876.4792   -4419.0663   -4876.4792            0    2217.3444    18.023095    23.186226    19.450636    8128.1789    2719.9398    1317.8238    2614.2695   -830.28891   -124.31328     226.3888   -4156.2197 
 5507000    231.42554   -4897.1695   -4434.2898   -4897.1695            0    3287.4445    18.034329    23.103024    19.401918    8083.7613    3544.2905    3138.8766    3179.1665   -773.89906    471.28428    -587.5871   -4046.7219 
 5508000    219.28765   -4874.1721   -4435.5697   -4874.1721            0    2162.1737    18.282701     22.88819    19.436846    8133.5022     1274.924    2689.7294    2521.8677    202.22596   -117.06331    653.68099   -4179.0953 
 5509000    230.17914   -4870.5713   -4410.1846   -4870.5713            0    3631.7215    18.261687    22.883709    19.497008     8147.705    4316.9247     3487.113    3091.1268   -128.67083    460.22124    526.80294   -3978.6419 
 5510000    233.71393   -4894.0597    -4426.603   -4894.0597            0    2043.4561    18.293703    22.938242    19.454072    8163.4225    1408.7839    2317.5789    2404.0055     1646.557     366.9116   -1023.5924    -4183.319 
 5511000    226.97095    -4898.553   -4444.5831    -4898.553            0    2984.7075    18.088979    22.901684    19.549371    8098.6803    3836.1387    3319.9246     1798.059    793.21271     558.2669    1578.5776   -4092.0564 
 5512000    230.61419   -4850.9425   -4389.6856   -4850.9425            0     1413.875    17.946746    23.295837    19.563521    8179.2045    2563.5033    558.06708    1120.0546    135.13818    171.39826      951.768   -4221.0311 
 5513000    239.70984   -4883.2271   -4403.7778   -4883.2271            0    2593.0485    18.167778    23.162842    19.347965    8141.9599    3659.5959     1563.024    2556.5256    1232.4034   -391.86162    2329.8923   -4095.8737 
 5514000    230.14812   -4898.2867    -4437.962   -4898.2867            0    3321.6414    18.221457    22.861975    19.454246    8104.2205    3821.9264     3588.195    2554.8029    699.32229    190.58298    2510.6221   -4045.3715 
 5515000    230.56009   -4895.5797    -4434.431   -4895.5797            0    3146.7339    18.136935    22.690097    19.683585    8100.3621    2320.2538    4605.4922    2514.4556   -665.12303    1161.9941    712.50039   -4062.6901 
 5516000     232.1753   -4884.2912    -4419.912   -4884.2912            0    1448.4162     18.27647     22.85863    19.534936    8161.2087    91.680563    2128.0489    2125.5192   -720.76667    478.78734   -826.12474   -4247.5173 
 5517000    231.24686   -4899.3854   -4436.8631   -4899.3854            0    1042.8696    18.202069    23.094986    19.425334    8165.9542   -495.47315    1590.9076    2033.1745   -244.00971   -49.091861    765.37787   -4312.6656 
 5518000    230.46215   -4921.6695   -4460.7167   -4921.6695            0    2149.2188    18.053039    23.039265    19.563457     8137.004    2569.8551    1409.9783    2467.8228    423.46773   -298.13488   -364.94253   -4205.6692 
 5519000    225.48824   -4879.3389   -4428.3346   -4879.3389            0    2229.9138    18.239336    23.177157    19.282962    8151.6012    1525.5191    2077.5974     3086.625   -663.96637   -256.66618   -465.32604   -4163.2363 
 5520000    219.79163   -4876.3437   -4436.7333   -4876.3437            0    3697.9262    18.299944    22.860835    19.330795     8087.077    2384.0351    3537.1479    5172.5956    1763.2476   -108.16598    1784.6029   -4000.5935 
 5521000    217.66648    -4887.991   -4452.6312    -4887.991            0    3320.3122    18.244513    22.738971    19.543816    8107.9759     2246.008    4840.9303    2873.9983   -1008.5411   -727.29615   -477.19155   -4060.0158 
 5522000    229.09348   -4892.6723   -4434.4571   -4892.6723            0     1595.177    18.191252    22.820171    19.655762    8159.6471    2268.8274    2042.5279    474.17567    1559.2225    184.44758    981.07455   -4244.6309 
 5523000    219.64398   -4906.5677   -4467.2526   -4906.5677            0    2844.3464     18.16001    23.083871    19.363713    8117.3331    2363.5863    2011.8184    4157.6346   -680.70316    124.45877   -576.62209   -4130.5304 
 5524000    239.69417   -4875.2384   -4395.8204   -4875.2384            0    2127.6647    18.130582    23.243922    19.330316    8146.2946    3553.8304     1284.933    1544.2306    454.11245    317.32363    672.08766   -4143.0425 
 5525000    235.52637    -4881.735   -4410.6531    -4881.735            0    2842.5854     18.09554    23.183857    19.440683    8155.8409    5390.4092    1634.7593    1502.5876    725.24321    217.07002    174.02814    -4072.543 
 5526000    231.25779   -4882.6357   -4420.0916   -4882.6357            0    2306.3774     18.29217    22.930765    19.520132    8187.7867    2030.6197    1673.5914    3214.9212    296.69711    415.95246    1793.6937    -4144.686 
 5527000    235.56085   -4877.6151   -4406.4643   -4877.6151            0    2573.9582    18.251666    22.847855    19.561143    8157.2197    2365.0032     2148.768    3208.1034    284.59614   -1528.0695   -490.32751   -4100.2542 
 5528000    221.07906   -4887.3679   -4445.1824   -4887.3679            0    3367.8626    18.222804    22.743367    19.609722    8127.2084    2833.5477    4287.9364    2982.1038     3.222552    376.69292   -1449.5301   -4045.9998 
 5529000    230.13552   -4894.3151   -4434.0156   -4894.3151            0    3274.7389    18.028347    23.144671    19.422226     8104.121    3343.0971    2535.4827    3945.6369      59.7845   -413.85614   -1064.5548   -4046.9733 
 5530000    234.35035   -4883.9846   -4415.2549   -4883.9846            0    3046.4919    18.220979    23.016279    19.413922     8141.794    2027.1893     3639.315    3472.9712    -1143.852   -67.977007   -1856.8137   -4053.5153 
 5531000    227.62386   -4860.7273   -4405.4515   -4860.7273            0    2889.8876    18.089881    23.055325    19.559759    8157.7509    2584.4792    3991.3204    2093.8632    1341.0882    253.08464    614.91995   -4061.6345 
 5532000    230.09493   -4887.0408   -4426.8225   -4887.0408            0    2954.8492     18.11951     23.20976    19.334678    8131.1886    3480.5342    2721.0289    2662.9846    1342.2315     690.6601    154.96164   -4076.4215 
 5533000    233.48289   -4901.2037    -4434.209   -4901.2037            0    2132.7542    18.211878    23.042533    19.385181    8134.9487    2661.7624    1887.7677    1848.7326   -45.279388    7.3525591   -609.04172   -4181.1793 
 5534000    216.64776   -4895.9755   -4462.6532   -4895.9755            0    1828.7045    18.211532    22.884402    19.551133    8148.1305    3059.2622     1506.513    920.33837    1258.8855   -371.35584    1079.0101   -4245.3444 
 5535000    230.77968   -4926.1756   -4464.5877   -4926.1756            0    2028.8606    18.153582    23.096111     19.40064    8134.2449    2178.6008    1640.3067    2267.6741    782.34443    753.94934   -277.61762   -4223.9048 
 5536000    226.25181   -4912.2574   -4459.7258   -4912.2574            0    3623.1589    18.193026    22.999802     19.29496    8073.7058    3586.1937    3246.4165    4036.8664   -485.18815    -353.2449    45.471131   -4033.1108 
 5537000    232.70679   -4898.5445   -4433.1022   -4898.5445            0    2565.4415    18.130549    23.073731    19.428536    8127.7221    2418.2355    1749.9711    3528.1181    580.05238   -471.46629   -1079.4013   -4129.0089 
 5538000    234.57795   -4912.6265   -4443.4416   -4912.6265            0    1023.4529    18.079219    23.201567    19.457245    8161.6566    1465.8458    834.57385    769.93916    68.298378   -359.33737    738.12396   -4321.6206 
 5539000    230.29431   -4902.6958   -4442.0788   -4902.6958            0    2774.3971    18.245208     22.89839    19.448585    8125.3443    1509.7073    2766.8086    4046.6753    584.66029   -940.51094     278.4306   -4113.3132 
 5540000    230.59614   -4893.6256   -4432.4048   -4893.6256            0    3959.2168    18.054289    22.869939     19.61375    8098.5266    4224.6887    4317.4152    3335.5464    557.50437    -219.6414   -630.56467   -3964.7868 
 5541000    219.44892   -4874.0863   -4435.1613   -4874.0863            0    2061.8704    18.162573    23.064059    19.529412    8180.9226    2468.5813    1917.3903    1799.6396    1559.2965    781.35424     853.2223   -4189.1588 
 5542000    240.58305   -4915.0488    -4433.853   -4915.0488            0    3347.3785    18.137986    22.913267    19.458254    8086.8602    3958.7025    2710.8884    3372.5445    540.68874   -235.98429   -374.45295    -4039.068 
 5543000    226.37256   -4871.2607   -4418.4877   -4871.2607            0    2820.3553     18.32416    22.868189    19.347628    8107.4368      1994.34    3107.8127    3358.9132   -1228.1328    106.15881   -1795.9798   -4085.0127 
 5544000    228.88663   -4919.3445   -4461.5429   -4919.3445            0    3966.7237    18.036632    22.804574     19.64075    8078.5879     5023.302    4371.7417    2505.1275    112.48218    128.79511     935.7649   -3994.1918 
 5545000    223.56543   -4915.6533   -4468.4948   -4915.6533            0    2529.9329    18.067095    22.995542     19.49376     8098.929    2757.1928    2230.3053    2602.3006   -1091.9464   -38.597083   -1778.8228   -4169.6729 
 5546000    227.96873   -4907.2093   -4451.2437   -4907.2093            0    3946.6989    18.165072    23.010192    19.280273    8058.8033     3555.313     4140.006    4144.7777    -27.15689    844.49313    328.64749   -3987.3906 
 5547000    233.53956   -4902.4118   -4435.3039   -4902.4118            0    2974.3749    18.141716    23.034442    19.446017    8126.1852    3308.2715    2599.1325    3015.7206    7.3920299   -381.77404   -1138.1411   -4082.8045 
 5548000    230.52325     -4915.36   -4454.2851     -4915.36            0    2118.7783    18.067708    22.836728     19.75843    8152.4731    3996.1953    2652.7622   -292.62262   -432.46747    340.87211   -720.16293   -4202.3719 
 5549000    227.82491   -4872.9779   -4417.2999   -4872.9779            0    3723.2845    18.265925    22.737463    19.537934    8114.5104    4267.6047    4421.0332    2481.2158    720.61723    2511.0167   -398.13291   -3976.6797 
 5550000     221.3476    -4900.821   -4458.0984    -4900.821            0    2937.8864    18.151251    23.054342    19.340913    8093.4979    3004.0914    2216.8966    3592.6712   -70.727192   -971.03494   -276.99168   -4111.3239 
 5551000    234.41285   -4839.2234   -4370.3687   -4839.2234            0    1529.2761    17.871491    23.443653    19.478982    8161.1685    3210.7152    1429.2109   -52.097952    1082.6436   -475.87165    640.10632   -4188.3508 
 5552000    224.01613   -4902.5742   -4454.5143   -4902.5742            0    2595.3328    18.036021    23.229008    19.365428    8113.3181    2932.9173    2539.3707    2313.7102   -161.72965    595.75447    -660.9969    -4147.423 
 5553000    222.26753   -4913.3159   -4468.7534   -4913.3159            0    4483.2896    18.091161    22.937933    19.370764    8038.3603    4133.0951    4300.8604    5015.9134   -1028.0587   -93.166997   -906.68839   -3943.1718 
 5554000    240.36925   -4888.0261   -4407.2579   -4888.0261            0    3288.1072    18.040656     23.01498    19.497319    8095.3909    4283.1008    2833.3078     2747.913   -97.336561   -506.42859    847.43975   -4019.0542 
 5555000    240.31283   -4899.6383    -4418.983   -4899.6383            0    2405.0244    18.084735    23.096617    19.515413    8151.5137    3266.1132    1834.1332    2114.8267    348.69617    567.78607    1116.5438   -4133.0701 
 5556000    239.39892   -4875.3653   -4396.5379   -4875.3653            0    2225.5359     18.45042    22.798692    19.432924    8174.3711    810.39095    2693.8269    3172.3899    -920.7866    156.45953    746.87034    -4131.221 
 5557000    224.13015   -4913.4007   -4465.1127   -4913.4007            0    3829.1306    18.222355    22.857077    19.434651    8094.7221    3357.6278    4176.2828    3953.4813   -420.36936    465.32124   -7.3246118   -4013.0715 
 5558000    225.64991   -4885.2551   -4433.9274   -4885.2551            0    3586.1135    18.082179    22.878024    19.579073    8099.5599    5098.4444    2855.5066    2804.3895   -1211.4656   -1632.2964   -1333.0263   -4010.3221 
 5559000    222.01508   -4886.3026    -4442.245   -4886.3026            0    2367.6229    18.014282    23.147346    19.561414    8156.7737    3477.9002    1414.8569    2210.1117    93.811517   -690.91593    679.23668   -4160.5969 
 5560000    235.58198   -4914.4133   -4443.2202   -4914.4133            0    2437.6138    18.202666    22.933416    19.435565    8113.3634    2295.5999    2301.6841    2715.5574   -440.17592   -1813.6227    272.96169   -4154.7894 
 5561000    226.74754   -4864.5644   -4411.0413   -4864.5644            0    3552.7115    18.168047    22.754657    19.618147    8110.2927    3076.4263    3654.1213     3927.587    -836.9848    55.416864    -2600.069   -3990.8255 
 5562000    239.54232   -4876.3069   -4397.1927   -4876.3069            0    1201.6293    18.136593    23.048087    19.638256    8209.0613    2751.9135    582.63157    270.34286    1095.3685    966.36414    412.29564   -4253.3327 
 5563000    234.90396     -4880.71    -4410.873     -4880.71            0    1980.2956    18.094715     23.06699    19.513217    8144.6337     4846.437    623.39106    471.05872    292.67143     1029.309     1407.553   -4175.6513 
 5564000    223.32642   -4893.0128   -4446.3324   -4893.0128            0     1571.634    18.230952    23.214579    19.281945    8160.5797    731.33492    1221.2347    2762.3324   -253.64691   -762.72935   -540.25868   -4259.2864 
 5565000    222.13796    -4902.765   -4458.4617    -4902.765            0    4218.7339    18.087181    22.965575     19.44175    8075.7629     5168.079    4348.9655    3139.1572   -309.56588    1862.7258    110.35875    -3961.593 
 5566000    241.30725    -4890.093   -4407.4487    -4890.093            0    2694.1634    18.134262    22.848963     19.63361     8135.168    2156.2672    2642.8671    3283.3558    183.67259   -298.08374    1953.3769   -4087.8048 
 5567000    220.47347   -4888.2768   -4447.3026   -4888.2768            0     1713.327    18.413009    22.869268    19.366817    8155.2123     690.7398    1799.6114    2649.6298    221.37313   -288.33084   -1029.0006   -4243.5274 
 5568000    232.53881   -4903.5751   -4438.4688   -4903.5751            0    3224.1465    18.158156    23.000434    19.495868    8142.3611    2931.8579    4199.3264    2541.2551   -887.64967    609.14918    878.74209   -4055.6079 
 5569000    232.65803   -4929.9089   -4464.5641   -4929.9089            0    3316.5584    18.051164    22.910639     19.50176    8065.2201    2339.2869    4450.4474    3159.9409    936.45232   -308.76273    4060.9744   -4074.4607 
 5570000     225.5935   -4875.6813   -4424.4664   -4875.6813            0    2816.3139    18.327287    22.895295    19.366696     8126.433    1694.8305    3107.2355    3646.8759   -129.72316   -655.65852     1374.327   -4090.6891 
 5571000    223.62368   -4882.6629   -4435.3879   -4882.6629            0    4663.1418    18.094447    22.866824    19.491437    8064.8267    3751.0162    5022.9741    5215.4352   -880.86256    494.55065    11.674755   -3886.9221 
 5572000    240.81136   -4863.8895    -4382.237   -4863.8895            0    4258.9509    18.185286    22.909923    19.532949    8137.8856    3523.2967    4796.5271    4457.0289    175.98322   -149.45268    1106.7539   -3876.7732 
 5573000    220.92978   -4916.4588   -4474.5719   -4916.4588            0    1483.3115    17.998648    23.295316    19.488975    8171.4194    3284.1985    882.48486    283.25123   -1303.5829    433.52782    191.26676   -4297.8031 
 5574000    216.50619   -4903.2228   -4470.1837   -4903.2228            0    2678.6908    18.072585    23.181921    19.342193    8103.5515    2239.5564    2786.7985    3009.7176    1174.1202    199.65253    156.05887   -4153.6107 
 5575000    229.06543   -4907.9796   -4449.8205   -4907.9796            0    3114.3666    18.063067    23.030608    19.463778    8096.9984    2970.2286    3152.4182    3220.4529   -668.88737    -427.9107   -1890.3036   -4082.0561 
 5576000    227.77494   -4882.6564   -4427.0784   -4882.6564            0    2453.4915    18.189132    23.041717    19.401437    8131.3137    2228.8073    2436.6633    2695.0039    2914.0769    893.86355    562.41193   -4136.1265 
 5577000    221.98085   -4925.9989   -4482.0098   -4925.9989            0    1421.1371    18.270919     22.79282    19.545168    8139.5023    90.118478    2117.0638    2056.2291    218.91713     893.4755   -2292.5757   -4313.3119 
 5578000    236.32695   -4873.5386   -4400.8556   -4873.5386            0    3097.2979     18.18325    22.843918    19.561393    8125.3464    2383.4016    3575.2214    3333.2709   -509.59854    469.94059   -1316.6513   -4033.8262 
 5579000    210.33358   -4872.7688   -4452.0757   -4872.7688            0    2293.1114    18.235905    23.086402    19.340663     8142.447    1272.0043    1916.8025    3690.5275    105.21752   -395.04659    989.40459   -4179.7704 
 5580000    237.42897   -4883.9581   -4409.0708   -4883.9581            0    1868.8248    18.150136    23.131666    19.408489    8148.5163    2248.2551    1103.5941    2254.6252   -1178.8687   -1872.1301     461.4824   -4186.9839 
 5581000    228.81473   -4883.5666   -4425.9089   -4883.5666            0    2995.9435     18.02035    22.997537    19.495392    8079.3517    5027.5673    2228.2996    1731.9635    -340.8869   -801.26664   -525.21128   -4072.8997 
 5582000    231.48633   -4922.7074   -4459.7061   -4922.7074            0    1152.8767     18.13513     23.10408    19.476549    8160.5863    2398.5372   -133.29083    1193.3838    250.53753   -1825.6542   -28.701953   -4322.4979 
 5583000    230.58944   -4887.2859   -4426.0786   -4887.2859            0    2926.8048    18.171832    23.016559    19.337153    8087.8232    4605.0811    1033.9974     3141.336   -290.86061   -1246.8223    491.14971   -4080.8543 
 5584000    232.51782   -4873.1619   -4408.0975   -4873.1619            0     2458.571    18.077232    22.979044    19.536811    8115.5429    3637.9179    1599.8689    2137.9263   -549.33691   -418.49707   -194.06241   -4117.1087 
 5585000     227.3243   -4910.2422   -4455.5655   -4910.2422            0    1200.8145    18.111703    22.964478      19.6131    8157.5941    2722.3888     1319.772   -439.71714   -1285.1339    -415.0224   -395.42988   -4312.7044 
 5586000    218.77381   -4886.8461   -4449.2714   -4886.8461            0    685.75289    18.230493    22.951934    19.502222    8160.2186    1090.7301    1057.5392   -91.010602   -418.73706   -121.19579    9.5217823   -4367.6611 
 5587000    224.03849   -4900.9915   -4452.8869   -4900.9915            0    2665.1993    18.160147     23.10818    19.328744    8111.2674    1724.4055     2261.482    4009.7103   -874.30048    348.34444   -1807.9647   -4137.6084 
 5588000    222.59245    -4881.977   -4436.7646    -4881.977            0    2021.6366    18.160864     23.02547    19.562315    8180.2249    2017.9613    2395.5161    1651.4325    257.67597    943.03737    1419.2092   -4195.5829 
 5589000    217.53786   -4910.4483   -4475.3457   -4910.4483            0    3734.6766    18.170095    22.855848     19.44775    8076.5129    2673.8314    4434.8473     4095.351   -595.50725    836.44657    1142.7797   -4035.4469 
 5590000     222.9955   -4892.4371   -4446.4185   -4892.4371            0    3453.5308    18.201427    22.886933    19.505661    8125.5676    2185.9921    3726.4924    4448.1079   -499.99935    484.44703   -6.7115213   -4037.1645 
 5591000    218.61942   -4889.0702   -4451.8043   -4889.0702            0    3181.8614    18.263152    22.943729     19.30246    8088.2098    1404.2586    3553.7262    4587.5995   -165.82064    819.43668    768.02891   -4076.4775 
 5592000    227.61165   -4897.6136   -4442.3622   -4897.6136            0    2544.1867    18.168734    22.912726    19.489029    8113.1897    1288.5551    3077.0422    3266.9629    193.26192   -509.49915   -1310.3744   -4141.3275 
 5593000     230.9896   -4880.7989   -4418.7912   -4880.7989            0     2440.373    18.118846    23.069779    19.540992    8168.0914    4483.3701    1572.5687    1265.1801   -405.26667    382.99281    711.52576    -4128.086 
 5594000    236.98285   -4912.7754   -4438.7804   -4912.7754            0    3107.5694    18.054647     22.97874    19.502531    8091.0744    3567.7069     2115.628    3639.3734    1421.8153   -1532.5283    465.68472   -4072.0872 
 5595000    216.67181   -4906.8259   -4473.4555   -4906.8259            0    2727.9983    18.345504    22.770225    19.429108    8116.1456       1535.6    3412.4726    3235.9225   -184.02221    -933.0288   -798.26349   -4150.5542 
 5596000    233.45611   -4894.1669   -4427.2258   -4894.1669            0    2218.3726    18.193479    22.893626    19.607377    8166.7606    1950.0703    2791.9964     1913.051    579.56422   -17.767091    255.45777   -4163.0092 
 5597000    220.68617   -4880.9834   -4439.5838   -4880.9834            0    2497.0326    17.906331    23.280756    19.520475    8137.5576    3679.5944    1583.7852    2227.7181   -498.86098   -202.30304   -510.14436   -4143.2412 
 5598000    225.22867   -4889.1497   -4438.6645   -4889.1497            0    645.15977    18.160198    23.341886     19.35768    8205.5906    144.70511    384.59259    1406.1816    873.07035    22.891972   -476.16287   -4361.4582 
 5599000    226.45879   -4894.4425   -4441.4969   -4894.4425            0    4603.5571    18.094311    22.752671    19.591034    8065.5095    5128.4035    4348.1684    4334.0993    336.56691    516.88613     541.2491   -3899.9935 
 5600000    228.87783   -4894.7992   -4437.0153   -4894.7992            0    3280.9906    18.149282    22.889466    19.466574    8086.9477    3820.5019    3775.0797    2247.3903   -508.69182    467.72024   -1596.6462   -4050.0558 
 5601000    215.67419    -4904.759    -4473.384    -4904.759            0    3483.8499    18.157561    23.143934    19.337558    8126.3655    2531.0532     3431.311    4489.1855   -592.00085    730.58595    861.36795   -4060.4966 
 5602000    225.49257    -4888.928    -4437.915    -4888.928            0    2485.1174    18.154474    22.987073    19.457354    8119.9083    2437.0417    2872.5231    2145.7876   -442.78384   -328.11945   -155.80848   -4143.6261 
 5603000    227.55988   -4876.1899    -4421.042   -4876.1899            0    3665.9911    18.207765    22.855501    19.425961    8084.0665    2641.7051    4029.7399    4326.5284   -395.30054    146.87191    894.14186   -3988.8296 
 5604000    237.66321   -4897.7919   -4422.4362   -4897.7919            0    1832.4499    18.114835    22.927808    19.548901     8119.313    3904.8245    1790.0975    -197.5722    276.42919   -787.28249    2715.2545   -4205.4524 
 5605000    241.65159    -4885.228   -4401.8949    -4885.228            0    2100.2439    18.210768    22.902852    19.619423    8182.8401    1379.3788    3390.8188    1530.5341   -304.87075   -253.96718   -43.022441   -4151.2553 
 5606000    221.67114   -4908.2766    -4464.907   -4908.2766            0    3029.9613    18.215046     23.01674    19.345634     8110.676    1971.5265    2879.0336    4239.3237   -728.12321   -1197.7805   -1492.6987   -4106.5053 
 5607000    233.34098   -4895.9531   -4429.2423   -4895.9531            0    3449.2706    18.034838    22.851428    19.647158    8097.0223    3361.7408    4396.7715    2589.2994    1335.5879    913.16431     267.8453   -4021.9291 
 5608000    228.03831   -4878.8297   -4422.7249   -4878.8297            0    2833.3111    18.087682    23.060985    19.494081    8131.3664    3830.3431    2248.8616    2420.7287    1390.6043    -178.4409   -18.403315   -4086.7293 
 5609000     213.1248   -4873.1995   -4446.9236   -4873.1995            0    2627.3024    18.252652    23.195361    19.281531     8163.354    1372.2829    2709.9356    3799.6888    1425.5881    492.44098    305.93184   -4134.1323 
 5610000    235.37111   -4888.4292   -4417.6579   -4888.4292            0    3407.4619    18.224304    23.028959     19.33419    8114.3033    3618.0125    2365.3311     4239.042    593.29968    62.519973    2117.4263    -4014.423 
 5611000    235.27381   -4877.5509   -4406.9742   -4877.5509            0    3307.4962    18.241492    22.918832    19.535486    8167.2725    3534.8631     1998.462    4389.1635    402.17101    919.05615    1545.4814    -4013.014 
 5612000    227.44089   -4886.7329   -4431.8231   -4886.7329            0     3562.713     18.21839    22.807054    19.461995     8086.611    2299.1411    4575.1897    3813.8083    -463.6912    855.05299    563.48369   -4011.6548 
 5613000    224.85794    -4894.673   -4444.9293    -4894.673            0    3337.1698    18.276228    22.891879    19.334303    8089.0317    1976.4053    3453.4096    4581.6944    1305.4237   -243.32341   -181.48529   -4051.2426 
 5614000    227.43577   -4876.5405   -4421.6408   -4876.5405            0    2998.0525    18.020397    23.138334    19.509067    8134.5385    4402.8127    3119.6485    1471.6963      508.773    405.59226    -989.3456   -4065.9702 
 5615000    222.75316   -4883.6072   -4438.0734   -4883.6072            0    2087.5152     18.14092    23.092861    19.425444    8137.8186    2452.3581    1655.3986    2154.7891   -218.07783   -541.46302    543.02851   -4190.3234 
 5616000    219.30458   -4900.5274   -4461.8911   -4900.5274            0    1699.4882    18.302861    22.850301    19.529009    8167.5369    1181.5593    1269.6211    2647.2843   -635.55661   -552.72113   -588.51876   -4259.4563 
 5617000    215.02052   -4903.9261   -4473.8585   -4903.9261            0    1805.6048    18.380289    22.866092    19.408505    8157.1108    623.56466    2211.9191    2581.3307   -353.59553    293.77007    642.44777   -4259.0582 
 5618000    218.14219   -4895.4713     -4459.16   -4895.4713            0    2967.3991    18.072638    22.844426    19.584948    8085.8228    3065.0221    2874.8756    2962.2997   -781.60918   -127.96033   -591.08986   -4109.2341 
 5619000    235.04166   -4929.7109   -4459.5985   -4929.7109            0    2331.1745    17.962906    23.259828     19.45608    8129.0248    2370.0842    2129.8172    2493.6222    598.23057      712.627   -613.93453   -4183.2297 
 5620000    236.70055    -4915.516   -4442.0856    -4915.516            0    2255.4874    18.199957    23.182848    19.232673    8114.7812    2854.9674    1107.5634    2803.9315   -48.916976    159.70179    152.86086   -4175.1582 
 5621000    221.58419   -4904.9185   -4461.7227   -4904.9185            0    2780.9298    18.014076    22.973015     19.60388    8112.8232     4058.167    2508.2888    1776.3334   -325.98314    667.24182   -878.31061   -4132.6909 
 5622000    237.34586   -4887.8505   -4413.1294   -4887.8505            0     2817.815    18.086585    22.862251    19.636996    8119.8989    4824.5006    2620.8502    1008.0943    641.49281   -754.22848    820.37287   -4079.4427 
 5623000    224.17785   -4887.0976   -4438.7142   -4887.0976            0    2477.6826    18.283213    22.930853    19.384717    8127.0363    1144.3659     3846.124    2442.5578    -580.6675    559.76198    -829.7677   -4145.0481 
 5624000    221.77253   -4868.6291   -4425.0566   -4868.6291            0    3331.9986    18.119438    23.037523    19.452307    8119.9176    3033.4029    2767.1441    4195.4488    780.73714    101.81124    1476.8815   -4030.4791 
 5625000    238.34309   -4890.6885   -4413.9729   -4890.6885            0    3627.2123    17.966901    23.043248    19.462212    8057.6623    4494.6896    2781.8518    3605.0955    1223.1425   -365.89155   -22.854804   -3987.7292 
 5626000    223.95944   -4899.0518   -4451.1052   -4899.0518            0    789.49053    18.397193    22.930255    19.338242    8157.8825    1051.6993   -102.43143    1419.2037   -287.74325   -127.68633   -388.89322   -4357.1761 
 5627000    215.97973    -4887.138   -4455.1518    -4887.138            0    2178.5074    18.328929    22.849598    19.396499     8123.422    2272.8023    1935.9662    2326.7537    1291.4987   -33.551044    1372.5518   -4197.0602 
 5628000     222.9476   -4901.3649   -4455.4421   -4901.3649            0    3461.3297    18.153468    22.898916    19.533371    8119.9193    5471.5754    2062.1188    2850.2948   -192.39816   -938.79315    -1076.508   -4045.5491 
 5629000    231.58949   -4859.2068   -4395.9992   -4859.2068            0     2626.299    18.257035    22.939598    19.513038    8172.2367    3212.5053    2710.8806    1955.5112    -1335.266   -292.49686   -143.29666   -4082.9872 
 5630000    209.94177    -4895.089   -4475.1795    -4895.089            0    1577.6141    18.279296    22.844227    19.579256    8175.8351    384.58913     1677.233    2671.0203   -582.16383   -702.45546    13.555692   -4287.0708 
 5631000    218.64543   -4905.9052   -4468.5873   -4905.9052            0    3714.5799    18.176782     22.89451    19.390922    8069.5032    2084.2506    3620.8155    5438.6737   -45.419171    -525.2807   -513.75391   -4031.4354 
 5632000    234.13967   -4879.2794   -4410.9711   -4879.2794            0     2215.568    18.107322    23.056957    19.546146     8160.511    2057.5367    2346.4592    2242.7081    1046.5592   -1326.6289   -408.58537   -4147.2904 
 5633000    229.82747   -4878.8734     -4419.19   -4878.8734            0    2004.3082    18.210274    23.128882    19.410837      8175.52    2605.4411    2090.4854     1316.998   -115.57783   -107.67149    682.61044   -4180.2132 
 5634000    217.86283   -4900.0956   -4464.3431   -4900.0956            0    2560.5809    18.055209    22.969488    19.585635    8122.5327    3513.5772    2900.6373    1267.5282    317.81798    251.62392    360.81926   -4161.0197 
 5635000    221.23844   -4891.8175   -4449.3133   -4891.8175            0    4301.6324    18.267683    22.700441    19.433988    8058.9728    1157.2436    5416.0352    6331.6184    15.712136   -30.339036   -739.98451   -3943.7345 
 5636000    230.99711   -4879.0379   -4417.0151   -4879.0379            0    5380.3157     18.31228    22.669475    19.436167    8068.5318    4529.0624    5004.4687    6607.4161    1154.0464   -833.70386    471.38122   -3783.9066 
 5637000    216.00517   -4878.5025   -4446.4655   -4878.5025            0    2338.9073    18.001247    23.042844    19.580848    8122.1343    2980.9948    1815.6946    2220.0325   -1043.3694   -452.18967   -1091.3355   -4169.4149 
 5638000    229.76368   -4899.8584   -4440.3027   -4899.8584            0    3257.0336    18.046975    23.047119    19.437164    8084.5148    2248.2477    3752.0278    3770.8255   -1485.9329   -81.983786    830.40931   -4056.2842 
 5639000    213.04706   -4896.6217   -4470.5012   -4896.6217            0    3729.9064    18.245311      23.0543    19.222653    8085.6799    970.13383    4074.3147    6145.2706    672.15542    1134.9226   -47.691838   -4030.6656 
 5640000     229.8921   -4882.1682   -4422.3556   -4882.1682            0    4114.9559     18.15037    22.837722    19.454055    8063.9606    2372.8569    5136.2262    4835.7846    1338.2373   -248.63531    916.20983   -3938.4179 
 5641000    227.48908   -4900.3635   -4445.3573   -4900.3635            0    261.79631    18.144664    22.923319    19.729989     8206.411    896.46875    163.77563   -274.85544   -71.384089    224.76423    330.09561   -4414.0249 
 5642000    225.31788   -4884.1384   -4433.4748   -4884.1384            0    2319.9098    18.353512    22.970695    19.329843    8149.3251    2871.6449    932.50744     3155.577   -226.54323   -247.20552   -275.06595   -4157.7545 
 5643000      230.477   -4910.2162   -4449.2337   -4910.2162            0    1217.2524    18.092879    23.097401    19.493577    8146.3359    853.78065     1487.222    1310.7546    295.16322    84.968069    116.61297   -4304.6169 
 5644000    237.96382   -4910.4107   -4434.4537   -4910.4107            0    2194.9846    17.987573     23.19697    19.532526    8150.0869    2285.5419    1986.1591    2313.2527    925.36613    -1074.588   -417.75441   -4173.5564 
 5645000    233.39872   -4910.1143    -4443.288   -4910.1143            0    2901.9474    18.222765     23.06595    19.309797    8116.3978    2861.2555     3336.553    2508.0337    921.41923    113.66171    1589.8523   -4099.7864 
 5646000    225.07475   -4899.4736   -4449.2963   -4899.4736            0    2877.3347    18.414161    22.626642    19.507583    8127.8462     1330.314    3656.3387    3645.3516    1886.4349    483.29909    2581.6339   -4108.2277 
 5647000    219.00645   -4906.5793   -4468.5394   -4906.5793            0     3160.028    18.241222    22.763804    19.520193    8105.5573    1241.8898    4566.9377    3671.2565   -64.939523    1442.5614    1590.3826   -4094.9885 
 5648000     226.1421   -4898.7185   -4446.4064   -4898.7185            0    1611.1766    18.231044    23.025839    19.366103    8129.6012    320.08779    1297.5896    3215.8525   -280.93467   -455.72829    1104.2247   -4255.3822 
 5649000    236.67039   -4884.8041    -4411.434   -4884.8041            0    2114.8751    18.153901    23.186889    19.378503    8157.0418    1996.3558    1683.1837    2665.0857   -211.87284    175.18572   -835.35085   -4159.8441 
 5650000     226.1089    -4907.278   -4455.0323    -4907.278            0    3365.3533    18.112274    22.942937    19.500791    8103.5296    4321.4457    2530.4162     3244.198    2030.7437    172.18357    902.32813   -4057.3092 
 5651000    233.22385   -4862.6946   -4396.2181   -4862.6946            0    3513.8074    18.109018    22.997447    19.434655    8093.7796    3793.4642    3067.4757    3680.4823    241.96615   -488.40789    206.49404   -3981.4501 
 5652000    229.13492   -4892.0134   -4433.7153   -4892.0134            0    2198.3504    18.169151    23.094299    19.381868    8132.7055    1520.7806     2444.579    2629.6916    1364.7187   -635.87918   -1241.8496   -4172.9752 
 5653000    230.58518   -4886.5735   -4425.3746   -4886.5735            0     1885.418    18.167195    22.966508     19.58973    8173.5607    1150.7159      2798.54    1706.9981   -404.34801    5.6172566    233.52165   -4200.6272 
 5654000    226.50238   -4900.8102   -4447.7774   -4900.8102            0    3676.6426    18.268614    22.724995    19.443424    8072.0184    2209.1453    4719.2928    4101.4897    1678.8026    4.2492846    1080.6372   -4014.9553 
 5655000    221.05807   -4892.1655   -4450.0221   -4892.1655            0    3820.2821    18.317394    22.843998    19.317737    8083.3623    2645.0508    4497.0563    4318.7392    634.73126    2231.7668    478.24302   -3999.6584 
 5656000    206.10492   -4881.3909   -4469.1556   -4881.3909            0    1276.0223     18.09984    23.103887    19.599954     8196.243    3645.3981    1500.4138   -1317.7449   -919.93373    1646.5804   -398.85445   -4316.6278 
 5657000    225.25139    -4895.636   -4445.1054    -4895.636            0    1416.0474    18.201183    22.930789    19.531062    8151.6301    1610.7851    1712.5068    924.85032   -1300.8089    1528.4688    37.253756   -4276.7612 
 5658000    211.51771   -4889.6739   -4466.6124   -4889.6739            0    2375.2716    18.314232    22.836805    19.420579     8122.435    1829.9575    2311.9147    2983.9425     180.5137    110.29698    798.99642   -4185.2439 
 5659000    220.33452   -4897.3539   -4456.6577   -4897.3539            0    2314.8866    18.027392    23.002911    19.572431    8116.3446    3363.0388    2220.7239    1360.8971   -110.05137    446.09075   -2626.9127   -4182.6479 
 5660000    232.10585   -4892.2765   -4428.0362   -4892.2765            0    2342.3496    18.175946    23.112217    19.400315    8149.8085    3392.3997    1833.6888    1800.9604    200.42367   -484.20466   -658.19393   -4149.6324 
 5661000     221.1745   -4906.8912   -4464.5149   -4906.8912            0    1784.9736    18.144706     23.02322    19.534739    8160.6288    1606.3433    2078.6309    1669.9466    -617.1932     522.8819    -1183.002   -4252.0774 
 5662000    225.81342   -4890.7129   -4439.0581   -4890.7129            0    1601.4577    18.174367     22.91281    19.621556    8170.9224    2339.1717    1151.5343    1313.6673    229.59807   -625.50232   -563.79762   -4248.2212 
 5663000    223.09862   -4889.3781   -4443.1533   -4889.3781            0    2315.1752    18.164462    22.792829    19.603304    8116.1497    3919.3995    2593.1605    432.96555   -1085.2283   -757.47316   -811.74934   -4169.1159 
 5664000     228.4417   -4912.4233   -4455.5117   -4912.4233            0    2724.1938    18.140847    23.110706    19.365963     8119.137    1938.6267    2408.4489    3825.5057   -250.73831   -1304.9117    364.54631   -4132.9419 
 5665000      219.649   -4887.3343   -4448.0092   -4887.3343            0    3317.4079    18.011955    23.083713    19.459986    8091.1272    3905.6107    2560.0537    3486.5592   -556.07486    3.8358976   -34.952152   -4056.5524 
 5666000    243.29217   -4887.9391   -4401.3247   -4887.9391            0    2756.8154    18.121479    23.075296    19.359009    8095.1338    2909.0499    2329.0307    3032.3656    752.32324    381.67548    1997.3229   -4075.8572 
 5667000    234.59546   -4915.9759    -4446.756   -4915.9759            0     2091.193    18.180112    22.925837    19.556668    8151.1074    2135.9175      2094.35    2043.3116    503.34256    1128.0803   -1434.5569   -4198.1643 
 5668000    229.84516   -4885.4475   -4425.7288   -4885.4475            0    1673.5183    18.255922     22.86711    19.497539     8139.446    3472.4109    1783.2933   -235.14918   -249.64739    456.79494   -968.49118    -4227.073 
 5669000    238.76192   -4885.1791   -4407.6258   -4885.1791            0     2103.733    18.232837    23.050657    19.355159    8134.5642    1633.2967    2493.0716    2184.8309     514.8407    836.88202   -615.63101   -4158.0509 
 5670000    227.44436   -4896.9589   -4442.0421   -4896.9589            0    2331.9135     18.15137    23.151229    19.409168     8156.247    2383.1486    2204.5261    2408.0657   -566.05968    1170.7386      845.339   -4164.6598 
 5671000    221.47821   -4867.0153   -4424.0315   -4867.0153            0    3811.8936    17.984527    23.034849     19.56398    8104.7872    5746.7938    2407.3137    3281.5734   -578.92368   -820.24635   -401.86436   -3973.4656 
 5672000    226.04621   -4894.4763   -4442.3559   -4894.4763            0    5111.7953     17.99615    22.713091    19.654287    8033.6546    7350.2573    5487.0423    2498.0863     163.8452    317.71964     1449.772   -3843.4446 
 5673000    219.38958   -4894.5206   -4455.7144   -4894.5206            0    3287.2348    18.205302    22.851011    19.479778    8103.7739    2310.0944     3388.557    4163.0531    100.43757   -703.26306   -710.64612   -4067.2118 
 5674000    219.27205   -4888.3128   -4449.7416   -4888.3128            0    3055.4885    18.163846    22.958456    19.473824    8120.8547    3481.3878    2567.9422    3117.1354    -2.120837   -1444.5936    135.75805   -4087.8669 
 5675000    222.62962   -4894.7592   -4449.4724   -4894.7592            0    3039.0007    18.145436    22.878753    19.473863     8084.476    3789.7228         3062    2265.2793    148.95715   -969.93836   -334.18521   -4091.1627 
 5676000    228.75316   -4906.5663   -4449.0317   -4906.5663            0    2878.8362    18.084784    22.878795    19.560176    8093.1806     3708.542    2932.3851    1995.5816   -614.70844   -937.70893    250.40681   -4109.2405 
 5677000    237.04313   -4900.0717   -4425.9561   -4900.0717            0    3434.4505     18.15223    22.975204    19.492449    8129.3489    2542.6153    3348.3839    4412.3523    599.99122   -102.51912   -224.30157   -4018.7738 
 5678000    223.13438   -4877.0684    -4430.772   -4877.0684            0    2826.7177    18.340891    22.845477    19.378993    8119.9222    1435.9095     3881.851    3162.3926   -266.20337    124.51416    194.94604     -4096.03 
 5679000    240.55359   -4897.7748   -4416.6379   -4897.7748            0    1880.0715    18.197804    22.848924    19.648402    8169.8106    1631.0009    2573.6639    1435.5499    1320.1714    403.02703    415.95178   -4192.6306 
 5680000    231.10249   -4900.7181   -4438.4846   -4900.7181            0    1476.5807     18.20608    22.950535    19.505776    8150.2798    1618.4887    1778.0868    1033.1665   -82.598803   -9.9015673    279.06609   -4262.9731 
 5681000    225.87228   -4899.2708   -4447.4984   -4899.2708            0    2860.1769     18.04497    23.122687    19.431793    8107.8805    1840.4597    3023.8688    3716.2021   -654.37442    497.21093   -374.52954   -4109.2964 
 5682000    226.43605   -4883.7273   -4430.8272   -4883.7273            0    1970.3352    17.951756     23.21269    19.605248    8169.6744    5646.4918   -386.74183    651.25561    11.356957   -1054.3186    290.46402    -4196.069 
 5683000    223.24193   -4909.0408   -4462.5294   -4909.0408            0    1864.9117    18.329234    22.835135    19.425393    8130.5085    1931.8364    1962.2353    1700.6633   -69.563777   -478.53985    865.83997   -4241.3973 
 5684000     215.4951   -4892.9297   -4461.9129   -4892.9297            0    3079.2858    18.293426    22.771173    19.482077    8115.5079    2304.1948    3389.7629    3543.8997    332.41366   -532.88712    431.13763   -4097.4598 
 5685000    234.23372   -4887.8082   -4419.3119   -4887.8082            0    1423.7795    18.119454    22.858331    19.719513    8167.4369    3796.1022    2280.8756   -1805.6393   -1886.4511   -240.33654   -933.56372   -4249.7202 
 5686000    235.34177   -4894.9437   -4424.2311   -4894.9437            0    1981.4617    18.203014    23.015021    19.439283    8143.9465    1329.6585    2141.5741    2473.1526    1340.8488   -387.57748    574.74863   -4188.8907 
 5687000    220.13344   -4888.0229   -4447.7288   -4888.0229            0    2382.5805    18.151789    23.154871    19.297003    8110.5752    2583.4149    1906.8575    2657.4691   -263.56941   -224.56647   -994.86639   -4165.9067 
 5688000    228.38533   -4873.6049    -4416.806   -4873.6049            0    3288.1539    18.080296    23.033892    19.469059     8108.076    2335.9946    2937.4132    4591.0539    1328.1157    288.03798   -1053.0684   -4027.9885 
 5689000    222.38771   -4912.2694   -4467.4665   -4912.2694            0     2851.795    18.119536    22.901533    19.514755    8097.9435    2748.6369    3413.9115    2392.8367    657.80902   -613.49184   -85.550768    -4130.669 
 5690000    237.26026   -4868.1619   -4393.6121   -4868.1619            0    3282.6838    18.376893      22.8615    19.399997    8150.3917     1459.647    3518.1396    4870.2648    -1878.352   -718.12682    1593.0612   -4003.4156 
 5691000    230.72507   -4883.3449   -4421.8662   -4883.3449            0     2604.409    18.193784    22.734135      19.6678    8134.9946    2532.0326    2903.4244      2377.77   -2606.3127   -167.62952   -1725.4939   -4112.8777 
 5692000    232.93327   -4896.7408   -4430.8455   -4896.7408            0    2175.6667    18.124229    23.020222    19.522957    8145.4418    2323.3555    1708.1171    2495.5273   -114.65942    1348.9917    1282.4658   -4172.3917 
 5693000    223.98095   -4889.4273   -4441.4377   -4889.4273            0    1260.6866    18.179702    23.323114    19.237852    8156.9887   -48.051916    813.92815    3016.1837    957.59537   -989.55184    65.080694   -4291.4648 
 5694000    223.47201   -4882.8188   -4435.8472   -4882.8188            0    2194.9088     18.14907    22.949182    19.540827    8138.8778    3034.4343    2276.2999    1273.9921   -82.550339   -315.77459    501.18023   -4175.3177 
 5695000    231.73523   -4896.1473   -4432.6482   -4896.1473            0     3168.815     18.29452     22.66807    19.559402    8111.3127    2878.9797     4145.351    2482.1144   -290.14584    109.49381    624.37412   -4057.7927 
 5696000      228.883    -4907.774   -4449.9797    -4907.774            0    2333.3375    18.304251    22.799365    19.477241    8128.3457   -213.47405    3194.0803    4019.4062    210.28312   -126.66632    912.25766   -4173.3775 
 5697000    222.65024   -4880.2423   -4434.9143   -4880.2423            0    2129.2057    18.116631    23.380872    19.198088    8131.9767    1088.6561    2327.8359    2971.1252   -1533.9095    416.09658    255.53963   -4182.3979 
 5698000    218.51246   -4879.8864   -4442.8345   -4879.8864            0    3101.6935    17.967872    23.124533    19.534147    8116.4116    4063.7184    2167.8312    3073.5308    784.40601    544.77514    1531.4918   -4075.6884 
 5699000    228.88038   -4875.8905   -4418.1014   -4875.8905            0     4001.296    18.119664    22.971453    19.370664    8062.7487    3248.9657    4213.4848    4541.4375    964.04225   -435.36777    958.97489   -3947.6014 
 5700000    228.64848   -4897.0352     -4439.71   -4897.0352            0     3565.862    18.320961    22.703229    19.467891    8097.5711     1873.416    4855.7438     3968.426    49.961838    95.955284   -880.73129   -4018.6004 
 5701000    229.40803   -4890.2762   -4431.4318   -4890.2762            0    1929.0284    18.282482    22.693839    19.672083    8161.9412     40.81526    3448.6008    2297.6692    812.60045   -128.81552    -98.54788   -4201.8127 
 5702000    229.83874   -4900.2003   -4440.4944   -4900.2003            0    2877.6792    18.097089    22.912159    19.568191    8113.8213    3639.8682    2527.9703    2465.1991     1151.454   -1634.6688   -626.55498   -4099.9736 
 5703000     219.2841   -4907.7399   -4469.1446   -4907.7399            0    3374.5621    18.110573    23.132493    19.299291     8085.297    2475.2742    3728.2678    3920.1442    163.19941    1529.4722    182.64222   -4071.2306 
 5704000    219.95946   -4910.8624   -4470.9164   -4910.8624            0    2771.8678     18.08124    23.086598    19.411998     8103.234    3608.2177    1321.4695    3385.9161   -383.81029   -1086.0701    329.50315   -4143.3444 
 5705000    225.58464   -4924.0566   -4472.8595   -4924.0566            0    2987.0149    18.193306    22.845413    19.532849     8118.508     3270.199      2776.28    2914.5657     486.8956   -236.13637    1170.9612   -4119.1966 
 5706000     221.6626   -4901.7167   -4458.3641   -4901.7167            0    3550.2249    18.147889    22.853999    19.441657    8063.4629    3422.5705    2727.5475    4500.5566    -108.8436   -1023.8029    222.30903   -4040.8671 
 5707000    226.48418   -4894.9146   -4441.9183   -4894.9146            0    2765.2281    18.073191    22.822973    19.666964    8112.3072    4207.8982    1990.3776    2097.4084   -291.25275   -953.04202     1296.638    -4114.765 
 5708000    234.74063   -4887.0165   -4417.5063   -4887.0165            0    4076.6563    18.122635    22.956851    19.469183     8099.932    4317.0428    3508.9019     4404.024   -493.29495   -731.78252    1449.1368   -3935.9341 
 5709000    225.01086   -4892.1794   -4442.1299   -4892.1794            0    2535.0158     18.14446    22.971327    19.451592    8107.4684    3338.5529    1876.3753    2390.1192    652.69268   -404.53899    1210.1721   -4142.3919 
 5710000    228.32253   -4880.5874   -4423.9142   -4880.5874            0    3324.2106    18.094175    22.820354    19.553131    8073.7908    3914.0696    4160.3028    1898.2594     -66.4281    438.54446   -182.75087   -4032.4951 
 5711000    225.73465   -4885.2568   -4433.7596   -4885.2568            0    4046.5768    18.111159    23.014547    19.355671    8067.8334    4403.4546     3152.573    4583.7027   -713.12276   -68.088468   -979.81993   -3957.6351 
 5712000    229.12241   -4893.1397   -4434.8666   -4893.1397            0    1501.3066    18.216064    23.094835    19.298536    8118.8362    918.08414    1243.8475    2341.9883    475.70026   -144.94159   -660.76997   -4257.1045 
 5713000     217.8374   -4872.0885   -4436.3868   -4872.0885            0    3096.5293    18.062105    22.948713    19.530443    8095.4088    4660.5079    3078.3548    1550.7253   -966.61794   -229.26252   -2098.4711   -4070.8005 
 5714000    233.12149     -4911.05   -4444.7782     -4911.05            0     2042.016    18.021713    23.018962    19.570745    8118.7502    4236.6061    1068.1022    821.33957    866.17589     6.075423    248.80906   -4202.9961 
 5715000    215.59449   -4908.2058   -4476.9902   -4908.2058            0    2660.8919     18.19271    23.056451    19.352404    8117.5458    4161.4007    2260.6318    1560.6431   -742.10403    127.51787    20.872619   -4161.9776 
 5716000    220.32234   -4883.7513   -4443.0794   -4883.7513            0    1867.6962    18.080955    23.407649    19.216918    8133.2271    1529.7637    1236.5595    2836.7653    1780.5929   -786.44557    1554.4431   -4221.5431 
 5717000    214.90509   -4900.2257   -4470.3889   -4900.2257            0     3761.641    17.965994    23.192265    19.375313    8073.1521    4620.3063    3352.5962    3312.0205   -928.83503   -763.13825   -969.85605   -4027.4984 
 5718000    229.61535   -4872.8271   -4413.5681   -4872.8271            0    2357.5609    18.112067    22.984372     19.61893    8167.2524    2244.0189    3398.1237    1430.5399    427.49414    -132.6458    1704.7638   -4132.7567 
 5719000    230.95354   -4904.5325   -4442.5969   -4904.5325            0    3369.0226    18.224685     22.75791    19.510438    8092.0662    2686.7158    3687.8527    3732.4995    673.02066    417.28794    603.19146   -4045.0034 
 5720000    215.72978    -4900.929   -4469.4427    -4900.929            0    2825.0305    18.285728    22.732731    19.496144    8104.2453    2490.7491      3478.22    2506.1225    387.31076   -203.51559    439.74165   -4135.5464 
 5721000    221.13336   -4888.3009   -4446.0069   -4888.3009            0    1227.1338    18.173525     23.04354    19.497233    8165.0974    3026.9405    303.66416    350.79686    754.73821   -716.22345    979.42612   -4299.8803 
 5722000    214.80462   -4907.8533   -4478.2176   -4907.8533            0    1752.9934    18.235993    23.091966    19.312496    8132.5872    2313.7022    386.08668    2559.1913    1314.6132   -534.21536    435.00036    -4270.303 
 5723000    221.24021    -4915.099   -4472.5912    -4915.099            0    3160.4072    18.101585     22.94139    19.475084    8087.5261    4475.1898    1791.4605    3214.5714    956.40739   -1106.9437    1481.1644   -4099.8267 
 5724000    221.84865   -4875.3288    -4431.604   -4875.3288            0     3399.453    18.123358     22.86263    19.549412    8100.2523    1838.6164     4560.504    3799.2385    84.277067   -722.90537    218.56859   -4030.0135 
 5725000    226.62261   -4909.5021   -4456.2289   -4909.5021            0    3584.4304    18.137609    22.781901     19.54541    8076.3434    1677.0671    5463.9551    3612.2689   -115.78041   -237.18625    1386.5037   -4034.0361 
 5726000      226.119   -4892.9248   -4440.6589   -4892.9248            0    3014.3297    18.167766    22.977842    19.405446    8100.9208    1150.2985    3588.2971    4304.3936   -1421.9113   -98.523564   -1004.6688    -4084.535 
 5727000    231.29336    -4851.199   -4388.5837    -4851.199            0    2006.2328    18.128436    23.149383    19.473024    8172.0902     2908.269    671.55085    2438.8786   -519.73078   -339.56522    328.53745   -4149.4778 
 5728000    227.50393   -4881.4826   -4426.4466   -4881.4826            0    2637.9673    18.036471    23.165279    19.466338    8133.4233    2917.2467     2169.453    2827.2022    905.72081    1191.1498   -1657.0358   -4113.5372 
 5729000    232.65275   -4887.9881   -4422.6539   -4887.9881            0    3285.3806    18.086825    23.064543    19.449627     8113.691    4531.6768    2625.7606    2698.7043   -1133.9131    445.16417    794.63745   -4033.8953 
 5730000    238.70381   -4877.5477   -4400.1106   -4877.5477            0     1174.183    18.356842    23.004381    19.393092    8189.4657    425.80366    2438.5999    658.14541    922.42346    406.91108    855.91162   -4259.8721 
 5731000     240.2424   -4902.0309   -4421.5165   -4902.0309            0    4485.6794      18.1454    22.911843    19.441872    8082.8527    4620.7152    4850.0965    3986.2263    248.98395    799.14687    845.02088   -3892.7441 
 5732000    224.33192   -4881.8412   -4433.1496   -4881.8412            0    4122.2672    18.161419    22.836404     19.46298    8072.1056    2551.5585    4944.8341    4870.4089   -860.34638   -144.37093   -1602.1564   -3947.8624 
 5733000    223.36799   -4900.3605    -4453.597   -4900.3605            0    3414.7467    18.171541    22.681146    19.631329    8091.0793    5185.4053    2569.3912    2489.4436    298.74864   -847.23569   -507.39469   -4050.6565 
 5734000    232.13512   -4877.3382   -4413.0393   -4877.3382            0     3148.776    18.040608    22.925717    19.588778    8101.7982    2776.8827    3064.3423    3605.1029    45.831767   -727.42096    1191.4739   -4040.9912 
 5735000    221.50992   -4899.6675   -4456.6203   -4899.6675            0    2375.0987    18.201766    23.119424    19.291495    8118.1381    2363.5236    1552.2784    3209.4942   -494.01738   -404.46888    876.92682   -4175.4212 
 5736000    232.52163   -4912.5663   -4447.4943   -4912.5663            0    1627.8884    18.254198     23.06934    19.432935    8183.4479    1085.1878    1216.9497    2581.5277     -219.772   -229.73402    581.39622   -4253.2104 
 5737000    222.63944   -4893.8734    -4448.567   -4893.8734            0      3074.94    18.129165    22.706019    19.709154    8113.0992    4308.6784    2424.4184     2491.723   -186.05106   -179.19574   -119.11096   -4084.7363 
 5738000    229.43831   -4882.2622   -4423.3572   -4882.2622            0    2875.7292     18.05091    23.057679    19.531271    8129.1513    2877.6863    3409.9305    2339.5709    185.88146   -275.12522    1205.3479   -4082.4242 
 5739000     223.6118   -4884.0423    -4436.791   -4884.0423            0    2872.0117    18.172256    23.114918    19.245223    8083.9598    1948.8987     2650.495    4016.6414   -314.30995    1027.9099   -1157.3506   -4098.1916 
 5740000    233.72352    -4891.995   -4424.5191    -4891.995            0    1699.1232    18.195317    23.129577    19.351276    8143.9841    390.32959    2365.7447    2341.2955    671.67985    -387.6312    163.03401   -4222.7114 
 5741000    227.29156   -4913.2852    -4458.674   -4913.2852            0    3835.4621    18.013618    22.862893    19.557723    8054.7195    4304.9308    3325.5935     3875.862    355.40142   -790.85758    674.55064    -4008.123 
 5742000    221.67733   -4891.8013   -4448.4192   -4891.8013            0    3195.8692      18.1939    22.915659    19.447186    8108.0219    2459.5644    3794.0177    3334.0255     172.7163   -488.49001    99.805576   -4070.5167 
 5743000    230.83205   -4872.2848   -4410.5922   -4872.2848            0    3346.7106    18.257772    22.959827    19.395356    8130.4421     3419.745    3707.6485    2912.7382    389.86798    221.43991   -665.99386   -4013.7588 
 5744000    242.20556   -4897.0404   -4412.5994   -4897.0404            0    2396.9834    18.170603    22.783176    19.641944    8131.4515    2836.4711    3135.0085    1219.4706   -165.61574    480.80778    2914.1392   -4128.3438 
 5745000    231.42121   -4871.9243   -4409.0533   -4871.9243            0    2029.6549       18.289    22.863757    19.583728    8189.0386    1401.3552    2196.3042    2491.3052   -422.32139    149.96932   -508.44433   -4166.6542 
 5746000    232.75991   -4910.5505   -4445.0019   -4910.5505            0    3307.0132    18.168182     22.98974    19.343281    8079.3356    3509.5575    2587.6232    3823.8588   -19.727129    -423.8714    573.45514   -4055.3404 
 5747000    228.79744   -4897.8366   -4440.2134   -4897.8366            0     2156.952     18.12374    23.108959      19.4226    8134.5879    3647.8086    1177.0335    1646.0139    1026.3636    2.0246991     368.7012   -4184.3243 
 5748000    245.90822   -4909.5589   -4417.7121   -4909.5589            0    3742.8865    18.073004    23.161308    19.234419    8051.4205     2962.744    2777.6999    5488.2157    659.06702   -290.37611    1412.7605    -3978.216 
 5749000    226.07489   -4901.4067    -4449.229   -4901.4067            0     2101.495    18.188325     22.97629    19.488354    8144.1877    1478.7001    2794.6799    2031.1048   -250.50139   -1038.1613   -194.86967   -4199.6248 
 5750000    226.26188   -4854.7045   -4402.1528   -4854.7045            0    1195.3621     18.20916    22.895589    19.634654    8185.8724     1033.163    1884.7846    668.13878    303.67921   -267.75235    1362.0193   -4259.4474 
Loop time of 592.589 on 64 procs for 250000 steps with 1008 atoms

Performance: 72.900 ns/day, 0.329 hours/ns, 421.878 timesteps/s
99.1% CPU use with 64 MPI tasks x 1 OpenMP threads

MPI task timing breakdown:
Section |  min time  |  avg time  |  max time  |%varavg| %total
---------------------------------------------------------------
Pair    | 27.54      | 31.226     | 34.952     |  32.0 |  5.27
Bond    | 0.26851    | 0.27894    | 0.30541    |   1.2 |  0.05
Kspace  | 284.32     | 295.04     | 309.9      |  43.4 | 49.79
Neigh   | 3.4886     | 4.1374     | 5.1357     |  24.9 |  0.70
Comm    | 103.87     | 120.45     | 131.93     |  72.8 | 20.33
Output  | 1.2699     | 1.2703     | 1.275      |   0.1 |  0.21
Modify  | 125.1      | 130.88     | 135.45     |  26.0 | 22.09
Other   |            | 9.299      |            |       |  1.57

Nlocal:        15.7500 ave          22 max          12 min
Histogram: 4 5 7 14 13 8 9 1 2 1
Nghost:        2459.09 ave        2478 max        2440 min
Histogram: 2 2 8 9 7 13 14 7 1 1
Neighs:        5116.83 ave        7223 max        3853 min
Histogram: 4 7 11 16 12 10 1 1 1 1

Total # of neighbors = 327477
Ave neighs/atom = 324.87798
Ave special neighs/atom = 2.0000000
Neighbor list builds = 7549
Dangerous builds = 0

unfix		3
unfix		2
unfix		1

write_data	data.final.${pid}
write_data	data.final.0
System init for write_data ...
PPPM initialization ...
  extracting TIP4P info from pair style
  using 12-bit tables for long-range coulomb (../kspace.cpp:340)
  G vector (1/distance) = 0.37823457
  grid = 24 27 36
  stencil order = 5
  estimated absolute RMS force accuracy = 0.0025507998
  estimated relative force accuracy = 7.6816579e-06
  using double precision FFTW3
  3d grid and FFT values/proc = 4050 480
Last active /omp style is kspace_style pppm/tip4p/omp
WARNING: Not all mixed pair coeffs generated from mixing. Use write_data with 'pair ij' option to store all pair coeffs. (../write_data.cpp:312)

write_restart   restart.lmp.${pid}
write_restart   restart.lmp.0
System init for write_restart ...
PPPM initialization ...
  extracting TIP4P info from pair style
  using 12-bit tables for long-range coulomb (../kspace.cpp:340)
  G vector (1/distance) = 0.37823457
  grid = 24 27 36
  stencil order = 5
  estimated absolute RMS force accuracy = 0.0025507998
  estimated relative force accuracy = 7.6816579e-06
  using double precision FFTW3
  3d grid and FFT values/proc = 4050 480
Last active /omp style is kspace_style pppm/tip4p/omp
Total wall time: 0:09:56
