#include		in.partitions
include		in.temp
variable        temperature equal 275.10
variable	tempDamp equal 100.0
include		in.pressure
variable        pressure equal 10000.0
variable        pressureDamp equal 1000.0 # This is 1 ps
include		in.seed
variable        seed equal 745823

units		real
atom_style	full
read_restart	restart.lmp.${pid}
read_restart	restart.lmp.1
Reading restart file ...
  restart file = 30 Jul 2021, LAMMPS = 30 Jul 2021
  restoring atom style full from restart
  orthogonal box = (0.65779364 1.8663253 0.80250671) to (17.549779 21.762853 21.410689)
  2 by 4 by 4 MPI processor grid
  restoring pair style lj/cut/tip4p/long/omp from restart
  restoring bond style harmonic/omp from restart
  restoring angle style harmonic/omp from restart
  864 atoms
  576 bonds
  288 angles
Finding 1-2 1-3 1-4 neighbors ...
  special bond factors lj:    0        0        0       
  special bond factors coul:  0        0        0       
     2 = max # of 1-2 neighbors
     1 = max # of 1-3 neighbors
     1 = max # of 1-4 neighbors
     2 = max # of special neighbors
  special bonds CPU = 0.002 seconds
  read_restart CPU = 0.008 seconds
include 	in.setup
variable	out_freq equal 1000
variable	out_freq2 equal 10000
variable	out_freq3 equal 1000

timestep	2.0

neigh_modify    delay 7 every 1

include		in.tip4p
# This is TIP4P/Ice

# create groups ###
group ox type 2
288 atoms in group ox
group hy type 1
576 atoms in group hy

# set charges - beside manually ###
set group ox charge -1.1794
Setting atom values ...
  288 settings made for charge
set group hy charge 0.5897
Setting atom values ...
  576 settings made for charge

# ### TIP3P Potential Parameters ###
pair_style lj/cut/tip4p/long/omp 2 1 1 1 0.1577 8.5
pair_coeff 1 1*2 0.000 0.000
pair_coeff 2 2 0.21084 3.1668
bond_style  harmonic
bond_coeff  1 450 0.9572
angle_style harmonic
angle_coeff 1 55 104.52
kspace_style pppm/tip4p/omp 1.0e-5
pair_modify tail yes

thermo          ${out_freq}
thermo          1000
thermo_style    custom step temp pe etotal epair emol press lx ly lz vol pxx pyy pzz pxy pxz pyz enthalpy

restart 	${out_freq3} restart.lmp.${pid} restart2.lmp.${pid}
restart 	1000 restart.lmp.${pid} restart2.lmp.${pid}
restart 	1000 restart.lmp.1 restart2.lmp.${pid}
restart 	1000 restart.lmp.1 restart2.lmp.1


include         in.dump
dump            myDump all atom ${out_freq2} dump.water.${pid}
dump            myDump all atom 10000 dump.water.${pid}
dump            myDump all atom 10000 dump.water.1
dump            myDump2 all dcd ${out_freq2} dump.dcd
dump            myDump2 all dcd 10000 dump.dcd
dump_modify     myDump append yes
dump_modify     myDump2 append yes


variable natoms 	equal  "count(all)"                        # NUMBER ATOMS
variable H      	equal  "enthalpy/v_natoms"                 # ENTHALPY-per-atom
variable Vol      	equal  "vol/v_natoms"                 # volume-per-atom
fix AVG all 		ave/time ${out_freq} 1 ${out_freq} v_Vol v_H file vol_enthalpy.dat
fix AVG all 		ave/time 1000 1 ${out_freq} v_Vol v_H file vol_enthalpy.dat
fix AVG all 		ave/time 1000 1 1000 v_Vol v_H file vol_enthalpy.dat


timer           timeout 23:50:00 every 1000
New timer settings: style=normal  mode=nosync  timeout=23:50:00

fix 		1 all shake 1e-6 200 0 b 1 a 1
       0 = # of size 2 clusters
       0 = # of size 3 clusters
       0 = # of size 4 clusters
     288 = # of frozen angles
  find clusters CPU = 0.000 seconds
fix             2 all nph iso ${pressure} ${pressure} ${pressureDamp}
fix             2 all nph iso 10000 ${pressure} ${pressureDamp}
fix             2 all nph iso 10000 10000 ${pressureDamp}
fix             2 all nph iso 10000 10000 1000
fix             3 all temp/csvr ${temperature} ${temperature} ${tempDamp} ${seed}
fix             3 all temp/csvr 275.1 ${temperature} ${tempDamp} ${seed}
fix             3 all temp/csvr 275.1 275.1 ${tempDamp} ${seed}
fix             3 all temp/csvr 275.1 275.1 100 ${seed}
fix             3 all temp/csvr 275.1 275.1 100 745823

run             250000
PPPM initialization ...
  extracting TIP4P info from pair style
  using 12-bit tables for long-range coulomb (../kspace.cpp:340)
  G vector (1/distance) = 0.37466545
  grid = 24 24 24
  stencil order = 5
  estimated absolute RMS force accuracy = 0.00311523
  estimated relative force accuracy = 9.3814225e-06
  using double precision FFTW3
  3d grid and FFT values/proc = 3549 432
Last active /omp style is kspace_style pppm/tip4p/omp
Neighbor list info ...
  update every 1 steps, delay 7 steps, check yes
  max neighbors/atom: 2000, page size: 100000
  master list distance cutoff = 10.8154
  ghost atom cutoff = 10.8154
  binsize = 5.4077, bins = 4 4 4
  1 neighbor lists, perpetual/occasional/extra = 1 0 0
  (1) pair lj/cut/tip4p/long/omp, perpetual
      attributes: half, newton on, omp
      pair build: half/bin/newton/omp
      stencil: half/bin/3d
      bin: standard
Per MPI rank memory allocation (min/avg/max) = 10.20 | 10.20 | 10.20 Mbytes
Step Temp PotEng TotEng E_pair E_mol Press Lx Ly Lz Volume Pxx Pyy Pzz Pxy Pxz Pyz Enthalpy 
  250000    290.92373   -3795.7415   -3297.1082   -3795.7415            0     9155.024    16.891985    19.896527    20.608182     6926.242     8904.459    9963.0282    8597.5847    146.85657   -2154.9147    72.800802   -2372.3397 
  251000    269.55877   -3796.5989   -3334.5844   -3796.5989            0    9982.9428     16.91524    19.923919    20.636554    6954.8876    11021.968    11015.113    7911.7476   -1111.7732    -326.2879   -1416.4718   -2322.0155 
  252000    285.21942   -3816.7716   -3327.9153   -3816.7716            0     10712.08    16.847014    19.843557    20.553317      6871.07    10330.781    12598.364    9207.0936   -872.50742    845.49954     26.51471   -2254.4845 
  253000    269.04569   -3795.1053   -3333.9702   -3795.1053            0    9958.5904    16.945087    19.959075    20.672967    6991.7684    9845.0163    9024.1867    11006.568   -566.72508   -160.13573   -479.59223   -2318.5149 
  254000    254.41567   -3830.9155   -3394.8557   -3830.9155            0    9321.7234    16.940529    19.953705    20.667406    6986.1271    9786.1011    8926.3831     9252.686   -441.26022    240.68136    371.44805   -2445.1073 
  255000    287.18604   -3815.9956   -3323.7686   -3815.9956            0    10805.583    16.852549    19.850077     20.56007     6877.845    11979.564    14202.434    6234.7521   -925.60376   -359.86456    1056.2474   -2239.9004 
  256000    294.00049   -3840.7307   -3336.8239   -3840.7307            0    12725.967     16.83887    19.833964    20.543382    6861.1102    12437.643    12881.334    12858.924   -1132.0027   -204.14459    1069.2529    -2063.435 
  257000    281.09114   -3801.0663   -3319.2857   -3801.0663            0    12419.702    16.846138    19.842525    20.552249    6869.9983    11817.241    12156.019    13285.847    1525.0793    689.59931   -1222.9586   -2074.9324 
  258000     282.2454   -3815.7381   -3331.9792   -3815.7381            0    8113.0935    16.909138    19.916731    20.629109    6947.3628    6446.5072    9642.7774     8249.996   -749.84861    712.27302   -640.80711   -2509.9593 
  259000    300.76543   -3836.3708   -3320.8691   -3836.3708            0    11096.714    16.908055    19.915455    20.627787     6946.028    11392.883    10810.057    11087.201    -1559.202   -187.90301   -357.76463   -2196.7643 
  260000    273.61858    -3814.391   -3345.4181    -3814.391            0    10665.488    16.871042    19.871858    20.582631    6900.5114    10818.617     9632.693    11545.153   -787.13217   -1334.2768   -1476.3893   -2272.0766 
  261000     269.0222   -3809.3663   -3348.2715   -3809.3663            0    11490.324    16.868674    19.869069    20.579742    6897.6063    13512.387    10602.057    10356.528    1025.6079    1392.3373    836.17405    -2192.408 
  262000    284.16697   -3801.2083   -3314.1558   -3801.2083            0    10573.743     16.88925    19.893306    20.604846    6922.8782    8377.9961    12858.052     10485.18    -575.6144   -132.26793   -176.40448   -2246.5982 
  263000    275.17313   -3807.9039   -3336.2665   -3807.9039            0    9964.9761    16.915561    19.924297    20.636945    6955.2833    10305.412    10505.298    9084.2177    1302.7357   -546.63064   -358.85745   -2325.4625 
  264000    266.18429   -3833.9274   -3377.6966   -3833.9274            0    11485.873    16.850557     19.84773     20.55764    6875.4063    10613.782    12201.795    11642.041    1524.8528   -13.307611   -1161.8799   -2225.9995 
  265000    269.52853   -3797.8537    -3335.891   -3797.8537            0    11081.374    16.902318    19.908698    20.620789    6938.9607    11512.564    10236.301    11495.258    13.686766    1383.2707    249.84526   -2214.4823 
  266000     277.7029   -3801.2938   -3325.3205   -3801.2938            0    10602.453    16.875627    19.877259    20.588225    6906.1392    11038.449    9970.7023    10798.209   -1331.1835    87.712337    507.64732   -2257.4525 
  267000    284.11923   -3815.6582   -3328.6876   -3815.6582            0    9726.3626     16.86784    19.868087    20.578725    6896.5834    11137.636    9060.5001    8980.9518   -927.80493    -1132.583    222.40243   -2350.4139 
  268000    253.26038     -3797.22   -3363.1404     -3797.22            0    10183.369    16.863647    19.863149     20.57361    6891.4422    8760.0539    10460.076    11329.976   -191.45061    98.945098    1573.2944   -2339.6648 
  269000    266.88756   -3787.7539   -3330.3177   -3787.7539            0    10023.627    16.917664    19.926774    20.639511    6957.8774    10807.912    11643.245    7619.7248    -275.6843   -283.50589   -103.67337   -2313.1851 
  270000     267.8725   -3809.2099   -3350.0857   -3809.2099            0    8139.7296    16.891471    19.895921    20.607555    6925.6092     5893.836    9278.7129    9246.6397    86.839196   -573.25811    324.69584   -2527.9493 
  271000    265.65864   -3805.4828    -3350.153   -3805.4828            0    9955.0206    16.910082    19.917843     20.63026    6948.5266    10442.109    10302.649     9120.304    257.40414    1534.0012    293.48195   -2341.3398 
  272000    284.78932   -3790.8842   -3302.7651   -3790.8842            0    10515.567    16.875251    19.876817    20.587767    6905.6783    10636.476    10832.832    10077.392   -944.54966    357.07257    -372.3757   -2243.7189 
  273000    278.16502   -3843.4199   -3366.6546   -3843.4199            0    10188.431    16.915962    19.924769    20.637434    6955.7778    10242.955     8970.594    11351.743    360.87364    913.74467    347.66636   -2333.1107 
  274000    290.20478   -3782.1097   -3284.7087   -3782.1097            0    10178.481    16.919536    19.928979    20.641795     6960.188    12892.999    9668.1734    7974.2713    49.105447   -286.30841      6.39201   -2251.5195 
  275000    275.05561   -3768.8584   -3297.4225   -3768.8584            0    7822.0105    16.964485    19.981923    20.696633    7015.8075    8243.3953    9238.3537    5984.2824   -2092.3073    1125.3592   -726.19684   -2497.0872 
  276000    289.17924    -3799.673   -3304.0297    -3799.673            0    10636.771    16.901364    19.907575    20.619625    6937.7857    10935.503    11374.976    9599.8337    909.64938    879.76761    440.75982    -2227.796 
  277000    296.35419   -3809.8441   -3301.9031   -3809.8441            0    12323.663    16.803201    19.791952    20.499866    6817.6026    10229.676    13123.542    13617.769    1133.8392     718.7959   -1230.2444   -2076.5892 
  278000     256.7422   -3795.9796   -3355.9323   -3795.9796            0    7683.9091    16.967417    19.985376    20.700209    7019.4452    5376.1162    8477.9067    9197.7043    819.11474    2514.6054    10.887592   -2569.3197 
  279000    269.08971      -3814.3   -3353.0894      -3814.3            0    10829.809    16.877185    19.879095    20.590126    6908.0524    11291.488      11704.4    9493.5386   -896.43716   -974.26298   -1909.7762   -2262.0202 
  280000    281.64901   -3762.7632   -3280.0264   -3762.7632            0    11164.629    16.867614    19.867821     20.57845    6896.3064    15433.641     7671.251    10388.994    60.784571   -358.32946   -700.94186   -2157.1377 
  281000    288.47734   -3741.7579   -3247.3176   -3741.7579            0    10120.532    16.876976    19.878849    20.589872     6907.796    10622.319    10949.821    8789.4564    -965.4273   -2776.3869   -333.93336   -2227.7436 
  282000    288.76885   -3793.0982   -3298.1583   -3793.0982            0    11567.082    16.859802    19.858619    20.568919    6886.7288    9249.4496    12456.484    12995.311   -447.27405   -1475.3931    749.59752   -2136.4083 
  283000    280.85094   -3789.9303   -3308.5614   -3789.9303            0    10372.204    16.920517    19.930134    20.642991    6961.3981    12320.756    10499.594     8296.263    1322.6261   -63.607576    1236.8293   -2255.5249 
  284000    266.27445   -3835.0585   -3378.6732   -3835.0585            0    10799.669    16.957278    19.973434    20.687839    7006.8691    12003.308    10149.976    10245.723    1084.2908    2260.3743     709.6303   -2275.0766 
  285000    266.46155    -3847.704    -3390.998    -3847.704            0    10280.336    16.958478    19.974846    20.689303    7008.3562    9718.1854    9877.6474    11245.177   -1385.2496    1145.9307   -2061.2812    -2340.248 
  286000    264.49693   -3822.1822   -3368.8435   -3822.1822            0    9296.2293    16.938509    19.951326    20.664941    6983.6284    9887.4044    10698.096    7303.1873    1314.4016    980.03153      88.4997   -2422.0313 
  287000    282.26416   -3822.7489   -3338.9578   -3822.7489            0    10351.314    16.941178     19.95447    20.668198    6986.9303    10078.764    11494.299     9480.878    88.355642    259.19045    807.73169   -2284.1878 
  288000    287.25005   -3817.8993   -3325.5626   -3817.8993            0    7884.1454     16.87318    19.874377     20.58524    6903.1356    5688.6251    7930.6838    10033.127    494.38085   -486.07698   -596.21099   -2531.8251 
  289000    278.73376   -3794.8511   -3317.1109   -3794.8511            0    10935.651     16.88055    19.883058    20.594231     6912.185    11125.221    10462.001    11219.731   -1265.0431     -931.976    929.37966   -2214.7194 
  290000    277.13926    -3860.456   -3385.4488    -3860.456            0    10017.235    16.937576    19.950227    20.663803    6982.4744    9436.5604    10812.773    9802.3719   -77.717465   -939.70557    1554.1235   -2365.3714 
  291000    262.45619   -3815.9271   -3366.0862   -3815.9271            0    10443.964    16.908756    19.916282    20.628643    6946.8926    10928.137    10674.129    9729.6245   -340.95559    392.61685    1168.9982   -2307.9737 
  292000    257.55097   -3789.1474   -3347.7138   -3789.1474            0    10363.794    16.876279    19.878028    20.589021    6906.9404    10314.006    10424.983    10352.393    254.61277   -967.14626    919.39968   -2303.7622 
  293000    275.31062   -3789.2657   -3317.3927   -3789.2657            0    8700.3092    16.916685     19.92562    20.638316     6956.669    10610.558    7021.9576    8468.4121    375.73493    1224.6666    262.05276   -2434.6951 
  294000    274.32198   -3790.9884   -3320.8099   -3790.9884            0    10110.075    16.854694    19.852603    20.562688    6880.4718    10174.601    10538.168    9617.4567   -1567.4935    1339.0033     900.6414   -2306.3182 
  295000    254.75135   -3834.1319   -3397.4968   -3834.1319            0    10376.253    16.837338     19.83216    20.541513     6859.238    11723.769    9637.3286      9767.66    1189.7616   -1612.0369    -2253.527   -2359.5089 
  296000    293.84138   -3836.4135   -3332.7794   -3836.4135            0    9175.5779    16.869411    19.869938    20.580642    6898.5111    9835.1859    9685.2153    8006.3323    -417.4809    1762.0408   -874.45809   -2409.6456 
  297000    256.06726    -3780.345   -3341.4545    -3780.345            0    9829.1412    16.843912    19.839903    20.549533    6867.2751    9118.3011    8692.7926     11676.33    512.65393    136.27078   -2597.7644   -2357.0448 
  298000    300.64647   -3830.9156   -3315.6178   -3830.9156            0    10468.691    16.824592    19.817148    20.525964     6843.673    11703.627    11081.994    8620.4513   -348.50648   -86.807977   -547.90212   -2270.7592 
  299000     277.3768    -3834.001   -3358.5867    -3834.001            0    7954.3768    16.926697    19.937413    20.650531    6969.0286    7615.9548    8261.2159    7985.9598    727.28705    1121.9581   -1705.6901   -2550.1346 
  300000    268.30363   -3809.7844   -3349.9212   -3809.7844            0    10760.304    16.902168    19.908521    20.620605    6938.7752    8839.8624    11353.237    12087.814    426.29131   -170.58949    428.07812    -2261.033 
  301000    269.72413   -3790.8258   -3328.5279   -3790.8258            0    10077.585    16.944311     19.95816     20.67202     6990.807    8992.1759     10937.84    10302.737    370.56237    -1921.825   -1583.9456   -2301.0803 
  302000     273.7226   -3818.9925   -3349.8413   -3818.9925            0    10580.734    16.883585    19.886633    20.597935    6915.9146    11547.262     10957.89    9237.0513    891.36995    1590.1742   -467.97351   -2282.6523 
  303000    262.78543   -3805.2213   -3354.8161   -3805.2213            0    10449.815    16.825047    19.817683    20.526518     6844.228    10843.958    10183.699    10321.788   -721.92161    949.19665   -409.69789   -2311.7568 
  304000     270.7849   -3766.9153   -3302.7993   -3766.9153            0     8219.622    16.893421    19.898219    20.609935    6928.0089    6942.9766    10077.752     7638.138    447.64306    1438.4312   -1770.2001   -2472.3059 
  305000    273.17765   -3820.1552   -3351.9381   -3820.1552            0    8532.3953    16.954443    19.970094    20.684381    7003.3555    9722.2433    8172.8423    7702.1004   -463.93707     1378.157   -490.38723   -2480.4669 
  306000    287.20538   -3809.8284   -3317.5682   -3809.8284            0    9740.0974    16.939703    19.952732    20.666398    6985.1051    10034.938    11400.073    7785.2812     1985.043    840.85993    71.002177   -2325.3387 
  307000    278.90233   -3853.1134   -3375.0843   -3853.1134            0    8705.8787    16.945761    19.959869    20.673789    6992.6027    8793.0919    8220.7017    9103.8425    97.985593   -781.41422    262.40469   -2487.2593 
  308000    267.76642   -3818.6389   -3359.6964   -3818.6389            0    9472.0845    16.914952     19.92358    20.636202    6954.5322    8979.7921    11530.489    7905.9725   -279.54515    854.31778   -1855.5675   -2398.9929 
  309000    287.01191    -3849.691   -3357.7624    -3849.691            0    9196.3343     16.87196     19.87294    20.583752    6901.6386    8812.7669     7665.498    11110.738    560.89439    949.20086    18.631526   -2432.1209 
  310000    269.80777    -3856.556   -3394.1147    -3856.556            0    7750.6353    16.885876    19.889331    20.600729    6918.7294    6639.7695    7617.2647    8994.8715   -265.39921    1095.1122    -803.2208   -2612.0557 
  311000    265.56934   -3800.0641   -3344.8873   -3800.0641            0    8719.5194    16.915666     19.92442    20.637073    6955.4128    7032.1477    8558.5537    10567.857    232.32812   -501.06782   -259.58879   -2460.4005 
  312000    253.92404   -3764.7571     -3329.54   -3764.7571            0    13164.259    16.910579    19.918429    20.630867      6949.14     13716.93    14470.228    11305.619    250.51837    1533.6458     541.2624    -1995.394 
  313000    280.51144   -3795.9013   -3315.1143   -3795.9013            0    10734.007    16.950267    19.965176    20.679287    6998.1822    10418.861    11963.629    9819.5307    258.32954    119.32066     1759.679   -2219.5875 
  314000    282.36154   -3827.7935   -3343.8355   -3827.7935            0    10444.425    16.940022    19.953108    20.666787    6985.4997     10361.71    11266.913    9704.6512    1798.1255   -554.77897   -2345.8294   -2279.7957 
  315000    258.38232   -3823.7057   -3380.8472   -3823.7057            0    8899.1651    16.909359    19.916991    20.629378    6947.6351    7554.0118    9896.5772    9246.9062    539.55657   -574.30022    385.33245   -2479.1471 
  316000    277.73548   -3802.3637   -3326.3346   -3802.3637            0    9798.5598    16.888672    19.892624     20.60414    6922.1669    11573.342    9953.8954     7868.442   -716.74708     656.7291   -478.57551   -2337.1435 
  317000    268.01276   -3824.4125   -3365.0478   -3824.4125            0    9780.7389     16.93382    19.945804    20.659221    6977.8309    8820.9432    10399.166    10122.107    1064.0668    2157.9927   -1050.1909   -2369.7157 
  318000    266.55383   -3802.3226   -3345.4585   -3802.3226            0    9130.3117     16.91172    19.919772    20.632258    6950.5457    9934.7951    9255.6485    8200.4916    705.68861    1156.3324    836.09895     -2419.95 
  319000    269.97465    -3822.785   -3360.0577    -3822.785            0    10376.722    16.877251    19.879173    20.590207    6908.1339    10917.693    11117.059     9095.415   -111.52504    1242.1407   -1346.8966   -2314.6231 
  320000    279.19582   -3813.5627   -3335.0306   -3813.5627            0    7078.9424    16.949846     19.96468    20.678773    6997.6604    5412.8587    7473.4192    8350.5494   -72.925492    81.649053    253.22246   -2612.5984 
  321000    277.76734   -3804.9394   -3328.8557   -3804.9394            0    11343.861    16.852901    19.850491    20.560499    6878.2754     10399.05    10752.013     12880.52    760.26281    -36.41048   -159.33571   -2190.9235 
  322000    291.24907    -3772.561     -3273.37    -3772.561            0    8253.5692    17.003439    20.027805    20.744156    7064.2473    8042.6319    7527.5537    9190.5221   -1173.1069   -425.99625    595.85838   -2423.0477 
  323000    259.90282   -3817.6991   -3372.2346   -3817.6991            0    10339.997    16.891868    19.896389     20.60804    6926.0981    10907.088    11426.429    8686.4757   -562.61535   -1890.1285    1617.0547   -2327.7911 
  324000    282.22064   -3819.9317   -3336.2152   -3819.9317            0     9958.753    16.921597    19.931406    20.644309    6962.7312    8262.0077    10901.966    10712.285    79.735267    654.06933     183.1188   -2324.9607 
  325000    273.38071    -3792.052   -3323.4868    -3792.052            0    12763.786    16.896197    19.901489    20.613321    6931.4248    11169.594    12625.203    14496.561   -182.83563    1181.1108    1757.6188   -2033.2248 
  326000    268.92327   -3794.1281   -3333.2029   -3794.1281            0    9479.8864    16.900196    19.906198    20.618199    6936.3468    7927.3664    11093.014    9419.2792    1949.8746   -84.414748    615.41313   -2374.2223 
  327000    265.90404   -3810.8038   -3355.0534   -3810.8038            0    10831.001    16.817848    19.809203    20.517735     6835.446    10845.705    10901.487     10745.81    413.24285    194.37215   -182.71401    -2275.333 
  328000    280.20001   -3772.3069   -3292.0537   -3772.3069            0    10146.515     16.93015    19.941481    20.654744    6973.2948    11177.462    9536.6909    9725.3911    1078.8368    771.54957    2498.0497   -2260.1699 
  329000    275.31565   -3820.9866    -3349.105   -3820.9866            0    9654.5916    16.928323    19.939328    20.652514    6971.0366    9089.9015    10595.297    9278.5758    1232.7094    1704.4569   -1356.8149   -2367.5669 
  330000    295.68181   -3822.9359   -3316.1474   -3822.9359            0    10919.837    16.900937    19.907072    20.619104    6937.2599    10245.058    11980.803    10533.651   -779.16343   -512.83726    885.00811   -2211.3566 
  331000    276.05147   -3830.7152   -3357.5725   -3830.7152            0     9263.873    16.939351    19.952318    20.665969    6984.6704    10001.053    8200.9714    9589.5941     384.6489     206.9172   -147.05353   -2413.9149 
  332000    274.83499   -3854.7505   -3383.6927   -3854.7505            0    10265.049    16.973174    19.992158    20.707233    7026.5932    10107.849    10308.154    10379.145   -437.98928   -245.42503   -85.186088    -2331.775 
  333000    261.12249   -3799.7438   -3352.1888   -3799.7438            0    8667.8332    16.984942    20.006018     20.72159    7041.2182     7270.427    9405.9208    9327.1517   -407.72783   -8.1572792    454.05416   -2462.0982 
  334000    287.20246    -3776.124   -3283.8688    -3776.124            0    7392.3831    17.030749    20.059973    20.777474    7098.3409     6985.901     6743.352    8447.8962   -1444.8034    1015.6443   -1139.1058   -2518.5944 
  335000    278.44064   -3811.2043   -3333.9666   -3811.2043            0    10073.113    16.880463    19.882955    20.594125    6912.0779    11123.591    11281.587    7814.1596    285.31818    388.98404    868.83633   -2318.5408 
  336000    277.84813   -3811.2033   -3334.9811   -3811.2033            0    9863.9411    16.894708    19.899734    20.611504    6929.5918    13444.839    7584.4294    8562.5545   -749.06711    1097.2681   -519.85916   -2338.1215 
  337000    272.80621   -3822.0857   -3354.5052   -3822.0857            0    10053.247    16.867348    19.867508    20.578125    6895.9798     10101.87    9101.9642    10955.905    385.39006    1245.7872   -2238.9076   -2343.4422 
  338000    294.12761   -3812.9316   -3308.8069   -3812.9316            0    10632.112    16.897583    19.903121    20.615012    6933.1307    9760.3443    13168.776    8967.2168   -528.05985   -534.09124   -945.69032   -2233.7664 
  339000    267.59115   -3848.7702   -3390.1282   -3848.7702            0    10755.043    16.887458    19.891195    20.602659    6920.6745    11815.394    10623.892    9825.8439   -880.66678   -2527.1153     864.9732   -2304.6116 
  340000    272.66272   -3822.3865   -3355.0519   -3822.3865            0    10897.922     16.88092    19.883494    20.594683    6912.6394    9450.2872    11390.488    11852.992    -179.1738    418.27225    976.26542   -2256.3914 
  341000    277.88494   -3880.6501   -3404.3648   -3880.6501            0    10465.761    16.890451     19.89472    20.606311    6924.3548    10750.162    9244.0446    11403.077    714.85636   -21.213173    1207.8256    -2347.484 
  342000    271.07503   -3815.0911   -3350.4778   -3815.0911            0    12348.801    16.869848    19.870453    20.581176    6899.0474     12498.78    11978.746    12568.879    74.216462   -1290.6853    848.96991   -2107.9966 
  343000    275.11865   -3852.5684   -3381.0245   -3852.5684            0    10177.224     16.84786    19.844554     20.55435    6872.1062    8993.8723    11740.358    9797.4405    1288.6971    173.10686    517.88043   -2361.0365 
  344000    265.93225   -3849.2428    -3393.444   -3849.2428            0    8811.1225    16.908394    19.915855    20.628202    6946.4464    10390.061    8230.4164    7812.8905    919.01214    574.26954    30.488779   -2500.8174 
  345000    268.05379   -3838.2178   -3378.7828   -3838.2178            0    10436.446    16.909294    19.916915    20.629299    6947.5556    10068.613    11131.134    10109.592    744.34094    41.234064   -32.814575   -2321.3311 
  346000    284.06821   -3806.9119   -3320.0287   -3806.9119            0    8967.0537    16.966121    19.983849    20.698628    7017.8364    8296.8514     10138.38    8465.9293   -1010.3236    175.43449    777.35208   -2402.2691 
  347000    275.16318   -3788.9978   -3317.3775   -3788.9978            0    7571.9269    16.961523    19.978434    20.693019    7012.1333    8407.3137     6590.688     7717.779   -9.2863931   -446.58762   -1147.8759   -2543.0361 
  348000    281.29835   -3869.3995   -3387.2637   -3869.3995            0    7908.0572    16.964803    19.982297     20.69702    7016.2019    8018.7182    8686.6097    7018.8437    412.47996    919.42347    1496.4407   -2578.0788 
  349000    280.18414   -3826.1686   -3345.9425   -3826.1686            0    7996.0626     16.88504    19.888347     20.59971    6917.7028    7945.7918    8271.6708    7770.7252    2504.6673   -561.29468   -1722.6442    -2539.239 
  350000    271.52347   -3813.6051   -3348.2232   -3813.6051            0    11130.398    16.877375    19.879318    20.590358    6908.2854     11009.18     12059.89    10322.126   -1429.3404    138.66379   -455.99077   -2226.8327 
  351000    270.66315   -3824.7162   -3360.8089   -3824.7162            0    9749.0642    16.916893    19.925865    20.638569    6956.9256    10951.807    7852.5587    10442.827   -273.75206   -456.11745   -282.88095   -2371.6725 
  352000    291.66616   -3808.5595   -3308.6537   -3808.5595            0    9840.8056    16.994984    20.017846    20.733841    7053.7144    7225.0109    10542.639    11754.767    -595.4215    1056.8614    1133.9985   -2296.3183 
  353000    268.56674   -3785.7786   -3325.4644   -3785.7786            0    9677.3625    16.936259    19.948676    20.662196    6980.8453     8084.369    10292.124    10655.595    639.95598   -1640.9454    372.40532   -2340.2269 
  354000    276.13433   -3829.6428    -3356.358   -3829.6428            0    9851.3416    16.862571    19.861881    20.572297    6890.1227    10908.396    9038.5743    9607.0544   -1069.2758   -312.46202    1011.9782   -2366.4423 
  355000    281.18563    -3802.737   -3320.7944    -3802.737            0    7793.4995    17.013603    20.039777    20.756556    7076.9232     7569.699    6992.0279    8818.7717   -1380.1123   -1413.9501   -683.95959     -2516.43 
  356000    254.23927   -3793.2044    -3357.447   -3793.2044            0    9977.2528    16.940552    19.953733    20.667434    6986.1562    8984.9691    10745.705    10201.084    211.28193    201.98058   -399.74228   -2340.9054 
  357000    275.39099   -3849.5203   -3377.5095   -3849.5203            0    9726.3662    16.918563    19.927832    20.640607    6958.9864    8839.3577    12402.239    7937.5025    865.76156    996.58301    971.10658   -2390.3837 
  358000    274.54436   -3809.3727   -3338.8131   -3809.3727            0    7930.0971    16.970135    19.988578    20.703525    7022.8195    8453.5102     7543.423    7793.3582    919.47162    -595.8881    899.04515   -2526.6076 
  359000    282.15593   -3827.7574   -3344.1518   -3827.7574            0    9308.6596    16.931036    19.942524    20.655825    6974.3897    8420.3875    11797.062    7708.5292    203.84986    1105.1869    928.81231   -2397.3278 
  360000    269.09441   -3809.4599   -3348.2413   -3809.4599            0    8899.6545    16.946541    19.960787     20.67474    6993.5677    8781.1739    9299.5302    8618.2593    1727.8865    583.65088    158.94421   -2440.5299 
  361000    274.31636   -3819.8666   -3349.6978   -3819.8666            0    8342.4857    17.018326     20.04534    20.762318    7082.8186    8101.2701    8298.5826    8627.6044    2114.2651     641.7057   -1515.0913   -2487.9553 
  362000    261.63393   -3796.7847   -3348.3531   -3796.7847            0    9490.9656    16.984773     20.00582    20.721384    7041.0084    9653.1078     8898.655    9921.1342   -357.50506   -1170.7114    893.10202   -2373.7648 
  363000     267.5288    -3782.715   -3324.1798    -3782.715            0    10281.392    16.918305    19.927528    20.640292    6958.6683    10497.583    9040.8573    11305.736    2134.2227   -2596.5398   -320.50119   -2280.7723 
  364000    274.15052   -3763.0573   -3293.1727   -3763.0573            0    11224.547    16.915829    19.924612    20.637271    6955.6131    12146.235    9783.4162    11743.989   -1723.8021   -988.15814   -982.47972   -2154.5493 
  365000    286.14827   -3817.2242   -3326.7759   -3817.2242            0    7257.0923    17.026814    20.055338    20.772673    7093.4214    8246.9803    7205.9605    6318.3362    444.92732   -2975.0073    961.61752   -2576.0277 
  366000    266.50795   -3833.4584   -3376.6729   -3833.4584            0    9012.0498    16.973209    19.992198    20.707276    7026.6364     10096.99     7587.211    9351.9479    802.20021   -33.212079   -395.31407   -2453.1515 
  367000    266.49964     -3847.74   -3390.9687     -3847.74            0    8755.4025    16.949476    19.964244    20.678321    6997.2023    10398.201     6513.478     9354.528    1704.0285   -813.49165    889.90307    -2497.506 
  368000    262.80953   -3836.7819   -3386.3354   -3836.7819            0    9438.8443    16.957824    19.974076    20.688505    7007.5455    9714.3871    9135.3099     9466.836   -277.93466   -1423.2323   -1877.6269   -2421.7057 
  369000    281.07024   -3836.4759   -3354.7311   -3836.4759            0    9778.8799    16.931269    19.942798    20.656109    6974.6773    10749.687    9590.9989     8995.954    1179.2928    77.021436   -705.85896    -2360.038 
  370000    262.37484   -3791.6614   -3341.9599   -3791.6614            0    11549.246    16.873575    19.874842    20.585722    6903.6202    11570.268    11955.896    11121.573    501.48013    1290.1024   -453.89614   -2179.1563 
  371000    279.56716   -3854.4421   -3375.2735   -3854.4421            0    11137.298     16.90564    19.912611    20.624841     6943.052    10888.046    10610.643    11913.205    1364.5421     234.5762   -2532.3396   -2247.5409 
  372000    283.52432   -3773.7323   -3287.7813   -3773.7323            0    8279.1238    16.910858    19.918757    20.631207    6949.4834    9135.0338    7004.3165    8698.0211   -170.53392   -257.79027   -1624.8057   -2448.6831 
  373000    265.35633   -3817.6881   -3362.8765   -3817.6881            0    10406.677    16.853955    19.851733    20.561786    6879.5669    10172.498    10314.426    10733.107   -542.80455    1224.9515    664.55501   -2318.7597 
  374000    288.82018   -3809.5439    -3314.516   -3809.5439            0    10848.904    16.910776    19.918661    20.631107    6949.3825    11565.088    11029.914    9951.7104    -525.0616    579.68342    1083.5987   -2214.9837 
  375000    281.12829   -3777.0775   -3295.2332   -3777.0775            0    10734.461     16.96359    19.980868     20.69554    7014.6965    11133.165    11600.901    9469.3176    334.92126   -561.36857    1807.0976   -2197.0747 
  376000    283.92822   -3799.8401   -3313.1968   -3799.8401            0    10305.972    16.907704    19.915042     20.62736     6945.596     12891.16    7684.0297    10342.727    213.36819    120.06003   -1061.6246   -2269.2596 
  377000    281.35532    -3803.492   -3321.2587    -3803.492            0    10503.396    16.925596    19.936117    20.649188    6967.6693    8577.5253    12813.865    10118.798     600.0868    -464.0516   -809.33855   -2253.9423 
  378000    290.27023    -3809.272   -3311.7588    -3809.272            0    10295.346    16.882371    19.885203    20.596453    6914.4224    11778.702    10821.478    8285.8565   -1001.5186   -1021.6914    807.43824   -2273.5786 
  379000    287.11008   -3798.5786   -3306.4817   -3798.5786            0    9227.6539    16.872353    19.873404    20.584232    6902.1212    10167.532    9363.9902    8151.4397    276.85218   -189.95715    -1376.228   -2377.6228 
  380000    255.90408   -3809.6235   -3371.0127   -3809.6235            0    9568.6464    16.909233    19.916843    20.629225    6947.4805    10185.083     10874.73    7646.1259   -447.27685   -2405.9033   -1000.7091   -2401.4995 
  381000     268.1357    -3826.771   -3367.1956    -3826.771            0    10189.316    16.888594    19.892534    20.604046     6922.072    11160.625    8509.6982    10897.626     227.0565    236.24425    97.999732   -2338.5707 
  382000    277.71512   -3783.9681   -3307.9739   -3783.9681            0     9725.338    16.957069    19.973187    20.687584    7006.6099    9308.1837    10515.034    9352.7963   -886.57884      2167.51    752.39306   -2314.1978 
  383000    278.76299   -3844.7439   -3366.9537   -3844.7439            0    8928.4674    16.937549    19.950195     20.66377    6982.4407    8226.1208    7948.5326    10610.749   -581.39973   -1542.9479   -1102.8403   -2457.7524 
  384000    265.09022   -3834.0092   -3379.6536   -3834.0092            0    8783.7098    16.867701    19.867924    20.578556    6896.4129    7947.8641    11071.218    7332.0475   -689.19894   -460.01045   -841.18016   -2496.2135 
  385000    266.56757   -3848.5148   -3391.6271   -3848.5148            0    9589.9829     16.90504    19.911904    20.624109    6942.3127    9702.2329    10543.876    8523.8399   -866.38847    -1175.719   -1299.6212   -2420.6748 
  386000    268.01354   -3791.8746   -3332.5086   -3791.8746            0    12278.924    16.886914    19.890554    20.601995    6920.0055    12611.548    11725.409    12499.816   -1572.2688   -523.75819   -907.67747   -2093.3051 
  387000    263.46423   -3823.7481   -3372.1795   -3823.7481            0    8081.0035    16.986024    20.007292    20.722909    7042.5635      7259.98    7936.0291    9047.0016    40.620194   -103.50856    1766.6348   -2542.1912 
  388000     282.1967   -3822.6814   -3339.0059   -3822.6814            0    9264.3589    16.923918     19.93414     20.64714    6965.5966    8375.5132    8023.1857    11394.378   -828.32073   -2307.9095   -1058.7302    -2397.876 
  389000    265.23611   -3868.5452   -3413.9396   -3868.5452            0     9994.854    16.858467    19.857048    20.567291    6885.0938    11320.513    10746.537    7917.5125    799.76163   -221.84239   -435.97508    -2410.336 
  390000    272.43394   -3832.5907   -3365.6483   -3832.5907            0    10267.459    16.855142    19.853131    20.563234    6881.0208    8980.9785    9501.0081    12320.391   -604.31939   -163.85225    784.16658   -2335.2817 
  391000    251.80028    -3821.681    -3390.104    -3821.681            0    9649.0149    16.891663    19.896148     20.60779    6925.8461    8647.6487    9689.6484    10609.748   -268.41208   -226.08964    -146.3552   -2415.4921 
  392000    259.43775   -3809.9781   -3365.3107   -3809.9781            0    8663.8735    16.927961    19.938902    20.652073    6970.5899    10700.622    8533.7449    6757.2537    619.54287    -599.2248    1787.0303   -2484.5508 
  393000    268.60309   -3831.0085    -3370.632   -3831.0085            0    8802.2372    16.953305    19.968754    20.682992    7001.9449    9053.0837    8766.7811    8586.8468   -912.74821   -327.76836    360.39333   -2471.7811 
  394000    269.63411   -3813.1092   -3350.9656   -3813.1092            0    7575.9904    16.961463    19.978363    20.692946    7012.0587    5839.7987    7346.2288    9541.9435   -584.78463   -442.38579    49.177359   -2576.2169 
  395000     278.2359   -3799.0633   -3322.1765   -3799.0633            0    10829.887     16.89899    19.904779    20.616729    6934.8627    11836.156    8281.8964    12371.609   -604.45504   -2227.1234    1939.7011   -2226.8649 
  396000    262.95004   -3821.4112   -3370.7238   -3821.4112            0    10740.103    16.902332    19.908714    20.620805    6938.9771    12115.864    11919.068    8185.3785   -1490.8398   -802.23586   -1263.4727   -2283.8483 
  397000     251.4392   -3824.5332    -3393.575   -3824.5332            0    9307.4937    16.908714    19.916232    20.628592     6946.841    10116.822    8937.1416    8868.5175    310.40194    497.82446    243.39127   -2450.6091 
  398000    257.28559   -3831.1018   -3390.1231   -3831.1018            0     11486.29    16.847967    19.844679     20.55448    6872.2363    9866.3196    13107.251      11485.3    736.16105    1495.9697   -705.69476   -2238.9152 
  399000    275.30643   -3789.7016   -3317.8358   -3789.7016            0    10286.461    16.859726     19.85853    20.568826    6886.6359    11569.219    9993.6498    9296.5137    744.49983   -717.36487    663.55951   -2284.7201 
  400000    270.58601   -3831.9148   -3368.1396   -3831.9148            0    11412.043     16.87649    19.878276    20.589278     6907.199     12026.42    13642.161    8567.5471    -233.8192    250.19733   -521.65932   -2218.5542 
  401000    276.40719   -3837.6078   -3363.8553   -3837.6078            0     7559.464    16.974831    19.994109    20.709254     7028.651    7497.6413     8282.361    6898.3897   -454.46677   -1040.7612    414.47116   -2588.9674 
  402000    252.83784    -3820.191   -3386.8356    -3820.191            0    10190.422    16.937689     19.95036    20.663941    6982.6138    8732.0766    11156.122    10683.068     1441.776   -802.24484     1869.502   -2349.1015 
  403000    264.45344   -3783.0571   -3329.7929   -3783.0571            0    10715.059    16.879936    19.882335    20.593482    6911.4307    12362.862    9802.9739    9979.3401    1762.8318    293.14458    227.27256   -2249.7565 
  404000    269.80756   -3838.6675   -3376.2266   -3838.6675            0     10573.07    16.838022    19.832966    20.542348    6860.0741    12463.025    8461.2998    10794.887   -1172.9198     1755.489    593.98653   -2318.4211 
  405000    276.64712   -3842.6737     -3368.51   -3842.6737            0    8400.6095    16.916002    19.924817    20.637484    6955.8276    8027.9261     7349.201    9824.7013     699.8308   -926.33922    145.75787   -2516.3219 
  406000    266.96092   -3824.7544   -3367.1925   -3824.7544            0    10059.406    16.880074    19.882497    20.593651    6911.6003    10829.644    9783.8673    9564.7069   -891.65037    331.98359    90.075745   -2353.2185 
  407000    262.42732   -3814.0594    -3364.268   -3814.0594            0    7229.7245    16.964495    19.981935    20.696645    7015.8198    5536.9344    9413.3215    6738.9177    -463.0803    422.43208   -1090.6519   -2624.5332 
  408000    262.37939   -3822.2219   -3372.5126   -3822.2219            0    8860.4497    16.959185    19.975679    20.690166     7009.233     9899.174    7218.5193    9463.6558   -367.80897    2892.2432    34.952499   -2466.7755 
  409000    273.04669   -3831.2486   -3363.2559   -3831.2486            0    11270.665     16.91277    19.921009     20.63354    6951.8405    11000.678    11458.655    11352.662   -184.20502   -130.14402    857.77476   -2220.5743 
  410000    281.12152   -3792.7487   -3310.9161   -3792.7487            0    11840.964    16.888772    19.892743    20.604263    6922.2904    10984.714    13046.273    11491.905   -1726.2902   -1609.2858    782.07004   -2115.5174 
  411000    257.58717    -3816.912   -3375.4165    -3816.912            0    9732.8256    16.872022    19.873013    20.583827    6901.7145    8683.3768    8531.1249    11983.975   -630.62797   -1482.3643   -292.72835   -2395.7645 
  412000    272.36096   -3832.2952   -3365.4778   -3832.2952            0    8507.9009    16.882573    19.885441    20.596699    6914.6703    7944.6463    8899.0038    8680.0525   -884.79725    425.45924   -779.88343   -2507.5124 
  413000    280.66294   -3819.9526   -3338.9059   -3819.9526            0    10237.645    16.873164    19.874358    20.585221    6903.1159    9844.6289    10966.151    9902.1552    346.11478    969.87043    -1120.699   -2308.2324 
  414000    275.26525     -3848.15   -3376.3548     -3848.15            0    8899.8842    16.918425     19.92767    20.640439    6958.8168    9569.8027    9088.9923    8040.8575   -170.96543   -875.23832   -410.50742   -2473.1304 
  415000    263.02278   -3821.0558   -3370.2438   -3821.0558            0    8472.9804    16.904659    19.911456    20.623645     6941.844    8359.1243     9209.332    7850.4848    576.97969    1373.8282    130.39068    -2512.442 
  416000    279.96955   -3830.7402    -3350.882   -3830.7402            0    10124.531    16.836127    19.830734    20.540036    6857.7583    11303.964    11204.211    7865.4195    281.56965   -982.19522    -76.83323   -2338.2935 
  417000    251.83808   -3829.9791   -3398.3373   -3829.9791            0     7409.397    16.946155    19.960332     20.67427      6993.09    9382.8904    6912.0961    5933.2044    27.497474    524.73781   -852.27821   -2642.6748 
  418000    298.89023   -3817.6673   -3305.3797   -3817.6673            0    11399.769    16.848992    19.845887    20.555731    6873.4909    10785.798    11205.834    12207.676   -250.82687    1416.5438   -359.15617   -2162.6348 
  419000    284.92915   -3796.1766   -3307.8178   -3796.1766            0    10425.469    16.886716    19.890321    20.601755    6919.7631    8804.5932    9831.3988    12640.416    108.28157    293.64027   -591.00513    -2255.704 
  420000    262.73547   -3792.7797     -3342.46   -3792.7797            0    8722.8176     16.98969     20.01161    20.727382    7047.1243    7093.9105    7555.6228     11518.92    814.10543    697.07815   -963.43207   -2445.9718 
  421000    267.20909   -3831.2869   -3373.2997   -3831.2869            0    9473.2955    16.975874    19.995337    20.710526    7029.9462    9945.1836    9121.3811    9353.3218    -470.3968   -210.42803    500.77378   -2402.0543 
  422000    290.37056    -3840.468   -3342.7828    -3840.468            0    9742.3801    16.840748    19.836177    20.545673    6863.4065    9894.6489    9341.8942    9990.5971   -1240.9829   -188.65872   -233.62806   -2367.6121 
  423000    275.52793   -3842.2705   -3370.0251   -3842.2705            0    10809.806    16.842668    19.838438    20.548016    6865.7543    10493.328     10794.32     11141.77    138.69234    1591.5173    460.20664   -2287.6394 
  424000    269.16246   -3853.2267   -3391.8915   -3853.2267            0    12599.079    16.853458    19.851148     20.56118    6878.9585    14003.822    12100.381    11693.034   -379.89389    263.27628    1135.3577   -2127.9197 
  425000    282.34118   -3846.4882   -3362.5651   -3846.4882            0     9230.945    16.941268    19.954576    20.668308    6987.0419    8390.5667    11316.634     7985.634    449.44017    344.89727    2111.9387   -2421.9425 
  426000     271.2851   -3845.6102   -3380.6369   -3845.6102            0    10945.543    16.844936     19.84111    20.550783    6868.5282    10965.296    10621.249    11250.085   -744.29345   -1438.6657    -1076.726    -2284.217 
  427000    291.54028   -3850.2543   -3350.5642   -3850.2543            0    8764.5536    16.905195    19.912086    20.624298    6942.5037    8880.2743    8319.3852    9094.0015    1049.0679    1767.1299    620.31326   -2463.1593 
  428000     288.4318   -3834.7064   -3340.3442   -3834.7064            0    8747.3355    16.915316    19.924008    20.636646    6954.9812    9347.2601    8335.2731    8559.4735    1356.4056     819.4065   -590.64305   -2453.0908 
  429000    266.67046   -3844.5857   -3387.5217   -3844.5857            0    7686.0908    16.957129    19.973258    20.687658    7006.6849    8452.0895     7867.507     6738.676   -790.28283   -1968.3527   -441.17021   -2602.1161 
  430000    265.74085   -3817.0857    -3361.615   -3817.0857            0    9765.3822    16.878465    19.880602    20.591688    6909.6239    10499.944     10582.65    8213.5523    518.45446    854.93208   -1779.8497   -2377.5596 
  431000    273.70335    -3816.098   -3346.9798    -3816.098            0    9659.5906     16.99822    20.021658    20.737789    7057.7449    9136.1346    11973.768    7868.8695    1847.7299    -1287.296    1003.4613   -2352.7184 
  432000    278.52269   -3777.6593   -3300.2809   -3777.6593            0    10560.264    16.922004    19.931885    20.644805    6963.2332    9361.0215    11075.753    11244.017   -158.52665    -487.7008    2241.8876   -2227.8691 
  433000    256.77512   -3792.8735   -3352.7697   -3792.8735            0    11169.136    16.886791     19.89041    20.601846    6919.8552    9490.9263    10938.032    13078.449   -1056.5913   -568.05871   -328.82293   -2225.5918 
  434000    275.41686   -3833.2349   -3361.1798   -3833.2349            0    10792.593    16.887715    19.891497    20.602973    6920.9904    10128.287    10203.933    12045.559    493.34094    2424.5191   -832.96774   -2271.8235 
  435000    277.05235   -3797.9269   -3323.0687   -3797.9269            0    10057.293    16.926718    19.937438    20.650556    6969.0542    9923.8336    11059.918    9188.1258   -1089.0838    786.53953   -647.15974   -2300.8806 
  436000    271.13528   -3756.9045   -3292.1879   -3756.9045            0    10372.875    16.882385    19.885219     20.59647    6914.4391    12368.349    9968.7332    8781.5427    579.56557    435.23952   -56.787337   -2246.1872 
  437000    274.60471   -3827.6682   -3357.0051   -3827.6682            0    9264.4967    16.872922    19.874073    20.584925    6902.8187    9102.4612    10483.375    8207.6535   -123.86333   -536.29929   -1019.8801   -2424.3433 
  438000    280.26941   -3784.4141   -3304.0419   -3784.4141            0    10603.726    16.846449    19.842891    20.552628    6870.3787    9911.8234    11452.431    10446.924    1006.3331    1747.5279    1901.0517   -2241.5759 
  439000    263.78046   -3829.2459   -3377.1352   -3829.2459            0    9647.1259    16.844376     19.84045      20.5501    6867.8434    9930.1147    10933.336    8077.9268    1088.9147     1198.337   -251.00793   -2410.8747 
  440000    284.87732   -3793.3992   -3305.1292   -3793.3992            0    10825.244    16.919207    19.928591    20.641393     6959.781    8702.1903    10467.351    13306.189   -971.65883   -142.70752   -1324.0787   -2206.3533 
  441000    278.84357   -3813.1606   -3335.2323   -3813.1606            0    8033.3945    16.926925    19.937681    20.650809    6969.3098    8768.2334     8460.542    6871.4081    1273.2814     85.44333     118.5722   -2518.7162 
  442000    277.09361   -3820.1153   -3345.1863   -3820.1153            0     10049.36    16.903523    19.910117    20.622258    6940.4439    9316.2968    9702.8759    11128.907   -628.05579   -917.60093     1966.587   -2327.9976 
  443000    285.33724   -3816.1051   -3327.0468   -3816.1051            0    11501.695    16.888463    19.892379    20.603886    6921.9109    9766.7222    11900.511    12837.851    777.65222    1007.0426    -11.25415   -2165.9626 
  444000    291.21918   -3833.1728   -3334.0331   -3833.1728            0    7103.5425    17.032939    20.062553    20.780146    7101.0795    6178.8265     6613.229     8518.572   -916.44362   -1815.3448    114.32496   -2598.3763 
  445000    287.15886   -3839.8221   -3347.6416   -3839.8221            0    9432.9105    16.878277    19.880381    20.591459    6909.3937    10753.943    8370.1624    9174.6261   -919.62331   -636.12241    836.40971    -2397.121 
  446000    267.91894    -3811.576   -3352.3721    -3811.576            0    7903.2666     16.96508    19.982623    20.697358    7016.5449     8437.397     6175.731    9096.6717    482.25111    1976.3434   -198.43561   -2543.6379 
  447000    266.16415   -3783.6814   -3327.4852   -3783.6814            0    8958.4259    16.934363    19.946443    20.659883    6978.5015    9782.6702    7148.3401    9944.2673    399.13411    558.32192   -1651.4448   -2415.7478 
  448000    270.99455   -3774.5115   -3310.0361   -3774.5115            0    9923.4325    16.927436    19.938283    20.651432    6969.9412    9704.0762    9329.2541    10736.967   -83.421243     1077.357   -708.53934   -2301.3247 
  449000    281.86759   -3799.1895   -3316.0781   -3799.1895            0    10020.175    16.923793    19.933993    20.646988    6965.4422    10987.612    12146.143    6926.7703    378.03727   -951.49144    912.29071   -2298.1904 
  450000    271.74309    -3795.276   -3329.5177    -3795.276            0    11101.721    16.918267    19.927484    20.640246    6958.6214    10947.444    13882.503    8475.2153    221.72984   -201.66703    -1610.586   -2202.8667 
  451000    272.40979   -3800.7278   -3333.8267   -3800.7278            0    9763.1301    16.901519    19.907756    20.619813    6937.9756    10034.039    10816.795    8438.5565   -620.24561    769.61616    539.23042   -2345.9614 
  452000    270.93052   -3785.9413   -3321.5757   -3785.9413            0    8314.7204    16.943356    19.957036    20.670855    6989.6258    7001.2208    10766.615    7176.3257     209.7236    932.54716    279.34806    -2474.002 
  453000    260.55029   -3816.8988   -3370.3245   -3816.8988            0    10164.062    16.886005    19.889484    20.600887    6918.8889    9332.4251    11877.882    9281.8796   -1050.3889    1171.6549    120.36644   -2344.7208 
  454000    262.56615   -3802.8279   -3352.7985   -3802.8279            0    10020.238    16.881938    19.884694    20.595925     6913.891    10554.491    8834.4269    10671.795     690.5088   -594.82619    341.02622   -2342.4378 
  455000    264.05721   -3809.7912   -3357.2062   -3809.7912            0    12331.892    16.797957    19.785775    20.493469    6811.2217    15100.278    12637.015    9258.3826   -705.46775    1132.9353   -116.45245   -2132.2216 
  456000    263.59867   -3814.6052   -3362.8061   -3814.6052            0    11724.958    16.848367    19.845151    20.554969    6872.7264    11471.272    12538.016    11165.587   -110.40493    -343.2814   -107.00425    -2187.594 
  457000    277.05288   -3834.3608   -3359.5016   -3834.3608            0    10203.965    16.879484    19.881803    20.592931    6910.8758     11383.39    9275.5052    9952.9984    570.05194    507.04825    280.78602   -2331.0641 
  458000    267.79395    -3792.273   -3333.2833    -3792.273            0    12146.438    16.863393     19.86285      20.5733    6891.1306    12037.666    10600.011    13801.638    1145.9553    1502.8686    -347.4682   -2112.5654 
  459000    281.95181   -3857.3727   -3374.1169   -3857.3727            0    7455.7109    16.920674    19.930319    20.643183    6961.5922    6677.6898    7009.6726    8679.7704    1362.3335    -948.7923     -396.805   -2617.1559 
  460000     273.6045   -3800.6773   -3331.7286   -3800.6773            0    9515.3484    16.893572    19.898397    20.610119    6928.1945    10855.579    9214.9729    8475.4936    1615.3643   -12.194583   -266.43999    -2370.292 
  461000     271.0002   -3853.1626   -3388.6775   -3853.1626            0    9095.4425    16.860268    19.859169    20.569487       6887.3    10919.671    8559.2931    7807.3634    1570.7218   -1143.2117   -1345.5134    -2475.093 
  462000    264.63849   -3809.7514   -3356.1701   -3809.7514            0    11862.492    16.773872    19.757406    20.464085    6781.9653    11501.326    11502.457    12583.692    964.53018    907.21924    -170.1739   -2182.8746 
  463000    278.55365   -3836.4737   -3359.0423   -3836.4737            0     7107.461    16.916034    19.924853    20.637522    6955.8661    7564.4438    7829.3104    5928.6287    -435.3822    1605.5034     665.1477   -2638.0318 
  464000    273.23464   -3851.3781   -3383.0633   -3851.3781            0    9652.4815    16.896639    19.902009     20.61386    6931.9683     9275.141    10507.532    9174.7718    1479.7388    1128.7805    750.89562   -2407.2394 
  465000    264.20681   -3893.9674    -3441.126   -3893.9674            0    9998.2168    16.858749     19.85738    20.567635     6885.439    11110.591     9353.676     9530.383   -151.73369    1099.0412   -1315.3973   -2437.1344 
  466000    257.38586   -3821.0276   -3379.8771   -3821.0276            0    9369.2275    16.923421    19.933554    20.646534    6964.9827    8435.2828    9858.4522    9813.9474    862.01977   -1303.1411    732.84941   -2428.1779 
  467000      263.834   -3859.3968   -3407.1943   -3859.3968            0    9259.7092    16.876356    19.878118    20.589115    6907.0342    8303.7254    10788.775    8686.6267    266.18647   -377.97424   -262.35221   -2474.4452 
  468000    279.46197   -3812.7016   -3333.7133   -3812.7016            0    12332.465    16.796823    19.784439    20.492085    6809.8424    13121.526    11413.345    12462.524     1074.561   -1419.5456    993.61728   -2108.9199 
  469000    282.10848   -3790.6315   -3307.1072   -3790.6315            0    9733.4666    16.900987    19.907131    20.619165    6937.3214    10646.018    8599.9609     9954.421    358.61916   -425.93598    985.53827   -2322.3362 
  470000    282.32459   -3853.4926   -3369.5979   -3853.4926            0      9700.48    16.857376    19.855763     20.56596    6883.7571    8703.4647    10080.962    10317.013    223.65721   -177.42446    262.70889   -2395.7421 
  471000    272.20426   -3805.3031   -3338.7543   -3805.3031            0    9337.1391    16.904087    19.910781    20.622947    6941.1389    10919.618    7310.8265    9780.9731   -296.08267   -2130.7488   -323.21114   -2393.5614 
  472000    268.33131   -3832.8806   -3372.9699   -3832.8806            0     11023.63     16.85781    19.856274    20.566489    6884.2885    10982.618    12719.534    9368.7367   -1096.5442    602.11285   -202.38205   -2266.1943 
  473000    269.58756   -3818.8475   -3356.7836   -3818.8475            0     9428.481    16.877325    19.879259    20.590297    6908.2242    9794.5419    9703.2678    8787.6334    265.09179    510.83075    -424.3594   -2406.8702 
  474000    278.70307   -3820.0485   -3342.3609   -3820.0485            0    11434.052     16.91779    19.926922    20.639664    6958.0326    12273.603    10857.266    11171.287   -191.78398   -2032.6304   -575.40634   -2182.0817 
  475000    270.35474   -3837.0183   -3373.6396   -3837.0183            0    12365.014    16.859302    19.858031     20.56831    6886.1169    12894.013    11669.084    12531.944   -26.476027   -675.36244    -76.52114    -2131.859 
  476000    276.23786   -3831.0203   -3357.5581   -3831.0203            0    7803.8966     16.89652    19.901869    20.613715    6931.8223    6642.0108    11216.909    5552.7699   -62.529746   -903.44366    129.56407   -2568.6348 
  477000    282.10527   -3794.3577   -3310.8389   -3794.3577            0    8723.5327    16.947679    19.962127    20.676128    6994.9764    8999.4438    9918.6839    7252.4704   -102.58414    796.68051    1261.1524   -2420.9116 
  478000    270.27148   -3780.6327   -3317.3967   -3780.6327            0     10049.88    16.954879    19.970608    20.684913    7003.8961    8981.4272    11804.865    9363.3483     1439.071   -920.19005   -368.89979   -2290.8553 
  479000    278.97993   -3806.5526   -3328.3906   -3806.5526            0    10643.133    16.882595    19.885467    20.596726    6914.6975    11865.755    9138.4366    10925.206   -595.52766   -480.67602   -1334.5258    -2255.097 
  480000    286.24576   -3818.0364   -3327.4209   -3818.0364            0    10197.535      16.9129    19.921163    20.633699    6952.0017    10377.381    11369.144    8846.0815   -319.47586   -794.22219    -581.8261   -2293.5151 
  481000    285.48115   -3818.9744   -3329.6695   -3818.9744            0    10224.862    16.916956     19.92594    20.638647    6957.0042    10485.203    8865.7189    11323.664    -946.5633   -454.66204   -686.03615   -2292.2471 
  482000    279.58755    -3829.998   -3350.7945    -3829.998            0    8373.5241    16.951984    19.967198    20.681381    7000.3089    7195.2778    8579.9341    9345.3603    130.00565   -1083.6876    1649.9498   -2495.9219 
  483000    273.43793   -3814.7483   -3346.0851   -3814.7483            0    10745.874     16.95873    19.975144    20.689611    7008.6698    9634.8088    10018.441    12584.374   -146.14718    727.38508    1393.7166   -2247.7035 
  484000    277.01054   -3805.6373   -3330.8507   -3805.6373            0    8262.2768    16.955709    19.971585    20.685925    7004.9242    8897.7304    7664.5801      8224.52    1201.4765    1137.3981   -711.79781   -2486.7795 
  485000    279.60839   -3859.7104   -3380.4711   -3859.7104            0      10039.8    16.939187    19.952125    20.665769    6984.4671    9361.0846    11034.526    9723.7901   -450.98783    961.94975    667.66662   -2357.8042 
  486000    282.52173    -3843.382   -3359.1494    -3843.382            0     6391.307    16.950775    19.965773    20.679905    6998.8105    7734.5278    6073.5499    5365.8433   -725.91629   -458.19866   -2020.4279   -2706.7857 
  487000    272.22592   -3815.0285   -3348.4426   -3815.0285            0    8616.4905    16.932823    19.944629    20.658005    6976.5982     10050.68    8751.2073    7047.5846     965.5994    161.97918    199.47654   -2471.7446 
  488000    291.33536   -3829.8186   -3330.4797   -3829.8186            0    11414.096    16.869754    19.870342    20.581061     6898.932    12697.493     9582.628    11962.169   -2384.0838   -250.96968   -38.604525   -2182.0636 
  489000    279.27492   -3818.9915   -3340.3238   -3818.9915            0    11402.865    16.913869    19.922303    20.634881    6953.1959    12512.591    9889.5987    11806.405   -608.37981    -908.6032    812.88467   -2184.0137 
  490000    274.07733   -3805.8261   -3336.0669   -3805.8261            0     9463.835    16.927222    19.938032    20.651172    6969.6776    9559.3201    9364.4339    9467.7512    460.71236    105.08111     763.7993   -2374.1098 
  491000    278.11344   -3850.9396   -3374.2626   -3850.9396            0    10548.217    16.870433    19.871142    20.581889    6899.7648    9731.0624    11959.824    9953.7641    -948.9858   -1863.6935   -714.22689   -2312.8379 
  492000    277.27885   -3823.6588   -3348.4123   -3823.6588            0     10253.68    16.945314    19.959342    20.673243    6992.0488    11572.358    9780.3699    9408.3129   -1253.6897    1092.3265    1807.5307   -2302.8255 
  493000     290.4293   -3811.7632   -3313.9773   -3811.7632            0    8674.7099    16.944101    19.957913    20.671764    6990.5475    9385.1601    7546.4366    9092.5329    -889.3132    1400.3516    1376.5349    -2429.591 
  494000    283.09802   -3791.1717   -3305.9514   -3791.1717            0    12456.538    16.909265     19.91688    20.629264    6947.5194    10534.488    13956.215    12878.911    739.14832    1502.1586    571.63008   -2043.8245 
  495000    279.28334   -3783.9707   -3305.2886   -3783.9707            0    10481.253    16.941679    19.955061    20.668809    6987.5506    8923.6101    12193.747    10326.402    170.02484    590.12703    562.50267   -2237.1833 
  496000    271.23705   -3796.8817   -3331.9906   -3796.8817            0    7661.1178    16.950178    19.965071    20.679178    6998.0716    8371.2121    6503.7038    8108.4374   -370.29277   -759.21722    931.13075   -2550.0993 
  497000    278.04124   -3826.0664   -3349.5132   -3826.0664            0    11490.335    16.874923     19.87643    20.587367    6905.2752    11423.808    10836.382    12210.815   -367.19058    1392.2353    186.06147   -2192.3634 
  498000    285.52269   -3787.5303   -3298.1542   -3787.5303            0    10886.904    16.901105    19.907269    20.619308    6937.4659    11807.659    8672.1027     12180.95   -390.33511    -1363.493   -418.73497   -2196.6627 
  499000    276.03377   -3829.1184    -3356.006   -3829.1184            0    9653.5602    16.933221    19.945097     20.65849    6977.0895    9483.8986    10640.504    8836.2783   -660.20788      24.8236    81.771695   -2373.7206 
  500000    290.64283   -3808.4281   -3310.2763   -3808.4281            0    9503.5906    16.912768    19.921006    20.633537     6951.838    9780.9976    7145.8861    11583.888   -92.802177     1011.865    576.77965   -2346.7507 
Loop time of 390.182 on 64 procs for 250000 steps with 864 atoms

Performance: 110.718 ns/day, 0.217 hours/ns, 640.727 timesteps/s
190.3% CPU use with 32 MPI tasks x 2 OpenMP threads

MPI task timing breakdown:
Section |  min time  |  avg time  |  max time  |%varavg| %total
---------------------------------------------------------------
Pair    | 25.523     | 33.595     | 40.315     |  51.2 |  8.61
Bond    | 0.83377    | 1.1051     | 1.4094     |  13.8 |  0.28
Kspace  | 171.88     | 179.17     | 186.73     |  25.1 | 45.92
Neigh   | 4.4163     | 4.7907     | 5.1735     |  10.4 |  1.23
Comm    | 78.537     | 82.348     | 86.271     |  22.1 | 21.10
Output  | 0.39314    | 0.39346    | 0.39468    |   0.0 |  0.10
Modify  | 72.01      | 74.502     | 78.745     |  18.6 | 19.09
Other   |            | 14.28      |            |       |  3.66

Nlocal:        27.0000 ave          34 max          21 min
Histogram: 3 4 1 3 6 4 7 2 1 1
Nghost:        2643.78 ave        2707 max        2593 min
Histogram: 4 2 4 5 3 5 5 1 0 3
Neighs:        8873.12 ave       10452 max        6345 min
Histogram: 2 1 2 0 5 4 3 6 6 3

Total # of neighbors = 283940
Ave neighs/atom = 328.63426
Ave special neighs/atom = 2.0000000
Neighbor list builds = 15358
Dangerous builds = 2

unfix		3
unfix		2
unfix		1

write_data	data.final.${pid}
write_data	data.final.1
System init for write_data ...
PPPM initialization ...
  extracting TIP4P info from pair style
  using 12-bit tables for long-range coulomb (../kspace.cpp:340)
  G vector (1/distance) = 0.37456422
  grid = 24 24 24
  stencil order = 5
  estimated absolute RMS force accuracy = 0.0031266468
  estimated relative force accuracy = 9.415804e-06
  using double precision FFTW3
  3d grid and FFT values/proc = 3549 432
Last active /omp style is kspace_style pppm/tip4p/omp
WARNING: Not all mixed pair coeffs generated from mixing. Use write_data with 'pair ij' option to store all pair coeffs. (../write_data.cpp:312)

write_restart   restart.lmp.${pid}
write_restart   restart.lmp.1
System init for write_restart ...
PPPM initialization ...
  extracting TIP4P info from pair style
  using 12-bit tables for long-range coulomb (../kspace.cpp:340)
  G vector (1/distance) = 0.37456422
  grid = 24 24 24
  stencil order = 5
  estimated absolute RMS force accuracy = 0.0031266468
  estimated relative force accuracy = 9.415804e-06
  using double precision FFTW3
  3d grid and FFT values/proc = 3549 432
Last active /omp style is kspace_style pppm/tip4p/omp
Total wall time: 0:06:30
