LAMMPS (30 Jul 2021)
  using 1 OpenMP thread(s) per MPI task
package omp 0
using multi-threaded neighbor list subroutines
echo both

include		in.partitions
variable        pid world 0
include		in.temp
variable        temperature equal 263.26
variable	tempDamp equal 100.0
include		in.pressure
variable        pressure equal 8375.0
variable        pressureDamp equal 1000.0 # This is 1 ps
include		in.seed
variable        seed world 745823

units		real
atom_style	full
read_restart    restart.lmp.${pid}
read_restart    restart.lmp.0
Reading restart file ...
  restart file = 30 Jul 2021, LAMMPS = 30 Jul 2021
  restoring atom style full from restart
  triclinic box = (-3.2322529 -0.21767955 -0.0070795062) to (14.842252 22.797679 19.237078) with tilt (-0.24657457 -6.4335594 0.17640368)
  4 by 4 by 4 MPI processor grid
  restoring pair style lj/cut/tip4p/long/omp from restart
  restoring bond style harmonic/omp from restart
  restoring angle style harmonic/omp from restart
  1008 atoms
  672 bonds
  336 angles
Finding 1-2 1-3 1-4 neighbors ...
  special bond factors lj:    0        0        0       
  special bond factors coul:  0        0        0       
     2 = max # of 1-2 neighbors
     1 = max # of 1-3 neighbors
     1 = max # of 1-4 neighbors
     2 = max # of special neighbors
  special bonds CPU = 1.332 seconds
  read_restart CPU = 1.654 seconds

include 	in.setup
variable	out_freq equal 1000
variable	out_freq2 equal 10000
variable	out_freq3 equal 1000

timestep	2.0

neigh_modify    delay 7 every 1

include		in.tip4p
# This is TIP4P/Ice

# create groups ###
group ox type 2
336 atoms in group ox
group hy type 1
672 atoms in group hy

# set charges - beside manually ###
set group ox charge -1.1794
Setting atom values ...
  336 settings made for charge
set group hy charge 0.5897
Setting atom values ...
  672 settings made for charge

# ### TIP3P Potential Parameters ###
pair_style lj/cut/tip4p/long/omp 2 1 1 1 0.1577 8.5
pair_coeff 1 1*2 0.000 0.000
pair_coeff 2 2 0.21084 3.1668
bond_style  harmonic
bond_coeff  1 450 0.9572
angle_style harmonic
angle_coeff 1 55 104.52
kspace_style pppm/tip4p/omp 1.0e-5
pair_modify tail yes

thermo          ${out_freq}
thermo          1000
thermo_style    custom step temp pe etotal epair emol press lx ly lz vol pxx pyy pzz pxy pxz pyz enthalpy

restart 	${out_freq3} restart.lmp.${pid} restart2.lmp.${pid}
restart 	1000 restart.lmp.${pid} restart2.lmp.${pid}
restart 	1000 restart.lmp.0 restart2.lmp.${pid}
restart 	1000 restart.lmp.0 restart2.lmp.0


include         in.dump
dump            myDump all atom ${out_freq2} dump.water.${pid}
dump            myDump all atom 10000 dump.water.${pid}
dump            myDump all atom 10000 dump.water.0
dump            myDump2 all dcd ${out_freq2} dump.dcd
dump            myDump2 all dcd 10000 dump.dcd
dump_modify     myDump append yes
dump_modify     myDump2 append yes


variable natoms 	equal  "count(all)"                        # NUMBER ATOMS
variable H      	equal  "enthalpy/v_natoms"                 # ENTHALPY-per-atom
variable Vol      	equal  "vol/v_natoms"                 # volume-per-atom
fix AVG all 		ave/time ${out_freq} 1 ${out_freq} v_Vol v_H file vol_enthalpy.dat
fix AVG all 		ave/time 1000 1 ${out_freq} v_Vol v_H file vol_enthalpy.dat
fix AVG all 		ave/time 1000 1 1000 v_Vol v_H file vol_enthalpy.dat



fix 		1 all shake 1e-6 200 0 b 1 a 1
       0 = # of size 2 clusters
       0 = # of size 3 clusters
       0 = # of size 4 clusters
     336 = # of frozen angles
  find clusters CPU = 0.010 seconds
fix             2 all nph tri ${pressure} ${pressure} ${pressureDamp}
fix             2 all nph tri 8375 ${pressure} ${pressureDamp}
fix             2 all nph tri 8375 8375 ${pressureDamp}
fix             2 all nph tri 8375 8375 1000
fix             3 all temp/csvr ${temperature} ${temperature} ${tempDamp} ${seed}
fix             3 all temp/csvr 263.26 ${temperature} ${tempDamp} ${seed}
fix             3 all temp/csvr 263.26 263.26 ${tempDamp} ${seed}
fix             3 all temp/csvr 263.26 263.26 100 ${seed}
fix             3 all temp/csvr 263.26 263.26 100 745823


run             250000
PPPM initialization ...
  extracting TIP4P info from pair style
  using 12-bit tables for long-range coulomb (../kspace.cpp:340)
  G vector (1/distance) = 0.38321939
  grid = 24 30 32
  stencil order = 5
  estimated absolute RMS force accuracy = 0.0019608178
  estimated relative force accuracy = 5.9049445e-06
  using double precision FFTW3
  3d grid and FFT values/proc = 4080 384
Last active /omp style is kspace_style pppm/tip4p/omp
Neighbor list info ...
  update every 1 steps, delay 7 steps, check yes
  max neighbors/atom: 2000, page size: 100000
  master list distance cutoff = 10.8154
  ghost atom cutoff = 10.8154
  binsize = 5.4077, bins = 5 5 4
  1 neighbor lists, perpetual/occasional/extra = 1 0 0
  (1) pair lj/cut/tip4p/long/omp, perpetual
      attributes: half, newton on, omp
      pair build: half/bin/newton/tri/omp
      stencil: half/bin/3d/tri
      bin: standard
Per MPI rank memory allocation (min/avg/max) = 9.340 | 9.345 | 9.348 Mbytes
Step Temp PotEng TotEng E_pair E_mol Press Lx Ly Lz Volume Pxx Pyy Pzz Pxy Pxz Pyz Enthalpy 
 5500000    261.63378   -4785.0599     -4261.76   -4785.0599            0    7597.0388    18.074505    23.015358    19.244157       8005.4    7118.1189    7239.9684    8433.0292    489.73024    207.79541   -59.426218   -3374.8016 
 5501000    259.26007   -4809.0531   -4290.5009   -4809.0531            0    9189.6768    17.830222    22.798518    19.534929    7941.0004    11139.414    9407.2409    7022.3758    9.9862287   -428.99566   -1932.6957   -3226.2321 
 5502000     273.0456   -4835.8542   -4289.7292   -4835.8542            0    8712.7573    18.013075     22.80919    19.381338    7963.0873    7609.9201      8268.19    10260.162     206.9574   -647.62829   -723.86419   -3277.8866 
 5503000    271.68192   -4836.1806   -4292.7832   -4836.1806            0    9449.1264    18.054654    22.699805    19.264737    7895.4046    9794.5823    9831.5193    8721.2775    199.18424    497.46355     534.0929   -3204.7505 
 5504000     252.2081   -4827.4167   -4322.9693   -4827.4167            0    7928.9638    17.917507    22.879983     19.40229    7954.0125    8326.0593    8024.1576    7436.6746  -0.72203864    628.86531   -1422.7764   -3403.2007 
 5505000    268.23254   -4826.9408   -4290.4425   -4826.9408            0    8211.9688    18.069789    22.702906    19.383711    7951.9103    8138.4042    9602.4608    6895.0415   -454.03773    603.27069   -1450.2516   -3338.0968 
 5506000    269.72382   -4793.1662   -4253.6853   -4793.1662            0    9195.7713    17.923759     22.84875    19.283921    7897.4497    8219.1119    10268.193    9100.0087    1108.4785   -910.02271    937.88445   -3194.5512 
 5507000    249.95188   -4784.0239   -4284.0892   -4784.0239            0    8821.4474     17.92261    22.876338    19.293009    7910.2047    9249.8534    8648.5628    8565.9261    1298.6187    354.60488    1610.3358   -3266.4274 
 5508000    267.92891   -4819.7525   -4283.8616   -4819.7525            0     11004.08    17.999921    22.720043    19.297856    7892.0317    11902.194    11325.153    9784.8946   -305.83781    1332.1259   -1256.2878   -3017.3228 
 5509000    263.04652   -4784.4223   -4258.2968   -4784.4223            0    8170.3388     18.01023    23.030367    19.287932    8000.2913    7302.9608    8769.0828    8438.9729     1675.795    2175.5254    2133.0997    -3305.014 
 5510000    268.77819   -4807.7719   -4270.1823   -4807.7719            0     7828.258    18.020408    23.066878    19.225362    7991.4935    8922.5405    7367.7217    7194.5117   -1067.2993    820.22303   -1211.4036   -3357.8166 
 5511000    263.20365   -4816.6389   -4290.1991   -4816.6389            0    8945.9629     17.91203    22.908327    19.286312    7913.8416     9064.647    9369.2884    8403.9534    -121.8068    528.70356   -559.14982   -3257.6984 
 5512000    273.89636   -4790.3755   -4242.5489   -4790.3755            0    8651.6121    18.057188    22.873642    19.306832    7974.3711    7479.2766     8210.861    10264.699   -947.63008    300.68293   -747.87766   -3236.3835 
 5513000    281.86017    -4804.428   -4240.6728    -4804.428            0    9112.0885    18.054818    22.918569    19.218404    7952.3945    6894.7661    10023.309    10418.191   -90.968436    943.17216    -234.5108   -3183.8754 
 5514000    269.75417   -4830.7409   -4291.1993   -4830.7409            0    9478.6919     17.92489     22.78349    19.420152    7931.0261    11667.067     9452.018    7316.9907    796.06706   -997.78019   -112.52263    -3194.838 
 5515000    267.45961   -4821.7473   -4286.7951   -4821.7473            0    8013.2897    18.019142    22.902896    19.327123     7976.121    8935.3084    7347.6879    7756.8728   -825.09489    367.94766    327.70759   -3354.6608 
 5516000    267.02785   -4806.4673   -4272.3786   -4806.4673            0    9671.6356    17.957865    22.787818    19.299325    7897.6805    9898.4923    10870.338    8246.0767    1527.7038    76.827146    4257.6106   -3158.4038 
 5517000    259.36302   -4809.8741    -4291.116   -4809.8741            0    10150.381    18.013629    22.646112    19.416066    7920.5636    10411.674    9985.0886    10054.382   -801.45642    257.84633   -1818.3337    -3118.612 
 5518000    267.73508    -4848.843   -4313.3397    -4848.843            0    8452.3847    18.032231    22.735875    19.375543    7943.5568    7497.4893     9541.729    8317.9357   -67.486855    911.28498    396.43742   -3334.1426 
 5519000    272.39092    -4824.869   -4280.0536    -4824.869            0    9342.8327    17.812342    22.714702    19.487637    7884.7376    10945.695     9939.933    7142.8703   -75.602898   -877.80239   -624.03085   -3205.7137 
 5520000    260.90132   -4817.5697   -4295.7349   -4817.5697            0     8226.269    18.175261    22.806129    19.170279    7946.2217    6596.2448    9442.7464    8639.8159   -888.60251   -50.220859    224.31924   -3342.4132 
 5521000     272.0711    -4859.999   -4315.8232    -4859.999            0    7774.0645    17.981468      22.8249    19.385597    7956.3379    8622.8709    8312.6047     6386.718   -1054.5297    224.95325   -785.88144   -3413.7594 
 5522000    272.13476    -4828.825   -4284.5218    -4828.825            0    10623.371    17.939656      22.7264     19.35928    7892.8522    12080.495    10408.921    9380.6983     588.6124     524.9257    813.33331   -3061.6746 
 5523000    263.62989   -4852.1283   -4324.8359   -4852.1283            0    7486.1633    18.297504    22.483488    19.305943    7942.3047    5823.1934    7937.5218    8697.7746     1292.809   -260.20636   -5.0793426   -3457.7109 
 5524000    273.65508   -4786.4787   -4239.1347   -4786.4787            0    6045.1518    18.026974    22.765075    19.540168         8019    5724.9315     6393.953    6016.5707   -610.01548   -996.74834   -1395.3545   -3532.1609 
 5525000    278.57907    -4827.369   -4270.1764    -4827.369            0    7259.2111    18.075859    22.808465    19.395873    7996.5811    5623.8077    7100.0686     9053.757    369.66723    28.447701    404.75074   -3423.5932 
 5526000    261.93858   -4798.9707   -4275.0612   -4798.9707            0    7857.2179    18.194764    22.723997     19.36802    8007.8586    6760.0195    8362.1059    8449.5285   -618.15496   -158.63152   -1971.1908    -3357.445 
 5527000    270.67543   -4808.0877   -4266.7034   -4808.0877            0     6926.118    18.143415    22.822629    19.364552    8018.4818    6192.2821    6651.0177    7935.0542    84.892476   -725.44349    1230.0278   -3456.7539 
 5528000     258.7301   -4818.6869   -4301.1947   -4818.6869            0    6602.1306    18.074477     22.73505    19.388516    7967.2092    7221.8171    7109.6564    5474.9185    241.09914    166.76988   -1297.2255   -3534.0695 
 5529000    260.98227   -4810.0653   -4288.0685   -4810.0653            0    7154.1411    18.098454    22.701832    19.444983    7989.3225    5341.7086    7608.9295     8511.785    832.89439   -596.82567   -216.45645   -3454.4961 
 5530000    270.58421     -4806.56   -4265.3582     -4806.56            0     7169.003    18.235649    22.738504    19.331273    8015.7393    6650.3742    8010.8238    6845.8111    -635.3589    -946.0109   -682.19934   -3427.2921 
 5531000    268.14909   -4792.8811   -4256.5498   -4792.8811            0    8576.0482    18.026421    22.706495     19.48967    7977.4496    9730.0002    7258.7569    8739.3874     717.9147    270.75843   -166.60339   -3258.7873 
 5532000     268.8139   -4810.7172   -4273.0562   -4810.7172            0     7388.718    18.314552    22.640051    19.250313    7981.9957    6840.6423    6879.6696     8445.842   -263.57078   -656.17664    1170.5557   -3412.9413 
 5533000    255.95842   -4794.2589   -4282.3104   -4794.2589            0    9701.2147    18.131471    22.541102    19.391151     7925.228    8833.1901    10225.002    10045.452   -326.38367    765.89774    677.35059   -3161.0312 
 5534000    256.72302   -4832.7017   -4319.2239   -4832.7017            0     8161.314    17.978039     22.74824    19.440752    7950.6598    8292.0392    7743.3939    8448.5089    1114.2249    351.90965    1082.1659   -3372.9015 
 5535000    257.80858    -4836.977    -4321.328    -4836.977            0    9685.3556    18.040085    22.727773     19.31009    7917.3488    8967.3403    9794.2544    10294.472   -757.81672   -858.13736   -266.65823   -3202.9948 
 5536000    251.24965    -4821.233   -4318.7027    -4821.233            0    7827.2945    18.013972    22.722862    19.469706    7969.5153     8215.547    8277.5142    6988.8223    1143.9128    982.02137    560.07184   -3408.9581 
 5537000    269.13324   -4822.1907    -4283.891   -4822.1907            0    7073.7241    18.119361    22.667243     19.41077    7972.3133    7432.1857    8071.0475    5717.9392   -2085.5392   -812.94544   -527.71122   -3461.4432 
 5538000    255.83704   -4808.4454   -4296.7397   -4808.4454            0    8341.9679    18.019002     22.81945     19.35477    7958.3664      10253.7    8197.6026    6574.6012    166.18178   -533.03002    388.33342   -3328.5324 
 5539000    263.07578   -4820.3114   -4294.1273   -4820.3114            0     8755.539    17.931616    22.727029    19.458948    7930.1509    10636.552    7511.2856    8118.7793    -334.6377    -538.4025   -28.699137   -3281.5219 
 5540000    256.10575   -4788.5059   -4276.2627   -4788.5059            0    9848.0928    18.066758    22.710169    19.355509    7941.5484    11242.998    9998.7837    8302.4966    740.90722   -18.534867    -1590.289   -3135.6631 
 5541000    258.30769   -4794.9553   -4278.3081   -4794.9553            0    8390.4839    18.195441    22.646619    19.278283    7943.9102    8100.5599    8006.3555    9064.5361   -518.62216   -683.51084   -959.01546   -3306.2388 
 5542000    275.88652    -4834.194   -4282.3868    -4834.194            0    8447.5614    18.012052    22.801892    19.304702    7928.6121     7552.136    8808.1369    8982.4115    240.79167    1614.6563    338.20755   -3305.5896 
 5543000    267.95363   -4802.5297   -4266.5893   -4802.5297            0     8757.441    17.943519    22.980234    19.247923    7936.8092    8250.8014    8360.8937    9660.6278   -778.81441    132.43754   -66.348582   -3252.9136 
 5544000    275.89427   -4867.7952   -4315.9726   -4867.7952            0    10760.364    17.904034    22.747947    19.307166    7863.4229    9056.2186    11223.327    12001.548   -499.08214    247.03741   -1278.1446   -3081.9745 
 5545000    250.04117   -4823.6959   -4323.5827   -4823.6959            0    6702.1022    18.134344    22.841533    19.337151    8009.7615    4073.7024    8102.4228    7930.1814   -665.00158    346.50736    1202.0754   -3540.6823 
 5546000    262.56619   -4833.1044   -4307.9396   -4833.1044            0     8305.872    17.910334    22.785376    19.463513    7942.9375    9538.9126    8149.8008    7228.9024    256.80908    834.35977    1171.1929   -3345.7907 
 5547000    262.01897   -4818.4987   -4294.4284   -4818.4987            0    7129.8014    18.058936    22.801533    19.487297     8024.312     9016.449    6025.2042    6347.7509   -1678.3241    321.48542     1439.977   -3460.0537 
 5548000    268.55426   -4842.8344   -4305.6927   -4842.8344            0    8887.5459    18.006336    22.622891    19.435143      7917.01    8634.2396    10087.024    7941.3738   -766.29648    64.153662    1448.1538   -3279.5236 
 5549000     277.9893   -4820.5605   -4264.5476   -4820.5605            0    10091.144       18.008    22.746831    19.269661    7893.3337    7973.0924    11619.219    10681.121    11.534958    1034.3941   -490.35205   -3102.8936 
 5550000     261.5509     -4833.56   -4310.4258     -4833.56            0     8444.633    17.979992    22.908133    19.272728    7938.2063    8364.3701     8634.412    8335.1168   -329.77438    616.50492    2122.9271   -3332.7856 
 5551000    271.96188   -4768.6941   -4224.7367   -4768.6941            0    7884.9577    17.880008    23.008242    19.405931    7983.3581    11164.293    7078.8438    5411.7361   -1451.2916    1309.1886   -777.44959   -3306.6983 
 5552000     266.9551   -4839.6875   -4305.7443   -4839.6875            0    8606.8252    17.992125    22.991076    19.151951    7922.3641    6898.6227    7487.9343    11433.919    89.281783   -270.69075   -98.001407   -3311.3156 
 5553000    251.39224   -4818.8528   -4316.0373   -4818.8528            0    9085.7235    17.860325    22.930896    19.200577    7863.6591     8102.546    9496.6151    9658.0094   -940.59447   -112.10925   -701.56346   -3274.0556 
 5554000    275.26638   -4798.6034   -4248.0367   -4798.6034            0    9257.2316    18.043393    22.850956    19.261111    7941.5251    5984.4885    10811.715    10975.491   -2099.4829    90.094624    494.46434   -3175.8734 
 5555000    263.22101   -4801.7314   -4275.2568   -4801.7314            0    9278.5401    17.978937    22.832472    19.355706    7945.5864    10093.036    9672.1049    8070.4792    521.86672    52.128804    312.35812    -3200.076 
 5556000    278.14009   -4797.7949   -4241.4804   -4797.7949            0    8224.3017    18.096709    22.838758    19.250027    7956.1587    8841.4911    8032.3018    7799.1121   -157.45453     638.1527    1963.6123   -3287.1948 
 5557000    252.90983   -4829.1868   -4323.3359   -4829.1868            0    7808.4871    17.873428    23.030667    19.320799    7953.1548    8623.1447    8429.4442    6372.8723   -489.43004    283.14891    1157.0269   -3417.6403 
 5558000    274.03752   -4836.0859    -4287.977   -4836.0859            0    6541.9453    17.857576    23.020937    19.406214    7977.8584    4719.0351    7289.8487    7616.9522    286.07094   -302.77214    1526.1248    -3526.829 
 5559000    264.86183    -4822.639   -4292.8826    -4822.639            0    8546.3993    17.881644    22.943327    19.318465    7925.6787    8097.9939    9049.5474    8491.6565    141.08788    64.087212   -502.19712   -3305.0223 
 5560000    267.94484   -4818.7556   -4282.8328   -4818.7556            0      9018.67    17.994451     22.86549    19.186601    7894.3646    8264.4023    9881.7518    8909.8559   -1356.7472    511.93164    1527.1258   -3244.5025 
 5561000    269.87707   -4802.8358   -4263.0483   -4802.8358            0    7021.5224    17.702207    23.207365    19.438336    7985.6881    8279.8815    7554.9635    5229.7222    292.28202    390.61336   -1762.5834   -3445.3003 
 5562000    280.49679   -4799.0753   -4238.0471   -4799.0753            0    8440.5906    18.044835    23.084009    19.166571      7983.78    7500.9973    8171.7227    9649.0518    569.97861    14.423486   -1029.6517   -3255.2649 
 5563000    270.09679   -4798.3763   -4258.1493   -4798.3763            0    8647.4783    17.744586    23.262613    19.296565     7965.341    7307.0325    8758.4468    9876.9555   -463.83496     343.0439    785.76586   -3253.6035 
 5564000    255.65693   -4805.9455   -4294.6001   -4805.9455            0    7886.5244    17.859321    23.169783    19.197015    7943.6593    9172.2081    7300.0766    7187.2884    86.105542    271.65261    741.81711   -3380.9452 
 5565000    256.60232   -4831.4681   -4318.2317   -4831.4681            0    8945.9027    17.909265    23.087655     19.13252    7910.9706    10030.698    8045.7921    8761.2179   -113.45683   -152.16614   -485.79551   -3286.1126 
 5566000    273.07588   -4804.7691   -4258.5837   -4804.7691            0    6789.3239    17.933825    23.134753    19.312583    8012.6867    7940.3098    6323.7024    6103.9595    697.37707    202.27474    613.57131   -3465.2049 
 5567000    264.70394   -4833.9173   -4304.4767   -4833.9173            0    7975.9701     17.88315    23.121521    19.275889    7970.3029    9709.4164    7193.6712    7024.8226     21.72238    1459.6055   -182.03078   -3377.3604 
 5568000    259.39147   -4801.2847   -4282.4697   -4801.2847            0    8172.6165    17.954596    23.028315    19.224436    7948.6138    9409.0963     7850.108    7258.6452    640.84298    158.65712    1427.7926   -3335.0805 
 5569000    264.72359   -4848.6833   -4319.2034   -4848.6833            0    9052.0338    17.730229    23.312927    19.127229    7906.1163    9210.0695    8704.8594    9241.1725    -2079.726    368.93358   -1503.6102   -3275.4804 
 5570000    272.80202   -4814.1655   -4268.5278   -4814.1655            0    8563.3384    17.759843    23.077442    19.279503    7901.7381    6711.4505    8774.5845     10203.98    1420.4192   -478.82558    1344.9173   -3281.6994 
 5571000     269.1305   -4825.3977   -4287.1034   -4825.3977            0    7207.9676    18.060679    23.119172    19.131666    7988.3878    7162.9534    6152.0172    8308.9322    -568.0682    423.64777   -445.99829   -3447.3576 
 5572000    273.33902   -4780.7295   -4234.0177   -4780.7295            0    6756.5502    17.900891    23.045126    19.412418    8008.1719     6628.605    7127.9155      6513.13    381.29621   -478.38825    872.65004   -3444.9137 
 5573000    262.12632   -4862.0603   -4337.7753   -4862.0603            0    7003.4088    18.014573     22.97957    19.230143    7960.6474    5083.2959    7136.1163    8790.8141    750.35888    606.44676   -352.22392   -3524.6944 
 5574000    253.24975   -4836.2944   -4329.7636   -4836.2944            0    8478.8395     17.90436    22.900256    19.317028    7920.2604    7597.9688    8903.3055    8935.2442   -159.61561    884.27385   -928.32863   -3350.3824 
 5575000    252.69727   -4810.6297   -4305.2039   -4810.6297            0    7761.6509    18.005041    22.870328    19.296596    7945.9755    7599.6793    7069.5475     8615.726   -480.22069    27.589009    44.083427   -3405.7535 
 5576000    256.22026   -4801.5766   -4289.1045   -4801.5766            0    8246.0942    18.115204    22.823518    19.362627    8005.5297    8860.2906    7485.8105    8392.1813   -640.05657    562.56329   -1257.3071   -3326.3528 
 5577000    248.06113   -4840.4259    -4344.273   -4840.4259            0    8370.2214    17.846931    22.948752     19.34501    7923.0352    7929.2998    10505.023    6676.3416    518.41316    356.68493     855.7566   -3377.0994 
 5578000    276.55136   -4791.8279    -4238.691   -4791.8279            0    9360.1346    17.983313    22.924065    19.274281    7945.8348    8836.9186    10983.832    8259.6532    1198.1278    869.19024    402.85322   -3154.0213 
 5579000    279.14935   -4860.4137   -4302.0805   -4860.4137            0       9137.2     17.90663    22.639353    19.500574    7905.4258    10441.108    10108.651    6861.8402    1689.4419   -284.54479    301.56269   -3248.6296 
 5580000    261.41461   -4784.3777   -4261.5161   -4784.3777            0    7968.0859    18.057037    22.746963    19.387575     7963.306    8890.0024    8622.7288    6391.5265   -31.922218    584.56966    -416.8223   -3336.1293 
 5581000     256.3078   -4797.2997   -4284.6524   -4797.2997            0    8113.3409    18.190594    22.680167    19.407197    8006.7438    9342.0748    7831.4908     7166.457    588.57449   -1515.5954    469.64907   -3337.2564 
 5582000    260.89477   -4842.8011   -4320.9793   -4842.8011            0    8571.2271    18.025494    22.607352     19.45473    7927.9718    8826.9718    9337.5882    7549.1212     96.06594   -235.93184   -636.73119   -3329.9626 
 5583000    266.71336     -4797.82   -4264.3603     -4797.82            0    8918.7079    18.153128    22.702154    19.257078    7936.1328    6844.2742    9598.0982    10313.751    981.75281    208.59366   -118.96172   -3232.1059 
 5584000    265.38481   -4793.4944    -4262.692   -4793.4944            0    7076.4681    18.258553    22.647123    19.403443    8023.3954    3929.1483    8289.5533    9010.7027   -175.93343    124.28523   -1760.6709   -3434.6533 
 5585000    258.91827   -4831.1072   -4313.2387   -4831.1072            0    7929.6425    17.968479    22.843422    19.387704    7957.9072    8179.1112    8040.9365    7568.8798    325.37282    940.23066    560.07089   -3392.9409 
 5586000    258.54292   -4828.1578     -4311.04   -4828.1578            0    8549.4136    18.066455    22.817696    19.277271    7946.7632    8568.3573    8329.3755    8750.5081    1174.6311   -580.26264    253.35326   -3320.2024 
 5587000    259.27588   -4829.8212   -4311.2374   -4829.8212            0    8173.4071    17.926291    22.634689     19.65525    7975.2359    9695.5448    7929.2078    6895.4685    617.54622    15.108219   -161.01893   -3360.5833 
 5588000    259.66595   -4807.7721   -4288.4082   -4807.7721            0    7504.2826    18.091354    22.760821    19.340014    7963.7164    8602.7941    8436.1669    5473.8866   -1149.5198   -584.57244    333.15243    -3416.841 
 5589000    262.22593   -4869.4644   -4344.9801   -4869.4644            0     8072.695    17.947178    22.870656    19.333033    7935.5092    9245.2235    8096.3414    6876.5201   -322.60561    -858.2783   -71.664536    -3410.717 
 5590000    257.58343   -4819.9837    -4304.785   -4819.9837            0    10288.701    17.921207    22.843901    19.266676    7887.5896    8067.7974    12453.428    10344.878    305.04106    1130.6007    395.98299    -3121.251 
 5591000    254.01812   -4804.1528   -4296.0851   -4804.1528            0    11133.024    17.991473    22.713113    19.257421    7869.3983     9798.494    11863.795    11736.782   -114.81767    1508.1796   -1458.8119   -3018.3803 
 5592000    265.56606   -4835.5908   -4304.4259   -4835.5908            0    6462.1392    18.073339    22.897011    19.280848    7978.9051    6502.0824    5332.9692     7551.366    1151.3661   -1402.4703    1206.1433   -3552.4646 
 5593000    276.41003   -4819.6756   -4266.8214   -4819.6756            0    7279.7207    17.873206    23.139143    19.356147    8005.1347    6856.4671    7738.6538    7244.0412    164.15139    272.48044    775.36633   -3416.9382 
 5594000    262.85521   -4818.3345   -4292.5916   -4818.3345            0    8782.4751    17.850317    23.007427    19.269162    7913.6491    8129.6309    8951.0695    9266.7248    241.25405   -1114.6929   -232.12693   -3278.9846 
 5595000    257.44537   -4851.3311   -4336.4085   -4851.3311            0    8621.5316    17.969534    22.959403    19.221402    7930.1695    11087.894    7050.3437    7726.3573    233.97386   -649.52245   -2275.8975   -3339.2992 
 5596000    268.93286   -4816.0559   -4278.1569   -4816.0559            0    7728.1043    17.803486    22.947336    19.452425    7947.1437    9499.9211    6815.9867    6868.4051    1178.2566   -781.21436    471.90644   -3382.4624 
 5597000    267.50708   -4829.3333   -4294.2861   -4829.3333            0    8835.9845    18.043647    22.958781    19.090194    7908.3066    6678.8233    9951.6189    9877.5113   -140.20373    1010.4506    -723.0735   -3275.1919 
 5598000    259.97367   -4807.4635    -4287.484   -4807.4635            0    10149.596    17.926045    22.805239    19.385204    7924.8215    9782.1481    11157.789    9508.8505    1160.7385     551.8975    1143.4969   -3114.4405 
 5599000    258.83397   -4812.4552   -4294.7553   -4812.4552            0    7944.8529     17.99716    22.755343    19.382897    7937.9079    8798.5532    8745.4112    6290.5942    192.93315   -289.30959   -1495.9621   -3375.0095 
 5600000    262.20626   -4806.3279    -4281.883   -4806.3279            0    9413.7596    18.073438    22.621455    19.348044    7910.3986    9451.5985    10454.052    8335.6285    1074.8837   -1134.3788    1072.2361   -3195.8642 
 5601000     248.9899   -4831.8571   -4333.8465   -4831.8571            0    8160.6546    18.067757    22.771509    19.334568    7954.8234    6472.9486    9673.7501    8335.2652    694.57723    988.92378   -1155.2187    -3387.105 
 5602000    256.35839   -4815.4749   -4302.7264   -4815.4749            0    7607.8966    18.170585    22.684556    19.407214    7999.4915     7197.166    8218.9872    7407.5366    660.67935   -893.60829   -346.57863   -3415.1559 
 5603000    258.05823   -4792.1051   -4275.9568   -4792.1051            0    8056.1758    18.044844    22.470822     19.65369    7969.2267    8755.1981    7212.4062     8200.923   -815.97815   -1071.9966   -113.21339   -3339.6439 
 5604000    266.67908   -4806.9133   -4273.5222   -4806.9133            0    9149.6331    18.125918    22.686184    19.233732    7909.0632    7360.6351    9505.8924    10582.372    142.97113   -360.20221    513.77086   -3218.1526 
 5605000    278.95668   -4795.9552   -4238.0074   -4795.9552            0    9499.7707    17.946172    22.559863    19.492095    7891.6312    9213.8941    10745.099     8540.319    298.24873    829.90378   -1916.7266    -3144.666 
 5606000    259.40353    -4852.936   -4334.0969    -4852.936            0    6386.2603    18.254075    22.847467    19.232213    8020.9748    4846.3592    5498.8027    8813.6189   -520.10345   -75.846126      768.881   -3587.0469 
 5607000    270.35354   -4821.5444   -4280.8039   -4821.5444            0     8752.935    17.886983    22.720832    19.489842    7920.8112    10313.445    9626.9573    6318.4024    14.490357    953.61927   -449.88225   -3269.6919 
 5608000    260.34903   -4780.3844   -4259.6542   -4780.3844            0     9917.429    18.111386    22.790717    19.142735    7901.5745    8213.8202    10766.651    10771.816   -771.22753   -796.05285    12.617739   -3116.8058 
 5609000    264.21863   -4819.8636   -4291.3937   -4819.8636            0    9889.2614    17.858462    22.696802    19.446586    7882.2842    10869.821    9502.4677    9295.4955    1096.1618    -588.9221    142.46763   -3154.5733 
 5610000    284.72955   -4834.3024   -4264.8082   -4834.3024            0    9786.0339    18.077076    22.852512    19.135727    7905.0945    9240.4854     9371.577    10746.039    882.68703    243.18084   -1138.7243   -3136.5989 
 5611000    276.50718   -4802.7233   -4249.6748   -4802.7233            0    8632.3542    17.937668    22.862729    19.427285    7967.2081    6994.2023    8947.8574    9955.0027    892.71143   -155.34944    648.06033   -3246.6509 
 5612000    271.45973   -4822.7475   -4279.7945   -4822.7475            0     7276.513    18.044267    22.951766    19.236157    7966.6123    8854.6443    7194.0687    5780.8259    1035.6955     723.5596    107.04936   -3434.3738 
 5613000    262.68554   -4822.3659   -4296.9624   -4822.3659            0    9512.7799    17.868817    22.819799    19.323786     7879.521    8810.0201    9720.6164    10007.703      2399.65    74.485208     714.0614   -3203.8038 
 5614000    272.61359   -4814.8313   -4269.5705   -4814.8313            0     6500.577    18.228101    22.818919    19.310526    8032.1278    7112.8016    6904.7793    5484.1502    -1078.875   -444.38048   -1550.2441   -3508.0906 
 5615000    268.45625    -4835.595   -4298.6494    -4835.595            0    7161.1549    18.036778    22.830855    19.402867    7990.0049    8061.5932     6769.292    6652.5796    2796.3718    13.017019    1536.5086   -3464.1884 
 5616000    254.46924   -4832.1043   -4323.1344   -4832.1043            0     7743.322    18.033892    22.967122    19.264231    7978.9866    7403.4178    7548.6466    8277.9016    735.40759     647.8749    389.64842   -3422.0801 
 5617000    257.92481   -4836.1992   -4320.3177   -4836.1992            0    9037.8607    17.850422    22.735084    19.447522    7892.4043    9603.1698    9648.5518    7861.8605    1201.3797   -550.53492   -1440.3905   -3280.0362 
 5618000    259.72722   -4828.1231   -4308.6366   -4828.1231            0    9392.5153    17.935818    22.893655    19.280373    7916.8376    9185.5019    9093.3785    9898.6655   -395.30959   -54.715843   -1305.4834   -3224.1866 
 5619000    252.11273   -4820.4529   -4316.1963   -4820.4529            0    8042.8787    18.003677    22.763465    19.386457    7945.0756    8086.2748    8156.4213      7885.94    145.15648   -1731.3378   -125.82637   -3384.2617 
 5620000    254.79205   -4804.6929   -4295.0773   -4804.6929            0     7238.899    18.179551    22.565728    19.524548     8009.649    7517.9944    7569.4648    6629.2377     673.0051    123.57494    907.68795   -3449.4833 
 5621000    261.47316   -4834.4442   -4311.4656   -4834.4442            0    7874.8158    18.157752    22.694223    19.368672    7981.3664    8401.7013    7121.7934    8100.9526    291.84242   -476.89301    -715.4174   -3394.8367 
 5622000    278.36405   -4820.6173   -4263.8548   -4820.6173            0    8200.6704    17.977252    22.918323    19.364168    7978.2012    5832.8895    9152.3946    9616.7272    2387.3312    732.45214    913.41696    -3309.675 
 5623000    258.60366   -4805.4885   -4288.2493   -4805.4885            0      9278.51    18.020351    22.740127    19.320345    7917.1889    9854.2993    8862.2771    9118.9536   -1213.0766   -1114.7475   -382.63055   -3216.9146 
 5624000    276.55232   -4828.4574   -4275.3186   -4828.4574            0    8991.2343    17.933922    22.866204    19.352924    7936.2613    8638.4288     9462.579    8872.6952    32.977142   -686.93671    1269.7243   -3234.6531 
 5625000    272.50631   -4803.8247   -4258.7784   -4803.8247            0    7686.4099    17.922245    22.860842    19.441114    7965.3668    6977.0513    7668.2036    8413.9749    -270.1569   -235.38347   -2326.7852   -3365.8735 
 5626000     264.2195   -4832.2518   -4303.7802   -4832.2518            0    7970.4301    18.247541    22.755318    19.127086    7942.1128    7495.1781    7353.7934    9062.3186    1942.8253     -201.668   -398.09024   -3380.5846 
 5627000    255.91286    -4823.804   -4311.9467    -4823.804            0    7917.9227    18.002317    22.726926    19.447032    7956.5068    8446.5115    7979.5061    7327.7505   -485.12022    267.89006   -851.48242   -3393.1708 
 5628000    255.15758   -4813.3539   -4303.0072   -4813.3539            0    10472.405    17.973679    22.735846    19.296255    7885.3524     9861.282    10646.789    10909.145    307.52779    162.08784   -187.29456   -3098.6829 
 5629000    277.75726   -4794.4839   -4238.9351   -4794.4839            0    8215.4307    17.988054    22.909362    19.321858    7962.4377    8999.0913    7647.1834    8000.0175    158.62162   -934.63916    938.94675   -3284.9265 
 5630000     256.6763   -4839.3092   -4325.9249   -4839.3092            0    7932.0333    18.096377    22.717206    19.292001    7930.9251     7091.321    7831.7467    8873.0321    1529.7362    88.761392    1634.8446    -3408.471 
 5631000    250.73691   -4828.4146   -4326.9098   -4828.4146            0    8142.9334    17.992148    22.789638    19.312319    7918.7178     9981.971    8100.3827    6346.4465   -637.55597   -282.53252   -2751.0084   -3386.5119 
 5632000    274.23845   -4808.6079   -4260.0971   -4808.6079            0    7462.4545    18.009755    23.018063    19.218214    7966.9044    7414.8136    5876.0753    9096.4744    656.59822   -1177.0934    2203.6577    -3393.041 
 5633000    267.77154   -4800.9622    -4265.386   -4800.9622            0    8116.4522    17.976032    23.058705    19.217735    7965.8285    7787.3595    7122.4781    9439.5189   -1411.5208    39.492935    17.510703   -3322.4699 
 5634000    253.88715    -4827.522   -4319.7164    -4827.522            0    8319.6964    17.796072    23.080796    19.322001    7936.4633    9185.2449    6873.8712    8899.9731      107.006   -188.66635    881.37904   -3356.7516 
 5635000    261.96551   -4834.6266   -4310.6632   -4834.6266            0    8310.2546     17.88339    23.231244    19.102801    7936.3237    7929.3181    7709.2563    9292.1893    872.15648     368.6418    3018.7518   -3348.8082 
 5636000     281.5655   -4837.1376   -4273.9718   -4837.1376            0    7901.1243    17.831751    23.148713    19.270615    7954.5645    9649.0838    6956.0673    7098.2217    558.07159   -446.45426   -649.95023    -3357.369 
 5637000    265.09668   -4839.0274   -4308.8013   -4839.0274            0     8753.554    17.814857    23.069051    19.246426    7909.7389    9245.2498     9562.837    7452.5752   -596.16497   -354.61465   -1944.2177   -3299.0313 
 5638000    263.75807    -4818.488   -4290.9393    -4818.488            0    8712.8639    17.707219    23.441293    19.092304    7924.8354    8041.3691     7307.632    10789.591    43.221699    73.389236    736.93075   -3283.9448 
 5639000    258.14645   -4833.2815   -4316.9567   -4833.2815            0     9664.693    17.826086    23.020156    19.172056    7867.4313    9779.3437    9593.8216    9620.9137    887.75818    758.69513    1511.0106   -3208.0451 
 5640000    264.65451    -4802.957   -4273.6153    -4802.957            0    9440.8641    17.873267    23.123144    19.210772    7939.5453    11141.488    8457.0568    8724.0479    -574.3563    -108.8885    1622.6109   -3180.4565 
 5641000    253.60565   -4807.6579   -4300.4152   -4807.6579            0    8067.0266    17.604354    23.237884     19.37653    7926.7047    10628.406    6935.0934    6637.5802    -524.1676     1071.247    779.26621   -3367.8439 
 5642000    271.83253    -4829.307   -4285.6084    -4829.307            0    10244.464    17.897524    23.172276    19.049355      7900.27     10929.72    9570.3255    10233.347   -693.57171    626.69722   -1606.9423   -3105.2685 
 5643000    262.53719   -4837.5648    -4312.458   -4837.5648            0    6177.2087     18.01012    23.192816    19.232189    8033.3894    5778.5703    6111.9476    6641.1083     839.2314    892.06468   -145.07499    -3588.744 
 5644000    269.07764   -4821.0334   -4282.8449   -4821.0334            0    8878.3277    17.754579    23.175607    19.146642    7878.3291    10838.482    7502.6496    8293.8517    465.70644   -563.24054    566.06949   -3262.7486 
 5645000    258.21294   -4817.6662   -4301.2084   -4817.6662            0    5600.6198    17.949654     23.23158    19.243954    8024.7063    5019.0346    4758.3323    7024.4926    1429.5908    49.397427   -450.69187   -3645.7561 
 5646000    264.18267   -4836.9572   -4308.5593   -4836.9572            0     8060.224    17.832546     23.22275     19.11726    7916.8541     10061.45    5676.1086    8443.1129    -20.55378   -918.18293    525.24694   -3377.9323 
 5647000    249.99913   -4830.3257   -4330.2966   -4830.3257            0    7886.8889    17.908904    23.060173    19.241308    7946.3221    7015.2345    6933.7162    9711.7161    -465.0156   -163.50591   -248.51279   -3416.2933 
 5648000    257.47683   -4820.5417   -4305.5562   -4820.5417            0    9363.1448    17.866227     23.11535    19.203528    7930.7513     9019.031    8877.0616    10193.342    678.65144   -95.238371   -428.65341   -3222.5974 
 5649000    266.49491   -4801.8305   -4268.8077   -4801.8305            0    6849.0829    17.914917    23.013547    19.480514    8031.5389    8201.6671    5865.7847    6479.7968    131.78742   -800.21684    536.87846   -3466.5626 
 5650000     261.9179   -4833.7826   -4309.9145   -4833.7826            0    8247.8944    17.923379    23.065557    19.157871    7920.1078    7679.2414    7817.6801    9246.7618    925.44699    372.30845   -1212.6768   -3357.2278 
 5651000    272.49569   -4789.6245   -4244.5995   -4789.6245            0    6941.9539    17.892137    23.123365    19.294098     7982.478     9788.737     5082.963    5954.1617   -1220.1709    114.17745   -685.94175   -3436.4432 
 5652000    267.25594   -4808.9447   -4274.3997   -4808.9447            0    9345.3272    17.659104    23.404936    19.182158    7928.1815    9353.1248    8759.3315    9923.5252   -799.89959   -1693.8476   -208.23234    -3193.852 
 5653000    272.87567   -4826.1195   -4280.3345   -4826.1195            0    7499.9521    17.762597    23.150719    19.358325    7960.4701    8044.5119    7766.9681    6688.3762   -1290.4862    360.03056   -359.14591   -3409.6254 
 5654000    254.33813   -4800.8694   -4292.1617   -4800.8694            0    8517.8191    17.895352    23.036735    19.231569    7928.2232    10688.361    7108.1087    7756.9879   -2538.4152    218.92463   -1104.6367   -3307.2888 
 5655000    269.81352   -4840.1798   -4300.5194   -4840.1798            0    9792.5674    17.804998    23.243602    19.035359    7877.8271    10887.921    7927.3985    10562.383   -846.32238   -565.81116    1198.0058    -3175.451 
 5656000    254.48963   -4831.3775   -4322.3668   -4831.3775            0    8776.5307      17.7601    23.120499    19.252978    7905.7035    8305.2706     9147.727    8876.5944   -233.18872     1523.683    -1521.714   -3310.4628 
 5657000    258.74739   -4829.6444   -4312.1177   -4829.6444            0    6760.2164    18.009812    23.178117    19.169207    8001.8698     7178.926    6993.7812     6107.942   -1963.3626    837.13721   -446.70606   -3523.2067 
 5658000    261.02518   -4853.9354   -4331.8527   -4853.9354            0    7706.8771    17.872888    22.858366    19.390393    7921.8486    8865.4731    7982.7592    6272.3991    512.30683    778.88133    220.76236   -3441.4615 
 5659000     270.7454   -4857.7669   -4316.2427   -4857.7669            0    7055.0258    18.181463    22.927931    19.104631      7964.02    4627.4297     7520.945    9016.7029    656.45676    148.92774     792.9716   -3496.8222 
 5660000     263.4558   -4814.2446   -4287.3004   -4814.2446            0    7198.8458     17.83802    22.922347    19.553451    7995.1969    9003.5917    6798.3583    5794.5874    1268.3371    407.14171     2033.327   -3447.9024 
 5661000    258.94323   -4838.5487   -4320.6303   -4838.5487            0    7349.0613    18.147605    22.751665    19.314263     7974.632     6379.535     7411.846    8255.8029    547.66647    1554.1615    1406.6056    -3465.921 
 5662000    258.79397   -4810.6277   -4293.0078   -4810.6277            0    7282.4886    17.923152    22.925159    19.390207    7967.2635    6725.2552    7915.9837    7206.2269    925.99716    412.59905    318.39415   -3446.8236 
 5663000    262.30468   -4815.6026   -4290.9609   -4815.6026            0     10053.66    17.930595    22.816563    19.292767    7892.9517    10929.373    9488.2263    9743.3817    21.747115   -495.85474    88.060918   -3133.6779 
 5664000    263.02584   -4819.3204   -4293.2363   -4819.3204            0    11094.739    17.732655    22.903604    19.331248     7851.226    11411.755    10554.744     11317.72   -742.94136    -374.8002   -478.20627   -3022.8655 
 5665000    270.56054   -4841.3085    -4300.154   -4841.3085            0    8330.1875    17.970594    22.933867     19.23797    7928.6449    7780.3866     7821.921    9388.2549    -536.8809    272.45996   -796.76544   -3336.9248 
 5666000    280.59373   -4804.0606   -4242.8385   -4804.0606            0    7939.4168    17.864882    23.155668    19.223837    7952.3872    8423.3853    7495.9133    7898.9517   -443.07965    70.411934   -1548.2313   -3322.0455 
 5667000    256.26992   -4813.0261   -4300.4546   -4813.0261            0    7583.8483    17.895517    23.119916    19.260308     7968.815    7631.0032    7576.7565    7543.7851    691.45422   -308.31696   -2656.2742   -3419.0826 
 5668000    265.59621   -4787.4867   -4256.2615   -4787.4867            0    9761.8117    17.713562    23.156116    19.227814    7886.8126    9933.6227    9040.0231    10311.789   -41.538418   -1677.9051    290.92808   -3133.4474 
 5669000    290.63323    -4825.918   -4244.6156    -4825.918            0    9791.1565     17.71079    23.089303    19.305806    7894.7194    10399.967    9348.8273    9624.6749   -707.57129    1159.4271   -1125.0184   -3117.2973 
 5670000    263.33416     -4809.16   -4282.4591     -4809.16            0    8091.9961    17.988087     22.98362    19.285238     7973.122    7162.9121    8453.3568    8659.7194    522.43202    -160.8524    115.28923   -3341.5234 
 5671000    263.76209   -4808.8739   -4281.3171   -4808.8739            0    7855.1366    17.924805    23.148125    19.229576     7978.844    6833.8049    8604.7652    8126.8396    1868.8046   -173.40493     1575.423   -3367.2678 
 5672000    260.23755   -4824.1716   -4303.6644   -4824.1716            0    8931.0261    17.656439    23.255552    19.283377    7917.9523    9129.6753    8023.6321    9639.7708   -1013.3835   -1108.9371   -1364.4626   -3272.3522 
 5673000    248.33843    -4816.107   -4319.3995    -4816.107            0    8598.5823    17.841661    23.122485    19.223259    7930.4314    9323.9705    7475.3666    8996.4097    303.61801   -422.93805    739.54836   -3324.9115 
 5674000    262.47984   -4818.3829   -4293.3908   -4818.3829            0    9233.1087    17.767715    23.228514    19.196403    7922.6936    10416.452    8378.0727    8904.8015    119.44257    1836.9283   -126.57024   -3226.5572 
 5675000    260.79933     -4832.66   -4311.0292     -4832.66            0    7218.4258    17.900469    23.158175    19.246018    7978.2864    8219.0148    4778.8225      8657.44    858.69879   -919.33917    937.42342   -3471.1283 
 5676000    263.36552   -4818.5179   -4291.7543   -4818.5179            0    9882.7869    17.871739    23.041701    19.132309    7878.5944    9074.5259    9883.2892    10690.546   -802.90357    123.94811      461.382   -3156.2101 
 5677000    263.65017   -4794.3866   -4267.0537   -4794.3866            0    7871.7833     17.91647    23.133122    19.206091     7960.231    8032.6896    6780.4176    8802.2429   -590.51215   -553.30338    1649.8043   -3353.2042 
 5678000     280.6984   -4844.3085    -4282.877   -4844.3085            0    8028.1674    17.924787    23.020127    19.227379    7933.8102    8060.8158    6947.0361    9076.6502   -1345.3867    344.48074   -1313.8837    -3353.966 
 5679000    267.52447   -4804.5454   -4269.4634   -4804.5454            0    8198.9142    17.979408    22.932899    19.306417    7960.4206    9994.9758    7132.9088    7468.8579    943.83673    1315.1362    308.02067    -3317.614 
 5680000    261.81827   -4803.6795   -4280.0106   -4803.6795            0     7846.985    17.829553    22.908704    19.430395    7936.3827    6236.2684    8381.9888    8922.6977     171.1914    466.78031    263.90357   -3371.7692 
 5681000    256.53042   -4824.9473   -4311.8548   -4824.9473            0     8184.277    18.037404    22.946511    19.238845    7962.8712    7865.9334    7848.4483    8838.4495   -229.77357   -512.50944   -1039.0275   -3361.4122 
 5682000     263.4007   -4810.0279    -4283.194   -4810.0279            0    10833.112     17.92035       22.931    19.292192      7927.77    11140.561    10566.769    10792.006    1273.1007    989.17453    1934.0996   -3030.6869 
 5683000    259.10174   -4829.4998   -4311.2643   -4829.4998            0    9495.5965    18.006448    22.983136    19.102258    7905.3676    8324.7746    10248.065    9913.9495    701.05812    484.02586    1740.9021   -3216.5011 
 5684000    265.20024   -4855.6251   -4325.1919   -4855.6251            0    7543.8677    18.098258    22.782487    19.284579    7951.4816    6030.6884    8402.6829    8198.2319   -42.299849    73.129426   -1778.1839   -3450.3732 
 5685000     266.4518   -4799.6516    -4266.715   -4799.6516            0    8316.3188    17.996421     22.74584    19.478589    7973.4378    9282.0889    8949.3955     6717.472    1028.5444    941.01353   -813.65807   -3299.6568 
 5686000    259.97686   -4782.7533   -4262.7675   -4782.7533            0    11556.853    18.059003    22.708473    19.190629    7869.9306    11083.998    11627.975    11958.586    1621.4565   -777.66116    1044.1681   -2936.3313 
 5687000    258.87042   -4827.3747   -4309.6019   -4827.3747            0     8391.126    17.931487    22.749932    19.449296    7934.1481    8727.7567    10666.515     5779.106    280.59105    1144.5495    -154.1873   -3338.6529 
 5688000    260.33035   -4786.5185   -4265.8257   -4786.5185            0     9262.805     18.09096    22.805017    19.219789    7929.4054    8818.8982    9475.6267      9493.89    298.54483   -225.79178   -896.41376   -3194.6541 
 5689000    247.52388   -4822.7836   -4327.7052   -4822.7836            0    6674.8703    17.787778    23.013937    19.478692      7973.93    7363.7646    6099.4859    6561.3603    117.40222   -630.19961    1302.4521    -3551.474 
 5690000    270.88495   -4787.0411   -4245.2378   -4787.0411            0     8474.861    18.030634    22.905191    19.322307    7980.0186    8863.7205    8132.7396    8428.1231   -779.90215    382.79374    38.560637   -3258.9302 
 5691000    269.61215   -4814.2365   -4274.9789   -4814.2365            0    9674.0098    18.030109    22.659002    19.319357    7892.8127    9198.5271    9737.2597    10086.243    1651.2496   -930.08336    1098.6107   -3161.4174 
 5692000    275.45565   -4825.9505   -4275.0052   -4825.9505            0    8809.0581    18.067274    22.697775    19.354185    7936.8978     6992.978    9731.5641    9702.6323   -2153.2085    187.05388     763.2831   -3255.3434 
 5693000    256.11468   -4799.4674   -4287.2064   -4799.4674            0    9063.2776    17.985218    22.617075    19.512017     7936.962    9741.5067    9626.5789    7821.7473    640.44511   -742.55337    496.59346   -3238.1098 
 5694000    265.70125   -4811.1923   -4279.7569   -4811.1923            0    8663.1792    17.992737    22.671254    19.482818    7947.3901    10059.379    8533.8679    7396.2903    1551.9591   -374.48202    679.48918   -3275.6552 
 5695000    254.56262   -4797.3688   -4288.2121   -4797.3688            0    10338.824    18.036078    22.827474    19.250343    7925.7144    8756.1571     11614.62    10645.694   -372.89705    627.00017     260.7078   -3093.1639 
 5696000    261.77987   -4831.9249   -4308.3328   -4831.9249            0    6390.8537    17.948842    22.946088    19.388363    7985.2078     6734.511      5916.83    6521.2202   -280.49087    851.27076   -795.04869   -3564.0791 
 5697000    269.38692   -4829.9524   -4291.1453   -4829.9524            0    7390.8127    18.183178    22.811441    19.177397    7954.4868    6141.5335    8809.0758    7221.8289     211.3043    1110.8062    673.00539   -3433.7517 
 5698000    254.51276   -4795.3575   -4286.3005   -4795.3575            0    9093.0431    17.858958    22.886473    19.432609    7942.6623      9309.93    9662.2896    8306.9096    873.98407   -501.34939   -673.46184   -3233.0026 
 5699000    265.51445   -4806.1728   -4275.1111   -4806.1728            0    7768.7475    18.045011    23.008251    19.256503    7994.9943    8069.4795    7779.6669    7457.0959    -808.9692     343.4854    -447.3257   -3369.2846 
 5700000     259.6944   -4810.7825   -4291.3616   -4810.7825            0    8949.0485     17.81581    23.156115    19.176701    7911.2509    7122.0015    9664.0302    10061.114   -574.23136     427.9638     418.2087   -3258.8429 
 5701000     258.5167   -4804.3028   -4287.2375   -4804.3028            0    8061.7138    17.762284    23.329654    19.195216    7954.2661    10006.334     5651.404    8527.4032   -119.00759   -741.28972   -364.40693   -3352.0399 
 5702000    262.07547   -4827.1437   -4302.9603   -4827.1437            0    7878.6435    17.810555    23.303438    19.191462    7965.3619    9399.8181    5592.7728    8643.3397   -835.08166    31.727343    1443.8686   -3387.7248 
 5703000    256.35886   -4840.2316   -4327.4822   -4840.2316            0    8515.4521    17.874765    23.072445    19.247032    7937.7558    10380.751    8017.7798    7147.8257   -690.16385    749.22787   -853.04194   -3341.6992 
 5704000    254.31686   -4831.3134   -4322.6483   -4831.3134            0    10501.648    17.831425     23.04126    19.178796    7879.7711    10914.952    10059.245    10530.748    1404.5485   -134.94729     2521.819   -3115.8159 
 5705000    254.20947   -4839.1717   -4330.7214   -4839.1717            0     8596.734     17.90176    23.265766    19.167214    7983.1095    8437.6155    8851.7488    8500.8377   -290.41176    2131.4557   -530.01126   -3329.8426 
 5706000    260.81917   -4837.7827   -4316.1121   -4837.7827            0    6300.7903    17.753893    23.229956    19.309871    7963.8187    8046.9491    5529.4549    5325.9669    1161.0672   -482.80539   -168.93586   -3584.3123 
 5707000    263.31087   -4811.9937   -4285.3395   -4811.9937            0    9677.7879    17.853069     23.07059    19.158775    7891.1324    9266.6005    8537.7179    11229.045    968.99925   -142.74619    202.24867   -3171.5802 
 5708000    265.12013   -4801.7855   -4271.5125   -4801.7855            0     8789.309    17.766713    23.057484    19.369493    7934.8234    10840.871    7955.2366    7571.8189   -456.44845   -588.08385   -118.40063   -3254.4026 
 5709000    276.18811   -4850.0814    -4297.671   -4850.0814            0    6171.3241    17.675407    23.485087    19.197698    7969.1271    7069.0887    4648.5327     6796.351   -198.42616     -693.228   -40.629183   -3580.4302 
 5710000    267.81962   -4800.5772   -4264.9049   -4800.5772            0    9002.8384    18.062732     22.95179    19.092823    7915.3501    9326.0338    9083.9527    8598.5286   -166.68577    299.27388   -496.85295   -3225.6419 
 5711000    267.79569   -4813.2356   -4277.6112   -4813.2356            0    9888.6909    17.788095    23.000959    19.283031    7889.5222    9902.9446     10037.37     9725.758    751.04536   -17.609072   -45.217252   -3139.8126 
 5712000     265.2053   -4818.1139   -4287.6705   -4818.1139            0    9354.5671    17.963595    22.927659    19.152703    7888.2933    9749.8227    9776.1688    8537.7099    -1063.031    86.103978    732.58176   -3211.4962 
 5713000    269.94884   -4830.1089   -4290.1779   -4830.1089            0    8718.4294    17.877685    22.845832    19.405246     7925.696    8249.4378    9963.9212    7941.9292    693.17252    896.01577    1107.2461   -3282.4308 
 5714000    250.72565   -4795.8789   -4294.3966   -4795.8789            0    9879.8482    17.995085    22.960285    19.135018    7906.0592    8053.1911    10400.897    11185.457    1023.2125     81.49622    1612.2043   -3155.2327 
 5715000    256.11118   -4853.7581   -4341.5041   -4853.7581            0    8760.1468    17.819718    22.997446    19.315789    7915.7648    8118.9961    9141.6201    9019.8242   -1205.7686     202.0818   -1275.6608   -3330.2038 
 5716000    254.93151   -4807.7313   -4297.8368   -4807.7313            0    7793.5408    17.991284    23.047778    19.179001    7952.7478    8301.9098    7387.8674    7690.8452     1502.503   -514.19574    652.54712   -3393.9211 
 5717000    246.42421   -4831.5339   -4338.6551   -4831.5339            0    6020.4686    18.037093    22.964238    19.338186     8010.033     5387.396    6480.3589    6193.6509   -1552.9641   -726.44798   -1856.9807   -3635.3553 
 5718000    257.04744   -4785.4059   -4271.2793   -4785.4059            0    8617.6383    17.774817    23.200498    19.213383    7923.3033    9343.6246    8268.8895    8240.4009   -51.854268   -257.45124   -677.79164   -3275.4832 
 5719000     260.4277   -4815.8335    -4294.946   -4815.8335            0    7069.1689    17.908856    23.058826    19.309873    7974.1506    7071.8995    7025.8852    7109.7221     762.5379   -193.21132    874.88406   -3472.8383 
 5720000    251.76481     -4834.09   -4330.5293     -4834.09            0    7305.8233    17.842498    23.309436     19.14645     7962.981    8317.1739    5493.1782    8107.1177   -774.96255   -450.09611   -1332.6912   -3482.0901 
 5721000    262.81619   -4829.8745   -4304.2096   -4829.8745            0    7537.2404    17.892287      23.1773    19.227362    7973.4893    7259.7074    7506.5139    7845.4999    1309.2959    649.64662   -93.478457   -3427.7404 
 5722000    252.00076   -4841.5056   -4337.4729   -4841.5056            0    8004.4897    17.888645    23.054208    19.266236    7945.5599    7239.8976    8544.5379    8229.0336    735.71414    1312.6546   -1687.1142   -3409.9299 
 5723000    254.19138   -4822.9348   -4314.5206   -4822.9348            0    8743.9591    17.900738    23.182177    19.069656    7913.4891    8249.1961    8578.8772    9403.8042    957.56362    346.16175    387.66729   -3305.3792 
 5724000    269.43079   -4839.3996   -4300.5047   -4839.3996            0    7293.3803    17.681388    23.280749    19.361754    7969.9942    8156.8541    5687.1284    8036.1585   -552.14139   -1054.0554   -1952.8531   -3452.7646 
 5725000    271.92461   -4850.4867   -4306.6039   -4850.4867            0    10589.123    17.998721    22.915118    19.125607    7888.2196    11018.328    10193.617    10555.426     827.8018   -126.26127    305.17033   -3088.4143 
 5726000    260.16041   -4821.8944   -4301.5414   -4821.8944            0    7155.8157    17.978752    22.974931    19.315011    7978.2698    8268.3514    6359.1601    6839.9356    594.63847   -344.90997   -986.10052   -3468.9273 
 5727000    272.05343   -4774.3482   -4230.2077   -4774.3482            0    8743.5106    17.959358    22.764848    19.470846    7960.5011    9766.2961    8714.0431    7750.1925   -62.292916     -585.233    303.66205   -3215.1234 
 5728000    275.31224   -4815.9457   -4265.2872   -4815.9457            0    8646.6831    18.091301    22.803155    19.225607    7931.3076    7116.2288    9628.2091    9195.6114    1846.9336   -898.02921   -202.17595   -3265.1255 
 5729000    267.75147   -4806.4134   -4270.8774   -4806.4134            0    8400.8101    17.979512    22.632539      19.5742    7965.1727    10107.103    7388.0168    7707.3102   -622.49409   -423.44793   -149.68113   -3295.0067 
 5730000    273.11382   -4805.9828   -4259.7214   -4805.9828            0     7406.807    18.097629    22.831258     19.45518    8038.7175    7608.8749    8582.8417    6028.7043   -1315.2651    411.85401    2228.2599   -3391.3737 
 5731000    276.24824   -4821.8861   -4269.3555   -4821.8861            0     8675.917    17.888132    22.962114    19.338966    7943.4671    10271.653    7283.8515    8472.2461   -560.44682   -67.625617   -537.70355   -3264.2738 
 5732000    258.96057   -4807.1668   -4289.2136   -4807.1668            0    8708.9342    18.075762    22.825228    19.217018    7928.6223    7908.6759    8664.4934    9553.6335    -48.41018   -219.11623    -848.4308   -3282.1924 
 5733000    261.76079   -4833.6018   -4310.0479   -4833.6018            0    8012.8422    17.880108    22.684952    19.601167    7950.4178    7930.1881    9903.9002    6204.4383    1299.5987    1168.3584   -299.78006   -3380.9693 
 5734000    270.24387   -4822.4434   -4281.9223   -4822.4434            0    8118.7233    18.151207    22.794207    19.186788    7938.3875    8607.8526    7749.6879    7998.6295   -165.24813    45.077001    1687.3279   -3341.9914 
 5735000    259.60152   -4824.4507   -4305.2156   -4824.4507            0    9239.7305    17.741088    22.748931    19.552356    7891.1508    9647.7812    9342.0586    8729.3518   -64.146726    125.42442     -673.833   -3241.8673 
 5736000    260.73744   -4830.0701    -4308.563   -4830.0701            0    7375.4214     18.18347    22.874498    19.188343    7981.1563    5832.7672    7372.8751     8920.622   -530.22372   -204.96553   -801.19829   -3450.0862 
 5737000     243.7881   -4790.2465   -4302.6402   -4790.2465            0    7864.9778    17.928072    22.757901    19.528971    7967.9233    8229.1951    8091.6879    7274.0505    473.50575   -367.23001    516.48494   -3388.6984 
 5738000    265.89584   -4803.1402   -4271.3157   -4803.1402            0    7923.7345    18.041708     22.87027    19.278504    7954.6724    8918.9348    8681.3836    6170.8852    312.84026    501.99716    1101.0986   -3352.0774 
 5739000     279.6372   -4853.9252   -4294.6163   -4853.9252            0    7568.5913    17.860733    22.879803    19.462647    7953.4117    8901.0821    7896.7822    5907.9096   -53.988651    961.22158    1639.0186   -3416.7176 
 5740000    277.97084   -4823.9093   -4267.9333   -4823.9093            0    10678.477    18.075553    22.725609    19.190722    7883.1256    11419.412    10715.973    9900.0442   -750.04054    557.78133    638.44925   -3040.2576 
 5741000    254.91891   -4828.5512   -4318.6818   -4828.5512            0     8795.008    17.980212    22.673081    19.498384    7948.8437    8654.3971    9471.2278    8259.3991    608.76049    11.840639   -1213.8498   -3299.1141 
 5742000    249.29173   -4800.2888   -4301.6745   -4800.2888            0    8199.1771    18.096837    22.703175    19.359638    7954.0169     5885.083    9181.7528    9530.6956    -788.4785    83.813791    186.61565   -3350.5603 
 5743000    266.54933    -4791.316   -4258.1844    -4791.316            0     8669.875    17.857975    22.895718    19.417509    7939.2592    9050.7042     7710.002    9248.9186    610.72532   -1447.7981    385.98123   -3254.3347 
 5744000    275.01285   -4828.5702   -4278.5105   -4828.5702            0    8377.9753    18.049545    22.893506    19.197593    7932.7788    8482.0359    8742.8284    7909.0615    30.369121   -272.35853    1555.6835   -3309.2505 
 5745000     267.8813   -4788.7255   -4252.9298   -4788.7255            0    9856.1302     18.05547    22.676449    19.421097    7951.6564     9350.231    11315.997    8902.1626    371.22395    2421.0364    606.23657   -3109.9464 
 5746000    261.45963   -4823.3297   -4300.3781   -4823.3297            0    5180.2974    18.240664    22.717259    19.477387    8070.9986    4919.9529     5597.621    5023.3184    760.65305    34.078077   -46.956755   -3690.6196 
 5747000    269.61478   -4836.1237   -4296.8608   -4836.1237            0    7857.1346    17.936373    22.811452    19.391748    7934.2252    9339.1843    7561.4875    6670.7318    651.20014   -731.83907   -371.09338   -3387.6918 
 5748000     261.0379    -4788.985    -4266.877    -4788.985            0    6684.2387    18.056999    22.977296    19.280819    7999.6313    6268.4937    6820.1153    6964.1071   -638.84107    57.078472    84.005197   -3487.0508 
 5749000    259.20121   -4833.5627   -4315.1283   -4833.5627            0    6492.8052    18.051872    22.860716    19.374798    7995.5669    4873.9344    7723.9354     6880.546   -120.38539    1074.4285    95.365256   -3558.0208 
 5750000    269.53447   -4790.0981   -4250.9959   -4790.0981            0    8665.0793    18.049054    22.739477     19.33446    7935.3664     9216.246    9111.1654    7667.8264   -2308.5764    1287.4447    1389.8811   -3248.1934 
Loop time of 644.695 on 64 procs for 250000 steps with 1008 atoms

Performance: 67.008 ns/day, 0.358 hours/ns, 387.780 timesteps/s
99.3% CPU use with 64 MPI tasks x 1 OpenMP threads

MPI task timing breakdown:
Section |  min time  |  avg time  |  max time  |%varavg| %total
---------------------------------------------------------------
Pair    | 28.022     | 31.903     | 36.527     |  32.4 |  4.95
Bond    | 0.28066    | 0.29014    | 0.30948    |   1.3 |  0.05
Kspace  | 298.38     | 313.42     | 335.09     |  52.5 | 48.62
Neigh   | 4.2372     | 5.3258     | 7.1314     |  32.5 |  0.83
Comm    | 123.73     | 147.19     | 166.63     |  83.6 | 22.83
Output  | 1.2744     | 1.2753     | 1.288      |   0.2 |  0.20
Modify  | 133.94     | 139.41     | 142.72     |  22.2 | 21.62
Other   |            | 5.88       |            |       |  0.91

Nlocal:        15.7500 ave          20 max          11 min
Histogram: 3 2 5 6 11 14 10 6 5 2
Nghost:        2519.08 ave        2539 max        2495 min
Histogram: 4 1 6 7 5 10 10 13 5 3
Neighs:        5274.16 ave        6750 max        3632 min
Histogram: 3 2 5 6 11 14 10 6 5 2

Total # of neighbors = 337546
Ave neighs/atom = 334.86706
Ave special neighs/atom = 2.0000000
Neighbor list builds = 9754
Dangerous builds = 0

unfix		3
unfix		2
unfix		1

write_data	data.final.${pid}
write_data	data.final.0
System init for write_data ...
PPPM initialization ...
  extracting TIP4P info from pair style
  using 12-bit tables for long-range coulomb (../kspace.cpp:340)
  G vector (1/distance) = 0.37856274
  grid = 24 27 32
  stencil order = 5
  estimated absolute RMS force accuracy = 0.0025446918
  estimated relative force accuracy = 7.6632637e-06
  using double precision FFTW3
  3d grid and FFT values/proc = 3825 384
Last active /omp style is kspace_style pppm/tip4p/omp
WARNING: Not all mixed pair coeffs generated from mixing. Use write_data with 'pair ij' option to store all pair coeffs. (../write_data.cpp:312)

write_restart   restart.lmp.${pid}
write_restart   restart.lmp.0
System init for write_restart ...
PPPM initialization ...
  extracting TIP4P info from pair style
  using 12-bit tables for long-range coulomb (../kspace.cpp:340)
  G vector (1/distance) = 0.37856274
  grid = 24 27 32
  stencil order = 5
  estimated absolute RMS force accuracy = 0.0025446918
  estimated relative force accuracy = 7.6632637e-06
  using double precision FFTW3
  3d grid and FFT values/proc = 3825 384
Last active /omp style is kspace_style pppm/tip4p/omp
Total wall time: 0:10:47
