LAMMPS (30 Jul 2021)
  using 1 OpenMP thread(s) per MPI task
package omp 0
using multi-threaded neighbor list subroutines
echo both

include		in.partitions
variable        pid world 0
include		in.temp
variable        temperature equal 254.38
variable	tempDamp equal 100.0
include		in.pressure
variable        pressure equal 1625.0
variable        pressureDamp equal 1000.0 # This is 1 ps
include		in.seed
variable        seed world 745823

units		real
atom_style	full

read_restart	restart.lmp.${pid}
read_restart	restart.lmp.0
Reading restart file ...
  restart file = 30 Jul 2021, LAMMPS = 30 Jul 2021
  restoring atom style full from restart
  orthogonal box = (-0.12296429 -0.073230942 -0.11150250) to (20.122965 20.073232 20.811500)
  4 by 4 by 4 MPI processor grid
  restoring pair style lj/cut/tip4p/long/omp from restart
  restoring bond style harmonic/omp from restart
  restoring angle style harmonic/omp from restart
  972 atoms
  648 bonds
  324 angles
Finding 1-2 1-3 1-4 neighbors ...
  special bond factors lj:    0        0        0       
  special bond factors coul:  0        0        0       
     2 = max # of 1-2 neighbors
     1 = max # of 1-3 neighbors
     1 = max # of 1-4 neighbors
     2 = max # of special neighbors
  special bonds CPU = 0.628 seconds
  read_restart CPU = 0.839 seconds
include 	in.setup
variable	out_freq equal 1000
variable	out_freq2 equal 10000
variable	out_freq3 equal 1000

timestep	2.0

neigh_modify    delay 7 every 1

include		in.tip4p
# This is TIP4P/Ice

# create groups ###
group ox type 2
324 atoms in group ox
group hy type 1
648 atoms in group hy

# set charges - beside manually ###
set group ox charge -1.1794
Setting atom values ...
  324 settings made for charge
set group hy charge 0.5897
Setting atom values ...
  648 settings made for charge

# ### TIP3P Potential Parameters ###
pair_style lj/cut/tip4p/long/omp 2 1 1 1 0.1577 8.5
pair_coeff 1 1*2 0.000 0.000
pair_coeff 2 2 0.21084 3.1668
bond_style  harmonic
bond_coeff  1 450 0.9572
angle_style harmonic
angle_coeff 1 55 104.52
kspace_style pppm/tip4p/omp 1.0e-5
pair_modify tail yes

thermo          ${out_freq}
thermo          1000
thermo_style    custom step temp pe etotal epair emol press lx ly lz vol pxx pyy pzz pxy pxz pyz enthalpy

restart 	${out_freq3} restart.lmp.${pid} restart2.lmp.${pid}
restart 	1000 restart.lmp.${pid} restart2.lmp.${pid}
restart 	1000 restart.lmp.0 restart2.lmp.${pid}
restart 	1000 restart.lmp.0 restart2.lmp.0


include         in.dump
dump            myDump all atom ${out_freq2} dump.water.${pid}
dump            myDump all atom 10000 dump.water.${pid}
dump            myDump all atom 10000 dump.water.0
dump            myDump2 all dcd ${out_freq2} dump.dcd
dump            myDump2 all dcd 10000 dump.dcd
dump_modify     myDump append yes
dump_modify     myDump2 append yes


variable natoms 	equal  "count(all)"                        # NUMBER ATOMS
variable H      	equal  "enthalpy/v_natoms"                 # ENTHALPY-per-atom
variable Vol      	equal  "vol/v_natoms"                 # volume-per-atom
fix AVG all 		ave/time ${out_freq} 1 ${out_freq} v_Vol v_H file vol_enthalpy.dat
fix AVG all 		ave/time 1000 1 ${out_freq} v_Vol v_H file vol_enthalpy.dat
fix AVG all 		ave/time 1000 1 1000 v_Vol v_H file vol_enthalpy.dat


timer           timeout 02:55:00 every 1000
New timer settings: style=normal  mode=nosync  timeout=02:55:00

fix 		1 all shake 1e-6 200 0 b 1 a 1
       0 = # of size 2 clusters
       0 = # of size 3 clusters
       0 = # of size 4 clusters
     324 = # of frozen angles
  find clusters CPU = 0.003 seconds
fix             2 all nph aniso ${pressure} ${pressure} ${pressureDamp}
fix             2 all nph aniso 1625 ${pressure} ${pressureDamp}
fix             2 all nph aniso 1625 1625 ${pressureDamp}
fix             2 all nph aniso 1625 1625 1000
fix             3 all temp/csvr ${temperature} ${temperature} ${tempDamp} ${seed}
fix             3 all temp/csvr 254.38 ${temperature} ${tempDamp} ${seed}
fix             3 all temp/csvr 254.38 254.38 ${tempDamp} ${seed}
fix             3 all temp/csvr 254.38 254.38 100 ${seed}
fix             3 all temp/csvr 254.38 254.38 100 745823


run             250000
PPPM initialization ...
  extracting TIP4P info from pair style
  using 12-bit tables for long-range coulomb (../kspace.cpp:340)
  G vector (1/distance) = 0.37168224
  grid = 24 24 25
  stencil order = 5
  estimated absolute RMS force accuracy = 0.0034978252
  estimated relative force accuracy = 1.0533597e-05
  using double precision FFTW3
  3d grid and FFT values/proc = 2366 288
Last active /omp style is kspace_style pppm/tip4p/omp
Neighbor list info ...
  update every 1 steps, delay 7 steps, check yes
  max neighbors/atom: 2000, page size: 100000
  master list distance cutoff = 10.8154
  ghost atom cutoff = 10.8154
  binsize = 5.4077, bins = 4 4 4
  1 neighbor lists, perpetual/occasional/extra = 1 0 0
  (1) pair lj/cut/tip4p/long/omp, perpetual
      attributes: half, newton on, omp
      pair build: half/bin/newton/omp
      stencil: half/bin/3d
      bin: standard
Per MPI rank memory allocation (min/avg/max) = 9.224 | 9.228 | 9.235 Mbytes
Step Temp PotEng TotEng E_pair E_mol Press Lx Ly Lz Volume Pxx Pyy Pzz Pxy Pxz Pyz Enthalpy 
 9500000     260.2773   -4679.3928   -4177.4261   -4679.3928            0    2493.0524     20.24593    20.146463    20.923003    8534.1554    3025.4279    2396.0296    2057.6995     326.1438   -614.52311   -1351.8968   -3867.1361 
 9501000    255.54676   -4727.6459   -4234.8025   -4727.6459            0    1311.4669    20.247518    20.096146    20.954943    8526.5052   -38.062041    1840.2224    2132.2403    -431.9864    682.62945    164.07308   -4071.7211 
 9502000     249.3788   -4695.3082   -4214.3602   -4695.3082            0    1939.0552    20.006572    20.044378    21.288893    8537.2566      1067.86     4045.373    703.93268   -182.52112   -44.451802   -2760.1215    -3972.934 
 9503000    254.76716   -4715.7891   -4224.4492   -4715.7891            0    1309.3971     20.40901    19.885533    21.131142     8575.948     449.0479    2249.9526    1229.1906    582.32829   -52.312639    599.70452   -4060.6811 
 9504000    243.88378   -4721.3145   -4250.9641   -4721.3145            0    2173.9839    20.355373    20.083245    20.734033    8476.1131    1798.2114    3733.3728    990.36756    142.32261   -1212.8221    11.927905   -3982.2262 
 9505000     244.7286   -4688.4854   -4216.5057   -4688.4854            0    570.64521    20.315124    20.197263    20.899105    8575.1098    660.21762    669.59617    382.12184   -388.36013    650.78377   -787.46449   -4145.1413 
 9506000    259.56456   -4705.9697   -4205.3776   -4705.9697            0    2447.6204    20.109789    20.198801    20.997354    8528.9916    2857.4407    986.10671    3499.3137    209.60433    762.31154    1736.1815   -3900.9265 
 9507000    256.04883   -4704.2013   -4210.3896   -4704.2013            0    2319.8601    20.200633    20.093504    21.070852    8552.6902    483.20846    3372.1186    3104.2533    212.86412    600.88258   -307.09606   -3921.0283 
 9508000    255.96886   -4699.2544    -4205.597   -4699.2544            0    1311.7002    20.235504    20.348979      20.6663    8509.8005    2301.2152   -349.23754     1983.123   -581.69596   -545.87474    -381.3643   -4042.8062 
 9509000    266.63995   -4699.4185   -4185.1809   -4699.4185            0    2055.2384    20.312151    20.268697     20.81349     8568.931    2213.6047    1349.4108    2602.6997     71.40645    334.05827   -915.36503   -3928.3397 
 9510000    268.87664    -4713.066   -4194.5148    -4713.066            0    3955.5886    20.014433    20.155094    21.028791    8482.8622    2119.5722    5280.1722    4467.0214   -104.88198   -1249.4253    494.90958   -3705.1537 
 9511000    251.26202   -4703.1881   -4218.6082   -4703.1881            0    2349.3864    19.907459    20.147298    21.188464    8498.3012    4947.2831    685.45835    1415.4176   -133.67571   -240.12982     183.3044   -3927.4276 
 9512000    264.60078   -4675.6391   -4165.3343   -4675.6391            0    2434.3162     20.23661    20.196178    20.858846    8525.0554     3051.658    1440.2802    2811.0105      311.724    -293.5534   -392.38524   -3862.6777 
 9513000    259.47273   -4677.6903   -4177.2754   -4677.6903            0    941.16799    20.276483    20.274603    20.786144     8545.135    2533.8346    -44.72588    334.39521    917.74672    93.506403    628.88307   -4059.9851 
 9514000    257.07144   -4733.4986   -4237.7147   -4733.4986            0    637.75466    20.231354    20.198838     20.97536    8571.5777     1150.603    130.51888    632.14204   -62.028944    1294.2667   -139.90065   -4157.9905 
 9515000     258.9937   -4717.4046   -4217.9134   -4717.4046            0    2149.6316    20.255023    20.110889    20.945512    8532.0812   -43.235048    3392.1432    3099.9867   -158.10867    2096.8264   -1165.6097   -3950.4312 
 9516000    254.65378   -4702.3097   -4211.1884   -4702.3097            0    1170.8124    20.117329    20.168376    21.178181    8592.7048    -32.61363    1957.0826    1587.9684     6.417715   -595.10448    621.85007   -4064.4672 
 9517000    257.09152   -4719.5903   -4223.7677   -4719.5903            0     1791.326    20.091982    20.160346    21.132302    8559.8781    325.78415    3474.5471    1573.6469    36.316058   -943.51139   -381.12409   -4000.1439 
 9518000    245.72169   -4716.4972   -4242.6023   -4716.4972            0    50.275524    20.308697    20.317982    20.856584    8606.0882    15.127919   -1232.9224     1368.621   -229.59317    745.11119    569.91775   -4236.2921 
 9519000    256.09371   -4716.6962    -4222.798   -4716.6962            0    845.50644    20.156139    20.201163    20.952471    8531.3741    1759.4533   -785.75829    1562.8243    587.29932   -809.11565    610.04888   -4117.5989 
 9520000    253.37099   -4716.0522    -4227.405   -4716.0522            0    1420.0027     20.02755      20.0447    21.341106    8567.3068    1731.0066    2271.6598    257.34153   -142.87262   -42.351691    966.60077   -4049.9822 
 9521000     246.7633   -4710.9755   -4235.0717   -4710.9755            0    1559.5679    20.122401    20.171767    21.070178    8552.4778    1983.9186    1155.9923    1538.7928   -896.39483   -266.49921    1135.9691   -4040.5482 
 9522000    249.43881    -4695.987   -4214.9232    -4695.987            0    2647.0508    20.326957    20.118338    20.685804    8459.3475    3654.5164    287.46251    3999.1735   -39.824391    1596.6915   -186.00825   -3888.3542 
 9523000    245.04138   -4714.0306   -4241.4477   -4714.0306            0    1131.5057     20.17538    20.277372    20.939288    8566.3398    151.73774    477.13882    2765.6404   -701.37933    626.95489    670.96608   -4100.0873 
 9524000    276.72984   -4697.8476   -4164.1508   -4697.8476            0    3127.6987    20.035869     20.14471    20.926398    8446.2453    3404.6931    3494.0847    2484.3183   -438.37618   -502.23333   -117.96776   -3778.8814 
 9525000    267.29837   -4702.9095   -4187.4021   -4702.9095            0    1763.8039    19.981521    20.203272    21.156165     8540.577    2727.9422     1162.416    1401.0533   -425.75083    561.30874   -780.58502   -3967.7105 
 9526000    268.64105   -4704.2009    -4186.104   -4704.2009            0    972.10764    20.338204    19.992368     21.15261    8600.8384    1668.7741   -358.02156    1605.5704    201.35778   -711.04775    270.30191   -4064.1683 
 9527000    269.95088   -4704.8752   -4184.2522   -4704.8752            0    2377.1895    20.002992    20.201791    21.129176     8538.221    3644.8581    1463.5299    2023.1806    517.33987    1096.3742    296.05387   -3888.2417 
 9528000    253.14894   -4720.1748   -4231.9557   -4720.1748            0   -141.60253    20.265316    20.176819    21.094227    8625.2106   -381.39835    473.50188   -516.91114   -479.83218    598.80047    -440.3732   -4249.7679 
 9529000    249.03446   -4688.9695   -4208.6856   -4688.9695            0    1333.5147    20.120068    20.341982    20.875459     8543.951    1270.6779    479.95137    2249.9148    11.524959    1447.8884   -710.24289   -4042.5233 
 9530000    265.91953   -4705.2594   -4192.4112   -4705.2594            0    1831.4932    20.226201    20.224843    20.664462    8453.2474    1007.2529    3115.7076    1371.5192   -279.04917     390.3154     744.3973   -3966.6212 
 9531000     263.2303   -4698.1488   -4190.4871   -4698.1488            0    60.745653    20.368083    20.146232     21.07353    8647.3149   -926.11162    805.38833    302.96025   -331.71697   -449.68856   -837.45845   -4182.8263 
 9532000    250.25093   -4684.6948   -4202.0649   -4684.6948            0    1360.7331    20.040593    20.272067    21.104774    8574.1151    1734.8779    1733.5286    613.79286   -668.23331   -350.52422   -990.25641   -4031.9124 
 9533000    256.67985   -4701.4521   -4206.4235   -4701.4521            0    3524.9518     20.04594    20.148107    20.827673    8412.0421    3855.2384    3384.3326    3335.2845     972.7212    1043.6095   -259.79023   -3773.9788 
 9534000    245.63839   -4715.9404   -4242.2061   -4715.9404            0    1768.7993    20.198913    20.244095    20.909966    8550.2672     1798.774    1432.3785    2075.2453    316.02992    1217.9308   -586.34875   -4021.6423 
 9535000    243.68269   -4733.3981   -4263.4355   -4733.3981            0    2110.9142    19.895095    20.277505    21.052245    8492.9572    3309.4863    2030.3969    992.85938    76.816999    875.39891   -193.27343   -4001.9754 
 9536000    248.73908    -4726.454   -4246.7397    -4726.454            0    2396.9921     20.05579    20.106273    21.128596     8520.047    3571.7719    2182.2603    1436.9442    312.12136    870.22955   -427.41814   -3948.8987 
 9537000    251.23107   -4701.0348   -4216.5146   -4701.0348            0    3384.7943     20.34438    20.102567    20.735872     8480.438    2238.4691    3349.3897    4566.5241    232.69289   -791.94627   -149.82115   -3797.8883 
 9538000    254.20033   -4690.4204   -4200.1737   -4690.4204            0    1823.4925    20.333603    20.144304    21.000676    8602.0087    1658.3764    285.94105    3526.1601   -25.453522    -6.423018   -484.85232   -3971.4138 
 9539000    255.97013   -4734.9247   -4241.2647   -4734.9247            0    1574.4736    20.097493    20.128549    21.089484    8531.3997    1234.1458    1527.6697    1961.6052   -256.14485   -72.191909   -117.56268    -4045.366 
 9540000    263.22669   -4730.7399   -4223.0851   -4730.7399            0    793.74468    20.237662    20.118728    20.964553    8535.8443    1230.1143     852.1991    298.92066   -521.22364    468.70935   -379.92992   -4124.2746 
 9541000    248.12724   -4691.6869   -4213.1527   -4691.6869            0    2199.8583     20.19395    20.426127    20.734081    8552.4807    1320.3217    1243.8517    4035.4016   -343.07584   -93.382003    952.51885   -3938.7662 
 9542000    262.72531   -4730.5076   -4223.8197   -4730.5076            0    2315.3302    20.205725    20.188426    20.838422    8500.4462    1278.7779    2487.1912    3180.0215    399.26324     516.8958   -276.30851   -3936.7876 
 9543000    251.52562   -4679.1531   -4194.0648   -4679.1531            0    1462.6367    20.237252    20.048065    21.156873    8583.7188   -293.90922    3138.7902    1543.0292    143.84629   -28.921077    745.52842    -4010.965 
 9544000    249.38238   -4737.3079    -4256.353   -4737.3079            0    841.43444    20.024623    20.201671    21.124841    8545.6497    1458.9915    485.24745    580.06437    337.84982    31.808175    -1435.882   -4151.4854 
 9545000    232.04611   -4701.9883   -4254.4678   -4701.9883            0    1339.3391    20.452898    20.008397     20.91717    8559.9272    779.24947    2327.8898    910.87787    388.71269     105.5448    124.37264   -4087.2678 
 9546000    252.68176   -4718.4045   -4231.0865   -4718.4045            0    3852.5594    20.208848    20.004713    20.821156    8417.4146    2865.9119    4856.8103    3834.9561   -182.51412    294.51615     693.1078   -3758.1488 
 9547000    268.81234   -4740.3188   -4221.8916   -4740.3188            0    2057.2506    20.101306    20.276207     21.03147    8571.9692    2966.8633    1747.2294    1457.6591    288.67616   -391.87571   -299.75354   -3964.7077 
 9548000    254.02457   -4737.6696   -4247.7619   -4737.6696            0    1193.9178    20.076913    19.940633    21.316961    8534.1673    2024.4361    2318.1626   -760.84537   -165.75323    881.26982    370.81542   -4099.1644 
 9549000    258.82073   -4703.1502   -4203.9927   -4703.1502            0    1431.9879    20.332686    20.077586    20.942214    8549.2661    1182.4292    2389.0927    724.44168    399.04695    1252.7759   -1404.2817   -4025.4492 
 9550000    251.56176   -4723.9108   -4238.7528   -4723.9108            0    3907.7391    20.096269    20.107583    20.833857     8418.699     5053.278    3126.7417    3543.1976   -600.92298   -745.55431    675.86673    -3758.968 
 9551000    273.38914    -4674.675    -4147.421    -4674.675            0    2137.2716    20.181271    20.193895    20.905756    8519.8998    1735.5567    1717.1796    2959.0784    -825.9807    199.53836   -315.72181   -3881.8565 
 9552000    243.72814   -4715.3166   -4245.2664   -4715.3166            0    1511.4115    20.232932     20.26038    20.958197    8591.3284    2396.5937    836.72298    1300.9177   -438.87326   -1265.3244    865.05403    -4055.893 
 9553000    247.58529    -4731.524   -4254.0349    -4731.524            0    2027.8045    20.137829    20.224244    20.855493    8493.8662    3491.3241    1062.4003    1529.6891    826.51373    660.00337   -598.82402    -4002.842 
 9554000    261.98191   -4697.3955   -4192.1413   -4697.3955            0    1075.2514    20.243542    20.214747    20.973425    8582.7048    1876.2851   -135.51841    1484.9876      82.6607     390.2688   -665.81384   -4057.5522 
 9555000    261.34812   -4712.5847   -4208.5529   -4712.5847            0    2557.3796    20.098601    20.055212    21.146514    8523.7724    889.93499    3651.9763    3130.2276   -210.35423    -84.09482   -739.34323   -3890.6438 
 9556000    257.07598   -4658.7877    -4162.995   -4658.7877            0    2978.1218    20.256997    20.174157    20.916548    8547.9203    3567.0463    1698.9447    3668.3745   -361.15661   -1496.0918   -1412.7872   -3791.7345 
 9557000    242.68773   -4722.9623   -4254.9186   -4722.9623            0    1289.0139    20.309624    20.195142    20.989641    8609.0218    1495.5882   -51.942553    2423.3962    406.96288    957.52885     947.1124   -4093.0781 
 9558000    249.48996   -4688.0233   -4206.8609   -4688.0233            0   -143.86891    20.155763    20.320493     20.87103    8548.2533   -22.871748   -1696.6936    1287.9586   -503.37698   -541.98476   -670.31364   -4224.7967 
 9559000    246.00133    -4696.352   -4221.9177    -4696.352            0     2243.636    20.021024    20.279078    21.033087    8539.5999    2102.3517    2359.2445    2269.3118   -557.36965   -782.78457    303.77113   -3942.4924 
 9560000    253.33822   -4703.3813   -4214.7973   -4703.3813            0    2294.8657    20.211398    20.072646    21.046666     8538.553    3352.9923    840.33034    2691.2745   -646.04243    -1014.838    299.54354   -3929.0267 
 9561000    270.58908   -4728.2664   -4206.4126   -4728.2664            0    1793.0321    20.092301    20.046387    21.032414    8471.3946    3001.8933    877.89515    1499.3077   -488.60301   -102.09637    761.39248   -3984.8896 
 9562000    267.35923   -4686.7476   -4171.1228   -4686.7476            0    1645.9341    20.290635    20.245242    20.872841    8574.3295    1911.1908    1358.5757    1668.0359    468.48731   -64.249583   -739.69839   -3965.3024 
 9563000    262.91881   -4700.2032   -4193.1421   -4700.2032            0     2324.255    20.308014    20.047999    20.981053    8542.1217    3065.0008    1453.4165    2454.3477    225.38966    683.72562   -923.64105   -3903.5909 
 9564000    251.06002   -4694.5588   -4210.3684   -4694.5588            0    2747.9968    20.127304    19.928459    21.267725    8530.6153    5098.8622    1387.8205    1757.3076    76.806203   -128.12843   -866.17975   -3868.4894 
 9565000    248.17309   -4708.0433   -4229.4206   -4708.0433            0    2471.2919    20.147737     20.24584    20.870549    8513.2608    2294.5447    3487.2595    1632.0715    513.32966   -301.69406   -1094.7012    -3922.592 
 9566000    260.31885   -4673.8927   -4171.8459   -4673.8927            0    1635.6504     20.16554    20.363798    20.837636     8556.912    1992.9066    668.79854    2245.2459   -247.39248    1492.0096    1452.0781   -3967.7269 
 9567000     240.6218   -4691.3884    -4227.329   -4691.3884            0    1654.0047    20.299011    20.060784    21.217935    8640.2416    1139.5185    2996.8478    825.64797    123.72902    511.23354   -207.37973   -4018.9094 
 9568000     251.7453   -4699.5337   -4214.0217   -4699.5337            0    1565.0722    20.037864    20.217147    21.010803    8511.6535    2051.6779    344.71911    2298.8195    -252.7226   -587.20888    -488.5821   -4019.7434 
 9569000    248.08719   -4725.6145   -4247.1575   -4725.6145            0    373.76842    20.361231    19.933847     21.07517    8553.9409   -350.08462     643.7774    827.61247   -445.67656    354.85514   -466.21416   -4200.5297 
 9570000     245.3549   -4682.9478   -4209.7602   -4682.9478            0    1861.0872    20.366034    20.097698    21.031111    8608.2522    1906.1171    2578.5427    1098.6018   -196.92995    732.97322     1280.831   -3976.1146 
 9571000    247.49325   -4689.8157   -4212.5041   -4689.8157            0    3263.7151    20.095317    20.055765    20.974462    8453.2736    2499.8671    4254.3485    3036.9296   -307.14364   -13.021769   -2208.3652   -3810.1457 
 9572000     271.1136   -4678.1975   -4155.3322   -4678.1975            0    1013.6723    20.253431     20.25843    21.213853    8704.1015   -874.73343    3016.2336    899.51677   -532.73393   -31.931995    261.81053   -4026.6562 
 9573000    256.96694   -4746.1192   -4250.5369   -4746.1192            0    1944.6097     20.19284    20.194937    20.867728    8509.7164    1355.0699    2680.0155    1798.7436   -152.79648   -902.85286    96.338443   -4009.2001 
 9574000    245.66277   -4716.9887   -4243.2074   -4716.9887            0    259.16712    20.292836     20.21776    20.854226    8555.9815   -316.15857     1080.663    12.996955   -793.30018    966.62736    789.80939   -4210.8685 
 9575000    249.59402   -4719.7067   -4238.3436   -4719.7067            0    1938.0771    20.131726    20.379443    20.829721    8545.8796    733.45386    2433.8791    2646.8982    952.39898   -661.24852   -768.14228   -3996.7955 
 9576000    255.42784   -4713.6443   -4221.0303   -4713.6443            0    2287.7985    20.024799    20.174695    21.157473    8547.4967     2723.637    2042.5779    2097.1806    295.91332    338.59339   -321.27462   -3935.8414 
 9577000    242.82157   -4731.6189   -4263.3171   -4731.6189            0    1810.3872    20.212642    20.011349    21.099687    8534.4488    876.02885    2918.7536    1636.3791    221.82634    37.288114   -961.34008   -4037.9852 
 9578000    260.97109   -4672.2874   -4168.9827   -4672.2874            0    2487.1897      20.3607    20.071147    20.865735    8527.0454     1843.196     1947.118    3671.2551    352.46323   -460.98971    765.23434   -3859.6803 
 9579000     255.2972   -4734.9466   -4242.5845   -4734.9466            0    3396.3375    20.170016     20.16654    20.885063    8495.1965     3538.221    2654.7517    3996.0397     288.5279    154.37873    1436.6291   -3821.7996 
 9580000    244.97124   -4661.8799   -4189.4322   -4661.8799            0    1350.2977    20.010963    20.216323    21.277558    8607.7957    3317.1451    593.71659    140.03125   -299.45508   -229.75655    -857.7213   -4019.9215 
 9581000    252.49739   -4689.4122   -4202.4498   -4689.4122            0    209.74333    20.360967    20.174261    20.897888    8584.1724   -1726.9774    710.05743      1646.15    1089.3466   -222.22839   -877.66103   -4176.1917 
 9582000    253.42143   -4729.6117   -4240.8671   -4729.6117            0    3256.3468    20.333434    20.103097    20.751389    8482.4415    3685.8009    2399.4865    3683.7531   -149.70228   -1583.0834    308.36917   -3838.0319 
 9583000     260.1694   -4699.7264   -4197.9679   -4699.7264            0    3529.0315    20.270135    19.837842     21.23758    8539.9647    5202.1238    3721.9915    1662.9793    1176.5293   -915.68413    290.84225   -3758.4389 
 9584000    267.60922    -4699.505   -4183.3982    -4699.505            0    1648.0086    20.112547    20.158491    21.110244     8558.908    3300.5648    447.71479    1195.7462   -1010.6481   -102.56615   -430.96526    -3977.689 
 9585000    258.46477   -4740.7237   -4242.2526   -4740.7237            0    1173.1291    20.029709    20.200161    21.105706    8539.4393    1942.3523     523.3992    1053.6358   -683.39567   -237.08723    1110.7439   -4096.1523 
 9586000    249.42595   -4714.0832   -4233.0443   -4714.0832            0    2546.3892     20.20762    20.190405    20.815711    8492.8106    3218.9601    1658.4827    2761.7249   -53.912747   -1031.1787   -380.26149   -3917.6513 
 9587000    254.10416   -4719.7094   -4229.6482   -4719.7094            0    2458.8695    20.105843    20.353955    20.658439    8454.1239    2161.5418    1644.4349    3570.6319   -339.36417   -503.73323     460.5844   -3926.4825 
 9588000    259.05151   -4715.5637   -4215.9611   -4715.5637            0     699.6006    20.002969    20.340853    21.050557    8564.9969    1086.7556    11.875533    1000.1706    -1.421571    1465.7548     647.3783   -4128.5728 
 9589000    243.13255   -4733.5406   -4264.6391   -4733.5406            0    1575.9658    20.289422    20.178031    20.844304    8533.6703    307.70201    2958.2546    1461.9409    658.38502   -358.45633    1372.6946   -4068.5025 
 9590000    251.64782   -4718.8705   -4233.5465   -4718.8705            0    2595.1638    20.179122    20.188301    20.839131    8489.4909    2802.9305    2563.6545    2418.9065   -68.203063   -112.11401    968.20775    -3912.238 
 9591000     251.9188   -4722.8732   -4237.0266   -4722.8732            0    1768.5971    20.006694     19.90773    21.275485    8473.7675    2114.0751    1825.4039    1366.3122    399.46855    677.49644   -1386.9983   -4018.4613 
 9592000    265.19475   -4731.7028   -4220.2524   -4731.7028            0    2162.9802     20.14056    20.133444    20.995724    8513.7415    3589.2828    868.16443    2031.4933   -194.74861    327.50153   -159.95376   -3951.6877 
 9593000    271.38674   -4719.2025   -4195.8103   -4719.2025            0    1774.0311    20.329531    20.147837    20.812457    8524.7004    1026.6221    1807.0096    2488.4615   -428.08838    1743.7855     1292.718   -3975.2557 
 9594000    250.26248    -4707.399   -4224.7468    -4707.399            0    2642.6899     20.27052    20.168053    20.773958    8492.7454    1460.6323     3087.768    3379.6693    655.10333    272.08602    659.87696   -3897.4285 
 9595000    244.99442   -4735.0526   -4262.5602   -4735.0526            0     1375.179    20.285547    20.106162    21.116694    8612.7494   -442.19567    2736.3278     1831.405   -63.897523    834.81349     323.6658   -4089.8266 
 9596000    248.46923   -4681.0032   -4201.8094   -4681.0032            0    2114.1396    20.203654    20.157854    20.940348    8528.2143    2589.7879    2734.0729    1018.5581   -641.21025    260.59014    -644.1474   -3938.8627 
 9597000    261.06338   -4720.4507    -4216.968   -4720.4507            0    1428.9244    20.288249    20.119798     20.90016    8531.3502    1043.9142    1629.8495    1613.0095   -22.291553    765.50355    1010.4464   -4039.1798 
 9598000    262.10493   -4727.0515   -4221.5601   -4727.0515            0    1766.4059    20.024858    20.092451    21.180197    8521.8205    4186.5472    819.67759    292.99284   -115.83032    329.40341   -16.655018   -4002.0276 
 9599000    249.50474   -4702.5864   -4221.3955   -4702.5864            0    2049.0727    20.075194    20.284902    20.998951    8551.2632    1374.6664    2088.4793    2684.0722   -108.67468    554.69796   -149.95592   -3965.8528 
 9600000     262.1623   -4720.5302   -4214.9281   -4720.5302            0    677.62551    20.404191    20.117108    20.943561    8596.7733   -2091.6109    2347.1809    1777.3064   -142.37837    161.91926   -1041.1188   -4129.9707 
 9601000    253.66561   -4753.6793   -4264.4638   -4753.6793            0    1116.6004     20.14283    20.302366    20.717981    8472.5582    1963.6488    1150.2002    235.95225    36.121594    1165.1358   -329.00102   -4126.4927 
 9602000    249.51294   -4695.4565   -4214.2498   -4695.4565            0    1610.2745    20.072003    20.160269    21.203027    8579.9526    1521.5102    2354.1572     955.1561   -276.93992  -0.38288614   -67.138238   -4012.7564 
 9603000    251.53676   -4689.5236   -4204.4138   -4689.5236            0    1924.7919    20.209832    20.053779     21.11076     8555.843    2294.8401   -225.21622    3704.7518    -540.6533   -2326.5239   -418.23526   -3964.2418 
 9604000    253.19066   -4693.7758   -4205.4764   -4693.7758            0    2887.3629    20.231483    20.204032    20.872162    8531.6538    2986.4931    2755.4898    2920.1057   -378.59066   -211.90547    1345.1698    -3846.215 
 9605000    256.46301   -4666.1284   -4171.5179   -4666.1284            0    1114.7477    20.326113    20.402731    20.653892    8565.3383    263.09831    562.49221    2518.6524   -538.41026    1013.2209    866.34269   -4032.2674 
 9606000    248.43307   -4726.2697   -4247.1456   -4726.2697            0    713.79584    20.092267    20.249054    21.125066    8594.7201    1085.4637   -425.55921    1481.4831    648.69471    281.15359   -360.93706   -4157.6748 
 9607000    261.77172   -4724.0765   -4219.2277   -4724.0765            0    1695.9292    20.244284    20.024356    20.972092    8501.6406    1206.0382    2929.1273    952.62224     225.5477    644.73558    1496.6105   -4008.9534 
 9608000    265.38679   -4704.8999   -4193.0791   -4704.8999            0    3087.0102    20.202802    19.994904    21.015216    8489.1613    1913.0934     3945.965    3401.9722    748.37336    848.09953   -412.75053   -3810.8896 
 9609000     252.5995   -4708.0308   -4220.8714   -4708.0308            0    951.25812     20.31297    20.275673    20.805058     8568.753   -998.31479    1508.6807    2343.4084    312.76592   -402.34699    255.39864    -4101.996 
 9610000    254.89775   -4680.9925   -4189.4007   -4680.9925            0    1519.8033     20.24542    20.176551    20.864798    8522.9102    399.14191    1969.1134    2191.1545    701.16045   -646.18495     610.0074   -4000.4923 
 9611000    259.28414   -4681.7361   -4181.6848   -4681.7361            0    721.84381    20.091512     20.29039    21.184494    8636.1683    799.13781    472.45128    893.94232   -170.51126    246.57389    152.75425   -4090.7688 
 9612000    248.41299   -4680.5002   -4201.4148   -4680.5002            0    768.85791    20.185177    20.113327    21.153652    8588.1939    1741.6001  -0.98662401     565.9603   -1200.2815    1072.9547   -1677.6979   -4105.1154 
 9613000    243.99709   -4723.4228   -4252.8539   -4723.4228            0    877.64921    20.185707    20.232152    21.099387     8616.996   -285.12194    2114.2511    803.81846    201.55553   -866.44399    678.09602   -4142.5596 
 9614000    258.58633   -4703.6686   -4204.9631   -4703.6686            0    504.52065    20.271525    20.212894    20.875154    8553.5143   -522.57258    1148.3022    887.83229    13.043512    22.535866   -1359.3635   -4142.0271 
 9615000    257.03361   -4719.0529   -4223.3419   -4719.0529            0    1112.4618     20.27825    20.046284    20.993375    8533.8816    485.55693    983.71014    1868.1183    336.54115    517.16668   -108.03222   -4084.8873 
 9616000      249.974   -4729.1472   -4247.0513   -4729.1472            0    1700.6473    19.978728    20.199402    21.259468    8579.4358    2879.5986    679.04819    1543.2952    72.957355    517.92794   -245.38096   -4034.2625 
 9617000    250.35695   -4733.9884    -4251.154   -4733.9884            0     2060.973    19.927722    20.325678    20.957349    8488.6581    2182.7306    1017.2604    2982.9281   -1105.5027    539.93483   -434.16078   -3996.0089 
 9618000    250.74965   -4721.5036   -4237.9118   -4721.5036            0    2078.2651    20.135307    20.174936    20.831906    8462.5148    3074.9251    726.41166    2433.4584    583.17306    58.931677    1194.8273   -3981.4183 
 9619000    251.32512   -4725.4194   -4240.7178   -4725.4194            0    1286.2489    20.320115    20.144509    20.757695    8496.9286     1536.215    446.29285     1876.239     156.4366   -126.13817   -129.02104   -4081.3272 
 9620000    256.52517    -4706.416   -4211.6857    -4706.416            0    1823.0046     20.18867    20.120599    21.057546    8553.7467    1039.8347     2728.241     1700.938    242.86383    673.86988    559.02505   -3984.2702 
 9621000    243.37328   -4719.5203   -4250.1545   -4719.5203            0    966.23373    20.170914     20.01242    21.264355     8583.757    -671.7812    1833.8539    1736.6285    63.111506    213.58767    510.57135   -4129.1962 
 9622000    261.95215   -4698.2968   -4193.1001   -4698.2968            0    2272.1812    20.276118    20.183225    20.975506    8583.9626    1484.7427    3530.5259    1801.2749    109.69383     68.95027   -1171.2129   -3908.6496 
 9623000    253.57483   -4709.9153   -4220.8749   -4709.9153            0    2851.1111    20.029436    20.267873    20.960287    8508.9137    4171.2676     2079.418    2302.6478   -472.23025    1309.6195    289.30586   -3867.0698 
 9624000    257.93688    -4709.005   -4211.5521    -4709.005            0    1375.8255    20.068984    20.293099    21.044818     8570.752    898.95727    2843.1857    385.33357   -66.925761    -163.3235   -342.24577   -4039.5799 
 9625000    256.24071   -4680.9452   -4186.7634   -4680.9452            0    1860.4037    20.281943    20.111592    21.046161    8584.7745    199.08805    4595.2282    786.89494    453.23908    424.56749   -1095.9782   -3953.8406 
 9626000    248.27378   -4726.8305   -4248.0136   -4726.8305            0    3289.6261    20.150892    20.109683    20.779206     8420.317    1739.5252    4750.4001    3378.9531   -263.59575    302.16254    1220.3387    -3844.042 
 9627000    257.98786    -4723.282   -4225.7307    -4723.282            0    1916.3264    20.316029    20.208336    20.953436    8602.4992    1500.0433    2110.0002    2138.9358    -66.33581   -742.51177   -627.76861    -3985.311 
 9628000    251.14543   -4720.5861    -4236.231   -4720.5861            0    1573.4963     20.00046    20.192862    20.992021    8477.9744    2247.5489    2354.8641    118.07596     39.13691    -492.4055   -823.58381   -4041.6799 
 9629000    264.69804   -4689.9635   -4179.4711   -4689.9635            0    1594.8496     20.35126    20.003407    21.025973    8559.5589    1176.3193     1733.272    1874.9574   -399.21497     531.0051   -648.78416   -3980.3822 
 9630000    245.17994   -4734.5995   -4261.7493   -4734.5995            0    1075.4604    20.324735    20.187228    20.809514     8538.145    1259.5892    84.166892    1882.6252   -728.71324    26.715695   -63.073882   -4127.8329 
 9631000     250.2508   -4743.8336   -4261.2039   -4743.8336            0    507.08108    20.256705    20.176114    20.871226    8530.1032   -100.46103   -350.25816    1971.9624    404.19484    -403.1649    -567.8965   -4198.1216 
 9632000    260.79914   -4689.2052   -4186.2321   -4689.2052            0   -425.05206    20.142879    20.180656    21.298933    8657.9418   -183.69153    -675.0537   -416.41096    832.06935   -257.50951   -250.06424   -4239.9023 
 9633000     263.5922   -4697.8331   -4189.4734   -4697.8331            0    2238.3368    20.121425    20.031687    21.049893    8484.4981    2459.6322    3203.8567    1051.5216   -10.299176   -1051.5617    455.50323   -3912.5067 
 9634000    255.67489   -4721.3412   -4228.2507   -4721.3412            0    1143.1585    20.326428    20.257219    20.819212    8572.4545    385.23195    1442.8331    1601.4105    502.89138   -341.27429    679.93749   -4085.3324 
 9635000    248.71845   -4713.4427   -4233.7683   -4713.4427            0    2807.7804    20.155125    20.237006    20.834542    8497.9802    3469.6021    1879.7674    3073.9717   -317.36698    1292.0227   -405.21008   -3885.7879 
 9636000    247.46959   -4684.7592   -4207.4933   -4684.7592            0    521.62455    20.213126    20.051406     21.50322    8715.2898     379.5726    1864.2184   -678.91737   -343.52494   -181.00134    491.84502    -4141.193 
 9637000    258.26961   -4737.4849   -4239.3902   -4737.4849            0    1127.4748    20.216129    20.093328    21.047632    8549.7443    1721.2675    1404.5862    256.57058   -705.03309   -779.44902   -610.21115   -4098.8062 
 9638000    261.33456   -4739.2547   -4235.2491   -4739.2547            0    77.644299      20.1568    20.301862    20.951188    8573.6569   -315.76712    66.616951    482.08307    118.04598   -1475.4974    523.75595   -4225.5406 
 9639000    239.84988   -4730.7594   -4268.1887   -4730.7594            0     2743.734    20.173393    20.272561     20.79749    8505.4735    2970.5245     3208.187    2052.4905   -326.72653    983.44954   -1547.2188   -3927.8461 
 9640000    263.21712   -4711.5191   -4203.8827   -4711.5191            0    1786.0611    20.084711     20.35216    20.755391    8484.1242    1134.1725    750.55259    3473.4582   -282.73313    617.37218    758.07483   -3982.8894 
 9641000    261.74327   -4732.1381   -4227.3442   -4732.1381            0    2155.2026    20.106799    20.189853    21.144772    8583.7904    2274.2263    2325.6462    1865.7352   -21.468059    804.56894    262.23845   -3957.5435 
 9642000    256.43545    -4711.176   -4216.6187    -4711.176            0    45.998319    20.416859     20.36604    20.689825    8603.0479    368.36142   -671.31721    440.95075    274.92924    414.48133    866.47264   -4210.8474 
 9643000    255.44864   -4720.4579   -4227.8038   -4720.4579            0     2070.544    20.156997    20.169396    20.813858    8461.9665    1235.2024    2194.8524    2781.5773    74.341006   -1421.2875   -472.09532   -3972.2798 
 9644000    257.66476   -4712.2194   -4215.2912   -4712.2194            0   -227.36848    20.261769    20.139724     21.06315    8595.1649   -465.82174   -796.64747    580.36375    145.26878    792.58583   -18.087068   -4243.7922 
 9645000    256.13309   -4711.6472    -4217.673   -4711.6472            0    1274.1228    20.058249    20.142895    21.210584    8569.7378    2286.1222    1134.8398    401.40635    -580.1253   -1189.1056     65.80773   -4058.4321 
 9646000    251.38067   -4731.7527    -4246.944   -4731.7527            0    964.98904    20.275678    20.165248    21.004727    8588.0784    589.57236    2874.4374   -569.04261   -246.18707    397.91631   -402.55443   -4126.0807 
 9647000    238.70671   -4718.4513   -4258.0853   -4718.4513            0     3039.979    20.204004    20.057529    20.868695      8456.88    2134.0956    4211.1175     2774.724   -262.88069    830.57666     429.7691   -3883.1498 
 9648000    245.71636   -4718.0515   -4244.1668   -4718.0515            0    737.60828    20.147843    20.137915    21.239652    8617.6818    30.316014    1440.1959    742.31296    -683.0053    1206.9553   -801.11926   -4151.4641 
 9649000     267.5876   -4717.8146   -4201.7494   -4717.8146            0    2597.2722    19.991472    20.274562    20.890973    8467.4947    1941.7651    3335.4859    2514.5655    191.29476    -1650.002   -735.86827    -3881.013 
 9650000     243.9776   -4702.1747   -4231.6434   -4702.1747            0    1618.4591    20.354434    20.081064    20.955582    8565.3574    1375.3272    321.58076    3158.4695    441.05949    -425.7954   -1382.8723   -4029.4704 
 9651000    270.02396   -4701.5608   -4180.7969   -4701.5608            0    2674.4155     20.04119    20.047237    21.083935    8470.9026    4765.4849    241.42479    3016.3367    -46.68167    19.232767   -123.44975   -3850.4012 
 9652000    262.38454   -4705.6226   -4199.5919   -4705.6226            0    535.71003    20.308814    20.015481    21.164816    8603.3004   -932.12068    2228.8103    310.44043    704.78975    -581.0264   -1786.9523   -4132.3762 
 9653000    251.32268    -4710.833   -4226.1361    -4710.833            0    2226.5124    20.398398    20.122726    20.770012    8525.4951   -503.25648    3460.8658    3721.9279    381.50341   -794.48997    1770.4308   -3949.3013 
 9654000    245.40297   -4694.4678   -4221.1875   -4694.4678            0    1427.4753    20.318691     20.25234    20.928105    8611.9367    31.759032    1545.7825    2704.8843    134.75306    354.60445    313.19126    -4041.902 
 9655000    262.10186    -4727.138   -4221.6526    -4727.138            0    3116.2223    19.991027    20.206874     21.00551    8485.3054    3285.8176    3193.6906    2869.1587    39.402894    797.70764   -819.06037   -3836.0217 
 9656000    249.97847   -4721.2902   -4239.1857   -4721.2902            0    1127.2437    20.241102    20.137456    21.071174    8588.7013    334.57062    2560.0932    487.06724   -204.07825   -516.35059    180.99941     -4097.99 
 9657000    263.42201   -4718.8289   -4210.7973   -4718.8289            0   -12.895402     20.50582    20.060525    20.953168    8619.2433    -1869.896    2090.3757   -259.16586    -47.62588    553.69062    694.02625   -4212.4183 
 9658000    232.74486   -4703.7843   -4254.9163   -4703.7843            0     1483.787    20.380547    20.187599    20.755402    8539.4844    1912.7333    -609.9447    3148.5723   -214.61249    53.829019   -535.36716    -4070.126 
 9659000    250.72989   -4729.9722   -4246.4185   -4729.9722            0    587.58276    20.133449    20.125195    21.077267    8540.2893   -63.746295    1216.5566    609.93803    295.08874   -756.36078    -263.5027   -4173.2343 
 9660000    259.08174   -4714.7706   -4215.1097   -4714.7706            0    1688.7745    20.356197    19.961165    21.236603    8629.1414    228.72284    3539.0788    1298.5219   -601.45506    2498.5482   -1457.7142   -4002.5822 
 9661000    249.31823   -4715.8218   -4234.9906   -4715.8218            0    1962.5729    20.197073    20.132452    20.851439    8478.5418    21.481691    3299.5267    2566.7103   -126.02385    258.43584   -1715.9466   -3992.3168 
 9662000    252.36801   -4699.9344   -4213.2215   -4699.9344            0    240.93441    20.215205    20.286965    21.029932    8624.4835    -917.9638    1111.4668    529.30024   -402.59795      1197.12   -341.38965   -4182.9169 
 9663000    265.70103   -4723.6189   -4211.1921   -4723.6189            0    1110.6497    20.039203    20.134035     21.31228    8598.8658    1800.5189    1412.8279    118.60219    251.93084   -35.231053   -535.57727   -4071.9104 
 9664000    262.26955   -4744.0008   -4238.1919   -4744.0008            0    1694.8437    20.085907    20.278933    20.775107    8462.1325    1766.2965     652.6835     2665.551    253.51738    682.39814   -784.88188   -4029.0287 
 9665000    268.23785    -4743.146   -4225.8268    -4743.146            0     466.4682    20.215925    20.258442     20.93977    8575.7394    1620.3079   -905.56629    684.66296   -312.11461    851.18589    200.88311   -4167.4864 
 9666000    264.45424   -4708.1395   -4198.1173   -4708.1395            0    848.02988    20.103135    20.312962    20.887483    8529.4916    1566.3038      372.682    605.10389   -671.48564   -298.39371    162.61633   -4092.6275 
 9667000      250.342   -4703.7648   -4220.9592   -4703.7648            0    1375.4969    20.021082     20.16827    20.993745    8477.0764     3342.338    353.84536    430.30746   -137.56419   -61.700683    386.77498   -4050.9072 
 9668000    258.49023   -4686.7625   -4188.2424   -4686.7625            0    2137.3989    20.204426    20.153182      21.1205    8599.9188     2303.335    1340.6169    2768.2447   -1273.0356    701.41929    935.45729   -3920.1677 
 9669000    265.69622   -4701.0906   -4188.6731   -4701.0906            0    1717.7919    20.140818    19.941515    21.166355    8501.2213      3137.72    1149.9974    865.65831     673.9369    415.04534    282.56004   -3975.6985 
 9670000    252.88908   -4692.4099    -4204.692   -4692.4099            0    1802.8393    20.229931    20.132996    21.104457    8595.6158    1379.1348    1742.4718    2286.9113    -19.16941   -691.50238   -1026.3549   -3978.6913 
 9671000     248.4321   -4679.7161   -4200.5939   -4679.7161            0    62.934196    20.067096    20.562156    20.835024     8597.005    2153.8435   -2918.3304    953.28954   -145.67523    1059.8663   -912.58277   -4192.7033 
 9672000    254.29188   -4729.9288   -4239.5056   -4729.9288            0    1407.6646    20.109479    20.291706    20.997722    8568.2391    1696.4476    1102.8853    1423.6609   -424.78773    912.20422    1150.4493   -4063.6052 
 9673000    249.99745   -4733.6845   -4251.5434   -4733.6845            0    1852.3074    20.171931    20.093546    21.038983    8527.6389    1236.3922    2228.0682    2092.4619   -174.79515   -274.07436    827.84691   -4021.1777 
 9674000      261.902    -4727.515    -4222.415    -4727.515            0    671.68145    20.144415    20.414696    20.881331    8587.2826    2337.4569    -1469.162    1146.7495   -218.59989    -911.0024    816.58459   -4138.2958 
 9675000    248.11778   -4707.8298   -4229.3138   -4707.8298            0    1517.4372    20.342116     20.04122    20.966466    8547.6261    2824.6792    663.91053    1063.7219   -184.63774    139.50836    468.37775   -4040.1525 
 9676000    247.93469   -4728.4594   -4250.2965   -4728.4594            0     2175.492    20.152325    19.981961    21.120031    8504.6771    1950.9746    3072.1444     1503.357   -1041.2782   -119.73624   -1400.9272   -3980.4659 
 9677000    247.36138   -4692.5676   -4215.5104   -4692.5676            0    324.80934    20.060132    20.244564    21.199776    8609.4119    1506.7707   -300.04788   -232.29479    213.12693    64.009164    326.74872   -4174.7275 
 9678000    252.88461   -4703.7039   -4215.9947   -4703.7039            0    598.37864    20.310468    20.079879    20.892242    8520.5193    830.11212     358.9166    606.10721    426.65169    542.29182    62.409585   -4141.6384 
 9679000     255.2891   -4681.0659   -4188.7194   -4681.0659            0    329.05976    20.359486    20.325055    20.924565     8658.746   -609.38969     532.8985    1063.6705   -196.04799   -1379.0274   -1525.3403   -4147.1661 
 9680000    257.97505   -4696.2526    -4198.726   -4696.2526            0    2743.5945    19.970425    20.083049    21.161425    8487.1498    3530.6805    3257.0404    1443.0626    657.54491   -123.60421   -1171.0953   -3859.1338 
 9681000    241.78438   -4693.9283   -4227.6268   -4693.9283            0    2573.9769    20.268256    19.951015    21.024537    8501.7399    1354.6245    4977.8802    1389.4259   -472.67698   -596.82076    1138.1807   -3908.4816 
 9682000    252.38792   -4708.8639   -4222.1126   -4708.8639            0    1090.1152    20.394602    20.185554    20.931939    8617.1844    421.20294    1307.2266    1541.9159    533.20552    251.48057   -312.81828   -4085.1148 
 9683000    246.09667   -4721.2112   -4246.5931   -4721.2112            0    682.24342    20.179646    20.329073    20.668927     8479.086    257.51435   -658.57866    2447.7946   -241.89189    -346.5748   -520.37042   -4162.2277 
 9684000    251.45059   -4728.9651   -4244.0215   -4728.9651            0    -455.4462    20.218439    20.081209     21.07675    8557.3864   -1973.6313     644.1394   -36.846673   -515.86355    124.34095    187.93051   -4300.8615 
 9685000     257.5764   -4687.3692   -4190.6114   -4687.3692            0    1821.9714    20.124704    20.377145    20.938837    8586.6821    3581.5707   -848.00809    2732.3517    190.84577   -468.51243    481.37766   -3962.4497 
 9686000    262.18955   -4701.2571   -4195.6025   -4701.2571            0    1173.7385    20.294372    20.177427    20.793051    8514.5094    688.64335    205.92561    2626.6465   -450.05333   -599.64825    893.81845   -4049.8531 
 9687000    253.32566   -4726.5901   -4238.0302   -4726.5901            0    907.24325    20.272847    20.266641    20.879696    8578.6844   -691.16306    1501.5271    1911.3657    302.37987    50.506442    432.34293   -4124.5238 
 9688000    255.83478   -4695.3634   -4201.9645   -4695.3634            0    634.01156     20.03896     20.12507    21.234795    8563.6845   -519.24932    2507.4159     -86.1319   -702.79963    49.266773     459.8172   -4122.7811 
 9689000    241.89828   -4715.9952    -4249.474   -4715.9952            0    1848.3208    20.238808    20.041621    20.995743    8516.2624    2088.6374    781.78908    2674.5361    38.080129    1065.2298    1152.2043   -4019.9108 
 9690000    265.45643   -4689.4554   -4177.5003   -4689.4554            0    1418.9264    20.025955    20.368452    21.128416     8618.232    2491.0813    1012.6331    753.06478   -294.71883   -3081.8525   -54.263137   -3999.1582 
 9691000    254.87298   -4707.2997   -4215.7557   -4707.2997            0    -410.9479    20.306508    20.356644    20.937107    8654.8211   -1737.1226      108.026    396.25287   -329.90756   -720.93829    640.95944   -4267.6262 
 9692000     261.7304   -4718.3064   -4213.5373   -4718.3064            0    1716.7554    20.239329    20.185576    20.986743    8573.9768    4187.3097   -390.71212    1353.6686   -601.79397    1396.8845   -1145.4829   -3998.8696 
 9693000    260.13877   -4709.2974   -4207.5979   -4709.2974            0    3749.9139    20.015465    20.116192    21.039023    8471.0456    2667.9493    4778.1824    3803.6099   -290.14815     440.3329    259.23906   -3744.3279 
 9694000    260.48232   -4694.2041    -4191.842   -4694.2041            0    1263.3036    20.094511    20.288158     21.15703    8625.3107    1718.5576    757.79078    1313.5625    -303.6445   -183.22657    1162.6339   -4032.9294 
 9695000    251.32506   -4702.9072   -4218.2057   -4702.9072            0       2686.8    19.941109    20.003768    21.467343    8563.2655    2058.2498    4753.7258    1248.4245   -998.52463   -1812.7983   -85.462862   -3882.6608 
 9696000    256.00776   -4714.1417   -4220.4092   -4714.1417            0    320.69626    20.215132     20.23782    21.071711    8620.6523    1081.0107   -666.86473    547.94278    98.194009   -241.58602   -231.87167   -4180.0902 
 9697000    255.49216   -4712.7753   -4220.0372   -4712.7753            0    1556.1383    20.304387    19.942514    21.053216    8524.8791    345.43054    1909.8161    2413.1681    -383.2368    236.09348   -988.50453   -4026.5678 
 9698000    251.27584   -4699.8741   -4215.2675   -4699.8741            0     791.4918    20.198606     20.23659    21.137498    8639.9719    503.29048    933.12362     938.0613    -358.3474    42.192352   -422.26396   -4115.5355 
 9699000    254.37809   -4675.4202   -4184.8306   -4675.4202            0    1948.2689    19.931092    20.311563     21.12693    8552.8496    2392.0209    1064.8729    2387.9129    260.78072    430.81605   -1227.5726   -3941.8142 
 9700000    244.25486   -4699.9023   -4228.8363   -4699.9023            0     469.0354    20.300095     20.19566    20.963186    8594.3575    545.33737   -1195.4348    2057.2037   -426.36676     445.6648   -971.39493   -4170.0474 
 9701000    255.12892   -4716.3269   -4224.2893   -4716.3269            0     2986.601    20.251985    20.237923    20.678075    8475.0767    2579.3219    2950.0812       3430.4    321.50912   -260.07795    407.22924   -3855.1446 
 9702000    257.69598   -4709.3603    -4212.372   -4709.3603            0    1069.3127    20.218725    20.256686    21.187552    8677.6662    1408.8127    1228.2801    570.84526   -594.73023    487.97026   -79.285099   -4077.0452 
 9703000    249.05273   -4723.0254   -4242.7062   -4723.0254            0    2544.8396     20.08201    20.073246    20.975978    8455.6501     4724.778    1349.7197    1560.0211   -575.01476   -1786.3896    378.06515   -3928.8843 
 9704000    242.95936   -4708.7564   -4240.1889   -4708.7564            0     2157.803    20.140946    20.335891    20.821423    8528.1229    2944.1727     1547.056    1982.1804   -275.62948    659.11954   -291.65478   -3971.8144 
 9705000    245.83706   -4735.3004    -4261.183   -4735.3004            0   -60.618352    20.298674     20.15592    20.942112    8568.2229    1254.2899   -1121.3204   -314.82461    585.66496   -1035.8192   -481.84027   -4268.7578 
 9706000    254.30363   -4732.7533   -4242.3074   -4732.7533            0    3025.0434    20.177862      19.9702    21.218691     8550.198    3348.6626    3403.8113    2322.6562   -1208.3525    98.295003   -114.35492    -3865.097 
 9707000    257.87518    -4718.878   -4221.5441    -4718.878            0    1038.8725    20.174909    20.111586    21.097497    8560.2971    2711.1035    182.68725    222.82665   -193.41298   -960.96837    -554.1132    -4091.848 
 9708000     262.2267   -4710.2765   -4204.5503   -4710.2765            0    1598.3112    20.009831    20.320722    20.863789     8483.513    2746.2719    66.841663    1981.8201   -372.84501   -352.67895    1596.0619   -4006.8019 
 9709000    251.71535   -4713.4343   -4227.9801   -4713.4343            0    601.09655    20.270579    20.229104    20.951852    8591.4253    271.98728    449.57719    1081.7252   -345.30623    1038.9427    1219.5496   -4152.6644 
 9710000     278.4403   -4725.8264   -4188.8308   -4725.8264            0    2191.8218     20.04451    20.155139    20.962294    8468.7645    3194.2595    1816.7577    1564.4482   -137.72769   -361.16355    955.62616   -3918.1228 
 9711000    252.37499   -4707.1849   -4220.4585   -4707.1849            0    1577.2895     20.41375    20.172137    20.848303    8585.1008    773.47214    2075.4485    1882.9477    320.82049   -685.36694   -996.33916   -4022.9741 
 9712000    261.23396   -4728.3883   -4224.5766   -4728.3883            0    3663.3313    19.959731    20.284607    20.848453    8441.0238    3711.0266    4149.3335    3129.6339    351.05935   -543.45015    48.038686   -3773.6071 
 9713000    272.34534   -4719.2861   -4194.0452   -4719.2861            0    1414.7519    20.161363    19.962436    21.036319    8466.4854    1545.8203    458.46412    2239.9712   -332.75591    52.146193    -261.7748   -4019.3587 
 9714000    261.86079   -4712.7334   -4207.7129   -4712.7334            0    418.96435    20.284053    20.129362    21.207505    8659.1314   -1718.1579    2325.0613    649.98965   -417.94631   -381.91541   -1218.3026   -4154.8041 
 9715000    241.37598   -4735.3662   -4269.8523   -4735.3662            0    1946.3449    20.161247    20.137768    21.058469    8549.7914    4423.5722    266.54389    1148.9186    140.88278    961.60906    296.99555   -4027.1627 
 9716000    259.30447   -4734.9487   -4234.8582   -4734.9487            0    984.82136    20.174697     20.26817    20.896596     8544.706   -410.48359    1543.0981    1821.8495    303.64532   -414.72503    16.824787   -4112.1339 
 9717000    240.23271   -4725.1471   -4261.8382   -4725.1471            0    1753.7152    20.059302     20.32894    20.965112    8549.2446    1159.5679    2029.2434    2072.3344   -589.20685   -406.72186   -220.24215   -4043.1815 
 9718000      262.306   -4708.7214   -4202.8422   -4708.7214            0    3484.3144    20.203731    20.058923    21.000277    8510.6789    3808.2465    3553.3019    3091.3949    579.63402   -170.21098    790.67714   -3770.3708 
 9719000    242.97971   -4676.0863   -4207.4794   -4676.0863            0    1750.9245    20.067293     20.07531    21.287106    8575.6623    4005.4188    437.20569    810.14891    -578.3969    254.39487   -502.37749   -3988.4962 
 9720000    249.62677   -4732.8617   -4251.4355   -4732.8617            0    1793.0375    20.093066    20.184366    20.916408    8482.9796    2861.8143    1867.9269    649.37129   -310.61768    186.66753    382.76928   -4029.6089 
 9721000    253.93351    -4713.766   -4224.0339    -4713.766            0    2460.1194    20.197906    20.444513    20.538251    8480.9904    2748.6728    349.35493    4282.3304   -45.384276   -433.69715    195.08883   -3919.7502 
 9722000    252.29453   -4725.8609   -4239.2897   -4725.8609            0    1994.7852     20.08318     20.13909    20.995731    8491.8696     2201.042    1196.0216    2587.2919     -264.739   -133.81492    7.0968491   -3992.2451 
 9723000    244.60045   -4705.3331   -4233.6005   -4705.3331            0    195.89558    20.405167    20.050243    21.314297    8720.2877   -224.35296     297.1539    514.88579   -180.56368     1159.848   -416.62708   -4208.6872 
 9724000    249.57834   -4693.4284   -4212.0956   -4693.4284            0    1630.2057    20.271493    20.081978    20.996672    8547.5707    1716.0317    1139.4398    2035.1456   -39.183861    161.16563    1576.7757   -4008.8781 
 9725000    253.38532   -4727.4506   -4238.7757   -4727.4506            0    630.21817    20.108886    20.117358    21.047601    8514.5469    1986.6842   -162.64702    66.617375   -17.656411   -598.20408    423.56437   -4160.5178 
 9726000    260.41464   -4719.0622   -4216.8306   -4719.0622            0    917.03941    20.063066    20.157198     21.23923    8589.4673    469.45434    2046.3335    235.33034    10.557518    324.85755    -154.8847   -4101.9544 
 9727000    271.26255   -4681.3214   -4158.1687   -4681.3214            0    1573.5139    20.200714    20.216136    20.945087    8553.5629    892.39969      2685.38     1142.762   -1072.9471   -366.18486    27.664502   -3961.8808 
 9728000    265.88909   -4705.8231   -4193.0336   -4705.8231            0    876.45178    20.113869    20.243689    20.984837    8544.5831    760.40024    425.15081    1443.8043   -518.06469   -358.79634   -395.91949   -4083.8154 
 9729000    257.35358   -4709.7063   -4213.3782   -4709.7063            0    573.69246    20.195149    20.258791    21.051761    8612.8924    619.02263     871.0706    230.98415    289.63871    -432.7825    1364.3347   -4141.3166 
 9730000    262.33292   -4691.8536   -4185.9225   -4691.8536            0     849.9169    20.192189     20.08803    21.138229    8574.1164    670.93266    1329.7295    549.08858   -213.39863    -1163.507   -152.58214   -4079.6449 
 9731000    268.52645   -4710.1885   -4192.3126   -4710.1885            0    3125.3685    20.220027    20.031172    20.943414    8482.7284    1965.6526    4925.1019    2485.3511   -784.78636   -719.30202    1495.2335   -3805.6674 
 9732000    250.88411   -4703.7627   -4219.9116   -4703.7627            0    1630.8986    20.176756    20.212144    20.891624    8519.9277     2301.392    1165.3365    1425.9675   -608.09657    1015.0968   -232.90307   -4017.2653 
 9733000    257.40272   -4723.7649   -4227.3421   -4723.7649            0     1619.818    20.275306    19.960416    21.056252    8521.5394    -359.3076    3945.5868    1273.1749    744.45113    190.34112   -385.85229   -4026.0345 
 9734000    258.40868   -4702.4042   -4204.0413   -4702.4042            0    1850.2219    20.060195    20.322059    21.070111    8589.5354    3984.9116   -929.36414    2495.1183   -319.27212   -489.04435    827.79175   -3972.2648 
 9735000    235.74867    -4700.166   -4245.5049    -4700.166            0    1216.7242    20.177788    20.007252     21.24921    8578.3503    702.54845    1876.5877    1071.0365   -420.47959    232.92875    342.94639   -4093.2848 
 9736000    246.22158   -4715.7009   -4240.8418   -4715.7009            0    1607.5465    20.252547    20.050686    20.967445    8514.4064    2288.0418    1218.8978    1315.6999     68.12756    80.649099   -566.07521   -4041.2265 
 9737000    254.97574    -4709.356   -4217.6139    -4709.356            0    825.35467    20.219655    20.388986    20.816274    8581.6807    638.36539   -609.92928    2447.6279    278.74659   -85.836908    1509.2043   -4114.3166 
 9738000    258.17572   -4702.0674   -4204.1538   -4702.0674            0     1121.473    20.164894    20.167923    21.052542    8561.7328    948.87817    3081.1633   -665.62241   -38.842671    -717.1065    974.29846   -4064.1221 
 9739000     243.6518   -4691.9139    -4222.011   -4691.9139            0    1273.5862    20.020338    20.389371    20.918931    8539.1515    1319.4769    1128.5969     1372.685     1018.811    1427.1596   -162.07736   -4063.4052 
 9740000    249.05706   -4694.9035    -4214.576   -4694.9035            0    830.74065    20.295954    20.178956     21.03433    8614.6338     764.8219    445.08541    1282.3146    547.49498   -674.92656   -687.39576   -4110.2054 
 9741000    252.09745   -4722.5024   -4236.3113   -4722.5024            0    2881.2962    20.311498    20.023868    20.810654    8463.9999    3042.8188    3265.5748    2335.4951    397.97801    715.79145    1188.6293   -3880.6477 
 9742000    268.23225   -4733.4529   -4216.1445   -4733.4529            0    1200.5313    20.145595    20.012763    21.252766    8568.4572    2496.8986    142.75696     961.9382   -200.44663   -247.72623    1226.7423   -4066.1235 
 9743000    256.66898   -4698.9809   -4203.9732   -4698.9809            0    1505.6412    20.338535    20.108025    20.990828     8584.572     74.51445     2428.808    2013.6012   -83.300617   -95.054491    1396.3672   -4015.4712 
 9744000    266.60031   -4724.2878   -4210.1267   -4724.2878            0    1584.5164    20.042709    20.280793    20.951262    8516.3116   -831.15872    3987.9994    1596.7085    468.24741    188.98273    615.85394   -4013.3271 
 9745000    271.83355   -4705.1599    -4180.906   -4705.1599            0    1667.8223    20.302325    20.077173    21.082835     8593.644    1818.8949    2013.0782    1171.4937   -174.24066      812.795    526.35011   -3971.8787 
 9746000    255.25747   -4690.0608   -4197.7753   -4690.0608            0    2169.0019     19.97474    20.023681    21.238763    8494.8221    2595.9377    2813.9314    1097.1366   -58.857291    1400.4371    -1104.769   -3929.0614 
 9747000    258.98733   -4719.0215   -4219.5427   -4719.0215            0    1280.8451    20.349725    20.130942     20.92982    8574.0918   -451.48311    2931.6527    1362.3657    528.45939    -1241.633    996.28766   -4059.3802 
 9748000    260.07837   -4696.2239   -4194.6408   -4696.2239            0    2327.6937    20.222462    20.367218    20.786221    8561.3311     2749.777     1127.214    3106.0901    598.74753   -797.32974      1109.84   -3904.0091 
 9749000    243.10068   -4714.0946   -4245.2545   -4714.0946            0    1301.2596    20.134737    20.123906    21.126583    8560.2704    901.10692    3142.2767   -139.60477    174.65979    -71.65006   -983.28334   -4082.8017 
 9750000    273.90412   -4700.6303   -4172.3832   -4700.6303            0    2109.6151    20.189274    20.022534    21.190529    8566.0689    1406.8404    3659.5211    1262.4837    380.99568    131.76743   -734.53309   -3908.8346 
Loop time of 409.519 on 64 procs for 250000 steps with 972 atoms

Performance: 105.490 ns/day, 0.228 hours/ns, 610.472 timesteps/s
99.1% CPU use with 64 MPI tasks x 1 OpenMP threads

MPI task timing breakdown:
Section |  min time  |  avg time  |  max time  |%varavg| %total
---------------------------------------------------------------
Pair    | 19.353     | 27.229     | 34.827     |  76.1 |  6.65
Bond    | 0.26471    | 0.27739    | 0.28883    |   0.8 |  0.07
Kspace  | 169.93     | 179.08     | 192.93     |  40.6 | 43.73
Neigh   | 2.7548     | 3.1429     | 3.6702     |  13.7 |  0.77
Comm    | 83.523     | 92.219     | 98.513     |  38.6 | 22.52
Output  | 1.1596     | 1.1655     | 1.1794     |   0.7 |  0.28
Modify  | 97.692     | 99.314     | 102.78     |  11.5 | 24.25
Other   |            | 7.093      |            |       |  1.73

Nlocal:        15.1875 ave          19 max          10 min
Histogram: 2 1 5 6 9 8 15 8 9 1
Nghost:        2155.05 ave        2177 max        2131 min
Histogram: 5 0 3 12 12 9 6 10 2 5
Neighs:        4600.84 ave        6048 max        2890 min
Histogram: 4 3 3 11 6 6 11 10 7 3

Total # of neighbors = 294454
Ave neighs/atom = 302.93621
Ave special neighs/atom = 2.0000000
Neighbor list builds = 7750
Dangerous builds = 0

unfix		3
unfix		2
unfix		1

write_data	data.final.${pid}
write_data	data.final.0
System init for write_data ...
PPPM initialization ...
  extracting TIP4P info from pair style
  using 12-bit tables for long-range coulomb (../kspace.cpp:340)
  G vector (1/distance) = 0.37159863
  grid = 24 24 25
  stencil order = 5
  estimated absolute RMS force accuracy = 0.0035070336
  estimated relative force accuracy = 1.0561327e-05
  using double precision FFTW3
  3d grid and FFT values/proc = 2366 288
Last active /omp style is kspace_style pppm/tip4p/omp
WARNING: Not all mixed pair coeffs generated from mixing. Use write_data with 'pair ij' option to store all pair coeffs. (../write_data.cpp:312)

write_restart   restart.lmp.${pid}
write_restart   restart.lmp.0
System init for write_restart ...
PPPM initialization ...
  extracting TIP4P info from pair style
  using 12-bit tables for long-range coulomb (../kspace.cpp:340)
  G vector (1/distance) = 0.37159863
  grid = 24 24 25
  stencil order = 5
  estimated absolute RMS force accuracy = 0.0035070336
  estimated relative force accuracy = 1.0561327e-05
  using double precision FFTW3
  3d grid and FFT values/proc = 2366 288
Last active /omp style is kspace_style pppm/tip4p/omp
Total wall time: 0:06:52
