#include		in.partitions
include		in.temp
variable        temperature equal 90.89
variable	tempDamp equal 100.0
include		in.pressure
variable        pressure equal 1543.8
variable        pressureDamp equal 1000.0 # This is 1 ps
include		in.seed
variable        seed equal 745823

units		real
atom_style	full
box tilt large
read_restart	restart.lmp.${pid}
read_restart	restart.lmp.0
Reading restart file ...
  restart file = 30 Jul 2021, LAMMPS = 30 Jul 2021
  restoring atom style full from restart
  triclinic box = (-10.670690 -9.1938462 0.10184020) to (12.650690 12.183844 21.758159) with tilt (-9.2788257 1.9093874 2.9657486)
  4 by 4 by 4 MPI processor grid
  restoring pair style lj/cut/tip4p/long/omp from restart
  restoring bond style harmonic/omp from restart
  restoring angle style harmonic/omp from restart
  1296 atoms
  864 bonds
  432 angles
Finding 1-2 1-3 1-4 neighbors ...
  special bond factors lj:    0        0        0       
  special bond factors coul:  0        0        0       
     2 = max # of 1-2 neighbors
     1 = max # of 1-3 neighbors
     1 = max # of 1-4 neighbors
     2 = max # of special neighbors
  special bonds CPU = 0.006 seconds
  read_restart CPU = 0.015 seconds
include 	in.setup
variable	out_freq equal 1000
variable	out_freq2 equal 10000
variable	out_freq3 equal 1000

timestep	2.0

neigh_modify    delay 7 every 1

include		in.tip4p
# This is TIP4P/Ice

# create groups ###
group ox type 2
432 atoms in group ox
group hy type 1
864 atoms in group hy

# set charges - beside manually ###
set group ox charge -1.1794
Setting atom values ...
  432 settings made for charge
set group hy charge 0.5897
Setting atom values ...
  864 settings made for charge

# ### TIP3P Potential Parameters ###
pair_style lj/cut/tip4p/long/omp 2 1 1 1 0.1577 8.5
pair_coeff 1 1*2 0.000 0.000
pair_coeff 2 2 0.21084 3.1668
bond_style  harmonic
bond_coeff  1 450 0.9572
angle_style harmonic
angle_coeff 1 55 104.52
kspace_style pppm/tip4p/omp 1.0e-5
pair_modify tail yes

thermo          ${out_freq}
thermo          1000
thermo_style    custom step temp pe etotal epair emol press lx ly lz vol pxx pyy pzz pxy pxz pyz enthalpy

restart 	${out_freq3} restart.lmp.${pid} restart2.lmp.${pid}
restart 	1000 restart.lmp.${pid} restart2.lmp.${pid}
restart 	1000 restart.lmp.0 restart2.lmp.${pid}
restart 	1000 restart.lmp.0 restart2.lmp.0


include         in.dump
dump            myDump all atom ${out_freq2} dump.water.${pid}
dump            myDump all atom 10000 dump.water.${pid}
dump            myDump all atom 10000 dump.water.0
dump            myDump2 all dcd ${out_freq2} dump.dcd
dump            myDump2 all dcd 10000 dump.dcd
dump_modify     myDump append yes
dump_modify     myDump2 append yes


variable natoms 	equal  "count(all)"                        # NUMBER ATOMS
variable H      	equal  "enthalpy/v_natoms"                 # ENTHALPY-per-atom
variable Vol      	equal  "vol/v_natoms"                 # volume-per-atom
fix AVG all 		ave/time ${out_freq} 1 ${out_freq} v_Vol v_H file vol_enthalpy.dat
fix AVG all 		ave/time 1000 1 ${out_freq} v_Vol v_H file vol_enthalpy.dat
fix AVG all 		ave/time 1000 1 1000 v_Vol v_H file vol_enthalpy.dat


timer           timeout 10:00:00 every 1000
New timer settings: style=normal  mode=nosync  timeout=10:00:00

fix 		1 all shake 1e-6 200 0 b 1 a 1
       0 = # of size 2 clusters
       0 = # of size 3 clusters
       0 = # of size 4 clusters
     432 = # of frozen angles
  find clusters CPU = 0.002 seconds
fix             2 all nph tri ${pressure} ${pressure} ${pressureDamp}
fix             2 all nph tri 1543.8 ${pressure} ${pressureDamp}
fix             2 all nph tri 1543.8 1543.8 ${pressureDamp}
fix             2 all nph tri 1543.8 1543.8 1000
fix             3 all temp/csvr ${temperature} ${temperature} ${tempDamp} ${seed}
fix             3 all temp/csvr 90.89 ${temperature} ${tempDamp} ${seed}
fix             3 all temp/csvr 90.89 90.89 ${tempDamp} ${seed}
fix             3 all temp/csvr 90.89 90.89 100 ${seed}
fix             3 all temp/csvr 90.89 90.89 100 745823


run             250000
PPPM initialization ...
  extracting TIP4P info from pair style
  using 12-bit tables for long-range coulomb (../kspace.cpp:340)
  G vector (1/distance) = 0.36649822
  grid = 30 40 32
  stencil order = 5
  estimated absolute RMS force accuracy = 0.0047350609
  estimated relative force accuracy = 1.4259495e-05
  using double precision FFTW3
  3d grid and FFT values/proc = 5168 640
Last active /omp style is kspace_style pppm/tip4p/omp
Neighbor list info ...
  update every 1 steps, delay 7 steps, check yes
  max neighbors/atom: 2000, page size: 100000
  master list distance cutoff = 10.8154
  ghost atom cutoff = 10.8154
  binsize = 5.4077, bins = 7 5 5
  1 neighbor lists, perpetual/occasional/extra = 1 0 0
  (1) pair lj/cut/tip4p/long/omp, perpetual
      attributes: half, newton on, omp
      pair build: half/bin/newton/tri/omp
      stencil: half/bin/3d/tri
      bin: standard
Per MPI rank memory allocation (min/avg/max) = 9.435 | 9.442 | 9.447 Mbytes
Step Temp PotEng TotEng E_pair E_mol Press Lx Ly Lz Volume Pxx Pyy Pzz Pxy Pxz Pyz Enthalpy 
 2250000    94.539485   -6767.6991   -6524.5021   -6767.6991            0    1057.9599     23.32138     21.37769    21.656319    10796.914    693.75816    863.52139    1616.6001    326.76294   -57.253744   -46.081693   -6357.9137 
 2251000    92.310317   -6787.0206   -6549.5579   -6787.0206            0    1104.6926    23.225404    21.361072    21.792657    10811.763    1051.0333    1330.2053    932.83914    397.03558    713.28181   -56.819322   -6375.3717 
 2252000    94.028572   -6791.3479   -6549.4652   -6791.3479            0    1663.0738    23.156782    21.391697    21.743946    10771.143    2776.5476    1630.5801    582.09351   -914.98173     25.42212   -686.49569   -6288.2194 
 2253000    91.052327   -6785.2098   -6550.9832   -6785.2098            0    1659.4867      23.3119    21.308724     21.66509    10762.065    695.20307    2272.2879    2010.9692    83.553911   -113.90546   -161.31759   -6290.5207 
 2254000    86.533737   -6783.9442   -6561.3415   -6783.9442            0       1619.8    23.212323     21.48795    21.580584    10764.076    1587.2981    1341.2579    1930.8441   -112.47381   -558.97922    213.81551   -6307.0604 
 2255000    93.428806   -6793.7503   -6553.4104   -6793.7503            0    1028.3497    23.278382    21.402451    21.663377    10793.007    857.30541    932.00719    1295.7364   -41.242744   -76.989551    603.12972    -6391.543 
 2256000    91.891626   -6780.1456     -6543.76   -6780.1456            0    746.71293    23.281164    21.343173    21.747459     10806.18    710.74226    933.99067    595.40585    40.552752    221.69903   -151.70963   -6426.0803 
 2257000    91.345039    -6788.909   -6553.9295    -6788.909            0    1732.3251    23.149741    21.409703    21.711459     10760.83    2243.5111    1516.5181    1436.9461    664.63253   -577.56644   -40.840936   -6282.0659 
 2258000    88.176671    -6772.771   -6545.9418    -6772.771            0     1429.926    23.265911    21.279734    21.798528    10792.285    861.11774    2164.0823    1264.5778    21.774216   -56.077963    -144.1139   -6320.8795 
 2259000    90.685348   -6766.6461   -6533.3636   -6766.6461            0    1449.2372    23.153428    21.464203     21.68915    10778.854    2646.2743    1144.1019    557.33536   -75.011041   -401.46617    352.68845   -6305.5456 
 2260000    92.794604   -6787.3654   -6548.6569   -6787.3654            0    1642.7322     23.23625    21.335947    21.726552    10771.316    2503.8057    978.65046    1445.7405    860.06786    -1058.039    431.03954   -6290.6024 
 2261000      90.3192   -6781.2038   -6548.8631   -6781.2038            0    2546.6459    23.235316      21.2606    21.720616    10729.914    1826.0556    3542.9722      2270.91    718.05985    356.25143    -60.88437   -6150.3518 
 2262000    94.472893   -6778.0989   -6535.0732   -6778.0989            0    1487.8815    23.178417    21.462581    21.652551    10771.465    1319.1676    1353.0099    1791.4671   -114.07377     271.6892    75.101624   -6301.3407 
 2263000     92.88862   -6778.9464   -6539.9961   -6778.9464            0     1307.986     23.44343    21.264067    21.621646    10778.448    756.04066    1602.3789    1565.5386   -34.341594   -457.80398    677.19178   -6334.3904 
 2264000    87.330461    -6786.203   -6561.5507    -6786.203            0    1451.3885    23.167447    21.477985    21.648654    10772.155    873.86619    1346.1188    2134.1805    425.94766    499.71612   -137.17665   -6333.5364 
 2265000    89.764538   -6777.9802   -6547.0664   -6777.9802            0    1764.1099    23.340833    21.220348    21.734936    10765.327    1125.8367    2722.3065    1444.1865    45.202196    296.49567   -14.278942   -6270.0989 
 2266000    92.571461   -6788.0965   -6549.9621   -6788.0965            0     1792.898     23.16054    21.373844    21.719913    10752.004    1485.6907    1801.8062    2091.1971    574.12681   -26.867126    136.50964   -6268.8232 
 2267000    90.178134   -6781.3728   -6549.3951   -6781.3728            0    1020.2232    23.254422    21.370041    21.729203    10798.283    981.60523    1517.2814    561.78282    262.36807    407.34079    -262.1827   -6388.7284 
 2268000    88.358517   -6790.4197   -6563.1228   -6790.4197            0    818.91591    23.278409    21.340289    21.768733     10814.01    1075.1315    1142.3194    239.29681   -353.19517    491.26659    -66.25045   -6433.9705 
 2269000    90.870871   -6785.9435   -6552.1837   -6785.9435            0    1824.6308    23.141817    21.493379    21.609143    10748.298    1649.7911    1171.7934    2652.3077   -182.11389   -196.32718    588.17597   -6266.1675 
 2270000    89.627415   -6782.1399   -6551.5788   -6782.1399            0    2492.2204    23.338577    21.270449    21.591183    10718.338     2530.939    2224.1079    2721.6143   -242.08813   -1052.3012    74.534911    -6162.005 
 2271000    89.522717   -6792.1139   -6561.8221   -6792.1139            0    1951.9167    23.203135    21.429302     21.61935    10749.724    2008.3511    1249.6892    2597.7099     909.0719   -402.23067    972.34419   -6255.8129 
 2272000    92.407312   -6786.9449   -6549.2327   -6786.9449            0    1589.3584    23.226068    21.346442    21.732568    10774.875    1385.6265    2124.1652    1258.2837   -7.8008797     666.0916   -355.83766   -6299.4802 
 2273000    89.455846   -6784.9503   -6554.8305   -6784.9503            0    1159.2701     23.26761      21.2794    21.791994    10789.669    598.07455    1286.6724    1593.0634    639.72672    122.26169    157.96244   -6372.4121 
 2274000    95.566594   -6771.2835   -6525.4443   -6771.2835            0    1095.5761    23.257163    21.448976    21.667414    10808.623    230.96428    1129.4302    1926.3338    972.59786     524.3181    64.419791   -6352.7457 
 2275000    97.710072   -6786.6162    -6535.263   -6786.6162            0    1803.0811    23.320485    21.281615    21.674984    10757.242    1886.9621    1812.6177    1709.6637    391.14977   -158.92055    134.73077   -6252.3896 
 2276000    92.549365   -6774.3842   -6536.3066   -6774.3842            0    1188.8376    23.228833    21.476825    21.617855     10784.75    1634.9008    997.35289    934.25902   -890.65242    174.90831   -198.53655   -6349.3208 
 2277000    93.984582   -6783.2563   -6541.4867   -6783.2563            0    2243.7472     23.23902    21.363123    21.637929    10742.324    2724.3322    1917.1435     2089.766   -494.21241   -607.92067    388.41982   -6189.9683 
 2278000    85.847712   -6783.6886   -6562.8506   -6783.6886            0    1526.9603     23.21407    21.348979    21.712825    10760.804    1500.2058    1362.9085    1717.7666    99.442964   -210.59979    57.440935   -6323.2167 
 2279000    89.682249   -6788.8355   -6558.1333   -6788.8355            0    1500.3064    23.118697    21.355513    21.832214    10778.818    2405.8721    1525.8671    569.17988    87.174755    363.17501   -183.82605   -6322.2882 
 2280000    99.440893   -6791.7054   -6535.8998   -6791.7054            0    1991.7914    23.218058    21.183739    21.883148    10763.124     1931.093    2774.0936    1270.1875    493.03797    419.97137   -95.367705     -6223.25 
 2281000    92.796944   -6777.4794   -6538.7649   -6777.4794            0    1913.4699    23.189439    21.380808    21.695484    10756.815    2519.5251    2037.3158    1183.5687   -93.155004    527.98017   -796.05778   -6238.5853 
 2282000    92.938952   -6783.9443   -6544.8645   -6783.9443            0    1076.1767    23.350135     21.37336    21.616509    10788.169    625.84244    1203.5354    1399.1522   -906.72232    744.00322    -86.34785    -6375.545 
 2283000    89.357651   -6777.7051    -6547.838   -6777.7051            0    898.66479    23.322608    21.449589    21.560482    10785.854    662.63179    67.249264    1966.1133   -314.18878   -395.21755    534.80852   -6406.4775 
 2284000    88.198594   -6780.9061   -6554.0206   -6780.9061            0    1587.7275    23.185292    21.423814    21.674056     10765.88    1207.8551    1608.0781    1947.2493   -53.921158    66.147487     685.0708   -6304.7326 
 2285000    91.058685   -6791.7873   -6557.5444   -6791.7873            0    1451.1562    23.218773    21.263921    21.831192    10778.543    1627.4371     1784.582    941.44941   -216.42494    148.43431    1048.2781   -6329.4314 
 2286000    90.522398   -6789.6071   -6556.7438   -6789.6071            0    1345.2012    23.131249    21.429031    21.751849    10781.962    1905.3999    1205.5112    924.69241   -452.72739    460.14549    338.21925   -6345.2191 
 2287000    93.801952    -6788.851   -6547.5512    -6788.851            0    894.11763    23.375022    21.317495    21.645077    10785.675    857.61405     1024.965    799.77382   -314.36148    648.44098   -329.31599   -6406.9083 
 2288000    94.226052   -6790.6376   -6548.2468   -6790.6376            0    1323.3873     23.29425    21.472055    21.510537    10759.042    1024.5864    864.33213    2081.2434    269.46508    579.01168    202.79972   -6340.5946 
 2289000    90.370402   -6779.2744   -6546.8021   -6779.2744            0    1911.0535    23.287005     21.33009    21.653337    10755.514    2134.7113    1714.3948    1884.0544   -21.745989     136.2401   -716.19666   -6247.0378 
 2290000    90.824822   -6791.5021   -6557.8607   -6791.5021            0    1454.7141    23.225361    21.352979    21.753917    10788.434    613.23634    2148.4588    1602.4473   -442.18766    714.04499   -29.323902   -6328.9786 
 2291000    89.420608   -6788.4056   -6558.3766   -6788.4056            0    1190.8026    23.141321    21.398115     21.79991    10794.893    1183.0669    1695.2958    694.04513   -47.104282   -219.57581     262.3942   -6370.9056 
 2292000    90.888099    -6784.047   -6550.2429    -6784.047            0    1789.5507     23.27647     21.28619     21.74798    10775.414    1167.6097    2020.2034    2180.8391   -197.33306    353.07286    354.03068    -6269.018 
 2293000    91.950379   -6779.9244   -6543.3876   -6779.9244            0    1421.4562    23.207471    21.473216      21.6289    10778.525    1480.2419    682.22464     2101.902   -21.177054    163.08504     357.9378   -6319.9436 
 2294000    91.030132   -6780.5185    -6546.349   -6780.5185            0    1836.9194     23.34301    21.316667    21.627361     10761.67      1522.55    1871.3579    2116.8501    195.55153    2.9631425   -41.117212   -6258.0483 
 2295000    85.821138   -6793.9197   -6573.1501   -6793.9197            0    1976.8022    23.206345    21.359816    21.662017    10737.499    1644.9902    2199.6065      2085.81   -196.08581    1214.0307    258.87418   -6263.5919 
 2296000    92.250918   -6784.2029   -6546.8931   -6784.2029            0      1729.86    23.200781    21.370153     21.72902     10773.34    2188.4399    1227.5606    1773.5796    216.71292   -569.37311    110.94528   -6275.1007 
 2297000     88.75762   -6787.6673   -6559.3437   -6787.6673            0    1268.9845      23.2882    21.256186    21.801011    10791.899    1545.7779     2304.725   -43.549298    466.93485   -537.79048   -515.71125   -6359.6198 
 2298000    94.893027   -6786.1154   -6542.0088   -6786.1154            0    1600.8582    23.164569    21.405951    21.699161    10759.738    1816.2325    1740.8848    1245.4573   -623.50626    592.54505   -116.72326   -6290.8026 
 2299000    91.560493   -6774.6172   -6539.0834   -6774.6172            0     2114.163    23.203782    21.358366    21.658224    10733.704    1735.7214    2822.3669    1784.4007     322.7296   -152.42953    417.02998   -6208.1322 
 2300000    92.650863   -6787.5541   -6549.2154   -6787.5541            0    2483.6823    23.352787     21.23497    21.639669    10731.019    2310.5147    2868.4191     2272.113   -19.399114   -12.778324    370.47727   -6160.5168 
 2301000    91.899014   -6779.0361   -6542.6314   -6779.0361            0     716.4472    23.215776    21.472614    21.684058    10809.577    463.46478    671.25551    1014.6213    514.54439    358.00997    326.12084    -6429.686 
 2302000    91.348064   -6793.7113   -6558.7239   -6793.7113            0    1463.4798    23.308473    21.271124    21.717505    10767.483    1196.0377    1468.8494    1725.5522    -352.0756    281.29475    44.101772   -6328.9098 
 2303000    89.572904   -6788.3605   -6557.9397   -6788.3605            0    1258.7002    23.203439    21.385953     21.70412    10770.184    742.90561    1388.4326    1644.7622    414.32727    392.83314    104.63739    -6360.233 
 2304000    94.402516   -6786.5328   -6543.6881   -6786.5328            0      1336.52    23.270446    21.312833    21.737364    10780.844    829.27223    1266.0259    1914.2619    393.84051    49.924359     983.1609   -6333.5503 
 2305000    90.668664   -6780.1753   -6546.9357   -6780.1753            0    1022.6158    23.253172    21.414872    21.667013    10789.386    610.33766    1239.1025    1218.4074    248.48968   -642.01836    467.76583   -6386.0249 
 2306000    94.051979   -6777.5504   -6535.6074   -6777.5504            0    1037.5847    23.255859    21.399148    21.686139    10792.228    862.81507    1177.3364    1072.6025   -330.38353    380.40895    66.027777   -6372.2983 
 2307000    95.844068   -6797.0934   -6550.5403   -6797.0934            0    2268.2225    23.221889    21.262974    21.730768    10729.924    2697.9462    1953.8515    2152.8699    504.14752   -234.99469    431.92179   -6195.5977 
 2308000    90.705919    -6785.034   -6551.6985    -6785.034            0    2207.3043    23.226707    21.338926    21.700078    10755.274    2384.5052      2128.73    2108.6776   -9.8821277    445.33829     446.0655   -6205.4726 
 2309000    90.511069   -6782.2962    -6549.462   -6782.2962            0    1548.5545    23.263967    21.343923    21.708011    10778.989    1239.5964     1990.313    1415.7543    1037.0972   -24.037268    96.663376   -6306.0284 
 2310000    87.618755   -6789.3055   -6563.9116   -6789.3055            0    1350.1376    23.268282      21.3746    21.637844    10761.587    1213.4486    1623.3407    1213.6234    48.320262   -413.65206    89.335868    -6352.012 
 2311000    91.979341   -6788.4139   -6551.8026   -6788.4139            0    1128.4071    23.282929    21.389599    21.668201    10791.035    776.65619    1301.4177    1307.1474   -273.30501    418.42489    421.89951   -6374.2182 
 2312000    91.039642   -6779.0883   -6544.8944   -6779.0883            0    1775.0983    23.213055    21.307842    21.751073    10758.518    1972.6079    2025.6248    1327.0622   -740.77436   -225.11486    579.98738    -6266.378 
 2313000    92.919209   -6770.6589   -6531.6299   -6770.6589            0    1750.9956    23.096812    21.428049    21.771592    10775.188    2661.2643    1029.5451    1562.1773    169.86145   -333.12995    712.46786   -6256.4696 
 2314000    90.186667   -6785.5504   -6553.5507   -6785.5504            0    1313.6998     23.26856    21.296904    21.783736    10794.893    2457.7134    1048.9069    434.47915   -413.42534   -531.42733    679.15195   -6346.7317 
 2315000    85.935582   -6790.2728   -6569.2088   -6790.2728            0    1843.6622    23.152374    21.442084    21.663558    10754.552    2148.4691    1877.3315    1505.1862   -512.10815    680.48722   -424.31436   -6280.0412 
 2316000    93.474054   -6780.9849   -6540.5286   -6780.9849            0    1998.5156    23.274056    21.326505    21.663455    10752.748    2086.8568    1914.0922    1994.5977    487.88259   -452.82427    91.598845   -6227.1258 
 2317000    88.581601    -6792.729   -6564.8582    -6792.729            0    1202.9984     23.26269    21.366865    21.698843    10785.426    1057.2266    1073.6075     1478.161    60.880008     162.9241    75.285269   -6375.6333 
 2318000    89.244445   -6789.6468   -6560.0709   -6789.6468            0    923.01887    23.249513    21.422291    21.689177    10802.464    1044.3327    589.53011    1135.1937   -91.984696   -471.07282   -719.10209   -6414.6558 
 2319000    85.900656   -6789.3053   -6568.3311   -6789.3053            0    2468.9412    23.244044    21.319243    21.644379    10725.773    2203.0714    2241.3468    2962.4055    -86.79875   -528.36617    190.02893   -6182.1285 
 2320000    92.879171   -6791.8105   -6552.8845   -6791.8105            0    1514.1949    23.214082    21.428713    21.644063    10766.794    1746.1109    797.58384    1998.8899    282.00667    -720.5441    512.79167   -6315.1216 
 2321000    89.554547   -6778.3632   -6547.9896   -6778.3632            0    771.49154    23.377548    21.315052    21.674694    10800.363    -181.2955    1286.9916    1208.7785    226.14251    251.35064    214.96701   -6426.4702 
 2322000    91.963397   -6766.4916   -6529.9214   -6766.4916            0    2060.5884    23.112236    21.417445    21.731083    10756.996    2455.3468    1994.1616    1732.2567    45.602335    379.62023    610.02983   -6206.6568 
 2323000    93.385153   -6801.5273   -6561.2997   -6801.5273            0    1606.9139     23.20077    21.294164    21.804615    10772.374    2032.1032    1433.6292    1355.0092   -70.201158   -690.64024    323.43398   -6308.8471 
 2324000    91.589812   -6788.7364   -6553.1272   -6788.7364            0    1552.5064    23.166119    21.379612    21.766134    10780.388    1484.6541    1881.9663    1290.8989    367.89458   -303.54198    225.64304   -6309.0407 
 2325000    90.432361   -6785.4609   -6552.8292   -6785.4609            0    1720.0145    23.231503    21.404637    21.633287    10757.409    1803.0069    1815.6538    1541.3829   -427.05724   -33.024674    79.243765   -6282.9833 
 2326000    88.534547   -6779.7897     -6552.04   -6779.7897            0    2515.8947    23.285921     21.35106    21.570032    10724.169     1855.636    2576.8025    3115.2456   -315.57135    344.70382   -232.81321   -6158.5515 
 2327000    85.450859   -6778.5045   -6558.6874   -6778.5045            0    1440.7166    23.293981    21.397021    21.601458    10766.637    1250.5323    985.80373    2085.8137   -565.81349     161.2131    304.14834   -6332.4655 
 2328000    91.285232    -6769.137   -6534.3113    -6769.137            0     1066.426    23.226526    21.423072    21.716049    10805.549    1756.3024    871.34139    571.63412    724.44661   -1067.9859   -542.32038   -6366.2555 
 2329000    88.581357   -6787.9775   -6560.1074   -6787.9775            0    1463.4738    23.219539    21.310376    21.786149    10780.159    1243.8071    1640.5377    1506.0765    422.16978   -263.90598   -70.828841   -6330.0236 
 2330000    89.970462   -6768.8924   -6537.4489   -6768.8924            0     2479.949    23.196159    21.317267    21.734629    10747.312    2727.5008    2605.3248    2107.0213   -288.65682    532.88409   -875.97342   -6148.7454 
 2331000    91.028195   -6793.0908   -6558.9263   -6793.0908            0    1777.9753    23.184774     21.45182    21.598365    10742.068    2581.7459    1224.0914    1528.0887   -656.17728    61.417291   -81.368743   -6280.3851 
 2332000    88.527063   -6784.2391   -6556.5087   -6784.2391            0    1832.4139    23.313082    21.360383    21.592455    10752.532    1707.5983    1579.2856    2210.3578     615.1971   -80.711665    584.65274   -6269.1593 
 2333000    90.509848   -6783.7676   -6550.9365   -6783.7676            0    1300.2685    23.308789    21.410142    21.616991     10787.84    983.18617    1582.0636    1335.5557    267.21242   -310.73125   -284.99492   -6346.3658 
 2334000    95.351138   -6777.7403   -6532.4553   -6777.7403            0    1751.7017    23.229484     21.36072    21.703846    10769.416    1317.4288    2265.9687    1671.7077    324.63086    108.33923    163.20297   -6257.3315 
 2335000    89.974381   -6785.4726    -6554.019   -6785.4726            0     1669.673    23.226453    21.328608    21.732616    10766.075    2523.2256    1122.1296    1363.6638   -900.06738   -122.51208   -356.57412     -6291.86 
 2336000    91.701102   -6795.5757   -6559.6802   -6795.5757            0    144.68953    23.227747    21.473324    21.725918    10836.387    973.40703   -841.75477    302.41634     136.7678   -166.27703    222.24771   -6536.8138 
 2337000    88.285792   -6790.2873   -6563.1775   -6790.2873            0    1267.0201    23.277295    21.337998    21.699009      10777.7    1805.1733    613.64994    1382.2371    766.98791   -222.19654   -110.41824   -6364.0251 
 2338000    94.353926   -6788.6274   -6545.9077   -6788.6274            0    1886.6262    23.251656    21.382572    21.634218    10756.105    2105.8654    1041.2701    2512.7431   -407.50089    499.71752    292.23148   -6249.9588 
 2339000    86.857229   -6791.8422   -6568.4073   -6791.8422            0    2028.0822    23.221198    21.376257     21.64547    10744.428    2051.9292    1994.1519    2038.1655    87.470214    354.35717    351.98481    -6250.614 
 2340000    89.489587   -6787.5659   -6557.3594   -6787.5659            0    1636.3229     23.32457    21.303159    21.630155    10747.743     1552.067    2118.0441    1238.8577    253.36251   -523.70582    297.40015   -6300.8742 
 2341000    88.131758   -6788.9544   -6562.2408   -6788.9544            0    1234.7491    23.215204    21.428628     21.64926    10769.857    856.73875    1163.1113    1684.3973   -22.017373    102.45602    785.00327    -6368.302 
 2342000    90.913303   -6783.0669    -6549.198   -6783.0669            0     1365.961    23.315159    21.323889    21.697577    10787.382    922.35233    1724.3001    1451.2305   -406.57247    547.18995    248.63176   -6334.3011 
 2343000    92.268717   -6789.4824   -6552.1267   -6789.4824            0    1539.0002    23.171775    21.430527    21.679789    10765.822    1758.2567    1520.5309     1338.213    332.52034    188.26475    10.757114   -6310.4907 
 2344000    89.956974   -6776.3798    -6544.971   -6776.3798            0    1572.3816    23.391924    21.280308    21.625111    10764.707    486.61124    2486.5441    1743.9894   -673.54266   -815.87688    -38.32962   -6298.1194 
 2345000     87.74697   -6791.8243   -6566.1005   -6791.8243            0    1395.0927    23.173876    21.427163    21.697153    10773.731    2056.0738    1145.8116    983.39263   -610.44293    279.80262   -460.08117   -6346.8983 
 2346000    92.759085   -6777.9334   -6539.3164   -6777.9334            0    1972.9948    23.159114     21.33582    21.791881    10767.776    2689.0299    2167.0931    1062.8613   -168.54033   -939.42909   -193.92411   -6229.4832 
 2347000    89.925385   -6784.5786    -6553.251   -6784.5786            0    1535.8571    23.253762    21.259577    21.804935      10779.6    1306.7076    2378.8616    922.00213   -400.37154    489.72966   -197.83957   -6311.7999 
 2348000    91.387108   -6803.2441   -6568.1564   -6803.2441            0    1616.9615    23.147338    21.475216    21.654789    10764.467     2643.768    430.53104    1776.5855    115.51217   -269.59468    546.27644   -6314.3117 
 2349000    92.608867    -6786.957   -6548.7263    -6786.957            0    1270.8218     23.38329    21.271359    21.678271    10782.649    668.40944    1916.9231    1227.1329    537.39652    639.66628   -271.91215   -6348.8847 
 2350000    92.090982   -6797.0288   -6560.1304   -6797.0288            0    1338.7598    23.179701    21.454121    21.663924    10773.472    2009.5684    577.99699    1428.7141    153.22324     328.3771   -181.95258   -6349.7844 
 2351000    91.092701   -6796.5487   -6562.2183   -6796.5487            0    1570.1136    23.279755    21.305405    21.710143    10767.896    1284.3239    1875.0148    1551.0022   -125.94895    347.47416   -429.76629   -6315.6496 
 2352000    91.236217    -6788.455   -6553.7554    -6788.455            0    1604.7566    23.264708    21.325522    21.731237    10781.563    1497.1465    2275.3018    1041.8216    560.33555   -282.20501    3.8369302   -6301.4266 
 2353000    92.472734   -6779.7315    -6541.851   -6779.7315            0    1328.9594    23.137409    21.440205    21.754602    10791.822      2053.55    878.61114    1054.7172   -35.957141   -342.30508    97.253916   -6332.6892 
 2354000    92.411902   -6785.1115   -6547.3875   -6785.1115            0    2106.3495    23.334928     21.21488    21.722717    10753.781     1677.293    2692.8579    1948.8977   -567.62563   -204.55246    797.31177   -6217.0427 
 2355000    89.428754   -6776.0903   -6546.0403   -6776.0903            0    1688.6593    23.193271    21.445954    21.644004    10765.767    1895.2248    1695.8833    1474.8696   -556.84035    451.42914   -158.83661   -6280.9078 
 2356000    87.581939   -6784.5891   -6559.2899   -6784.5891            0    1546.4023    23.304637    21.283694    21.728211    10777.383    1645.7632    1797.7525    1195.6911    271.03061   -117.15733    113.23383   -6316.2309 
 2357000    89.133316   -6785.1547   -6555.8647   -6785.1547            0    1182.1146    23.267084    21.334943     21.74218     10792.86    1133.3171    1280.3054    1132.7214    244.27511    28.299861     210.8811   -6369.7966 
 2358000    88.865312   -6783.8305   -6555.2299   -6783.8305            0    1260.4352    23.207235    21.450484    21.666374     10785.66    1598.5488    463.70585     1719.051   -156.11785    491.57463   -105.24695   -6356.9662 
 2359000    88.277764   -6782.6163   -6555.5271   -6782.6163            0    1479.9979    23.379078    21.270442    21.660934    10771.621    1001.1157    1501.7908    1937.0873   -157.31741    441.74623    281.71671   -6323.0298 
 2360000    90.659785   -6789.5789   -6556.3621   -6789.5789            0    1441.0146    23.208834    21.436062     21.61595    10754.065    782.23036    1210.8158    2329.9975    947.23977   -94.480796    353.65276   -6330.3577 
 2361000    88.892384    -6778.484   -6549.8138    -6778.484            0    1335.8732    23.245313    21.305301     21.78571    10789.338    1296.2129    1388.9972    1322.4096    47.022639   -683.78801    733.89887   -6339.6122 
 2362000    88.679972   -6776.4212   -6548.2973   -6776.4212            0    1584.7391    23.138699    21.375154    21.787597    10775.998    1638.8041    1893.8012     1221.612    350.23508    615.92398    366.60462   -6299.2447 
 2363000     92.20793   -6785.4848   -6548.2855   -6785.4848            0    1466.0049    23.230759    21.294055    21.786102    10777.085    1852.9551    1435.5896    1109.4701    37.511636   -478.14629    38.822677   -6317.8695 
 2364000    92.436676   -6783.7517   -6545.9639   -6783.7517            0    1562.2083    23.256448    21.361615    21.700082    10780.499    1376.9725    1373.4736     1936.179    -20.29267    623.00759    248.32435   -6300.3496 
 2365000    91.074313   -6782.4005   -6548.1174   -6782.4005            0    1206.8815    23.265405     21.42515     21.64726    10790.397    625.48968    1235.0205    1760.1343     422.4525    978.64151   -137.44861   -6358.1942 
 2366000     89.61043   -6798.6677   -6568.1504   -6798.6677            0    1144.9371    23.316057     21.26534    21.734364    10776.417    1429.0318    1006.9084    998.87124   -549.08655   -274.05868    950.68833   -6388.2086 
 2367000    87.464419   -6801.9532   -6576.9563   -6801.9532            0    1633.4016    23.095015    21.450621    21.699261    10749.867    1413.5188    2271.1719    1215.5142    418.54272   -24.743403    761.90157   -6320.8785 
 2368000     91.46806   -6797.1146   -6561.8186   -6797.1146            0    1214.8521    23.350145    21.255131    21.714578    10777.171    982.09857    1060.1161    1602.3415    2.4315858    28.306089    264.96405   -6370.8755 
 2369000    90.312613   -6787.3491   -6555.0254   -6787.3491            0    1499.7825     23.19199    21.431731    21.651363     10761.69     1229.217    1081.0847    2189.0458    254.84268    626.87256    793.98562   -6319.6372 
 2370000    89.386994   -6780.4355   -6550.4929   -6780.4355            0    1573.9943    23.263829    21.304279     21.72651    10768.074    1551.3171    1133.4682    2037.1976   -33.470834    897.63435    1206.4945   -6303.3108 
 2371000    87.727849   -6779.5619   -6553.8873   -6779.5619            0     2403.305     23.26876    21.274529    21.708602    10746.451     2142.676     2772.866    2294.3731    308.18922    48.134382    180.45504    -6177.227 
 2372000    92.577276   -6775.2692   -6537.1198   -6775.2692            0     1372.911    23.140909     21.46881    21.727745    10794.513    1948.6907    1376.8822    793.16021    687.44208   -353.30548   -109.96223   -6320.9866 
 2373000    89.067124   -6786.3332   -6557.2135   -6786.3332            0    446.27194    23.382976    21.304629     21.73684    10828.547    58.493345    701.02498     579.2975   -600.63544   -312.38673    588.99761   -6486.7368 
 2374000    87.507988   -6772.0897   -6546.9807   -6772.0897            0    1179.7391    23.187378    21.474221    21.645529    10777.977    722.91674    850.37217    1965.9285   -500.70989    1006.0139    956.98651   -6361.5426 
 2375000    93.659967   -6784.0689   -6543.1344   -6784.0689            0    1253.2836    23.298447    21.317309    21.716166    10785.555    646.11386    1868.0751    1245.6619    228.50184    708.69981   -3.8618377   -6345.9976 
 2376000    89.978456   -6785.8928   -6554.4287   -6785.8928            0    1407.5973    23.299358    21.335477    21.688687    10781.509    983.55167    1988.9833     1250.257    214.98844    230.61292    485.32112    -6333.102 
 2377000    91.607016   -6789.1582   -6553.5047   -6789.1582            0     1905.789    23.164931    21.438646     21.62573    10739.873     2273.231    1258.8177    2185.3182   -153.88934    549.81846   -170.23212   -6255.0009 
 2378000    88.910588   -6776.6439   -6547.9268   -6776.6439            0    1810.0138    23.400221    21.175997    21.694948    10750.346    406.18604    3140.4634    1883.3919    724.45402   -32.311913   -491.96269   -6264.1479 
 2379000    88.862259   -6765.5169   -6536.9241   -6765.5169            0     1431.394    23.147563    21.488941    21.700747    10794.312     1707.953    748.75772    1837.4711   -312.58734   -117.01389    166.19963   -6311.5884 
 2380000    88.514001   -6800.9615   -6573.2646   -6800.9615            0      1585.43    23.280141    21.325733    21.648134    10747.564    1956.3028    875.75475    1924.2324   -308.56837   -355.56624    402.67378   -6324.7608 
 2381000    89.111154   -6792.9681   -6563.7351   -6792.9681            0     2209.892    23.145825    21.400997    21.660644    10729.464    2231.1836    2066.7317    2331.7606    216.27288   -373.50766    413.14059   -6217.9352 
 2382000    93.599297   -6779.6361   -6538.8576   -6779.6361            0    1098.8715    23.163382    21.409104    21.755039    10788.482     604.0891     777.2155    1915.3098   -146.48207    66.531576    510.00119   -6365.9623 
 2383000    89.953017   -6777.6979   -6546.2992   -6777.6979            0    1176.2355    23.272185    21.301115    21.753024    10783.485    1359.1729    1895.2968    274.23683   -653.02728   -158.16491   -338.14218   -6361.3173 
 2384000    86.300725   -6785.5975   -6563.5942   -6785.5975            0    1617.3723    23.164396    21.428422    21.654778    10748.922    1446.7231    2224.0028     1181.391    1252.9118    4.9772321    192.21355   -6310.0516 
 2385000    90.713833    -6797.599   -6564.2432    -6797.599            0    1551.7316    23.361597    21.214521    21.701879    10755.562    1256.7734    1822.7254    1575.6961    407.48211   -81.447747    147.21488   -6320.8403 
 2386000    93.311011   -6783.0249    -6542.988   -6783.0249            0    915.69222    23.210675     21.40962    21.733119    10799.876     1382.224    210.89406    1153.9587     399.4984    16.335413    522.74212   -6398.7618 
 2387000    89.624992   -6783.6704   -6553.1155   -6783.6704            0    1336.9287    23.191189    21.376831     21.72588    10770.695     1635.166    1538.1859    837.43424   -535.85035    596.06591   -176.27498   -6343.1114 
 2388000    89.469638   -6793.4829   -6563.3277   -6793.4829            0    849.51063    23.328765    21.267841    21.741003    10786.852    445.97081    1288.1514    814.40966    93.388875   -198.74801    70.121926   -6429.6868 
 2389000    90.826529    -6792.373   -6558.7273    -6792.373            0    1311.6741    23.168612    21.487166    21.635873     10770.94    1441.7629     590.7093    1902.5501    4.9420062    427.43191     178.6536   -6352.6855 
 2390000    96.162562   -6798.8525   -6551.4802   -6798.8525            0    1375.3644    23.356189    21.251839     21.68049    10761.371    1211.3837    1794.6159    1120.0938    18.247749   -427.46469    360.03533   -6335.6256 
 2391000     88.00636   -6783.4954   -6557.1044   -6783.4954            0    1826.9166    23.104449    21.455561    21.716089    10765.076    2607.8401    1486.5585    1386.3513      180.498   -332.00716    567.91819   -6270.2829 
 2392000    93.241793   -6792.7854   -6552.9266   -6792.7854            0    1832.0971    23.200286    21.308251    21.741539    10748.093    1880.9626    2861.2066     754.1222   -95.552301    -271.0881    -538.8643   -6265.7455 
 2393000    90.925548   -6784.5693   -6550.6689   -6784.5693            0    2048.8793    23.258051    21.255475    21.737019    10745.933    1953.3379    2814.4612    1378.8387    412.89833   -330.28658   -351.68958   -6229.5718 
 2394000    91.181903   -6788.4374   -6553.8776   -6788.4374            0     1484.802    23.085459     21.45448     21.74349    10769.257    1783.8407    1633.6906    1036.8748     1336.891   -80.355193   -75.199448   -6320.6767 
 2395000    95.343592   -6783.0346    -6537.769   -6783.0346            0    2062.1858    23.327973     21.19392    21.758683    10757.736    1288.7228    3045.6359    1852.1987    746.02715   -22.835813    426.96668   -6214.2315 
 2396000    93.175106     -6795.33   -6555.6427     -6795.33            0    1587.6095    23.179614    21.438656    21.638846    10753.203    1041.5676    1536.3472    2184.9136    356.78051    490.09363    972.92114   -6306.6668 
 2397000     86.59026   -6781.9261    -6559.178   -6781.9261            0    2399.1316    23.233274    21.342175    21.629472    10724.944    2403.8861    2513.5827    2279.9261    617.63894   -456.22739    107.18451   -6183.9243 
 2398000    90.395672     -6794.95   -6562.4126     -6794.95            0    1660.7849    23.277203    21.271837    21.709765    10749.565    1792.5616    1443.5676    1746.2256   -350.08019    -386.1493   -98.480768   -6302.0491 
 2399000    91.029565    -6773.715    -6539.547    -6773.715            0    1144.5283    23.089508    21.464489     21.78919     10798.82    2528.3261    775.04761    130.21112   -95.726839   -303.15576    273.02786   -6359.2955 
 2400000    89.108393   -6788.9227   -6559.6968   -6788.9227            0    1474.3672    23.275011    21.273962    21.744009    10766.583    1583.2681    1901.9409    937.89245    113.81527   -82.582709    282.77367   -6328.1923 
 2401000    91.271394   -6777.4496   -6542.6595   -6777.4496            0    1349.4892    23.182327    21.431214    21.690306    10776.296    1037.4339    704.75197    2306.2816    699.52593   -83.773158    1513.1909   -6330.5721 
 2402000    86.103361   -6781.8107   -6560.3151   -6781.8107            0    1050.3879    23.317789    21.399774    21.600879    10778.739    125.00702    1257.0404    1769.1162    -23.36522    767.29517    112.85413   -6395.1974 
 2403000    91.528345   -6774.8939   -6539.4428   -6774.8939            0    1085.8581    23.347235    21.342404    21.671394    10798.555    1220.9097    1379.4431    657.22167   -779.97603    118.84053   -362.75314   -6368.4356 
 2404000    90.048197   -6784.6538   -6553.0103   -6784.6538            0    1285.5018    23.197009    21.473786    21.648162    10783.547     1597.125      219.114    2040.2663    786.43843   -115.93822    666.53949   -6350.8434 
 2405000    86.071773   -6784.4381   -6563.0237   -6784.4381            0      1950.25    23.326354    21.182258    21.762854    10753.132    1549.4069     2833.784    1467.5592    557.18292    -799.7165   -368.02035   -6257.1788 
 2406000    89.695643   -6803.0837   -6572.3472   -6803.0837            0    1622.1597    23.115795    21.450377    21.681879    10750.798    2197.0836    1364.7844    1304.6112    581.79856   -250.66724   -896.46124   -6318.0098 
 2407000    88.596664   -6787.2924   -6559.3829   -6787.2924            0     1457.395    23.275253    21.340697    21.697119    10777.178    1287.3789    1393.9995    1690.8067   -366.61351    347.51046   -171.72653   -6330.3181 
 2408000    88.174792   -6787.5893    -6560.765   -6787.5893            0    2460.2494    23.222268    21.309716    21.680013     10728.57    2345.9197    3045.4997    1989.3289    32.807372     7.564947   -175.29327   -6175.8216 
 2409000    91.364598   -6785.5073   -6550.4775   -6785.5073            0    1339.5064    23.155255     21.51433    21.618937    10769.901    1760.2298    549.23811    1709.0513   -23.436455   -20.973834   -529.01963   -6340.0839 
 2410000    89.017196   -6784.7442   -6555.7529   -6784.7442            0    1465.7769    23.442968    21.271242    21.619597    10780.851    590.51126    1980.1883    1826.6312     259.8958   -509.35083   -3.3229413   -6325.2922 
 2411000    83.959263   -6780.2851    -6564.305   -6780.2851            0    978.33434    23.148132    21.555523     21.61676    10786.116    1908.0149   -417.12636    1444.1145    373.53452   -625.60222   -602.74955   -6410.4086 
 2412000    91.727219   -6786.6922   -6550.7295   -6786.6922            0     1361.276    23.398943    21.268573    21.678675    10788.656    559.35326    2255.7719    1268.7028    98.273386   -563.11937   -565.48781   -6336.5443 
 2413000    92.954258   -6792.5456   -6553.4265   -6792.5456            0     1448.022    23.195964    21.408898    21.693518    10773.002    1397.6861    1590.8191    1355.5606   -272.28551   -715.34735   -205.43822   -6325.9231 
 2414000    86.699702   -6782.5959   -6559.5662   -6782.5959            0    2085.2714    23.152233     21.36728     21.75225    10760.843    2385.2376    2587.3468    1283.2297   -282.78529    448.42205   -571.47365   -6232.3124 
 2415000       90.988   -6785.7665   -6551.7055   -6785.7665            0    1268.4304    23.353266    21.281083    21.710885    10789.936    1771.5375    1673.0066    360.74711   -1096.0776    4.4217006    -21.59478   -6352.1051 
 2416000    90.455508   -6774.9943    -6542.303   -6774.9943            0    1807.8158    23.219197    21.431988    21.619807    10758.741    1516.3789    1932.2201    1974.8483    533.67173   -267.31859    -145.8075   -6258.6473 
 2417000    94.232222   -6795.9485   -6553.5418   -6795.9485            0    2139.7933    23.353073    21.259166    21.609529    10728.415    1489.2889    2565.9859    2364.1049   -440.19214    273.18874   -240.54132   -6218.7435 
 2418000    92.493635   -6781.1775   -6543.2433   -6781.1775            0     677.6029    23.184401    21.474241    21.720375    10813.867    804.38088    1023.8121    204.61573    1.3452004    219.23585   -166.52222   -6436.3791 
 2419000    95.354326    -6779.241   -6533.9478    -6779.241            0    1282.1033    23.238629    21.320343    21.764792    10783.487    1342.4992    1214.6594    1289.1513    1029.3156   -360.49479    449.38255   -6332.3165 
 2420000    89.127338   -6784.7281   -6555.4535   -6784.7281            0    1663.0379    23.172328    21.335805    21.792395    10774.166    1850.2202    2011.1077    1127.7859   -413.87448    36.670171    -433.3337   -6294.1401 
 2421000    88.555355   -6779.9088   -6552.1055   -6779.9088            0     1270.002    23.186159    21.441892    21.682429     10779.53    1726.7505    1441.3971    641.85842     161.1344    79.726754    -566.1234   -6352.4505 
 2422000    95.288354   -6795.3305    -6550.207   -6795.3305            0     1837.164    23.333852    21.364287     21.55118    10743.502    1163.2544    1955.8268    2392.4108    107.67176    -87.35617    238.18717   -6262.3547 
 2423000     88.71466   -6785.9792   -6557.7662   -6785.9792            0    1680.9928    23.290639    21.429706    21.543515    10752.617    418.19674    1740.1096     2884.672    549.30422    116.36951    992.58927   -6294.1598 
 2424000    91.777292   -6798.3551   -6562.2637   -6798.3551            0    1295.1599    23.270796    21.330011    21.705705    10773.981    1653.3618    1496.0748    736.04319   -438.45745     84.66794   -10.558432   -6358.7585 
 2425000    88.486573   -6776.9898   -6549.3635   -6776.9898            0    1844.2259    23.118346    21.411576    21.746441    10764.493    2175.9801    1683.1102    1673.5873     71.02763    624.56591   -498.70931   -6259.8401 
 2426000    88.240676   -6786.0486   -6559.0548   -6786.0486            0    1246.3176    23.267465    21.263464    21.793702    10782.366     1805.016    1402.0572    531.87951   -348.41914   -284.61672    467.83587   -6363.0717 
 2427000    93.328607   -6777.1926   -6537.1104   -6777.1926            0    1086.0831    23.105048    21.470235    21.774858    10801.871    1722.6252    444.35977    1091.2642    25.521075    66.197464    347.16388   -6366.0152 
 2428000    91.207562    -6781.434   -6546.8081    -6781.434            0    1090.0126    23.234401    21.444199    21.668022    10795.943     1235.582    358.22223    1676.2335   -262.11904    420.90469     378.1396    -6375.188 
 2429000     90.62348   -6784.2982   -6551.1749   -6784.2982            0    1548.1669    23.333436    21.315371    21.658634    10772.157    839.55381     2108.845     1696.102   -162.47219    185.08438    364.43116   -6307.9565 
 2430000    89.343997   -6774.2232   -6544.3912   -6774.2232            0    2307.4716     23.21482     21.49996    21.534358    10748.179    1907.0631    2364.6599    2650.6918    401.89274    427.40608    254.21526   -6182.6923 
 2431000    89.280295   -6785.2139   -6555.5458   -6785.2139            0    1406.0925    23.308127     21.29044    21.707014    10771.895    833.98514    2037.5733     1346.719     679.2306   -286.48938    -544.9584   -6334.6528 
 2432000    90.555692   -6778.4547   -6545.5057   -6778.4547            0    1502.1316    23.133337    21.447412    21.729273    10780.983    2257.3193     238.5212    2010.5544    23.456661    -92.78168     538.8787   -6309.3261 
 2433000    90.898194   -6794.1069   -6560.2768   -6794.1069            0    1704.5792    23.197568    21.360413    21.716279    10760.625    2133.5554     1733.667    1246.5154    -775.1495   -203.08256    -513.9959   -6292.7726 
 2434000    89.277656   -6789.3964    -6559.735   -6789.3964            0    992.06298     23.30185    21.370599    21.656071    10784.171    801.51392    1202.7679    971.90714    313.50952    189.32657    349.07652   -6403.7073 
 2435000    94.659547   -6787.3358   -6543.8299   -6787.3358            0    2211.2512    23.222692    21.377808    21.606972    10726.787     2902.061    1695.1927    2036.5001    489.29567   -716.75699    426.90263   -6197.9036 
 2436000    91.143913   -6776.7966   -6542.3344   -6776.7966            0    1956.2491     23.28641    21.314885    21.668518    10755.107     1376.011    2050.7079    2442.0284   -709.86204    678.13412    124.36207   -6235.4924 
 2437000    89.263025   -6795.3516   -6565.7279   -6795.3516            0    1360.6088    23.214644    21.432011    21.671156    10782.191    2342.4132    250.59904    1488.8141   -371.89011   -223.82735    757.10196    -6351.776 
 2438000    89.928772   -6773.3471   -6542.0108   -6773.3471            0    1277.3981    23.284292    21.363878    21.711024    10799.992    1542.2229     1047.072    1242.8993   -594.80091   -247.02321     231.0557   -6340.8119 
 2439000    85.596525   -6786.5261   -6566.3343   -6786.5261            0    1308.4344    23.196671    21.427049    21.653393     10762.52     1754.328    822.30444    1348.6709   -115.02556   -774.03932   -387.56605    -6360.962 
 2440000     96.06532   -6777.7895   -6530.6673   -6777.7895            0    2085.3006    23.238942    21.402135    21.635457    10760.675    1921.0075    2133.0125    2201.8819    512.30989   -253.43186   -192.95952    -6203.414 
 2441000    94.020645   -6784.7431   -6542.8808   -6784.7431            0     1690.542    23.292767    21.318045    21.714453    10782.447    1708.2017    1624.1027    1739.3218   -463.12948   -248.29093   -315.72339   -6277.0415 
 2442000    91.885213   -6782.2387   -6545.8695   -6782.2387            0    2608.1829    23.139805    21.451438    21.606015    10724.839    3372.5556     2297.149    2154.8441     528.7308    90.976552    -123.9643   -6137.9216 
 2443000    91.377292   -6792.7872   -6557.7246   -6792.7872            0    1950.6059    23.317889     21.34419    21.594703    10747.715    1291.9218     1736.605    2823.2909   -185.72688    390.55656   -222.37826   -6251.9781 
 2444000    89.863635   -6783.6524   -6552.4837   -6783.6524            0    1552.6004    23.238386    21.401743    21.652732    10768.812    1564.6404    1532.3431    1560.8177    76.035513    257.84904   -15.259756   -6308.6446 
 2445000    94.319463   -6789.6262   -6546.9951   -6789.6262            0    1524.9973    23.226031    21.360006    21.688875    10760.028    1048.6018    1110.6689    2415.7211   -68.076507    391.64538    768.42785   -6307.6865 
 2446000    86.654503    -6781.233   -6558.3196    -6781.233            0    1912.1429    23.245029    21.315571    21.733969     10768.77    2518.4199    1958.7637     1259.245    578.78312    57.892683    39.684905   -6258.0148 
 2447000    90.862376   -6783.4961   -6549.7582   -6783.4961            0    911.22023    23.185222    21.398916    21.752506    10792.258    1852.3186    586.58919    294.75286    200.74197    70.464828      450.358   -6406.3376 
 2448000    90.957904   -6779.1348   -6545.1511   -6779.1348            0     1790.023    23.217635    21.336519    21.709373    10754.465    1330.8802    2172.1931    1866.9956   -330.88369    -485.5836    600.65442   -6264.3988 
 2449000      92.9073   -6782.2621   -6543.2637   -6782.2621            0    2078.9832     23.23218    21.315759    21.686364    10739.338    2287.3504    2196.9765    1752.6226    49.378345   -337.96702    494.89504   -6217.6487 
 2450000    92.055884   -6792.9169   -6556.1087   -6792.9169            0    1899.8261    23.188335    21.419676     21.63546    10746.044    1568.7777    1471.6347    2659.0659    1173.5964    204.05319    1058.4933   -6258.3679 
 2451000    91.959819   -6787.8001    -6551.239   -6787.8001            0    1703.9687     23.34322    21.294364    21.635778    10754.692    1213.6226    1794.1848    2104.0988    342.05503   -245.62575    498.71233   -6283.9781 
 2452000    92.657041   -6793.3962   -6555.0416   -6793.3962            0    1824.5639    23.149085    21.380901    21.703452    10742.086    2163.5637    1670.1105    1640.0174    2.3274198    330.57498    32.380266   -6269.2012 
 2453000    87.190623   -6795.3661   -6571.0736   -6795.3661            0    1429.0406    23.250137    21.268063    21.775876    10767.852    1351.8125    1818.5224     1116.787     219.9905    369.26039    466.23674   -6346.6598 
 2454000    90.497124   -6790.2004   -6557.4021   -6790.2004            0    1556.5314    23.183657    21.327701     21.77259    10765.547     1996.615    958.93346    1714.0458   -5.6484688    276.25302     574.1179   -6313.0197 
 2455000    90.154892   -6791.3014   -6559.3835   -6791.3014            0    1513.8195     23.23387    21.353832    21.709067    10770.566    1908.5176    1755.0816    877.85934    486.81117   -67.574145    196.99329   -6321.5962 
 2456000    87.653452    -6790.586   -6565.1029    -6790.586            0    2354.6352    23.248846    21.340927    21.616708    10725.172    2903.9611    2213.5844      1946.36    170.44367   -383.26536    386.87906   -6196.8011 
 2457000    90.292186   -6795.0877   -6562.8166   -6795.0877            0    1529.2653    23.178036    21.408287    21.666036    10750.731     1527.381    1185.7484    1874.6665   -277.81242    210.60798    599.30194   -6323.0455 
 2458000    87.048905   -6775.1671   -6551.2391   -6775.1671            0    970.35735    23.288235    21.357474    21.702433     10794.31    689.84619    571.49726    1649.7286   -78.258435   -478.13317    1273.8427   -6398.4816 
 2459000    92.177677   -6783.2996   -6546.1781   -6783.2996            0    1092.5313    23.212017    21.436869      21.6954    10795.479    1067.4572    1121.7286    1088.4083   -139.07832    218.82997    145.97864   -6374.1689 
 2460000    89.084736   -6784.6831   -6555.5181   -6784.6831            0    1315.6279    23.247079     21.28086    21.807603     10788.61    1691.1424    1392.2018    863.53946    772.79987    282.54759    237.49354   -6348.5161 
 2461000    93.326658   -6786.1191    -6546.042   -6786.1191            0    2296.1436    23.169078    21.349446     21.72405    10745.735    2647.0639    2324.9105    1916.4563    847.25802    93.357398   -322.24654   -6186.2006 
 2462000    87.487486   -6784.3021   -6559.2458   -6784.3021            0    1585.7369    23.253377    21.334847    21.700087     10765.57    1614.8027    1699.5646    1442.8435    1189.5552   -418.28684   -229.79412   -6310.2775 
 2463000    88.210957   -6783.4752   -6556.5579   -6783.4752            0    1100.0206    23.305904    21.321601    21.733753    10799.918    383.96283      1615.07     1301.029    587.12116    -3.062481   -66.362837   -6383.2983 
 2464000     92.55534   -6791.8204   -6553.7274   -6791.8204            0    1483.7244    23.120283    21.487342    21.698681    10779.762    1511.0017     1329.576    1610.5954    646.14298   -46.815565    131.62266   -6320.4685 
 2465000    85.874636   -6787.1692   -6566.2619   -6787.1692            0    1137.7643    23.329769    21.279233     21.72678    10786.034    812.53692    1347.7541     1253.002   -552.72977   -38.163302    505.43698   -6387.2879 
 2466000     89.83795   -6784.8474   -6553.7447   -6784.8474            0    1688.1909    23.176758    21.442886    21.664501     10766.75     1707.904    1583.9309    1772.7378   -531.82464   -46.335586    703.64359   -6288.6616 
 2467000    90.333917   -6786.4221   -6554.0436   -6786.4221            0    1665.6046    23.282867    21.354339    21.635643     10757.03    2177.9362    1309.6022    1509.2755   -494.31965    82.099693   -175.19034   -6292.7431 
 2468000    90.765947   -6777.8359    -6544.346   -6777.8359            0    2152.1477    23.290163    21.318767    21.646326    10747.781      1555.78    2298.3026    2602.3604    607.35919    507.71794    693.74217   -6207.0069 
 2469000     89.11549   -6785.6378   -6556.3936   -6785.6378            0    2384.8661    23.161358    21.445949    21.619138      10738.6    2795.8156     2117.831    2240.9517   -110.09662   -91.192008   -917.34596   -6182.8962 
 2470000    86.665804   -6789.9059   -6566.9634   -6789.9059            0    1615.4734    23.404292    21.190507    21.718219    10771.125    882.71586    2239.6309    1724.0734    312.60236    56.554101   -218.81023   -6313.1954 
 2471000    88.959341   -6786.9685    -6558.126   -6786.9685            0    1281.1545    23.084417    21.570533    21.691876    10801.322    1703.3478     894.3062    1245.8093    85.240436   -163.43072   -410.67191   -6356.3106 
 2472000    89.279372   -6790.6812   -6561.0155   -6790.6812            0    1833.8441     23.33267    21.251643    21.703225    10761.708    851.12912    2206.5589    2443.8444    411.19597        345.3    637.23154   -6273.1965 
 2473000    88.767054   -6786.8732   -6558.5254   -6786.8732            0    1887.9275    23.129602    21.435144    21.710742    10763.889    2121.6856    946.06809    2596.0289    194.46191   -110.11315    473.21361    -6262.158 
 2474000    88.758526   -6769.4531   -6541.1272   -6769.4531            0    1247.5791    23.222423    21.395891    21.741192    10802.425    2056.4159     975.0588    711.26272   -535.57709   -261.45856    276.56481   -6344.5807 
 2475000    88.805052   -6787.4912   -6559.0456   -6787.4912            0    1623.0564    23.291502    21.293945    21.703293    10764.138    1468.6817    2124.0602    1276.4272   -224.40539     6.255376    492.30505   -6304.2519 
 2476000    87.019208   -6776.5182   -6552.6665   -6776.5182            0    1991.5543    23.203585    21.420837    21.598002    10735.075    2293.2209    2216.2028    1465.2392    245.81093    69.341713   -613.71245   -6240.8687 
 2477000    95.870872   -6780.2233   -6533.6013   -6780.2233            0    1299.1527    23.367857     21.24123     21.72934    10785.619     779.7531     2178.573    939.13194     415.6924    263.87937    294.02269   -6329.2482 
 2478000    95.263007   -6781.8013    -6536.743   -6781.8013            0    1399.9044    23.182026    21.459235    21.708379    10799.235    980.97426    2136.8407    1081.8984    875.13745    243.87962   -258.18775    -6316.264 
 2479000    90.543771   -6779.5938   -6546.6755   -6779.5938            0    2094.9671    23.228647    21.280861    21.740362    10746.818    1785.4995    2693.4736    1805.9283    250.58991   -32.917346   -667.12346   -6218.3286 
 2480000    89.619013   -6770.9669   -6540.4274   -6770.9669            0    1307.7757    23.205265     21.42924    21.733241    10807.315    1553.4301    1139.4024    1230.4947   -303.01502   -854.45291    182.26606   -6334.3042 
 2481000    93.888582   -6783.0107    -6541.488   -6783.0107            0    1168.3839    23.264569    21.423795    21.661293    10796.321     599.6493    1415.3688    1490.1335   -730.38078    195.61489    306.68203   -6357.5222 
 2482000     93.98928   -6789.1189   -6547.3372   -6789.1189            0    1777.5228     23.32199    21.343688    21.613112    10758.516    1881.2582    1890.7677    1560.5425   -642.35048   -829.10431    -344.4577   -6268.4405 
 2483000    91.744501    -6792.879   -6556.8718    -6792.879            0    2457.9996    23.187955    21.414075    21.603701    10727.288    2640.4067    2021.3109    2712.2812    134.94941    49.535116    405.76251   -6172.3264 
 2484000    88.930767   -6780.4021   -6551.6332   -6780.4021            0    2381.9897    23.303544    21.310976    21.661214     10757.42    1929.8611    2543.0316    2673.0764    -27.12354   -164.15622   -537.95667   -6177.9325 
 2485000    91.827519   -6791.9612   -6555.7405   -6791.9612            0    1617.9869    23.177578    21.370313    21.763423    10779.687    2249.5626    1503.6145    1100.7835    513.59595   -653.32302   -303.09465   -6301.3757 
 2486000    85.162478   -6775.5881   -6556.5128   -6775.5881            0    1814.4394    23.193685    21.365086    21.741959    10773.904    2325.6682    1842.4597    1275.1903    896.27782   -929.40093   -512.45337   -6271.4166 
 2487000    87.494396   -6783.4116   -6558.3376   -6783.4116            0    1046.7885    23.284687    21.348324    21.735233    10804.346    654.73569    1668.1853    817.44458    374.00706    479.84594   -79.328962   -6393.3948 
 2488000    91.302673   -6775.0684   -6540.1979   -6775.0684            0    1299.5548    23.267964     21.44435    21.633459    10794.368    1305.3288    650.35559    1942.9801   -684.00678    44.871721    361.98539   -6335.6157 
 2489000    89.085974   -6784.1473    -6554.979   -6784.1473            0    1352.8107    23.305559    21.413073    21.586068     10772.39    1188.7153     1051.175    1818.5419   -655.41833    105.63036    486.43751   -6342.4467 
 2490000    93.493851   -6787.0455   -6546.5383   -6787.0455            0    1940.6806    23.225017    21.407732    21.629808    10754.232    2818.9908    1427.6208    1575.4301    -1041.773   -985.28289   -551.74927    -6242.163 
 2491000    89.314284   -6787.1356     -6557.38   -6787.1356            0    1153.7935    23.233382    21.367489    21.754124    10799.596    1463.6234    1385.3864    612.37086   -265.88428   -144.20147   -414.86698   -6375.6563 
 2492000    92.271518    -6795.659   -6558.2962    -6795.659            0    1241.1646    23.228638    21.351701    21.769494    10797.036    1292.3623    1762.5332    668.59823    366.37032   -130.62982   -96.394813   -6362.8578 
 2493000     89.48476   -6777.2623   -6547.0683   -6777.2623            0    1796.2596    23.184332    21.403654    21.675409    10755.976    3098.0134    1045.9059    1244.8595   -790.11591   -511.41072    332.02309   -6265.2982 
 2494000    89.830661   -6783.0812   -6551.9973   -6783.0812            0    2147.6838    23.405462    21.331623    21.499103    10733.997    1274.5199    2019.2642    3149.2673    451.12468   -126.25068    395.83968   -6215.7896 
 2495000    95.273059   -6781.3896   -6536.3055   -6781.3896            0    1306.5233    23.279482    21.458877    21.572628     10776.64    1295.2314    540.63535    2083.7033   -377.93922   -11.075422     421.1565   -6330.9641 
 2496000    88.647072   -6786.3429   -6558.3037   -6786.3429            0    1720.3851    23.280886    21.321764    21.677696    10760.582    1427.4317    1173.2007     2560.523   -167.38542   -71.530833    809.89158   -6288.3201 
 2497000    90.546298   -6782.3846   -6549.4598   -6782.3846            0    2619.6694    23.181262    21.311599    21.731683    10736.098    2485.0102    2940.1955    2433.8025     321.7499   -210.55989   -334.99052   -6139.2851 
 2498000    91.996396     -6784.47   -6547.8148     -6784.47            0    1778.3479    23.136553    21.413464     21.73904    10770.254      2716.68    1069.3202    1549.0435   -171.02477   -553.14621   -6.9201813   -6268.4842 
 2499000    92.250844   -6797.9878   -6560.6781   -6797.9878            0    1711.3603     23.31504    21.286256    21.679152    10759.145    1120.3404     2311.012    1702.7285    428.64148   -179.59414   -571.65264   -6292.1467 
 2500000    94.665616   -6777.6593   -6534.1378   -6777.6593            0    1530.1541    23.208991    21.496524    21.582306    10767.685    1886.7377    242.00325    2461.7213    671.43703    719.41111   -95.084719    -6293.849 
Loop time of 525.989 on 64 procs for 250000 steps with 1296 atoms

Performance: 82.131 ns/day, 0.292 hours/ns, 475.295 timesteps/s
99.1% CPU use with 64 MPI tasks x 1 OpenMP threads

MPI task timing breakdown:
Section |  min time  |  avg time  |  max time  |%varavg| %total
---------------------------------------------------------------
Pair    | 29.138     | 40.522     | 51.993     | 115.5 |  7.70
Bond    | 0.28072    | 0.28844    | 0.30033    |   0.7 |  0.05
Kspace  | 265.76     | 277.83     | 289.32     |  44.4 | 52.82
Neigh   | 1.1416     | 1.1556     | 1.1683     |   0.5 |  0.22
Comm    | 90.188     | 91.264     | 92.8       |   7.4 | 17.35
Output  | 0.63236    | 0.63359    | 0.63554    |   0.0 |  0.12
Modify  | 101.95     | 103.45     | 105.82     |   7.4 | 19.67
Other   |            | 10.84      |            |       |  2.06

Nlocal:        20.2500 ave          26 max          13 min
Histogram: 2 5 5 12 3 6 10 5 9 7
Nghost:        2603.34 ave        2627 max        2581 min
Histogram: 3 5 2 14 6 13 14 2 4 1
Neighs:        6482.67 ave        8378 max        4108 min
Histogram: 2 5 5 12 3 6 8 7 9 7

Total # of neighbors = 414891
Ave neighs/atom = 320.13194
Ave special neighs/atom = 2.0000000
Neighbor list builds = 2131
Dangerous builds = 0

unfix		3
unfix		2
unfix		1

write_data	data.final.${pid}
write_data	data.final.0
System init for write_data ...
PPPM initialization ...
  extracting TIP4P info from pair style
  using 12-bit tables for long-range coulomb (../kspace.cpp:340)
  G vector (1/distance) = 0.36782644
  grid = 30 40 32
  stencil order = 5
  estimated absolute RMS force accuracy = 0.0044153258
  estimated relative force accuracy = 1.3296622e-05
  using double precision FFTW3
  3d grid and FFT values/proc = 5168 640
Last active /omp style is kspace_style pppm/tip4p/omp
WARNING: Not all mixed pair coeffs generated from mixing. Use write_data with 'pair ij' option to store all pair coeffs. (../write_data.cpp:312)

write_restart   restart.lmp.${pid}
write_restart   restart.lmp.0
System init for write_restart ...
PPPM initialization ...
  extracting TIP4P info from pair style
  using 12-bit tables for long-range coulomb (../kspace.cpp:340)
  G vector (1/distance) = 0.36782644
  grid = 30 40 32
  stencil order = 5
  estimated absolute RMS force accuracy = 0.0044153258
  estimated relative force accuracy = 1.3296622e-05
  using double precision FFTW3
  3d grid and FFT values/proc = 5168 640
Last active /omp style is kspace_style pppm/tip4p/omp
Total wall time: 0:08:46
