LAMMPS (30 Jul 2021)
  using 1 OpenMP thread(s) per MPI task
package omp 0
using multi-threaded neighbor list subroutines
echo both

include		in.partitions
variable        pid world 0
include		in.temp
variable        temperature equal 252.54
variable	tempDamp equal 100.0
include		in.pressure
variable        pressure equal 10750.0
variable        pressureDamp equal 1000.0 # This is 1 ps
include		in.seed
variable        seed world 745823

units		real
atom_style	full
read_restart	restart.lmp.${pid}
read_restart	restart.lmp.0
Reading restart file ...
  restart file = 30 Jul 2021, LAMMPS = 30 Jul 2021
  restoring atom style full from restart
  orthogonal box = (0.69852854 1.9143056 0.85220319) to (17.509044 21.714872 21.360993)
  4 by 4 by 4 MPI processor grid
  restoring pair style lj/cut/tip4p/long/omp from restart
  restoring bond style harmonic/omp from restart
  restoring angle style harmonic/omp from restart
  864 atoms
  576 bonds
  288 angles
Finding 1-2 1-3 1-4 neighbors ...
  special bond factors lj:    0        0        0       
  special bond factors coul:  0        0        0       
     2 = max # of 1-2 neighbors
     1 = max # of 1-3 neighbors
     1 = max # of 1-4 neighbors
     2 = max # of special neighbors
  special bonds CPU = 1.598 seconds
  read_restart CPU = 1.863 seconds
include 	in.setup
variable	out_freq equal 1000
variable	out_freq2 equal 10000
variable	out_freq3 equal 1000

timestep	2.0

neigh_modify    delay 7 every 1

include		in.tip4p
# This is TIP4P/Ice

# create groups ###
group ox type 2
288 atoms in group ox
group hy type 1
576 atoms in group hy

# set charges - beside manually ###
set group ox charge -1.1794
Setting atom values ...
  288 settings made for charge
set group hy charge 0.5897
Setting atom values ...
  576 settings made for charge

# ### TIP3P Potential Parameters ###
pair_style lj/cut/tip4p/long/omp 2 1 1 1 0.1577 8.5
pair_coeff 1 1*2 0.000 0.000
pair_coeff 2 2 0.21084 3.1668
bond_style  harmonic
bond_coeff  1 450 0.9572
angle_style harmonic
angle_coeff 1 55 104.52
kspace_style pppm/tip4p/omp 1.0e-5
pair_modify tail yes

thermo          ${out_freq}
thermo          1000
thermo_style    custom step temp pe etotal epair emol press lx ly lz vol pxx pyy pzz pxy pxz pyz enthalpy

restart 	${out_freq3} restart.lmp.${pid} restart2.lmp.${pid}
restart 	1000 restart.lmp.${pid} restart2.lmp.${pid}
restart 	1000 restart.lmp.0 restart2.lmp.${pid}
restart 	1000 restart.lmp.0 restart2.lmp.0


include         in.dump
dump            myDump all atom ${out_freq2} dump.water.${pid}
dump            myDump all atom 10000 dump.water.${pid}
dump            myDump all atom 10000 dump.water.0
dump            myDump2 all dcd ${out_freq2} dump.dcd
dump            myDump2 all dcd 10000 dump.dcd
dump_modify     myDump append yes
dump_modify     myDump2 append yes


variable natoms 	equal  "count(all)"                        # NUMBER ATOMS
variable H      	equal  "enthalpy/v_natoms"                 # ENTHALPY-per-atom
variable Vol      	equal  "vol/v_natoms"                 # volume-per-atom
fix AVG all 		ave/time ${out_freq} 1 ${out_freq} v_Vol v_H file vol_enthalpy.dat
fix AVG all 		ave/time 1000 1 ${out_freq} v_Vol v_H file vol_enthalpy.dat
fix AVG all 		ave/time 1000 1 1000 v_Vol v_H file vol_enthalpy.dat


timer           timeout 23:50:00 every 1000
New timer settings: style=normal  mode=nosync  timeout=23:50:00

fix 		1 all shake 1e-6 200 0 b 1 a 1
       0 = # of size 2 clusters
       0 = # of size 3 clusters
       0 = # of size 4 clusters
     288 = # of frozen angles
  find clusters CPU = 1.353 seconds
fix             2 all nph iso ${pressure} ${pressure} ${pressureDamp}
fix             2 all nph iso 10750 ${pressure} ${pressureDamp}
fix             2 all nph iso 10750 10750 ${pressureDamp}
fix             2 all nph iso 10750 10750 1000
fix             3 all temp/csvr ${temperature} ${temperature} ${tempDamp} ${seed}
fix             3 all temp/csvr 252.54 ${temperature} ${tempDamp} ${seed}
fix             3 all temp/csvr 252.54 252.54 ${tempDamp} ${seed}
fix             3 all temp/csvr 252.54 252.54 100 ${seed}
fix             3 all temp/csvr 252.54 252.54 100 745823

run             250000
PPPM initialization ...
  extracting TIP4P info from pair style
  using 12-bit tables for long-range coulomb (../kspace.cpp:340)
  G vector (1/distance) = 0.375063
  grid = 24 24 24
  stencil order = 5
  estimated absolute RMS force accuracy = 0.0030707614
  estimated relative force accuracy = 9.2475067e-06
  using double precision FFTW3
  3d grid and FFT values/proc = 2535 216
Last active /omp style is kspace_style pppm/tip4p/omp
Neighbor list info ...
  update every 1 steps, delay 7 steps, check yes
  max neighbors/atom: 2000, page size: 100000
  master list distance cutoff = 10.8154
  ghost atom cutoff = 10.8154
  binsize = 5.4077, bins = 4 4 4
  1 neighbor lists, perpetual/occasional/extra = 1 0 0
  (1) pair lj/cut/tip4p/long/omp, perpetual
      attributes: half, newton on, omp
      pair build: half/bin/newton/omp
      stencil: half/bin/3d
      bin: standard
Per MPI rank memory allocation (min/avg/max) = 9.238 | 9.241 | 9.243 Mbytes
Step Temp PotEng TotEng E_pair E_mol Press Lx Ly Lz Volume Pxx Pyy Pzz Pxy Pxz Pyz Enthalpy 
27250000    257.53566   -3904.7697   -3463.3624   -3904.7697            0    10931.944    16.810515    19.800567    20.508789     6826.509     11568.59    10924.973    10302.269   -1103.3296     1477.747    1185.1164   -2375.0039 
27251000    258.82375   -3929.8479   -3486.2328   -3929.8479            0    12386.929    16.756712    19.737193    20.443149    6761.1723    11317.026    12114.672     13729.09   -825.63603   -359.90506     162.9548   -2264.8226 
27252000    245.56011   -3906.5356    -3485.654   -3906.5356            0    9247.6215    16.828213    19.821412     20.53038    6848.0918    10452.033    7913.2722    9377.5595    1640.9083   -1344.2289    1970.5945   -2562.0719 
27253000    256.80365   -3947.0117    -3506.859   -3947.0117            0    10223.317    16.829174    19.822544    20.531553    6849.2649    9684.3538    9291.0788    11694.519   -617.49494    158.87485    2696.5409   -2485.6569 
27254000     245.3861   -3958.6164    -3538.033   -3958.6164            0    9170.2103    16.794887    19.782159    20.489723    6807.4879    9997.5648    7976.1712    9536.8948   -204.23494   -659.09745    1246.7085   -2627.6125 
27255000    244.72669   -3919.8049   -3500.3517   -3919.8049            0    10216.289    16.835815    19.830366    20.539655    6857.3771    9922.5442    9729.2345     10997.09    -978.5338   -947.48163   -712.73392   -2478.6429 
27256000    255.69089   -3933.7718   -3495.5264   -3933.7718            0     12248.18    16.836362    19.831011    20.540323    6858.0457    12178.083    11217.798    13348.658   -631.19278    851.65217    381.76203   -2270.4933 
27257000    244.98714   -3905.5495     -3485.65   -3905.5495            0    11917.422    16.769266     19.75198    20.458465    6776.3799    10947.824    11865.085    12939.357   -255.31742   -428.77722   -1824.9756   -2307.8923 
27258000     262.9036   -3923.1541   -3472.5463   -3923.1541            0    10683.226    16.821117    19.813054    20.521723    6839.4327    11794.062    11968.313    8287.3046     -1371.46    802.90762    959.83332    -2406.936 
27259000    264.64644   -3892.9109    -3439.316   -3892.9109            0    11892.138    16.816154    19.807208    20.515669     6833.381    10579.336    13288.709    11808.367    1423.3366   -941.47359   -745.57778   -2254.1711 
27260000    253.64871   -3910.7571   -3476.0119   -3910.7571            0     10603.44    16.847897    19.844597    20.554395     6872.151    11157.108     12006.99    8646.2219    1914.8602    -1637.783    507.87184   -2413.3004 
27261000    260.08356   -3915.8444   -3470.0701   -3915.8444            0    12045.644    16.737888    19.715022    20.420185    6738.4126    12389.197    13048.096     10699.64   -392.30651   -703.25815   -477.87194   -2286.3105 
27262000    262.83722   -3874.7742   -3424.2802   -3874.7742            0    9915.7785    16.860825    19.859825    20.570167    6887.9827    11717.478    8470.4496    9559.4075   -194.28922   -242.60712    442.45049   -2428.1989 
27263000    264.77364   -3869.7264   -3415.9134   -3869.7264            0    13486.879    16.745774     19.72431    20.429805    6747.9409    14545.662    13346.254    12568.722    66.884735    699.97324    -183.2318   -2088.6454 
27264000    248.46925   -3910.8806   -3485.0128   -3910.8806            0    11257.271     16.74294    19.720972    20.426348    6744.5157    11199.625    11544.144    11028.043    1836.6449    936.29179   -851.72135   -2377.7269 
27265000    257.07755   -3898.8671    -3458.245   -3898.8671            0     10604.67    16.779044    19.763497    20.470394      6788.24    10546.672    9741.7636    11525.576    1027.8227    368.01438    1848.2366   -2408.3878 
27266000    254.12131   -3918.8231   -3483.2679   -3918.8231            0    9713.9194    16.856798    19.855081    20.565254    6883.0484    9309.4473    9175.4325    10656.878    1990.4993    128.28712   -256.95707   -2508.1633 
27267000    255.57838   -3923.6151   -3485.5625   -3923.6151            0    11952.736     16.75357    19.733492    20.439316    6757.3694    12972.236    12656.093    10229.881   -733.54044   -1341.1801   -853.44793   -2307.6287 
27268000    245.17634   -3961.0481   -3540.8243   -3961.0481            0      9975.98    16.803602    19.792423    20.500355    6818.0901    9334.5973    9215.2345    11378.108     1459.364    1057.6238    96.647234   -2548.8642 
27269000    248.98516   -3921.0942   -3494.3422   -3921.0942            0    11587.844     16.78691    19.772762    20.479991    6797.7917    8454.1581    15032.128    11277.246   -1469.9408   -1291.5272   -56.863739    -2345.537 
27270000    248.91001   -3930.0859   -3503.4626   -3930.0859            0    7952.8421     16.84251    19.838252    20.547822    6865.5606    8333.7997    9231.2223    6293.5043    1181.0407   -448.09542   -840.65589   -2707.1672 
27271000    250.47883   -3938.7803   -3509.4681   -3938.7803            0    10067.593    16.790222    19.776664    20.484032    6801.8163    7838.8816    10905.198    11458.698   -94.381263    906.16891    824.10961    -2510.788 
27272000    258.82311   -3916.1441   -3472.5301   -3916.1441            0    10213.379    16.761357    19.742665    20.448817    6766.7968    9257.5664    10305.537    11077.032   -251.44761   -224.62033    -565.2901   -2464.6046 
27273000    254.22601   -3944.6651   -3508.9305   -3944.6651            0    10099.631    16.799283    19.787337    20.495086    6812.8348    10165.326    10300.418     9833.148   -361.58237   -1052.1132   -19.784848   -2505.4493 
27274000    259.34163   -3891.4884   -3446.9857   -3891.4884            0    10999.938    16.863452    19.862919    20.573372    6891.2031    11004.948    12069.159    9925.7066   -1379.3377    322.72723   -317.90027   -2341.4796 
27275000    252.42104   -3912.0107   -3479.3697   -3912.0107            0     12340.64    16.797235    19.784924    20.492587    6810.3425     10846.51    15858.184    10317.227    2486.1322    563.41972   -1.8654881   -2253.6744 
27276000    259.16149   -3892.5882   -3448.3942   -3892.5882            0    9055.2604    16.827558    19.820641    20.529582    6847.2928    9433.9854    8122.2091    9609.5868    891.82487    710.80596    738.60264   -2544.1292 
27277000    260.72984    -3910.653    -3463.771    -3910.653            0     10988.84    16.810549    19.800606     20.50883      6826.55    10449.563    10768.339     11748.62    165.93005   -1086.0945    2360.9156   -2369.7415 
27278000    249.13907   -3930.1055   -3503.0896   -3930.1055            0    10050.061    16.791469    19.778133    20.485553    6803.3322    10231.672    8081.0197    11837.492    335.80275     379.8382   -692.84479   -2505.9263 
27279000    229.99541   -3889.4607   -3495.2565   -3889.4607            0    11389.719    16.741898    19.719744    20.425076    6743.2559     11618.82    10919.656    11630.681   -320.60752    64.294946    1331.8011    -2375.152 
27280000    259.09476   -3873.5115   -3429.4319   -3873.5115            0    9470.4804    16.817772    19.809114    20.517643    6835.3535    10453.807    9516.8619    8440.7723    1554.0372   -372.17575   -1362.6014   -2485.3518 
27281000    250.13705   -3867.0653   -3438.3389   -3867.0653            0    10287.755    16.861203     19.86027    20.570628    6888.4462    11751.157    8274.9071    10837.199    1458.2494   -956.55762   -156.26726   -2404.8216 
27282000    248.40626   -3885.5994   -3459.8396   -3885.5994            0    10550.756    16.829648    19.823102    20.532131    6849.8442    9337.0974    10588.009    11727.162    537.82459   -1434.8449   -1506.8109   -2405.8407 
27283000    268.63776   -3907.9796   -3447.5437   -3907.9796            0    9467.8364    16.763482    19.745168    20.451409    6769.3707    10980.506    8739.9857    8683.0172   -960.55651     1057.302   -1034.5649   -2512.8379 
27284000    246.30163   -3927.0284   -3504.8758   -3927.0284            0    9702.2912    16.820429    19.812243    20.520884    6838.5931    10262.419    9961.5868    8882.8678   -1245.8558    216.58321    695.79261   -2537.2288 
27285000    233.65668   -3899.3806    -3498.901   -3899.3806            0     12386.06    16.796787    19.784397    20.492041    6809.7986    13214.771    10701.287    13242.122   -1061.4382   -857.64579     1582.787   -2268.7927 
27286000    238.91638    -3912.945   -3503.4505    -3912.945            0     9693.581    16.836178    19.830794    20.540098    6857.8211    11432.668    9205.1824    8442.8926   -801.26151   -877.82102    1176.6991   -2533.9539 
27287000    257.70599   -3896.9455   -3455.2462   -3896.9455            0    9262.4324    16.872327    19.873372    20.584199    6902.0883    9370.4178    8727.7047    9689.1745    99.598975   -250.47479   -979.22953   -2522.8909 
27288000    249.11337   -3894.3359   -3467.3641   -3894.3359            0    9641.1486    16.819327    19.810946     20.51954    6837.2498    10173.852    10231.555     8518.039   -1193.8378   -43.742249    762.38231   -2506.0039 
27289000    261.82257   -3915.0199    -3466.265   -3915.0199            0    11998.956    16.789778     19.77614     20.48349    6801.2764     13206.26    11225.604    11565.003    353.88059   -1724.4779    397.39634   -2276.0928 
27290000    251.34277     -3909.72   -3478.9271     -3909.72            0    12395.648    16.816537     19.80766    20.516136     6833.848    10924.114    11015.181    15247.648    1731.1227   -1424.4213   -1119.4468   -2243.5191 
27291000    237.74785   -3867.8308   -3460.3391   -3867.8308            0    9461.5546     16.80346    19.792256    20.500182    6817.9171    7779.2156    9979.1914    10626.257   -1376.3431   -1417.6324     719.7683   -2519.5547 
27292000    255.70692    -3877.226   -3438.9531    -3877.226            0    10304.763     16.76505    19.747014    20.453322    6771.2701    10558.507    9608.1226    10747.658   -586.87801    150.93928   -1625.4188   -2421.3369 
27293000    256.76394    -3867.008   -3426.9234    -3867.008            0    9690.8672    16.806982    19.796404    20.504478    6822.2049    8733.0398    9893.5985    10445.963    678.64395   -151.47907    46.974021   -2462.7319 
27294000    259.09832   -3872.3809   -3428.2953   -3872.3809            0    13141.943    16.734337    19.710839    20.415853    6734.1248    12538.541    13673.889    13213.399    1050.5585   -666.55092    426.11171   -2137.6211 
27295000     241.0006   -3913.6416   -3500.5748   -3913.6416            0    11966.472    16.773423    19.756876    20.463537    6781.4204    11992.259    10820.245    13086.911    362.22588   -1985.3253    1056.4118   -2317.0901 
27296000    254.26342   -3873.2503   -3437.4515   -3873.2503            0    10025.386    16.827066    19.820061    20.528981    6846.6915    10829.057    10167.991    9079.1099    1626.9373   -1302.1216   -111.04854   -2436.3969 
27297000    251.69948   -3912.1486   -3480.7443   -3912.1486            0    10497.382    16.768483    19.751058     20.45751    6775.4305    11056.715    9337.3406    11098.089    396.24889    155.41571    323.67671   -2443.4697 
27298000    266.47021   -3909.7955   -3453.0747   -3909.7955            0    11789.115    16.778771    19.763176    20.470062    6787.9094     11848.49    11839.984    11678.871   -492.40215   -1251.5121   -255.48911   -2286.0148 
27299000    256.66378   -3882.8773   -3442.9643   -3882.8773            0    9907.8457    16.842988    19.838815    20.548406    6866.1451    10488.946     9158.917    10075.674   -174.39966   -44.903044    1476.9427   -2450.8354 
27300000    258.04852   -3903.1548   -3460.8684   -3903.1548            0    12918.119    16.764066    19.745856    20.452122    6770.0785    12193.961    13691.926     12868.47    1309.6593   -710.63697    1327.7391   -2185.4024 
27301000    263.56248   -3888.4274   -3436.6904   -3888.4274            0    10522.924    16.800873     19.78921    20.497026    6814.7693    9399.0072     11110.47    11059.296   -1184.7834   -298.63325    258.54184   -2390.8546 
27302000     250.4188   -3901.4434   -3472.2341   -3901.4434            0    10450.337    16.834517    19.828837    20.538072    6855.7911    10144.058    10894.118    10312.835    68.043944   -1780.3518   -313.17756   -2427.3605 
27303000    253.04597    -3919.405   -3485.6928    -3919.405            0     10326.31    16.817283    19.808538    20.517046    6834.7576    10719.669    9415.7353    10843.527    -893.6133    716.54621    366.00326   -2456.3876 
27304000     258.8389   -3895.6399   -3451.9989   -3895.6399            0    11045.375    16.808656    19.798376    20.506521    6824.2437    10758.676    10789.961    11587.488    362.46431    20.634334    781.14399   -2352.7124 
27305000    254.08645    -3907.929   -3472.4335    -3907.929            0    12636.828    16.806864    19.796265    20.504334    6822.0612    12809.203     11043.87    14057.412    87.191369   -1108.6114    1740.7389   -2215.1606 
27306000    265.48651   -3910.4991   -3455.4643   -3910.4991            0    9764.2911    16.859874    19.858705    20.569007    6886.8173    10206.795    10553.706    8532.3732   -387.54115    242.32894    234.25521   -2474.7665 
27307000    254.34365   -3895.5348   -3459.5985   -3895.5348            0    10791.354    16.824441     19.81697    20.525779    6843.4885    9785.1429    11511.662    11077.258      620.892   -182.50755   -1069.8832   -2382.5646 
27308000    265.07646   -3920.5282   -3466.1963   -3920.5282            0     11780.76    16.813164    19.803687    20.512021    6829.7366    10515.625    13143.842    11682.813    1855.0998   -757.53531    1803.5867   -2292.7771 
27309000    244.70362   -3879.5349   -3460.1213   -3879.5349            0    10028.568    16.813604    19.804205    20.512558    6830.2728    10874.142    11149.793    8061.7703    1190.9737   -736.15694   -191.91555   -2461.1503 
27310000    247.83512   -3933.4083   -3508.6274   -3933.4083            0    11448.136    16.733338    19.709662    20.414633    6732.9184    10952.683    10181.779    13209.946    -729.7933   -234.97724   -906.92623   -2384.5039 
27311000    253.52162   -3916.4446   -3481.9172   -3916.4446            0    11851.918    16.781331    19.766191    20.473184    6791.0164    8908.9438    12784.382     13862.43   -1222.4912    1767.0439   -553.84145   -2308.1031 
27312000    257.02442   -3888.7724   -3448.2414   -3888.7724            0    12859.973     16.75606    19.736426    20.442354    6760.3833    13581.939    12386.456    12611.525    -1201.246    458.13497   -411.90787   -2180.3347 
27313000    267.64168   -3893.0721   -3434.3434   -3893.0721            0    9814.0334    16.820785    19.812663    20.521319    6839.0282    10875.447    9487.1102    9079.5426   -2325.9929    545.28718   -41.467463   -2455.4897 
27314000    267.36395   -3926.1377   -3467.8851   -3926.1377            0    9636.6517    16.786716    19.772534    20.479754    6797.5565    11277.723    8069.8593    9562.3729   -114.62916    1131.8255    265.90319   -2512.5519 
27315000    253.83113   -3953.0946   -3518.0368   -3953.0946            0    8998.1399     16.81653    19.807651    20.516128    6833.8394    8346.1678    9711.8753    8936.3765    171.29742    901.26416   -1363.4128   -2621.2413 
27316000    251.07441   -3885.4604   -3455.1275   -3885.4604            0    12515.768    16.749674    19.728903    20.434563    6752.6565    13407.509     10587.02    13552.773   -443.61618    517.93626   -471.84438   -2222.5676 
27317000     241.7661   -3923.9792   -3509.6004   -3923.9792            0    11068.952    16.719285    19.693109    20.397489    6715.9692    8253.2753    13178.695    11774.886   -735.38348   -237.28877   -10.476094   -2425.4461 
27318000    249.93604   -3918.2036   -3489.8218   -3918.2036            0    8875.5317    16.775331    19.759124    20.465864    6783.7349    9071.2518    8246.3136    9309.0298    1627.7412    665.53263    962.87291   -2611.7316 
27319000    245.17229   -3949.6748   -3529.4579   -3949.6748            0    9933.6438    16.783953    19.769279    20.476383    6794.2001     9941.401    10820.527    9039.0035    58.090349    347.40243    402.56563   -2545.1685 
27320000    245.96573   -3897.7044   -3476.1275   -3897.7044            0    10397.721    16.780867    19.765644    20.472618    6790.4532    9214.1707     11930.64    10048.353   -613.29837   -248.94866    829.88579   -2446.4225 
27321000    247.31502   -3910.5921   -3486.7026   -3910.5921            0    12888.756    16.767914    19.750388    20.456816    6774.7415    13712.932    12214.844    12738.493    1502.5631    721.50866    1380.1591   -2213.2593 
27322000    259.49604   -3869.6081   -3424.8407   -3869.6081            0    10129.035    16.812426    19.802817     20.51112    6828.8366    7961.0524    10865.915    11560.137    61.125569    1117.9728    874.67591   -2416.0742 
27323000    248.52509   -3943.1282   -3517.1647   -3943.1282            0    10495.931    16.722382    19.696757    20.401266    6719.7015    9589.9703     11008.95    10888.872    306.09327    102.31552    531.71633    -2488.564 
27324000    256.21419   -3925.4699   -3486.3275   -3925.4699            0    10114.409    16.760454    19.741601    20.447715    6765.7028    11287.397    10674.364    8381.4669    240.73511   -610.24158    1046.7302   -2488.3303 
27325000    249.87466   -3891.0397   -3462.7631   -3891.0397            0     10069.29    16.686747    19.654784    20.357793    6676.8354    10973.192    11329.711    7904.9684     1396.713    1095.3831   -211.16404    -2482.268 
27326000    242.96389   -3882.5196   -3466.0878   -3882.5196            0     12568.13    16.694502    19.663918    20.367253    6686.1481    13778.859    11595.074    12330.456    1182.7595    57.145671    819.87312   -2240.5618 
27327000    255.55641   -3921.6815   -3483.6665   -3921.6815            0    14247.365      16.6211     19.57746    20.277703    6598.3426    14771.528    14509.374    13461.195   -831.21353   -2774.5407    78.230654   -2112.6417 
27328000    260.84351   -3884.6605   -3437.5837   -3884.6605            0    11141.588    16.725708    19.700675    20.405325    6723.7125    11681.694    12309.382    9433.6882    496.63523    671.12204    336.62021   -2345.0568 
27329000    251.34097   -3923.9469   -3493.1571   -3923.9469            0    11084.083    16.729711     19.70539    20.410208     6728.541     10738.38    12334.958    10178.911   -125.04066   -453.17206   -273.23531   -2405.4886 
27330000    259.43877   -3903.9296   -3459.2604   -3903.9296            0    9838.4608    16.781028    19.765834    20.472815    6790.6485    9225.3815    10508.412    9781.5893   -697.41136   -1363.0994    510.52605    -2484.912 
27331000    257.58873   -3930.2527   -3488.7545   -3930.2527            0    11100.754    16.714273    19.687206    20.391374    6709.9309    11768.672    11586.487    9947.1023    954.13466   -327.53489    52.691248   -2402.4629 
27332000    249.51431   -3947.7236   -3520.0646   -3947.7236            0    9635.7032    16.806327    19.795633     20.50368    6821.4081    8610.8167    10238.738    10057.555   -209.12045    571.98834   -449.65571   -2561.4736 
27333000    234.30499   -3916.4173   -3514.8265   -3916.4173            0    11174.278    16.757245    19.737821      20.4438    6761.8178    12417.686    10168.143    10937.004    31.681377   -370.02248   -377.24625   -2412.8844 
27334000    273.99993   -3927.2676   -3457.6411   -3927.2676            0     9402.887    16.761323    19.742625    20.448775    6766.7557    9314.8253    10036.822    8857.0133   -1836.9176    137.15843    902.65647    -2529.706 
27335000    257.18039   -3940.0411   -3499.2427   -3940.0411            0    12096.406    16.737818    19.714939    20.420099    6738.3279    11484.841    11870.606     12933.77    1468.2041   -349.08723    220.05003   -2310.5095 
27336000     246.9793   -3915.8434   -3492.5294   -3915.8434            0    8523.6633     16.79252     19.77937    20.486835    6804.6092    9113.1041    7130.3018    9327.5841    692.17053     1051.322   -566.41726    -2646.656 
27337000    254.08735   -3950.4009   -3514.9039   -3950.4009            0    12158.515    16.728611    19.704094    20.408866    6727.2137    13411.549    12486.045    10577.952   -955.52208     139.7619   -1223.8449   -2322.0379 
27338000    258.78385   -3918.0883   -3474.5417   -3918.0883            0    10806.377    16.807766    19.797329    20.505436    6823.1605    11246.528    11545.374    9627.2287    279.37633    1512.7083    1511.2309   -2399.2121 
27339000    245.52032   -3936.8735     -3516.06   -3936.8735            0    12238.359    16.715782    19.688983    20.393215    6711.7482    11263.603    13327.138    12124.337   -1478.3349    336.07061    1351.6115   -2318.1209 
27340000    262.50605   -3939.0239   -3489.0975   -3939.0239            0    9311.9994    16.797596     19.78535    20.493028    6810.7823    8004.3813     11010.52    8921.0967   -362.00242   -656.66054    400.90295   -2564.1527 
27341000    240.10271   -3917.5739    -3506.046   -3917.5739            0    10768.809    16.746925    19.725665    20.431209    6749.3323     8829.115    13461.818    10015.494    705.77296   -829.46526   -340.07526   -2446.0497 
27342000    265.75804   -3929.9789   -3474.4787   -3929.9789            0    10303.753    16.773389    19.756836    20.463495    6781.3789    11194.425    11421.402    8295.4316   -797.76625    913.79578    621.58767   -2455.4432 
27343000     251.7918   -3947.8965    -3516.334   -3947.8965            0    10783.368    16.704475    19.675665     20.37942    6698.1376    10399.995    10407.003    11543.104    287.36558   -602.08381   -68.575032   -2462.9557 
27344000    244.45083   -3943.1238   -3524.1435   -3943.1238            0    10888.579    16.743123    19.721187    20.426571    6744.7362    11135.708     10544.24     10985.79    352.92113    202.68936    313.88312   -2453.0878 
27345000    243.59593   -3932.3666   -3514.8516   -3932.3666            0    11200.052    16.721721    19.695979    20.400461    6718.9057    12104.899    11958.421    9536.8366   -1178.3588    1172.4854     1144.071   -2417.3769 
27346000    255.19362   -3922.1459   -3484.7528   -3922.1459            0    9796.9399    16.733693     19.71008    20.415066    6733.3464    9432.5336    9596.0236    10362.262     -1776.91   -75.461978    1326.6737   -2522.7036 
27347000    260.73814   -3951.2747   -3504.3784   -3951.2747            0    9067.0651    16.750192    19.729513    20.435195    6753.2827    7769.1117    9009.2288    10422.855   -2035.0409   -538.79793    477.25495   -2611.3659 
27348000    237.06992   -3947.3617   -3541.0319   -3947.3617            0    8888.7375    16.736479    19.713361    20.418465    6736.7101    8787.5481    8543.4282    9335.2362   -1365.8881   -454.01749     972.9168   -2667.7312 
27349000    257.42975    -3949.976   -3508.7502    -3949.976            0    10032.611    16.779982    19.764603    20.471539    6789.3795    8995.9754    12451.434     8650.424   -2173.1584   -614.58379    505.61804   -2515.3598 
27350000    253.92235   -3945.3981   -3510.1838   -3945.3981            0    9988.8296      16.7683    19.750842    20.457286    6775.2085    9649.3994    9149.3594     11167.73    -2878.386    72.588355   -1280.5624   -2523.1929 
27351000    246.77155   -3944.0937   -3521.1357   -3944.0937            0    11884.841    16.736969    19.713938    20.419063    6737.3017    13655.699    12222.547     9776.277   -1277.3604    128.50025    483.23881   -2353.3712 
27352000     269.2273   -3931.5494    -3470.103   -3931.5494            0    12145.718    16.730581    19.706415     20.41127    6729.5908    12196.589    13636.932    10603.635   -2263.1018    759.14675   -91.351762   -2278.0714 
27353000    246.18695   -3917.0191   -3495.0631   -3917.0191            0    9588.6676    16.761504    19.742837    20.448995     6766.974    9283.4141    9793.1648    9689.4241     1453.686   -65.066954   -363.52643   -2548.7635 
27354000    246.99817   -3922.5695   -3499.2231   -3922.5695            0    9304.8985    16.748413    19.727418    20.433025    6751.1316    9125.8243    10890.114    7898.7571    33.055432    226.03022    31.109257   -2583.0783 
27355000    261.98895   -3922.5935   -3473.5534   -3922.5935            0    10133.139    16.738131    19.715308    20.420481    6738.7059    10072.258    12043.957    8283.1999    31.296269    763.60426    556.41547   -2477.6978 
27356000    241.49009   -3939.9027    -3525.997   -3939.9027            0      10026.5    16.756641    19.737109    20.443062    6761.0858    9721.8564    10862.471    9495.1712   -234.75414    345.23596   -19.766815    -2537.349 
27357000    242.65701     -3928.55   -3512.6442     -3928.55            0    11079.131    16.721856    19.696137    20.400625    6719.0677    11070.248    11219.391    10947.754   -726.57249   -207.71653    511.13056   -2426.9923 
27358000    240.44803   -3897.2161   -3485.0964   -3897.2161            0    9649.8745    16.776992     19.76108    20.467891      6785.75     9858.917    8898.7405    10191.966    108.81693   -871.83968    396.55257   -2530.1139 
27359000    259.50144   -3916.3773   -3471.6007   -3916.3773            0    11129.442    16.706535    19.678092    20.381934    6700.6165     11784.93    11237.805    10365.592    -2089.367    614.06653    2497.4559   -2384.0136 
27360000     261.6001    -3945.963   -3497.5894    -3945.963            0    9734.6939    16.712513    19.685132    20.389226    6707.8112    9506.3764    9021.8146    10675.891    15.198749   -684.13829    1416.2342   -2545.2779 
27361000    270.92419   -3939.0969   -3474.7421   -3939.0969            0    8823.6965    16.746957    19.725704    20.431249    6749.3714    8575.3602    9563.7611    8331.9683    41.495932   -404.99799   -208.46668   -2606.2022 
27362000     254.7937   -3909.0206   -3472.3129   -3909.0206            0    8261.2017    16.766207    19.748378    20.454734    6772.6728    8177.0336    8869.9758    7736.5959    127.75847   -1341.8803    1336.6922   -2656.3335 
27363000    260.57225   -3937.9564   -3491.3445   -3937.9564            0    10190.089    16.746883    19.725616    20.431158    6749.2813    11092.523    10728.557    8749.1884    233.22887    747.86411   -860.55714   -2488.3203 
27364000    259.06325   -3893.4318   -3449.4063   -3893.4318            0    10724.634    16.775085    19.758834    20.465565    6783.4369    11308.485    10142.839    10722.577   -293.65183    1772.9788    10.546114    -2388.424 
27365000    259.69787    -3900.536   -3455.4228    -3900.536            0    10582.338    16.775755    19.759623    20.466382    6784.2492    10192.425    9530.3935    12024.196   -6.7626731    307.60258    344.58358   -2408.3923 
27366000    244.09653   -3928.1823   -3509.8092   -3928.1823            0    9798.9217    16.792548    19.779404     20.48687    6804.6441    11897.534    8905.2464    8593.9849    659.49328    757.76148    307.95878   -2537.3764 
27367000    246.01249   -3933.8383   -3512.1813   -3933.8383            0    10944.673    16.782186    19.767199    20.474228    6792.0551    10504.453    11718.722    10610.843    759.33785     102.5912   -4.4116895    -2428.055 
27368000    254.65184   -3946.8241   -3510.3595   -3946.8241            0    9151.7779    16.825467    19.818178     20.52703    6844.7401    9784.4698    8603.3604    9067.5036    1455.3263    302.65342   -758.75727   -2596.7969 
27369000    258.77753   -3922.2303   -3478.6945   -3922.2303            0    12891.488    16.781143     19.76597    20.472955    6790.7882    12409.867    13926.255    12338.343   -1232.5034   -272.20605    -872.3499   -2201.9643 
27370000    248.49433   -3913.8232   -3487.9125   -3913.8232            0     12256.21    16.763229    19.744869      20.4511     6769.064    10207.974    13163.962    13396.695   -752.08089   -1447.1753   -1199.8882   -2277.9812 
27371000    247.97827   -3917.3384   -3492.3121   -3917.3384            0    9669.8654    16.811912    19.802211    20.510493    6828.2103    10509.591    8932.9028    9567.1027   -339.10894     233.5236   -834.78571   -2529.3633 
27372000    272.80755   -3932.9613   -3465.3785   -3932.9613            0    11106.646    16.799544    19.787644    20.495405     6813.152    12100.808    9007.9966    12211.132   -302.72538    49.058673   -655.82675   -2361.7907 
27373000    237.51929    -3922.692   -3515.5921    -3922.692            0    9001.2934    16.887792    19.891589    20.603067    6921.0856    8439.7625    7515.1346    11048.983   -1018.8006   -10.582074   -609.38194   -2607.0291 
27374000     266.7464   -3896.0368   -3438.8426   -3896.0368            0    11802.334    16.762444    19.743944    20.450142    6768.1126    10175.148    12211.029    13020.824   -592.17094    379.07228    281.85483   -2273.8817 
27375000    269.61426    -3890.757   -3428.6474    -3890.757            0    11408.891    16.821015    19.812934    20.521599    6839.3087    12013.078     10728.36    11485.235   -735.70996    580.80278    799.73731   -2290.6756 
27376000    250.05259   -3894.3933   -3465.8117   -3894.3933            0    11186.242     16.79197    19.778723    20.486165    6803.9415    11887.142    12219.405    9452.1794   -259.39148   -1410.3405    1101.1237   -2355.8176 
27377000    256.03674   -3906.4518   -3467.6136   -3906.4518            0    10314.939     16.84118    19.836686      20.5462    6863.9348    9945.9266    10921.026    10077.865   -1171.2913   -734.82421    373.41302   -2435.0526 
27378000    261.13889   -3922.8067   -3475.2236   -3922.8067            0     9786.405    16.845654    19.841956    20.551659     6869.407    10783.992     9080.588    9494.6344   -1537.0928    377.69997    362.53635   -2494.7897 
27379000    256.18927   -3896.4578   -3457.3582   -3896.4578            0    10875.475    16.872093    19.873097    20.583914    6901.8014    10086.579    12318.205    10221.641   -1085.5482   -17.448084   -1260.1901   -2362.6796 
27380000    252.64647   -3946.2409   -3513.2135   -3946.2409            0    12814.215    16.809135     19.79894    20.507105    6824.8273    13332.635    14084.318    11025.691   -927.62835   -69.545683   -770.78885   -2237.7749 
27381000    242.97975   -3926.0516   -3509.5926   -3926.0516            0    10327.124    16.806548    19.795894    20.503949     6821.677    10672.006    9883.5988    10425.767   -145.49036   -382.77892    284.90959   -2482.1764 
27382000    256.76342    -3887.694   -3447.6102    -3887.694            0    11564.019    16.823452    19.815804    20.524572    6842.2815    11701.539    10635.331    12355.186   -1492.9479    21.060187   -586.62059   -2293.6639 
27383000    234.44941   -3927.1323    -3525.294   -3927.1323            0    8309.7865    16.924413    19.934723    20.647744    6966.2076    9844.2905    9109.7228    5975.3462    143.13594    176.13637    891.72823   -2681.0613 
27384000    248.12217   -3955.1197   -3529.8468   -3955.1197            0    10253.436    16.833351    19.827464    20.536649    6854.3671    10325.132    12230.656    8204.5212   -30.158887    911.25501    612.05858   -2504.8732 
27385000    235.77484   -3934.6989   -3530.5889   -3934.6989            0    9865.8227    16.810317    19.800333    20.508548    6826.2677    10513.517    9144.9392    9939.0122   -608.92841    1282.9449    1669.8672   -2548.4057 
27386000    257.99899   -3931.9886   -3489.7872   -3931.9886            0    9350.2953    16.831194    19.824923    20.534017    6851.7318    9916.1012    10443.473    7691.3114    1869.0227    808.35165    112.97172   -2555.4545 
27387000     249.2976   -3927.9583   -3500.6707   -3927.9583            0    10180.845    16.813715    19.804335    20.512693    6830.4074     9622.533    10212.412    10707.591    343.09264    98.024463    362.59179    -2486.511 
27388000    258.87695   -3917.9393   -3474.2331   -3917.9393            0    9594.0548    16.821724    19.813769    20.522464    6840.1736    10097.942    8569.4403    10114.782     658.2815    -1670.624   -1381.4742   -2517.1598 
27389000    232.93234   -3910.1384   -3510.9003   -3910.1384            0    11912.945    16.749815    19.729069    20.434735    6752.8266    11607.585     12580.56    11550.688   -845.11977   -175.22481    1274.5623   -2337.6772 
27390000    247.64046   -3902.4203    -3477.973   -3902.4203            0    11679.716    16.771369    19.754457    20.461031    6778.9297    12708.298    12229.925    10100.927   -86.557545    1257.7032   -762.63345   -2323.2726 
27391000    253.37322   -3939.1057   -3504.8327   -3939.1057            0    10523.557    16.772014    19.755218    20.461818    6779.7125    10504.383    12489.598    8576.6912    497.57088    1350.8168    615.69244   -2464.3144 
27392000    233.21682   -3883.3799   -3483.6542   -3883.3799            0    12731.861    16.712637    19.685279    20.389379    6707.9615    13322.015    11622.379    13251.189   -1896.4465    845.02686   -231.76132   -2238.1123 
27393000    248.11124   -3916.8522    -3491.598   -3916.8522            0    9832.8503    16.771028    19.754055    20.460615    6778.5159    11248.054    8616.0492    9634.4481   -836.38748   -1365.0539   -1899.9217   -2519.5451 
27394000    242.30422   -3903.4233   -3488.1222   -3903.4233            0    9563.7229    16.852864    19.850448    20.560455    6878.2306    9474.7461    9808.9048    9407.5179   -970.06553   -811.33258    814.78709   -2528.7666 
27395000    259.43285   -3903.7592   -3459.1001   -3903.7592            0    11486.622    16.843615    19.839553     20.54917    6866.9119    10770.718    12319.199     11369.95   -474.70672    111.12085    143.72461   -2308.7509 
27396000    244.30642   -3926.5513   -3507.8185   -3926.5513            0     9726.837    16.807169    19.796625    20.504707    6822.4333    10474.838    8308.1777    10397.495   -866.46042    1256.2261   -287.47208   -2540.0158 
27397000    242.54962   -3933.0973   -3517.3755   -3933.0973            0    10825.617    16.822818    19.815057    20.523798    6841.5073     10719.12    10912.053    10845.678    1295.7625   -111.82819   -432.72801   -2437.2348 
27398000    239.33277   -3931.4633   -3521.2551   -3931.4633            0    11594.732    16.791993     19.77875    20.486193    6803.9694    11806.852    11571.831    11405.513    10.327849    1025.6108    1785.2754   -2370.7224 
27399000    260.54788   -3883.1427   -3436.5725   -3883.1427            0    10567.353    16.786235    19.771967    20.479167    6796.9716    11714.227    7321.9047    12665.926   -657.23859    311.31981     606.0348    -2389.064 
27400000    254.62161   -3940.1884   -3503.7757   -3940.1884            0    8633.6338    16.849214    19.846148    20.556001    6873.7623    8104.9411    8355.3725    9440.5877   -568.71144    82.012743   -199.45747   -2638.2817 
27401000    250.37715   -3893.1585   -3464.0206   -3893.1585            0    10287.738    16.798113    19.785959    20.493659    6811.4114    10635.653    8218.5827    12008.978   -2067.4582   -64.291406     106.1111    -2442.063 
27402000    246.50542   -3954.3478    -3531.846   -3954.3478            0    8757.2895    16.837125    19.831909    20.541253    6858.9774    8429.7203    9001.2264    8840.9218   -1237.1344   -488.40543   -878.79544   -2655.8443 
27403000    265.73094   -3925.2966   -3469.8429   -3925.2966            0    10729.343    16.829978    19.823491    20.532534    6850.2468    10698.812     9888.717    11600.501    147.59028   -248.63157   -2182.6802   -2397.9404 
27404000    253.90585   -3941.7604   -3506.5745   -3941.7604            0    10857.039    16.812856    19.803323    20.511645    6829.3607    11633.779    11397.753    9539.5846    532.81097   -1158.3707   -717.49125   -2425.2219 
27405000    251.84068    -3929.594   -3497.9477    -3929.594            0    9194.4271    16.848338    19.845116    20.554933    6872.6902    11171.194    6790.0127    9622.0744    491.87635   -33.394744   -2421.4523   -2576.3798 
27406000    245.41212   -3972.1397   -3551.5117   -3972.1397            0     8131.383     16.88997    19.894153    20.605724    6923.7632    7147.3613    9665.1928    7581.5949    1697.5211    978.04542    -670.2745   -2730.4373 
27407000    253.33916   -3950.1851   -3515.9704   -3950.1851            0    10780.425    16.863051    19.862447    20.572883    6890.7114      11729.6    9124.3684    11487.306    429.86176    544.24949   -2187.4854   -2432.6029 
27408000    259.05115   -3957.0889   -3513.0841   -3957.0889            0    13278.849    16.784042    19.769384    20.476491    6794.3079    15675.188    12951.228     11210.13   -2152.6358   -408.43144   -2120.9474   -2197.3094 
27409000    243.54723   -3919.4102   -3501.9786   -3919.4102            0    11948.253    16.814685    19.805477    20.513876    6831.5895    13497.856    11457.225    10889.677   -127.23999    179.33073    -619.5164   -2311.5536 
27410000    263.06936   -3896.5507   -3445.6588   -3896.5507            0    11894.388    16.808761      19.7985    20.506649    6824.3724     11028.96    11414.817    13239.387    56.260237    995.38763    -874.5676   -2261.8524 
27411000    249.60646   -3916.6041   -3488.7871   -3916.6041            0    9044.6352    16.804117     19.79303    20.500984    6818.7173    8365.5711    8676.6704    10091.664   -2102.0594    1511.1925    -1178.606   -2589.3524 
27412000    254.67142   -3901.3246   -3464.8265   -3901.3246            0    10936.904    16.780243    19.764909    20.471857    6789.6955    13184.718    8138.7917    11487.202   -477.04765    435.22286    -387.6809   -2381.8462 
27413000    261.46438   -3903.2072   -3455.0662   -3903.2072            0    10903.749    16.774598     19.75826     20.46497    6782.8455    11425.835    9509.1368    11776.276   -851.28538   -926.50964   -258.69626   -2376.4581 
27414000    253.16542   -3904.1491   -3470.2322   -3904.1491            0    11418.947    16.789711    19.776062    20.483408    6801.1957    10506.872    12356.368    11393.603   -789.86625   -1898.6793     31.32587   -2337.6044 
27415000    254.58381   -3894.0617   -3457.7138   -3894.0617            0    12425.416    16.790933    19.777501    20.484899    6802.6801    11037.332    12339.868    13899.047   -1041.8894    166.48625    1181.0077   -2224.9869 
27416000    262.29485   -3902.5788   -3453.0144   -3902.5788            0    11445.682    16.779521    19.764059    20.470976    6788.8193    10709.895    10737.883    12889.268   -331.32156   -355.33842   -992.65739   -2319.8007 
27417000    240.24162   -3924.1796   -3512.4137   -3924.1796            0    9555.9891    16.772968    19.756341    20.462982    6780.8688    9482.5126    7777.8005    11407.654   -241.67474   -1583.3852    255.77343   -2567.4027 
27418000    266.61654   -3900.8427    -3443.871   -3900.8427            0    9673.1586    16.837662    19.832541    20.541908    6859.6335    10040.657    9923.2829     9055.536    340.59745   -1447.3473    171.46427   -2476.1613 
27419000    257.28878   -3889.4689   -3448.4847   -3889.4689            0    11702.457     16.79106    19.777651    20.485054    6802.8347    9428.7614    12032.259    13646.349    186.78721   -97.227909    1694.4882   -2287.4563 
27420000    249.58489   -3912.0442   -3484.2642   -3912.0442            0    11676.382    16.753109     19.73295    20.438754    6756.8121    11880.385     10624.53     12524.23   -281.74971   -1254.7429    -1112.506   -2333.6599 
27421000    241.11147   -3886.8417   -3473.5849   -3886.8417            0    9152.1331    16.795623    19.783025    20.490621    6808.3825    8845.6773    8910.3994    9700.3225    777.48251    410.90193    213.52589   -2564.8397 
27422000    256.21067   -3921.5655   -3482.4292   -3921.5655            0    12470.385    16.736077    19.712888    20.417975    6736.2247    11265.569    13337.634     12807.95   -121.98563    483.68549   -622.08448    -2257.327 
27423000    236.86334   -3907.7859   -3501.8103   -3907.7859            0    9943.6883    16.763721    19.745449      20.4517    6769.6597     8774.676    10057.329     10999.06   -533.41886   -884.81625    -733.9663   -2520.0844 
27424000    256.96552    -3913.739   -3473.3089    -3913.739            0    13277.211    16.695518    19.665115    20.368493    6687.3689    14803.323    11351.623    13676.686    992.85571    737.26636    767.27825   -2178.4035 
27425000    260.64954   -3925.1839   -3478.4395   -3925.1839            0    13045.476    16.716752    19.690126    20.394399    6712.9174    10925.728    15527.985    12682.713    13.715151    -338.4513    1433.6519   -2201.2742 
27426000    247.82018   -3936.7649   -3512.0096   -3936.7649            0    10935.108    16.726083    19.701116    20.405782     6724.164     11348.85    9227.5784    12228.897   -82.045277    4.9513243    403.85229   -2439.6579 
27427000    254.35186    -3906.353   -3470.4027    -3906.353            0    10557.082    16.792728    19.779615    20.487089     6804.862     11464.49    8617.9144    11588.843    566.51648   -1795.2808    98.727563   -2422.6974 
27428000    252.73499   -3904.6295   -3471.4504   -3904.6295            0    10670.623    16.801826    19.790332    20.498189    6815.9291    9833.2202    9956.5884    12222.062   -127.16206   -402.23039   -1809.9649   -2410.7548 
27429000    248.24221   -3896.4745   -3470.9959   -3896.4745            0    11676.118    16.781847    19.766799    20.473814    6791.6428    10354.376     10556.93    14117.047   -1368.2838    1495.0962   -276.39182   -2314.4864 
27430000    251.42372   -3904.0631   -3473.1314   -3904.0631            0     12534.13    16.755889    19.736224    20.442145    6760.1757    10990.433    12929.551    13682.406   -430.65022   -75.927875    307.90587   -2237.3887 
27431000    251.40888   -3902.0879   -3471.1817   -3902.0879            0    11010.032    16.775686    19.759542    20.466298    6784.1658    11712.092    11760.847    9557.1566   -1411.3907    1527.9947   -2213.1518    -2381.848 
27432000    264.46162   -3896.1515   -3442.8733   -3896.1515            0    10836.142    16.802667    19.791322    20.499215    6816.9524    12415.737    9966.6799    10126.011   -428.14541    1926.8452   -1135.1119   -2365.5629 
27433000    254.98023   -3913.3606   -3476.3332   -3913.3606            0    11219.732    16.711411    19.683835    20.387882    6706.4849    11089.867    9501.3816    13067.947    418.27585    1261.4506   -44.136026   -2378.9627 
27434000    238.56276   -3896.1433   -3487.2549   -3896.1433            0    11339.548    16.733816    19.710225    20.415216    6733.4953    11165.486    11389.391    11463.768    97.416141   -22.103318   -557.91092   -2373.6985 
27435000    256.73505   -3894.3023   -3454.2672   -3894.3023            0    8663.4149    16.794052    19.781175    20.488704    6806.4722    8334.1767    8854.8991    8801.1688   -1509.8087   -1419.9301    1830.5116   -2594.2897 
27436000    245.39277   -3866.7576   -3446.1628   -3866.7576            0    11767.236     16.75918    19.740101    20.446161    6764.1608    12176.599    10960.711    12164.397   -934.14047    -1677.627    1277.2075   -2285.3444 
27437000    244.03239   -3913.7172   -3495.4541   -3913.7172            0    10783.191    16.766976    19.749283    20.455672    6773.6042    10947.278    11973.974    9428.3213    -268.9081   -111.97513   -556.72986    -2430.225 
27438000    267.83736   -3899.1937   -3440.1297   -3899.1937            0    13402.871    16.747507    19.726351     20.43192    6750.0362    13185.886    14606.852    12415.876   -1347.3593   -920.46697    290.45452   -2120.7195 
27439000    239.06678   -3934.8322   -3525.0799   -3934.8322            0    10286.675    16.773693    19.757194    20.463866    6781.7479    8606.1621    9950.8576    12303.006   -212.06021    1088.2257   -71.567566    -2507.678 
27440000    268.02921   -3909.7396   -3450.3467   -3909.7396            0    12001.831     16.74208    19.719959    20.425298    6743.4762    13100.247      11168.8    11736.447    -1454.277   -196.83691    914.25743   -2270.0064 
27441000    254.27101   -3909.7388    -3473.927   -3909.7388            0    11071.878    16.728412     19.70386    20.408623    6726.9737    9977.0381    10301.394    12937.202    -145.9339   -1118.8647   -626.03784   -2387.7092 
27442000    257.89181   -3905.2294   -3463.2117   -3905.2294            0    10815.779     16.72347    19.698039    20.402595    6721.0142    10834.936     11153.32     10459.08   -732.47948   -1254.9853   -692.26227   -2403.0588 
27443000    246.03049    -3905.045   -3483.3571    -3905.045            0    9381.8581     16.77669    19.760724    20.467522    6785.3835    9182.3331    9354.1985    9609.0427    -216.6967    861.51304   -84.905117   -2554.9485 
27444000     257.1561   -3896.9498    -3456.193   -3896.9498            0    10632.071    16.742374    19.720305    20.425657     6743.831    11171.048    8864.1206    11861.045    1775.0058    -1369.482   -625.62837    -2410.509 
27445000    237.00017   -3905.2516   -3499.0414   -3905.2516            0     9778.791    16.746813    19.725534    20.431073     6749.197    8844.8937    11772.608    8718.8715    1223.6533   -167.38265   -2252.2749   -2536.5138 
27446000    259.94245   -3951.9177   -3506.3852   -3951.9177            0    9697.5155    16.772463    19.755746    20.462366    6780.2569     9834.676    9495.0365    9762.8339   -127.96425    1119.6324   -624.31555   -2547.4649 
27447000    245.26574   -3920.5162   -3500.1391   -3920.5162            0    11543.826    16.726235    19.701295    20.405968    6724.3479    11408.603     12099.21    11123.664   -57.156233    731.39345   -2126.4741   -2368.0625 
27448000    246.77714   -3928.5102   -3505.5426   -3928.5102            0    12008.976    16.744724    19.723073    20.428524    6746.6716    12523.887    13537.175    9965.8664    408.19866   -1167.2233    480.85758     -2323.94 
27449000    262.88972   -3930.1156   -3479.5317   -3930.1156            0    12064.311    16.740238    19.717789    20.423051    6741.2507    12031.506    12801.335    11360.093   -195.85998   -404.01262   -773.54785   -2293.4382 
27450000    258.96883   -3958.1646   -3514.3009   -3958.1646            0     10422.75    16.766683    19.748938    20.455314     6773.249    10403.033    10972.251    9892.9677     995.1678    23.934088    931.57342   -2484.7323 
27451000    250.37696   -3934.5748   -3505.4373   -3934.5748            0    10683.223    16.769037    19.751711    20.458186    6776.1026    10097.766    11241.752     10710.15    258.47906   -1351.2029   -73.213666   -2449.6944 
27452000    246.38347    -3931.498   -3509.2052    -3931.498            0    9846.0786    16.789424    19.775723    20.483058    6800.8461    9532.5761     11645.85    8359.8091    -712.1433    712.71953   -869.46308    -2532.638 
27453000    254.34111   -3968.5827   -3532.6507   -3968.5827            0    10774.168    16.787133    19.773025    20.480263    6798.0624    11450.068    11126.787    9745.6487    309.45749   -1310.3321      -1120.5   -2464.4699 
27454000    241.83933   -3939.7465   -3525.2422   -3939.7465            0    10726.012    16.750304    19.729645    20.435331    6753.4182    12717.878    11554.663    7905.4964    569.01452    -1015.893   -663.36305   -2468.8192 
27455000     236.9107   -3935.5417   -3529.4849   -3935.5417            0    11700.086    16.767181    19.749524    20.455921    6773.8522    12080.324    12146.448    10873.487    1031.7379   -1999.4501   -1670.0434    -2373.637 
27456000    246.17349   -3941.7055   -3519.7726   -3941.7055            0    11529.352    16.692616    19.661697    20.364953    6683.8828    10907.024    13484.321    10196.711    263.56438    187.45555   -686.00551   -2395.9193 
27457000     251.4471   -3927.8445   -3496.8728   -3927.8445            0     11967.38    16.715651    19.688829    20.393056    6711.5913    12307.878    12379.991    11214.272     1066.389   -1687.3746   -460.19313   -2325.4856 
27458000    249.09621   -3896.2655   -3469.3231   -3896.2655            0    12963.096    16.725475      19.7004    20.405041    6723.4314    13841.691    10743.186     14304.41    2494.3432   -72.925428   -417.35934   -2198.2352 
27459000    245.32529   -3906.0053   -3485.5262   -3906.0053            0    12663.336    16.705621    19.677015    20.380819     6699.517    13861.808     12692.68    11435.521   -552.85628    751.72517   -1368.9688   -2248.2475 
27460000    257.49372   -3896.6089   -3455.2735   -3896.6089            0    12084.581    16.734745    19.711319     20.41635    6734.6169    13529.989    12972.606    9751.1487    3326.2052    1296.9008    450.47902   -2268.3564 
27461000    259.63503   -3932.4037   -3487.3981   -3932.4037            0    10723.421    16.700585    19.671083    20.374675    6693.4596    8859.3317    12543.215    10767.716    1026.3389    632.21345    746.71596   -2440.6073 
27462000    246.11886   -3896.5709   -3474.7316   -3896.5709            0    11415.257    16.743468    19.721593    20.426992    6745.1532    9958.4065    13516.443     10770.92    1474.8286   -1035.3826    1799.0953   -2351.7998 
27463000    265.11499   -3913.1688   -3458.7708   -3913.1688            0    12755.632    16.720818    19.694915    20.399359    6717.8166    11591.892    13033.218    13641.786    1573.3736    233.53194    -486.7835   -2209.0701 
27464000    250.24791   -3933.1572   -3504.2409   -3933.1572            0    8947.6597    16.833198    19.827284    20.536463    6854.1803    8266.1131    10007.212    8569.6539   -1027.6434    -368.5759    917.09738   -2609.8222 
27465000    237.22496    -3945.771   -3539.1756    -3945.771            0    9874.3706    16.712555    19.685182    20.389278    6707.8624    9098.4262    11601.041    8923.6443    987.55935   -478.55919   -326.27836   -2573.1926 
27466000    250.21425   -3926.5647    -3497.706   -3926.5647            0    10703.706    16.747412    19.726239    20.431803     6749.921    9677.0349     12337.02    10097.064   -401.14307    484.87903   -485.55733   -2444.0259 
27467000    243.10403   -3946.0832   -3529.4112   -3946.0832            0    10806.314    16.777205    19.761332    20.468151    6786.0094    12345.787    8929.6408    11143.514   -709.54988    390.06693   -35.978027   -2459.9429 
27468000    251.70678   -3909.3255   -3477.9087   -3909.3255            0    9625.2035    16.777689    19.761901    20.468741    6786.5958     8193.979    9969.4188    10712.213    83.870951   -1037.8872    1706.0343    -2525.249 
27469000     253.3442   -3906.8954   -3472.6721   -3906.8954            0    10531.983    16.791333    19.777972    20.485387    6803.1667    10554.501    11138.598     9902.848   -751.44629   -1938.8797   -65.961281   -2427.7182 
27470000    244.19412   -3945.3426   -3526.8023   -3945.3426            0    10192.923    16.816811    19.807983    20.516471    6834.1822    9938.3206      11332.7     9307.749    261.05105    76.163349   -59.776349   -2510.8783 
27471000    254.27814   -3931.1913   -3495.3673   -3931.1913            0    11687.348     16.80251    19.791137    20.499023    6816.7607    11278.669    14290.917     9492.459    654.86807    530.21458    472.72522   -2333.4641 
27472000    248.10132   -3941.3932    -3516.156   -3941.3932            0    9598.7465     16.80108    19.789453    20.497278    6815.0209    8888.2382    10132.102    9775.8998    119.60731   -2049.3731    425.46425   -2562.1357 
27473000    242.56357   -3938.3053   -3522.5597   -3938.3053            0    8583.9395      16.8384    19.833411    20.542808    6860.5356    8877.1771    7436.4985     9438.143    394.82927   -1149.6348   -1215.6169   -2663.7033 
27474000    251.53072   -3918.5956   -3487.4806   -3918.5956            0    10104.554     16.86349    19.862964    20.573418    6891.2493    8453.0068    11883.787    9976.8691    -947.5788    851.25652    426.44799   -2471.9546 
27475000    255.29136   -3926.3132   -3488.7525   -3926.3132            0    12445.566    16.730551    19.706379    20.411233    6729.5548    11243.034    13418.124    12675.541     523.4857    1061.0534   -727.71138   -2267.2991 
27476000    258.74425   -3904.4704   -3460.9916   -3904.4704            0    10770.318    16.793616    19.780662    20.488173    6805.9423    9351.1505    10095.576    12864.228   -153.28109    96.593438    753.98903   -2391.9548 
27477000    262.07846   -3856.6766    -3407.483   -3856.6766            0    11215.407    16.827822    19.820952    20.529904    6847.6149    13340.037    10448.513    9857.6715   -872.15679    358.00163    1053.0612   -2287.4515 
27478000    254.60714   -3876.4249    -3440.037   -3876.4249            0    10162.423    16.808443    19.798126    20.506261    6823.9847    11148.397    8961.2276    10377.643   -109.89982    34.089895    2241.2182   -2428.6644 
27479000    248.26037   -3884.8338   -3459.3241   -3884.8338            0    8270.5172    16.905057    19.911924     20.62413    6942.3339    10267.551    8867.0598    5676.9412   -517.50232     712.3894    584.18759   -2621.9605 
27480000    258.31429   -3873.9442   -3431.2024   -3873.9442            0    11505.473    16.781386    19.766256    20.473251    6791.0829    12167.159    11107.623    11241.637   -1306.4448   -992.18138      2478.71    -2291.689 
27481000    248.41589   -3881.3671   -3455.5908   -3881.3671            0    11572.034    16.790158    19.776589    20.483954    6801.7389    10677.207    11966.933    12071.963    297.93842    1552.3798   -842.18268   -2307.6868 
27482000    254.28626   -3919.3726   -3483.5347   -3919.3726            0    9073.0206    16.814374    19.805111    20.513497    6831.2106    6923.8191    11210.531    9084.7117    2085.9193   -1739.4274    1237.9913   -2579.6241 
27483000    238.18924   -3875.8528   -3467.6045   -3875.8528            0    13474.692    16.741299    19.719039    20.424346    6742.5324    13323.397    13258.435    13842.243   -2463.8458   -1565.3601    645.30352   -2142.5988 
27484000    253.10508   -3889.6265    -3455.813   -3889.6265            0    11428.354    16.800362    19.788607    20.496402    6814.1471    12685.448    11093.222    10506.392   -1940.1903    302.51682    557.90005   -2320.0936 
27485000    254.69998   -3934.7604   -3498.2133   -3934.7604            0    10559.781    16.769267    19.751982    20.458467    6776.3813    11531.721    10692.695    9454.9293    637.45912   -136.00211     -37.6074   -2454.6264 
27486000    249.84867   -3907.0648   -3478.8327   -3907.0648            0    9383.3846    16.803711    19.792551    20.500488    6818.2224    9947.0803    9382.7756    8820.2977   -327.87619    369.53671   -844.24536   -2545.7792 
27487000     255.4669    -3902.477   -3464.6155    -3902.477            0    10355.497    16.777278    19.761417     20.46824    6786.0973     11915.24     9567.973    9583.2786    -938.4475   -801.87281   -232.96107   -2439.7499 
27488000    260.89909   -3885.6305   -3438.4584   -3885.6305            0    11510.545    16.739238    19.716611    20.421831    6740.0423    11044.226    13609.052    9878.3564    1333.1533    1474.9022    1265.5736   -2307.0109 
27489000    252.35072   -3888.8786   -3456.3581   -3888.8786            0    11651.085    16.807782    19.797347    20.505455      6823.18    11505.421    9797.3266    13650.506   -194.74719    -634.3683    825.18346   -2296.9693 
27490000    253.40794   -3902.9502   -3468.6177   -3902.9502            0    10466.375    16.827668     19.82077    20.529716    6847.4269    8235.1169    11326.519    11837.491    421.40865   -1073.2166    468.04551   -2423.4172 
27491000    248.44219   -3906.4391   -3480.6177   -3906.4391            0    10508.201    16.773453    19.756911    20.463573    6781.4565    10259.991     10470.06    10794.551    1905.3236    767.05764   -428.73447   -2441.3504 
27492000     257.6709   -3899.3974   -3457.7583   -3899.3974            0    9295.8085    16.802591    19.791233    20.499122    6816.8595    6913.8737    12916.425    8057.1263     54.62567    902.37694   -1328.7237   -2533.5978 
27493000    262.50654   -3877.1722    -3427.245   -3877.1722            0    12811.318    16.761113    19.742378    20.448519    6766.5015    13880.828     11695.98    12857.147    318.86058    655.09833     -775.806   -2162.9922 
27494000    248.87824   -3867.3692   -3440.8004   -3867.3692            0    12982.242    16.725961    19.700973    20.405633    6724.0173    14066.644    12898.663    11981.419    435.69147    1170.7031    480.62333   -2167.7241 
27495000    253.24442   -3866.3949   -3432.3426   -3866.3949            0    9789.3282    16.850194    19.847303    20.557197     6874.962    10270.594    10312.578    8784.8125    811.33895   -117.25504    979.99984   -2450.8228 
27496000    253.44887   -3901.4183   -3467.0156   -3901.4183            0    11774.293    16.828795    19.822098    20.531091    6848.8032      11953.4    11675.615    11693.865   -476.00394    -371.4092    986.30509   -2290.9666 
27497000     245.1277   -3885.9385    -3465.798   -3885.9385            0    10280.121    16.819756    19.811451    20.520063    6837.7729    9156.0017    9881.8673    11802.494   -382.06992    2738.6645    194.01558   -2440.6448 
27498000    261.84212   -3891.9069   -3443.1185   -3891.9069            0    9631.0444    16.821628    19.813655    20.522346    6840.0556    9495.3609    10551.883    8845.8889    170.20536   -195.12586    32.993062   -2482.3718 
27499000     235.8815   -3879.9877   -3475.6949   -3879.9877            0    11559.384    16.795364    19.782721    20.490305    6808.0679    11504.571    10382.409    12791.173    560.75622    675.20281   -643.28616   -2327.9788 
27500000    259.41663   -3870.1223   -3425.4911   -3870.1223            0    10033.242    16.830849    19.824516    20.533596    6851.3101    11442.306     9395.846     9261.575    135.02796   -929.42129    1873.5417   -2422.9762 
Loop time of 457.912 on 64 procs for 250000 steps with 864 atoms

Performance: 94.341 ns/day, 0.254 hours/ns, 545.957 timesteps/s
99.1% CPU use with 64 MPI tasks x 1 OpenMP threads

MPI task timing breakdown:
Section |  min time  |  avg time  |  max time  |%varavg| %total
---------------------------------------------------------------
Pair    | 22.195     | 27.675     | 32.918     |  49.4 |  6.04
Bond    | 0.265      | 0.27907    | 0.28889    |   0.8 |  0.06
Kspace  | 191.49     | 200.15     | 212.14     |  33.0 | 43.71
Neigh   | 4.899      | 5.6744     | 7.211      |  22.6 |  1.24
Comm    | 93.951     | 108.38     | 119.02     |  47.8 | 23.67
Output  | 1.7693     | 1.7734     | 1.7853     |   0.4 |  0.39
Modify  | 105.91     | 109.4      | 111.41     |  12.8 | 23.89
Other   |            | 4.584      |            |       |  1.00

Nlocal:        13.5000 ave          19 max           8 min
Histogram: 1 3 6 12 12 7 13 6 2 2
Nghost:        2301.91 ave        2333 max        2273 min
Histogram: 3 7 5 8 12 8 10 2 4 5
Neighs:        4497.98 ave        6117 max        2531 min
Histogram: 1 3 5 9 14 4 8 10 6 4

Total # of neighbors = 287871
Ave neighs/atom = 333.18403
Ave special neighs/atom = 2.0000000
Neighbor list builds = 12765
Dangerous builds = 0

unfix		3
unfix		2
unfix		1

write_data	data.final.${pid}
write_data	data.final.0
System init for write_data ...
PPPM initialization ...
  extracting TIP4P info from pair style
  using 12-bit tables for long-range coulomb (../kspace.cpp:340)
  G vector (1/distance) = 0.37496367
  grid = 24 24 24
  stencil order = 5
  estimated absolute RMS force accuracy = 0.0030818172
  estimated relative force accuracy = 9.2808008e-06
  using double precision FFTW3
  3d grid and FFT values/proc = 2535 216
Last active /omp style is kspace_style pppm/tip4p/omp
WARNING: Not all mixed pair coeffs generated from mixing. Use write_data with 'pair ij' option to store all pair coeffs. (../write_data.cpp:312)

write_restart   restart.lmp.${pid}
write_restart   restart.lmp.0
System init for write_restart ...
PPPM initialization ...
  extracting TIP4P info from pair style
  using 12-bit tables for long-range coulomb (../kspace.cpp:340)
  G vector (1/distance) = 0.37496367
  grid = 24 24 24
  stencil order = 5
  estimated absolute RMS force accuracy = 0.0030818172
  estimated relative force accuracy = 9.2808008e-06
  using double precision FFTW3
  3d grid and FFT values/proc = 2535 216
Last active /omp style is kspace_style pppm/tip4p/omp
Total wall time: 0:07:42
