#include		in.partitions
include		in.temp
variable        temperature equal 208.27
variable	tempDamp equal 100.0
include		in.pressure
variable        pressure equal 8327.5
variable        pressureDamp equal 1000.0 # This is 1 ps
include		in.seed
variable        seed equal 745823

units		real
atom_style	full
read_restart	restart.lmp.${pid}
read_restart	restart.lmp.0
Reading restart file ...
  restart file = 30 Jul 2021, LAMMPS = 30 Jul 2021
  restoring atom style full from restart
  orthogonal box = (-0.088903728 -0.10583555 -0.016965440) to (24.818905 24.835837 22.826965)
  2 by 4 by 2 MPI processor grid
  restoring pair style lj/cut/tip4p/long/omp from restart
  restoring bond style harmonic/omp from restart
  restoring angle style harmonic/omp from restart
  1920 atoms
  1280 bonds
  640 angles
Finding 1-2 1-3 1-4 neighbors ...
  special bond factors lj:    0        0        0       
  special bond factors coul:  0        0        0       
     2 = max # of 1-2 neighbors
     1 = max # of 1-3 neighbors
     1 = max # of 1-4 neighbors
     2 = max # of special neighbors
  special bonds CPU = 0.001 seconds
  read_restart CPU = 0.007 seconds
include 	in.setup
variable	out_freq equal 1000
variable	out_freq2 equal 10000
variable	out_freq3 equal 1000

timestep	2.0

neigh_modify    delay 7 every 1

include		in.tip4p
# This is TIP4P/Ice

# create groups ###
group ox type 2
640 atoms in group ox
group hy type 1
1280 atoms in group hy

# set charges - beside manually ###
set group ox charge -1.1794
Setting atom values ...
  640 settings made for charge
set group hy charge 0.5897
Setting atom values ...
  1280 settings made for charge

# ### TIP3P Potential Parameters ###
pair_style lj/cut/tip4p/long/omp 2 1 1 1 0.1577 8.5
pair_coeff 1 1*2 0.000 0.000
pair_coeff 2 2 0.21084 3.1668
bond_style  harmonic
bond_coeff  1 450 0.9572
angle_style harmonic
angle_coeff 1 55 104.52
kspace_style pppm/tip4p/omp 1.0e-5
pair_modify tail yes

thermo          ${out_freq}
thermo          1000
thermo_style    custom step temp pe etotal epair emol press lx ly lz vol pxx pyy pzz pxy pxz pyz enthalpy

restart 	${out_freq3} restart.lmp.${pid} restart2.lmp.${pid}
restart 	1000 restart.lmp.${pid} restart2.lmp.${pid}
restart 	1000 restart.lmp.0 restart2.lmp.${pid}
restart 	1000 restart.lmp.0 restart2.lmp.0


include         in.dump
dump            myDump all atom ${out_freq2} dump.water.${pid}
dump            myDump all atom 10000 dump.water.${pid}
dump            myDump all atom 10000 dump.water.0
dump            myDump2 all dcd ${out_freq2} dump.dcd
dump            myDump2 all dcd 10000 dump.dcd
dump_modify     myDump append yes
dump_modify     myDump2 append yes


variable natoms 	equal  "count(all)"                        # NUMBER ATOMS
variable H      	equal  "enthalpy/v_natoms"                 # ENTHALPY-per-atom
variable Vol      	equal  "vol/v_natoms"                 # volume-per-atom
fix AVG all 		ave/time ${out_freq} 1 ${out_freq} v_Vol v_H file vol_enthalpy.dat
fix AVG all 		ave/time 1000 1 ${out_freq} v_Vol v_H file vol_enthalpy.dat
fix AVG all 		ave/time 1000 1 1000 v_Vol v_H file vol_enthalpy.dat




fix 		1 all shake 1e-6 200 0 b 1 a 1
       0 = # of size 2 clusters
       0 = # of size 3 clusters
       0 = # of size 4 clusters
     640 = # of frozen angles
  find clusters CPU = 0.000 seconds
fix             2 all nph aniso ${pressure} ${pressure} ${pressureDamp}
fix             2 all nph aniso 8327.5 ${pressure} ${pressureDamp}
fix             2 all nph aniso 8327.5 8327.5 ${pressureDamp}
fix             2 all nph aniso 8327.5 8327.5 1000
fix             3 all temp/csvr ${temperature} ${temperature} ${tempDamp} ${seed}
fix             3 all temp/csvr 208.27 ${temperature} ${tempDamp} ${seed}
fix             3 all temp/csvr 208.27 208.27 ${tempDamp} ${seed}
fix             3 all temp/csvr 208.27 208.27 100 ${seed}
fix             3 all temp/csvr 208.27 208.27 100 745823


run             250000
PPPM initialization ...
  extracting TIP4P info from pair style
  using 12-bit tables for long-range coulomb (../kspace.cpp:340)
  G vector (1/distance) = 0.37459083
  grid = 30 30 30
  stencil order = 5
  estimated absolute RMS force accuracy = 0.0032582001
  estimated relative force accuracy = 9.8119728e-06
  using double precision FFTW3
  3d grid and FFT values/proc = 7920 1800
Last active /omp style is kspace_style pppm/tip4p/omp
Neighbor list info ...
  update every 1 steps, delay 7 steps, check yes
  max neighbors/atom: 2000, page size: 100000
  master list distance cutoff = 10.8154
  ghost atom cutoff = 10.8154
  binsize = 5.4077, bins = 5 5 5
  1 neighbor lists, perpetual/occasional/extra = 1 0 0
  (1) pair lj/cut/tip4p/long/omp, perpetual
      attributes: half, newton on, omp
      pair build: half/bin/newton/omp
      stencil: half/bin/3d
      bin: standard
Per MPI rank memory allocation (min/avg/max) = 12.55 | 12.55 | 12.56 Mbytes
Step Temp PotEng TotEng E_pair E_mol Press Lx Ly Lz Volume Pxx Pyy Pzz Pxy Pxz Pyz Enthalpy 
11000000    214.50635   -9317.9715   -8500.1755   -9317.9715            0    8578.3345    24.907808    24.941672    22.843931    14191.618    8163.6242    7696.5148    9874.8646    544.22229   -962.82843   -352.17368   -6724.7159 
11001000    211.55321   -9356.5756   -8550.0383   -9356.5756            0    6979.2291    25.027707     24.93179    22.822524    14240.925    6960.6724    6183.5206    7793.4944   -30.949388   -713.02274    472.77967   -7100.5272 
11002000    211.96201   -9350.8554   -8542.7595   -9350.8554            0    8197.6298    24.802159    24.996843    22.875906    14182.506    8664.9591     7259.008    8668.9223    139.41465   -363.27906    97.213218   -6847.1839 
11003000    212.17309   -9352.6751   -8543.7745   -9352.6751            0    8291.1027    24.816934    24.923574     22.94227    14190.406    9047.1053    7544.9997     8281.203   -230.38487   -1043.1613   -459.91864   -6827.9099 
11004000     206.2464   -9364.6315   -8578.3261   -9364.6315            0    6722.7655    24.975288    24.978875    22.840168    14248.944    5909.7961    7088.1868    7170.3136    481.14305   -95.662356      135.428   -7181.2936 
11005000    212.17624   -9331.8176    -8522.905   -9331.8176            0    9018.8602    24.855775     24.90711     22.88987    14170.787    9486.1559    8271.4882    9298.9364    502.78749   -158.38082   -248.55214   -6659.0096 
11006000     212.4029   -9320.6468   -8510.8701   -9320.6468            0    7809.5819    24.868633    24.977721    22.921897    14238.206     7428.311    7735.4908     8264.944   -10.266396   -959.06434   -721.11262   -6889.2133 
11007000     206.1462   -9346.3561   -8560.4328   -9346.3561            0    8535.1138    24.844931    24.907782    22.914775    14180.399    7996.6975    8735.5824    8873.0615    161.47447   -710.38302    346.92165   -6795.3151 
11008000    209.35771   -9352.5791   -8554.4121   -9352.5791            0    8323.6303    24.852996    24.827197    23.005299    14194.965    8125.7184    7984.3353    8860.8373   -281.36987   -138.93703   -1192.9279   -6831.2625 
11009000    219.94287   -9338.4281   -8499.9056   -9338.4281            0    9047.0311    24.849915    24.855424    22.941541    14169.961    9579.4006    9356.3113    8205.3814    242.72829   -602.13816   -1155.5058   -6630.2973 
11010000    207.36318   -9322.4768   -8531.9138   -9322.4768            0    7524.7278    24.845639    24.907742    23.049523    14264.169    8728.4865    6573.8542    7271.8426     169.1733   -167.55355   -676.40329   -6966.5577 
11011000    202.00909   -9321.3544   -8551.2036   -9321.3544            0    9271.1409    24.765817    24.878599    22.968143    14151.564    9048.9147    9481.8683    9282.6397   -585.28622    283.28412   -419.19461   -6637.7695 
11012000    221.24114   -9347.2412    -8503.769   -9347.2412            0    8070.1266    24.880641    24.894072    22.915457    14193.387    7533.3017    8899.3868    7777.6914   -535.77385    97.923672   -278.46581   -6833.2852 
11013000    208.56673   -9326.9969   -8531.8454   -9326.9969            0    6578.7653    24.948969     24.89976    23.008731    14293.561    6034.8072    6973.6708    6727.8178    190.42772   -822.18201    522.05894   -7160.4562 
11014000    207.77186   -9362.8947   -8570.7736   -9362.8947            0    9232.2861     24.89201     24.84839    22.839117    14126.596     9095.614    8975.3166    9625.9277   -357.25722   -999.78682    276.28502   -6668.7204 
11015000    213.76175   -9352.4207   -8537.4635   -9352.4207            0    7528.1762    24.957563    24.929034    22.883864    14237.607    6529.5228    7691.0081    8363.9978   -126.25012   -1066.6188   -573.48485   -6974.3062 
11016000    207.11097   -9323.3028   -8533.7014   -9323.3028            0    8672.3266    24.786229    25.034685    22.862376    14186.457    9981.4243    7296.3504    8739.2051    611.38123    241.35259   -758.76425    -6739.441 
11017000    205.92863   -9317.2394   -8532.1456   -9317.2394            0    8515.8917    24.868158    24.921399    22.903965    14194.716    8430.9885    8506.0624    8610.6241   -281.47341    84.194689    852.24538   -6769.2251 
11018000    210.34319   -9365.8974   -8563.9733   -9365.8974            0    8963.0543    25.026479    24.643263    22.958505    14159.293    6862.3885    11251.647    8775.1271   -376.96624   -412.77869    415.66553   -6713.1136 
11019000    208.62166   -9346.9891   -8551.6282   -9346.9891            0    8003.6843    24.932454    24.861457    22.900506    14195.042     7682.179    8508.2889     7820.585    73.622789    267.48651   -700.92087   -6894.7045 
11020000    210.21222   -9360.0033   -8558.5784   -9360.0033            0     8653.922    24.773305     25.01883    22.831677    14151.053     9651.648    7216.8932    9093.2249     50.97162   -715.33288    145.12237   -6772.5942 
11021000    205.36105    -9332.541    -8549.611    -9332.541            0    8462.7008     24.90543    24.900878    22.842644    14166.255    7453.4904    8631.1364    9303.4755   -371.77151   -1026.0938   -294.90792   -6801.2145 
11022000    211.52851   -9318.5003   -8512.0572   -9318.5003            0    9093.4513    24.920349    24.898845    22.814694    14156.242    9499.1137    8674.7667    9106.4734    778.82817   -316.24807   -595.53791   -6634.6754 
11023000    197.73526   -9339.9078   -8586.0508   -9339.9078            0    7782.8608    24.890212     24.93299    22.901033    14212.093    7386.1537    7855.4562    8106.9723    364.44591    -175.2011    581.68937   -6972.9067 
11024000    215.73184   -9304.1176   -8481.6494   -9304.1176            0    8104.7847     24.78428    24.925382    23.012296    14216.022    9027.7307    8467.2646    6819.3589   -1097.4434   -205.74595   -283.46248   -6801.3161 
11025000    204.84598   -9316.3422   -8535.3759   -9316.3422            0    8362.8651    24.882721    24.830381    22.960924    14186.348     8063.402    8398.2495    8626.9438    138.52605   -415.30511     397.8407   -6805.1549 
11026000    210.97095   -9313.8281   -8509.5106   -9313.8281            0    8795.9084    24.825174     24.68513    23.153257    14188.608    8446.8759    10524.081     7416.768   -63.088922    1610.3316   -507.94465   -6689.4058 
11027000    212.16509   -9343.4676   -8534.5975   -9343.4676            0    7665.2312    24.789798     24.93031    23.009445    14220.236    7641.2614    7981.2803     7373.152    652.42491     464.6721   -335.98012   -6944.9239 
11028000    213.82987   -9368.5903   -8553.3733   -9368.5903            0     8222.056    24.807163    24.817823    23.050029    14190.976    7593.6623    9360.4777    7712.0278    626.17551    32.144018    438.80749   -6851.7297 
11029000    209.34487   -9356.6198   -8558.5017   -9356.6198            0    8858.0473    24.769774    24.876709    22.993778    14168.547    9557.7373    9439.9804    7576.4243   -533.17134   -499.65749    332.50274   -6728.1304 
11030000    203.79389   -9294.6117   -8517.6564   -9294.6117            0    8656.6244    24.903757    24.777763    23.031956    14212.085    7980.4426    10312.521    7676.9096     -280.521   -468.87526   -138.61482   -6723.4094 
11031000    218.27235   -9336.5876   -8504.4339   -9336.5876            0    8108.6166     24.82402     24.86703     22.99948    14197.571    8684.7986    8163.4747    7477.5764   -1338.7386   -222.10728    377.92058    -6825.488 
11032000    211.77739    -9320.007    -8512.615    -9320.007            0    8629.9966    24.802551    24.950649    22.901126    14172.127    9350.9052    9093.3781    7445.7065   -475.57861   -231.22946    -399.5743    -6728.916 
11033000    211.51903   -9337.1967   -8530.7897   -9337.1967            0    6980.1979    24.996799    24.975148    22.817482    14244.925     6731.839    7018.6887     7190.066    616.86485   -664.22746    67.813515   -7080.6702 
11034000    206.00419   -9361.5511   -8576.1692   -9361.5511            0    7678.9523    24.918721    24.950881    22.831208    14195.167    6580.3969    7936.1256    8520.3344   -219.30642    20.791119    388.42041   -6986.4574 
11035000    200.80834   -9349.7379   -8584.1649   -9349.7379            0    8509.5965    24.816036    25.068358    22.761232    14159.701    9413.4432    7112.9897    9002.3565    167.18704   -189.41241    811.72136   -6826.8931 
11036000    206.12825   -9336.3807   -8550.5258   -9336.3807            0    7856.2404    24.872992    24.978347    22.886466    14219.046    8785.9905    6636.3899    8146.3408   -609.73669    89.320888   -253.29315   -6921.3757 
11037000    211.80029   -9344.4895   -8537.0102   -9344.4895            0    8955.7744    24.954648    24.892152    22.773374    14146.248     9056.866    8462.9872      9347.47   -440.53277   -760.59035    889.45863   -6689.3577 
11038000    203.80168   -9299.2166   -8522.2316   -9299.2166            0    8380.5747    24.920113    24.931981    22.881295    14216.327    7613.4622    9268.6484    8259.6136    952.46897   -755.52427   -1642.1034   -6784.6825 
11039000    202.61899    -9338.932    -8566.456    -9338.932            0    7830.7355    24.779029    25.067236     22.85824    14198.208    8968.9197    6567.1235    7956.1633   -198.02213   -1408.6293   -451.25448   -6944.9747 
11040000    204.65299   -9331.5482   -8551.3177   -9331.5482            0    8594.5564    24.918984    24.877677    22.845079    14162.269    8009.2047    8998.7367    8775.7278    -213.6517    386.08171   -20.296926   -6776.1794 
11041000    204.08953   -9368.8827   -8590.8004   -9368.8827            0    7995.4478     24.95725    24.805636    22.909744    14182.975    8061.2755    7485.7415    8439.3265   -88.593848    417.79583    -305.1778   -6936.9888 
11042000    205.57932   -9333.9825   -8550.2204   -9333.9825            0    8053.7751    24.861956    24.921808    22.938781    14212.981    8522.3521    7891.6927    7747.2804    628.99119    151.25211   -73.855191   -6880.8198 
11043000    208.95742   -9328.8724   -8532.2314   -9328.8724            0     7185.258    24.748963    25.033941    22.987054    14241.953    8188.0631     6720.982     6646.729    -647.9968    129.00138    1132.2217   -7039.8226 
11044000    209.76892   -9345.7032   -8545.9684   -9345.7032            0    8412.7807    24.932306    24.854841    22.895717    14188.213    7560.4754    8713.8805    8963.9863   -818.70192    987.46369    441.85147   -6805.1914 
11045000    203.60091   -9368.2169   -8591.9974   -9368.2169            0    9251.3874    24.885158    24.822135     22.89853    14144.485    9322.0413    8287.5274    10144.593   -151.65934    794.45647    661.87199   -6683.5952 
11046000     216.7089   -9330.8562    -8504.663   -9330.8562            0    7733.5358    24.775497    24.978642     22.96653    14213.027    9735.1697    6296.3248     7169.113   -317.48133   -272.53715   -392.37683    -6901.637 
11047000    204.09844   -9338.7553   -8560.6389   -9338.7553            0    8338.6067    24.822938    24.931929    22.937644    14195.734     9316.393    8246.7801    7452.6471   -666.17378   -2.1985388   -198.55859   -6834.2953 
11048000    209.70533    -9360.052   -8560.5597    -9360.052            0     7505.032    24.919956    24.818557    22.970337    14206.633    7523.4784    7585.3583    7406.2593    200.80365   -611.69733    98.060713   -7005.5984 
11049000    217.36779   -9351.2798   -8522.5747   -9351.2798            0    8394.8813    24.815524    24.842939     23.03216    14199.109    10046.677    7503.1671       7634.8   -446.40857   -1464.1886    383.90982   -6784.1673 
11050000    215.67665   -9335.1133   -8512.8556   -9335.1133            0    8100.2455     24.77279    24.941291    23.000271    14211.071    9447.7783    6964.4621    7888.4961    100.85282    24.945191   -1966.8203   -6834.0481 
11051000    208.44717   -9330.4891   -8535.7934   -9330.4891            0    7974.1027    24.786862    24.839126    23.080921    14210.553    9288.7599    7699.6073     6933.941   -451.32466    299.27689    726.24612   -6883.1898 
11052000    203.06806    -9328.311    -8554.123    -9328.311            0    8151.3617    24.860272    24.808919    23.022155    14199.063     8237.756     9129.355    7086.9743     827.7903   -74.983107   -373.85421    -6866.149 
11053000    207.84772   -9339.8663    -8547.456   -9339.8663            0     7980.071    24.863649    24.856665    22.975032    14199.199    8053.5245    8476.1631    7410.5253   -291.11939   -74.218986    618.25063   -6894.9369 
11054000    210.18154   -9324.0325   -8522.7246   -9324.0325            0    9010.3687    24.845717    24.957205     22.85595     14172.51    9206.1872    8862.6339    8962.2848    359.56807   -699.51415    279.90095   -6660.3578 
11055000    211.73024   -9326.8127   -8519.6004   -9326.8127            0    7919.7755    24.970688    24.929602    22.817296    14203.979    7442.6755    7623.0806    8693.5704    340.22166    585.94852   -1039.3181   -6879.0152 
11056000    213.31452    -9325.498   -8512.2458    -9325.498            0    8285.9502    24.924372    24.927236      22.8645    14205.616     7843.707    8755.3643    8258.7794    210.80423    93.678196    123.46242   -6795.6095 
11057000    207.92539   -9327.8026   -8535.0962   -9327.8026            0    8680.8156    24.841281    25.005467    22.796131    14160.223    9256.4542    7597.8464    9188.1462    309.59528   -68.630968    98.520378   -6742.4008 
11058000    202.70588   -9330.4671   -8557.6599   -9330.4671            0    8123.8304    24.931245    24.936562    22.852232    14207.222    7969.7815    7877.7771    8523.9327    950.31835   -532.50245   -198.69485   -6874.4204 
11059000    204.49396   -9327.3748   -8547.7506   -9327.3748            0    8305.2858     24.91537    24.960893    22.839881    14204.348    7830.3798    7883.4156    9202.0622   -20.800217    443.02722   -495.76171   -6827.2621 
11060000    203.84139   -9358.3805   -8581.2442   -9358.3805            0    8574.1663    24.827989    24.931725    22.892574    14170.609    8918.8779    7362.8541    9440.7668   -624.60199    155.47781    373.42079   -6809.2745 
11061000    206.95047   -9349.3502   -8560.3606   -9349.3502            0    8467.7634    24.861387    24.847367    22.937779    14169.584    8716.3902    8693.0571    7993.8428   -721.14113   -168.27444     680.3363   -6810.5071 
11062000    211.71527   -9356.0419   -8548.8867   -9356.0419            0    7693.0648    24.824685    24.870502    23.017895    14211.303    7715.2805    7373.8841    7990.0298    38.148594   -301.65757     -335.259    -6954.443 
11063000     211.3692   -9308.1191   -8502.2833   -9308.1191            0    8762.5393    24.753087    24.819767    23.096752    14189.856    9175.7031    9592.3915    7519.5232    145.69428    556.82826    210.35083    -6688.924 
11064000     210.5455   -9333.5471   -8530.8516   -9333.5471            0     9617.761     24.79913     24.83332    22.962451    14141.305    10153.164    10033.744    8666.3749   -510.12059    814.48386    1365.2565    -6547.319 
11065000    203.77684   -9358.8804   -8581.9902   -9358.8804            0    7697.7867    24.906232    24.871505    22.949523    14216.207    6952.5312    8393.5018    7747.3271   -960.38743    897.02009   -506.92728   -6986.0173 
11066000    211.98516   -9285.4379   -8477.2538   -9285.4379            0    9486.6985    24.864728     24.93643    22.835069    14158.601    9398.4876     8877.462    10184.146    492.88213   -149.54066   -596.05045    -6518.358 
11067000    202.55897   -9345.1372   -8572.8901   -9345.1372            0    8204.8146    24.766727    25.015004    22.880731    14175.523    7862.5458    7591.6021    9160.2959    166.57701    -142.4744   -302.81255   -6876.6639 
11068000     205.2234   -9355.8826   -8573.4774   -9355.8826            0    8139.2245    24.901069    24.780179    23.004697    14195.116     7786.754    9044.6794      7586.24   -881.98312   -333.69576   -371.72242   -6888.4853 
11069000     211.0277    -9379.993   -8575.4591    -9379.993            0    7572.0752    24.927544    24.817839    22.933687    14187.874    7345.0436     8264.246    7106.9359    440.59617   -582.06145    -179.1112   -7008.6787 
11070000    205.31375    -9343.556   -8560.8064    -9343.556            0    8280.2818    24.774018    24.988922    22.928954    14194.765    9002.3311    7524.0091    8314.5052    -426.9713    137.16304   -64.363406   -6846.6548 
11071000    212.67373   -9355.1089   -8544.2997   -9355.1089            0    8154.8712    24.815833    24.954087    22.915705    14190.698    8232.0421    7464.7957    8767.7758   -289.88725    597.48574   -184.07277   -6856.5938 
11072000    214.31523   -9330.9605   -8513.8931   -9330.9605            0    9596.1795    24.760724    24.972806    22.860249    14135.515    11667.575     8011.275    9109.6884   -238.45555   -152.24326   -228.02202   -6535.6216 
11073000    204.89005   -9389.3681   -8608.2338   -9389.3681            0    6775.6176    24.880308    24.975101    22.882207    14218.734    7310.4296    6500.2311    6516.1919   -748.08619    208.55544    531.69484   -7203.2035 
11074000    211.37713    -9330.703    -8524.837    -9330.703            0    9536.4383    24.917123    24.937521     22.80218     14168.62    9684.8126    8924.3977    10000.105     607.9491   -272.32356    -431.0327   -6554.2771 
11075000    213.62984   -9327.4255   -8512.9711   -9327.4255            0    8761.4827    24.849188    24.905147    22.916147    14182.177    9086.3661    8447.2736    8750.8083   -1126.3459   -200.91637    315.68718   -6700.8117 
11076000    206.48974    -9323.467   -8536.2339    -9323.467            0     8942.944    24.780503    24.990509     22.85501    14153.591    9467.2259    7749.6572    9611.9489    -245.0524   -677.15324    136.39851   -6690.2708 
11077000    206.06722   -9361.0624   -8575.4402   -9361.0624            0    7908.2671    25.003506    24.902453     22.76724    14175.991    7180.9668     8020.119    8523.7154   -323.52624      1014.06   -624.62896    -6940.467 
11078000    208.28954   -9307.5567    -8513.462   -9307.5567            0    8231.5283    25.045535    24.950408    22.750695    14216.826    8150.2596    7863.1282    8681.1971    -1073.918    286.06102   -549.07164   -6806.7548 
11079000     198.1034   -9309.9076   -8554.6471   -9309.9076            0    8592.2492    24.923443    24.892245    22.873197    14190.542    7555.2453    9531.7516    8689.7506   -540.06285    358.87537    676.49176   -6776.4425 
11080000    214.54812   -9363.0022   -8545.0469   -9363.0022            0    7786.4665    24.919618    24.897675    22.876108    14193.265    6842.1371    7794.0161    8723.2464    76.830593   -987.12033    998.63266   -6933.2934 
11081000    215.92014   -9340.2528   -8517.0668   -9340.2528            0    7511.3322    24.779253     25.13451    22.821279    14213.421    8823.5127    5464.2487    8246.2353   -160.72528    513.41816   -1123.1254   -6960.0565 
11082000     208.2007    -9336.199    -8542.443    -9336.199            0    9455.5209    24.805473    24.889542    22.915109    14147.717    9128.0646    9726.3227    9512.1755    745.88487    681.72119    1024.7009    -6591.486 
11083000    203.88899   -9362.4694   -8585.1516   -9362.4694            0     7978.843    24.926676    24.743783    23.030544    14204.785     6757.539    10128.191    7050.7989    405.35964   -745.44436    41.692135   -6932.2368 
11084000    212.90806   -9319.2887   -8507.5861   -9319.2887            0    8161.7242    24.838484    24.939591    22.922038    14199.323    8246.1306    8562.6753    7676.3666     36.82802   -25.114367   -332.54928   -6817.4354 
11085000    202.68539   -9331.3532   -8558.6241   -9331.3532            0    7812.8754    24.791316    25.032927    22.908145    14216.776     8435.797      6901.86    8100.9692    375.83082    42.668005    1309.6758   -6938.7252 
11086000    208.28694   -9325.9001   -8531.8153   -9325.9001            0    8861.7007     24.92452    24.796714    22.937524    14176.449    7985.2834    9495.1858     9104.633   -461.73146   -232.45848    599.37839   -6699.6678 
11087000    207.81005   -9329.0265   -8536.7598   -9329.0265            0    8636.2662    24.894241    24.858449    22.912539    14179.017     8194.147    9161.5432    8553.1083    316.42913   -244.31912    365.65597   -6750.8973 
11088000    205.84201   -9296.9759   -8512.2123   -9296.9759            0    8857.2601    24.832843    24.921371    22.904845    14175.087    8952.8554    8240.6153    9378.3096   -270.86437   -456.41775    125.90797   -6681.1588 
11089000    206.62144   -9374.9343   -8587.1991   -9374.9343            0     8671.472    24.966106     24.82753    22.839467    14156.969    6894.0177    9340.0321    9780.3661   -174.77009   -63.462023   -1365.2596   -6796.8447 
11090000    208.23079   -9335.2104   -8541.3397   -9335.2104            0    7558.8677    24.971289    24.917115    22.900112    14248.735    6598.7459    8030.8347    8047.0225   -317.72876   -943.77683   -147.72124   -6970.5829 
11091000    201.13355   -9334.3112   -8567.4984   -9334.3112            0    9080.9763    24.806095    24.981195    22.810378    14135.269    9692.2108    8098.9924    9451.7257    424.66239    43.932909    174.01268   -6695.4696 
11092000    213.84202   -9347.9544   -8532.6911   -9347.9544            0    7806.8388    24.866424    24.981324    22.863771    14202.887    7941.9182    6806.8546    8671.7436    335.47831   -189.57779   -93.251159   -6915.6251 
11093000    210.54855   -9339.7189   -8537.0118   -9339.7189            0    7171.5646    24.977514    24.864516    22.899965     14222.11     6311.159    7947.6597     7255.875    455.17697   -858.30384   -151.56092   -7049.5226 
11094000    208.72011    -9346.353   -8550.6167    -9346.353            0    8391.6265    24.822204    25.005556    22.853566    14185.049    8445.9975     8636.251    8092.6309   -228.06892    513.08441    62.028307   -6814.6042 
11095000    203.44548    -9369.298   -8593.6711    -9369.298            0    8523.3712    24.750501    24.891587    22.992874    14165.433    9705.5214    7768.4242    8096.1681   -581.90807    -344.0163   -643.38043   -6832.8422 
11096000    205.34073   -9323.9011   -8541.0486   -9323.9011            0    8354.7266    24.871293    24.880206    22.939798    14195.214    7659.7213    8495.1822    8909.2763    12.813524   -1593.6112   -596.79372   -6811.4311 
11097000    210.89001   -9325.4773   -8521.4684   -9325.4773            0    8367.3709    24.835237     24.85748    23.002974    14200.688    9297.4875    8558.1909    7246.4343   -388.94621   -963.77051    375.63031   -6788.5652 
11098000     201.8709   -9361.3641   -8591.7401   -9361.3641            0    8001.7649     24.78645    24.871273    23.040862    14204.013    9315.3692    7763.7777    6926.1478   -520.10492   -683.40649   -1066.5918   -6934.1668 
11099000    204.36389     -9308.96   -8529.8317     -9308.96            0    7834.2198    24.889178    24.786046    23.067614     14230.51    7073.5448    8564.4232    7864.6915   -367.43211   -803.19892    86.035377   -6903.9381 
11100000    208.47683    -9383.411   -8588.6022    -9383.411            0    6735.2872    24.793147    24.882543    23.105653     14254.26    7846.1155    6184.5949    6175.1513    99.613881    472.52532   -188.66928   -7188.4454 
11101000    212.17481   -9358.5291    -8549.622   -9358.5291            0    10032.949    24.686607    24.905736    22.919309    14091.665    10852.194    9990.0731    9256.5792    212.87218    -998.9877    251.20334   -6487.7258 
11102000    211.13932   -9313.3851   -8508.4257   -9313.3851            0    9108.8243    24.841157    24.812556    22.989168    14169.893    8741.3368    8974.5325    9610.6035    916.05967   -201.52986    -1033.175   -6626.0566 
11103000    211.24026   -9346.0901   -8540.7459   -9346.0901            0    7390.2246    24.860868     24.85283    23.033344    14231.449    8487.0239     7511.399    6172.2508    435.50002    447.33294    872.45269   -7006.8968 
11104000    210.33048   -9348.4643   -8546.5886   -9348.4643            0    8549.4895    24.776439    24.861397    22.994621    14164.155    8580.4235    8616.0995    8451.9456   -740.94428   -1167.5306   -543.45679   -6780.5234 
11105000    206.18482    -9318.354   -8532.2834    -9318.354            0    7353.0083    24.866237    24.869759    23.059481    14260.383    6958.8341     7282.083    7818.1078   -21.780484    962.64963    404.10331   -7003.0558 
11106000    207.34283   -9356.6633   -8566.1779   -9356.6633            0    8888.3564    24.700324    24.875716    23.003418     14134.18    10303.427    9373.4218    6988.2203   -14.159596   -954.86541    -524.9638   -6733.9986 
11107000    209.14404   -9343.6139   -8546.2615   -9343.6139            0    8045.6665    24.799966    24.906371    22.998969    14205.938     8491.795    8456.0111    7189.1934   -71.318342   -162.42739     269.7545    -6879.368 
11108000    202.90264   -9321.0273   -8547.4699   -9321.0273            0    8852.8129    24.795364    24.877121    22.963607    14164.808    9258.4591    9074.8147    8225.1647    958.96147   -226.86434    732.70453   -6718.6628 
11109000    207.02955   -9340.6336   -8551.3426   -9340.6336            0    8568.6387    24.895117    24.889853    22.920271     14202.22    8411.0456    8443.3232    8851.5475   -40.630083      639.078    997.66772   -6776.5649 
11110000     214.2557   -9384.6211   -8567.7806   -9384.6211            0    7704.0503    25.016034    24.789915    22.886186    14192.762    6328.9939    9657.4943    7125.6628    124.35997   -149.18582    -144.3583   -6973.1433 
11111000    211.03774   -9347.4006   -8542.8285   -9347.4006            0    8368.5405    24.869668     24.93873    22.865137    14181.368    9613.5362    7605.3922     7886.693    230.76944    -925.0438   -669.36912   -6812.0411 
11112000    209.61235   -9328.5588    -8529.421   -9328.5588            0    7430.8328     24.94056     25.01265    22.822772    14237.518    7173.6932    6900.3158    8218.4893   -483.70944   -378.79788   -970.22366   -6986.4858 
11113000    212.83107   -9357.2484   -8545.8393   -9357.2484            0    8231.8251    24.947569    24.865492    22.862412    14182.322    7104.8384    8591.9912    8998.6457      200.788    274.32487    236.66532   -6843.2128 
11114000    216.92708   -9314.2998   -8487.2748   -9314.2998            0    8739.0011    24.994209    24.866652    22.810105    14176.989    8076.2669     8427.174    9713.5622   -547.45397    640.66885    472.46921   -6680.4266 
11115000    211.66892    -9311.004   -8504.0256    -9311.004            0    8178.9432     24.78578    25.047198    22.879889    14204.163    8624.4163    6768.7259    9143.6875   -310.51769   -844.52764   -854.30207   -6809.7317 
11116000    205.38583   -9346.5475    -8563.523   -9346.5475            0     8265.421    24.898048    24.875737    22.886317    14174.807    7626.9469    9160.9972    8008.3189   -332.69436   -469.90065   -595.52477   -6854.8536 
11117000    207.10929   -9382.4682   -8592.8731   -9382.4682            0    8210.3647    24.849397    24.894885    22.919118    14178.291    7434.6325     8678.393    8518.0685    51.729948   -1388.0943    350.37793   -6895.1681 
11118000     198.3565   -9348.6867   -8592.4613   -9348.6867            0    8249.6885     24.75773     24.92817    23.017349      14205.5    8769.8645    7129.2097    8849.9914   -486.43922   -1343.3337    507.75457   -6883.3515 
11119000    209.20073   -9345.0288   -8547.4602   -9345.0288            0    8534.7478    24.862312     24.80736     22.99075    14179.966     8044.558    9670.9654    7888.7201    -356.3374    660.55114   -28.383671   -6782.4721 
11120000    205.51779   -9342.0838   -8558.5563   -9342.0838            0    7991.4991    24.798321    24.853741    23.037809    14198.917    7815.3384    8767.5051    7391.6538    240.02528   -9.5787605    181.28782   -6903.7035 
11121000    207.39784   -9338.4489   -8547.7538   -9338.4489            0    8255.5625    24.806159    24.851728    23.025322    14194.557    9861.3473    7629.3783     7275.962   -296.63838    132.69155   -189.33725   -6838.7446 
11122000    214.02176   -9340.8102   -8524.8616   -9340.8102            0    8163.9789    24.884337    24.632614    23.181845    14209.689    8021.1893    10202.219    6268.5284      81.7822   -76.650116   -162.05318   -6833.0097 
11123000    197.61499   -9317.0019   -8563.6035   -9317.0019            0    8179.6247    24.840829    24.838785    23.046558    14220.095    8617.7456    8895.7668    7025.3616    331.89436    103.64687   -214.93579   -6867.2679 
11124000    216.14298   -9343.7755   -8519.7399   -9343.7755            0     8273.884    24.885775    24.856801    22.949499    14196.119    8688.1212     7906.474    8227.0569   -220.35757   -878.85419    482.93983   -6806.7494 
11125000    211.42514   -9307.7752   -8501.7262   -9307.7752            0    8470.9845    24.880219    24.919935    22.895658    14195.616    8720.9337    8873.2309     7818.789    40.235434   -144.23217    114.85364    -6747.991 
11126000     204.3903   -9329.6973   -8550.4683   -9329.6973            0    8007.4771    24.855272    25.043457    22.828483    14209.862    8008.5094    7423.8876    8590.0343   -597.27718    -739.9805   -974.09187   -6891.0287 
11127000     205.7901   -9322.0208    -8537.455   -9322.0208            0     7897.069    24.961956    24.926789    22.852374    14219.236     8707.097    7443.3711    7540.7389   -554.23219    40.325038     168.4269   -6899.8164 
11128000    206.02783    -9333.344    -8547.872    -9333.344            0    9319.9168    24.902239    24.872097    22.825855    14137.671     8563.781    9115.5455    10280.424  -0.92322747    146.59434     26.70393   -6626.2596 
11129000    203.69061   -9308.4465    -8531.885   -9308.4465            0    7818.7279     24.97912    24.959916    22.794547     14211.87    7652.5182    7991.7651    7811.9003    378.31422   -357.20046    232.38872   -6911.3321 
11130000    208.79216   -9372.1718   -8576.1609   -9372.1718            0    8888.6672    24.924073    24.865841    22.806336     14134.41    7424.9332    9703.4824    9537.5859   -229.15332    768.97886   -495.37662   -6743.8878 
11131000    205.46487    -9363.246   -8579.9202    -9363.246            0    7696.9932    24.878966    24.844629    22.984124    14206.687    7207.5033    7720.3083    8163.1679   -607.88321    952.49336    455.03104   -6985.1806 
11132000     206.0702   -9332.1729   -8546.5393   -9332.1729            0    9298.7463    24.803714    24.837247    22.970681    14151.225    8072.9084    10370.047     9453.283    135.28118    467.29952   -346.63475   -6627.4538 
11133000    209.61399   -9352.9839   -8553.8397   -9352.9839            0    8230.6913    24.793454     24.81022    23.072892    14192.852    8533.6816    8812.1872     7346.205   -613.29203    376.78477   -133.61414   -6850.1839 
11134000    205.14318   -9362.6419   -8580.5426   -9362.6419            0    8079.8473    24.801581    24.823752    23.035975     14182.52    9745.7295    7480.9009    7012.9116    -85.22141   -571.69149    1261.7947   -6909.3271 
11135000    202.45935   -9368.3053   -8596.4379   -9368.3053            0    7213.2795    24.874597    24.829209     23.03512    14226.872    7369.0487    7262.5827    7008.2071    366.50302   -448.03363   -746.73154   -7099.7954 
11136000    213.29553   -9346.3458   -8533.1659   -9346.3458            0    9436.5601    24.827836    24.795688    22.973024    14142.729    8553.8944    10031.063     9724.723   -136.58273   -1391.6933   -530.78716   -6586.8076 
11137000    200.44377   -9326.6842   -8562.5011   -9326.6842            0    8599.7453    24.801046    24.928895     22.94098    14183.551     8152.049    9406.5559    8240.6309    447.17352    1441.3157    250.63475   -6783.6219 
11138000    205.18579   -9330.2977   -8548.0359   -9330.2977            0    8067.6731    24.860258    24.837139    23.026182    14217.693     8230.817    8290.4973     7681.705   -209.04605   -850.79372   -271.64758   -6875.2001 
11139000    201.52581   -9347.1777   -8578.8694   -9347.1777            0    8450.8723    24.877712    24.805785    23.001614    14194.553    8508.2719    9279.7674    7564.5777   -426.14593    706.16112   -50.320124   -6829.4289 
11140000    208.33044   -9343.4423   -8549.1917   -9343.4423            0    7859.6375    24.881412    24.829793    22.994076    14205.747    8613.7119    7634.1715    7331.0291   -158.00185   -1172.0125    256.68827   -6920.8615 
11141000    212.28387   -9377.1815   -8567.8586   -9377.1815            0    8464.2965    24.796622    24.911802    22.888801    14139.065    8744.1697    7547.8791    9100.8406    332.76178   -268.36972   -1248.9271   -6822.4888 
11142000    203.82317   -9356.2041   -8579.1373   -9356.2041            0    7444.4218    24.890417     24.98241    22.893956    14235.979    6801.4294    7799.4878    7732.3482   -231.53915   -161.22984    232.59614   -7033.5476 
11143000    203.91185   -9313.8762   -8536.4712   -9313.8762            0    9847.5351    24.851011    24.887376    22.813625     14109.69    8976.0644     9939.325    10627.216    780.53206    281.41177    418.20069   -6510.0912 
11144000    205.20019   -9337.1533   -8554.8366   -9337.1533            0    7946.7473    24.939262    25.034304    22.750922    14204.244    8396.5186    6283.5635      9160.16   -683.92443   -620.05145    911.55548   -6908.6335 
11145000    220.84684   -9346.3893   -8504.4204   -9346.3893            0    7832.6587    24.984757      24.8779    22.877099    14219.679    7264.3541    8181.4114    8052.2107   -508.72216    329.15437    1328.7919   -6880.0881 
11146000    204.56008   -9329.4954    -8549.619   -9329.4954            0    9479.8181    24.880289     24.93317     22.81133    14150.882    8537.2563    8798.9145    11103.283   -241.69198    122.65529    1237.4556   -6593.2111 
11147000    204.11055   -9329.7436   -8551.5811   -9329.7436            0     8346.948    24.829767    25.006066    22.875243    14203.119    8061.0646    7612.4462    9367.3331   -495.46691   -722.63778    712.01698   -6822.6117 
11148000    207.97213   -9383.9252   -8591.0406   -9383.9252            0    7260.8472     24.87159    24.932866    22.937091     14223.75    6894.9147    7042.1269    7845.5001   -260.86358   -649.82033    945.06742   -7084.8592 
11149000    212.84556   -9356.2232   -8544.7589   -9356.2232            0    8441.7722    24.980559    24.793774     22.88999    14177.198    7244.4711    9388.9459    8691.8995    1140.4381    137.72082    695.21716   -6799.3391 
11150000    203.89097   -9341.5615   -8564.2361   -9341.5615            0    7928.3472    24.933304    24.847934    22.950699    14218.901    7149.7219     8529.898    8105.4216    -153.9503    134.53927    460.35286   -6920.1499 
11151000    207.91239   -9337.5254   -8544.8685   -9337.5254            0     7481.395    24.851102     24.96482    22.974583    14253.506    6782.7573    7930.9841    7730.4435   -1070.4861    300.03009     1086.378   -6989.6902 
11152000    207.34685   -9343.0915   -8552.5907   -9343.0915            0    9965.4432    24.791008    24.854113    22.875619    14095.007    9683.1178    9935.0188    10278.193   -747.10506   -326.11018    66.242409   -6504.0821 
11153000    206.05797   -9330.6503   -8545.0634   -9330.6503            0    6397.9065    24.941723    24.908559    23.000264    14289.198    6856.8647     7048.776    5288.0788   -1070.1796    222.25604   -347.86399   -7211.7825 
11154000    209.31371   -9374.6016   -8576.6023   -9374.6016            0    8644.0176    24.850882    24.788201    23.008207    14173.255    9646.5128    8530.5959    7754.9441   -966.84496    907.60472   -474.76074   -6789.8632 
11155000    210.01185   -9357.0278   -8556.3668   -9357.0278            0    7632.4067    24.889732    24.924811    22.899858    14206.427    7694.0198    7564.8726    7638.3277   -41.382752   -555.93861   -357.24351   -6975.0377 
11156000    197.02293   -9371.3768   -8620.2356   -9371.3768            0     9166.634    24.736373    24.975359    22.870667    14129.493    10167.374    8427.2807    8905.2471    7.8447629   -79.387431    858.22994   -6731.3208 
11157000    208.08716   -9353.4716   -8560.1485   -9353.4716            0    8199.2394    24.933379    24.839435    22.909483    14188.554    7699.1206    8956.1862    7942.4112   -587.37125     328.7879    438.75958   -6863.5167 
11158000    207.65602   -9334.3865    -8542.707   -9334.3865            0     8456.604    24.923624    24.782954    22.942179    14170.949     6682.379    10053.634    8633.7994   -217.33007   -521.80362    909.91082   -6794.9912 
11159000    214.33385   -9339.1243   -8521.9859   -9339.1243            0    8282.3865    24.784502    25.034915    22.844762     14174.67    9050.5826    7442.6777    8353.8992    91.607073    33.345754   -102.97328   -6809.8259 
11160000    208.25164   -9338.7976   -8544.8474   -9338.7976            0    9622.7027    24.848776    24.855737     22.84986    14112.865    10469.157      8641.27    9757.6811    687.76278   -262.59103   -1304.9275   -6564.2867 
11161000    203.81491   -9369.2172   -8592.1818   -9369.2172            0    7952.8449    24.892723    24.866182    22.920012    14187.189    8297.3695    7221.1782    8339.9869   -529.86769   -325.93163    1409.5982   -6946.6937 
11162000     207.3873   -9345.6593   -8555.0043   -9345.6593            0    7876.6067    24.737332     25.02125    22.922273    14187.946    8194.8584    7110.0493    8324.9123    243.99033    782.84305    37.567971   -6925.2033 
11163000    208.23867   -9330.1899   -8536.2891   -9330.1899            0    8557.4516    24.820512    24.902027    22.950655    14185.366     8520.305    9471.8976    7680.1522   -454.79402    477.01946    418.83056    -6765.932 
11164000    203.58141   -9334.2216   -8558.0764   -9334.2216            0    9496.5413    24.904684    24.830638    22.823766    14114.198    7827.4451    10374.232    10287.947    304.75755    190.62027     855.6057   -6603.2979 
11165000    202.97025   -9325.9205   -8552.1054   -9325.9205            0    7701.5113    24.923124    24.921312    22.889307    14216.937    6472.0156    7963.5492    8668.9693   -950.22206    107.75646   -445.90744   -6955.2783 
11166000    211.08039   -9317.3929   -8512.6581   -9317.3929            0    8049.5033    24.754821    25.103623    22.863771    14208.363    8753.5385    6364.8635    9030.1079    230.52274    273.64624    454.16822   -6844.6851 
11167000    198.66357   -9353.9351    -8596.539   -9353.9351            0    7998.7459    24.869296    24.898973    22.915633    14189.817    7476.5694    8404.7224    8114.9459   -472.08694   -643.07134    341.51641   -6941.2471 
11168000    214.91681    -9328.684   -8509.3231    -9328.684            0    8612.2308    24.924608    24.834543    22.885516    14165.934    8097.3125    8710.6096    9028.7704   -99.692212    374.16322   -260.36453    -6730.074 
11169000    210.94922   -9346.9082   -8542.6736   -9346.9082            0    8027.5244    24.900478    24.870668    22.928027    14199.132    8050.3658    8211.8721    7820.3353   -23.691458   -205.68886   -792.22817   -6880.3356 
11170000     206.9384   -9351.9797   -8563.0361   -9351.9797            0    8563.0975    24.838558    24.894577    22.943187    14186.814    8300.1099    8125.6432    9263.5395   -324.74006    -635.8483    275.50513   -6791.3301 
11171000    202.28444   -9325.7521   -8554.5515   -9325.7521            0     8213.206    24.867701    24.946484    22.864139    14184.036    9360.0512    7778.7639    7500.8027    -257.8511   -490.57786    861.13533   -6855.5709 
11172000    210.55021   -9358.4983   -8555.7849   -9358.4983            0    7828.2353    25.007581     24.87764    22.806176    14188.397    7264.4549    7935.6188    8284.6323   -83.817209    533.38759   -146.42515   -6935.9413 
11173000    206.62648   -9332.7014    -8544.947   -9332.7014            0    8671.6595    24.880516    24.964168    22.830496    14180.509    8637.2707    7665.3604    9712.3474   -409.47876    -16.98073    598.06498   -6751.5769 
11174000    202.28734   -9339.5524   -8568.3408   -9339.5524            0    7907.7505    24.804096    25.042715    22.860853    14200.291    8836.6851    6823.9977    8062.5686   -185.96484   -622.27115    201.02703   -6930.6719 
11175000    210.36902    -9350.007   -8547.9843    -9350.007            0    8035.9935    24.841591    24.895452    22.933917    14183.312     7969.463    8290.1304    7848.3871   -652.27374   -664.12342    833.38234   -6885.7467 
11176000    201.46484   -9342.1024   -8574.0265   -9342.1024            0    7230.3347    24.877168    24.840108    22.993277    14208.731     6915.292    8166.8278    6608.8842    132.14623    237.74518    15.087656   -7075.7583 
11177000    206.83946   -9325.7576   -8537.1913   -9325.7576            0     7977.295    24.866119    24.827493    22.997786    14197.991    7597.3166    8541.8412    7792.7272   -367.82828    857.98455    862.90298   -6885.3875 
11178000    206.62679    -9349.829   -8562.0735    -9349.829            0     7190.635    24.758646    24.917022    23.088394    14243.501    8148.4577    6961.3029    6462.1442    241.81964   -312.89472    228.61049   -7068.3855 
11179000    211.02977   -9362.4627    -8557.921   -9362.4627            0    7712.7289    24.859409    24.880512    22.996547    14223.705    8280.8575    7385.6151    7471.7139    -959.4431   -1313.5532    643.20659   -6958.0068 
11180000    204.71454   -9358.6386   -8578.1734   -9358.6386            0    7813.0557    24.810263    24.960307    22.946325    14210.012    8081.8439    7121.3257    8235.9977   -221.28864   -1564.2854    210.01589   -6959.0079 
11181000    206.52627   -9338.7602   -8551.3879   -9338.7602            0    8158.3073    24.852711    24.883203    22.922853    14175.837    8578.8213    8094.4997    7801.6007   -342.63743   -484.40516    1136.1117   -6864.7391 
11182000    207.40454   -9304.4863   -8513.7656   -9304.4863            0    9643.1784    24.938493    24.771257    22.888651    14139.643    9430.6862    9667.1951    9831.6538    345.61253   -21.442038    443.80326   -6525.2247 
11183000     212.0432   -9363.6657   -8555.2604   -9363.6657            0    7918.8014     24.86273    24.912546    22.948936    14214.431    8155.8112    7988.7845    7611.8086      211.778    222.18178    226.34205   -6913.6699 
11184000    206.61379   -9331.5807   -8543.8747   -9331.5807            0    9051.3734    24.781774       24.973     22.84298    14136.955    10114.407    9042.8909    7996.8221   -861.69292   -668.56018    824.84074   -6677.7261 
11185000    214.61955   -9327.5519   -8509.3243   -9327.5519            0    7457.7671    24.827975    24.920339    23.016099    14240.557    7232.6631    8215.4505    6925.1877    556.35216   -578.06771    409.24092   -6960.4661 
11186000    210.25396   -9317.1243   -8515.5403   -9317.1243            0    8530.7312    24.871233    24.743194    23.050863    14185.357    7032.2875      10935.9    7624.0062    212.56103    140.67944    893.73012   -6750.7121 
11187000    207.36889   -9380.9354   -8590.3507   -9380.9354            0    7614.9204    24.862811    24.898115    22.959563    14212.822    7648.1826    8631.5143    6565.0642   -138.13315   -363.72207    496.35267   -7011.9343 
11188000    217.82196   -9353.1842   -8522.7476   -9353.1842            0    7231.1501    24.740222     25.00636     23.00635    14233.175    8367.9015    6913.1407     6412.408    326.09479   -268.87162   -190.94053   -7021.7325 
11189000    204.25628   -9366.6107   -8587.8926   -9366.6107            0    8806.7251     24.82804    24.823028    22.923735    14128.062    8664.3239    9364.9971    8390.8544   -702.62289    136.64164    135.26298    -6773.326 
11190000    213.02356   -9325.9749    -8513.832   -9325.9749            0    6940.5691    24.984154    24.795367    23.017739    14259.288    6266.2369    8664.5642    5890.9063    424.46022   -1235.0647   -568.11332   -7070.4914 
11191000    209.17722     -9328.28    -8530.801     -9328.28            0    8946.5262    24.881008    24.861571    22.896321    14163.228    8187.2416    9401.7983    9250.5386     356.4356     690.6392    145.47896    -6682.841 
11192000    205.42894   -9319.9703   -8536.7815   -9319.9703            0    7230.9987    24.911576    24.928098    22.955544    14255.352    8771.9275    5926.3935    6994.6752    63.406995    389.31171   -1189.5635   -7033.4591 
11193000    210.49329   -9353.8743   -8551.3779   -9353.8743            0    8600.5358    24.853721    24.894292    22.903334    14170.654    8957.6309    7867.5942    8976.3823   -322.79442   -557.44935    352.95748   -6773.9528 
11194000    207.58268   -9348.9503   -8557.5504   -9348.9503            0    7633.1794    24.911659    24.941883    22.872126    14211.451    7345.2385    7133.1888     8421.111    371.83616   -1112.8764    236.95306    -6975.502 
11195000    209.20628   -9342.9557    -8545.366   -9342.9557            0    9774.2699    24.933213    24.847596    22.775489    14110.108    9112.5597    10363.051    9847.1994   -844.15256    847.41654    493.39194   -6534.0026 
11196000    207.68613    -9325.169   -8533.3747    -9325.169            0    7928.4896    24.890495    24.903102    22.906964    14198.894    7023.7691    8268.2912    8493.4084     639.9662   -129.97447   -229.54134   -6891.5724 
11197000    205.06791   -9334.8582   -8553.0458   -9334.8582            0    7198.6913    24.920835    24.943152    22.872329    14217.535    7163.0212    6599.6722    7833.3806   -369.07392     -438.655    478.72652   -7060.4104 
11198000    206.23834   -9319.9322   -8533.6576   -9319.9322            0    9188.1783    24.913104    24.887265    22.785502    14127.445    7914.0593    9964.7621    9685.7136    759.02341   -84.830666    636.43575   -6640.5778 
11199000    208.48641   -9315.4848   -8520.6395   -9315.4848            0     7947.201    24.815104    24.978133     22.95129    14226.013    9108.8021    7826.2603    6906.5405   -257.04294   -1329.8371    -510.5896   -6871.8194 
11200000    207.73723   -9338.4092   -8546.4201   -9338.4092            0    8355.4684    24.957291    24.758078    22.982442    14200.726      7435.72    8763.8759    8866.8092   -508.27996   -1247.9613    623.31676   -6815.9773 
11201000     212.4699    -9325.079   -8515.0468    -9325.079            0    9263.0223    24.906625    24.796017    22.945533    14170.819    9572.6945    9082.1728    9134.1996   -619.72028    713.39994   -100.41937   -6600.6871 
11202000    202.91867   -9332.9707   -8559.3522   -9332.9707            0    8774.7199    24.784463    24.926047    22.935191    14168.872     10405.07    7845.3417    8073.7479     76.43354   -1011.1789   -289.01008   -6746.1575 
11203000    201.96643    -9357.927   -8587.9389    -9357.927            0    8093.9604    24.734603    24.925115    23.050277    14210.791    9846.2423    7047.3841    7388.2549   -613.37169   -1385.6257    417.28129   -6910.4671 
11204000    218.37621   -9356.3749   -8523.8252   -9356.3749            0    9410.3738    24.800775    24.786823    22.975141    14123.564    10004.094    9631.2767    8595.7507   -365.51749   -1602.4929    669.24239   -6585.4981 
11205000    205.85877   -9356.4605    -8571.633   -9356.4605            0    8230.1861    24.915629    24.833184    22.920065    14181.432    7897.7142    8672.3176    8120.5267   -146.51932    938.31912   -1158.9478   -6869.4523 
11206000    198.58899    -9375.506   -8618.3942    -9375.506            0    8468.9899    24.949919    24.891331    22.810273    14166.016    8151.4057     8500.067    8755.4969   -479.69677   -101.25414   -482.29112   -6868.7278 
11207000    209.70433   -9346.3183   -8546.8298   -9346.3183            0    8049.6194    24.917948     24.90692    22.845645    14178.678    7349.9348    8268.2504     8530.673   -490.50687    601.10541   -690.58489   -6882.3176 
11208000    204.01141   -9326.0995    -8548.315   -9326.0995            0    8191.7292    24.872954    24.953904    22.848496    14181.543    8725.7328    7676.3813    8173.0734    82.844062    1400.3159      969.504   -6854.0749 
11209000    212.09077   -9329.8125   -8521.2257   -9329.8125            0    8667.9614    25.004324    24.853872    22.823092    14183.508    7295.7676     9459.478    9248.6385    590.32545    603.45304    -425.1176   -6728.2413 
11210000    211.93733   -9342.7949   -8534.7931   -9342.7949            0    8457.1139    24.875941    24.891082    22.897003    14177.574    8801.9579    8678.8578    7890.5259     220.5497    399.55571    1057.9069   -6786.1547 
11211000    205.63107   -9314.1394     -8530.18   -9314.1394            0    7734.4158    24.757753    25.083929    22.912671    14229.266    9386.5133    6256.5336    7560.2006    365.89972    670.88884    697.36396   -6925.1398 
11212000    202.08391   -9321.6501   -8551.2141   -9321.6501            0    8935.4263    24.851335     24.88406    22.929947    14179.928    8918.5091    9439.6699       8448.1   -20.977914    259.68153    966.26324   -6703.3705 
11213000    205.57165   -9333.2864   -8549.5535   -9333.2864            0    9691.8957    24.905674     24.70361     22.96523    14129.589    8061.3007    11127.795    9886.5916    711.71067    1053.9729    444.70804   -6552.3876 
11214000    211.29372   -9340.1298   -8534.5818   -9340.1298            0    8719.7972    24.858479    24.882872    22.893037    14160.496      8415.55     8321.889    9421.9527    27.283676   -613.08204   -115.69252   -6733.8014 
11215000    202.71646   -9336.0944   -8563.2469   -9336.0944            0    8925.0497    24.819309    24.961549    22.892066    14182.285    9891.6893    8401.6604    8481.7995    -442.9771   -138.68263   -485.73914   -6717.2424 
11216000    206.23984    -9359.708   -8573.4276    -9359.708            0    7825.8058     24.93643    24.722013    23.041269    14204.452    7321.4689    8966.1316    7189.8171   -349.14012    386.22956    -469.4164   -6952.2543 
11217000    208.21987    -9323.734   -8529.9048    -9323.734            0    7847.5066    24.851593    24.808685    23.049024    14210.538    8125.5586    9002.3898    6414.5713    753.31256    277.17397    643.11993   -6903.5396 
11218000    208.97082   -9345.3535   -8548.6615   -9345.3535            0    8013.0574    24.705129    24.898131    23.138539    14232.783    8734.9033     7662.931     7641.338   -321.94336    -274.1277    942.10611   -6885.3869 
11219000    206.71174   -9363.0384    -8574.959   -9363.0384            0    8758.9102    24.851096    24.804277    22.968402    14158.032    8557.8805    8978.4192    8740.4308    -83.34174   -561.79929    -270.3427   -6766.4159 
11220000     205.7057   -9336.9224   -8552.6784   -9336.9224            0    7452.5624     24.86034    24.853088    23.011814    14217.993    7871.1889      8143.76    6342.7383   -649.92733   -203.07936   -691.28064   -7007.3535 
11221000    213.20979   -9368.5818   -8555.7289   -9368.5818            0    8345.5516    24.852432    24.916466    22.883081    14169.999    7915.2138    8970.2807    8151.1603     7.954284    1000.1254     82.09433   -6831.0797 
11222000    201.51841   -9337.0389   -8568.7588   -9337.0389            0    7754.2522    24.893769    24.995609    22.830608    14206.001    7364.1421    7382.8206     8515.794      520.136    134.94867   -691.62959   -6962.2332 
11223000    207.43027   -9332.0365   -8541.2177   -9332.0365            0    8601.0278    25.023154    24.817635    22.788933     14152.28    6848.9013    10165.731    8788.4505   -649.89231    1340.8951   -512.98151   -6765.9958 
11224000    213.11067   -9310.5339   -8498.0588   -9310.5339            0    8434.2664     24.95538    24.901538    22.871115    14212.736    7446.5322    8258.9847    9597.2823   -432.43872   -67.533066   -395.02924   -6749.8195 
11225000    204.55121   -9334.9382   -8555.0957   -9334.9382            0    8538.7883     24.81561     24.95104    22.868783    14159.785    9408.8228    7584.0189    8623.5231   -140.39372   -701.12711    -362.2431   -6791.7852 
11226000    206.55814   -9337.9379    -8550.444   -9337.9379            0    9240.8461    24.826999    24.840789    22.935856    14145.052    10228.641    9232.9834    8260.9139    220.16694   -1078.8056   -160.01935   -6644.1399 
11227000    203.68132   -9302.5461     -8526.02   -9302.5461            0    7357.6057    24.928517    24.875469    22.993141    14258.243    7579.9552    8143.0332    6349.8287   -579.93444   -864.12284    702.69193   -6996.0659 
11228000    215.61416    -9348.413   -8526.3935    -9348.413            0    9086.6995    24.805417    24.891512    22.923557    14154.021    10181.654    8779.8489     8298.596   -627.27216    420.06978   -1257.0043   -6650.6999 
11229000    213.81304    -9369.175   -8554.0222    -9369.175            0    8671.8721    24.823504    24.895891    22.872502     14135.28    8605.1865    9005.7657     8404.664   -48.581605   -196.12285   -277.86861   -6766.3282 
11230000    202.84528   -9318.7063   -8545.3676   -9318.7063            0    7102.2408    25.021688    24.879255    22.882441    14244.799    7256.6131    6954.7506    7095.3588    957.62813   -1353.2241    49.770734    -7069.907 
11231000    212.49697   -9325.3664    -8515.231   -9325.3664            0    8180.8825    24.857343    24.956815    22.883025    14195.716    7571.8004    7717.5688    9253.2783   -379.67528    146.88374     461.5006   -6821.5433 
11232000    208.14169   -9333.9314   -8540.4004   -9333.9314            0    7459.1153     24.96199     25.00448    22.815795    14240.742    7032.6141    6666.8048     8677.927    1359.5021    591.32089     622.7321   -6991.2419 
11233000    208.73971   -9315.1967   -8519.3857   -9315.1967            0    9000.4124    24.872893    24.951467    22.796589    14147.909    7939.4509    9318.6399    9743.1465    76.672603    303.95955    342.62294   -6662.3059 
11234000    207.26718   -9317.2946   -8527.0976   -9317.2946            0    8925.4685    24.923846     24.93736    22.788039    14163.562    9231.2612    8233.0939    9312.0505   -341.12824    -573.9881   -213.14395   -6683.4437 
11235000    206.66158   -9358.9845   -8571.0964   -9358.9845            0    8696.0128    24.983474    24.860571    22.784767    14151.697    7275.8355    9153.8799    9658.3232   -48.425599    211.27199    542.54409   -6776.3438 
11236000    214.30566   -9346.0339    -8529.003   -9346.0339            0    8185.5692    24.841019    24.938864     22.89968    14186.507     8552.125    7355.5613    8649.0212   -240.25719   -191.36746     19.19569   -6835.4443 
11237000    210.40471   -9357.5658    -8555.407   -9357.5658            0    8189.7047    24.755858    24.914298    22.968499    14166.392    9475.9992    6695.5836    8397.5314    740.99462     510.0379   -503.46695   -6863.3952 
11238000    212.48273   -9304.1933   -8494.1123   -9304.1933            0    8891.6909    24.945373    24.725824    23.002312    14187.708    8255.5107    9697.1274    8722.4345    68.869305   -230.95766    -901.5286   -6654.3043 
11239000    207.20995   -9331.3436   -8541.3647   -9331.3436            0    8317.2786    24.789795    24.871514    23.055074     14214.83    8956.5588    8233.4232    7761.8539   -692.46636   -419.01628    136.17475   -6817.1204 
11240000    214.07218   -9333.5454   -8517.4046   -9333.5454            0    8774.9546    24.766699    24.909424    22.985412    14180.257    9791.5981    8530.1669    8003.0987   -244.03395   -1183.0471   -82.910267   -6702.7045 
11241000    213.51631   -9341.9045    -8527.883   -9341.9045            0    8522.5493    24.871839    24.889697    22.928757    14194.105     8924.247    8102.3349     8541.066    305.10843     151.1556   -435.46113   -6763.6602 
11242000    217.54872   -9348.1527   -8518.7577   -9348.1527            0    9490.2722     24.85782    24.905312    22.826423     14131.65    9358.3362    8401.4639    10711.017   -104.13789    -450.9336   -57.865864   -6562.8541 
11243000    205.52882   -9333.1258   -8549.5562   -9333.1258            0    8006.5558    24.849951    25.004362     22.85246     14199.54    7131.4908    9279.4849    7608.6918   -302.65324     281.6138     294.9032   -6891.5128 
11244000    203.20593   -9348.2731   -8573.5595   -9348.2731            0    7755.8358    24.938286    24.940012    22.846547    14209.665    8227.1057    7199.4515    7840.9504   -302.22652     659.5171    1592.3229   -6966.2914 
11245000    206.71754   -9317.0447   -8528.9432   -9317.0447            0    9512.8198    24.893625    24.968991    22.724234    14124.673    9437.8101    9209.7945    9890.8549    -790.2417   -424.13108    375.39527   -6569.3606 
11246000     201.8591   -9338.1803   -8568.6013   -9338.1803            0    7855.1448    24.829321    25.019435    22.862912    14202.797    8184.6965    7158.9873    8221.7507    287.15869    1472.4862    427.50667   -6941.5398 
11247000    208.79247   -9306.6386   -8510.6265   -9306.6386            0    8510.7541    24.953784    24.895467    22.852906    14197.051    8398.5119    8381.3712    8752.3792   -82.895316     298.5783    1144.5595   -6748.4798 
11248000    201.82837     -9346.41   -8576.9482     -9346.41            0    8073.1614    24.955349    24.817388    22.909044     14188.18     7879.216    8961.3221    7378.9459    275.72809    -617.8251   -165.01631   -6906.4492 
11249000    201.78632   -9367.3949   -8598.0934   -9367.3949            0    8347.8559    24.796264    24.934816    22.908379    14164.028    9148.5833    8138.2082    7756.7763   -360.99217    294.41536    1523.5099    -6873.695 
11250000    213.17541   -9324.5012   -8511.7793   -9324.5012            0    10040.309    24.761022    24.919328    22.866814    14109.466    10800.474    9084.3443    10236.107    402.17765   -430.84613    1461.8525   -6445.7641 
Loop time of 463.343 on 64 procs for 250000 steps with 1920 atoms

Performance: 93.235 ns/day, 0.257 hours/ns, 539.557 timesteps/s
384.8% CPU use with 16 MPI tasks x 4 OpenMP threads

MPI task timing breakdown:
Section |  min time  |  avg time  |  max time  |%varavg| %total
---------------------------------------------------------------
Pair    | 75.009     | 76.712     | 77.703     |   8.0 | 16.56
Bond    | 1.534      | 1.6781     | 2.1759     |  10.6 |  0.36
Kspace  | 220.65     | 225.3      | 229.91     |  18.3 | 48.62
Neigh   | 2.4346     | 2.6036     | 2.7881     |   7.5 |  0.56
Comm    | 58.61      | 62.772     | 66.475     |  34.6 | 13.55
Output  | 0.5278     | 0.52803    | 0.52939    |   0.0 |  0.11
Modify  | 70.123     | 79.373     | 83.031     |  38.8 | 17.13
Other   |            | 14.38      |            |       |  3.10

Nlocal:        120.000 ave         125 max         112 min
Histogram: 1 1 0 0 1 2 5 3 2 1
Nghost:        4153.31 ave        4176 max        4115 min
Histogram: 1 0 2 1 0 2 2 1 6 1
Neighs:        43085.8 ave       44663 max       40781 min
Histogram: 2 0 0 0 3 3 2 3 1 2

Total # of neighbors = 689372
Ave neighs/atom = 359.04792
Ave special neighs/atom = 2.0000000
Neighbor list builds = 5930
Dangerous builds = 0

unfix		3
unfix		2
unfix		1

write_data	data.final.${pid}
write_data	data.final.0
System init for write_data ...
PPPM initialization ...
  extracting TIP4P info from pair style
  using 12-bit tables for long-range coulomb (../kspace.cpp:340)
  G vector (1/distance) = 0.37478642
  grid = 30 30 30
  stencil order = 5
  estimated absolute RMS force accuracy = 0.0032331374
  estimated relative force accuracy = 9.7364971e-06
  using double precision FFTW3
  3d grid and FFT values/proc = 7920 1800
Last active /omp style is kspace_style pppm/tip4p/omp
WARNING: Not all mixed pair coeffs generated from mixing. Use write_data with 'pair ij' option to store all pair coeffs. (../write_data.cpp:312)

write_restart   restart.lmp.${pid}
write_restart   restart.lmp.0
System init for write_restart ...
PPPM initialization ...
  extracting TIP4P info from pair style
  using 12-bit tables for long-range coulomb (../kspace.cpp:340)
  G vector (1/distance) = 0.37478642
  grid = 30 30 30
  stencil order = 5
  estimated absolute RMS force accuracy = 0.0032331374
  estimated relative force accuracy = 9.7364971e-06
  using double precision FFTW3
  3d grid and FFT values/proc = 7920 1800
Last active /omp style is kspace_style pppm/tip4p/omp
Total wall time: 0:07:43
