LAMMPS (30 Jul 2021)
Processor partition = 0
  using 4 OpenMP thread(s) per MPI task
using multi-threaded neighbor list subroutines
variable        pid world 0 1
variable        phase world IceVI IceV

shell cd ${phase}
shell cd IceVI
include Restart.lmp
echo both
log log.lammps
#include		in.partitions
include		in.temp
variable        temperature equal 55.77
variable	tempDamp equal 100.0
include		in.pressure
variable        pressure equal 8188.9
variable        pressureDamp equal 1000.0 # This is 1 ps
include		in.seed
variable        seed equal 745823

units		real
atom_style	full
read_restart	restart.lmp.${pid}
read_restart	restart.lmp.0
Reading restart file ...
  restart file = 30 Jul 2021, LAMMPS = 30 Jul 2021
  restoring atom style full from restart
  orthogonal box = (0.014632662 0.016141904 0.087584057) to (24.715368 24.713859 22.722416)
  4 by 2 by 2 MPI processor grid
  restoring pair style lj/cut/tip4p/long/omp from restart
  restoring bond style harmonic/omp from restart
  restoring angle style harmonic/omp from restart
  1920 atoms
  1280 bonds
  640 angles
Finding 1-2 1-3 1-4 neighbors ...
  special bond factors lj:    0        0        0       
  special bond factors coul:  0        0        0       
     2 = max # of 1-2 neighbors
     1 = max # of 1-3 neighbors
     1 = max # of 1-4 neighbors
     2 = max # of special neighbors
  special bonds CPU = 0.001 seconds
  read_restart CPU = 0.006 seconds
include 	in.setup
variable	out_freq equal 1000
variable	out_freq2 equal 10000
variable	out_freq3 equal 1000

timestep	2.0

neigh_modify    delay 7 every 1

include		in.tip4p
# This is TIP4P/Ice

# create groups ###
group ox type 2
640 atoms in group ox
group hy type 1
1280 atoms in group hy

# set charges - beside manually ###
set group ox charge -1.1794
Setting atom values ...
  640 settings made for charge
set group hy charge 0.5897
Setting atom values ...
  1280 settings made for charge

# ### TIP3P Potential Parameters ###
pair_style lj/cut/tip4p/long/omp 2 1 1 1 0.1577 8.5
pair_coeff 1 1*2 0.000 0.000
pair_coeff 2 2 0.21084 3.1668
bond_style  harmonic
bond_coeff  1 450 0.9572
angle_style harmonic
angle_coeff 1 55 104.52
kspace_style pppm/tip4p/omp 1.0e-5
pair_modify tail yes

thermo          ${out_freq}
thermo          1000
thermo_style    custom step temp pe etotal epair emol press lx ly lz vol pxx pyy pzz pxy pxz pyz enthalpy

restart 	${out_freq3} restart.lmp.${pid} restart2.lmp.${pid}
restart 	1000 restart.lmp.${pid} restart2.lmp.${pid}
restart 	1000 restart.lmp.0 restart2.lmp.${pid}
restart 	1000 restart.lmp.0 restart2.lmp.0


include         in.dump
dump            myDump all atom ${out_freq2} dump.water.${pid}
dump            myDump all atom 10000 dump.water.${pid}
dump            myDump all atom 10000 dump.water.0
dump            myDump2 all dcd ${out_freq2} dump.dcd
dump            myDump2 all dcd 10000 dump.dcd
dump_modify     myDump append yes
dump_modify     myDump2 append yes


variable natoms 	equal  "count(all)"                        # NUMBER ATOMS
variable H      	equal  "enthalpy/v_natoms"                 # ENTHALPY-per-atom
variable Vol      	equal  "vol/v_natoms"                 # volume-per-atom
fix AVG all 		ave/time ${out_freq} 1 ${out_freq} v_Vol v_H file vol_enthalpy.dat
fix AVG all 		ave/time 1000 1 ${out_freq} v_Vol v_H file vol_enthalpy.dat
fix AVG all 		ave/time 1000 1 1000 v_Vol v_H file vol_enthalpy.dat




fix 		1 all shake 1e-6 200 0 b 1 a 1
Finding SHAKE clusters ...
       0 = # of size 2 clusters
       0 = # of size 3 clusters
       0 = # of size 4 clusters
     640 = # of frozen angles
  find clusters CPU = 0.000 seconds
fix             2 all nph aniso ${pressure} ${pressure} ${pressureDamp}
fix             2 all nph aniso 8188.9 ${pressure} ${pressureDamp}
fix             2 all nph aniso 8188.9 8188.9 ${pressureDamp}
fix             2 all nph aniso 8188.9 8188.9 1000
fix             3 all temp/csvr ${temperature} ${temperature} ${tempDamp} ${seed}
fix             3 all temp/csvr 55.77 ${temperature} ${tempDamp} ${seed}
fix             3 all temp/csvr 55.77 55.77 ${tempDamp} ${seed}
fix             3 all temp/csvr 55.77 55.77 100 ${seed}
fix             3 all temp/csvr 55.77 55.77 100 745823


run             250000
PPPM initialization ...
  extracting TIP4P info from pair style
  using 12-bit tables for long-range coulomb (../kspace.cpp:340)
  G vector (1/distance) = 0.37533863
  grid = 30 30 30
  stencil order = 5
  estimated absolute RMS force accuracy = 0.003171524
  estimated relative force accuracy = 9.5509502e-06
  using double precision FFTW3
  3d grid and FFT values/proc = 7920 1800
Last active /omp style is kspace_style pppm/tip4p/omp
Neighbor list info ...
  update every 1 steps, delay 7 steps, check yes
  max neighbors/atom: 2000, page size: 100000
  master list distance cutoff = 10.8154
  ghost atom cutoff = 10.8154
  binsize = 5.4077, bins = 5 5 5
  1 neighbor lists, perpetual/occasional/extra = 1 0 0
  (1) pair lj/cut/tip4p/long/omp, perpetual
      attributes: half, newton on, omp
      pair build: half/bin/newton/omp
      stencil: half/bin/3d
      bin: standard
Setting up Verlet run ...
  Unit style    : real
  Current step  : 41500000
  Time step     : 2
Per MPI rank memory allocation (min/avg/max) = 12.56 | 12.57 | 12.57 Mbytes
Step Temp PotEng TotEng E_pair E_mol Press Lx Ly Lz Volume Pxx Pyy Pzz Pxy Pxz Pyz Enthalpy 
41500000    57.971085   -9934.5617   -9713.5495   -9934.5617            0    8391.3687    24.700736    24.697717    22.634832     13808.42     7896.893    8435.3591     8841.854   -744.80146   -388.69706   -90.192767   -8023.6819 
41501000    55.137136    -9944.823   -9734.6151    -9944.823            0    8409.6774    24.616405    24.645219    22.733384    13791.814    8579.2904    8273.1305    8376.6111   -207.66919    344.34702   -154.14512   -8043.0971 
41502000     55.99327    -9949.885   -9736.4131    -9949.885            0    8440.4033    24.653717    24.621572    22.729869    13797.332    7938.4337    8812.3036    8570.4727   -401.19441    24.263099   -611.48637   -8038.0357 
41503000    55.769247   -9946.2972   -9733.6794   -9946.2972            0    8554.0052    24.636272    24.638264    22.706925    13782.989    8694.8432    8959.2872    8007.8852   -372.15443   -22.988581    34.413055   -8014.2323 
41504000    56.548619    -9962.577   -9746.9879    -9962.577            0    7404.3869    24.689115    24.645626    22.730616    13831.096    6617.9032    7987.3697    7607.8879    175.67849   -249.18291    312.10034   -8253.4316 
41505000    57.179058   -9948.9363   -9730.9437   -9948.9363            0     8400.835      24.6441    24.632415    22.721458    13792.917    8062.6024    8590.1877     8549.715          101    -135.0389    -194.8935   -8041.0691 
41506000    57.616224   -9947.5734   -9727.9141   -9947.5734            0    8044.7419    24.649618     24.63987    22.746995    13815.692    8233.6577    8344.7107    7555.8573   -556.86307   -250.82636   -13.865279   -8106.9975 
41507000    55.663165    -9952.438   -9740.2247    -9952.438            0     7724.774     24.70581    24.685593    22.662207    13821.172    7751.5845    7168.2738    8254.4639    256.93697   -860.08842    1.3788612   -8183.1604 
41508000    56.585118   -9955.8232    -9740.095   -9955.8232            0    8363.9604    24.630263    24.638547    22.717535    13786.224    8303.1324      8521.51    8267.2387    -343.6657   -289.96692   -58.137869   -8058.4544 
41509000    57.503897   -9947.5992   -9728.3681   -9947.5992            0    7985.6073    24.657523    24.696458    22.691147    13817.853    7928.3553     7688.972    8339.4947   -135.62613    152.94597    377.42729   -8119.1148 
41510000    55.939606   -9944.8489   -9731.5816   -9944.8489            0    8431.5487    24.595225    24.661247    22.750437    13799.253     8850.443    8414.1714    8030.0316    35.962958   -177.81959    528.33116   -8034.7497 
41511000      54.9815    -9946.094   -9736.4794    -9946.094            0     8102.662     24.62268    24.634033    22.757018    13803.403    8365.8517    8825.3196    7116.8148    -173.6279    357.35106    275.50733   -8105.3449 
41512000    55.457332   -9937.9867   -9726.5581   -9937.9867            0    7982.3832    24.620016    24.716658    22.696396    13811.313    8413.2822      7186.12    8347.7474   -36.362636    191.90471   -272.89748   -8118.7159 
41513000    56.927088   -9946.5664   -9729.5344   -9946.5664            0    8189.2023    24.650628    24.658309    22.704216    13800.595    8063.6019    8226.9395    8277.0656   -253.88741    188.48851    510.76652   -8081.3139 
41514000    53.817017   -9948.9859   -9743.8109   -9948.9859            0      8528.18    24.595132    24.655017    22.739969    13789.367    8325.6137    9227.3922    8031.5341    121.76881    867.42577   -276.87224   -8028.7617 
41515000    54.804775   -9944.4817   -9735.5409   -9944.4817            0     8348.852    24.679536    24.620501    22.705378    13796.299    7518.4686    8720.8377    8807.2498   -133.06028   -382.36494     116.7271   -8055.7112 
41516000    56.844584   -9948.3432   -9731.6257   -9948.3432            0    8164.8998    24.636085    24.650811    22.734188     13806.46    8581.8895    7905.1004    8007.7094   -195.91111   -566.97838   -312.42872   -8087.5982 
41517000    56.060133    -9946.159   -9732.4322    -9946.159            0    8001.6737    24.643815    24.658606    22.725946    13810.151    8051.4884    8020.4853    7933.0475    201.60334   -9.5397109    67.595642     -8120.84 
41518000     56.34978   -9951.4525   -9736.6214   -9951.4525            0    9231.8791    24.599388    24.631402    22.694836    13751.196    9090.0627    9349.2602    9256.3143    200.58679   -291.02141    588.46893   -7885.1949 
41519000    55.414233   -9948.3796   -9737.1153   -9948.3796            0    8469.8612    24.664183    24.672281     22.66425    13791.687     8506.989    8354.6086    8547.9861   -506.27928    -124.3759    550.52107   -8033.5076 
41520000    55.305346   -9950.7229   -9739.8737   -9950.7229            0    7831.7752    24.642736    24.715423    22.675101    13810.399    7810.3324    7762.6132      7922.38   -82.127689   -671.45877    194.43213    -8162.472 
41521000    55.075666   -9945.8604   -9735.8868   -9945.8604            0    9076.0042    24.603721    24.687577    22.657777    13762.475    8721.8982    9097.6321    9408.4821   -543.28099    383.64746    485.06017   -7914.2276 
41522000    55.751802   -9942.4742   -9729.9229   -9942.4742            0     8009.631    24.608703    24.732169    22.691295    13810.526    8461.3882    7483.4477    8084.0572    48.107749   -24.472659   -428.79727   -8116.6843 
41523000     53.64171   -9947.9244   -9743.4177   -9947.9244            0     8581.725     24.64171    24.646057    22.699916    13786.136    8296.8569    9232.9319    8215.3863   -280.11002   -11.341093    256.53831   -8018.0048 
41524000     56.94135   -9940.6989   -9723.6125   -9940.6989            0    7764.6448    24.642982    24.651893    22.764207    13829.168    7884.1175    7676.4581    7733.3589   -859.19431   -25.150344    76.980422    -8157.606 
41525000    56.206906   -9944.4348   -9730.1484   -9944.4348            0    8554.9271     24.62127     24.66034    22.689573    13776.403    8781.2967    8470.9895    8412.4951    -261.3114   -416.39266    194.44032   -8011.3378 
41526000    57.744472   -9949.0858   -9728.9376   -9949.0858            0      8020.35    24.629214    24.709173     22.68189    13803.461    8497.2044    8060.8652    7502.9806   -451.55213    -271.9674    274.87955   -8114.3664 
41527000    55.904066   -9949.0842   -9735.9524   -9949.0842            0    8045.9905    24.610342    24.636601    22.772127    13807.086    8213.1116    8625.9633    7298.8967   -258.34529    67.724339    6.8049467   -8115.7941 
41528000     55.05447   -9950.2884   -9740.3956   -9950.2884            0    7887.9487    24.623574    24.629755    22.788948    13820.872    7918.2438    8227.1738    7518.4286   -619.91966   -183.21141    128.17958   -8150.4751 
41529000    54.866468   -9948.3244   -9739.1484   -9948.3244            0    8598.2883    24.603342     24.69194    22.674548    13774.884    8714.9675    8393.3038    8686.5937   -71.136111   -717.05338    89.690941   -8011.8163 
41530000    57.734591   -9953.1292   -9733.0186   -9953.1292            0    7625.0587    24.708038    24.626886    22.724684    13827.562    7054.0266    8067.6907    7753.4587    11.283539    204.89148   -283.81491   -8195.3432 
41531000    56.490079   -9941.7448   -9726.3789   -9941.7448            0    8163.4349    24.712031    24.652668    22.669946    13810.928      7991.04     8401.689    8097.5757   -16.376396   -291.99887    531.24881   -8082.1144 
41532000    57.148828   -9946.3992   -9728.5219   -9946.3992            0    8199.2434    24.607056    24.727438    22.695866    13809.741    8826.9084    7635.8062    8135.0156   -561.46985   -391.64996    191.15524   -8077.1868 
41533000    57.677104   -9949.6284    -9729.737   -9949.6284            0    8239.6091    24.653393    24.667031    22.706931    13808.675    7859.4677    8467.2042    8392.1552   -447.16496    6.1705481    380.96233   -8070.4003 
41534000    55.447065   -9954.9352   -9743.5457   -9954.9352            0    8051.8847    24.589398    24.671988    22.750509    13802.036    8772.1115    7656.7774    7726.7651   -447.50956   -187.92524    99.228802   -8122.7935 
41535000     55.14211   -9956.4889    -9746.262   -9956.4889            0    8349.5093    24.692168    24.640551    22.668429    13792.121    7700.9532    8575.6235    8771.9511    174.88785    24.795348    384.80998   -8066.8088 
41536000    57.736534   -9954.7022   -9734.5843   -9954.7022            0    8099.0855    24.705023    24.663616    22.634892    13791.783    8073.8055    7839.3851    8384.0658   -674.71332    184.82946   -318.28629   -8105.5422 
41537000    57.213616   -9951.8486   -9733.7242   -9951.8486            0    8440.8741    24.609237    24.694954    22.692118    13790.544     8751.715    7732.1906    8838.7169    175.50016    220.26898   -86.882777   -8036.0876 
41538000    57.180144   -9950.5942   -9732.5974   -9950.5942            0    8003.2265    24.637821    24.642307    22.743293    13808.198    7731.3999    8886.6227     7391.657   -89.425816   -248.99313   -31.636945   -8120.9204 
41539000    55.394824   -9953.3213   -9742.1309   -9953.3213            0    7684.0306    24.620589    24.731032    22.691861    13816.906    8042.5376    7138.5834    7870.9706    10.629259    -353.1106   -44.091791   -8193.7573 
41540000    56.431036   -9951.7325   -9736.5916   -9951.7325            0    8186.4337    24.602236    24.709443    22.684908    13790.327    8713.6307    7753.6244    8092.0461   -6.3180015   -70.871484    313.40881   -8090.1543 
41541000    55.761423   -9963.0683   -9750.4803   -9963.0683            0    7916.0125     24.68186     24.67224    22.676681    13809.119    7678.2566    7617.2772    8452.5036   -144.31411   -693.79651    619.31034   -8156.2601 
41542000    56.094779   -9952.4906   -9738.6318   -9952.4906            0    7810.1256    24.658377    24.659675    22.719075    13814.733    7906.1614    7686.0255    7838.1898   -56.523969   -290.17055   -293.17159   -8165.0968 
41543000    56.129809   -9943.9642   -9729.9717   -9943.9642            0    8530.2849    24.608801    24.627568    22.756677    13791.796    8608.5708    8931.5131    8050.7709   -112.73454   -193.72613    360.26532   -8014.1971 
41544000    54.393041   -9944.3784   -9737.0074   -9944.3784            0    8090.5643    24.613273     24.74698    22.683319    13816.504    8426.7148    7904.5666    7940.4113   -349.48984    -408.2878    265.80812   -8106.7624 
41545000    55.382307   -9958.3797   -9747.2371   -9958.3797            0    8522.5076    24.587473    24.690511    22.692786    13776.275    8779.7015    8285.2705    8502.5509   -472.72933    263.84635   -190.49907   -8034.9559 
41546000    57.083222    -9945.503   -9727.8757    -9945.503            0    7932.0131    24.617351    24.647659     22.77976    13821.848    7870.2091    8564.3216    7361.5087   -254.68313   -333.34266    411.99743   -8128.9605 
41547000    55.735733   -9951.3758   -9738.8858   -9951.3758            0    8408.7962    24.635649    24.616217    22.744109    13792.857    8387.2924    8320.8865    8518.2097   -98.835965   -359.00034   -112.64054   -8047.4171 
41548000    56.436746   -9955.2164   -9740.0538   -9955.2164            0    7829.7792    24.691976    24.683436    22.662503    13812.406    7263.2704    7922.9961     8303.071   -110.20462   -192.93425   -207.82652   -8162.8249 
41549000    57.487224   -9945.8979   -9726.7304   -9945.8979            0    8675.7073    24.601157    24.693975    22.691011    13784.798    9170.5996    7892.5551    8963.9671    190.05875   -131.08421    456.73832   -7982.5911 
41550000    56.255839   -9942.8199    -9728.347   -9942.8199            0    8272.4337    24.678443    24.670286    22.675598    13805.454    7696.9479    8528.9631    8591.3901    93.509046   -390.39087   -345.37317   -8062.7885 
41551000    55.094243   -9945.9519   -9735.9075   -9945.9519            0    7954.2314    24.637321    24.720042    22.677551    13811.436     8335.029    7175.4099    8352.2552    4.7626211   -452.27001    261.20664   -8133.7215 
41552000    57.519693   -9953.0768   -9733.7855   -9953.0768            0    8349.9743    24.668373     24.65213    22.669738    13786.101    7665.3849    9002.9129    8381.6252   -449.35974    381.04954    -207.0788   -8054.9719 
41553000    55.829531   -9949.6926    -9736.845   -9949.6926            0     7896.075    24.634213    24.753765    22.647332    13810.106    7742.5087    7335.8661      8609.85   -631.71879   -226.58091   -63.142657   -8146.5263 
41554000    57.154897   -9947.4825    -9729.582   -9947.4825            0    8377.9312    24.617993    24.687835    22.694849    13793.133    8986.6788    7716.8818    8430.2329    55.274292    388.67648    170.01046   -8044.2882 
41555000    56.298692   -9945.7929   -9731.1566   -9945.7929            0    7972.8016     24.69727    24.674043    22.671607    13815.657    7458.6766    7941.2196    8518.5087   -68.698959   -73.793128   -199.00516   -8124.7392 
41556000    55.753647   -9941.3957   -9728.8374   -9941.3957            0    8336.7713    24.650615    24.590063    22.768676    13801.465    8895.7123    8934.3441    7180.2577   -559.04073   -593.50398    109.45638   -8050.8103 
41557000    55.072371   -9944.3601   -9734.3991   -9944.3601            0    8162.4087    24.549165     24.72345    22.745162     13804.95    8525.1595    7944.2811    8017.7856   -408.61563   -122.69151   -550.98085   -8091.0529 
41558000    54.686514   -9947.2272   -9738.7373   -9947.2272            0     8597.363    24.624053    24.601109    22.760112    13787.598    8321.8009     9322.249    8148.0392   -21.960172    -651.1422    396.94243    -8009.997 
41559000    54.412399   -9946.0331   -9738.5882   -9946.0331            0    7666.6401    24.662421    24.687375    22.712734    13828.658    8048.7638    7260.3981    7690.7582    241.65045    -83.81847   -46.991914   -8192.4048 
41560000    54.753454   -9950.9503   -9742.2052   -9950.9503            0    8744.0736    24.631735    24.668758    22.657144    13767.258      9158.96    8506.1806    8567.0802    336.83193     24.86523    235.49907   -7986.5584 
41561000    54.763288   -9950.5125   -9741.7298   -9950.5125            0    7789.2483    24.592137    24.647879    22.783093    13809.836      8602.99    8058.7747    6705.9801   -164.62082   -202.42251    101.00442   -8172.9574 
41562000      56.0001   -9950.3523   -9736.8544   -9950.3523            0    8173.2911    24.643499    24.667219    22.703658    13801.249    8114.8467    8116.7535     8288.273   -349.36664   -279.86576   -232.76208   -8091.7584 
41563000    56.952472   -9944.7454   -9727.6166   -9944.7454            0    8074.7845    24.670215    24.668566    22.695117    13811.768    8053.1835    8324.9931    7846.1768    129.43614   -549.05344   -445.04884    -8101.109 
41564000    57.854929   -9952.4865   -9731.9171   -9952.4865            0    8168.4925    24.593961    24.663691    22.751811    13800.745    8863.8587    8110.6811    7530.9376    133.00572   -534.32024    153.20986   -8087.8469 
41565000    54.798166   -9955.9558   -9747.0402   -9955.9558            0    8172.4844    24.671507    24.631434    22.713646     13802.96    7918.6449    8714.3186    7884.4897   -301.76852   -221.14187    662.37767   -8101.9026 
41566000    58.354892   -9940.1356   -9717.6602   -9940.1356            0    9104.4645    24.633526    24.648027    22.670153    13764.587    9288.4111    8825.6471    9199.3352    265.19963   -395.92903    78.602731   -7890.0083 
41567000    54.969779   -9954.4704   -9744.9005   -9954.4704            0    8217.3595    24.610041    24.683213    22.712785    13796.992    8532.4898    7796.1544    8323.4343   -281.57798    5.1076584   -274.62182   -8091.4447 
41568000    55.206117   -9950.1317   -9739.6608   -9950.1317            0    8679.9534    24.664905    24.663457    22.653394    13780.554    8421.2323    8842.5766    8776.0512   -8.1444369   -20.225946    28.683606   -7995.2051 
41569000    55.854023   -9959.4106   -9746.4696   -9959.4106            0    7975.5777    24.632774    24.704487     22.68405    13804.153    8447.8239    7293.6331     8185.276   -199.02802   -362.13017   -23.792175    -8140.831 
41570000    53.630375    -9941.666   -9737.2025    -9941.666            0     8570.944    24.661469    24.666799    22.654396    13781.111    8210.3589    8604.1779    8898.2951   -76.350895    360.70256   -56.089096   -8014.5854 
41571000    55.995449    -9949.522   -9736.0418    -9949.522            0    8686.1098    24.604192    24.670873    22.718759    13790.443      9016.47    8154.3029    8887.5565   -384.05424   -779.95037    225.79447    -7989.096 
41572000      55.6296   -9942.8614    -9730.776   -9942.8614            0    7703.0029    24.691704    24.727424    22.634903    13820.017    7724.4416    7309.2595    8075.3077   -440.83477   -106.64316    180.34434   -8178.2298 
41573000    54.130073   -9955.8384   -9749.4699   -9955.8384            0    8431.3256    24.625807    24.620268    22.741763    13788.194    8350.2908    9127.5828    7816.1031    68.547216   -91.944652    259.35336   -8054.0428 
41574000     56.29283   -9946.2948   -9731.6809   -9946.2948            0    8070.1763    24.618365    24.617666    22.771734    13800.734    7610.2618    8670.1755    7930.0916   -518.83355   -260.39119     339.7067   -8107.4001 
41575000    56.589094   -9943.4506   -9727.7072   -9943.4506            0    8261.2708    24.667582    24.738611    22.623178    13805.607    8102.2116    7485.1732    9196.4275   -91.392568   -281.48738    -108.1214   -8064.3779 
41576000     56.97342   -9952.8708   -9735.6621   -9952.8708            0    7782.4154    24.657855    24.654923    22.717621    13810.894    7576.6147    8093.5338    7677.0978    3.8348205   -573.09319    159.89803   -8168.1458 
41577000    55.153055   -9952.0713   -9741.8027   -9952.0713            0      8619.12    24.612331    24.667203    22.685106    13772.522    9007.8053    8351.1157    8498.4389   -42.233854   -95.949881    771.08668   -8010.5826 
41578000    56.066739   -9942.7696   -9729.0176   -9942.7696            0    7499.5818    24.656311    24.660445    22.750419    13833.064    7346.8301    7828.9962    7322.9191    124.30361   -694.34494    321.40789   -8216.0441 
41579000    54.606112   -9944.9348   -9736.7514   -9944.9348            0    8784.7177    24.609363    24.656618    22.705104    13777.086    8905.7921    8998.0347    8450.3263   -4.5124777    145.23021   -335.50743   -7971.6849 
41580000    55.900674   -9952.0038   -9738.8849   -9952.0038            0    7655.2607    24.639329    24.653272    22.761108    13826.009    7664.6226    8314.4079    6986.7515   -164.12487   -312.92387   -222.24969   -8195.2922 
41581000    58.831679   -9949.8302   -9725.5371   -9949.8302            0    8503.0206    24.593987    24.686757    22.704789    13785.117    8657.9802    8505.6569    8345.4247   -110.67311   -191.21182    122.16768   -8016.0746 
41582000    56.213929   -9952.6554   -9738.3423   -9952.6554            0    7917.3755    24.668215    24.679241    22.686027     13811.09    8342.2263    7793.5048    7616.3954   -418.29621   -919.47891   -115.06081     -8143.62 
41583000    54.396047   -9952.7861   -9745.4035   -9952.7861            0    8293.1117    24.626286     24.69515    22.677677    13791.425    8341.7101    8408.3719    8129.2531    45.775626   -508.83803    301.46951   -8077.3786 
41584000    56.466395   -9941.8003   -9726.5246   -9941.8003            0    8369.3921    24.697966    24.659748    22.665999    13804.627    7499.8642    8607.0082     9001.304   -310.70533    302.57066    261.36015   -8041.5456 
41585000    54.675297   -9950.8404   -9742.3932   -9950.8404            0    7327.4714    24.677866    24.648222    22.743618    13834.158    6926.2432    7628.9378    7427.2332   -255.26719    405.16791   -807.26978   -8264.0245 
41586000    57.229358   -9948.8613   -9730.6769   -9948.8613            0    8544.2744    24.614858    24.619141     22.75011    13786.491    9037.7018    9108.1936    7486.9276    82.146496   -22.918753   -216.10915   -8012.7494 
41587000    55.770595   -9949.9925   -9737.3696   -9949.9925            0    8265.0058    24.628544    24.662679    22.721042    13800.895     8270.702    8381.2653      8143.05   -190.51573   -173.65433    150.11803   -8073.8562 
41588000    57.839906   -9947.0018   -9726.4897   -9947.0018            0    8010.6828    24.609393    24.689183    22.730351    13810.639    8656.7374    7622.2023    7753.1088   -584.49835   -98.030404    304.68579   -8113.0261 
41589000    53.760939   -9954.9807   -9750.0195   -9954.9807            0    8076.7872    24.631409    24.731839    22.661389    13804.866    7784.9295    7717.0584    8728.3738   -534.48202   -480.95735    884.55713   -8123.9214 
41590000    56.548664   -9945.9281   -9730.3388   -9945.9281            0    8251.1897    24.655377     24.62337    22.731121    13800.029    7502.8585    8927.7932    8322.9174   -213.86811   -17.759482     405.0965   -8069.7105 
41591000    54.826622   -9952.6099   -9743.5858   -9952.6099            0    8536.4885    24.621815    24.621098    22.747389    13789.834     8410.426    8681.2667     8517.773   -608.55422   -310.67586    619.55091   -8026.8075 
41592000    55.220753   -9945.1813   -9734.6546   -9945.1813            0    7952.9958    24.671566    24.713827    22.660565      13816.8    7876.0889    7752.0133    8230.8852   -71.754722   -346.02945   -367.82865   -8132.0953 
41593000    55.540169   -9949.0463   -9737.3019   -9949.0463            0    8039.6045    24.619145    24.661496    22.747874    13811.257     8212.086    8134.0607    7772.6667    -438.7868   -16.739299    -108.4698   -8117.9405 
41594000    54.094911   -9943.3845     -9737.15   -9943.3845            0     8047.087    24.588745    24.689175    22.738852    13804.208    8429.2242    7903.6482    7808.3884   -642.00328   -166.99743    894.01111   -8117.1088 
41595000    52.782405   -9948.7403   -9747.5097   -9948.7403            0    8537.6324    24.640253    24.670398    22.673402    13782.818     8534.252    8659.4002     8419.245   -776.30879     44.53387     258.1992    -8031.375 
41596000    56.172559    -9951.022   -9736.8666    -9951.022            0     8073.894    24.662702     24.68085     22.68714    13809.582    7760.6541     7804.522    8656.5057    204.07349   -250.46925   -88.459806   -8110.7958 
41597000     56.89922   -9950.2196   -9733.2938   -9950.2196            0    7436.1589    24.705897    24.715516    22.656645    13834.577    7457.5461     6805.473    8045.4575   -439.76627   -881.42593    346.28803   -8232.9512 
41598000    52.787776   -9950.5542   -9749.3031   -9950.5542            0    8164.5709    24.633142     24.70313    22.672073    13796.313     8272.016    7954.7246    8266.9719   -22.790428    279.27748    408.95324   -8106.5501 
41599000    56.380051   -9944.2064     -9729.26   -9944.2064            0    8556.5092    24.593635    24.607734    22.791104    13793.031    8748.3371    8972.1556    7949.0349    -170.2812   -706.51159    -100.5666   -8008.0565 
41600000    55.287523   -9954.8135   -9744.0323   -9954.8135            0    8143.4271    24.654234    24.683266    22.682634    13803.449    7744.5621    8351.9157    8333.8034     264.1101    361.32074   -302.52108   -8104.6859 
41601000     54.70434   -9945.8736   -9737.3157   -9945.8736            0    8896.3298    24.599425    24.678488    22.695644    13777.995    8942.2917    8594.5525    9152.1453   -240.15458   -379.94178   -253.33216   -7949.7057 
41602000    56.665987   -9944.2215   -9728.1849   -9944.2215            0    8039.5467    24.643292    24.645806    22.728478    13804.227      8420.06     8242.545    7456.0351   -291.48479    149.49868    45.591977   -8109.6594 
41603000    55.494259   -9946.4541   -9734.8847   -9946.4541            0    8072.3468    24.688536    24.641938    22.699203    13809.591    7975.8778    8204.4515    8036.7111    158.65413   -182.87522    246.05152   -8109.1244 
41604000    55.832482   -9949.1961   -9736.3372   -9949.1961            0     7911.396    24.640176    24.745077    22.639927    13804.086    8109.2837    7659.7516    7965.1526   -581.96464   -688.63019     115.7555   -8143.6274 
41605000     56.65973   -9947.1889   -9731.1762   -9947.1889            0    8264.7186    24.601703    24.606723    22.788546     13795.44    8411.4933    8775.5463     7607.116    -408.0964    18.238141    141.82105   -8068.3781 
41606000     56.34526   -9958.2885   -9743.4747   -9958.2885            0    7911.9735    24.673022    24.669253    22.677587    13803.054    7837.5016    7713.0367    8185.3824   -275.99002   -267.74752   -370.59754   -8150.7677 
41607000    56.378678   -9950.4382    -9735.497   -9950.4382            0    8168.7909    24.601817    24.645948    22.767365    13804.652    8262.3828    8276.9602    7967.0297    -14.09657   -10.924784    254.38734   -8090.9013 
41608000    56.364372    -9952.229   -9737.3423    -9952.229            0    8045.4437    24.673254    24.668359     22.68676    13808.266    7348.7343    8541.3826    8246.2141   -293.76055   -820.31488    547.11548   -8117.1557 
41609000    54.782364   -9948.1097   -9739.2544   -9948.1097            0    7955.2683    24.679992    24.669134    22.680969    13808.946    8093.4577    7881.5155    7890.8317    48.741916    44.897276   -277.08955   -8137.1484 
41610000    56.114093   -9957.1127   -9743.1802   -9957.1127            0    8103.5857    24.651676     24.71375    22.659238    13804.809    8117.6357    7646.6403    8546.4812   -550.71546   -126.51166   -3.9636978   -8111.6935 
41611000    55.805145   -9947.7147     -9734.96   -9947.7147            0    8261.6108      24.6284    24.680425    22.703115    13799.847    8425.9703    8291.5147    8067.3475   -101.03547   -648.17089   -469.27691   -8072.2562 
41612000    57.178568   -9953.3514   -9735.3607   -9953.3514            0    7588.1277      24.6185    24.678889     22.75274    13823.592    7533.2898     7433.911    7797.1822   -30.914876   -999.01131   -650.61133   -8205.5721 
41613000    56.873601   -9944.3956   -9727.5675   -9944.3956            0    9201.4589     24.60807    24.630694     22.68801    13751.517    9070.7543    9600.4449    8933.1774   -412.50488   -226.04808    174.89584   -7882.1986 
41614000    57.445415   -9941.5732   -9722.5651   -9941.5732            0    7992.9701     24.64558    24.735974    22.653984    13810.603    8180.3669    7582.6541    8215.8894   -151.73408   -270.04092   -343.58209   -8112.6732 
41615000    58.772217    -9947.219   -9723.1525    -9947.219            0    8619.7201     24.60507    24.717651    22.664737    13784.229     9018.993    7956.9087    8883.2587   -148.62602    237.30615   -537.57753   -7990.3401 
41616000    55.564349   -9951.1862   -9739.3495   -9951.1862            0    8456.2273    24.578602    24.686711    22.726252    13789.491    9045.2081    8380.4063    7943.0676   -467.28042    93.226033   -217.06371   -8038.7551 
41617000    54.768632   -9955.5172   -9746.7142   -9955.5172            0     8546.453    24.595816    24.624812    22.757725    13783.611     8915.783     8587.978    8135.5981   -432.76838   -331.37797    206.61634   -8028.7076 
41618000    53.859958    -9952.512   -9747.1733    -9952.512            0    8108.0381    24.609656    24.699604    22.702855    13799.902    8410.0728    7940.9215    7973.1198   -286.83428    391.21617    269.22112   -8115.3705 
41619000    55.501572   -9948.7663    -9737.169   -9948.7663            0    8314.9236    24.649156    24.730766    22.628061    13793.896    8343.1129    7314.0344    9287.6234   -12.317698    17.008204   -148.60149   -8064.4572 
41620000    54.273309   -9946.1307   -9739.2161   -9946.1307            0    8132.3865    24.702946     24.66095    22.659185    13803.933     7435.547     8645.719    8315.8934   -11.223113    527.43259    373.37717    -8102.035 
41621000     54.92668   -9946.0952   -9736.6896   -9946.0952            0    8751.5653    24.619467    24.678869    22.666108    13771.487    8937.3155    8741.2371    8576.1433    175.65382   -222.03438    138.21471   -7978.9988 
41622000    55.301655   -9941.5096   -9730.6745   -9941.5096            0    8208.7556    24.574841    24.674448    22.774358    13809.702    9007.1336    8215.1921    7403.9411    53.512136   -573.43431    435.51436   -8077.4284 
41623000    54.665254   -9949.1119    -9740.703   -9949.1119            0    8413.5558    24.651395    24.685881    22.663842    13791.886    9089.8395    8020.2724    8130.5555   -193.96469    109.64855   -2.7524287   -8048.3962 
41624000    57.881316    -9950.201    -9729.531    -9950.201            0    7817.1478    24.644347    24.684735    22.707071    13813.601    7801.1159    8298.3123    7352.0154   -146.95529   -543.07737    252.34077   -8154.7103 
41625000    58.224811   -9948.5472   -9726.5676   -9948.5472            0    7920.6878    24.666384    24.617851    22.752886    13816.312    7791.4859    8505.7115    7464.8658    -54.82008   -68.722488    232.79645   -8130.5749 
41626000    55.770445   -9950.1693   -9737.5469   -9950.1693            0    8595.5039    24.631961    24.661121    22.693274    13785.069     8792.383    8558.0103    8436.1184   -261.39308   -299.49388    58.170355   -8009.4974 
41627000    56.106056   -9945.8331   -9731.9312   -9945.8331            0    7889.0139       24.618    24.702666    22.710235    13810.781    8518.4215     7342.104    7806.5163   -141.10514   -568.38272    302.06275    -8142.957 
41628000    55.424178   -9952.6186   -9741.3164   -9952.6186            0    7899.0736    24.613949    24.699992    22.723302    13814.957    8523.9173    7568.6928    7604.6106   -84.857487    27.430433   -103.78657   -8149.8349 
41629000    57.228042   -9945.5981   -9727.4188   -9945.5981            0    8913.1632    24.629085    24.657284    22.669896    13767.119    8917.9376    8677.3094    9144.2427   -591.55758   -433.29852   -187.04591   -7937.8401 
41630000    54.730809   -9952.4394   -9743.7806   -9952.4394            0    8080.6968      24.5837    24.676126     22.74239    13796.227    8759.9573    7738.9468    7743.1864   -283.21139    -1019.175    643.12519   -8117.9135 
41631000    54.624778   -9947.6163   -9739.3617   -9947.6163            0    9074.7569    24.581755    24.713866    22.645708    13757.498     9334.989    8760.1142    9129.1674   -235.23825   -274.35622   -105.07976   -7918.6116 
41632000    54.860574   -9948.6244   -9739.4709   -9948.6244            0    7586.6219    24.689434    24.695148    22.677761     13826.84    7243.1854    7681.9246    7834.7558    331.73493   -461.01163     105.8817   -8209.6264 
41633000    56.084512   -9952.8319   -9739.0122   -9952.8319            0    8422.3094    24.667566    24.645485     22.67551    13785.443    7707.2499    8486.4578    9073.2204   -13.599195    354.90048   -234.17562   -8045.7359 
41634000    55.758775   -9956.3724   -9743.7945   -9956.3724            0    8096.9125    24.677574    24.699417    22.638201    13798.474    7721.2235    7909.3737    8660.1401   -96.807853   -407.43692   -36.149481   -8114.3994 
41635000    54.184593   -9953.4398   -9746.8634   -9953.4398            0    8189.0116    24.661707    24.594673    22.750558    13799.274    7818.0828    8668.8264    8080.1257   -168.65483   -257.64929    244.45815   -8098.8391 
41636000    55.860388   -9952.3195   -9739.3542   -9952.3195            0    7418.3281    24.605267    24.714467    22.752483    13835.923      8212.42    6911.2251    7131.3391    12.382059   -129.65086      175.911   -8242.4637 
41637000     54.86089   -9948.6611   -9739.5064   -9948.6611            0    8331.5404     24.63463    24.684669    22.687053    13795.944    8201.7156    8164.4767    8628.4288    197.67931   -176.07467    124.09997    -8063.203 
41638000    56.253642   -9948.4032   -9733.9387   -9948.4032            0    8462.2211     24.69614    24.625274    22.677257    13791.156    8067.1186    8831.5254    8488.0194   -113.15347    166.22861    741.24807   -8031.9333 
41639000    54.416737   -9951.1225   -9743.6611   -9951.1225            0    8027.0191    24.685583    24.631269    22.706417    13806.347    7401.6775    8472.8402    8206.5395    649.30668   -191.84519    87.937047   -8127.4095 
41640000    56.649019   -9950.3802   -9734.4083   -9950.3802            0    8480.4982    24.596002    24.661152    22.738097    13792.151    8836.7615    8377.8777    8226.8553    53.925946   -72.268729    660.97556   -8028.6038 
41641000    55.199208   -9953.2834   -9742.8388   -9953.2834            0    8350.5033    24.664892     24.64639    22.684596    13789.978    7922.9542    8754.3537    8374.2022    -129.4605   -33.076583   -146.52876   -8063.4467 
41642000    55.585902   -9959.5425   -9747.6237   -9959.5425            0    7724.2272    24.648423    24.657072    22.733321    13816.356    7367.4898    8186.8472    7618.3447   -278.47447     114.9376    266.94687   -8191.2121 
41643000    56.006926   -9948.7785   -9735.2546   -9948.7785            0    8467.1298    24.665153    24.657123    22.675776    13790.766    8073.1625    8819.8826    8508.3442   -320.34608   -60.975874     199.9476   -8032.3101 
41644000    54.436759   -9947.2672   -9739.7295   -9947.2672            0    8072.3664    24.618572    24.709583    22.700117    13808.814    8079.2639    7559.6417    8578.1936   -647.80001   -59.860614    208.19355   -8114.0567 
41645000    58.381287   -9947.1885   -9724.6124   -9947.1885            0    8226.5737    24.623266     24.65625    22.745983    13809.482    8398.5215     8315.253    7965.9466    -92.52837   -267.16752    185.77653   -8067.8041 
41646000    55.303757   -9947.2368   -9736.3937   -9947.2368            0     8872.359    24.595676    24.671372    22.690466    13768.781    9032.9966    8728.0981    8855.9825    3.6291421   -660.47938    42.648783   -7954.7925 
41647000    55.920859   -9954.6893   -9741.4935   -9954.6893            0    7842.2088    24.665498    24.701576    22.675422    13815.606    7917.5428    7140.8511    8468.2324   -344.76006    140.18898   -230.78488   -8161.3947 
41648000    55.929291   -9957.0911   -9743.8632   -9957.0911            0     8637.337    24.669292    24.603563    22.703526    13779.961    7854.0816    9428.2054    8629.7241   -143.42457   -144.47252    672.51243   -8008.0469 
41649000    55.255421   -9947.4846   -9736.8257   -9947.4846            0    7987.9266    24.583613    24.688941    22.754501    13810.694    8650.0161    7934.4618    7379.3018   -84.561608   -172.31403    387.72226   -8127.9391 
41650000    55.569029   -9950.2716   -9738.4171   -9950.2716            0    8493.2158    24.677375     24.67634    22.633929     13782.87    8312.1168    8599.9737    8567.5569    -255.3284    284.41527     284.5931   -8031.2041 
41651000    56.035409   -9946.1188   -9732.4863   -9946.1188            0    8261.9971    24.646148     24.64452     22.69963    13787.585    8252.7676    8375.2405    8157.9831   -340.52131   -137.76534    383.12935   -8071.1823 
41652000    54.685851   -9952.3664   -9743.8789   -9952.3664            0    7731.9887    24.669772    24.674985    22.697197     13816.38    7642.1505    7296.2628    8257.5527   -183.46844    12.012644   -78.116334   -8185.9008 
41653000    55.117433   -9943.2256   -9733.0928   -9943.2256            0    8234.4642    24.641701    24.727293    22.643096    13796.949    8433.4841    7478.7071    8791.2013   -766.45024   -215.96107    281.78278   -8076.2005 
41654000    55.384105   -9955.1533   -9744.0038   -9955.1533            0    7973.9142    24.641804    24.658422    22.724251    13807.891    8054.3275    8155.1868    7712.2283   -276.83205    -428.8952    1.8317575   -8138.2654 
41655000    55.084182   -9942.3842   -9732.3781   -9942.3842            0    9288.8534    24.599939    24.635564    22.703964     13759.36    9539.5627    9197.1113    9129.8862   -620.45817   -23.934848    252.92408   -7868.4197 
41656000    53.770175   -9964.2084    -9759.212   -9964.2084            0    8032.6388    24.599358    24.635275    22.772699    13800.528    8226.6334    8455.3863    7415.8967     -237.301   -826.08476    270.59917   -8142.5105 
41657000    53.402022   -9943.2644   -9739.6715   -9943.2644            0    8402.8322    24.657152    24.632261    22.709779    13793.043    8334.3746    8777.6566    8096.4654   -299.52128    34.608217     353.4612   -8049.3797 
41658000    56.739901   -9953.4351   -9737.1167   -9953.4351            0    7700.1019    24.711623    24.668039    22.656862    13811.335    6853.3116    8071.5889    8175.4053   -405.41642    -384.4716    167.73424   -8186.1302 
41659000    55.637631   -9942.4212   -9730.3051   -9942.4212            0    8535.6422    24.678211    24.647209    22.671076     13789.66    8342.4438    8845.6668    8418.8161   -49.934776   -64.759158   -54.363601   -8013.7189 
41660000    56.174169   -9953.3346    -9739.173   -9953.3346            0    8060.5342     24.69612    24.663507    22.667273    13806.476    7994.1009    7923.8159    8263.6859    114.61904   -395.23384    367.27876    -8116.158 
41661000    55.206789   -9958.6328   -9748.1593   -9958.6328            0    8171.2554    24.580763    24.674725    22.762269    13805.853    8653.6584    7734.9719    8125.1359   -384.65065    85.035893   -96.638205   -8102.9244 
41662000    55.467162   -9951.3215   -9739.8554   -9951.3215            0    8106.7788    24.658301    24.642841    22.709984    13799.735    7948.1513    8326.4866    8045.6986   -9.3928827   -132.76548   -47.582462   -8108.3258 
41663000    57.940064   -9954.1825   -9733.2886   -9954.1825            0    8006.0019    24.658299    24.675275    22.689428    13805.389    7796.1408    8185.5067    8036.3584   -232.93638   -568.85695    30.020048   -8121.3806 
41664000    54.740993   -9951.6302   -9742.9326   -9951.6302            0    8464.6343    24.592642    24.647091     22.74825    13788.558    8577.2924    8818.5684    7998.0421   -100.71829   -329.48493    277.04446   -8040.7626 
41665000    56.015408   -9952.8032   -9739.2469   -9952.8032            0    7897.6271    24.680893    24.636631    22.720197    13815.108    7302.7969    8419.7909    7970.2934    190.16481    -122.4614    396.49328   -8148.0396 
41666000    56.168666   -9944.9035   -9730.7629   -9944.9035            0    8136.8722    24.627718    24.716629    22.678066     13804.46    7949.5211    8142.9087    8318.1869   -25.749245   -722.87568   -48.876019   -8092.6161 
41667000    54.212558   -9957.3547   -9750.6717   -9957.3547            0    8169.4264    24.603904     24.73238    22.671999    13796.209    8298.4353     8001.624    8208.2198   -118.38572   -449.94015   -45.327679   -8106.9541 
41668000    56.782363   -9940.9989   -9724.5186   -9940.9989            0    8545.3482    24.644625    24.641714    22.708938    13790.816    7889.1909    9012.1789    8734.6747   -3.6102915   -223.01224    -383.3905   -8005.8362 
41669000    54.327973   -9947.0163   -9739.8933   -9947.0163            0    7723.8859     24.72865    24.683349    22.654851    13828.202    6970.9262    8394.3736     7806.358    484.48906   -665.63701   -283.15512   -8182.2162 
41670000    55.892019   -9951.7477   -9738.6618   -9951.7477            0    8086.2138    24.613967    24.688075    22.712595    13801.796    8594.7731    7664.8722     7998.996   -353.69256   -255.68678    16.524245    -8111.028 
41671000    55.015384   -9951.4352   -9741.6915   -9951.4352            0    8305.9042    24.605275    24.698275    22.702144    13796.271    8399.9517    8086.1793    8431.5816    143.93576    62.943632    189.08894   -8070.5065 
41672000    54.416179   -9946.3539   -9738.8946   -9946.3539            0    7805.3954    24.605669    24.704813    22.734063    13819.547    8314.8705    7396.5074    7704.8084    38.173997    739.85598    118.09054   -8165.7646 
41673000    55.844139    -9951.176   -9738.2726    -9951.176            0    7984.1351    24.630277    24.686647    22.715474    13811.893    8160.2771    8197.9367    7594.1916    104.20272   -261.94375   -239.75783     -8130.01 
41674000    54.788568   -9948.9451   -9740.0661   -9948.9451            0    8436.8751    24.685308    24.633119    22.660355    13779.221    7963.2886    8564.5464    8782.7901   -71.909746   -310.40601   -192.57034   -8044.6271 
41675000    54.801881   -9945.5348    -9736.605   -9945.5348            0     8277.703    24.685415    24.663206    22.652412    13791.275    8466.4608    8406.5908    7960.0574    165.23966   -812.06252    177.44793   -8071.6974 
41676000    54.236722   -9948.3128   -9741.5377   -9948.3128            0    8063.4617    24.596205    24.669982    22.762654    13812.104    8287.0394    8128.1838    7775.1618   -116.00716    71.500712     426.8876   -8117.2713 
41677000    55.304283   -9947.5335   -9736.6883   -9947.5335            0    7520.3021    24.666965    24.716478    22.685681    13831.018     7453.488    7284.5362     7822.882    214.27335    312.64721    357.29412   -8219.7591 
41678000    53.998799   -9943.0858   -9737.2177   -9943.0858            0    8367.0669    24.585265    24.673321    22.746308    13797.914    8863.6253    8251.1695    7986.4059   -58.432989    -99.71013     144.0493   -8053.5261 
41679000    54.484659   -9950.1229   -9742.4025   -9950.1229            0     7816.516    24.663983    24.639018    22.746848    13823.176    7713.4399    8316.3009    7419.8073    -145.7444   -395.98092    -96.30973   -8166.6176 
41680000    54.033907   -9948.5251   -9742.5232   -9948.5251            0    8719.3909    24.669461    24.608711    22.701474    13781.694    8300.8554    9107.1273    8750.1901   -286.49033   -296.54171    320.67106   -7989.9965 
41681000    55.784991   -9952.8091   -9740.1312   -9952.8091            0     7506.162    24.596262    24.724876    22.749573    13834.915    7810.6032    7068.9432    7638.9396    379.09859   -222.24285    -68.55442   -8225.6276 
41682000    56.272069   -9941.3156   -9726.7808   -9941.3156            0    8452.6271    24.640648    24.589861    22.769828    13796.469     8518.984    9303.2898    7535.6075   -3.2547717   -511.27662    370.62601   -8026.0501 
41683000    53.932239   -9944.0498   -9738.4355   -9944.0498            0    7954.7456     24.66429    24.670359    22.701714    13813.468    7852.3357    8075.1083    7936.7929   -67.808835   -133.24462   -236.19624   -8135.9101 
41684000    55.595272   -9946.8094   -9734.8549   -9946.8094            0    8188.6738    24.627355    24.664407    22.725608    13803.969    8476.2726    8210.9003    7878.8483   -319.58748   -85.760066    58.133803   -8086.3379 
41685000    55.331364   -9937.1393   -9726.1909   -9937.1393            0    8386.1256    24.637042    24.640535    22.739271    13804.327    7907.9553    9330.9297    7919.4918    105.44983   -362.25668    271.38273   -8037.8798 
41686000    57.518238   -9947.4022   -9728.1165   -9947.4022            0    8046.3974    24.675478    24.723239    22.634975    13808.642    8127.5025    7744.1351    8267.5545   -285.60646    545.26807     168.9935   -8107.6937 
41687000    55.706587   -9960.6144   -9748.2354   -9960.6144            0    8265.1933    24.639467    24.629127    22.728993    13793.057     7718.853    8648.7998    8427.9271    285.26892   -440.01585    459.74878   -8085.6291 
41688000    55.906366    -9940.029   -9726.8884    -9940.029            0    8532.4724    24.611927    24.664525    22.718997    13791.374    8866.3044    8105.6335    8625.4793   -229.77929   -74.667051    248.17646   -8010.7263 
41689000    53.054188   -9948.4584   -9746.1916   -9948.4584            0    8565.1336    24.549005    24.742915    22.694141    13784.738    9319.7935    7920.0375    8455.5698   -449.04135    375.46427   -410.12907   -8024.2891 
41690000    58.449854   -9950.6054   -9727.7679   -9950.6054            0    7641.5383    24.593001    24.733549    22.719567    13819.681    8087.1305    7627.1331    7210.3513    179.10198    481.40601    81.048216   -8187.6474 
41691000    55.844303   -9948.0989    -9735.195   -9948.0989            0    8233.5844    24.621689    24.704665    22.682257    13796.949    8174.1104    8136.1247    8390.5181   -415.47607    -56.09467   -447.89732   -8078.4796 
41692000    56.208679   -9943.7218   -9729.4287   -9943.7218            0    8094.2705    24.630916    24.714045    22.677613    13804.533    7859.6757    8394.4071    8028.7287   -155.64986    120.14012    293.26099     -8099.85 
41693000    55.129428   -9947.7809   -9737.6024   -9947.7809            0    7981.1036      24.6036     24.68487    22.730295    13804.942    8433.6481    7918.4419    7591.2208    221.77093    -340.5286    76.194754   -8130.7595 
41694000    54.673458   -9948.2542    -9739.814   -9948.2542            0     8259.293    24.608424    24.634324    22.775328    13806.674    8295.1665    8314.8997     8167.813     506.1014   -341.61311   -273.81815   -8076.7543 
41695000    55.603135   -9949.2013   -9737.2168   -9949.2013            0    7917.8777    24.676027    24.712291    22.648651    13811.174     7797.743    7704.3253     8251.565   -276.53856   -251.06927    572.66507   -8142.3836 
41696000    56.263329   -9948.2093   -9733.7078   -9948.2093            0    8049.3364     24.63562    24.667156    22.724036    13809.185    7872.4895    8229.1941    8046.3255   -507.95707   -234.52176    116.61083   -8112.6294 
41697000    55.656684   -9947.6051   -9735.4164   -9947.6051            0    8575.8971     24.61304    24.636239    22.740854    13789.433     8658.122    8659.5434    8410.0257   -88.102119    -728.6758   -29.141478   -8010.7629 
41698000    55.429491   -9943.9092   -9732.5867   -9943.9092            0    8478.2395    24.640274     24.67849    22.675887    13788.861    8060.1309     8700.577    8674.0105   -663.75226    95.782428    79.714385   -8027.6433 
41699000       55.212   -9944.0891   -9733.5958   -9944.0891            0    7724.0657    24.680159    24.678139    22.710819    13832.261    7877.9115    7578.1218    7716.1638    116.25557   -264.64388    295.53459   -8175.4252 
41700000    55.805748   -9948.8046   -9736.0477   -9948.8046            0     8423.242    24.653474    24.681292    22.671042    13794.867    7653.8654    8339.2922    9276.5683   -90.292427   -164.47675    29.379607   -8041.4263 
41701000    58.298378   -9949.2046   -9726.9446   -9949.2046            0     8163.557    24.644006    24.670217    22.701194    13801.712    8250.2243    8607.8749    7632.5717   -168.98244    116.73516    186.59471   -8083.7526 
41702000    55.981024   -9952.8451   -9739.4199   -9952.8451            0    8379.6935     24.69195    24.658693    22.654121    13793.442     7517.117    8867.1868    8754.7766   -54.326396    275.00016   -291.61425   -8053.7339 
41703000    55.148214   -9957.4455   -9747.1954   -9957.4455            0    8266.5274    24.644354    24.650507    22.713123    13798.127    8070.6477    8602.5275    8126.4069  0.010378567    143.75467    101.48216   -8083.7094 
41704000    57.606333   -9955.0728   -9735.4512   -9955.0728            0    8038.0598    24.639819    24.670294    22.710464    13805.046    7939.3119    8482.5354     7692.332   -79.097342   -586.67168     1434.294    -8117.129 
41705000    54.268387   -9950.5959   -9743.7001   -9950.5959            0    7938.5586    24.629437    24.717695    22.679401    13806.832    7866.4287     7530.124    8419.1231    100.63891    219.86255    491.01674    -8145.204 
41706000    51.815552   -9952.0002   -9754.4557   -9952.0002            0    8488.7597    24.637382    24.698401    22.665455    13792.018    8757.7903    7942.9797     8765.509    15.557666   -365.02194   -429.12769   -8047.0059 
41707000    57.727158   -9958.8154   -9738.7331   -9958.8154            0    7893.8629    24.651439    24.663714    22.728526    13818.854    7547.2979    8161.1851    7973.1056   -427.11729   -244.47321    216.34898   -8147.8529 
41708000      54.8611   -9939.7898   -9730.6343   -9939.7898            0    9138.9351    24.650254    24.618296    22.674054    13759.687     8510.668    9339.9851    9566.1523   -232.68633   -218.34726   -233.65127   -7896.7157 
41709000    55.758155    -9944.478   -9731.9025    -9944.478            0    7608.2452    24.684268    24.650257      22.7153    13821.659     7168.475    7880.0938    7776.1667     -257.342   -10.083994    438.39896   -8198.2725 
41710000     57.60834   -9951.0796   -9731.4503   -9951.0796            0    8687.4562    24.609451    24.662939    22.715206    13786.799    9045.9295    8360.4422     8655.997   -203.47562   -413.03083    1187.2522   -7984.6955 
41711000    55.056476   -9942.5283   -9732.6279   -9942.5283            0    7770.0369    24.536558    24.662746     22.84058    13821.724    8153.9781    8142.4538    7013.6789    -50.73823   -137.36456   -174.30386   -8166.3776 
41712000    55.653022   -9950.0499   -9737.8752   -9950.0499            0    8401.2149    24.670105    24.566299    22.760327    13793.969    7617.8595    9472.9072    8112.8781    78.642331   -180.53507    603.25972   -8047.7953 
41713000     55.39106   -9951.9603   -9740.7843   -9951.9603            0     8368.797     24.61174    24.674522    22.722569    13799.028    8415.4952    7988.9412    8701.9547    171.63202   -37.585035   -49.605284   -8056.6085 
41714000    57.151431   -9947.9173     -9730.03   -9947.9173            0    8434.0236    24.690344    24.656355    22.649949    13788.698    8115.2226    8169.8971     9016.951   -63.102097   -437.69941   -241.30945   -8033.9984 
41715000    54.979876   -9949.5231   -9739.9147   -9949.5231            0     7969.536     24.56785      24.7277    22.718902    13801.879     8312.343    7754.2777    7841.9873   -21.814193   -718.17345    286.71865   -8135.7567 
41716000     55.65293   -9953.9426   -9741.7683   -9953.9426            0    8390.0986    24.631007    24.688552    22.680183    13791.908    8245.1392    7823.5899    9101.5667   -158.86843   -85.285308    22.993822   -8054.1769 
41717000    57.355613   -9949.6048   -9730.9391   -9949.6048            0    8474.1485    24.649902    24.699847    22.647986    13789.199    8668.4835     8196.364     8557.598   -117.76304   -519.71075   -25.521539   -8026.7766 
41718000    55.330126   -9950.1927    -9739.249   -9950.1927            0     7941.238    24.654756    24.696603    22.690331    13815.886    7945.5455    7560.8322    8317.3363   -191.63649    207.79153    324.24255   -8139.1647 
41719000    54.779623   -9952.4214   -9743.5765   -9952.4214            0    8151.2326    24.631162    24.637339    22.739659    13799.478    8499.2696     8360.434    7593.9941   0.23672279   -679.72396    426.85141   -8103.1309 
41720000    55.412806   -9950.1207   -9738.8618   -9950.1207            0    8178.7585    24.592285    24.673905    22.740625    13798.732    8669.0542    8238.5007    7628.7207    64.511201   -59.392792    351.91564   -8092.9656 
41721000    55.162944   -9947.6292   -9737.3229   -9947.6292            0    8087.0343    24.726832    24.657677    22.639746    13803.594    7458.2115    8031.1537    8771.7378   -83.592348   -771.44899    515.73532   -8109.3118 
41722000    55.373753   -9951.9652   -9740.8552   -9951.9652            0    8656.9148    24.605816    24.641793    22.730875    13782.444    8405.0334    9301.5445    8264.1664   -16.232255    9.0826393   -370.18036    -8000.791 
41723000    54.815617   -9950.9108   -9741.9286   -9950.9108            0    7412.1264    24.624526    24.681665    22.778003    13843.885    7650.9298    7569.0442    7016.4053   -300.99769   -608.23885    103.47035   -8245.4288 
41724000    56.367102   -9938.7201    -9723.823   -9938.7201            0    8172.2135    24.673673    24.708391    22.645566    13805.796    8130.7772    7957.3332    8428.5302    265.78599   -75.912446    593.47997   -8078.4019 
41725000    56.628938    -9956.696   -9740.8007    -9956.696            0    7851.4888    24.693784    24.677495    22.662421    13810.043    8065.3517    7503.1101    7986.0045    181.99506   -467.17168     268.3765   -8159.4692 
41726000    55.639565   -9947.1273   -9735.0039   -9947.1273            0    8904.3811    24.621349    24.630034    22.709484    13771.591    8769.7781    8796.7594    9146.6058    436.88337    -51.09355   -125.89334   -7946.6076 
41727000    54.910367   -9942.8536   -9733.5102   -9942.8536            0     8019.662    24.630671    24.644561    22.751995    13810.736    7820.1369    8737.8051    7501.0441    287.68353   -146.63294    297.02004   -8118.2266 
41728000    57.246177   -9950.9289   -9732.6804   -9950.9289            0    7777.6355    24.598377     24.72481     22.72109    13818.744    8171.1341    7496.5863    7665.1862   -71.245477     385.8504    490.67982   -8165.2364 
41729000    56.097966   -9954.7138   -9740.8428   -9954.7138            0    8312.2166    24.621056    24.659194    22.703384    13784.028    8980.2029    7929.7331    8026.7138     -287.659     -282.404    197.00006   -8069.8719 
41730000    55.171898   -9947.9777   -9737.6373   -9947.9777            0    7861.6472    24.666638    24.695046    22.688594    13820.616    7531.9644    7822.9011     8230.076    58.313694    319.87068   -95.014924   -8153.0475 
41731000    55.412885   -9939.4961   -9728.2369   -9939.4961            0    8493.9325    24.592858     24.69679    22.716167    13796.996       8865.2    8038.7185    8577.8791   -177.28348   -337.90548   -74.266797   -8019.1299 
41732000    55.143674   -9946.5501   -9736.3173   -9946.5501            0    7605.2575    24.650953    24.674074    22.727405    13823.704    7815.2427    7713.4934    7287.0364   -312.27514   -151.07492    110.94405   -8203.0629 
41733000    57.872843   -9947.9289   -9727.2912   -9947.9289            0    8385.8519    24.695178    24.627677    22.677481    13792.101    8031.4457    8286.0191    8840.0907   -167.94505   -376.95936   -601.03262   -8040.5304 
41734000    56.461659   -9948.3794   -9733.1218   -9948.3794            0    8458.5109    24.682494    24.610262    22.705901    13792.533    8031.4924    8717.8151    8626.2251    82.786815   -316.14379    92.367572   -8031.6928 
41735000    55.086412   -9952.1061   -9742.0916   -9952.1061            0    8208.7365    24.526963    24.732253    22.741788    13795.328    8552.3156     7891.594    8182.2999   -590.65965   -293.25964   -36.421121   -8090.5701 
41736000    55.080262   -9946.2453   -9736.2543   -9946.2453            0    7822.8967    24.642648    24.679253    22.715764    13814.868    7876.6515    7770.6283    7821.4104    -632.2496   -113.99393    498.62751   -8160.1308 
41737000    54.656742   -9946.6677   -9738.2913   -9946.6677            0    8680.9194    24.659241    24.621988    22.697496    13781.001    8385.1595    8905.8111    8751.7877   -113.49526   -606.43085    583.89141   -7993.5847 
41738000    55.561272   -9935.8552   -9724.0302   -9935.8552            0    7960.4522    24.631966    24.665237    22.734156    13812.211    8125.4532    8294.9563     7460.947   -288.82732    122.86775    232.14204   -8120.5012 
41739000    56.590467   -9950.6321   -9734.8834   -9950.6321            0    8148.8501    24.596327    24.662334    22.762955    13808.073    8715.1562    8119.6655    7611.7286    108.04489   -270.26784   -26.751977   -8093.8958 
41740000    56.302513   -9944.7501   -9730.0992   -9944.7501            0    8210.0058    24.591542    24.664574    22.767497    13809.396    8686.4769    8467.7176    7475.8229   -23.028956   -323.43177     229.9415   -8076.6379 
41741000    56.546098   -9946.7677   -9731.1882   -9946.7677            0     8305.486    24.622955    24.693871    22.689892    13796.273    8189.6347     8128.705    8598.1184   -197.83326    -261.5269   -518.56819    -8060.087 
41742000    56.597112   -9944.6928   -9728.9188   -9944.6928            0    8693.2752    24.684907    24.665809    22.645596    13788.297    8353.6352      8900.12    8826.0705   -96.691815    -12.93406    -105.7297   -7980.8041 
41743000    55.670853   -9953.1995   -9740.9568   -9953.1995            0    7915.8533    24.662923    24.677384     22.70099    13816.196    7896.6748    7940.8811    7910.0042   -475.71271   -391.12222    138.47432   -8145.9516 
41744000     55.39061   -9953.3069   -9742.1326   -9953.3069            0     8377.678    24.607758    24.700487    22.698587    13796.737    8843.1395    7849.8302    8440.0644   -225.54404   -233.64944    40.175798   -8056.4495 
41745000    55.576823   -9951.7516   -9739.8674   -9951.7516            0    7409.7696    24.659549    24.731038    22.684994    13834.585     7427.781    7377.8571    7423.6707   -134.04332    -179.0454   -37.448294   -8244.8483 
41746000    55.601366   -9954.3311   -9742.3534   -9954.3311            0    8224.2473    24.655172    24.629136    22.752721    13816.262      7703.44    8825.0115    8144.2903   -543.13311    -59.02426   -141.88868   -8085.2004 
41747000    58.246933   -9946.9494   -9724.8855   -9946.9494            0    8318.4684     24.65993    24.628397    22.728526    13803.819    8018.8163    8749.1309    8187.4581   -79.754585   -649.87859    561.38676   -8050.2568 
41748000     54.76645   -9956.6739   -9747.8793   -9956.6739            0     7594.421    24.595957    24.732732    22.708765    13814.315    8066.4453    7112.7586     7604.059   -176.94404    29.777511    127.64179   -8217.8494 
41749000    53.749074    -9954.405    -9749.489    -9954.405            0    8038.9626     24.62429    24.738006    22.632834    13786.923    8222.4253    8076.0558    7818.4067   -11.030143   -238.49192    462.02266   -8133.1098 
41750000    54.307897   -9940.0479   -9733.0015   -9940.0479            0      7857.74     24.61881     24.65622    22.776387    13825.422    8317.9402    8109.0413    7146.2385    229.90726   -243.93226    412.31984   -8148.6485 
Loop time of 577.591 on 64 procs for 250000 steps with 1920 atoms

Performance: 74.793 ns/day, 0.321 hours/ns, 432.832 timesteps/s
372.9% CPU use with 16 MPI tasks x 4 OpenMP threads

MPI task timing breakdown:
Section |  min time  |  avg time  |  max time  |%varavg| %total
---------------------------------------------------------------
Pair    | 72.939     | 75.621     | 78.438     |  15.8 | 13.09
Bond    | 1.648      | 1.8413     | 2.2731     |  11.8 |  0.32
Kspace  | 276.64     | 281.63     | 289.95     |  22.0 | 48.76
Neigh   | 0.13546    | 0.13876    | 0.14549    |   0.8 |  0.02
Comm    | 71.834     | 81.361     | 87.579     |  46.7 | 14.09
Output  | 0.52106    | 0.52133    | 0.52275    |   0.1 |  0.09
Modify  | 91.545     | 103.11     | 109.74     |  46.2 | 17.85
Other   |            | 33.37      |            |       |  5.78

Nlocal:        120.000 ave         122 max         117 min
Histogram: 1 0 3 0 1 0 3 0 6 2
Nghost:        4362.38 ave        4394 max        4328 min
Histogram: 2 1 1 2 2 2 0 2 1 3
Neighs:        43994.6 ave       45019 max       42843 min
Histogram: 1 1 1 2 3 2 1 2 2 1

Total # of neighbors = 703914
Ave neighs/atom = 366.62187
Ave special neighs/atom = 2.0000000
Neighbor list builds = 250
Dangerous builds = 0

unfix		3
unfix		2
unfix		1

write_data	data.final.${pid}
write_data	data.final.0
System init for write_data ...
PPPM initialization ...
  extracting TIP4P info from pair style
  using 12-bit tables for long-range coulomb (../kspace.cpp:340)
  G vector (1/distance) = 0.37537988
  grid = 30 30 30
  stencil order = 5
  estimated absolute RMS force accuracy = 0.0031624383
  estimated relative force accuracy = 9.5235889e-06
  using double precision FFTW3
  3d grid and FFT values/proc = 7920 1800
Last active /omp style is kspace_style pppm/tip4p/omp
WARNING: Not all mixed pair coeffs generated from mixing. Use write_data with 'pair ij' option to store all pair coeffs. (../write_data.cpp:312)

write_restart   restart.lmp.${pid}
write_restart   restart.lmp.0
System init for write_restart ...
PPPM initialization ...
  extracting TIP4P info from pair style
  using 12-bit tables for long-range coulomb (../kspace.cpp:340)
  G vector (1/distance) = 0.37537988
  grid = 30 30 30
  stencil order = 5
  estimated absolute RMS force accuracy = 0.0031624383
  estimated relative force accuracy = 9.5235889e-06
  using double precision FFTW3
  3d grid and FFT values/proc = 7920 1800
Last active /omp style is kspace_style pppm/tip4p/omp
Total wall time: 0:09:37
