LAMMPS (30 Jul 2021)
Processor partition = 1
  using 1 OpenMP thread(s) per MPI task
using multi-threaded neighbor list subroutines
variable        pid world 0 1
variable        phase world IceII IceIII

shell cd ${phase}
shell cd IceIII
include Restart.lmp
echo both
log log.lammps
#include		in.partitions
include		in.temp
variable        temperature equal 59.67
variable	tempDamp equal 100.0
include		in.pressure
variable        pressure equal -81.2
variable        pressureDamp equal 1000.0 # This is 1 ps
include		in.seed
variable        seed equal 745823

units		real
atom_style	full

read_restart	restart.lmp.${pid}
read_restart	restart.lmp.1
Reading restart file ...
  restart file = 30 Jul 2021, LAMMPS = 30 Jul 2021
  restoring atom style full from restart
  orthogonal box = (0.0019880244 0.013426834 -0.13042531) to (19.998013 19.986574 20.830423)
  4 by 4 by 4 MPI processor grid
  restoring pair style lj/cut/tip4p/long/omp from restart
  restoring bond style harmonic/omp from restart
  restoring angle style harmonic/omp from restart
  972 atoms
  648 bonds
  324 angles
Finding 1-2 1-3 1-4 neighbors ...
  special bond factors lj:    0        0        0       
  special bond factors coul:  0        0        0       
     2 = max # of 1-2 neighbors
     1 = max # of 1-3 neighbors
     1 = max # of 1-4 neighbors
     2 = max # of special neighbors
  special bonds CPU = 0.007 seconds
  read_restart CPU = 0.020 seconds
include 	in.setup
variable	out_freq equal 1000
variable	out_freq2 equal 10000
variable	out_freq3 equal 1000

timestep	2.0

neigh_modify    delay 7 every 1

include		in.tip4p
# This is TIP4P/Ice

# create groups ###
group ox type 2
324 atoms in group ox
group hy type 1
648 atoms in group hy

# set charges - beside manually ###
set group ox charge -1.1794
Setting atom values ...
  324 settings made for charge
set group hy charge 0.5897
Setting atom values ...
  648 settings made for charge

# ### TIP3P Potential Parameters ###
pair_style lj/cut/tip4p/long/omp 2 1 1 1 0.1577 8.5
pair_coeff 1 1*2 0.000 0.000
pair_coeff 2 2 0.21084 3.1668
bond_style  harmonic
bond_coeff  1 450 0.9572
angle_style harmonic
angle_coeff 1 55 104.52
kspace_style pppm/tip4p/omp 1.0e-5
pair_modify tail yes

thermo          ${out_freq}
thermo          1000
thermo_style    custom step temp pe etotal epair emol press lx ly lz vol pxx pyy pzz pxy pxz pyz enthalpy

restart 	${out_freq3} restart.lmp.${pid} restart2.lmp.${pid}
restart 	1000 restart.lmp.${pid} restart2.lmp.${pid}
restart 	1000 restart.lmp.1 restart2.lmp.${pid}
restart 	1000 restart.lmp.1 restart2.lmp.1


include         in.dump
dump            myDump all atom ${out_freq2} dump.water.${pid}
dump            myDump all atom 10000 dump.water.${pid}
dump            myDump all atom 10000 dump.water.1
dump            myDump2 all dcd ${out_freq2} dump.dcd
dump            myDump2 all dcd 10000 dump.dcd
dump_modify     myDump append yes
dump_modify     myDump2 append yes


variable natoms 	equal  "count(all)"                        # NUMBER ATOMS
variable H      	equal  "enthalpy/v_natoms"                 # ENTHALPY-per-atom
variable Vol      	equal  "vol/v_natoms"                 # volume-per-atom
fix AVG all 		ave/time ${out_freq} 1 ${out_freq} v_Vol v_H file vol_enthalpy.dat
fix AVG all 		ave/time 1000 1 ${out_freq} v_Vol v_H file vol_enthalpy.dat
fix AVG all 		ave/time 1000 1 1000 v_Vol v_H file vol_enthalpy.dat


timer           timeout 02:55:00 every 1000
New timer settings: style=normal  mode=nosync  timeout=02:55:00

fix 		1 all shake 1e-6 200 0 b 1 a 1
Finding SHAKE clusters ...
       0 = # of size 2 clusters
       0 = # of size 3 clusters
       0 = # of size 4 clusters
     324 = # of frozen angles
  find clusters CPU = 0.001 seconds
fix             2 all nph aniso ${pressure} ${pressure} ${pressureDamp}
fix             2 all nph aniso -81.2 ${pressure} ${pressureDamp}
fix             2 all nph aniso -81.2 -81.2 ${pressureDamp}
fix             2 all nph aniso -81.2 -81.2 1000
fix             3 all temp/csvr ${temperature} ${temperature} ${tempDamp} ${seed}
fix             3 all temp/csvr 59.67 ${temperature} ${tempDamp} ${seed}
fix             3 all temp/csvr 59.67 59.67 ${tempDamp} ${seed}
fix             3 all temp/csvr 59.67 59.67 100 ${seed}
fix             3 all temp/csvr 59.67 59.67 100 745823


run             250000
PPPM initialization ...
  extracting TIP4P info from pair style
  using 12-bit tables for long-range coulomb (../kspace.cpp:340)
  G vector (1/distance) = 0.37223473
  grid = 24 24 25
  stencil order = 5
  estimated absolute RMS force accuracy = 0.0034281607
  estimated relative force accuracy = 1.0323804e-05
  using double precision FFTW3
  3d grid and FFT values/proc = 2366 288
Last active /omp style is kspace_style pppm/tip4p/omp
Neighbor list info ...
  update every 1 steps, delay 7 steps, check yes
  max neighbors/atom: 2000, page size: 100000
  master list distance cutoff = 10.8154
  ghost atom cutoff = 10.8154
  binsize = 5.4077, bins = 4 4 4
  1 neighbor lists, perpetual/occasional/extra = 1 0 0
  (1) pair lj/cut/tip4p/long/omp, perpetual
      attributes: half, newton on, omp
      pair build: half/bin/newton/omp
      stencil: half/bin/3d
      bin: standard
Setting up Verlet run ...
  Unit style    : real
  Current step  : 8750000
  Time step     : 2
  Walltime left : 2:54:59.89
Per MPI rank memory allocation (min/avg/max) = 9.228 | 9.231 | 9.236 Mbytes
Step Temp PotEng TotEng E_pair E_mol Press Lx Ly Lz Volume Pxx Pyy Pzz Pxy Pxz Pyz Enthalpy 
 8750000    66.384795   -5128.4907    -5000.462   -5128.4907            0   -362.43263    19.996025    19.973147    20.960849    8371.4182     655.8567   -856.93251   -886.22208   -250.26714    535.77136   -177.98046   -5044.7109 
 8751000    61.751218   -5140.3172   -5021.2248   -5140.3172            0    653.77269     19.95994    19.930419    20.985612    8348.2858     169.8951    915.46933    875.95365   -136.88834    849.87992    326.53014   -4941.6272 
 8752000    61.070049   -5134.7235   -5016.9448   -5134.7235            0   -698.99184    20.015741     20.02538     20.87137    8365.7214   -306.40518   -1251.9226   -538.64777   -280.47708    8.9877499    1215.6457   -5102.2256 
 8753000    59.531566   -5136.5937   -5021.7821   -5136.5937            0   -111.23516    20.015061    19.992702    20.886003    8357.6417   -590.87338    251.07297     6.094927    -153.8692    324.32208   -673.67238   -5035.3403 
 8754000    59.476082   -5142.4213   -5027.7166   -5142.4213            0    468.44339    20.067809    19.991982     20.70784    8307.8876   -392.41032    792.45324    1005.2872    -21.54595    898.68808   -186.12745   -4970.9591 
 8755000    58.247872   -5132.0212   -5019.6853   -5132.0212            0   -363.18613     20.02029    19.998125    20.882168    8360.5576   -259.92035   -86.911983   -742.72606   -39.108406    98.179018   -597.06902   -5063.9686 
 8756000    60.536656    -5131.877   -5015.1269    -5131.877            0   -218.51313     20.02796    19.961258    20.969812    8383.3803   -99.854896   -6.5170608   -549.16745   -206.18497    432.62638   -739.96096    -5041.843 
 8757000    59.840156   -5134.4275   -5019.0208   -5134.4275            0   -110.14154    20.032056    19.936344    20.969566    8374.5306    6.7890111   -341.26594    4.0523133     98.04752    212.87273   -236.66775   -5032.4728 
 8758000    59.781737   -5133.3491    -5018.055   -5133.3491            0    843.20757     19.97344    19.995847    20.785228    8301.3262    1531.5697    515.93482    482.11819   -77.073032    396.06939   -621.45495    -4915.971 
 8759000    63.253546   -5134.0358   -5012.0461   -5134.0358            0    400.68254    19.995356    19.965245    20.917985    8350.7142   -38.298971    587.33198    653.01462   -65.938918   -252.70187   -144.57976   -4963.2483 
 8760000    58.381348    -5126.703   -5014.1097    -5126.703            0     66.60683    19.985242    19.949956     20.96253    8357.8591   -83.171341    421.07168   -138.07985     29.43256   -8.9573976   -61.230844   -5005.9909 
 8761000    59.056767   -5133.3294   -5019.4334   -5133.3294            0   -222.53678    20.034421    20.006749    20.822296    8346.0682    206.91594   -1141.6775    267.15119   -236.48586    931.24131     173.0027   -5046.5204 
 8762000    64.440105   -5133.2895   -5009.0113   -5133.2895            0    163.27142    20.001455    19.959773    20.951636    8364.4064    25.238884    493.85815   -29.282766    20.394452     738.9019    80.706958   -4989.0944 
 8763000    63.548635   -5132.7622   -5010.2033   -5132.7622            0    359.84594    20.030328     19.95645     20.94151    8371.0383    371.21126    481.76593    226.56063   -68.230132    393.41457   -30.241265   -4966.2722 
 8764000    59.878644   -5138.4845   -5023.0035   -5138.4845            0   -801.72581    20.078092     19.98595    20.824095    8356.2877   -982.90324   -1199.7108   -222.56339    123.20586   -28.820741   -71.861192   -5120.7081 
 8765000    59.211165   -5134.6886   -5020.4949   -5134.6886            0   -134.27745    20.106043    19.893153    20.888484    8354.8214   -292.88533    214.87073   -324.81776    14.523942    656.72333    304.38144   -5036.8561 
 8766000    59.740419   -5134.8072   -5019.5928   -5134.8072            0   -6.6172144    20.002008    19.950114     20.96497    8365.9106    106.31802    266.79457   -392.96423   -342.35516    820.19232   -455.49479   -5020.4002 
 8767000    60.398521   -5137.9791   -5021.4954   -5137.9791            0   -805.10881    20.021028    20.050919    20.905001    8392.1039   -743.51527   -1384.1398   -287.67132   -52.309608    502.83374   -4.9947851   -5120.0329 
 8768000    58.721979   -5138.4308   -5025.1805   -5138.4308            0    366.69486    20.037629    19.989076    20.868642    8358.5943   -553.36041    1151.4198    502.02519   -109.47982    31.174715    12.306401   -4980.4798 
 8769000     58.61442   -5133.9585   -5020.9157   -5133.9585            0   -170.95071     20.04785    20.052718    20.914182    8407.7914   -262.24195   -58.030061   -192.58011   -16.035032    324.68925   -76.796688   -5041.8775 
 8770000    57.355102   -5130.7191   -5020.1049   -5130.7191            0    559.84856    19.915339    20.048256     20.84419    8322.4143    1809.0669   -703.89747    574.37629   -86.951478    29.316405   -794.73836   -4952.1539 
 8771000    60.395081   -5142.1354   -5025.6584   -5142.1354            0    898.95488    19.973904    20.017964    20.834713    8330.4867    1112.6209     394.6531    1189.5907   -76.202611    96.284634   -86.853461    -4916.443 
 8772000    59.377466   -5131.1865    -5016.672   -5131.1865            0   -69.089445    20.098998    20.005671    20.865264    8389.7964    320.97297   -348.66267   -179.57863   -78.289474   -53.635726    598.55519   -5025.1256 
 8773000     58.30295   -5138.1854   -5025.7433   -5138.1854            0   -489.41078    20.069951     20.01623    20.929777    8408.0095      -1087.8   -168.36705   -212.06533    159.13697    401.05724   -750.20612   -5085.7559 
 8774000    62.955054   -5129.2557   -5007.8416   -5129.2557            0    1153.1062    19.942135    19.998018    20.884328    8328.7361     1288.249    1309.5378    861.53178   -168.71944   -436.45947    169.57659   -4867.7783 
 8775000    62.463117   -5133.9004   -5013.4351   -5133.9004            0   -562.06054    20.114017    20.011509    20.811598    8376.9144   -1252.9791   -486.16036     52.95783    124.35555    844.21068   -651.91612   -5082.1013 
 8776000    64.210632    -5136.801   -5012.9654    -5136.801            0   -656.47219    19.985112    20.024757    20.928724    8375.6124   -608.65898   -908.35604   -452.40154   -40.644179    497.86825   -506.18667   -5093.1533 
 8777000    62.949397   -5133.0338   -5011.6306   -5133.0338            0    54.743532    20.036835    19.994867    20.850516    8353.4226   -60.941356    353.28012   -128.10817   -89.224219    23.787125    133.15199   -5004.9614 
 8778000    59.214169   -5137.8573   -5023.6578   -5137.8573            0     386.2573    20.084741    19.819413    20.954179     8341.183     209.3269    785.52526    163.91972   -346.22047     338.2945    -277.0305   -4976.6705 
 8779000    61.994594   -5137.0139   -5017.4521   -5137.0139            0    3.6072936    20.052413    19.965779    20.876482    8358.1509    17.369391    199.91845   -206.46596   -320.95099    797.97095    61.513364   -5017.0124 
 8780000     60.09237   -5130.5398   -5014.6466   -5130.5398            0    382.82333     19.99556    20.043312    20.767549     8323.161    861.26825    -785.8056    1073.0073     240.9846    539.22566    -674.3461   -4968.1777 
 8781000    61.032787   -5131.2529   -5013.5461   -5131.2529            0   -613.02947    20.055528    20.002142    20.992234    8421.1085   -288.08344   -1117.6137   -433.39126   -234.97769    596.65557   -799.45108   -5088.8342 
 8782000    59.263659   -5128.5103   -5014.2153   -5128.5103            0   -418.75431    19.970572    20.053107    20.889662    8365.7253    115.36056   -534.28871   -837.33478   -255.55851    274.76891   -11.446183   -5065.3057 
 8783000    59.611551   -5133.7402   -5018.7743   -5133.7402            0    -150.6391    19.969045    20.005542    20.963612    8374.7862   -107.86135    -14.67737   -329.37858   -194.35006   -83.668069   -924.09176    -5037.173 
 8784000    60.418741   -5140.9095   -5024.3869   -5140.9095            0    350.11478    19.958683    19.946464    20.956002    8342.6921    813.68782    58.094327     178.5622   -126.73218    21.667194     301.8759   -4981.7885 
 8785000    57.539249   -5141.3646   -5030.3954   -5141.3646            0     -616.194    20.023398    20.004187    20.907134    8374.3904   -567.05578   -854.10328   -427.42294    13.321076    165.65149    370.45412   -5105.6523 
 8786000    59.967199   -5142.3068    -5026.655   -5142.3068            0   -685.28743    20.082487    19.923086    20.976066    8392.6311   -865.88313   -411.25553   -778.72364   -152.88662    445.62839    352.88787   -5110.5328 
 8787000    59.219289   -5134.8017   -5020.5924   -5134.8017            0   -640.58405    20.071298    20.010887    20.863929    8379.8821   -97.732316   -1676.7301   -147.28978    112.14416    490.56993    200.60551   -5098.8794 
 8788000    60.583813   -5131.0129   -5014.1719   -5131.0129            0   -46.050385    20.050671    19.908583    21.082054    8415.5439    67.290246    398.85417   -604.29557   -378.96625   -321.31725   -141.10788   -5019.8238 
 8789000    58.689409   -5137.7872   -5024.5997   -5137.7872            0   -244.17346    20.063622    20.008276    20.877449    8381.0112   -527.75911    -41.83414   -162.92714   -177.65651   -51.434511    433.23073   -5054.4446 
 8790000    59.691831   -5135.9093   -5020.7886   -5135.9093            0   -754.12781    20.090869    19.949207    21.028302    8428.0782   -590.98013   -1039.0832   -632.32005   -238.95109    110.15638   -200.27902   -5113.4821 
 8791000    59.667419   -5132.2346   -5017.1609   -5132.2346            0    32.798774    20.046073     19.89158    21.030165    8385.7373    159.97129    303.73803     -365.313   -41.164589    369.92581   -409.66045   -5013.1497 
 8792000    58.847608   -5134.0252   -5020.5327   -5134.0252            0    255.68896    20.029354    19.942845    20.993203    8385.5734   -325.69871     608.6481     484.1175    19.607703   -452.55693    632.92707   -4989.2632 
 8793000    62.216458   -5133.5431   -5013.5535   -5133.5431            0   -444.90561     20.07605    19.867058      21.0009     8376.252   -1185.4636    574.44473   -723.69798   -89.832532    502.77561     50.77028   -5067.9027 
 8794000    59.419493   -5140.1196   -5025.5241   -5140.1196            0   -541.69442    19.949118    20.006679    20.978929    8373.0179   -534.49648   -594.20402   -496.38277   -69.079193    287.22744   -329.44825   -5091.6715 
 8795000    57.686045    -5138.888   -5027.6356    -5138.888            0   -83.026532    20.005048    20.035869     20.87206     8365.908    362.47081   -720.30892    108.75851   -153.71403   -795.23303    506.20783   -5037.7655 
 8796000    60.110139   -5139.6099   -5023.6824   -5139.6099            0   -1121.8026    20.002897    19.991676    21.055606    8419.9565   -751.57284   -718.50601   -1895.3289    -76.65286    373.76592    250.87232   -5161.4358 
 8797000    55.426643   -5127.2544   -5020.3594   -5127.2544            0    744.23284    19.972691    19.971496    20.963689    8362.0912    1972.3743   -496.38678    756.71097    216.53932    781.98284   -402.46196   -4929.5984 
 8798000    56.636651   -5134.4292   -5025.2006   -5134.4292            0   -606.67114    20.005173    19.919602    21.092399    8405.2173   -76.278356   -659.44447   -1084.2906   -40.740509    519.47768     -45.2558   -5099.5672 
 8799000     60.26754    -5134.674    -5018.443    -5134.674            0    -261.9517    20.089289    19.894448    21.040797     8409.277    -1097.896    457.35185   -145.31091    79.627094    482.71049    659.40606   -5050.5689 
 8800000    58.724103    -5138.831   -5025.5766    -5138.831            0     838.1403    19.968675    19.965315    20.976569     8362.957    950.71534    1149.4099    414.29567   -288.79357    558.92815    225.13604   -4923.3527 
 8801000    65.930037   -5130.9516      -5003.8   -5130.9516            0   -320.08667    19.983475    19.989314    20.946295    8367.1225    5.0477948   -357.03941    -608.2684   -301.98135    436.45675    481.83142   -5042.8589 
 8802000    59.207905   -5139.0289   -5024.8415   -5139.0289            0   -40.758459    19.988478    20.017669    20.889889    8358.5193    745.69261   -985.66361    117.69563   -134.05128    480.14388   -681.54304   -5029.8099 
 8803000    57.584743   -5138.4495   -5027.3925   -5138.4495            0    305.30145    20.034587    20.000077    20.895582    8372.7194    578.67762    121.75924    215.46751   -400.94517    61.298671    625.04967   -4990.1129 
 8804000    61.351969   -5130.9055   -5012.5831   -5130.9055            0   -293.29892    19.919843     20.02312    21.128932    8427.4312    217.26063   -225.51662   -871.64076   -87.141908    386.06756   -768.81833   -5048.6311 
 8805000    59.220022   -5131.6024   -5017.3916   -5131.6024            0   -289.56832    20.025183     19.91528    21.114147    8420.4722    198.48345   -312.89571   -754.29271   -229.81259   -405.90555   -109.12164   -5052.9518 
 8806000    60.761407   -5125.9971   -5008.8137   -5125.9971            0    169.58009    19.998724    20.015668    20.928775    8377.5338    698.41387    -614.9241    425.25048   -244.34326    399.62052    360.28858   -4988.0947 
 8807000    56.005965   -5136.2889   -5028.2767   -5136.2889            0   -127.51279    19.971623    19.975359    20.953246    8359.0953    275.36712   -870.54864    212.64314    42.389352    195.82578   -389.96892   -5043.8216 
 8808000    61.519291   -5137.4536   -5018.8085   -5137.4536            0    74.122167    19.986641    19.922997    20.961303    8346.6605   -248.45921    279.13533    191.69038   -136.45792    447.20574    120.68722   -5009.7858 
 8809000    60.069159   -5138.7601   -5022.9116   -5138.7601            0   -589.45524     20.14371    19.860321    20.974885     8391.224   -2026.2683     646.5809   -388.67837    14.468795    357.84688   -169.64801   -5095.0476 
 8810000    62.005213   -5139.9742   -5020.3919   -5139.9742            0     84.51424    19.977464    19.921055    21.050245    8377.4115    53.204129    212.21927   -11.880676   -283.96243    428.02856   -110.99569   -5010.0663 
 8811000    57.338646   -5127.8057   -5017.2233   -5127.8057            0    273.46038    20.007526    19.893704    21.109564    8402.1088    303.33517    443.67728    73.368699    120.57999    147.72801   -232.23931   -4983.7145 
 8812000    61.644746   -5128.2143   -5009.3273   -5128.2143            0   -550.87867    19.998573    20.024995    20.953502    8391.2768   -1150.9008    140.14202   -641.87721   -105.38852   -11.365927    279.36615   -5076.7428 
 8813000    62.702444   -5134.3314   -5013.4045   -5134.3314            0    377.83113    19.865561    20.068229     20.96272    8357.1372    255.01322    121.84985    756.63033   -241.69144    640.01924   -952.16002   -4967.3543 
 8814000    60.306798   -5135.8577    -5019.551   -5135.8577            0    595.96693    19.841051     20.03739    21.035692    8363.0103    1347.5807    622.16169   -181.84162    9.5307419   -236.51618    398.18218   -4946.8633 
 8815000    59.085944   -5135.1112    -5021.159   -5135.1112            0   -61.688112    20.058701    20.007526    20.907042    8390.5183   -233.66579    239.62334   -191.02189   -96.503826     122.5387   -107.90291   -5028.7076 
 8816000      61.0078   -5127.5524   -5009.8938   -5127.5524            0   -226.49957    19.896055    20.107725    20.984234    8395.0449   -430.66676    140.01602   -388.84797   -103.23528     496.1849    140.66423   -5037.6248 
 8817000    58.744627   -5137.5077   -5024.2137   -5137.5077            0   -122.91561    19.956474     20.02804    20.882534    8346.5204    -207.0658     134.4557   -296.13673   -139.27406    -174.1127    104.83707   -5039.1757 
 8818000    60.595001   -5137.6594   -5020.7969   -5137.6594            0   -208.53324    19.969899    20.045324     20.86747    8353.3129   -265.59158   -115.65975   -244.34839   -71.061205    164.80928   -273.35254   -5046.2013 
 8819000     56.44298   -5136.3491   -5027.4941   -5136.3491            0   -437.85544     20.01586    20.046426    20.847728    8365.0772   -148.95654   -1091.0267   -73.583044    89.369607    216.12987   -518.86741   -5080.9107 
 8820000    59.921952   -5132.0862   -5016.5217   -5132.0862            0    381.77936    20.013686    19.937093    20.995355    8377.4555    882.40629    635.75859    -372.8268    40.437485   -308.27923   -324.68398   -4969.8772 
 8821000    61.951651   -5135.9778   -5016.4988   -5135.9778            0     -238.684    20.060896    20.022574    20.758342    8338.0189   -719.08464   -568.41548    571.44813   -118.11694    600.35463     54.46915   -5045.5231 
 8822000    64.206137   -5131.1582   -5007.3312   -5131.1582            0    380.82901     19.98394    19.948362    21.042088    8388.3625   -281.66194    1431.1037   -6.9547295   -37.332891    63.230649    42.255475   -4960.7423 
 8823000    57.641937     -5140.21   -5029.0427     -5140.21            0   -851.13868    20.112435     20.00533    20.953884    8430.9189   -1780.1375   -472.71126    -300.5673   -167.76966    122.54897   -156.53007   -5133.6955 
 8824000    56.473049   -5133.1929   -5024.2799   -5133.1929            0    -288.8609    20.024142    19.891916    21.134692      8418.34   -149.03017   -6.0924924   -711.46003   -297.03589   -418.54043   -453.16373   -5059.7441 
 8825000    57.753511   -5135.1488   -5023.7663   -5135.1488            0   -6.9784919     19.98676    20.017343    20.918258    8369.0151    371.57531   -37.944945   -354.56584    -40.84478    1053.8305    24.394476   -5024.6181 
 8826000    60.271058    -5136.709   -5020.4711    -5136.709            0   -91.903737    20.038287    20.053906    20.922841    8407.7582    462.21351   -909.53318    171.60846   -9.7958849    111.15773    -78.97836   -5031.7402 
 8827000    55.449996   -5136.0157   -5029.0757   -5136.0157            0    974.63563    19.899687    19.964015    21.107633    8385.5906    1262.6888    1378.8809    282.33719    100.94964   -233.74895    731.14781   -4909.8824 
 8828000    59.577036   -5125.5852   -5010.6859   -5125.5852            0     7.890896    19.966147    20.020253    21.016459    8400.8524    401.19104   -412.51527    34.996923    192.59645    205.32122    66.618297   -5009.7191 
 8829000    58.797865   -5138.4823   -5025.0857   -5138.4823            0    -602.1378     19.89134    20.106787    21.085946    8433.3436   -397.13688   -737.27177   -672.00475   -324.13446    135.13814    212.23152   -5099.1436 
 8830000    60.279576   -5130.8634   -5014.6092   -5130.8634            0   -131.05068     20.02248    20.061187    20.941482    8411.6641    482.85402   -611.93078   -264.07528   -54.661081   -7.3836539    67.029335   -5030.6859 
 8831000    59.726305   -5132.2576   -5017.0704   -5132.2576            0     121.4818    19.930729    19.940167     21.08883    8381.1664    -274.0216    1210.1859    -571.7189    147.05126    779.47623   -1097.6041   -5002.2216 
 8832000    57.851532   -5137.4678   -5025.8962   -5137.4678            0   -684.84905    20.046098    19.997822    20.925696    8388.6573   -982.32255   -898.62239   -173.60222   -171.75623   -479.72933   -383.40085   -5109.6806 
 8833000    60.553095   -5135.4348    -5018.653   -5135.4348            0   -61.764888    20.023052     19.96255    20.971646    8382.6015    920.82374   -844.36919   -261.74922   -355.76273    -207.5347   -73.676756   -5026.2039 
 8834000     62.38908   -5129.2482   -5008.9256   -5129.2482            0    194.90877    20.034759    20.045036    20.889937    8389.3458    308.91723   -200.72787    476.53695   -95.787464   -821.89612    416.90379   -4985.0786 
 8835000    57.913553   -5135.4783   -5023.7872   -5135.4783            0   -355.81236    20.049127    19.951908    21.112708    8445.4706   -371.32956   -233.96585   -462.14166    446.10577    -501.8283   -139.04228   -5067.6121 
 8836000    59.994033   -5139.1315    -5023.428   -5139.1315            0   -451.10308    20.090334    19.998521    20.932161    8410.0599    -541.5225    -817.9575    6.1707601    17.342958    869.02371   -308.49886   -5078.7567 
 8837000    58.056403    -5134.161   -5022.1944    -5134.161            0   -359.52956    19.922695    19.920128    21.193239    8410.8048   -501.30837    -85.76574   -491.51457   -75.678059    363.42487   -36.284096   -5066.2953 
 8838000    61.764918   -5137.8787   -5018.7598   -5137.8787            0    55.995591     20.03558    20.002374    20.845621    8354.0736    154.98389   -618.12616    631.12904   -160.13035    287.10641   -576.41283   -5011.9376 
 8839000    57.755879   -5142.9764   -5031.5893   -5142.9764            0   -436.45442    20.016968    20.041667    20.934991    8398.5616   -839.55471   -368.65571   -101.15283   -51.156607    297.66357   -3.3123898   -5085.0482 
 8840000    57.858633   -5133.6319   -5022.0466   -5133.6319            0     42.39231    20.030255    20.036378    20.820992    8356.1671    91.597234   -280.03608    315.61578    230.05159   -176.52192    762.04166   -5016.8804 
 8841000    58.552101   -5136.6818   -5023.7591   -5136.6818            0   -539.04556    20.012146    20.007459    20.968748    8395.7229   -411.05304   -445.52261   -760.56102   -27.966208    -259.0234   -756.66737   -5089.7615 
 8842000    60.134719   -5137.7584   -5021.7835   -5137.7584            0    354.96369    19.975357    20.004198    21.035478    8405.5879    733.36925    256.72682    74.794991    116.70167    293.80325    797.91033   -4978.2696 
 8843000    62.403115   -5133.0055   -5012.6559   -5133.0055            0   -120.60287    20.005885    19.891961    21.065419    8383.1162    210.27643     13.52614   -585.61117    16.512377    363.83415   -164.82746   -5027.4007 
 8844000    60.723824   -5135.6957   -5018.5847   -5135.6957            0   -120.15988    19.994155    20.021099    20.889364    8362.1157    371.12821   -320.21927   -411.38858   -76.213122     549.5506    62.000883   -5033.2385 
 8845000    57.463772   -5138.4698   -5027.6461   -5138.4698            0   -924.24415    20.100833    19.981732     20.92454    8404.3305   -578.41629   -1653.5494   -540.76677   -192.23101   -529.69244   -440.91245   -5140.9294 
 8846000    59.315807    -5131.399   -5017.0034    -5131.399            0    113.89015     20.07139    19.991322    20.854159    8367.8068    260.37357   -430.13188    511.42874   -398.52698    -407.9248   -714.57025   -5003.1048 
 8847000    57.399674   -5130.6953   -5019.9952   -5130.6953            0   -378.02389    20.036837     19.98777    20.877566    8361.2916   -670.66981   -130.21501   -333.18685   -73.489694    182.80441    865.02329   -5066.0918 
 8848000     61.84658   -5140.2314    -5020.955   -5140.2314            0   -903.72868    20.028867    20.056836    20.865768    8382.1068   -552.48769   -1566.3328   -592.36556    188.20893    205.50557   -12.086449   -5131.4308 
 8849000    58.329453    -5133.387   -5020.8937    -5133.387            0   -55.577585     20.02001    20.012111    20.847778    8352.5095   -433.61242   -715.17413    982.05379   -226.50285   -499.90097   -421.08067   -5027.6638 
 8850000    58.997911   -5133.7397   -5019.9573   -5133.7397            0   -299.06232    20.034654    19.956485    21.065432    8422.4076    -326.1473    34.697918   -605.73758   -116.69197   -169.61558    270.02533   -5056.6918 
 8851000    56.030693   -5137.5569    -5029.497   -5137.5569            0    55.078413    20.072643    19.969107    20.916096    8383.8563   -1012.5305    665.17706    512.58866   -188.69647   -461.37725   -63.104492   -5022.7625 
 8852000    58.534864   -5132.2318   -5019.3424   -5132.2318            0   -513.64988    20.072993    20.032727     20.92585    8414.6358   -244.44606   -805.46631   -491.03727    263.43163    23.440451   -29.910039   -5082.3769 
 8853000    59.800777   -5132.1542   -5016.8234   -5132.1542            0   -70.807659      20.0056    19.959641     20.91075    8349.7585     547.2421   -203.92129   -555.74379    -24.26578    551.68676    32.618351   -5025.4458 
 8854000    60.725044   -5133.3515   -5016.2381   -5133.3515            0    374.77863    19.938967    19.965223     20.94916    8339.5654    25.380341     1440.253    -341.2974   -47.658871    213.59955    197.26302    -4970.656 
 8855000    60.963451   -5127.0194   -5009.4463   -5127.0194            0    -312.2807    19.941956    20.062772    20.952771    8383.0134    351.76272   -949.20367   -339.40115   -153.34798   -283.04166   -140.87055    -5047.625 
 8856000     58.22785    -5139.236   -5026.9387    -5139.236            0   -461.58171    20.063648    19.999257    20.893659    8383.7489   -822.17779    14.587343    -577.1547   -73.603801   -49.404017    596.57176   -5083.3756 
 8857000    61.494563   -5137.9496   -5019.3521   -5137.9496            0    91.532791      20.0094    19.899292    21.005604    8363.8622   -474.22277    589.21983    159.60131   -248.32067    873.82268   -68.049389   -5008.1871 
 8858000    59.467796   -5129.2659   -5014.5772   -5129.2659            0    8.5525788    20.043669    19.955826    20.946659    8378.4116    740.81617   -691.43422   -23.724214   -183.98085    173.71319     652.3859   -5013.5322 
 8859000    60.838464   -5137.1439   -5019.8118   -5137.1439            0    600.74854    19.885123    19.865426    21.162832    8359.8783    1093.4424    660.76917    48.034039   -232.17905   -302.87758   -192.54465   -4946.5684 
 8860000    58.275958   -5125.3773   -5012.9872   -5125.3773            0   -70.919524    20.093217    19.997697    20.945689    8416.3566    363.87865    -752.8405    176.20327    59.820226    396.81134   -276.61774   -5021.6921 
 8861000    63.483237   -5134.4801   -5012.0474   -5134.4801            0     288.4193    19.909997    19.993225     21.00129    8359.8792    1077.5908    301.40283   -513.73577    20.193613    115.59771   -689.68579   -4976.8832 
 8862000    58.000096   -5129.8696   -5018.0115   -5129.8696            0    -191.2192    19.948125      20.0368     20.99575    8391.9299   -9.8267219   -382.69978   -181.13111   -33.823009    391.76713     46.59152   -5041.4144 
 8863000    58.801231   -5137.6344   -5024.2313   -5137.6344            0   -819.28927    20.046528    20.016513     20.88031    8378.4662   -1415.9541   -746.32889   -295.58485   -363.92606   -46.137567    50.326107   -5124.3413 
 8864000    58.601625    -5130.425   -5017.4069    -5130.425            0   -84.041711    19.997931    20.087607    20.834332    8369.3717   -153.80048     -118.996    20.671343   -248.26777   -3.7553899    604.00859   -5027.6649 
 8865000    61.370301   -5138.5487   -5020.1909   -5138.5487            0   -86.430875    19.963565    19.947785    21.098689    8402.1075    377.67445   -112.04319   -524.92388    23.660852    532.33973    78.015324   -5030.7818 
 8866000    57.246482   -5135.3321   -5024.9275   -5135.3321            0   -226.83353    19.939134    19.998915    21.023253    8383.2544     568.6802   -665.42053   -583.76026    59.928073   -69.482147   -246.39834   -5052.6604 
 8867000    59.210412   -5138.7285   -5024.5362   -5138.7285            0   -535.10137    20.037545    19.985133    21.082173    8442.4194   -1368.4753    18.103092   -254.93195   -392.18126     230.8145   -340.28621   -5090.4201 
 8868000    57.303843   -5133.6001   -5023.0848   -5133.6001            0   -349.95208    19.932799    20.065949    20.954448    8381.1618    605.00209   -918.58954   -736.26879   -275.32027   -277.09812   -801.48904   -5065.8597 
 8869000    58.446363   -5137.4024   -5024.6837   -5137.4024            0   -781.61564    19.994848    19.869531     21.21109    8426.9169   -982.59359   -239.75405   -1122.4993   -178.86243     242.1537     366.8024   -5120.7427 
 8870000    58.919785   -5132.0724   -5018.4407   -5132.0724            0   -655.65476    20.060438    19.975739    20.934144    8388.7735   -866.44014   -498.00876   -602.51538   -422.18042   -158.89414   -384.21624   -5098.6546 
 8871000    57.697562   -5140.4449   -5029.1703   -5140.4449            0   -727.66074    20.047961    19.827792    21.096513    8386.0072   -931.55574    105.95819   -1357.3847    104.79374    69.051991   -2.2195735   -5118.1641 
 8872000    61.478745   -5132.3387   -5013.7718   -5132.3387            0    52.191406    19.940809    19.997528    20.941584    8350.8102    346.84274     17.30606   -207.57459   -107.27101    133.09989    166.54026   -5007.4155 
 8873000     61.45733   -5139.6281   -5021.1025   -5139.6281            0   -336.47053    20.008709    19.908612    21.060605    8389.3999   -337.74733    367.50898   -1039.1732   -131.54302   -285.40559   -271.42496   -5062.2699 
 8874000    58.131465   -5132.0119   -5019.9005   -5132.0119            0   -120.31963    19.971329    19.994593    21.023556    8395.0965   -938.55537    525.90251    51.693975   -342.00994    216.09651    538.61665   -5034.6317 
 8875000    60.193999   -5130.6256   -5014.5364   -5130.6256            0    388.84651     19.95467    19.930919    21.028539    8363.3631    1024.5479     358.0842   -216.09254   -270.41081    45.156895    470.73804   -4967.1084 
 8876000    57.003135   -5137.6969   -5027.7616   -5137.6969            0    199.39863    19.997808    19.956884    20.965387    8367.1589    305.50089   -460.77058    753.46556   -102.39052    241.29583   -23.712466   -5003.4297 
 8877000    61.476149   -5140.2071   -5021.6452   -5140.2071            0   -533.68015      20.0046    19.944589    21.057153     8401.457   -305.31924   -591.52852    -704.1927    288.91662    144.09563      36.7175   -5087.0352 
 8878000    59.214355   -5137.8683   -5023.6684   -5137.8683            0   -283.78808    20.032083    19.997744    20.896301    8370.9846   -2.0850926    -618.1425   -231.13664    77.745892   -690.05734    6.4474937   -5058.3139 
 8879000    61.445276   -5128.7402   -5010.2379   -5128.7402            0    356.71614    20.002209    19.937402    20.944094     8352.339    30.263487    835.73519    204.14975   -309.67227   -944.18509    415.91988   -4966.7862 
 8880000     57.58012    -5140.608   -5029.5599    -5140.608            0   -5.7043864    20.068302    19.960031    20.998277    8411.1523   -891.39542    476.81707     397.4652    -253.4788    194.30798    523.41793   -5030.2597 
 8881000    55.613486    -5139.113   -5031.8577    -5139.113            0   -533.85249    20.005742    20.019578    20.929622    8382.4498    -5.027922   -1240.9944   -355.53515    61.477264    8.4636634   -331.94265   -5097.1209 
 8882000    57.948209   -5123.2201   -5011.4621   -5123.2201            0   -638.04022    20.051962    20.001334    21.016123     8428.852    274.15784   -1946.0209   -242.25764   -54.665386   -45.762869   -669.91155   -5089.8939 
 8883000    59.954764   -5127.8035   -5012.1757   -5127.8035            0   -612.07483    20.068657    19.984623    20.937508    8397.2924   -517.92448   -513.91535   -804.38465   -28.476895    171.85153   -564.24618    -5087.134 
 8884000    60.119457    -5140.097   -5024.1515    -5140.097            0    185.43388    20.028288    19.874436    21.116409    8405.4062    319.75421    245.10961   -8.5621722   -196.00365   -192.72949    1326.2403   -5001.4203 
 8885000    60.968963   -5139.1331   -5021.5493   -5139.1331            0      227.379    20.040088    19.941251      20.9012    8352.6299    270.45873   -113.47399    525.15224   -14.644411    396.38096   -805.38006   -4993.8513 
 8886000    61.606617   -5138.4496    -5019.636   -5138.4496            0    307.89242    20.038468    19.888437    20.986192    8363.7068    37.983981    885.34438   0.34890288   -225.90566    491.10398   -147.86075   -4982.0805 
 8887000    57.797754   -5137.1201   -5025.6523   -5137.1201            0    502.35348    20.069268    19.941011    20.809845    8328.1312   -382.67113    1608.7317    280.99986   -245.02821   -150.48376   -432.17117   -4964.6378 
 8888000     56.53251   -5132.4379   -5023.4102   -5132.4379            0     808.0957    19.992509    19.873555    20.953547    8325.3101    1111.9596    769.15707    543.17038    7.5701296   -111.52517   -810.27378   -4925.2944 
 8889000    56.066502   -5140.8448   -5032.7158   -5140.8448            0   -596.55499     20.09882     19.95606    20.936359    8397.4328   -723.96694   -896.77382   -168.92421    -91.41028    492.65588   -199.47143   -5105.7747 
 8890000    60.527716   -5132.5374   -5015.8046   -5132.5374            0    405.86169      20.0107    19.909192    21.050266      8386.36      226.916    663.82488    326.84421    59.816826    -319.0769   -8.8289444   -4966.1651 
 8891000    58.698865    -5134.059   -5020.8533    -5134.059            0   -428.98994    20.055933    20.009671    20.847988    8366.5607   -1108.5265    72.737898   -251.18117   -48.268486    338.32213    553.68216   -5073.1977 
 8892000    59.350827   -5135.1999   -5020.7368   -5135.1999            0   -309.76683    20.067604    20.020686    20.904329    8398.6733   -1251.9366   -230.89363    553.52977   -73.758455    80.268317    820.37249   -5058.6789 
 8893000    59.317748   -5137.0077   -5022.6084   -5137.0077            0   -831.24755    20.087119    19.973787    20.914711    8391.3135   -1766.4055   -326.96631   -400.37087   -155.56118    1009.5754   -24.766157   -5124.3354 
 8894000    62.645776    -5140.749   -5019.9314    -5140.749            0    429.60547    19.977517    19.958007    20.963279    8358.2989    1199.7902   -394.13864    483.16486   -94.424023    1072.8006   -511.62985   -4967.5636 
 8895000    61.148666   -5138.5488   -5020.6185   -5138.5488            0   -608.85885    20.058303    20.004638    20.879907    8378.2525   -492.68515   -759.71419    -574.1772   -234.58267    196.07972    451.06643   -5095.0138 
 8896000    57.138966   -5133.5372   -5023.3399   -5133.5372            0    115.57515    20.016301    19.833003    21.067532    8363.4597   -129.14034    1004.1442   -528.27847   -57.980828   -63.811436    476.06761   -5009.2429 
 8897000    59.108513   -5141.0363   -5027.0406   -5141.0363            0   -211.95367    19.965706     19.93323    20.951825    8338.4284   -709.36575      557.264   -483.75926    16.843802    470.40201   -205.49979   -5052.8157 
 8898000    60.244495   -5141.3449   -5025.1583   -5141.3449            0   -703.32532    20.023898    19.977669    21.063253    8425.9501    -1045.677   -259.99945   -804.29957    -199.9668   -333.34431    -68.93155   -5111.5856 
 8899000    61.087903   -5133.7151   -5015.9019   -5133.7151            0   -1152.7062     20.12176    20.011053    20.880455    8407.6739   -886.98465   -1615.4014   -955.73247   -75.749676   -226.40436    407.75394   -5157.2436 
 8900000    59.656838   -5136.8681   -5021.8149   -5136.8681            0    238.22646    19.988143    19.818462    21.122868    8367.4915   -182.70876    928.92468   -31.536547   -84.944664   -352.98484    209.45261   -4992.7438 
 8901000    62.050083   -5129.6757   -5010.0069   -5129.6757            0   -104.33694    19.978702    19.976701    20.945394    8359.4854   -183.83987   -115.48017   -13.690762   -291.53331    -34.39471    189.76382   -5022.7271 
 8902000     63.52118    -5137.405    -5014.899    -5137.405            0    359.89493    19.885456    19.921521    21.138195    8373.8645    1959.0196   -746.63236   -132.70241    72.498707   -169.35061   -10.580626   -4970.9471 
 8903000    59.709077   -5135.9852   -5020.8313   -5135.9852            0   -58.275745    20.024611    19.958953     20.99074    8389.3744    -367.8304    43.121661     149.8815   -92.591076    302.22291   -831.55646   -5027.9613 
 8904000    59.970529    -5135.046   -5019.3878    -5135.046            0   -729.26144    20.062495    19.963464    21.049402    8430.6414   -195.27583   -797.33907   -1195.1694    18.615301    336.94112    352.26585   -5109.0521 
 8905000    58.017221   -5132.7911      -5020.9   -5132.7911            0    358.37343    19.991187    19.936851    20.942215    8346.7568    647.34442     373.8282    53.947672   -306.32113     88.83614    357.15012   -4977.2756 
 8906000     54.64639   -5130.2686   -5024.8785   -5130.2686            0   -910.10905    20.113717    19.947854    20.896876    8384.3591   -2269.4002    281.66445    -742.5914   -217.82561    10.118043    1026.7209   -5136.1641 
 8907000    59.646757   -5134.6882   -5019.6544   -5134.6882            0    542.62754    19.976915    19.940704    21.013113    8370.6525    959.98356     -109.349    777.24805   -267.35787   -43.818675   -389.02789   -4953.4118 
 8908000    60.301627   -5144.7823   -5028.4855   -5144.7823            0   -44.558129    20.001375    19.894747    21.029904    8368.2675    236.29428    198.15377   -568.12244    -3.195535    1048.0303    605.48214   -5033.9235 
 8909000     58.16494   -5138.4153   -5026.2393   -5138.4153            0   -554.77717    20.134385    19.878842    20.989488    8401.0059   -1644.7626    376.40568   -395.97464   -412.46897   -270.56555    388.50632   -5094.2107 
 8910000     60.41405   -5136.5089   -5019.9953   -5136.5089            0     483.5822    20.063196    19.850969    21.118785    8411.0606    908.59603    311.80607     230.3445   -39.090967    548.38913   -380.79043   -4960.6758 
 8911000    58.016633   -5136.4055   -5024.5155   -5136.4055            0    290.36391    19.978879    19.973218    20.883252    8333.3057    1096.0251    98.678948   -323.61228    346.54056   -338.52803   -456.62585   -4989.2268 
 8912000    60.567253    -5135.339   -5018.5299    -5135.339            0     631.9789    19.966154    19.943664    20.984786    8356.1057    1776.6255   -237.67842     356.9896   -3.5064239   -143.52979   -85.971003   -4941.5137 
 8913000    60.728005    -5137.563   -5020.4439    -5137.563            0    452.55019    20.069179    19.898846    20.929005    8358.0714   -1292.8368     2158.104    492.38331    47.627861    370.06638    447.64981   -4965.2808 
 8914000    59.731847   -5140.7474   -5025.5495   -5140.7474            0   -774.18974    20.032751    20.025658    20.895411    8382.5912   -517.62708   -1113.1012   -691.84091    62.376258     39.83843   -120.54736   -5120.1954 
 8915000    59.823213   -5138.3831    -5023.009   -5138.3831            0   -102.08748    20.064303    19.985082    20.870056     8368.616   -392.05776   -792.34346    878.13879   -182.55506    13.262308   -25.454638   -5035.4685 
 8916000    59.809432   -5132.0795    -5016.732   -5132.0795            0    235.92045    19.970016    19.985268     20.97436    8370.9959    643.37181   -260.04114    324.43068   -234.67128    369.13785   -321.54386   -4987.9303 
 8917000    59.153612   -5133.0061   -5018.9234   -5133.0061            0    901.18027    19.942399    19.915341    21.063273    8365.4827    1617.7809    460.71418    625.04579   -609.18104    157.25157   -437.04283   -4908.9776 
 8918000    62.529701   -5131.1739   -5010.5801   -5131.1739            0   -153.37079    19.996523    20.027411    20.971003    8398.4377    159.80683   -110.88248   -509.03672   -206.64417    307.34504    409.18058   -5029.3654 
 8919000    60.647606   -5129.2249   -5012.2609   -5129.2249            0   -200.83179    20.139217     19.96227    20.851887    8382.9691   -1530.4968    1157.6363   -229.63482   -54.196349    282.53695   -1.9831748    -5036.814 
 8920000    60.608628   -5136.6839    -5019.795   -5136.6839            0    86.610543    19.963366     20.06798    20.901021      8373.46    221.02378   -137.77183    176.57967    4.5749669    274.63368   -60.381567   -5009.2183 
 8921000    60.067593   -5131.4378   -5015.5924   -5131.4378            0   -415.98213    20.092168    20.000983    20.880853    8391.2448   -1451.9969    200.90175    3.1487432   -222.49968   -251.21187    767.49029   -5066.4993 
 8922000    61.979194   -5143.9082   -5024.3761   -5143.9082            0    200.24758    20.036759    19.978535    20.826045     8336.772     241.0033   -2.8384621     362.5779   -50.749652    84.422497     370.1406   -5000.0293 
 8923000    55.464263   -5134.3639   -5027.3964   -5134.3639            0   -470.24722    20.026997    19.944092    20.978963     8379.423    449.79333   -956.93235   -903.60263    210.25217     212.9333   -112.87403   -5084.8631 
 8924000     60.52032   -5136.2736   -5019.5551   -5136.2736            0    900.00214    20.069901    19.850112    20.873008    8315.5934   -17.144047     1908.049    809.10146    14.756518   -169.98944    221.16046   -4910.4079 
 8925000    59.236412   -5134.5601   -5020.3177   -5134.5601            0   -97.146059    20.084962    19.831113    21.064071    8389.9701   -72.022186    42.834762   -262.25075   -17.409913    600.96519    993.87547   -5032.2044 
 8926000    58.506728   -5138.7286   -5025.8935   -5138.7286            0   -495.35951    19.992348    19.979383    20.951244    8368.6554    264.24326   -1111.4015   -638.92029   -313.30814    527.63011   -93.341352   -5086.3512 
 8927000    58.405434   -5132.5915   -5019.9517   -5132.5915            0   -381.72285    20.028023     19.96071     20.88099    8347.6677   -1264.0706    278.24659   -159.34451   -415.49307    492.82789    -85.96061   -5066.4234 
 8928000    60.642804   -5139.7764   -5022.8217   -5139.7764            0   -83.229406    20.067581    19.883279     20.92752    8350.2754    189.55991   -489.47085    50.222731    10.117779    572.60957    583.73993   -5032.9574 
 8929000    59.432254   -5129.5604   -5014.9403   -5129.5604            0   -93.745157    20.195276    19.833162    20.857309    8354.1071   -893.33516    726.57858   -114.47888   -331.89885    242.79813    173.83591   -5026.3618 
 8930000    61.156371   -5133.7297   -5015.7845   -5133.7297            0    71.511949    20.054229    19.985875    20.898445    8376.1244   -216.34677    333.37823    97.504385   -28.160637    24.372394   -14.065369   -5007.0488 
 8931000    59.913906   -5138.2847   -5022.7357   -5138.2847            0   -253.14333    20.127257    19.937092    20.994115    8424.4965   -595.07013   -237.53247    73.172622    33.296866   -39.080876    -595.9165   -5053.8376 
 8932000    57.665356   -5129.6055    -5018.393   -5129.6055            0    169.95253    19.977721    20.051156    20.927716    8383.1493    1517.7904   -1552.2374    544.30458    41.389643    51.459581   -37.213392   -4997.6146 
 8933000    58.279639   -5138.6877   -5026.2905   -5138.6877            0   -524.58196    20.053158    19.971879    20.910751    8374.7398   -187.75352   -1128.6231   -257.36922   -210.44006    315.05614    75.881115   -5090.3613 
 8934000    60.133173   -5142.4964   -5026.5246   -5142.4964            0   -1039.6109    19.972508    20.049352    21.055341    8431.3133   -1096.1511    -1351.675   -671.00664   -320.47593    171.88342    510.46718   -5154.3573 
 8935000    61.473401   -5133.1288   -5014.5722   -5133.1288            0   -790.60731    20.015276    19.999562    21.004749    8408.1328   -1196.3379   -573.55066   -601.93335   -88.026552    56.854045   -94.971617   -5111.5196 
 8936000    59.542803   -5130.6752   -5015.8419   -5130.6752            0    75.116896    19.933544    20.000865    20.981898    8365.2334    840.49735   -559.05278   -56.093879    289.91585    873.27496    624.00138   -5006.6777 
 8937000    58.591439   -5137.2207   -5024.2222   -5137.2207            0    389.79177    20.086227     19.96626    20.880571    8374.0868   -427.50909    1032.0619    564.82253   -19.839009    38.768596    269.76024   -4976.6179 
 8938000     62.35389   -5136.7615   -5016.5068   -5136.7615            0   -351.82304    20.039874    19.917348    20.991905    8378.7329   -905.99017     191.7252   -341.20417   -281.53058   -398.92287   -51.197146   -5059.4979 
 8939000    57.102563   -5137.9708   -5027.8437   -5137.9708            0   -752.02131    19.981911    20.022507    20.953363     8383.188   -609.24921   -831.46224   -815.35248   -669.61031    232.63181   -235.56644    -5119.786 
 8940000    62.792556   -5131.4803   -5010.3796   -5131.4803            0   -123.66857    20.052333    19.977332    20.922723     8381.478   -284.66385   -309.57737    223.23551    267.32784    59.226682    506.93223   -5025.4962 
 8941000    61.078982   -5137.5097   -5019.7137   -5137.5097            0    -263.3858    20.007179    20.007224     20.92012    8374.0757   -49.496158   -592.05418   -148.60706    81.476905   -180.25918    828.27979   -5051.8803 
 8942000    61.382382   -5136.9128   -5018.5318   -5136.9128            0   -274.85409    20.049878    19.958548    20.899344    8363.2164    139.92801   -630.25062   -334.23966    122.44269   -18.723186   -3.3708948   -5052.0554 
 8943000    63.163517   -5140.5698   -5018.7537   -5140.5698            0    541.32705    20.042674    19.844195     21.00167    8353.0097    427.13954     1430.962   -234.12042    36.520518     878.1024    -107.6744   -4952.8092 
 8944000    61.640954    -5131.962   -5013.0822    -5131.962            0   -1055.3552    20.074618    20.026884    20.980127    8434.6834   -1110.7699   -1167.3638   -887.93179    6.3278397    394.00083   -182.82753   -5142.9027 
 8945000     59.68961     -5133.39   -5018.2736     -5133.39            0   -487.19003    19.946357    20.106442    20.853248    8363.2007   -377.01318    -1068.724   -15.832863    144.02644   -88.227616    297.99343   -5077.6955 
 8946000    58.417288   -5133.0758   -5020.4131   -5133.0758            0   -763.18969    19.906889    20.161127    20.870834    8376.4118    478.36263   -1914.1699   -853.76182   -280.75542   -245.24051   -73.681436   -5113.6454 
 8947000    59.103608   -5133.1847   -5019.1984   -5133.1847            0    171.46075    19.959897    20.052166    20.969096    8392.6534    601.79109   -138.96882    51.559981   -378.96741   -138.76507   -278.58833   -4998.2119 
 8948000    59.033518   -5132.9883   -5019.1372   -5132.9883            0   -164.90328    20.049659    19.941698    20.969838    8384.2497   -617.51545    345.92806   -223.12244    157.80975    152.51837    47.380094   -5039.3008 
 8949000    61.856975   -5134.4757   -5015.1793   -5134.4757            0    484.43512    19.958105    19.968428    20.995301    8367.2991    819.87949    550.58893    82.836949    -71.67896    523.78388   -426.68489   -4956.0644 
 8950000    59.117154   -5137.1569   -5023.1445   -5137.1569            0    290.85588    19.891453    20.003963    20.895948    8314.6628     206.5811     256.1324    409.85413    -178.1546    128.80509   -413.11337   -4987.8751 
 8951000     57.52384    -5132.346   -5021.4064    -5132.346            0     380.4054    19.878745    19.987717    21.039386    8359.5947    308.74516    1072.4265   -239.95548   -86.659363   -303.32548    552.14019   -4975.0289 
 8952000    58.804224   -5135.4018   -5021.9929   -5135.4018            0   -289.51949    20.050455    20.001099    20.872539    8370.5378   -165.63852   -582.42011   -120.49982   -67.528048     480.1127    289.70249   -5057.3362 
 8953000    59.481642    -5140.564   -5025.8486    -5140.564            0   -358.38805    20.054438    20.009397    20.849249    8366.3287   -127.80507   -728.44991   -218.90918    -263.3372    318.22679   -98.414029   -5069.5771 
 8954000    58.201326   -5139.1783   -5026.9321   -5139.1783            0   -785.35203    20.045973    20.007407    20.917068    8389.1656   -690.00565   -891.10061   -774.94984    -134.4602    211.58683    -402.2883   -5123.0179 
 8955000    56.960201     -5137.59   -5027.7375     -5137.59            0    -771.9899    19.873662    20.018505    21.012468    8359.6212   -409.42155   -676.41657   -1230.1316    31.901225   -134.37563   -209.68932   -5121.8558 
 8956000    58.135373   -5138.7253   -5026.6064   -5138.7253            0   -608.37839    20.048516    20.021861    20.984744    8423.4567   -489.81647   -648.07242   -687.24629   -449.15666      476.715    349.14509   -5101.3441 
 8957000    59.736132   -5136.8298   -5021.6236   -5136.8298            0    -629.2236    20.004826    20.022257    20.897605    8370.3635   -878.08767   -594.28831   -415.29481    27.164868      214.458   -444.72972    -5098.435 
 8958000    59.618773   -5132.7434   -5017.7636   -5132.7434            0   -105.01245     19.91957    20.097962    20.966535    8393.8003   -122.57978   -569.66754    377.20998   -124.44495    -281.4846   -759.73939   -5030.6187 
 8959000    60.220157   -5137.7536    -5021.614   -5137.7536            0   -38.015983    19.998105    20.028828    20.928672    8382.7413    422.92843   -497.77803    -39.19835    107.09685    -110.9771    553.30922   -5026.2616 
 8960000    61.499351   -5130.8233   -5012.2166   -5130.8233            0    627.56827    19.980802    19.998597      20.8707    8339.6813    113.33704    579.16595    1190.2018   -153.26466   -95.541305   -339.91739   -4935.8882 
 8961000    59.046436   -5134.6524   -5020.7764   -5134.6524            0   -67.536648    19.976363    19.968761    20.976336    8367.5276   -66.627749   -234.06819    98.085991   -317.88784    220.73509    422.95981    -5029.018 
 8962000    59.956242   -5134.5043   -5018.8736   -5134.5043            0   -1350.9788    20.083002    20.015185    21.013417    8446.6584   -2275.0458   -1089.8657   -688.02504   -423.76609    724.76927    44.986292   -5185.2951 
 8963000    62.209328   -5133.8339    -5013.858   -5133.8339            0     508.9071    20.002442    19.918274    20.852227    8307.8217    810.46685     244.5925    471.66196   -230.28229     61.12865   -182.53212   -4952.1983 
 8964000    63.187603   -5140.1985   -5018.3359   -5140.1985            0    735.69294    19.986741    19.894882    20.980748    8342.6559    357.13643    995.51219     854.4302   -466.64289    443.05327    771.03647   -4928.8248 
 8965000    58.026639   -5140.6746   -5028.7653   -5140.6746            0    296.83298    20.064045      19.9126    20.860279    8334.2509   -592.76998    732.71638    750.55253   -363.94427   -69.892758   -246.74227   -4992.6863 
 8966000    60.259003   -5139.5693   -5023.3547   -5139.5693            0   -362.01458    20.074607    19.992059     20.94293     8405.083   -592.99831   -294.46905   -198.57637   -104.75007    439.13344    262.91915   -5067.7303 
 8967000    57.548428   -5140.0976   -5029.1106   -5140.0976            0   -223.41119    20.050046    20.036724      20.7894     8351.876   -497.32032    467.90793   -640.82117   -212.96367   -472.32286    -901.1595   -5056.3229 
 8968000     60.48399   -5132.9215    -5016.273   -5132.9215            0   -949.66808    20.079605    20.039088    20.965312    8435.9585   -857.82918   -1298.4131     -692.762    244.83782   -385.28127    474.82312   -5133.1105 
 8969000    60.621222   -5134.5237   -5017.6105   -5134.5237            0   -529.53543    20.084318    19.954392    20.997804    8415.2973   -636.94647   -499.65929   -452.00053   -122.51901    601.46619   -4.6938828   -5082.5996 
 8970000    58.558107    -5138.687   -5025.7528    -5138.687            0     56.34702     19.94835    19.949072    20.970683    8345.3053    418.72738    435.31269   -684.99901    63.743352    198.98352    305.19163   -5018.8949 
 8971000    60.089367   -5137.0546   -5021.1672   -5137.0546            0   -200.49968    20.068823    19.950712    20.923109    8377.3471    -935.8113    205.01386    129.29841   -100.66971    497.82678   -67.947469   -5045.6632 
 8972000     58.53376   -5138.4378   -5025.5505   -5138.4378            0   -472.44891    20.047967     19.98215    20.874631    8362.4081   -747.57409   -614.77928   -54.993378   -177.77622    390.31938    938.50138    -5083.169 
 8973000    57.462098   -5133.5159   -5022.6954   -5133.5159            0   -783.52037    19.999088    20.060588     20.88034    8377.0562   -791.80002   -1176.2038   -382.55723    163.38482   -70.985156    323.14369   -5118.4187 
 8974000    59.131156   -5137.2323   -5023.1929   -5137.2323            0    48.321717    20.025793    19.960944      20.9828     8387.533   -101.50323   -136.16088    382.62927   -117.57331   -237.44025   -49.952781    -5017.282 
 8975000    60.309023   -5140.9942   -5024.6832   -5140.9942            0    61.969255    19.970713     20.02263    20.855478    8339.4005    230.60188   -8.0954201   -36.598698   -38.908303    0.2488772   -207.31488   -5017.1464 
 8976000    57.861936   -5132.7149   -5021.1233   -5132.7149            0   -131.53528    20.051565    19.981386    20.910907    8378.1237    15.593099   -72.890537   -337.30839   -82.466674    237.60448   -424.42857   -5037.1952 
 8977000    63.436136   -5128.7782   -5006.4363   -5128.7782            0   -456.80392    20.012497    19.998939    21.040665    8421.0784    344.21007   -1059.7628   -654.85897   -545.03118    629.98731   -298.28699   -5062.5377 
 8978000    62.854353   -5135.7589    -5014.539   -5135.7589            0    207.30542    19.972917    19.981282    20.994865    8378.7251    451.51597   -216.88509    387.28537   -118.88032   -47.612527   -285.26257   -4989.2073 
 8979000    60.247041    -5132.203   -5016.0115    -5132.203            0   -491.03896    20.028621    19.954149    21.074712    8422.5946   -457.99659   -749.43471   -265.68558   -107.37253    78.648146   -808.69976   -5076.3282 
 8980000    61.443746   -5129.8747   -5011.3753   -5129.8747            0    403.87846    19.999657    19.978953    20.917091    8357.8883    65.393892    25.321214    1120.9203     160.2711   -5.1687245    449.60792    -4962.146 
 8981000    60.578253   -5131.9521   -5015.1219   -5131.9521            0    605.45695    20.065938    19.968174    20.814883    8340.1103    102.85811    870.55124     842.9615   -14.314309    202.99239    239.98136   -4941.4789 
 8982000    60.082019   -5135.9548   -5020.0816   -5135.9548            0   -220.36839    20.027258     20.04171     20.84037    8364.9181    275.70675   -737.60687   -199.20506      -131.09     244.5483    272.89764   -5046.9652 
 8983000    58.937677   -5136.9633   -5023.2971   -5136.9633            0    123.52535    19.992511    19.940823    20.962252    8356.9607    1142.7268   -567.55676   -204.59398   -389.06639    54.536558    292.06644   -5008.2421 
 8984000    59.017856   -5130.9217   -5017.1008   -5130.9217            0    275.55252    20.054057    19.961542     20.97316    8395.7637    185.83883    211.30432    429.51442   -263.38823   -30.210097    343.95466   -4983.3611 
 8985000    56.683576   -5135.2928   -5025.9737   -5135.2928            0    605.90449    19.919753    19.943869    21.099693    8382.4214     694.3696    1077.2127    46.131224   -234.42365    156.45406    28.092143   -4951.9025 
 8986000    58.338337   -5136.6861   -5024.1757   -5136.6861            0   -500.03425    20.066028    19.977985    20.982657    8411.5025   -936.96699   -172.07179   -391.06396   -432.20536    139.86885    61.912228   -5085.5165 
 8987000    59.342165   -5133.4177   -5018.9714   -5133.4177            0    17.664155    20.083559    19.938617    20.915687    8375.4439    319.07742   -186.20756   -79.877387   -254.06009    500.36078   -91.297692   -5016.8137 
 8988000    58.437728   -5127.6476   -5014.9455   -5127.6476            0    955.67802    20.109043    19.865415    20.765216    8295.1737    1083.6313    520.60129    1262.8014   -149.62978    50.769262    313.70493   -4899.3308 
 8989000    57.713948   -5131.4733   -5020.1671   -5131.4733            0   -507.93709    20.054844    20.017413    20.959727    8414.2007   -1179.7484   -76.537359   -267.52552    109.93537    46.611526    702.30192   -5082.4973 
 8990000    61.672003   -5138.2011   -5019.2615   -5138.2011            0   -441.66348    20.072346    19.907352     20.91653    8357.9787   -431.30317   -363.11261   -530.57467   -428.12242    211.90348    341.88908    -5073.097 
 8991000    54.411736   -5130.2765   -5025.3388   -5130.2765            0   -167.14731    20.030582    19.972954    20.990468    8397.6546    220.09067   -267.29252   -454.24008   -249.68956    322.11148    -361.0374   -5045.8096 
 8992000    57.900365   -5131.6975   -5020.0317   -5131.6975            0   -40.390569    20.067656    19.945786    20.978181    8396.8355    701.21307    -830.6867    8.3019202   -392.63651   -20.107107    649.15924   -5024.9779 
 8993000    61.728713   -5134.2137   -5015.1647   -5134.2137            0    867.02363    20.026938    19.999421     20.91995    8379.0083    735.30703    1646.6142    219.14967     116.6936    968.84482    212.92566   -4909.2151 
 8994000    60.159556   -5130.6469   -5014.6241   -5130.6469            0    186.68832    20.048938    19.967139    20.813654    8332.1206   -319.33131    653.02684    226.36944    314.00854     192.3231    548.14623   -4991.9386 
 8995000    63.291132   -5131.9226   -5009.8603   -5131.9226            0    117.41794    19.932733     20.03812    20.869624    8335.6305    257.56396    136.78599   -42.096123    41.467838      290.403     -574.221   -4995.5862 
 8996000    60.496497   -5130.9482   -5014.2756   -5130.9482            0    568.03437    19.968414    20.046422     20.85388    8347.7091    565.57686    589.66309    548.86315    67.972758   -432.94928    725.11291   -4945.1215 
 8997000     57.31584   -5133.0825   -5022.5441   -5133.0825            0   -359.06401    19.990471    20.077562    20.856076    8370.7932    263.77961   -1304.6558   -36.315792    23.962101    616.32722   -251.87399   -5066.3784 
 8998000    59.148939   -5129.0121   -5014.9383   -5129.0121            0    731.27342    19.975628    19.932905    21.012902    8366.7558    660.02421    899.80199    633.99406   -109.04336   -312.66182   -491.43362    -4925.708 
 8999000    57.179094   -5135.1171   -5024.8424   -5135.1171            0   -192.69117    19.949017    20.061399    20.917394    8371.2496   -182.43736   -454.53253    58.896371   -104.88607    145.19048   -424.53532   -5048.3673 
 9000000     60.46654   -5125.2103   -5008.5955   -5125.2103            0    787.93392    19.975372    20.007061    20.992734    8389.7143    1022.7515    1008.8005    332.24977   -287.95992    112.30514   -35.121208   -4912.1876 
Loop time of 334.782 on 64 procs for 250000 steps with 972 atoms

Performance: 129.039 ns/day, 0.186 hours/ns, 746.755 timesteps/s
99.1% CPU use with 64 MPI tasks x 1 OpenMP threads

MPI task timing breakdown:
Section |  min time  |  avg time  |  max time  |%varavg| %total
---------------------------------------------------------------
Pair    | 17.341     | 26.75      | 36.177     |  88.1 |  7.99
Bond    | 0.25883    | 0.27307    | 0.28197    |   1.0 |  0.08
Kspace  | 131.83     | 141.05     | 150.67     |  38.9 | 42.13
Neigh   | 0.080428   | 0.084585   | 0.087657   |   0.6 |  0.03
Comm    | 78.756     | 79.703     | 81.232     |   7.0 | 23.81
Output  | 0.49754    | 0.49835    | 0.49989    |   0.0 |  0.15
Modify  | 77.649     | 79.265     | 82.215     |  11.9 | 23.68
Other   |            | 7.157      |            |       |  2.14

Nlocal:        15.1875 ave          19 max          10 min
Histogram: 1 0 7 9 9 10 8 8 7 5
Nghost:        2214.62 ave        2242 max        2184 min
Histogram: 1 4 6 9 8 11 9 5 9 2
Neighs:        4703.16 ave        6600 max        2907 min
Histogram: 2 4 9 7 13 11 7 7 1 3

Total # of neighbors = 301002
Ave neighs/atom = 309.67284
Ave special neighs/atom = 2.0000000
Neighbor list builds = 287
Dangerous builds = 0

unfix		3
unfix		2
unfix		1

write_data	data.final.${pid}
write_data	data.final.1
System init for write_data ...
PPPM initialization ...
  extracting TIP4P info from pair style
  using 12-bit tables for long-range coulomb (../kspace.cpp:340)
  G vector (1/distance) = 0.37217527
  grid = 24 24 25
  stencil order = 5
  estimated absolute RMS force accuracy = 0.0034354081
  estimated relative force accuracy = 1.034563e-05
  using double precision FFTW3
  3d grid and FFT values/proc = 2366 288
Last active /omp style is kspace_style pppm/tip4p/omp
WARNING: Not all mixed pair coeffs generated from mixing. Use write_data with 'pair ij' option to store all pair coeffs. (../write_data.cpp:312)

write_restart   restart.lmp.${pid}
write_restart   restart.lmp.1
System init for write_restart ...
PPPM initialization ...
  extracting TIP4P info from pair style
  using 12-bit tables for long-range coulomb (../kspace.cpp:340)
  G vector (1/distance) = 0.37217527
  grid = 24 24 25
  stencil order = 5
  estimated absolute RMS force accuracy = 0.0034354081
  estimated relative force accuracy = 1.034563e-05
  using double precision FFTW3
  3d grid and FFT values/proc = 2366 288
Last active /omp style is kspace_style pppm/tip4p/omp
Total wall time: 0:05:34
