Start Prologue v2.5.3 Mon Jan 17 16:14:12 EST 2022 
r1i5n16: MemFree:        186063876 kB
End Prologue v2.5.3 Mon Jan 17 16:14:18 EST 2022 
JOBID  QSTAT_OUT 1967901
EUID 0
WORKSPACE /p/work1
PBS_HOME /var/spool/pbs
JOB_ID 1967901.pbsserver
whoami root
LOG /p/work1/PBS/prologue/1967901.pbsserver
whoami root
file workspace /p/work1: directory
file /p /p: directory
PBS_REQUESTED_CPH = 5760
PBS_REQUESTED_CPS = 20736000
jobStarter
Information: Please note that compiler is Intel but /p/app/gnu/8.2.0/bin is now also in PATH
/p/work1/ckegan/BOX/IceII_1000atm_230K
r1i5n16
Mon Jan 17 16:14:20 EST 2022
LAMMPS (7 Jan 2022)
  using 1 OpenMP thread(s) per MPI task
using multi-threaded neighbor list subroutines

include		in.partitions
variable        pid world 0
include		in.temp
variable        temperature equal 230
variable	tempDamp equal 100.0
include		in.pressure
variable        pressure equal 1000
variable        pressureDamp equal 1000.0 # This is 1 ps
include		in.seed
variable        seed world 745823

units		real
atom_style	full
include		in.box
box tilt large
read_data       iceII.data
Reading data file ...
  triclinic box = (-10.680001 -9.239317 0.00055) to (35.999999 12.229315 21.859449) with tilt (-9.157151 -12.209534 -18.481617)
WARNING: Triclinic box skew is large (../domain.cpp:219)
  6 by 2 by 4 MPI processor grid
  reading atoms ...
  2592 atoms
  scanning bonds ...
  2 = max bonds/atom
  scanning angles ...
  1 = max angles/atom
  reading bonds ...
  1728 bonds
  reading angles ...
  864 angles
Finding 1-2 1-3 1-4 neighbors ...
  special bond factors lj:    0        0        0       
  special bond factors coul:  0        0        0       
     2 = max # of 1-2 neighbors
     1 = max # of 1-3 neighbors
     1 = max # of 1-4 neighbors
     2 = max # of special neighbors
  special bonds CPU = 0.007 seconds
  read_data CPU = 0.040 seconds
include 	in.setup
variable	out_freq equal 500
variable	out_freq2 equal 500

timestep	2.0

neigh_modify    delay 7 every 1

include		in.tip4p
# This is TIP4P/Ice

# create groups ###
group ox type 2
864 atoms in group ox
group hy type 1
1728 atoms in group hy

# set charges - beside manually ###
set group ox charge -1.1794
Setting atom values ...
  864 settings made for charge
set group hy charge 0.5897
Setting atom values ...
  1728 settings made for charge

# ### TIP3P Potential Parameters ###
pair_style lj/cut/tip4p/long 2 1 1 1 0.1577 8.5
pair_coeff 1 1*2 0.000 0.000
pair_coeff 2 2 0.21084 3.1668
bond_style  harmonic
bond_coeff  1 450 0.9572
angle_style harmonic
angle_coeff 1 55 104.52
kspace_style pppm/tip4p 1.0e-5
pair_modify tail yes

thermo          ${out_freq}
thermo          500
thermo_style 	custom step temp pe etotal epair emol press lx ly lz xy xz yz vol pxx pyy pzz pxy pxz pyz cella cellb cellc cellalpha cellbeta cellgamma

restart 	${out_freq} restart.lmp.${pid} restart2.lmp.${pid}
restart 	500 restart.lmp.${pid} restart2.lmp.${pid}
restart 	500 restart.lmp.0 restart2.lmp.${pid}
restart 	500 restart.lmp.0 restart2.lmp.0


include         in.dump
dump            myDump all atom ${out_freq2} dump.water.${pid}
dump            myDump all atom 500 dump.water.${pid}
dump            myDump all atom 500 dump.water.0
dump            myDump2 all dcd ${out_freq2} dump.dcd
dump            myDump2 all dcd 500 dump.dcd
dump_modify     myDump append yes
dump_modify     myDump2 append yes


timer           timeout 05:00:00 every 1000
New timer settings: style=normal  mode=nosync  timeout=05:00:00

fix 		1 all shake 1e-6 200 0 b 1 a 1
Finding SHAKE clusters ...
       0 = # of size 2 clusters
       0 = # of size 3 clusters
       0 = # of size 4 clusters
     864 = # of frozen angles
  find clusters CPU = 0.002 seconds
fix             2 all nph tri ${pressure} ${pressure} ${pressureDamp}
fix             2 all nph tri 1000 ${pressure} ${pressureDamp}
fix             2 all nph tri 1000 1000 ${pressureDamp}
fix             2 all nph tri 1000 1000 1000
fix             3 all temp/csvr ${temperature} ${temperature} ${tempDamp} ${seed}
fix             3 all temp/csvr 230 ${temperature} ${tempDamp} ${seed}
fix             3 all temp/csvr 230 230 ${tempDamp} ${seed}
fix             3 all temp/csvr 230 230 100 ${seed}
fix             3 all temp/csvr 230 230 100 745823
velocity 	all create ${temperature} ${seed} dist gaussian
velocity 	all create 230 ${seed} dist gaussian
velocity 	all create 230 745823 dist gaussian

run             500000
PPPM initialization ...
  extracting TIP4P info from pair style
  using 12-bit tables for long-range coulomb (../kspace.cpp:340)
  G vector (1/distance) = 0.38122501
  grid = 50 40 64
  stencil order = 5
  estimated absolute RMS force accuracy = 0.0021221078
  estimated relative force accuracy = 6.3906647e-06
  using single precision MKL FFT
  3d grid and FFT values/proc = 14229 4000
  generated 0 of 1 mixed pair_coeff terms from geometric mixing rule
Last active /omp style is kspace_style pppm/tip4p/omp
Neighbor list info ...
  update every 1 steps, delay 7 steps, check yes
  max neighbors/atom: 2000, page size: 100000
  master list distance cutoff = 10.8154
  ghost atom cutoff = 10.8154
  binsize = 5.4077, bins = 13 8 5
  1 neighbor lists, perpetual/occasional/extra = 1 0 0
  (1) pair lj/cut/tip4p/long/omp, perpetual
      attributes: half, newton on, omp
      pair build: half/bin/newton/tri/omp
      stencil: half/bin/3d/tri
      bin: standard
Setting up Verlet run ...
  Unit style    : real
  Current step  : 0
  Time step     : 2
  Walltime left : 4:59:59.88
Per MPI rank memory allocation (min/avg/max) = 9.904 | 9.969 | 10.06 Mbytes
Step Temp PotEng TotEng E_pair E_mol Press Lx Ly Lz Xy Xz Yz Volume Pxx Pyy Pzz Pxy Pxz Pyz Cella Cellb Cellc CellAlpha CellBeta CellGamma 
       0          230   -13868.516   -12684.508   -13868.516            0   -1055.1314        46.68    21.468632    21.858899    -9.157151   -12.209534   -18.481617    21906.021   -4925.6401    -3353.737    5113.9829    1981.1588    3796.3376    1671.6928        46.68    23.339999    31.119999        113.1    113.10001    113.10001 
     500    232.11708   -12733.607   -11538.702   -12733.607            0    965.09454    47.000795    21.600895    22.003429   -9.2122018   -21.542231    2.9547591    22339.185    170.36471    1257.4453    1467.4736   -127.54407    809.32209    447.47913    47.000795    23.483256    30.934596    68.835827    134.13728    113.09695 
    1000    230.40239   -12739.926   -11553.847   -12739.926            0    598.62012    47.061206    21.587381    21.978416   -9.2971814   -21.595487    2.9088851    22328.492    447.59001    263.87182    1084.3985    269.24876   -273.17075    275.36871    47.061206     23.50431    30.949596    68.756995    134.24782    113.30042 
    1500    233.94751   -12733.261   -11528.932   -12733.261            0    653.11581    46.961256    21.687169    21.922701    -9.205762   -21.524846    3.0430324    22327.321    1175.5529    377.59389    406.20067   -361.20035    86.323161   -723.58625    46.961256    23.560122    30.873676    68.706515    134.20206    113.00024 
    2000    236.04791   -12768.604   -11553.463   -12768.604            0    1130.4416    47.004927    21.633272    21.858627   -9.1690459   -21.563001    2.8259092    22227.391    701.31197    976.32237    1713.6904     52.81486    512.93147    278.51749    47.004927    23.496167    30.834207    69.066623    134.37253    112.96917 
    2500    238.07953   -12744.301   -11518.702   -12744.301            0    1363.6528    47.118271    21.605724    21.809899    -9.468924   -21.643617     2.981649    22203.008    1228.4559    1250.5094    1611.9932   -145.96866   -592.30195     90.90415    47.118271     23.58957    30.870829    68.291369    134.51553    113.66592 
    3000     224.1668   -12705.297   -11551.318   -12705.297            0    2259.2552    46.968466    21.621173    21.801594   -8.9825105   -21.556694    2.9453231    22139.809    1721.5232      2981.58    2074.6624   -505.74861    272.11807    -268.1458    46.968466     23.41283    30.800576    69.094848    134.41734    112.56043 
    3500    232.57733   -12776.154   -11578.879   -12776.154            0    1457.4433      46.9692    21.561606    21.879442   -9.3757964   -21.560633    2.8959669    22157.997    1811.7452    990.13923    1570.4455    240.92741   -570.98835   -9.7952278      46.9692    23.511878    30.853809    68.608747    134.33079    113.50121 
    4000    230.43589   -12772.167   -11585.915   -12772.167            0    1262.0418    47.046391     21.52489    21.911769   -9.2309469   -21.595824    2.8637581    22189.356    1589.7167    1401.8101    794.59867    -118.4272   -539.06513   -17.650028    47.046391    23.420745    30.898323    68.859593    134.34138    113.21207 
    4500    233.78817   -12757.997   -11554.488   -12757.997            0    924.38455      46.8157    21.607668    21.999722    -9.154539   -21.396842    3.0343009    22254.437    1386.3546    667.88695    718.91211   -86.834622   -523.55651    263.61319      46.8157    23.466932    30.838606    68.822143    133.93429    112.96096 
    5000    225.88442   -12698.766   -11535.945   -12698.766            0    1072.0045    46.773034    21.618146    22.041009   -9.3399366   -21.427672    2.9613775    22286.684    1875.2277     601.4107      739.375    841.88138   -809.43083   -238.25018    46.773034    23.549494    30.882373    68.702287    133.93549    113.36635 
    5500    232.29749   -12771.035     -11575.2   -12771.035            0    782.33565    46.701637    21.559679    22.137147    -8.966065   -21.445682    2.9451392     22289.28     1356.704    1071.4072   -81.104275   -647.72796    511.38227   -104.19238    46.701637    23.349734    30.961983    69.280211     133.8399    112.58105 
    6000    230.89706   -12679.575    -11490.95   -12679.575            0    1080.9473    47.107345    21.532543    22.024048   -9.3557446    -21.50489    3.0753215    22339.894    1267.8842    1320.4256      654.532   -203.69703    -46.42726   -376.01239    47.107345    23.477231    30.935038    68.395224     134.0402    113.48462 
    6500    226.37563   -12741.276   -11575.926   -12741.276            0    390.49934    46.966184    21.628026     21.97772   -9.1132105   -21.707194    2.8896734    22324.657    355.40322    884.27821   -68.183394   -432.74596    560.68473    92.730049    46.966184      23.4696    31.025355    69.052788    134.39972    112.84867 
    7000    229.18653   -12737.128   -11557.308   -12737.128            0    432.44924     47.00829    21.706093    21.849585   -9.3453496   -21.318801    3.0098696     22294.58    1000.7152    92.416243    204.21624    83.409241   -735.39332   -195.74294     47.00829    23.632393    30.674989    68.595209     134.0264    113.29383 
    7500    231.47155   -12724.846   -11533.263   -12724.846            0     812.5127    47.059378    21.634106    21.895843    -9.253727   -21.790791    2.9322501    22291.885    381.42902    275.73185    1780.3772   -223.83918    439.07816    401.65601    47.059378    23.530108     31.03006    68.711947    134.60763    113.15823 
    8000    223.15138   -12719.705   -11570.953   -12719.705            0    810.57187    47.217541    21.548943    21.895055   -9.2319927   -21.573474    2.9107725    22277.958    415.52015    896.87846     1119.317    -383.9143    1087.4131    306.33878    47.217541    23.443264    30.875246    68.788081    134.32523    113.19125 
    8500    225.64606   -12736.973   -11575.379   -12736.973            0    575.36826    47.059004    21.594888    21.929897    -9.318153   -21.577966    3.0805403    22285.905    203.24997    839.90879      682.946    702.69012    -52.66621   -482.02909    47.059004    23.519506    30.919552    68.409669    134.25672    113.34011 
    9000    237.38004   -12726.394   -11504.396   -12726.394            0     368.7161    46.833581    21.614615    22.062158   -9.1618384   -21.572461    2.9057747    22333.298    1072.5589   -35.983103    69.572485    332.93093    236.72952    33.334591    46.833581    23.476176    30.992796    69.024896    134.11076    112.97075 
    9500    226.07872   -12699.949   -11536.128   -12699.949            0    660.38023    46.840565    21.613863    22.046756   -9.3416477   -21.356307    2.9663157    22320.258    364.48149    1225.1076    391.55155    1502.2695   -261.43956    200.92175    46.840565    23.546241    30.837482    68.712072    133.83181     113.3743 
   10000    233.65722   -12736.217   -11533.382   -12736.217            0    900.92539    46.727854    21.525271    22.144419   -9.0126854   -21.560201    3.0166173    22273.515    2382.3032    526.90976   -206.43679   -666.67898    527.04183   -122.23882    46.727854    23.335933    31.053462    69.037823     133.9709    112.71918 
   10500    237.12661     -12716.5   -11495.805     -12716.5            0    624.08198    47.083874    21.520868    22.027424     -9.35125   -21.562006    2.9719782    22320.077    340.51197     1830.998   -299.26402    55.022426    118.78977   -669.75189    47.083874    23.464732    30.967082    68.561098    134.12994    113.48592 
   11000    224.12252   -12700.655   -11546.904   -12700.655            0    649.77829    46.945096    21.654336    21.937831   -9.1857493    -21.53285    2.9356956    22301.229    51.888889    504.25376    1393.1922    863.45366    454.25497   -83.281059    46.945096     23.52208    30.879611     68.91004    134.21207    112.98661 
   11500    229.17599   -12725.937   -11546.171   -12725.937            0     959.1909    46.898587    21.740958    21.808739   -9.2664381   -21.563208    2.9281883    22236.631    1347.7316    163.65215    1366.1889    352.61881   -240.99165    457.08132    46.898587    23.633369    30.808559    68.785375    134.41976    113.08469 
   12000    230.77245   -12687.034    -11499.05   -12687.034            0    694.79801    47.178699    21.657831    21.801033   -9.2575209   -21.653237    2.9260521     22276.04    81.264048    1059.6234     943.5066   -74.198037    498.07133   -121.15459    47.178699    23.553414    30.865992    68.721673    134.54941    113.14402 
   12500    236.71348   -12746.066   -11527.499   -12746.066            0    2221.8872    47.278981    21.453142    21.827752    -9.294645   -21.650711    2.9131699     22139.51    1226.0334    3270.3341     2169.294    -179.7526    1.5334843    119.34232    47.278981    23.380071    30.881881    68.575812    134.51382    113.42483 
   13000    238.01249   -12752.937   -11527.682   -12752.937            0    1112.7586    46.974458    21.604093    21.882583    -9.193579    -21.57102    2.9189912    22207.333    730.85521    1241.1343    1366.2864    23.482664    715.59205    215.15828    46.974458      23.4789    30.865464    68.858302     134.3366    113.05208 
   13500    225.42778    -12747.83    -11587.36    -12747.83            0    1597.3725    46.662359    21.768083    21.862455    -9.272535   -21.361741    2.9174176    22206.791    1855.4862     631.8257    2304.8057    411.47262    212.98398    334.64456    46.662359    23.660713    30.705085    68.896206    134.08358    113.07252 
   14000    227.35625   -12772.271   -11601.873   -12772.271            0    720.09618    46.929629    21.569794    21.996788    -9.138295   -21.544889    3.0149797    22266.522     888.6521    1060.7414    210.89509    386.11461   -110.40461   -873.58374    46.929629    23.425722    30.937534    68.814042    134.13886    112.96051 
   14500     229.3961   -12764.155   -11583.256   -12764.155            0    872.67012     47.17128    21.452622     21.98001   -9.3206684    -21.66088    2.8935672    22242.619    968.54264    1159.4845    489.98318    124.21085   -208.39489   -39.818273     47.17128    23.389952    30.994957    68.647224    134.33495    113.48383 
   15000    231.11995    -12728.16   -11538.388    -12728.16            0    1686.9982    46.898259    21.544818     22.02344   -9.1363127    -21.48365    2.9864711    22252.802     1907.079    1858.0136    1295.9021   -500.02851    335.19658   -63.782428    46.898259    23.401953    30.911133    68.882211    134.02828     112.9799 
   15500    224.55277   -12690.845   -11534.879   -12690.845            0     1202.764    46.593636    21.751143    21.947741   -9.1920475   -21.366541    2.9649134    22243.263    1286.6554    891.42875    1430.2078   -54.886319   -354.61399   -67.134145    46.593636    23.613682    30.773741    68.960028    133.97232    112.90895 
   16000    238.23942   -12753.696   -11527.273   -12753.696            0    1303.7052    46.773351    21.682177    21.928321   -9.1487401   -21.427095    2.8429949    22238.565    2047.0472    1267.5821    596.48639   -457.88612   -170.88285    42.628307    46.773351    23.533301     30.79049    69.169371    134.09896    112.87719 
   16500    235.12899   -12715.657   -11505.246   -12715.657            0    1626.1101    47.271314    21.451206     21.88171   -9.3013345   -21.724693    3.0368425    22188.638     1852.706    1952.1335    1073.4907   -368.27066   -121.81084   -721.28826    47.271314    23.380955    30.983769    68.354734    134.52044    113.44176 
   17000    228.57071   -12714.057   -11537.407   -12714.057            0    1653.3399    47.132345    21.485149    21.905858   -9.2512449    -21.58272    2.9211953    22182.867    1363.0682    2123.3204    1473.6312   -932.39216   -274.57759    91.350569    47.132345    23.392246    30.890351    68.704601    134.32184    113.29613 
   17500    230.46438   -12748.329    -11561.93   -12748.329            0    1751.3437    46.695438    21.687246    21.851688   -9.1896577   -21.402572    2.8791691    22129.105    1913.6277    2217.2852    1123.1183    122.90322    76.782319    23.408518    46.695438    23.553905    30.722239    69.017112    134.15865     112.9641 
   18000    233.43106   -12783.934   -11582.263   -12783.934            0    709.29831    46.668061    21.641273     21.99084   -9.2597132   -21.566104    3.0147889    22209.787    1268.0089    995.92358   -136.03758   -414.61536     230.8378     17.82326    46.668061    23.539052    30.948067    68.673357    134.17468    113.16477 
   18500    231.56838   -12753.924   -11561.843   -12753.924            0    1123.7424    47.071071    21.473987     22.01346   -9.1853186   -21.427722    2.9408311    22251.284    812.66175    2093.1135    465.45195   -194.81926   -740.51375   -561.81077    47.071071    23.355989    30.860787     68.85809    133.97424    113.15841 
   19000    231.69478    -12746.11   -11553.378    -12746.11            0    1205.8466    47.066639     21.44597     22.01372   -9.3108497   -21.761707    3.0015451    22220.423     1015.759    2362.8881    238.89272   -88.155842    288.51367   -310.79874    47.066639    23.379939    31.099599    68.457179    134.40634    113.46826 
   19500    227.32435   -12721.035   -11550.801   -12721.035            0    934.79346     46.79169     21.70163    21.916339   -9.2014571    -21.30639    2.9364842    22255.077    1009.8578    163.90832    1630.6142   -804.56944   -382.00138    507.53975     46.79169    23.571754    30.706857    68.967402    133.93678    112.97687 
   20000     223.9291    -12725.72   -11572.965    -12725.72            0    1278.9695    46.621656    21.737598    21.897248   -9.1558944   -21.409804    2.8944714    22191.608    1790.6911    806.39594    1239.8214   -798.17757   -285.09084    326.81218    46.621656    23.587148     30.76113    69.090928    134.10711    112.84087 
   20500    232.77778    -12747.36   -11549.053    -12747.36            0    558.66103    47.177249    21.558552    21.904205   -9.3275173   -21.558909    2.9709067    22278.179    539.51027    387.79417    748.67863    -294.9308   -289.10335    86.351931    47.177249    23.489864     30.87729     68.55815    134.28377    113.39619 
   21000    235.77929   -12775.702   -11561.944   -12775.702            0    365.30193    47.409979    21.388104    22.008355   -9.1966636   -21.649289    2.8479819    22316.682   -737.63061    1417.3749    416.16147   -542.80756   -69.634736    237.66054    47.409979    23.281529    31.002749    68.885402    134.29095    113.26721 
   21500    232.84873   -12810.872     -11612.2   -12810.872            0   -37.624974    46.990557    21.624793    21.949178     -9.29063   -21.622009    2.9583556      22303.9   -514.78247    571.67477   -169.76722    742.66623    182.98253   -280.21906    46.990557    23.536089    30.952053    68.680504    134.31196    113.24974 
   22000    239.06973   -12740.697       -11510   -12740.697            0    460.48469    46.592235    21.795842    22.003553   -9.1140339   -21.297059    2.9835523    22344.983    1212.2962   -471.37601    640.53388   -230.58884   -78.110937   -313.90638    46.592235    23.624656    30.767234    69.114286    133.80446    112.69247 
   22500    231.90907   -12740.585    -11546.75   -12740.585            0    1175.2731    46.698951    21.640093    22.047664   -9.2312268   -21.517668    2.9110057      22280.7    2177.0535    1193.0179    155.74775   -4.4380538   -105.19536   -297.60464    46.698951    23.526776    30.944846    68.938836    134.05555    113.10212 
   23000    223.99106   -12752.905    -11599.83   -12752.905            0    1585.6717    47.024957     21.46743     22.00613   -9.2389266   -21.456099    3.0137089    22215.297    2006.9618    1848.8209    901.23251   -455.07566    91.342021   -475.38034    47.024957      23.3711    30.882299    68.636071     134.0089    113.28557 
   23500    228.16898   -12725.153   -11550.571   -12725.153            0    1206.5871    47.174124    21.446448    22.000082   -9.1677794   -21.644616    2.9805106    22257.865    714.29356    2215.9324    689.53538    476.06777    58.644106    -393.1108    47.174124    23.323771    31.006071    68.728999     134.2729     113.1454 
   24000     235.4902   -12694.287   -11482.017   -12694.287            0    871.14146    46.898659    21.689347    21.938914   -9.3684457   -21.594874    2.8937243    22316.291    1060.0997    600.67108    952.65361    857.79658    355.70317    364.52805    46.898659    23.626162    30.919705    68.724133    134.30021    113.36133 
   24500     226.5394   -12763.114   -11596.921   -12763.114            0    716.20795    46.867368    21.738194    21.835464    -9.119018   -21.448888    2.9627628    22246.231    598.51584    54.937675    1495.1703     103.0254     201.7401    179.79427    46.867368    23.573408    30.750939    68.981763    134.22705     112.7577 
   25000    223.95744    -12694.28   -11541.379    -12694.28            0    632.63374    47.277069    21.609591    21.825032    -9.403063   -21.745131    2.9100612    22297.285    123.56364     419.9972    1354.3404    1070.6534    137.29525    141.19012    47.277069    23.566757     30.94594    68.494225    134.64252    113.51549 
   25500    228.20447   -12746.992   -11572.228   -12746.992            0    760.33954    47.267891    21.499376    21.876553   -9.3007837   -21.722705    2.8321506    22231.614     9.414585    1129.2358    1142.3682     406.0106    231.64759    250.13168    47.267891    23.424939    30.959338    68.743208    134.55976    113.39365 
   26000    236.96687   -12731.409   -11511.537   -12731.409            0    1079.5329    47.115068    21.630285     21.89571   -9.1647869   -21.547237    3.0049743    22314.188    67.450175    1007.4401    2163.7085   -7.2639544    318.44597    1.7772307    47.115068    23.491755    30.866412    68.778126    134.27319    112.96245 
   26500    227.34132   -12782.538   -11612.217   -12782.538            0    506.79496    46.657516    21.730606    21.959411   -9.3737575   -21.461255    2.8972014    22264.561    1231.0287   -64.671365     354.0276    91.288697    -326.7296    19.575765    46.657516    23.666148    30.841449    68.784727    134.09559    113.33353 
   27000    226.12849   -12706.732   -11542.654   -12706.732            0    970.66468    46.974494    21.572764    22.017719   -9.1421379   -21.480776    2.9441586    22312.089     1116.883    917.45491    877.65613   -370.86827   -376.95361   -191.40893    46.974494    23.429956       30.901    68.963358    134.03903    112.96633 
   27500    234.14635   -12749.376   -11544.024   -12749.376            0     794.6572    47.027803    21.576959    21.965976   -9.2548947   -21.546283    2.8935316    22289.248    1550.9279   -45.578903    878.62257   -353.41522   -1230.0441   -179.73688    47.027803    23.478037    30.904998     68.84645    134.20103     113.2157 
   28000    224.64743   -12729.665   -11573.212   -12729.665            0     321.6938    46.986588    21.581903    22.041704   -9.1368808   -21.531739    3.1889152     22351.61    240.06565     465.9286    259.08716    252.75742   -530.39333   -634.80315    46.986588    23.436321    30.977761    68.544595    134.03286    112.94578 
   28500    232.01264   -12725.926   -11531.557   -12725.926            0   -41.871282     46.86846    21.670424    22.030072   -9.2580412   -21.440625    2.8881561     22375.05    266.63959    350.21912   -742.47255   -4.7869903     62.01153    150.97284     46.86846    23.565199    30.876624    68.971969    133.97916    113.13315 
   29000    218.32009   -12717.631    -11593.75   -12717.631            0    243.88023    47.016734    21.560684    22.049944   -9.2325455   -21.703441    2.8008625    22352.313    107.08645     120.4549    504.09934   -231.79754   -64.254477    353.99243    47.016734    23.454275    31.065805    69.029448    134.31703    113.18119 
   29500    233.43658   -12746.485   -11544.786   -12746.485            0    60.958211    47.216265    21.626246    21.890722   -9.2790648   -21.517583    3.1268722    22352.847   -230.72116   -207.57242    621.16821   -522.75782    422.86223   -642.01249    47.216265    23.532861    30.854293    68.400503    134.21825    113.22248 
   30000    225.24355   -12672.661   -11513.139   -12672.661            0     109.4545    47.065251    21.630654    21.959966     -9.20128   -21.796681    2.7689277    22356.391   -108.63659   -271.05506    708.05514   -301.24992    336.19653    397.65807    47.065251    23.506356    31.064488    69.103662    134.56027      113.044 
   30500    229.65956   -12770.341   -11588.086   -12770.341            0    615.01369    46.940338    21.730444    21.870329   -9.3455261   -21.422884    3.0769224    22308.488    977.68325     120.0574    747.30041   -600.50225   -165.98566   -52.553776    46.940338    23.654832    30.768794    68.472907     134.1272     113.2709 
   31000    238.26625   -12712.868   -11486.307   -12712.868            0    454.45211    47.037187    21.593656    21.990847   -9.1074197   -21.555228    2.9506736     22336.21    888.80143     71.58363    402.97126   -124.38727   -1096.8053    50.240725    47.037187     23.43568    30.934313    68.981076    134.17134    112.86825 
   31500    229.95638    -12733.94   -11550.157    -12733.94            0   -502.67825    47.176901    21.489122    22.110501   -9.6412023   -21.727931    2.9343781    22415.409   -656.90088    597.51023   -1448.6441    1397.2306   -793.45422   -172.63477    47.176901    23.552816    31.138205    68.184666    134.24997    114.16363 
   32000    239.01836   -12744.759   -11514.327   -12744.759            0    641.74718    46.903404     21.66681    22.003776   -9.0134082   -21.479822     2.992112    22361.275    994.08103    33.358914    897.80159   -377.62629    309.77857    357.22469    46.903404    23.466831     30.89501    69.117085    134.04731    112.58735 
   32500    237.37128   -12745.835   -11523.881   -12745.835            0    813.58599    46.672649    21.647871    22.050085   -9.2288099   -21.323478     2.905348      22278.6    1756.9946   -99.149597    782.91301    305.22054   -663.10241    738.61715    46.672649    23.532982    30.811329     69.01366    133.79389    113.08927 
   33000    235.05207    -12729.75   -11519.735    -12729.75            0    1523.0072     46.83571    21.551355    22.054205   -9.2642032   -21.687641    3.0265707    22260.919    1421.1453    1512.7475    1635.1288    1004.2542    661.27752    417.54051     46.83571    23.458183    31.078962    68.589042    134.25267    113.26124 
   33500    225.31347   -12739.515   -11579.633   -12739.515            0    905.75966    47.111394    21.562301    21.941295   -9.1805658   -21.484839    2.8789246    22288.627    689.75144    1351.8726    675.65496   -233.47221    36.608285    288.30087    47.111394    23.435349    30.843264    68.975992    134.15336    113.06282 
   34000    222.07008   -12721.411   -11578.226   -12721.411            0    254.08241    47.139683    21.628395    21.930869   -9.3442323   -21.700896    3.0048409    22359.742    574.41108    233.11105   -45.274903    -81.12162    481.77694   -513.50139    47.139683    23.560606    30.998725    68.492041    134.43163    113.36605 
   34500    225.85769   -12767.315   -11604.632   -12767.315            0   -49.334065    47.061572    21.680567    21.920217   -9.1437557   -21.744433    2.8818264    22365.669   -590.30139     -40.6757     482.9749   -178.04254    983.07333    577.82075    47.061572     23.52988    31.010018    69.015312     134.5239    112.86753 
   35000     220.5993   -12746.797   -11611.183   -12746.797            0    395.95471    47.131351    21.568305    21.927307    -9.267074   -21.434523    2.8759811    22290.059    357.15686   -199.32778    1030.0351   -91.525893   -670.18269   -166.64328    47.131351     23.47489    30.798001    68.866445    134.10466    113.25134 
   35500    237.62741   -12751.565   -11528.293   -12751.565            0    144.70874     47.01325    21.563367    22.037276   -9.2563603   -21.775986    3.0113772    22340.596   -156.82609    1177.2146   -586.26224    513.86353    648.61055   -570.44611     47.01325    23.466124    31.127214    68.601433    134.39334    113.23207 
   36000    226.00242   -12723.235   -11559.807   -12723.235            0      914.125    46.853338    21.620252    22.031448   -9.2525691   -21.275929    2.8815792    22317.439    1530.1667    872.35246    339.85582   -54.948705   -393.08252   -225.44429    46.853338    23.516916    30.762857    69.008732    133.75777    113.16891 
   36500     224.9989   -12701.073    -11542.81   -12701.073            0    1252.6687    46.730322    21.657918    22.035295   -9.1097875   -21.496325    2.9565382    22301.515    1094.8995    1496.4575    1166.6491    804.59407    370.76733     266.5913    46.730322    23.495822    30.925513    69.045436    134.03519    112.81267 
   37000    227.93916   -12721.458   -11548.059   -12721.458            0    1121.0737    46.983132    21.521022    22.004238   -9.4295171   -21.521795    3.0108239    22249.035    926.10126    1228.2801    1208.8398    99.778542   -431.76451   -536.97468    46.983132    23.496174    30.926351    68.379807    134.09936    113.66081 
   37500    227.68702   -12724.634   -11552.534   -12724.634            0    1876.0739    47.093304    21.483313    21.918485   -9.0037921   -21.616193    2.9080475    22175.374     855.5897    3204.7457    1567.8863    -684.3217   -83.617593   -463.77053    47.093304    23.293798    30.921458     69.08709    134.35226    112.73887 
   38000    237.42848   -12733.569   -11511.321   -12733.569            0    1401.6918    47.046893    21.585187    21.840133   -9.3341759    -21.60128    2.8919381    22179.005    582.85402     1955.294    1666.9274    313.26563    327.96626    219.11864    47.046893    23.516955    30.854012    68.659241    134.43603    113.38531 
   38500    231.73037   -12719.167   -11526.252   -12719.167            0    1041.7985    46.956505    21.718051    21.781999   -9.2035749   -21.540001    2.9929575    22213.365    1746.5597    181.07365    1197.7622    215.01178   -222.05884   -632.02808    46.956505    23.587699    30.779618    68.740786    134.41206    112.96603 
   39000    227.56705   -12747.949   -11576.466   -12747.949            0    915.62938    46.947883    21.701852    21.814132   -9.2207368   -21.570614    2.8538913    22225.459    1198.3289    420.30037    1128.2588   -405.56906   -145.02185    -75.60417    46.947883     23.57949     30.81059    68.959608    134.43534    113.01979 
   39500    232.33672   -12705.231   -11509.194   -12705.231            0    1059.9888    47.159359    21.568074    21.899813    -9.374541   -21.664255    2.8803145    22275.099   -76.337491    1565.9137    1690.3903   -77.505104    1229.4933    24.064168    47.159359    23.517309    30.939262    68.623007    134.44457    113.49213 
   40000     229.5673    -12749.16   -11567.379    -12749.16            0    899.20776    47.161567    21.513544    21.965997   -9.0280026   -21.638236    3.0874223    22286.973    697.57888    304.21886    1695.8255   -1046.9867    320.54354    159.19663    47.161567    23.331039    30.987908     68.77245    134.28917      112.765 
   40500    225.71639   -12752.441   -11590.485   -12752.441            0    1416.2708    46.846117    21.607733    21.962366   -9.3664989   -21.430517    2.7852676     22231.15    1724.2522    1737.2398    787.32037     474.7596    27.274042    120.28411    46.846117    23.550487    30.811853    68.926551    134.06933    113.43572 
   41000    220.76383    -12740.09   -11603.629    -12740.09            0     1801.552    46.838968    21.632398    21.925748   -9.1426972    -21.57987    2.9791807    22216.027    2820.6787    886.02837    1697.9489   -157.52721    577.17711    54.951285    46.838968    23.485092    30.908005    68.863487    134.28251    112.91082 
   41500    228.07353   -12681.678   -11507.587   -12681.678            0    1008.3368    47.093813    21.666719    21.862937   -9.3173977   -21.357166    3.0190296     22308.25     433.9684    597.46109     1993.581    607.48316   -525.93927   -337.66708    47.093813    23.585178    30.712068    68.590881    134.05909    113.26929 
   42000    225.50646   -12719.825    -11558.95   -12719.825            0     546.7842    47.051222    21.531371    21.981576   -9.2543248   -21.873511     2.862375    22269.036    153.82209    882.36009    604.17041   -141.90808    703.50775    205.31393    47.051222    23.435922    31.142148    68.789427    134.61798    113.25835 
   42500    228.30096   -12726.918   -11551.657   -12726.918            0    378.30785    47.139988    21.610733     21.94287   -9.2648121   -21.360226    2.9901832    22353.853   -69.952729     1115.596    89.280246   -235.62398   -57.265206   -387.67839    47.139988    23.512986    30.768328    68.723585    133.96571    113.20547 
   43000    239.42432   -12754.738   -11522.215   -12754.738            0   -86.051292    46.932074    21.688389    21.976479   -9.1914253   -21.589579    3.0004524    22369.442   -326.34788     672.4768   -604.28279    208.52551   -272.56765    397.75089    46.932074    23.555647     30.95284    68.812779     134.2267    112.96698 
   43500    231.29269   -12714.192    -11523.53   -12714.192            0    791.96551    46.941634    21.582622    21.991733   -9.2955994   -21.625634    2.7376684    22280.342     675.0978    901.01885    799.77987     257.5396    668.82275     297.6298    46.941634    23.499313    30.964483    69.055237    134.29888    113.30146 
   44000    238.69395   -12796.641   -11567.878   -12796.641            0     659.8799    47.073194    21.612094    21.888037   -9.1827582   -21.376235     3.129511      22267.8    488.23271    960.40093    531.00606    55.113301   -74.898064   -687.32264    47.073194    23.482028    30.754242     68.56384    134.03249    113.02014 
   44500    232.09683   -12738.749   -11543.947   -12738.749            0    1206.6103    46.998331     21.60007    21.924093   -9.2264816   -21.741506    2.8886875    22256.621    877.33724    675.07289    2067.4208    201.73701    301.32095    522.73358    46.998331    23.488103    31.011344    68.834843    134.51391    113.12978 
   45000    227.07011   -12759.193   -11590.268   -12759.193            0    1082.6701    47.093256    21.624097     21.86867   -9.4074396   -21.306717    2.8698072    22269.941     1204.571    729.73659    1313.7028    884.12391   -1104.5517    158.92644    47.093256    23.581804    30.666769    68.716714    134.00984    113.51117 
   45500    231.15439   -12753.232   -11563.282   -12753.232            0    1225.1913    47.005546    21.579824    21.894962   -9.0789081   -21.725892    3.0881181    22209.624    1621.2456    531.47393    1522.8544   -899.70685    500.58509   -814.28266    47.005546    23.411864    30.999036    68.677918     134.4958    112.81711 
   46000    228.51588   -12710.598   -11534.231   -12710.598            0    981.32706    47.091517    21.562041    21.887019   -9.4615416   -21.549442    2.7901088    22223.843   -141.26324    1562.9846    1522.2598   -60.485222    136.41049   -16.155983    47.091517      23.5466    30.841607    68.678583    134.32386    113.69213 
   46500    237.38158   -12766.905   -11544.898   -12766.905            0     1056.172    46.968508    21.674711    21.819942   -8.9709018   -21.633297    3.0023929     22213.33    655.15798    674.99148    1838.3664    33.690729    173.14809   -789.78305    46.968508    23.457838    30.872703    69.032737    134.48526    112.48407 
   47000    229.66094   -12759.852    -11577.59   -12759.852            0    702.39381    46.981847    21.616142     21.92319   -9.3531619   -21.579701    3.0080945    22264.453    885.52547    951.71697    269.93899     749.7704     105.2575   -45.635117    46.981847    23.552903    30.908872    68.495664     134.2805    113.39782 
   47500    229.13515    -12705.77   -11526.214    -12705.77            0    121.68199    47.055505    21.629453    21.966704   -9.1615697   -21.460274    2.7743772    22357.378     562.7054    588.06185   -785.72127    51.356709   -423.18398    244.68533    47.055505    23.489734    30.834666    69.249515    134.10527    112.95602 
   48000    225.23833   -12739.675    -11580.18   -12739.675            0    360.02452    47.079506    21.505567    22.057533   -9.3002373   -21.700675    3.0469702    22332.623    478.71116    435.92487    165.43754     163.4771    36.835376   -546.98909    47.079506    23.430404    31.092412    68.470474    134.26206    113.38642 
   48500    234.00661   -12757.686   -11553.053   -12757.686            0    553.07955    46.887322    21.620464    22.019473   -9.2693238   -21.418545    3.0347369    22321.705     1065.261    522.63616    71.341485    198.30492   -240.56636   -155.77358    46.887322    23.523708    30.867797    68.667641    133.93803    113.20623 
   49000    232.73922   -12719.551   -11521.442   -12719.551            0    269.34076    46.686371    21.665117    22.072376   -9.0316832   -21.483871    2.8369771    22325.452     986.0385    271.85382   -449.87003   -264.75425   -543.24648    733.85891    46.686371    23.472295    30.932102    69.396186    133.99132    112.63012 
   49500    233.63879    -12722.67   -11519.931    -12722.67            0    988.08214    46.931849    21.615438        21.98   -9.4373735   -21.477463    3.0736904    22297.665    1542.4226    534.65292    887.17086    74.284593   -149.02028   -140.43605    46.931849    23.585825    30.884452    68.317487    134.06017    113.58625 
   50000    233.20276   -12728.552   -11528.057   -12728.552            0    1693.7682    47.035811    21.557811    21.920596   -9.0926844   -21.609136    2.9833178    22227.246    1346.4562    1697.2588    2037.5895   -20.721158    475.08994   -170.37349    47.035811    23.396926    30.925192    68.872703    134.32721    112.86911 
   50500    229.60832    -12759.14   -11577.149    -12759.14            0    1516.0239    46.934819    21.576667    21.920141   -9.3878908   -21.499696    2.8879557     22198.46    1157.6783    2490.9814    899.41199     330.9589    56.169419   -133.81237    46.934819    23.530513     30.83942    68.653409    134.19878     113.5136 
   51000    234.55341    -12743.76   -11536.312    -12743.76            0    722.96711    46.901906    21.666628    21.890871   -9.0527318   -21.643233    2.8894554    22245.638    1210.1036    490.02342    468.77432   -501.18357    877.55939   -60.297884    46.901906    23.481795    30.919067    69.139631    134.42671    112.67611 
   51500    237.74484   -12753.723   -11529.846   -12753.723            0    597.24857    47.122716    21.621334    21.874891   -9.2467376   -21.453871    3.0124553    22287.364    158.14994    376.67876     1256.917   -29.057997   -432.35743   -120.66645    47.122716    23.515617    30.787243    68.655431    134.17425    113.15481 
   52000    227.40679   -12733.482   -11562.824   -12733.482            0   -66.777147    47.103477    21.555949    21.982861   -9.4093012   -21.759887    2.8418785     22320.52   -499.24289     231.8374    67.074046    1047.2291    106.41442    332.64285    47.103477    23.520074    31.061473    68.647385    134.47056    113.58156 
   52500    231.68352   -12699.452   -11506.777   -12699.452            0    58.071612    46.993134    21.696186     21.99387   -9.1136249   -21.438556      2.98369    22424.329    30.763478    106.27672    37.174635    637.35501   -241.04432    -694.3032    46.993134    23.532587    30.858458    69.010289    134.00638    112.78516 
   53000    227.37881   -12742.114     -11571.6   -12742.114            0    375.71997      46.9635    21.649174    21.960184   -9.3141589   -21.521897    3.0060843     22327.38    592.25893     477.1716    57.729387    325.06356    226.05753    102.91157      46.9635    23.567781    30.894632     68.61147    134.15665     113.2789 
   53500    230.42883   -12731.125    -11544.91   -12731.125            0    681.84106    47.089338    21.590535    21.929207    -9.200096   -21.655491    2.8257725    22295.074    58.437615     1030.981    956.10455   -58.930792   -38.457917    438.36382    47.089338    23.468979    30.948916    69.004583    134.40433    113.07968 
   54000    226.90551    -12684.22   -11516.142    -12684.22            0    872.00717    47.265431    21.664451    21.799598   -9.4212591   -21.521115    3.0543707    22322.343    1170.7929   -912.17942     2357.408    507.26178   -653.40589    291.72783    47.265431    23.624321    30.784899    68.298247    134.35326    113.50286 
   54500     226.5461   -12752.757   -11586.529   -12752.757            0    1155.3877    46.875461    21.656632    21.879237   -9.1056781   -21.623997    2.9145856    22211.027    1611.6663    394.14214    1460.3545   -81.763338    220.03724    510.30021    46.875461    23.493043    30.899726    69.010844    134.41192    112.80465 
   55000    233.78223   -12725.914   -11522.436   -12725.914            0    1742.9204    46.944548    21.574347    21.935437   -9.3145332   -21.480546    2.7884766    22216.166     1618.133    1671.5168    1939.1112    395.61708    123.25782    415.25364    46.944548    23.499212    30.827794    68.946725    134.17015    113.35184 
   55500    230.19704   -12774.448   -11589.426   -12774.448            0    1428.6181    46.884062    21.577863    21.904523   -9.1024815   -21.597228    3.1746387    22159.882    1528.9086    568.28693    2188.6586   -23.398182    469.62709   -350.90626    46.884062    23.419208    30.924532    68.528924    134.29757    112.87213 
   56000    228.59063   -12695.084   -11518.332   -12695.084            0    1495.1132     46.94172    21.543017    21.971264   -9.2564424   -21.384518    2.8234365    22218.799    923.88012    1626.1899    1935.2695    67.255594   -209.72798     410.4651     46.94172    23.447459    30.789704    68.995781    133.99015    113.25187 
   56500    229.98021   -12761.156    -11577.25   -12761.156            0    1324.8179    46.934301    21.574918    21.953568   -9.2778654   -21.590326    2.9909947    22230.264    1192.7012    1490.7655     1290.987    22.183761    -240.0834    115.51871    46.934301    23.485227    30.936183    68.621696    134.25867    113.26916 
   57000    227.18284   -12726.888   -11557.383   -12726.888            0    932.13862    47.056864    21.605192    21.886336   -8.9265369   -21.441206    2.9992981    22251.238    980.81258    475.57655    1340.0267   -1611.0395   -229.55251   -275.93607    47.056864    23.376642    30.785269    69.145382    134.14496    112.44876 
   57500    229.94064   -12728.913   -11545.211   -12728.913            0    398.26598    47.026175    21.620604    21.953048   -9.4528677   -21.666254    2.8586064    22320.417    649.67395   -259.81059    804.93458    514.11974    79.250081    183.50894    47.026175    23.596763    30.976354    68.607629    134.38249     113.6157 
   58000    228.25094   -12733.287   -11558.284   -12733.287            0    1186.8287    47.005103    21.610718    21.908099   -9.1211641   -21.661358    2.9745108    22254.554    1728.3796    1040.9146     791.1918   -766.18706    403.12864    511.85166    47.005103    23.456742     30.95201    68.858679    134.41392    112.88299 
   58500    235.38823   -12684.814   -11473.068   -12684.814            0    2058.0745    46.938318    21.628271     21.92746   -9.2331332   -21.168895    3.0304419    22260.641    2756.9212    1214.0139    2203.2884    93.035917   -1194.1105    57.222236    46.938318    23.516651    30.628731    68.755146    133.72082    113.11769 
   59000     233.1394   -12771.507   -11571.338   -12771.507            0    1359.5558    46.858503    21.514282    22.014915   -9.2429479   -21.700906    2.8292299    22193.831     1218.118    1169.8367    1690.7128   -417.72304    169.61548     198.6851    46.858503     23.41573    31.041752    68.918586    134.35385    113.24929 
   59500    229.91025   -12705.468   -11521.923   -12705.468            0    1607.5342    47.042152    21.574635    21.929847   -9.2326087   -21.370278    3.0771444     22256.98      1601.11    1761.1653    1460.3273   -99.313422   -103.85149   -170.37685    47.042152    23.467125    30.774596    68.584589    133.98046    113.16793 
   60000    228.34486   -12766.372   -11590.885   -12766.372            0    769.14063    46.951477    21.580562    21.933844   -9.0949056   -21.526511    2.9625259    22224.232    559.76352    1208.7314      538.927   -66.770944   -521.54069    80.459672    46.951477    23.418753    30.874921    68.949416    134.20413    112.85249 
   60500    225.22419   -12743.764   -11584.342   -12743.764            0    822.16641    46.833744      21.6078    21.962607    -9.458726   -21.562001    2.7849765    22225.591     1619.892    335.05607    511.55118    821.24762    -39.16197     498.9868    46.833744     23.58738    30.903593    68.755687    134.24422     113.6412 
   61000    234.92609   -12783.826    -11574.46   -12783.826            0    1098.5414    47.027074    21.602509    21.884006   -9.0278439     -21.4785    3.0390611    22232.023    566.63224     1769.211    959.78109   -588.65635   -482.23863   -634.56367    47.027074    23.413038    30.813496    68.913563    134.19068     112.6804 
   61500    241.54258   -12721.225   -11477.798   -12721.225            0    1370.4251    47.242226    21.533518    21.890437   -9.3643635   -21.714816    2.9734413    22268.952    478.88438    1370.5079    2261.8831    260.00063    519.99246     173.0102    47.242226    23.481561     30.97686    68.433392    134.50739    113.50296 
   62000    226.01351   -12706.309   -11542.823   -12706.309            0    1242.2412    46.950788    21.577873    21.942002   -9.3339204    -21.56119    2.7974066    22229.401     1054.819    1187.0754    1484.8293    326.99757   -438.40553    118.11755    46.950788    23.510139     30.88951    68.885046    134.26757    113.39182 
   62500    226.59153   -12735.555   -11569.094   -12735.555            0    1970.6362    46.865839    21.615656    21.876008   -9.0845357   -21.471192    3.1054434     22161.18    2271.5998    2339.0808    1301.2279    112.95636   -517.63491   -328.79194    46.865839    23.447076    30.809343    68.719296    134.17923    112.79583 
   63000    234.13639   -12684.697   -11479.396   -12684.697            0    1816.9066    46.981432    21.583022    21.880302   -9.3629313   -21.488921    2.8823163    22186.655    789.07269     2229.817      2431.83    684.41939   -652.63926    275.89074    46.981432    23.526396    30.803069    68.685948    134.23658    113.45168 
   63500    227.73152   -12760.484   -11588.155   -12760.484            0    627.06476    47.055994    21.568875    21.895382   -9.2114537   -21.684755    2.8317184    22222.606    1217.5284    237.93539    425.73049   -612.18078    1012.0493    98.174256    47.055994    23.453513    30.946001    68.938737    134.48551    113.12595 
   64000    236.79362   -12726.811   -11507.831   -12726.811            0    931.29672    47.088932    21.654673    21.814311   -9.2788422   -21.452941     3.093332    22243.952     655.2999    304.05201    1834.5382   -420.66323    226.48361   -383.90746    47.088932      23.5589     30.75161    68.455547    134.23637    113.19472 
   64500    219.60554   -12726.382   -11595.884   -12726.382            0    1167.9212    46.973711    21.625255    21.894637    -9.172507   -21.840579    2.8230085    22240.977     589.1242    1376.1594    1538.4799   -214.99823    958.77146    370.21624    46.973711    23.490137    31.054072    69.002989    134.69302    112.98458 
   65000    224.14486   -12760.678   -11606.811   -12760.678            0    1015.6236    46.971332    21.601529    21.926697   -9.3129238   -21.409709    2.9220483     22247.98    1201.6785    629.96605    1215.2262    4.2289382   -77.965138    278.00669    46.971332    23.523533     30.78464    68.746324    134.06446      113.322 
   65500    225.50619   -12730.937   -11570.063   -12730.937            0    182.98835    46.957972    21.645506    21.989992   -9.0900417   -21.587423    3.0877795    22351.267     391.2928   -144.87538    302.54761   -967.00825    136.08771   -86.224954    46.957972    23.476729    30.969517    68.787887    134.19112       112.78 
   66000    230.51646   -12691.658   -11504.992   -12691.658            0    451.43398    46.926709    21.583261     22.09568   -9.2433447   -21.455407    2.9154584    22379.199    512.49552    476.42032    365.38609   -15.572581    12.457092   -85.313229    46.926709     23.47928     30.93628    68.920547    133.91062    113.18373 
   66500    232.90817   -12688.676   -11489.697   -12688.676            0    668.95556    47.046235    21.508285    22.092434   -9.2604608   -21.594556    2.8977531    22354.977    1009.1607     567.7015     430.0045   -59.060154   -24.704056     405.9899    47.046235     23.41714    31.028978    68.838796    134.10281    113.29445 
   67000    231.65539   -12786.273   -11593.743   -12786.273            0    802.55016    46.851235    21.605029    21.954719   -9.1862367   -21.585061    3.1602071    22223.056    1809.1323    484.40389    114.11426   -230.02914    280.29302   -762.78936    46.851235    23.476887    30.950144    68.478195    134.21989     113.0347 
   67500    232.59414   -12758.776   -11561.414   -12758.776            0    1793.2878    46.760913     21.62201    21.882294   -9.2429612   -21.336913    2.7825571     22124.42    2106.2581    1023.8393    2249.7659    -216.1097    323.64122     577.7088    46.760913    23.514753    30.689433    69.105169    134.04736     113.1457 
   68000    229.09032   -12766.704   -11587.379   -12766.704            0    1343.4764    46.975687    21.594354    21.873759   -9.2070201   -21.638459    2.9572593    22188.951    943.36238     1029.485    2057.5819   -122.54437    472.88863    528.86885    46.975687    23.475207    30.910025    68.742051    134.43075    113.09158 
   68500    229.95992   -12712.922   -11529.121   -12712.922            0    1134.6268    47.262394    21.557422    21.812511   -9.3173514   -21.535751     3.002844    22223.794    1368.1153    925.39755    1110.3675   -421.24221   -286.55805   -400.71859    47.262394    23.484793    30.799209    68.474915    134.36531    113.37452 
   69000    226.23871   -12748.446   -11583.801   -12748.446            0     1051.618    46.987947     21.64154    21.837244   -9.2317201   -21.731529    2.8068256    22206.109    637.23484    544.80977    1972.8094    195.89082   -213.87703    938.72565    46.987947    23.528301    30.935462    68.955968    134.62628    113.10184 
   69500    234.28737   -12777.446   -11571.367   -12777.446            0    708.68296    46.901576    21.671123    21.881442   -9.2374386   -21.457865    2.9690824    22240.513    350.53901    774.34986      1001.16    472.90264   -578.36258   -73.277716    46.901576    23.557755    30.790468    68.778553    134.17878     113.0864 
   70000    226.21707    -12737.07   -11572.537    -12737.07            0    1299.3557    46.938395    21.582321    21.923627   -9.1797694    -21.48074    2.9211108      22209.5    784.02687    2460.9164    653.12394   -391.15973    791.80323   -636.74988    46.938395    23.453459     30.83181    68.907273    134.16341    113.04187 
   70500    227.52068    -12738.56   -11567.315    -12738.56            0    2097.0218    47.110101    21.395066    22.012287   -9.3028833   -21.806562    2.8655365    22186.706    1363.8001    3195.2437    1732.0217   -547.21014    818.87486   -309.40272    47.110101    23.330076     31.11717    68.660671    134.49032     113.5001 
   71000    226.37416   -12748.564   -11583.222   -12748.564            0    951.18157    46.990746    21.607609     21.91871   -9.2595661   -21.379608    3.0225605     22255.33     679.4859     1062.501    1111.5578   -339.80436   -432.99102    160.34711    46.990746    23.508048    30.767733    68.654041    134.01695    113.19671 
   71500    230.68904   -12736.841   -11549.287   -12736.841            0    1015.4584      46.7763     21.66874    21.953928   -9.1205215   -21.691912    2.8268955    22252.138    1811.2115    479.28249    755.88132     364.6288    426.45193    513.13583      46.7763     23.50996     30.99202    69.169851    134.42053    112.82656 
   72000     235.3787   -12694.438   -11482.741   -12694.438            0    1430.8187    46.975205    21.700695    21.825061   -9.4246914   -21.333671    2.9854968     22248.35    2285.6604    481.72263     1525.073   -180.45317   -46.129752    431.29251    46.975205     23.65893    30.665485    68.504298    134.08222    113.47548 
   72500    224.05845   -12755.709   -11602.288   -12755.709            0    1095.7264    47.091124    21.553679     21.90952   -9.1323967   -21.651423    2.9687032    22237.877    551.55226    1393.2507    1342.3763   -322.55546    529.88519    116.58124    47.091124    23.408583    30.945507    68.820489    134.39997    112.96261 
   73000    226.63194   -12747.801   -11581.132   -12747.801            0     1294.054    47.099814    21.532305    21.894362   -9.3795678   -21.672331    2.7758049    22204.553    -93.23339    1809.1657    2166.2298    261.05952   -73.125792    1126.5281    47.099814    23.486517    30.931507    68.771577    134.47962    113.53815 
   73500    234.89803   -12700.386   -11491.164   -12700.386            0    869.75837    46.853431    21.740429    21.877059   -9.1182772   -21.507689    3.0956642    22284.272    570.40063    164.73039    1874.1441    143.20643   -668.48449    9.0643053    46.853431    23.575183    30.834551    68.754483     134.2283    112.75394 
   74000     242.5168    -12760.97   -11512.528    -12760.97            0    764.30336     46.85206    21.644789    21.933723   -9.1359954   -21.517982    2.8582338    22243.053    985.71232    712.33431    594.86344     253.3893    707.88657    167.34143     46.85206    23.493899    30.859054    69.115296    134.21069      112.884 
   74500    235.53516     -12726.9   -11514.398     -12726.9            0    1221.1325    47.035235    21.505353    22.023199   -9.4244946   -21.472116    3.0671627    22276.671    977.37571      1526.48    1159.5417     667.9881   -386.04457   -342.01756    47.035235    23.479806    30.910848    68.302618    133.99906    113.66493 
   75000    236.26846   -12722.062   -11505.785   -12722.062            0    736.69275    46.997544    21.514032    22.065629   -9.0088124   -21.659367    2.9542764    22310.705    612.66466    1407.3706    190.04304   -90.112519     185.4463   -918.26499    46.997544    23.324071    31.060391    69.079424    134.21324    112.72107 
   75500    231.02165   -12720.916   -11531.649   -12720.916            0    1391.6317    46.897397    21.594521    21.982933   -9.4549637   -21.391205    2.9130187    22262.706     1858.025     1966.179    350.69117    995.54909   -553.83117   -467.59198    46.897397    23.573707    30.811015    68.588358    133.96918    113.64577 
   76000    226.94349   -12728.034   -11559.761   -12728.034            0    1287.5635    46.791633    21.636053    21.932562   -9.0858612   -21.591761    2.9869525    22204.224    1177.0673    1556.7601    1128.8633   -501.52222    315.45325   -102.14963    46.791633    23.466394     30.92189    68.935304     134.2882    112.77952 
   76500     221.1506   -12772.423   -11633.971   -12772.423            0    1677.1689    46.984192    21.553536    21.852417   -9.2221548   -21.463132    2.9362158    22129.406    1229.3593    1664.5076    2137.6397    562.91553   -534.83271    638.69911    46.984192    23.443614    30.770367    68.769537    134.22885    113.16473 
   77000    224.18091   -12772.467   -11618.415   -12772.467            0    1713.1882    47.086395    21.436521    21.883661   -9.4373473   -21.691385    2.8288404    22088.678    1147.1041    1973.6831    2018.7772    314.45508   -571.82685     16.98199    47.086395    23.421954    30.942094    68.522321    134.50983    113.76131 
   77500    227.90421   -12726.355   -11553.136   -12726.355            0    1265.3569    46.890544    21.601618    21.957616    -9.103182   -21.468422    2.9910407    22241.124    1209.0432    979.38766    1607.6398    -823.4939    -161.9558    -125.5108    46.890544     23.44137    30.854114    68.928018    134.09134    112.85114 
   78000     232.5519   -12699.026   -11501.881   -12699.026            0    643.35874    46.771041    21.659601    22.067248   -9.3739916   -21.313824    2.9790528    22355.051    1141.7281    808.15482   -19.806691   -373.33614   -593.65932     7.484835    46.771041     23.60106    30.823973    68.694652    133.74651    113.40233 
   78500     233.9376   -12782.319   -11578.041   -12782.319            0    647.71241    46.845151     21.59596    22.011853   -8.9805231    -21.50724    2.9501682    22268.643    1805.9036   -197.84456    335.07815     -746.975   -434.00006   -228.06807    46.845151    23.388785    30.915797    69.192694    134.08075    112.57963 
   79000    226.07957   -12774.881   -11611.056   -12774.881            0    1129.0132    47.029013    21.588794    21.888407    -9.356042   -21.506581    2.9487802    22223.293    81.478524    1839.2905    1466.2705   -310.96055    882.97307    445.08099    47.029013    23.528952    30.827434    68.581471     134.2383     113.4307 
   79500    232.17208   -12735.833   -11540.644   -12735.833            0    861.43248    47.252651    21.574946    21.883989    -9.141419   -21.870627    2.8291835    22310.144    103.95799    800.38971    1679.9497   -87.320458    1051.0341    562.23017    47.252651    23.431684    31.068273    68.993033    134.74508    112.96263 
   80000    226.06515   -12739.521    -11575.77   -12739.521            0    131.63969    47.224491    21.680625    21.772113   -9.4152721   -21.516956    3.0820966    22291.519    100.81678   -159.69332     453.7956    455.20435    42.215651    123.14071    47.224491    23.636769    30.765299    68.254812    134.37812    113.47392 
   80500    231.92856    -12753.89   -11559.954    -12753.89            0    576.46239    46.968636    21.660308    21.861668   -9.1435383   -21.720344    2.7888057     22241.08    249.40482    386.13954    1093.8428    285.09323   -117.36701    372.27328    46.968636     23.51113    30.943227    69.144114      134.583    112.88623 
   81000    234.43426   -12756.807   -11549.972   -12756.807            0     931.1513    47.258468     21.53177    21.873221   -9.3629942    -21.51504    2.9821087    22257.282    1040.3524    985.49829    767.60322    508.82586   -462.18953     -95.8001    47.258468    23.479412    30.825764    68.466611    134.26328     113.5016 
   81500    228.74482   -12763.314   -11585.768   -12763.314            0    1084.0448    47.078863    21.528542    21.957062    -9.234455   -21.679868    2.9870269    22254.345    1553.0538    734.02357    965.05692   -783.06832    197.85836     234.1984    47.078863    23.425484    31.000832    68.639727    134.37342    113.21643 
   82000    233.50187   -12730.044    -11528.01   -12730.044            0    2031.3934    46.757704    21.595488    21.954352   -9.1594803   -21.448429    2.9059434    22168.525    2142.5159    2326.4857    1625.1787     351.9777   -412.70592    392.88238    46.757704    23.457646    30.829745    68.996398    134.08348    112.98368 
   82500    240.84733   -12708.405   -11468.557   -12708.405            0    2612.0709    46.689758    21.651772    21.870783   -9.3566212   -21.300157    3.0706868    22109.524    2454.4951    2833.6709    2548.0467    917.21029    49.713136   -843.78725    46.689758    23.586979    30.683171    68.454229    133.96324    113.37116 
   83000    227.31829   -12754.183   -11583.981   -12754.183            0    1998.6616     46.98625    21.484454    21.943088   -9.1027729   -21.623244    2.9036719    22150.975    1650.4493     2745.844    1599.6913   -374.81743    141.94066   -303.13942     46.98625    23.333286    30.943418     68.96009    134.33076    112.96194 
   83500    234.61262   -12748.393    -11540.64   -12748.393            0    1380.7057    47.064651    21.481207    21.960217   -9.3906494   -21.580178    2.9514337      22201.9    1159.4554    2223.0775    759.58434    5.7380285    140.16571   -105.32943    47.064651    23.444116     30.93002    68.475173    134.24355    113.61286 
   84000    240.50117   -12699.947   -11461.881   -12699.947            0     1672.857    46.754808    21.668546    21.946612   -8.9762599    -21.49906    2.9691008    22234.304    2780.6702    292.50038    1945.4003   -1382.0716    432.46045    704.50644    46.754808    23.454192    30.865497    69.179143    134.15008    112.50193 
   84500    227.06674   -12751.413   -11582.505   -12751.413            0    1292.7292    46.899617    21.615007    21.958223   -9.2922126   -21.476813    2.9401797    22259.831    1832.3793    1535.1922    510.61602    191.69144    144.85904   -998.25556    46.899617    23.527723    30.855497    68.749682    134.11055    113.26269 
   85000    224.67904   -12727.527   -11570.911   -12727.527            0    820.19146    47.166579    21.547387    21.935905    -9.283337   -21.722614    2.9046294    22293.823    670.97871    871.30514    918.29052    280.71159   -192.40337   -472.91369    47.166579    23.462102    31.007946    68.702026    134.47114      113.308 
   85500    235.55264   -12707.943   -11495.351   -12707.943            0     536.7408     47.39094    21.509549    21.921327   -9.1689366   -21.550616    2.9970697    22345.674   -274.12446     1121.132    763.21488    124.89485    107.42629    27.767779     47.39094     23.38226    30.886179    68.723337    134.24621    113.08723 
   86000    231.82461   -12698.956   -11505.556   -12698.956            0    787.85165    46.963101     21.66434    21.918932   -9.3302571   -21.641591    2.9246362    22300.861    478.64385    515.46511     1369.446   -64.454849    581.09171    -282.2711    46.963101    23.588076    30.941098    68.685988    134.38248    113.30026 
   86500    237.20179   -12782.469   -11561.388   -12782.469            0    1743.6806    46.643739    21.640673    21.945112   -9.0413878   -21.401534    2.8367552    22151.438    1867.9493    1539.0235     1824.069   -368.96314   -140.57539     148.0197    46.643739    23.453474      30.7841    69.326964    134.04427    112.67498 
   87000     232.6104   -12771.934   -11574.489   -12771.934            0    1249.4145    47.006959    21.497153    21.962308    -9.282387   -21.537429    3.1070867    22193.259    1617.6329    1253.7076    876.90291   -183.65391   -202.67238   -497.11478    47.006959      23.4156     30.91695    68.381904    134.15661     113.3545 
   87500    228.65078   -12741.652    -11564.59   -12741.652            0    1847.8281    47.039929    21.505702    21.935024   -9.1846867   -21.600488    2.8680372    22190.055    1350.3346     2391.798    1801.3518   -449.53115    141.40155   -98.616693    47.039929    23.384903    30.918473    68.918176    134.31697    113.12643 
   88000    238.88633   -12729.378   -11499.625   -12729.378            0    2358.3939     46.75589    21.573603    21.942865   -9.2875688     -21.3171    2.9325623    22133.615    2452.7341    2080.5784    2541.8693    478.22405    192.65491    209.67475     46.75589    23.487854    30.732848    68.781971    133.91782    113.29218 
   88500    227.67582   -12707.887   -11535.844   -12707.887            0     1324.135     46.78663    21.658878    21.945106    -9.108912   -21.511928    3.0182321    22237.984     2165.022    392.23872    1415.1442   -145.68763   -141.95324   -579.40056     46.78663    23.496368    30.878155    68.888548    134.16056     112.8098 
   89000    230.15559   -12781.794   -11596.986   -12781.794            0    1242.5848    46.770054    21.593815     21.97308   -9.3036655   -21.418165    2.9723534    22191.578    2358.0276    357.87577    1011.8512    556.16417   -447.84303    405.72011    46.770054    23.512785    30.828378    68.687678    134.00768    113.30873 
   89500    235.40716   -12783.832   -11571.989   -12783.832            0    1232.1573    47.208005    21.425579    21.922698   -9.1693881   -21.694722    2.8334147    22173.907    285.06337    1629.2391    1782.1695   -582.98412    353.56528    704.83353    47.208005    23.305216     30.97247    68.918552    134.46326    113.16921 
   90000    224.35017   -12740.818   -11585.895   -12740.818            0     796.7549    47.110178    21.575923     21.90183   -9.3100468   -21.598834    3.1077731    22262.018    286.89706     898.5972    1204.7704    -123.4037    407.38996   -457.58755    47.110178    23.498881    30.916954    68.341322    134.31544    113.34028 
   90500    234.99032   -12736.683   -11526.986   -12736.683            0    1153.0388    46.788384       21.682     21.91579   -9.1299157   -21.455006    2.6466551    22232.817     1397.865    1164.2856    896.96576   -391.07682    173.92887    296.74982    46.788384    23.525826      30.7835    69.530029    134.18397    112.83512 
   91000    222.46292   -12722.104   -11576.896   -12722.104            0    1500.8468    46.844634    21.674291    21.865892    -9.240897   -21.523186    3.0085343     22200.97    2362.4204    1295.3955    844.72449    41.111397    325.16785     26.38958    46.844634    23.562026    30.828818    68.679719    134.27889    113.09112 
   91500    228.61468   -12736.638   -11559.761   -12736.638            0    1279.9764    47.048026     21.59689    21.894345   -9.2287243   -21.555103    3.0972011    22246.648    944.59499    1723.2588    1172.0753    668.08375    216.16492   -817.32688    47.048026     23.48606     30.88005    68.499088    134.26891    113.13786 
   92000    227.27283   -12741.412   -11571.444   -12741.412            0    1118.0412     47.19674    21.403026    21.970991   -9.2290198   -21.731473    2.6430473    22194.063   -61.582138    2164.3633    1251.3424    171.55029    402.84268    545.71791     47.19674    23.308031    31.015594    69.164542    134.48021    113.32578 
   92500    227.33929   -12742.421    -11572.11   -12742.421            0    1281.9689    47.043843    21.561553     21.89073   -9.3235596   -21.526321    3.0388285    22204.606    775.98552    1429.3763    1640.5449    319.49882   -430.67987   -47.817582    47.043843    23.491048    30.851597    68.448411    134.24578    113.38443 
   93000    231.05651   -12744.721   -11555.275   -12744.721            0    1812.1934    46.840931    21.622122    21.912639   -9.0483765   -21.467013    2.8810666    22193.128    1444.1394    1857.2343    2135.2065   -25.446242    736.06667    159.28235    46.840931    23.439055    30.810662    69.192549    134.16601    112.70822 
   93500    232.24559   -12766.275   -11570.708   -12766.275            0    726.88347    46.691159    21.724588    21.921957   -9.3592439   -21.507645    2.8354861    22236.454    835.08426    461.89214    883.67403   -281.45895    984.75364    731.81157    46.691159    23.654876    30.841384    68.878137    134.21583    113.30703 
   94000    227.71821   -12727.535   -11555.274   -12727.535            0    768.99628    47.132257    21.578289    21.905729   -9.2022504    -21.63148    3.0734893    22278.859    460.64991    1274.7331    571.60583   -597.39816    535.70688   -687.06546    47.132257    23.458559    30.939105    68.552835     134.3599    113.09625 
   94500    228.64358   -12729.152   -11552.127   -12729.152            0    1193.4424    47.134246    21.462129    22.005948   -9.1539652   -21.611732    2.8752117    22261.245    451.05878     2437.792    691.47632    277.07114    349.42117   -143.25267    47.134246    23.332768    30.977339    68.956053    134.23978    113.09908 
   95000    232.95461   -12748.762   -11549.545   -12748.762            0    1417.6234    46.898982    21.540468    21.990928   -9.4570159   -21.511431    2.9820018    22215.808    2142.4119    1752.6633    357.79511    246.27491   -83.405631   -464.26461    46.898982    23.525027    30.906874     68.39917    134.10759    113.70315 
   95500    229.43981   -12731.401   -11550.277   -12731.401            0    1082.2718    46.755174    21.656521    21.950805    -9.099914   -21.470689    2.9434231    22226.384     1998.773    579.21279     668.8296    231.75405   -146.61982     332.8268    46.755174    23.490707    30.846265    69.046398    134.11133     112.7918 
   96000    227.93924   -12736.314   -11562.915   -12736.314            0    1155.8191    46.826888    21.589931    21.986789   -9.2868566   -21.376685    3.0043929    22228.408    998.25959    1594.8186    874.37908     546.0056   -265.87277   -181.26677    46.826888    23.502571    30.812464    68.671937    133.92908    113.27484 
   96500    228.86861   -12740.767   -11562.583   -12740.767            0     991.3308    47.137699    21.439535    22.022704   -9.2193751   -21.766396    2.8194883    22256.373     826.8511    1303.0984    844.04286   -172.15993    187.22834    666.00247    47.137699     23.33775    31.092201    68.908507    134.43179    113.26855 
   97000     233.1275   -12754.839   -11554.732   -12754.839            0    395.06512    47.159022    21.524688    21.942672   -9.2328453   -21.568205      2.92029    22273.638    230.31932    256.43804    698.43802    -325.1114   -227.99689    272.94102    47.159022    23.421307    30.906252    68.780733    134.25548    113.21653 
   97500     228.4517   -12734.807    -11558.77   -12734.807            0    1156.0938    46.841713    21.738972    21.818177   -9.3067468   -21.562473    3.0382891    22217.246    1023.4628    36.523697     2408.295    86.089468    663.01628    220.79074    46.841713    23.647377    30.825384    68.536444    134.38721    113.17642 
   98000    229.15502   -12764.275   -11584.617   -12764.275            0    1143.6533    46.860044    21.642766    21.903572   -9.2423033   -21.570771    2.8537863    22214.186    1272.3006    201.42103    1957.2385    1028.4667   -152.36002    740.34832    46.860044    23.533582    30.874079    68.937034    134.32034    113.12437 
   98500    224.91358    -12751.33   -11593.506    -12751.33            0    1125.1511    47.056249    21.571516     21.92501    -9.295715   -21.509483    3.1017821    22255.521    1544.0429    614.26507    1217.1452    132.76834   -376.26564   -153.67597    47.056249    23.489159    30.870455    68.406687    134.16811    113.31244 
   99000    233.23875   -12724.817   -11524.137   -12724.817            0    1092.8923     47.24536    21.466745     21.94007   -9.2219498   -21.780146    2.7500527    22251.709    392.53512    1263.3768    1622.7651   -692.35466    685.29428    600.35502     47.24536    23.363765    31.037143    68.998177    134.56714    113.24799 
   99500    241.59002    -12732.57   -11488.899    -12732.57            0    1142.8335    46.929263    21.695248    21.878459   -9.2939241   -21.440168    2.9196727    22275.378    1815.7754    872.09148    740.63372    30.210185   -382.12118    -248.1112    46.929263    23.602135     30.77129    68.802546    134.16754    113.18958 
  100000    225.56627   -12750.604   -11589.421   -12750.604            0    962.18122    46.800072    21.708995    21.949112   -9.1501921   -21.575615    3.1532263    22299.914    1230.1043    882.58304    773.85634    395.61966    355.26501   -586.01798    46.800072    23.558575    30.938868    68.606366     134.2158    112.85509 
  100500    223.60143    -12747.91   -11596.841    -12747.91            0    1122.2587    47.015659     21.51185    22.007539   -9.3073384   -21.482021    2.7832705    22258.289    889.23133    1470.5426    1007.0022     383.7216   -779.48067    244.02412    47.015659     23.43899    30.879695     68.96345    134.08048    113.39625 
  101000    229.17281   -12757.206   -11577.457   -12757.206            0    2387.9253    46.988918    21.417859    21.950104   -9.2229113   -21.577753    2.8890332    22090.629    2647.3176    2165.4207    2351.0378   -475.34181     436.8598    250.28372    46.988918    23.319236    30.915255      68.7843    134.26393    113.29757 
  101500     232.2759    -12775.56   -11579.836    -12775.56            0    1509.8224    46.861203    21.623795    21.928046   -9.2123505   -21.481957    3.0425283    22220.062    1994.6287    493.29639    2041.5421   -50.856969   -469.13771   -107.37874    46.861203     23.50438    30.847539    68.673349    134.13819    113.07538 
  102000    241.64744     -12731.9   -11487.933     -12731.9            0    2002.7473     46.76696    21.658036    21.885947   -9.2470487   -21.387976    2.9063411    22167.849    2754.9056     906.7058    2346.6304   -245.81596    34.380114    534.68744     46.76696    23.549489    30.739014    68.889489     134.0904     113.1204 
  102500    228.69702   -12763.994   -11586.694   -12763.994            0    1696.2169    46.896176    21.598709    21.871793   -9.2297748   -21.660834    2.9710132    22153.871    1441.1595    1888.0833    1759.4079    317.31299    557.14349   -654.00254    46.896176    23.488146     30.92562    68.680167    134.46048    113.13847 
  103000    229.86924   -12758.928   -11575.594   -12758.928            0    188.71347    47.217747    21.542891    21.925099   -9.2929256   -21.590397    2.9685955     22302.36    173.86754    47.279041    344.99383    44.082139   -1079.4181     162.0121    47.217747    23.461769    30.913877    68.604492    134.29915    113.33385 
  103500     232.2016   -12731.707   -11536.366   -12731.707            0    288.79612     47.15871    21.596595    21.942382   -9.1340743   -21.723746    2.8912362    22347.605    573.74482    270.52122    22.122336    -562.7239    235.22985   -736.01795     47.15871    23.448758    31.012071    68.977722    134.46659    112.92547 
  104000    224.41005   -12705.161    -11549.93   -12705.161            0   -261.50933    46.933005    21.735486    21.966849   -9.4192482   -21.457617    3.0160496    22408.639    321.00508   -544.30063   -561.23244    167.62249    23.780078   -199.49275    46.933005    23.688681    30.855604    68.518221    134.06073    113.42989 
  104500    227.76868   -12767.768   -11595.247   -12767.768            0   -74.361419    46.972868    21.600361    21.997979   -9.0748528   -21.633564    2.9482376    22319.829    157.60666   -51.833162   -328.85775   -617.56395   -70.030766   -455.04538    46.972868    23.429225    30.993778    69.019279    134.26652     112.7885 
  105000    230.99912   -12718.057   -11528.906   -12718.057            0    169.73328    47.192945    21.565856    21.966393   -9.4742647   -21.490975    2.9292245    22356.434    88.664104    618.89948   -198.36374   -181.67616     62.77387    81.844461    47.192945    23.555209    30.870128    68.476268    134.12083    113.71674 
  105500     229.4821   -12666.996   -11485.655   -12666.996            0    1096.7895     47.05701    21.594721     21.97292   -9.1083195   -21.676855    2.8633047    22328.507    835.92916    1048.4808    1405.9585   -564.66156    475.35105    307.72265     47.05701    23.437011    30.998286    69.091619    134.37023    112.86927 
  106000    230.08333   -12750.037     -11565.6   -12750.037            0    1338.9918    46.882647    21.659135    21.865805   -9.2813589   -21.418103    3.0531681    22203.361    1712.6833    960.91381    1343.3783   -99.100811   -410.34192   -254.50172    46.882647    23.563993    30.759883    68.562128    134.13089    113.19607 
  106500    228.07261   -12714.142   -11540.057   -12714.142            0    1865.1446    46.849898    21.665501    21.876408   -9.2139088   -21.599478    2.8782728    22205.134    2301.2034     1007.725    2286.5053    771.08895   -173.81364    345.49731    46.849898    23.543365    30.877162     68.92751    134.38925    113.03909 
  107000    231.44162   -12732.955   -11541.526   -12732.955            0    1671.4789    47.068052    21.525442    21.946653   -9.1679793   -21.574208    2.9243553    22235.484    1573.0325    2497.1261    944.27817   -339.05074      63.7429    -371.9635    47.068052    23.396506    30.913652    68.869045    134.25765    113.06982 
  107500    236.25712   -12720.715   -11504.496   -12720.715            0      1660.83    47.066476    21.561494    21.921756   -9.4340849   -21.518758    3.1227336    22246.715    1957.5729    1389.6711     1635.246    205.17949    134.86575   -316.87152    47.066476     23.53508    30.876719    68.159848    134.18081    113.63145 
  108000    231.65034   -12725.486   -11532.983   -12725.486            0    1657.6816    46.727667    21.607906     22.00723   -9.0117799   -21.462013     2.730306    22220.415    2130.3729    1947.4048    895.26719   -316.82658   -87.596859   -22.948209    46.727667     23.41183    30.860828    69.552538     134.0627    112.63903 
  108500    233.68898   -12732.883   -11529.885   -12732.883            0    776.91462     46.89811    21.685723    21.963562   -9.3079258   -21.379987    3.1123795    22337.369    1027.0675    753.55861    550.11777    784.54377   -546.87543    320.31875     46.89811    23.598899    30.808908    68.497417    133.94398    113.22993 
  109000    226.69178   -12776.326   -11609.349   -12776.326            0    505.38056    46.992543    21.564177    22.006211   -9.2472552   -21.723356    2.8772533    22300.115    259.11675    930.22862     326.7963    455.55579   -161.96828    624.51406    46.992543    23.463279    31.055693    68.848687    134.38664    113.21086 
  109500    226.41059   -12760.455   -11594.925   -12760.455            0    906.17699      47.3207    21.578758    21.792842    -9.280753   -21.496961     2.930653    22253.148   -299.48688    1650.8697    1367.1481    496.04814   -1146.5816   -157.84967      47.3207    23.489895    30.751195    68.669681    134.35172    113.27193 
  110000    230.51684   -12734.391   -11547.723   -12734.391            0    1227.7418    47.048682    21.647606    21.824248   -9.2702751   -21.648009    3.0989991    22227.808    891.65517    657.85629     2133.714    791.23375   -150.97981   -56.267542    47.048682    23.549031    30.895597    68.405445     134.4818    113.18233 
  110500    229.15749   -12757.163   -11577.492   -12757.163            0    1345.9026    46.983348    21.597963    21.817871   -9.1407706   -21.600802     2.717993    22139.567    780.70113    1296.5065    1960.5001    55.418011    408.38813    346.18519    46.983348    23.452627    30.822097    69.245882    134.49299    112.93923 
  111000    229.60528   -12750.876     -11568.9   -12750.876            0    815.50967    47.097643     21.63684    21.853883   -9.3069586   -21.586677    3.0561009    22270.072    570.22899     624.3469    1251.9531    59.531186   -319.16826    169.16034    47.097643    23.553605    30.869347    68.453126     134.3702    113.27467 
  111500      232.029   -12733.636   -11539.183   -12733.636            0    165.26019    47.042912    21.600144    22.038425   -9.1879539   -21.740706       2.9527    22393.985    169.11689     194.6192    132.04448    47.243198   -198.46198    88.959633    47.042912    23.473064    31.097731     68.83702    134.35557    113.04322 
  112000     223.7129   -12714.074   -11562.432   -12714.074            0   -320.46589    46.880129    21.675771    22.048622   -9.1916217   -21.267029     2.840285    22404.993    481.65907   -345.66596   -1097.3908   -38.721255   -956.96396    794.44893    46.880129    23.544107    30.765167    69.214701    133.73071     112.9794 
  112500    228.77422   -12735.004   -11557.307   -12735.004            0   -225.93836    46.910375    21.616326    22.062024   -9.2286528   -21.605779    3.0748386    22371.553    1421.7178   -639.45761   -1460.0753   -488.59201   -379.26072   -1170.3562    46.910375    23.503906    31.032196    68.623123    134.12591    113.11908 
  113000     235.1628   -12743.439   -11532.854   -12743.439            0   -165.89014    46.985236    21.619543    22.108286   -9.1860337   -21.398589    2.9069611    22457.582   -269.21551   -131.71417    -96.74074   -152.26003   -489.43041   -55.072303    46.985236    23.490165    30.905119    69.063199     133.8201    113.02039 
  113500    227.40349   -12737.101    -11566.46   -12737.101            0    305.05642    47.078736    21.553657    22.028355   -9.2362001     -21.7188    2.8468165    22352.589     785.3363    -227.3712    357.20415    387.25789    143.37337    544.99032    47.078736    23.449255      31.0654    68.924021    134.35737    113.19616 
  114000    229.39316   -12689.628   -11508.744   -12689.628            0    483.19817    47.033873     21.61304    22.050105   -9.3338252   -21.519118    3.1858293    22414.924    230.56655    1005.2903    213.73765    223.43968   -151.47511   -957.09062    47.033873    23.542383    30.974652    68.292772    134.00596    113.35762 
  114500    229.23292   -12726.687   -11546.628   -12726.687            0    1120.6612    46.672179    21.659607    22.045134   -8.9988338   -21.333898    2.8379374    22285.449    1287.4088    2327.8721   -253.29733   -283.38058   -106.13306   -136.98668    46.672179    23.454585    30.808717    69.467239     133.8254    112.56123 
  115000    233.04172   -12704.127   -11504.461   -12704.127            0    1169.1895     46.88746    21.570468    22.004301   -9.3328096   -21.539071    2.9177108    22254.808    1976.7559    1182.1633    348.64912    335.51048   -78.350442   -371.16054     46.88746    23.502902    30.929499    68.708702    134.13829     113.3965 
  115500    230.99007   -12744.539   -11555.434   -12744.539            0    2322.3194    47.022068    21.502576    21.913672   -9.0876872   -21.447598    2.9567663    22156.817    1654.2632    3194.0914    2118.6036   -320.68466    -371.8569    -266.5025    47.022068    23.344097    30.805047      68.9335    134.12583     112.9105 
  116000     227.0732   -12770.948   -11602.007   -12770.948            0    2261.2719    47.047129     21.53344    21.816878   -9.3016584   -21.672357    2.9128723    22102.385    1342.1913    2813.1161    2628.5084    345.77076    1102.3232    116.58295    47.047129    23.456553    30.889352    68.605203    134.55652    113.36258 
  116500    234.28166   -12736.388   -11530.339   -12736.388            0    1225.8893    46.982202    21.638455    21.858895   -9.3083333   -21.559356     2.902636     22222.24    1274.0859    983.71483     1419.867   -504.68251    -118.4089   -121.45758    46.982202    23.555632    30.838976    68.732753    134.35439    113.27619 
  117000    227.48097   -12711.693   -11540.653   -12711.693            0    2239.8966    46.858171    21.567519    21.946123   -8.9279564   -21.418476     2.959948    22179.071     3724.953    2138.3685    856.36831   -888.61627   -1114.4731   -1010.9039    46.858171    23.342371    30.808193    69.226277    134.04476    112.48729 
  117500    225.66563   -12750.542   -11588.847   -12750.542            0    2018.9182    46.930533    21.480198    21.988236   -9.5208064   -21.587365    2.9125468    22165.838     2140.663     2536.364    1379.7274    582.11812   -451.65914   -103.13316    46.930533    23.495631    30.951248    68.367457    134.22385    113.90467 
  118000    228.50112   -12767.549   -11591.258   -12767.549            0    1438.3234    46.942043     21.53321    21.953302   -9.0684418   -21.518228    2.8722037     22190.68    1451.5297    1524.1395    1339.3008   -546.28186   -162.87429   -665.79823    46.942043     23.36484    30.874442    69.130418    134.18355    112.83778 
  118500    230.20742       -12750   -11564.925       -12750            0    1440.3277    46.847365    21.691113    21.857346   -9.2260124   -21.434014    3.1564349    22210.812    2051.0912    812.73634    1457.1556   -508.37512    14.685983   -947.79731    46.847365    23.571671    30.775373    68.470525    134.14419     113.0418 
  119000    230.79829   -12717.815   -11529.698   -12717.815            0    1262.1767    46.858925    21.623313    21.924077   -9.2965031   -21.581555    2.8085108    22214.466    1096.9664    1522.9331    1166.6307    196.11294    128.21276    522.41743    46.858925    23.537048    30.892012    68.933259    134.31582     113.2643 
  119500    232.43561   -12726.337   -11529.791   -12726.337            0    2064.3732    47.041556    21.549108    21.800227   -9.1220929   -21.513667    2.9070947    22098.968    1326.0614    2134.6001    2732.4582   -870.24712    536.33198    535.06082    47.041556    23.400355    30.765874    68.923746     134.3685    112.94374 
  120000    236.34429   -12751.067     -11534.4   -12751.067            0     966.4561     47.15663    21.545601    21.871864   -9.3423126   -21.691959    3.0238872    22222.205    534.91101    1138.3524    1226.1049   -164.89042    632.43449   -78.218522     47.15663    23.483861    30.952599    68.381369     134.4922    113.44187 
  120500    232.96549   -12700.378   -11501.104   -12700.378            0    1043.0851    46.960858    21.655856    21.897593   -9.1702663   -21.543367    2.8131126    22269.361    1000.0717    424.59928    1704.5843   -131.28252    235.78418    51.077149    46.960858    23.517438    30.846958    69.126523    134.29839    112.95044 
  121000    230.98494   -12719.699   -11530.622   -12719.699            0    755.10279    47.042564    21.748325    21.803975   -9.2940005   -21.448484    3.1732935     22307.58     464.7669    563.87554    1236.6659    225.12897    227.19866   -547.35354    47.042564    23.650964    30.749318    68.346006    134.22894    113.13912 
  121500     224.8752   -12738.996    -11581.37   -12738.996            0    785.02274    47.143821     21.52474    21.964243   -9.3205616   -21.720962    2.8795024    22288.403   -279.16942    1492.9503    1141.2873    228.21355    418.30985     149.5998    47.143821    23.456072    31.024502    68.692438    134.43686    113.41339 
  122000    240.11983   -12757.091   -11520.988   -12757.091            0    90.266633    47.116932      21.5509    21.970298   -9.2196205   -21.514501    2.8658308     22308.91    1035.6422   -49.961237    -714.8811   -322.76216   -405.47284   -72.304404    47.116932    23.440194    30.883341    68.941483    134.15787    113.16157 
  122500    228.97874   -12696.116   -11517.365   -12696.116            0   -204.18336    46.880786    21.769983    21.998819   -9.2891453   -21.581183    3.2020981     22451.86    87.961297   -691.96205   -8.5493223    942.77324   -403.54053   -365.78375    46.880786    23.668975    30.983042    68.381423    134.15072    113.10771 
  123000    221.03367   -12754.976   -11617.126   -12754.976            0   -175.83797    47.022871    21.599918    22.033912   -9.3045582   -21.547619    2.8406428    22379.628    325.15011    34.330085   -886.99411    199.91046     15.36524    247.11007    47.022871    23.518743    30.949352    68.915971    134.12467    113.30484 
  123500    224.63912   -12731.479   -11575.068   -12731.479            0   -335.81647    47.216125    21.527654    22.061673   -9.2721523   -21.620425    3.0251663    22424.641   -1031.0273    259.17872   -235.60085    943.45192    220.35634    262.40503    47.216125    23.439554    31.037266    68.587745    134.15451    113.30198 
  124000    227.56182   -12702.994   -11531.537   -12702.994            0   -405.84877    47.129765    21.605728    22.043071   -9.1524733   -21.591995    3.0296699    22445.862   -486.36364   -236.79126   -494.39142   -377.70189    302.75157    275.17395    47.129765     23.46434     31.00468    68.800428    134.13975    112.95816 
  124500    230.36539   -12719.828   -11533.939   -12719.828            0    810.95619    46.889256    21.647496    21.967773    -9.271412   -21.488741    2.8532065    22298.058     1747.531    641.68256    43.655046    -261.3787   -479.84107    682.16428    46.889256    23.549377    30.862434    68.954638     134.1289    113.18498 
  125000    237.47664   -12702.904   -11480.407   -12702.904            0    1032.3861    46.908127    21.717423    21.879425   -9.1806158   -21.495871    3.0373501    22289.087    1503.5655    650.29023    943.30267   -119.17534    146.15591   -365.31377    46.908127    23.578172    30.822187    68.757286    134.22002    112.91526 
  125500    226.55637   -12737.881   -11571.601   -12737.881            0    1541.2206    47.279903    21.497721    21.831837    -9.403925    -21.80475    2.9217429    22190.101     1026.902    1787.1224    1809.6374    207.06225    385.69128    285.46347    47.279903    23.464565    30.993754    68.388083    134.71016    113.62641 
  126000    232.64133   -12748.569   -11550.964   -12748.569            0    693.08801    47.145249    21.502964    21.926291   -9.2386944   -21.607674    2.8540886    22228.054    782.94611    1079.6275    216.69046    70.553786     181.7168    502.94947    47.145249    23.403653     30.91601    68.855581    134.34005    113.25066 
  126500    232.03982   -12767.185   -11572.676   -12767.185            0    1646.6474    46.926827    21.567858    21.875058   -9.2146923   -21.533404    3.0531529     22139.99    1558.1399     1291.619    2090.1832    499.36377    405.17459    328.09596    46.926827     23.45385    30.846838    68.575019    134.27276     113.1342 
  127000    228.88366   -12719.315   -11541.054   -12719.315            0    2237.9722    46.608709    21.653507    21.933847   -9.2182801   -21.326019    2.8788291    22136.559    3321.1464    1228.4739    2164.2963    467.53417   -645.40234   -24.761979    46.608709     23.53404    30.727518     69.01911    133.95049    113.06031 
  127500    228.44259   -12698.924   -11522.934   -12698.924            0     1888.403    46.938612    21.575524    21.934448   -9.1731736   -21.564562    2.9750836    22213.567    1371.0225    2228.7217    2065.4647    77.663137   -3.3475562    67.501245    46.938612    23.444623    30.903098     68.79972    134.25175    113.03353 
  128000    231.07277   -12759.255   -11569.725   -12759.255            0    1177.7743    47.248432    21.435915     21.94257   -9.3743699   -21.599094    2.9227534    22223.729    1338.1609    1614.8561    580.30588    129.87092   -526.43163   -422.62368    47.248432    23.396095    30.927977    68.505809    134.29618    113.62076 
  128500    230.64718   -12757.648   -11570.309   -12757.648            0    1838.7113    46.821841    21.576916    21.923835   -9.1552046   -21.548539    2.9775952    22149.012    2571.1998    1829.6106    1115.3235   -796.42704    312.83052   -417.87337    46.821841    23.438879    30.884626    68.821374    134.24363    112.99178 
  129000    234.15173   -12731.853   -11526.473   -12731.853            0    1646.1133    46.654375    21.728619    21.908085   -9.1408081   -21.309405    2.9743231    22208.995    1969.0473    1156.5411    1812.7514   -347.36638   -21.347484    534.57482    46.654375     23.57302    30.706701    68.999272    133.94487    112.81554 
  129500    223.28591   -12687.959   -11538.515   -12687.959            0    2084.2855    46.861379    21.565408    21.945909   -9.2628646   -21.601598    2.9037951    22178.202    1279.1168    3022.6648    1951.0748    129.76134    456.67196   -484.40387    46.861379    23.470567    30.930309    68.783731    134.29844    113.24469 
  130000    234.61075   -12760.137   -11552.394   -12760.137            0    1638.1337    47.230754    21.399836    21.950117   -9.2379525   -21.620146    2.9480024     22185.65    516.10392    2832.7245    1565.5727   -405.55872    428.52416    -35.42411    47.230754    23.308641    30.950429    68.635311    134.31007    113.34905 
  130500    228.50557   -12697.789   -11521.474   -12697.789            0    1314.3081     47.05827    21.599206    21.915218    -9.295693   -21.503819    2.9641803    22275.094    1353.3975    797.28404    1792.2429    66.541259   -1241.5711    67.953832     47.05827    23.514583    30.846027     68.66275    134.19753    113.28569 
  131000    227.76774   -12767.082   -11594.566   -12767.082            0    845.49316    46.704521    21.741395    21.895844   -9.0918204   -21.673322    2.8421017    22233.509    534.33173    128.55841    1873.5893   -22.960681    770.67156    795.39764    46.704521    23.565854     30.93927    69.205963    134.46808    112.69371 
  131500    224.19681    -12744.04   -11589.907    -12744.04            0    770.07236    47.020637    21.667307     21.85866   -9.3058344   -21.280513    3.0464335    22269.834     985.5295   -218.70375    1543.3913   -131.82946   -446.13585   -299.29401    47.020637    23.581152    30.658474    68.578817    133.95675    113.24291 
  132000    226.13867   -12757.052   -11592.922   -12757.052            0    739.73022    47.005642    21.562145    21.986946   -9.1254489   -21.824114     2.971619    22284.703    590.30268    904.35301    724.53495   -558.18253    826.13449   -549.99294    47.005642     23.41367    31.121508    68.823207    134.52778    112.93887 
  132500    229.41568   -12675.898   -11494.898   -12675.898            0    346.27428    47.090792    21.586806    22.033964    -9.351041   -21.437676    2.8567606    22398.401    60.252681    1072.2569   -93.686729   -50.947018   -750.18207   -349.78721    47.090792    23.525139    30.874433    68.844343    133.97548    113.42145 
  133000    221.98247   -12717.885   -11575.151   -12717.885            0    327.53199     47.02611    21.682218    21.913098   -9.2072458   -21.653266    3.0668071    22343.259   -39.368685    702.01522    319.94945    20.773226    264.98428   -349.73622     47.02611    23.556144    30.958893    68.619606    134.38048    113.00826 
  133500    224.99183   -12770.032   -11611.806   -12770.032            0   -30.481296    47.004349    21.631485    21.935327   -9.2895299   -21.547901    2.7413085    22303.267   -647.20023    319.64845    236.10789   -110.05416    304.17235    505.29269    47.004349    23.541803    30.870462    69.082242    134.26759    113.24086 
  134000    227.56338   -12749.756   -11578.292   -12749.756            0    781.09928    47.181014    21.625466    21.883959    -9.252509   -21.599349     3.096615    22328.454    679.00075    800.10185    864.19525    203.60619   -238.87443   -115.04278    47.181014    23.521686    30.903537    68.465858    134.34107    113.16378 
  134500    228.72909   -12677.923   -11500.458   -12677.923            0    1329.6126    47.031255     21.59944    21.922961   -9.1810408   -21.667364    2.9261093    22270.413    1155.6352    856.90891    1976.2936   -1129.2522    622.46886   -9.1735989    47.031255     23.46971    30.962122    68.855061    134.41114    113.02837 
  135000    223.88777   -12747.045   -11594.503   -12747.045            0    713.02304    47.028334    21.592558    21.938337   -9.4234785   -21.384016    2.8239717    22277.549    356.08402    396.42771    1386.5574   -14.713593    179.27062   -40.494154    47.028334    23.559298    30.765916    68.768232    134.03163    113.57754 
  135500    224.90201   -12753.167   -11595.403   -12753.167            0     563.3792    46.926654    21.567944    22.025852   -9.0647967   -21.823247    3.0367101    22292.617    219.27285    11.246389    1459.6184   -382.88277    643.14987     122.1162    46.926654    23.395443    31.154677    68.822013    134.46558    112.79654 
  136000     231.2954   -12735.097   -11544.421   -12735.097            0    551.83785    47.069868    21.579776     21.98603   -9.3440926   -21.348459    2.9757138    22332.468    499.14911    531.15316    625.21127     226.8401   -411.93348   -435.52437    47.069868    23.515926    30.789561    68.641642    133.89721    113.41272 
  136500    227.37571   -12713.457   -11542.958   -12713.457            0    553.24124    46.834932    21.633292     22.04876   -9.1128054   -21.618202    2.8963831    22339.665    740.98785    597.64544    321.09043    75.022236    450.78124     492.6565    46.834932    23.474295    31.014247    69.104878    134.19008    112.84277 
  137000     228.9386   -12726.817   -11548.273   -12726.817            0    43.075778    46.991758    21.654399    21.976892   -9.2731144   -21.482452    3.0976456    22363.207     416.9539    -192.6119   -95.114659    351.66517   -837.44603   -227.66419    46.991758    23.556392    30.888103    68.532488     134.0665    113.18218 
  137500    232.67699   -12715.091   -11517.302   -12715.091            0    87.146557    46.974548    21.604321    22.037683   -9.2638027   -21.481659    2.8120512    22365.013    211.65791    155.64615   -105.86439    879.10618   -1391.0865     527.6864    46.974548    23.506695     30.90354    69.048869    134.03676    113.20936 
  138000    230.42184   -12747.053   -11560.874   -12747.053            0    299.67254    47.049297    21.582623    21.993752    -9.226172   -21.676628    2.9455984    22333.494   -196.30952     224.0702    871.25694    430.88092    288.33742    649.40793    47.049297    23.471938    31.020603    68.777865    134.32933    113.14581 
  138500    224.66953   -12717.411   -11560.844   -12717.411            0    114.80561    47.090371    21.647475    21.932043   -9.2874725   -21.453616    3.0100193    22357.254    568.24697   -611.55099    387.72084    520.82211   -725.92963    357.40778    47.090371    23.555686    30.827461    68.646642    134.10101    113.22091 
  139000    222.35034   -12796.593   -11651.965   -12796.593            0    104.95733    46.724114    21.636511    22.038324   -9.0828645   -21.617408    2.8379323    22279.574    273.98758    509.71641     -468.832   -222.00991    288.23126    373.50646    46.724114    23.465656     31.00087    69.248325    134.21208    112.77234 
  139500    227.51645   -12727.169   -11555.946   -12727.169            0    1325.0154    46.883077    21.635335    22.011417   -9.3995624   -21.334407    2.9809678    22326.864    2396.6548     215.1599    1363.2314    323.34665   -707.94564    281.92928    46.883077     23.58897    30.798467    68.604757    133.84502    113.48274 
  140000    221.07661   -12701.727   -11563.656   -12701.727            0    1174.4045    46.946655    21.548083    21.982604   -9.0426172   -21.639615     3.038426    22237.831    1057.3031    805.82513    1660.0852   -250.73359    1079.7159    49.898849    46.946655    23.368543    30.995804    68.866448    134.27849    112.76528 
  140500    236.53283   -12723.344   -11505.707   -12723.344            0    1404.6917    46.992306     21.55294    21.938934   -9.4932769   -21.508108    2.8362748    22220.244     1931.536    1366.3246    916.21459    414.56341    642.39993   -154.19395    46.992306    23.551041     30.85385    68.584897    134.19451    113.77173 
  141000    223.00201   -12715.187   -11567.204   -12715.187            0    1004.7373    46.859274    21.670454    21.900406   -9.0686899   -21.510239    3.0141408    22239.025    641.77331    161.94037    2210.4983    427.32566   -27.374127   -143.39498    46.859274    23.491482    30.844825    68.939223    134.21634    112.70842 
  141500    224.26193   -12716.243   -11561.774   -12716.243            0    330.33405     47.00565    21.617884    21.976689   -9.2665822   -21.605583    2.9288989    22331.891    1074.1812    108.63563   -191.81474    -37.82564   -24.878729    -230.0075     47.00565    23.520257    30.957301    68.781507    134.26001    113.20256 
  142000    229.43762    -12751.56   -11570.448    -12751.56            0    702.95945    47.259256    21.595026    21.883748   -9.3218763   -21.488593    2.9453033    22333.784    450.63847    637.42841    1020.8115    364.87216    318.78127    280.48041    47.259256    23.521108    30.811246    68.643609    134.22093     113.3483 
  142500     228.2498   -12707.253   -11532.255   -12707.253            0    957.09597    47.148823    21.566353    21.925265   -9.2284808   -21.823858    2.9536482    22294.226   -142.87043    1592.2408    1421.9175    471.33017    437.45938    124.13151    47.148823    23.457887    31.076069    68.674859    134.60959    113.16662 
  143000    231.94235   -12784.907     -11590.9   -12784.907            0    1539.7055    46.930564    21.624013     21.86397   -9.2997328   -21.333501    2.9678489     22188.15    2023.2141    834.99192    1760.9105     183.3125   -410.52588    432.53058    46.930564    23.538967     30.69136    68.687709    134.03502    113.27085 
  143500    222.72341   -12677.098    -11530.55   -12677.098            0    1546.5259    46.622967    21.671076    22.000983   -9.0629607   -21.738716     2.975317     22229.13    2154.7399    875.55465     1609.283    -179.5291    1109.0217    133.68979    46.622967    23.489845    31.071974    69.005773    134.39689    112.69494 
  144000    228.24338   -12743.823   -11568.858   -12743.823            0     805.3522    46.986912    21.588558    21.931257   -9.3387931   -21.440298     2.987761    22246.622    379.59576    733.12116    1303.3397    257.50563   -91.687354    183.61103    46.986912    23.521881    30.815469    68.578649    134.08814    113.39238 
  144500    233.10637   -12739.638   -11539.639   -12739.638            0   -20.473902    47.233294    21.427465    22.015184   -9.2635358   -21.707253    2.8545623    22281.342   -1159.1035    710.34836    387.33348    643.83142    519.44202    483.25746    47.233294     23.34415    31.048699     68.78775     134.3577    113.37983 
  145000    230.33846   -12737.093   -11551.343   -12737.093            0    905.93649    46.897553    21.659109    21.901165   -9.1707478   -21.569192    3.0123359     22246.31    505.37433    912.58314     1299.852   -150.83135    135.51183   -181.41141    46.897553    23.520621    30.886327    68.771039    134.29406    112.94843 
  145500    220.74092   -12715.264   -11578.921   -12715.264            0    616.48378    46.920927    21.662442    21.938171   -9.3134166   -21.385573    2.9358686    22298.437       1027.8    399.06594    422.58537     1028.204   -447.94836   -243.77232    46.920927    23.579676    30.777352    68.771828    134.01508    113.26451 
  146000    228.14534   -12744.862   -11570.402   -12744.862            0    465.50596    46.881105    21.582505    22.078088   -9.0614329    -21.81652    3.0060873    22338.868    1049.4716    294.42367    52.622589   -277.97934    491.52394    56.378287    46.881105    23.407565    31.183955    68.917534     134.3955    112.77514 
  146500    234.85956    -12748.47   -11539.446    -12748.47            0    906.40304    47.022828    21.568855    21.965927   -9.3648808   -21.293325    2.9465575    22278.471    851.87947    1294.8606    572.46906   -87.053631   -545.19817    86.850088    47.022828    23.514177     30.73418    68.662071    133.85393    113.46978 
  147000    229.61381   -12738.747   -11556.728   -12738.747            0    1144.6635     46.82415    21.563437    22.011165   -9.1168504   -21.668635    2.9478835    22224.445     1425.293    1989.2072    19.490167    830.67258    338.13894   -595.48586     46.82415     23.41151    31.027587    68.932667    134.29611    112.91826 
  147500    226.72038   -12709.579   -11542.454   -12709.579            0    856.03734    46.956164    21.651161    21.915197    -9.420456   -21.301588    2.8320685    22280.205    905.48238    1427.2345    235.39515   -115.27451    405.95099   -1.9287222    46.956164    23.611814      30.6929    68.807338    133.94944    113.51394 
  148000    235.22331   -12764.403   -11553.507   -12764.403            0    421.81585    47.042408     21.64549      21.8973    -9.158909   -21.605203    3.0073071    22297.056    569.31032   -627.51273      1323.65   -420.07594   -354.27684    287.04937    47.042408    23.503465    30.908258    68.776977    134.34769     112.9348 
  148500    227.92231   -12714.431   -11541.119   -12714.431            0    1108.8457    47.021956    21.563542    21.908071   -9.3765815   -21.714451    2.7761134    22213.906    1075.3868    872.84824    1378.3021   -286.39186    322.10011    842.01036    47.021956    23.513966    30.970757    68.789978    134.51754    113.50109 
  149000    235.84908   -12720.577   -11506.459   -12720.577            0    880.64253    47.046285    21.617007    21.891498   -9.0586613   -21.327811    3.0293654    22263.651    663.72704     1393.789    584.41158    736.03177   -1037.7229   -563.10199    47.046285    23.438309    30.713031    68.939291    133.98119    112.73624 
  149500    231.81707   -12745.487   -11552.125   -12745.487            0    1428.4543    46.832257    21.587375    21.956677   -9.2382521   -21.668833    3.0754483    22197.882    1886.9095    1386.5326    1011.9208     663.2288   -23.082673   -110.74942    46.832257    23.481058     31.00149    68.518674    134.34371    113.16836 
  150000    225.47502   -12737.439   -11576.725   -12737.439            0    1340.0981    46.826809    21.541707    21.967022   -9.2629508   -21.340347    2.6846525    22158.782    1593.5951    1282.9908    1143.7085   -169.29114    150.09427    592.52067    46.826809    23.448826    30.743582    69.241683    133.95872    113.26774 
  150500    234.60386   -12733.745   -11526.038   -12733.745            0    1849.3333    46.888373    21.593945    21.912102   -9.1345279   -21.573236    3.1372088    22186.112    977.41504    2072.1455    2498.4395   -539.87919    747.21819   -540.95374    46.888373    23.446493    30.909332    68.568222    134.26294    112.92901 
  151000    227.82155   -12736.336   -11563.543   -12736.336            0    2090.1195    46.862049    21.522318    21.970929   -9.3647643   -21.523679    2.9007701    22159.438    1864.8211    1768.3673    2637.1699   -310.36157    644.77537    378.26409    46.862049    23.471451    30.893445    68.649365     134.1634    113.51476 
  151500    222.75205   -12693.176    -11546.48   -12693.176            0    1136.6634    46.882622    21.610761    21.961031   -9.0689461   -21.468145     2.848282    22250.238    1498.8058    1307.8219    603.36258   -607.52678   -363.92813   -63.780882    46.882622    23.436527    30.842841    69.237451    134.11091    112.76534 
  152000    221.89866   -12722.309   -11580.006   -12722.309            0    369.32953    47.068853    21.629848      21.9221   -9.3378623   -21.635542    3.1199161    22318.718    506.71153   -676.03383    1277.3109   -326.24452    479.36404   -511.79767    47.068853    23.559414    30.958182    68.313885    134.33589    113.35043 
  152500    223.64426   -12718.075   -11566.785   -12718.075            0   -109.34254    47.118793     21.58113    22.013346   -9.2027332   -21.611693    2.7866602    22384.861   -433.60023    62.265664     43.30695    9.3701118    446.96072    470.10062    47.118793    23.461361    30.974476    69.118295    134.24483    113.09461 
  153000    227.62848    -12752.26   -11580.461    -12752.26            0    200.05914    47.009983    21.697035      21.9246   -9.2743905   -21.554614    2.8749402    22362.593   -165.41556   -536.98026    1302.5732    -341.9205    297.96118     69.47997    47.009983    23.596094    30.879682     68.90206    134.26831    113.14427 
  153500    222.24313   -12712.903   -11568.827   -12712.903            0    279.31588    47.088763    21.718343     21.90166   -9.3013716   -21.702953    3.1663329    22398.607    533.68561    199.41162    104.85041   -226.54935    20.063695    -522.0877    47.088763    23.626298    30.995589    68.311358    134.44264    113.18412 
  154000    225.84138   -12716.818   -11554.218   -12716.818            0    495.96961    47.113872    21.569678    21.965786   -9.2022218   -21.546981     2.764207    22322.314    389.90198    489.31274    608.69409   -148.48581    19.715178    658.45723    47.113872    23.450627     30.89351    69.146013    134.22355    113.10444 
  154500    218.82492    -12744.68   -11618.201    -12744.68            0    498.59258    47.096299    21.587309    21.906606   -9.3136819   -21.623947    3.0144506     22272.06    1107.8224   -447.20658    835.16189   -785.32008   -527.98247    227.41224    47.096299    23.510776     30.92865    68.502653    134.35932    113.33742 
  155000    234.84401   -12735.205   -11526.261   -12735.205            0    652.69771    46.798305    21.717876    21.960292   -9.1567819   -21.524949    3.1044363    22319.557    1065.4858     124.7732    767.83417   -375.92629    570.17201   -431.42343    46.798305    23.569319    30.906558    68.707435    134.14307    112.86146 
  155500     228.3978   -12726.286   -11550.526   -12726.286            0    987.36961    46.867799    21.592513    22.013957   -9.1920843   -21.402376    2.7535333    22277.982    1827.9849    649.13621    484.98777   -82.972604   -462.62465    631.52293    46.867799    23.467659    30.826254    69.259577    133.97071     113.0598 
  156000    224.51341    -12782.54   -11626.777    -12782.54            0    1000.1393     46.88893    21.554514    21.970891   -9.2855232   -21.582467    3.1488706    22205.278    1388.1318    799.37877    812.90717    83.223334   -203.84352    -167.3513     46.88893    23.469513    30.958654    68.331857    134.19787    113.30602 
  156500    227.62757   -12743.907   -11572.113   -12743.907            0    989.19355    46.994952    21.519045    21.992103   -9.1186867   -21.396494    2.6757003    22240.317    1265.2698    1257.8824    444.42843   -139.25332   -121.35299    490.32785    46.994952    23.371344    30.799707    69.449305    134.00315    112.96478 
  157000    222.39545   -12722.976   -11578.115   -12722.976            0    1327.6181     46.97948    21.624713    21.942249   -9.2703495   -21.612356    3.0558363    22291.521    849.92111    1525.0997    1607.8336    250.06633    468.37186   -104.06568     46.97948    23.528017    30.949869    68.537754    134.29093    113.20444 
  157500    230.55253   -12763.664   -11576.812   -12763.664            0     290.1412    47.039518    21.692643    21.891759   -9.2211927   -21.546705    3.0507051    22338.602    189.88963   -120.42463    800.95858    6.9883525   -462.77726   -367.38339    47.039518    23.571194    30.867724    68.652108    134.26944    113.02956 
  158000    227.89991   -12748.858   -11575.662   -12748.858            0    481.74995    47.181511    21.569367    21.926765   -9.3097451   -21.615819    2.6864762    22314.328    545.74382    414.31522    485.19082   -158.97837   -193.37832    722.08057    47.181511    23.492743    30.907019    69.086549    134.37746    113.34594 
  158500    227.31205   -12730.933   -11560.763   -12730.933            0   -179.19381    47.150972    21.676035    21.935448   -9.2915914   -21.601833    3.1759923     22419.04   -81.943488   -219.95653    -235.6814   -206.03746   -201.22447   -591.71346    47.150972    23.583557    30.949798    68.327216    134.26385    113.20275 
  159000    229.00653    -12689.49   -11510.597    -12689.49            0    490.22422    46.963846    21.681379    21.978361   -9.1129368   -21.524925    2.8216891    22379.267      39.1671    678.00909    753.49646      468.485    138.79297    206.48386    46.963846    23.518669    30.892275     69.25633    134.16873    112.79758 
  159500    231.88347   -12739.135   -11545.431   -12739.135            0    441.81269    46.895046    21.617533    22.005229   -9.4051214   -21.553424    2.9000287    22307.915    186.73533    407.11192    731.59082    338.58898   -179.12993    192.13478    46.895046    23.574861    30.938493    68.661274    134.15916    113.51237 
  160000    230.88251   -12752.439   -11563.888   -12752.439            0    1060.6398    47.033141    21.584247    21.914815   -9.1349635    -21.51138    3.0954916    22247.371    1003.2916    113.95607    2064.6718   -358.42612   -104.52899    366.96045    47.033141    23.437732    30.863905    68.653162    134.18483    112.93923 
  160500    243.96136   -12715.099    -11459.22   -12715.099            0    1827.2783    46.963892    21.513324    21.932261   -9.3362644   -21.669605    2.7412739    22159.248    2245.8172    2291.9601    944.05768    461.40629    477.21616     125.5139    46.963892    23.451843    30.953359    68.903334    134.43284    113.45968 
  161000    232.38776   -12813.858   -11617.559   -12813.858            0    1199.7094    46.864523    21.595284    21.907027   -9.2474672   -21.464109    2.9251572    22171.066    1136.4559    988.13072    1474.5416   -103.01086   -21.488946    -71.00355    46.864523    23.491955    30.808803    68.806012    134.16184    113.18143 
  161500    238.03634   -12718.964   -11493.587   -12718.964            0    1345.5543     46.88815    21.684034    21.880364   -9.1145854   -21.480323    3.0372721    22246.296    3064.2247    103.80335     868.6348   -1653.4145     1.107114   -225.58266     46.88815    23.521756    30.812004    68.837622     134.1981    112.79878 
  162000    232.61439   -12792.555   -11595.089   -12792.555            0    1907.9332    46.814262    21.518702    21.927098   -9.4914619    -21.49468    2.6436889    22088.967    2494.7222    1281.7367    1947.3406    802.90624   -5.8826655    1690.3315    46.814262     23.51898    30.818955    68.902705    134.22277     113.8013 
  162500    227.05469   -12754.014   -11585.169   -12754.014            0    585.44066    47.062454    21.547319    21.941835   -9.1306375   -21.669379    3.0177268     22250.55    429.16564    1547.2111   -220.05471   -99.543516    176.10415   -119.02332    47.062454    23.402041    30.985687    68.744482    134.37369    112.96471 
  163000    224.14325   -12755.747   -11601.889   -12755.747            0     457.8737    46.990577    21.607076    21.934412   -9.2327393   -21.360014     3.064951    22270.644    310.80422    720.26669    342.55019    95.300083    -812.1738   -625.77051    46.990577    23.497004    30.769507    68.631204    133.96304     113.1371 
  163500    226.11203   -12751.697   -11587.705   -12751.697            0    868.31414     46.77378    21.620504     22.00547    -9.156656   -21.735758    2.8280068    22253.531    1417.0221     748.0292    439.89112    116.59478    107.92315    118.66485     46.77378    23.479577    31.059322    69.098728    134.41211    112.95349 
  164000     227.9912   -12753.891   -11580.224   -12753.891            0    967.38701    46.994311    21.652355    21.844057   -9.2575417   -21.351042    3.0052954    22227.148    1027.0462    938.21567    936.89921   -42.235513   -553.99282   -945.74676    46.994311    23.548387    30.693022    68.684483    134.07758     113.1493 
  164500    240.76578   -12734.121   -11494.692   -12734.121            0    525.81465    47.204758     21.53516    21.960704   -9.2746795   -21.821404    2.9326691    22324.418    231.80068    730.26128      615.382     893.6753    295.16195    178.87964    47.204758    23.447447    31.097376    68.642982    134.56453    113.30039 
  165000    233.57063   -12710.767   -11508.379   -12710.767            0    1366.9194    46.865809    21.581009    22.017405   -9.1522441    -21.51431     2.859411    22268.656    1612.5894    1130.2042    1357.9646    582.02724    88.445647     480.3697    46.865809    23.441491    30.916143    69.093412    134.09838    112.98121 
  165500     223.9575   -12741.351   -11588.449   -12741.351            0    939.17442    46.925977    21.701132    21.880465   -9.3983807   -21.432119    3.1952986    22281.902    675.94937    1362.1957    779.37821    542.72785   -256.38174   -25.300735    46.925977    23.648862    30.794487     68.17301    134.10477    113.41659 
  166000    233.31602   -12752.516   -11551.438   -12752.516            0    1139.3318    46.926237     21.53593    21.998733   -9.0238013   -21.634851    2.7109367    22231.924      877.049    2302.7445    238.20207   -387.77363    564.12571    342.07654    46.926237     23.35006    30.973541    69.472151    134.30635    112.73424 
  166500    222.32189   -12763.461   -11618.979   -12763.461            0    370.51217      47.1399    21.542687    21.953814   -9.3793327   -21.496716    3.0183516     22294.54   -185.12846    1241.6863    54.978665    721.35763   -386.43007    130.86263      47.1399    23.495941    30.873762     68.43332    134.12913    113.52752 
  167000    231.06969   -12794.976   -11605.462   -12794.976            0    394.83801    46.895977    21.712397    21.918911   -9.0875724   -21.645417    3.0679535    22318.363    471.83126   -744.67102    1457.3538    9.1097811    418.31556    89.090927    46.895977    23.537463    30.957633    68.815681    134.36244    112.71141 
  167500    224.77715   -12744.623   -11587.502   -12744.623            0     7.945867    47.157531    21.616052    21.878119   -9.4250887   -21.526244    2.7145709    22301.672    107.67567   -464.72992    380.89185    634.18632   -779.65692    561.07012    47.157531    23.581476    30.812338    68.900741    134.31672    113.55829 
  168000    239.91023   -12742.777   -11507.753   -12742.777            0   -72.611697    47.212713    21.630432    21.891705   -9.1599758   -21.716889    3.0528327    22356.497    54.503639   -766.84769    494.50897    92.531302    -73.42979   -235.42787    47.212713    23.490014     30.98693    68.653041    134.49446    112.95151 
  168500    230.93016   -12726.082   -11537.286   -12726.082            0    39.261829    47.299219    21.635006    21.837234   -9.3606172   -21.589242    2.7953374    22346.454   -284.25364     -121.896    523.93513    136.01721   -40.832592    656.76149    47.299219    23.573176    30.834625    68.824372    134.44003    113.39624 
  169000    229.98748    -12726.86   -11542.917    -12726.86            0    607.39177    46.990824    21.664171    21.908185   -9.2184981   -21.585598    3.0147935     22302.91   -43.436434    933.09141    932.52033    541.96286    614.43169   -623.42891    46.990824    23.543938    30.903003    68.699488     134.3064    113.05063 
  169500     233.5758   -12717.664   -11515.249   -12717.664            0    1548.1043    46.750993    21.652224    21.931768   -9.0803102    -21.48247    2.9945202    22200.716      1918.05    1119.2976    1606.9653   -217.85248    185.01604   -442.07905    46.750993    23.479157    30.845844    68.969227    134.14257    112.75175 
  170000    228.07728   -12745.655   -11571.546   -12745.655            0    1703.5122    46.901451    21.484167    22.031047   -9.3682416   -21.336114    2.9144784    22199.333    1841.4415    2040.0095    1229.0857    -409.0492    236.83414    60.156378    46.901451    23.437862     30.80732    68.682228     133.8336    113.55977 
  170500    227.45338   -12789.071   -11618.173   -12789.071            0     1340.629    46.866105    21.469135    22.048113   -9.1194907   -21.625765    2.9985906    22184.255    1700.7508    1541.3983      779.738   -810.28276    759.24494   -897.65342    46.866105    23.325713     31.02877    68.811823    134.18349    113.01443 
  171000    231.43533   -12755.714   -11564.318   -12755.714            0    653.53462    46.930081    21.547408    22.009428   -9.2867055   -21.316012    2.8512039    22256.409    147.76537    1182.3805      630.458   -152.18428    41.101072    636.36902    46.930081    23.463454    30.772011    68.945285    133.84484    113.31553 
  171500     230.5454   -12725.333   -11538.518   -12725.333            0    1183.5897    46.741855    21.732277    21.897186   -9.1721981   -21.614828    3.0091451    22243.314    1688.0914    237.80158    1624.8761   -479.44281     105.1258     157.1782    46.741855     23.58858    30.915085     68.80515    134.36026    112.88238 
  172000     233.4393   -12749.631   -11547.918   -12749.631            0     1046.622    47.060159    21.626848    21.841928   -9.2691454   -21.566061    2.8578877    22229.905    763.59908    599.09154    1777.1753   -263.01128    97.942891    375.54665    47.060159    23.529505    30.827461    68.850834    134.39276     113.1997 
  172500    231.62666   -12710.831    -11518.45   -12710.831            0    1416.4185    47.364565    21.514631    21.833369   -9.3688796    -21.67235      2.96377    22248.883    792.10414     1793.993    1663.1583    76.379697    69.134073    143.89741    47.364565    23.466045    30.905836    68.414253    134.52642    113.53146 
  173000    224.71142   -12729.742   -11572.959   -12729.742            0    1719.5586    46.925184    21.569594    21.911157   -9.1261876   -21.544909    2.9491699    22177.534    2212.5086    1517.4534    1428.7138    241.40301   -115.76771   -5.3642264    46.925184    23.420817    30.870366    68.903884    134.26001    112.93343 
  173500    229.37491   -12703.682   -11522.892   -12703.682            0    2074.0974    46.805617    21.681694    21.836487   -9.3113145   -21.369952    2.9520338    22160.215    2162.7632    1981.8351    2077.6937    114.93936   -103.64231   -171.53826    46.805617    23.596535    30.695627    68.710122    134.12203    113.24135 
  174000    226.29366   -12749.938    -11585.01   -12749.938            0    1948.1759     46.80494    21.531009    21.971018   -9.0838479   -21.595942    2.9761717     22141.46    1567.3474    2920.4625    1356.7179     517.5005    385.20944    92.802293     46.80494    23.368796    30.951057    68.910824    134.24635    112.87469 
  174500    226.99364   -12699.891    -11531.36   -12699.891            0    740.97357    47.056919    21.505811    22.029903   -9.2310677   -21.393609    2.9682158      22294.2    1108.9491    941.68753     172.2841    31.296565   -357.80935   -151.39415    47.056919    23.403258    30.851474    68.781464    133.90294    113.23075 
  175000    229.51793   -12762.167   -11580.641   -12762.167            0    407.25677    46.878281    21.512885    22.112127   -9.2161289   -21.642573    2.9385032    22299.794    101.86223    1324.5668   -204.65875    215.30636    239.14342   -60.602596    46.878281    23.403873     31.08025    68.831142    134.13449    113.19031 
  175500    227.56545   -12761.702   -11590.227   -12761.702            0    489.21021    46.545541    21.732415    22.042692   -9.2631553   -21.327684    2.9657921    22297.219    1263.3825   -307.94948    512.19765    1136.1185    -165.4435   -157.33006    46.545541    23.624223    30.814709    68.904444    133.79869    113.08549 
  176000    224.86753   -12753.833   -11596.246   -12753.833            0    808.52409    46.930468     21.59083    21.974071   -9.1642331   -21.447653    2.9515997    22265.618    266.72605    1519.3058    639.54041    105.72945    279.31677    -513.1087    46.930468    23.455215    30.847586    68.916308    134.04939    112.99881 
  176500    230.08027   -12712.327   -11527.906   -12712.327            0   -77.032432    47.245634    21.489367    22.060219    -9.389228    -21.80487    3.0721271    22397.272    -533.8854    664.40592   -361.61782    197.14471    786.26712    -253.0909    47.245634    23.451023    31.169594     68.25956    134.39138    113.60169 
  177000    224.60467   -12753.897   -11597.663   -12753.897            0   -297.80757    47.109574    21.561917    22.026128   -9.2360587   -21.566882    2.8300338     22373.54   -12.203721    130.78867   -1012.0077   -311.94907    314.90567    83.831578    47.109574    23.456791    30.956256    69.000791    134.16196     113.1879 
  177500     224.3919   -12711.326   -11556.189   -12711.326            0    694.80328    46.856431    21.735439    21.917804   -9.1556527   -21.494221    3.0171487    22322.081    511.65635    176.20081    1396.5527    -211.9825    320.09996    544.13434    46.856431    23.585065    30.846311     68.86027    134.17215    112.84236 
  178000    230.55611   -12698.945   -11512.075   -12698.945            0     74.74172    46.972672    21.756138    21.947883   -9.4568374   -21.638259    2.9142862    22429.506    606.99882     -462.062    79.288335    52.680382    726.47593    353.99683    46.972672    23.722591    30.958309    68.594681    134.34269    113.49335 
  178500    223.80596   -12783.531    -11631.41   -12783.531            0    644.04511    47.220666    21.513354    21.931341   -9.1327604   -21.612395    2.9776042    22279.499    147.98918     1151.326    632.82013   -290.12127   -149.36358   -502.29269    47.220666      23.3716    30.934535    68.800997    134.31875    113.00199 
  179000    230.15761    -12742.68   -11557.861    -12742.68            0    677.60873    47.134695    21.525617    21.971377   -9.3571702   -21.585277    2.9705282    22292.234   -175.54002    1713.9273    494.43894    194.92018    47.010408   -165.88346    47.134695    23.471447     30.94333     68.52244    134.23273    113.49455 
  179500    230.09477   -12719.955    -11535.46   -12719.955            0    550.39635    46.716796    21.761849     21.97052   -9.1356065   -21.514305    2.8274134    22336.195    1203.3358    201.35898    246.49428   -213.99655    521.92315    139.06763    46.716796     23.60164    30.879821     69.26147     134.1637    112.77262 
  180000    231.75361   -12770.117   -11577.082   -12770.117            0    997.65134    46.749972    21.693701    21.943875   -9.1493562   -21.340182    3.0164828    22255.037    1704.8411    239.66562    1048.4474    761.85399    -1211.089    63.932802    46.749972    23.544158    30.757701    68.900779    133.93293    112.86767 
  180500    232.48677   -12729.285   -11532.476   -12729.285            0    1292.5015    47.008738    21.523307     21.95662   -9.3617482   -21.716953    2.9283114    22215.346    1715.5704    1004.1543    1157.7798    377.78332   -103.93802   -505.06985    47.008738    23.471154    31.020868    68.543325    134.43307    113.50705 
  181000    227.81221   -12743.515    -11570.77   -12743.515            0    1382.3952    47.316963    21.467926    21.886785   -9.1938309   -21.517066     2.802899    22232.532    877.92266    1730.3353    1538.9275   -123.14583   -382.94405    184.58105    47.316963    23.353766    30.819989    68.995159      134.279    113.18346 
  181500    231.96409   -12760.308   -11566.189   -12760.308            0    1727.7338    46.938762    21.565226    21.921598   -9.2604745    -21.64747    3.0657053    22190.028    1996.3231    1524.3282    1662.5501   -453.40727    277.21275   -720.01217    46.938762    23.469456    30.960749    68.477372    134.36212    113.23951 
  182000    235.42012   -12737.826   -11525.916   -12737.826            0    1173.7865    46.815449    21.648114    21.905548   -9.2826375   -21.449151    2.8678697    22200.532    1545.1727    857.95001    1118.2369   -197.03045    470.66887    141.44506    46.815449    23.554367    30.791944    68.892508    134.15351    113.20949 
  182500    229.93781   -12722.503   -11538.816   -12722.503            0    336.40959    46.857844    21.690382    21.988163   -8.9901697   -21.398349    2.9639753    22347.988    822.98991    130.54426     55.69459   -165.58277   -647.39152    475.92271    46.857844    23.479689    30.824565    69.229175    133.96334    112.51289 
  183000    234.56184   -12751.517   -11544.026   -12751.517            0    584.12615    47.205316    21.471258    21.987365   -9.4147177   -21.718082    2.9938542    22285.459    374.47435    955.12273    422.78136    371.30901    259.64259    80.386269    47.205316    23.444654    31.049677    68.334333    134.38389    113.67649 
  183500    230.66925   -12716.329   -11528.876   -12716.329            0    1039.7413    47.086209    21.528437    21.971005    -9.171124   -21.503212    2.8101256    22271.843    590.08013    1091.6668    1437.4772    -65.12277   -198.49384    567.42664    47.086209    23.400494    30.870861    69.099909    134.15116    113.07403 
  184000    220.77256   -12673.033   -11536.527   -12673.033            0    1603.4444    46.658333    21.748688    21.910488   -9.1792912   -21.484145    3.1159048    22233.832    2713.2935    1110.0747    986.96487   -533.91436    613.89873   -335.26822    46.658333    23.606457    30.843911    68.658843    134.15039    112.88275 
  184500    225.49603   -12681.812    -11520.99   -12681.812            0    1576.2023    46.795673    21.709298    21.879075   -9.2931539   -21.464976    2.9197682    22226.978    2351.9318    128.69163    2247.9833    608.66309   -588.45378    710.12219    46.795673    23.614748    30.789027    68.805475    134.19985    113.17444 
  185000    229.50845   -12733.143   -11551.666   -12733.143            0    1354.3092    47.131341    21.508851    21.919277   -9.1144034   -21.608738    2.8156975     22220.47    795.18909    1697.4948    1570.2438   -537.76699    791.77865    425.70578    47.131341    23.360287    30.908258     69.10517    134.35685    112.96487 
  185500    234.23539   -12740.193   -11534.382   -12740.193            0    1554.8978    47.317262    21.450772    21.903995   -9.4202223   -21.734279    3.1764605    22232.376    546.11736     2530.057    1588.5192    33.572711    146.97472   -1280.7116    47.317262    23.428108    31.020216    67.945926    134.47909    113.70894 
  186000    235.14152   -12730.701   -11520.226   -12730.701            0    929.05659     47.01511     21.56951    21.957341   -9.1614346   -21.605205    2.7843632    22266.783    508.25893    1421.7784    857.13243   -250.48958    616.19532     93.88004     47.01511    23.434497    30.929959     69.14921    134.30841    113.01288 
  186500    224.54499    -12730.47   -11574.544    -12730.47            0    1182.8194    46.819562    21.743908    21.880213   -9.2096394   -21.416959    3.0269114    22274.938    1852.9805     362.6544    1332.8231    25.662232   -258.09136   -303.55506    46.819562    23.613873    30.766736     68.77198    134.11554     112.9551 
  187000    228.67719   -12744.461   -11567.263   -12744.461            0    664.85479    46.805602    21.730655    21.931161   -9.2135339   -21.582794    3.0757323    22306.543    761.30133    215.47021    1017.7928   -319.09298    1055.3507   -17.992367    46.805602     23.60319    30.923339    68.652959    134.26237    112.97636 
  187500    226.03954   -12686.633   -11523.013   -12686.633            0     1192.673    47.038445     21.49892    22.022341   -9.2357641   -21.464313    2.7862067     22270.66    800.90984    2212.1652    564.94399     1168.917   -281.33701   -115.56426    47.038445     23.39878    30.878199    69.066703    134.03745    113.24797 
  188000     231.1887   -12740.245   -11550.118   -12740.245            0    645.74994    47.225315    21.457195    22.016917   -9.2682574   -21.724077    3.0526902    22310.244   -12.618497    1422.4229    527.44537    51.543989    331.71263   -433.43171    47.225315    23.373314    31.080526    68.449139    134.34371    113.36153 
  188500    230.35405   -12718.544   -11532.714   -12718.544            0    651.68182    46.867488    21.623957    22.010509    -9.210211   -21.436222    2.8972683    22306.782    586.91403    618.57273     749.5587   -194.78832   -137.66808    698.44233    46.867488    23.503691    30.860465    68.987665    133.99675    113.07043 
  189000    219.80379   -12752.643   -11621.124   -12752.643            0    1508.1698    46.538913    21.707991    21.965519   -9.2091718   -21.312088    2.8098666    22191.023    1603.2328    1630.1624    1291.1142    376.56797   -154.87563    469.01051    46.538913    23.580622    30.734092    69.207872    133.90262    112.98809 
  189500    228.32895   -12744.374   -11568.969   -12744.374            0    877.18234    47.005184    21.575619    21.951095   -9.1589169    -21.60031    3.1228386    22262.052    654.76109    1390.7213    586.06466   -766.15819    539.69467   -636.36596    47.005184    23.439136    30.954419    68.559439    134.25158    113.00137 
  190000    235.67727   -12701.446   -11488.213   -12701.446            0     1258.038    47.205995    21.470393    21.910568   -9.3117922   -21.476554     2.705438    22207.046    434.97647    2089.0352    1250.1023     440.0366   -148.77167    890.72204    47.205995    23.402719    30.799915    69.020452    134.21019    113.44656 
  190500    232.64307   -12683.877   -11486.263   -12683.877            0    1177.8919    47.090112    21.601413    21.858906     -9.25866   -21.801686    3.0311858    22235.162    682.63098    1429.3725    1421.6722    390.99268     192.1895   -755.83687    47.090112    23.501996    31.021176    68.488929    134.65209    113.20063 
  191000    230.08945   -12727.252   -11542.784   -12727.252            0    718.96421    46.956899     21.69417    21.891786   -9.2413561   -21.409387    2.9796452    22300.965    -83.01095    1351.8735    888.03004    8.5463497    5.9998724    46.359586    46.956899    23.580494    30.765084    68.787291    134.09889     113.0732 
  191500    227.41229   -12726.201   -11555.515   -12726.201            0    530.50937    46.795057    21.621184    22.032319   -9.1623908   -21.674799    2.8336504     22291.52    412.57721    394.37218    784.57871    173.24705    193.86437      353.904    46.795057    23.482441    31.036263    69.111222    134.29639    112.96573 
  192000      230.753   -12710.418   -11522.534   -12710.418            0     1547.441     47.11583    21.564041    21.923204   -9.3131358   -21.495294    3.1254418    22274.144    458.11986    3146.9817    1037.2213     1074.796   -637.67303   -445.43434     47.11583    23.489197    30.861674    68.338238    134.14723    113.35868 
  192500    229.61988   -12710.702   -11528.651   -12710.702            0    722.90409    47.066063    21.560035    22.010409   -9.1597843    -21.56033    2.6770458    22334.974    328.43158    245.76691    1594.5138   -186.89923     170.2305    680.70923    47.066063    23.425131     30.92689       69.374    134.19789    113.01822 
  193000    227.14774   -12717.094   -11547.769   -12717.094            0    675.44822    47.035422    21.657908    21.883542   -9.3680222   -21.740204    3.0875603     22292.52    441.14658    442.20024    1142.9978    602.70166    472.71533   -260.62008    47.035422    23.597135    31.000951    68.295732    134.52942    113.39066 
  193500    232.72445   -12720.642   -11522.609   -12720.642            0    804.89252    47.027678    21.673802    21.843723   -9.1745055   -21.513417    3.0015407     22264.62    722.88618    76.998885    1614.7925   -974.70804    697.91865   -103.13294    47.027678    23.535616    30.805594     68.77952    134.29563    112.94291 
  194000    230.12987   -12721.579   -11536.902   -12721.579            0    1017.4038     47.15982    21.458341    22.011556   -9.3312294   -21.768947    2.6552125    22275.067    1048.7274    1434.2451    569.23884   -245.82267    316.20467   -94.053342     47.15982    23.399407    31.071624    69.037696    134.47559    113.50197 
  194500    226.63684   -12713.249   -11546.555   -12713.249            0    616.70664    47.147625    21.585111    21.948955    -9.274366   -21.594561     3.097543     22337.16   -23.709236     641.8451    1231.9841    106.95635   -348.02011   -234.82715    47.147625    23.493209    30.946349    68.442422    134.25128     113.2515 
  195000    237.43931   -12722.965   -11500.661   -12722.965            0    760.13128    46.744756    21.708033     21.97816    -9.102596   -21.457935    2.9388627    22302.046    838.36478    697.73599    744.29308   -398.07704   -265.16736   -602.13341    46.744756    23.539243    30.856432     69.09934    134.06006    112.74924 
  195500    229.56892   -12677.815   -11496.026   -12677.815            0    1633.4251    46.669626    21.714497    21.927258   -9.3775795   -21.352247     2.774415    22221.246    1966.0006     1363.574    1570.7006    14.441419    149.72931    189.35835    46.669626    23.652872    30.731425      69.0013    134.01142    113.35749 
  196000    231.47459   -12716.414   -11524.815   -12716.414            0    2044.7422    47.094811    21.512208    21.949006   -9.1485852   -21.589601    3.0245064    22236.832     1662.901    2596.0301    1875.2954   -415.76723    405.32461   -347.37032    47.094811    23.376735    30.935697     68.70989    134.25767    113.03879 
  196500    231.35841   -12692.158   -11501.158   -12692.158            0    1212.9187    47.124609    21.502736    21.946898   -9.3565751    -21.61228     2.864174    22238.967    1021.9488    975.60694    1641.2005    69.057335    338.23536    775.29615    47.124609    23.450227    30.934777     68.67524    134.31801     113.5155 
  197000    225.71011   -12704.331   -11542.407   -12704.331            0    967.10188    46.900884     21.69079    21.965231   -9.1723311   -21.512036    2.9733082    22345.608    1065.4208    510.32241    1325.5624    182.99348    264.72137    74.885387    46.900884    23.550415    30.888179    68.905349    134.14278    112.92192 
  197500    218.41991   -12721.136   -11596.741   -12721.136            0   -29.163246    47.021694    21.652125    22.022298   -9.2552969   -21.491392    2.9922322    22421.334   -546.43658    201.49638    257.45046    14.772178   -410.61665    316.68853    47.021694    23.547294    30.916257    68.763122    134.03906     113.1445 
  198000    229.19931   -12732.926    -11553.04   -12732.926            0    295.60635    47.104435    21.524055    22.068193   -9.3109357   -21.733127    2.8063307    22374.466   -1009.2755    1597.9535    298.14105    391.93203    327.31625    741.21287    47.104435     23.45162    31.099991    68.883375    134.33197    113.39248 
  198500    226.89687   -12704.209   -11536.176   -12704.209            0    760.58565    47.198207     21.59249    21.942156   -9.1919366   -21.439442    3.1399875     22361.84    70.838124    1294.3148    916.60398   -994.37337   -381.83228   -458.75422    47.198207    23.467581     30.83776    68.530822    134.04582    113.05948 
  199000    235.16713   -12719.879   -11509.272   -12719.879            0    903.91533    46.902753    21.652851    21.915635   -9.2580083   -21.552532    2.8935393    22257.043    970.70252    910.58315    830.46033   -198.00997    397.25039   -66.921211    46.902753    23.549027    30.873601    68.861676    134.27391    113.14987 
  199500    238.70562   -12737.365   -11508.542   -12737.365            0    933.37063    46.936206    21.643163    21.854412    -9.262247    -21.60922    2.8722041    22200.759    1367.7441    504.87124    927.49651   -228.50288    511.50092    166.75383    46.936206    23.541787    30.867836    68.840018    134.43152    113.16863 
  200000    228.25347   -12767.469   -11592.452   -12767.469            0    648.53041    46.963635    21.595392    21.914283   -9.1730713   -21.498764    3.0520398    22225.424    946.47448    620.65081    378.46595   -476.37768   -118.51192    -477.3846    46.963635    23.462868    30.850406    68.684343    134.17653    113.01432 
  200500    220.93385   -12745.534   -11608.198   -12745.534            0    1781.6028    46.964871    21.468185    21.952928   -9.2578637   -21.680322    2.8242168    22134.052    1453.0851    2545.2817    1346.4416    128.96661    576.14076   -203.54444    46.964871    23.379286    30.982957    68.851055    134.40694    113.32747 
  201000    239.62858   -12716.584    -11483.01   -12716.584            0    1818.4951    46.811692    21.592324    21.998144   -9.1274903   -21.270279    3.0338562    22235.135    2223.5941    1674.8891    1557.0022   -470.30605   -81.098197    6.8227102    46.811692    23.442259    30.749754    68.887149    133.76657    112.91472 
  201500     226.7985   -12706.061   -11538.535   -12706.061            0    1603.1604    46.708608    21.644983    21.965243   -9.0765825   -21.399092    3.0300648    22207.015    2525.2471    1299.0008    985.23346   -189.48696   -123.72653   -546.43573    46.708608    23.471038    30.815164    68.947235    133.98212     112.7502 
  202000    224.47223    -12709.67   -11554.118    -12709.67            0    1534.6647    46.788036    21.514373    22.058706   -9.4911131   -21.552047    2.8186178    22204.631    1903.0508    2305.3404     395.6031     920.0893    366.80252    43.929313    46.788036    23.514878    30.968078    68.643381    134.10249    113.80478 
  202500    224.15201   -12739.937   -11586.034   -12739.937            0    1300.9449    46.933274    21.520492    22.014401   -9.0402384   -21.452333    2.9773714    22235.142    2049.0696    1337.5198    516.24531   -1026.8142   -1281.5639   -647.21543    46.933274    23.342182    30.882052     69.02745    133.99963     112.7861 
  203000    218.69805   -12776.382   -11650.556   -12776.382            0    1477.4288    46.946556    21.522383    21.935032   -9.2460737   -21.547058    3.0281276    22163.196     1438.365    1389.1285    1604.7929    186.49927   -608.67848   -549.48338    46.946556    23.424408    30.896455    68.572319    134.21844    113.24849 
  203500    235.81385   -12733.362   -11519.426   -12733.362            0    1835.7669    46.794521    21.578752    21.966272    -9.280008   -21.416352    2.5666176    22180.824     2043.192    1556.2731    1907.8358    438.95624   -86.066614    1265.7452    46.794521    23.489595    30.785788    69.425768     134.0796    113.27027 
  204000    233.91799   -12745.475   -11541.298   -12745.475            0    1097.0102     46.96649    21.659642     21.87954   -9.1822511   -21.543088    3.0714535    22257.561    784.17386    581.75508    1925.1015   -95.962805   -324.42929    61.309273     46.96649      23.5256    30.858592    68.646432    134.27659    112.97372 
  204500    228.80061   -12753.143   -11575.309   -12753.143            0    1545.2388    47.119263    21.507481    21.870203   -9.3894207    -21.63552    2.8203602    22163.628    1062.3585    1614.6764    1958.6815    1028.8971    425.94481    377.84639    47.119263    23.467701    30.892652    68.661472    134.45471    113.58441 
  205000    228.72695   -12759.671   -11582.217   -12759.671            0    1500.2763    47.100337    21.512408     21.89017   -9.0887004   -21.635121    2.8598398    22180.032    919.46347    2168.1262    1413.2391   -321.94545    60.228961    273.23743    47.100337    23.353547    30.910138    69.045462    134.42187     112.9034 
  205500    232.04482   -12719.791   -11525.257   -12719.791            0    222.98961    46.931915     21.66338    21.987311   -9.3082131   -21.414784    3.1572233    22354.585    82.037272   -79.913617    666.84517    276.88033    -123.8393   -792.66342    46.931915    23.578483    30.854544    68.406975    133.95205    113.25199 
  206000    226.12258   -12806.888   -11642.841   -12806.888            0    447.83335    46.658954    21.571887    22.105782   -9.1387778   -21.488576     2.818776    22249.949    1497.9928    159.19836   -313.69109   -389.03626    295.91111   -63.460695    46.658954    23.427837    30.957552     69.23061    133.95796     112.9596 
  206500    228.98724    -12703.08   -11524.286    -12703.08            0    1038.7053    46.855821    21.545294    22.097075   -9.2364824   -21.377141    3.0047629    22307.494    1139.8179    1730.6982    245.59973    -57.64168    129.57503   -38.850741    46.855821    23.441679    30.891609    68.773076    133.78902    113.20485 
  207000    226.00716   -12717.491   -11554.038   -12717.491            0    1481.0734    46.922171    21.524393    22.028377   -9.2323216   -21.599529    3.0824234    22248.028    1478.4447    2335.3242    629.45115   -576.44704    427.32667   -854.27862    46.922171     23.42083    31.004683    68.531862    134.15915    113.21564 
  207500    227.84535   -12749.245   -11576.329   -12749.245            0    1650.7595    46.810522    21.583423     21.93413   -9.2234991   -21.343128    2.7405994    22160.738    1892.2192    2021.7404    1038.3188   -158.63053   -878.64879    302.03121    46.810522    23.471623     30.72696    69.208279    133.99582    113.13904 
  208000    228.55586   -12753.015   -11576.442   -12753.015            0    1248.1434    46.984332    21.639928    21.837225   -9.2739076   -21.622706    2.9947054    22202.726    2032.3768    77.375518    1634.6778    72.042478   -426.94001   -308.96941    46.984332    23.543403    30.876756    68.592616    134.45033    113.19781 
  208500    233.60467   -12753.744    -11551.18   -12753.744            0    1887.9755    47.329531    21.478237    21.759633   -9.2246072   -21.612216    2.9048298    22119.861     1065.305    1819.4205     2779.201     43.30944    2.8899042    60.379926    47.329531    23.375372    30.805966     68.68486    134.55225    113.24286 
  209000    234.88355   -12733.957   -11524.809   -12733.957            0    1730.5836    47.014306    21.572504    21.890177   -9.3097095   -21.638708    2.9026498    22201.374     1624.659    2004.8802    1562.2116    159.07043    2.3399823   -454.68787    47.014306    23.495608    30.916645    68.683079    134.41937    113.34283 
  209500    233.69905   -12728.229   -11525.179   -12728.229            0    1834.6982    46.771375     21.66242    21.894354    -9.094573   -21.462362    3.0661807    22182.948    1882.4614    1651.7536    1969.8796   -24.179287   0.24209757    126.34875    46.771375    23.494078     30.81229    68.814466    134.15102    112.77421 
  210000    233.40513   -12745.169   -11543.633   -12745.169            0    1636.8298    46.756428    21.590369    21.991412    -9.381751   -21.347499    2.7546136    22200.078    1910.4425    1529.3235    1470.7235    653.79929   -446.26121    781.79391    46.756428     23.54063    30.772159    68.987315    133.92592    113.48659 
  210500    230.43302   -12701.281   -11515.044   -12701.281            0    954.02104    47.017276     21.55053    21.987977   -9.1104702   -21.681866    3.0034578    22279.256    1240.5926    1182.5207    438.94991   -558.71976    177.30474    101.28428    47.017276    23.397137    31.025718    68.821152    134.33363    112.91617 
  211000    236.84481    -12737.28   -11518.037    -12737.28            0   -153.09111    47.200532    21.596486    21.934189   -9.4225497   -21.382649    2.8844034    22358.959   -267.96447   -448.06266    256.75381   -130.46687   -682.26612    3.7655332    47.200532    23.562527    30.767615    68.663652    134.02503    113.57165 
  211500    230.31179   -12770.006   -11584.393   -12770.006            0    146.88975    46.885506    21.700152     21.95732   -9.0936887   -21.817528    2.9281964    22339.874    643.31685   -1427.3927    1224.7451   -890.85096    1170.9368    787.60041    46.885506    23.528531    31.091844    69.018314    134.56454    112.73666 
  212000    224.90468   -12725.151   -11567.374   -12725.151            0    125.84417    47.032449    21.701949    21.906079   -9.2605277   -21.420634    3.0141182    22359.443    55.299398    35.046439    287.18667   -193.98814   -716.51885   -232.11157    47.032449    23.595168    30.786438    68.707716    134.08952    113.10863 
  212500    225.98879   -12681.837   -11518.479   -12681.837            0    503.06185    47.156236    21.535264    22.003242   -9.2613128   -21.659995    2.8175294    22344.776  -0.33153214    429.48884    1080.0282   -204.76789    11.533178    429.41839    47.156236    23.442259    31.003815    68.931198    134.31668    113.27029 
  213000    228.48797   -12758.145   -11581.921   -12758.145            0    334.78451    47.110166    21.487098    22.019975   -9.3172675    -21.68017     2.989304    22289.956    8.2603513    1211.6139    -215.5207    125.11428    228.10937   -394.25551    47.110166    23.420223    31.045853    68.521335    134.29296    113.44259 
  213500    228.71091   -12710.192   -11532.821   -12710.192            0    609.88918    46.896631    21.684093    21.947178   -9.1809547   -21.391884    3.0091582    22318.325    1251.0848   -140.80269    719.38545    138.31762    115.66142    152.37714    46.896631    23.547608    30.795233    68.849547    133.99927     112.9476 
  214000    228.78907   -12739.506   -11561.732   -12739.506            0    547.91621    46.821302    21.627662    22.006607   -9.2053426   -21.707449    2.7439791    22284.667    1032.0159    334.37329    277.35941    294.59218    755.11533    1333.9213    46.821302    23.505193    31.032782    69.187887    134.38695    113.05597 
  214500    232.57973     -12762.4   -11565.112     -12762.4            0    1102.8732    47.259665    21.499918    21.848382   -9.3151932   -21.469249    3.0681443     22199.68    764.83011    1780.4137    763.37591    783.88867   -1611.6262   -688.52175    47.259665    23.431161    30.784638    68.364155    134.21889    113.42547 
  215000     222.7726   -12759.192    -11612.39   -12759.192            0    838.48967    47.001079    21.584545    21.930762   -9.1786148   -21.645298     2.938815    22248.691    298.02017    905.47386     1311.975    594.73434    503.95987    357.96235    47.001079    23.455054    30.953415    68.837043    134.36977    113.03714 
  215500    235.73737   -12726.724   -11513.181   -12726.724            0    1211.2232    46.922858    21.631042    21.890078   -9.4364768   -21.389835    2.7696654    22218.218     713.4315    1029.9899    1890.2483     737.4392   -91.548908    1071.7635    46.922858    23.599769     30.73063     68.84301    134.11038    113.56909 
  216000    230.50296   -12755.597   -11569.001   -12755.597            0    1628.5246    46.904285    21.615616     21.89942   -9.0595467   -21.597237    3.1018248    22203.055    976.14042    1827.5372    2081.8961    611.38624    80.805659   -298.98674    46.904285    23.437368    30.913533    68.740571    134.31749    112.73955 
  216500     230.6649   -12761.054   -11573.624   -12761.054            0     2072.455    46.943984    21.548001    21.878263    -9.264462    -21.47942    2.8999957    22130.935    2454.0164    2174.6507    1588.6978    282.58833   -653.56746   -320.70789    46.943984    23.455204    30.796653    68.777211    134.22354    113.26506 
  217000    233.98213   -12711.593   -11507.086   -12711.593            0    1930.0844     46.99544    21.482784    21.972356   -9.4002798   -21.631227    2.8785893    22183.134    1864.1376    2311.1888    1614.9269    629.74367   -159.21876    703.96006     46.99544    23.449419    30.967413    68.581533    134.30805    113.63287 
  217500    232.03412     -12717.9   -11523.421     -12717.9            0    1551.9253    46.932109    21.612153    21.896755   -9.0398825     -21.4894    2.9876539    22209.964    1696.2096    872.56681    2086.9995      -450.47    377.54034   -389.07622    46.932109     23.42658    30.825124    68.996258    134.19793    112.69847 
  218000    229.26335     -12709.4   -11529.185     -12709.4            0    1523.9924    46.980709    21.591911    21.922391   -9.5318457   -21.566175     2.888267    22238.145    1843.1189    1636.3707    1092.4875    363.90916    209.10014    508.39768    46.980709    23.602261    30.887428    68.437102    134.28425    113.81928 
  218500    220.37411   -12690.086   -11555.631   -12690.086            0    942.06605    47.081491    21.525673    22.014471   -9.0187177   -21.627403    2.8714912    22310.804    1171.3859    843.89239    810.91988   -848.84614     30.36589    122.57708    47.081491    23.338635    30.993983    69.200591    134.25025    112.73246 
  219000    216.23364   -12707.711   -11594.571   -12707.711            0    1241.8244    46.942687    21.605587    21.974836   -9.2523354   -21.383946    3.0564054    22287.412    1390.2292    1175.8436    1159.4004   -298.58967   -52.979158    -264.3523    46.942687    23.503342     30.81409     68.63138    133.94492    113.18245 
  219500    227.85856   -12780.429   -11607.446   -12780.429            0    1243.9928    46.694489    21.634868    21.973914   -9.2368431   -21.628465    2.8399916    22198.688      969.308    1417.1381    1345.5323     711.4944    448.33935    1300.7097    46.694489    23.524175    30.963026    68.983681    134.30883    113.11969 
  220000    227.76972   -12727.761   -11555.235   -12727.761            0    757.61898    47.099502    21.639911    21.876617   -9.1538119   -21.396019    3.0225478    22297.282    513.05338    619.29951     1140.504    219.69217   -707.44851   -626.90773    47.099502     23.49634    30.749176    68.800719    134.09293    112.92865 
  220500    225.16032   -12721.131   -11562.037   -12721.131            0    1711.9708    47.167447    21.517964    21.881216   -9.3069598    -21.80986    3.0049212    22208.284    1646.4812    2007.7184    1481.7127    126.80644    207.99416   -245.61095    47.167447    23.444451     31.04009     68.42096    134.63881    113.38947 
  221000    236.80772   -12765.202   -11546.149   -12765.202            0    1388.9113    47.032757    21.567464    21.898429   -9.2267737    -21.49563    2.7443946    22213.269    1707.9788    1061.1469    1397.6081    115.74857   -284.37016    692.81903    47.032757    23.458236    30.808034     69.12464    134.24501    113.16172 
  221500    229.52208   -12726.383   -11544.836   -12726.383            0    1836.9752    46.784883    21.665712     21.88509   -9.2009235   -21.430877    3.0565797    22183.336    2424.3616    871.90322    2214.6608    355.37967   -336.82698   -267.32683    46.784883    23.538481    30.782825    68.682862    134.12259     113.0098 
  222000    225.92795   -12758.415    -11595.37   -12758.415            0    1436.3886    46.778479    21.634812    21.920744   -9.2083019   -21.525906    2.9345138    22184.748    1537.1901    1364.3231    1407.6525    398.83357   -674.14295    103.04591    46.778479    23.512931    30.862518    68.860519    134.22496    113.05578 
  222500    232.44975   -12719.291   -11522.673   -12719.291            0    1835.5458    46.973646    21.458414    21.999911   -9.1935608   -21.341108    2.9461113    22175.469     2261.799    2087.4122    1157.4262   -83.583315   -916.37492    41.599605    46.973646    23.344916    30.791534    68.844912     133.8747    113.19204 
  223000    237.79539    -12758.48   -11534.343    -12758.48            0    1152.4069    47.008419    21.508488     22.03194   -9.2502183   -21.703928    3.0434274    22276.054    1070.2278    1942.3351    444.65781   -342.43141   -234.60991    195.83668    47.008419    23.413278    31.076186    68.537151     134.2996    113.27123 
  223500    235.45747   -12726.949   -11514.847   -12726.949            0    1169.6606    46.811115    21.656215    21.956429   -9.2172502   -21.249744    2.7277171    22258.364    1142.9489    844.14896     1521.884   -586.09302    256.96407    1487.9991    46.811115    23.536128    30.676976     69.32364    133.84371    113.05542 
  224000    234.45489   -12752.729   -11545.788   -12752.729            0    733.70588    46.856616    21.741017    21.866087   -9.2068845   -21.640456    3.1216104    22275.212    1154.8265    280.82453    765.46659   -82.103235    521.32627   -294.21838    46.856616    23.610136    30.922153    68.539273     134.4139    112.95168 
  224500    228.82574   -12743.303   -11565.341   -12743.303            0    2034.1087    47.001943     21.54537    21.884459   -9.2695233   -21.475765    2.8887931    22161.828    1572.9923    1900.6807    2628.6533   -123.40404     652.6593    267.37152    47.001943    23.454787    30.797453    68.792212     134.2126    113.27896 
  225000    238.00282   -12719.314   -11494.109   -12719.314            0     2348.047    47.063486    21.359975    21.998873   -9.1996044   -21.771193    2.8438221    22114.915    2429.2685    2724.1258    1890.7466   -131.52773   -501.42215    224.46399    47.063486    23.256854    31.080904    68.831269     134.4646    113.30123 
  225500    231.38782   -12725.312    -11534.16   -12725.312            0    1632.6566    46.883475    21.564252    21.956952   -9.2230712   -21.433535    3.0654583    22198.633    2448.5695    1425.4019    1023.9983   -317.00518    110.58043   -960.57586    46.883475    23.453827    30.836686    68.608979    134.03249    113.15649 
  226000    224.01174   -12752.514   -11599.334   -12752.514            0    1496.0148     46.58252    21.639654    22.045607   -9.1411641   -21.535971    2.9393314    22222.625    2612.8996     944.4301    930.71485    120.91346    266.90023   -98.161672     46.58252     23.49118    30.958788    69.013177    134.07772    112.90049 
  226500    228.88204   -12734.561   -11556.308   -12734.561            0    1002.3035    46.793381    21.603601     22.03652   -9.2119969   -21.235368     3.046666     22276.84    2449.7933    33.496112    523.62102    310.17014   -406.07151   -116.53941    46.793381    23.485665    30.754369    68.779371    133.66835     113.0939 
  227000     232.7028    -12734.25   -11536.329    -12734.25            0    1235.7889    47.001121    21.521227    21.952931   -9.1707847   -21.602922    2.9876818    22205.869    1572.2249     1305.457    829.68472    21.364246    90.720283    261.26033    47.001121    23.393728    30.944203     68.74615    134.27677    113.08018 
  227500    224.46347   -12688.757   -11533.251   -12688.757            0    1347.8754    47.158903    21.558537    21.849519   -9.3682742   -21.627736    2.8097396    22213.903    965.37217    907.42339    2170.8306   -114.63455    32.234314    247.75059    47.158903    23.506065     30.87159    68.734906    134.47282    113.48738 
  228000    234.14665   -12717.564    -11512.21   -12717.564            0    1062.4143    47.020354    21.730022    21.778523   -9.1883727   -21.554565    3.0358438    22252.278    1697.9491    566.34883    922.94507    183.21371   -620.23255   -401.70138    47.020354    23.592796    30.791552    68.688718    134.42825     112.9207 
  228500    233.01441   -12702.183   -11502.658   -12702.183            0    1373.3982    46.971717    21.622444     21.88965   -9.2339437   -21.544188    2.9071412    22232.077    2388.4833    649.55723    1082.1542    190.07326   -639.02845   -378.33333    46.971717     23.51161    30.850612     68.84288     134.2939    113.12508 
  229000    231.07622   -12726.337    -11536.79   -12726.337            0    1591.3763    47.223808    21.398743    21.947953   -9.3357526   -21.594949    2.9924275    22179.068    639.70837    3086.9283    1047.4923    171.29078   -595.13118   -339.30715    47.223808    23.346574    30.935564    68.420029    134.27174    113.57048 
  229500    224.40038   -12705.938   -11550.756   -12705.938            0    1053.5792    46.936649    21.570961    22.033213    -9.129375   -21.524409    2.9086095    22307.937    1003.6442     1234.866    922.22745   -336.06246   -137.56533     569.1104    46.936649    23.423319    30.939015    69.039065    134.08337    112.93931 
  230000    230.24655   -12747.482   -11562.205   -12747.482            0    591.94868    46.671551    21.742296    21.978504   -9.3210707   -21.439459    2.9543658    22302.614    1627.6168   -1050.8112    1199.0405    -106.8407   -344.94537    1038.4152    46.671551    23.656073    30.845313    68.782855     134.0323    113.20514 
  230500    226.39383   -12718.106   -11552.663   -12718.106            0    238.27483    46.830837    21.739266    21.934287   -9.0332078   -21.468135    2.9008483    22330.597    480.78157    277.19909   -43.156176   -39.541688   -376.34818    24.295541    46.830837    23.541337    30.828699    69.261638    134.13637     112.5641 
  231000     230.0974   -12677.323   -11492.814   -12677.323            0    726.64232    47.199175    21.557856      21.9501   -9.3164665   -21.637816    2.9816013    22334.512    199.21019    855.32801    1125.3888    430.31924    372.80908    356.05865    47.199175     23.48484    30.965979    68.556399    134.32768    113.37212 
  231500     221.4636   -12722.213   -11582.149   -12722.213            0     291.3301     47.17643    21.569333    21.919506   -9.2749815   -21.724058       2.8864    22304.504   -695.03415    986.28819    582.73625   -185.83181    103.17305    -62.98457     47.17643    23.478957    30.995657    68.751247    134.49719    113.26808 
  232000    228.24316   -12724.482   -11549.518   -12724.482            0   -51.736735    46.866144    21.795471    21.927794   -9.1862601   -21.386665    3.0174946    22398.577    513.50578   -1264.1334    595.41739   -791.93105    120.32196    662.97921    46.866144    23.652271    30.778611    68.886564    134.01565    112.85424 
  232500    232.79461   -12748.103   -11549.709   -12748.103            0   -85.217249     46.81442    21.705111    22.000165   -9.2221285   -21.532393    3.0023987    22354.636     759.8422   -1885.9183    870.42431    27.033634   -541.70485    164.75555     46.81442    23.583034    30.930012    68.802997    134.12013     113.0198 
  233000    226.12312   -12720.701   -11556.651   -12720.701            0    -335.5692    47.246683    21.478175    22.065266   -9.2953073   -21.600415    2.8077188    22391.225   -754.37466    86.138104   -338.47105   -248.44653    189.22234    936.08575    47.246683    23.403306    31.005437    68.911614    134.16008    113.40196 
  233500    237.47533    -12754.81   -11532.321    -12754.81            0    299.97489     47.14588    21.562648    21.961348   -9.2723514   -21.604739    2.9690552    22325.687    257.75444    604.71454    37.455703    219.89917   -285.38908    132.15604     47.14588    23.471777     30.94965    68.660545    134.27163    113.26863 
  234000    225.89501   -12742.604   -11579.729   -12742.604            0    517.23604     46.75042    21.787235    21.882221   -9.1654649   -21.586683    2.9719239    22288.407    835.95447    8.1002574     707.6534    -624.5177    325.85512    400.90601     46.75042     23.63661    30.881205    68.914252     134.3487    112.81554 
  234500    222.05677   -12775.318   -11632.201   -12775.318            0    1197.1135    46.810851    21.708962    21.819869   -9.2458702   -21.411813    2.8486811    22173.678    1064.2198    1075.3668    1451.7539    36.380426   -396.41033    129.30048    46.810851    23.595872    30.703215    68.984222    134.21719    113.06921 
  235000    223.75462   -12741.856   -11589.999   -12741.856            0    1596.9756    47.078462    21.507526    21.945144   -9.2010772   -21.697902    3.0565401    22220.363     808.1784    2493.0317    1489.7167    301.41032    872.43093   -20.960645    47.078462    23.393022    31.011783    68.542356    134.40024    113.16159 
  235500    238.85017   -12673.009   -11443.442   -12673.009            0    220.45019    47.375926    21.438983    22.022206   -9.3417965   -21.537386    2.8044481    22367.771    -8.260892    681.35382   -11.742356    401.29604   -531.63124    346.63415    47.375926    23.385875    30.930591    68.821641    134.13197    113.54462 
  236000    220.49886   -12731.236   -11596.139   -12731.236            0    557.57906    46.918483    21.640757    21.953464   -9.1975244   -21.692613    2.9964299    22290.483    316.47871    529.96179    826.29669   -241.27981    787.61178   -220.59251    46.918483    23.514184    31.008106     68.74167    134.39322    113.02595 
  236500    227.30879   -12721.291   -11551.137   -12721.291            0    615.67796     46.86224    21.727011    21.892504   -9.2660251   -21.360772    3.0371851    22290.431     1048.095    160.33137    638.60747    334.91634   -155.08361    -751.2605     46.86224    23.620377    30.737418    68.684131    134.02273    113.09703 
  237000    231.31202   -12784.014   -11593.253   -12784.014            0    624.26168    46.803273    21.585899    22.016027   -9.0966827   -21.651306    2.8236465    22242.588    1288.1606    386.00663    198.61784   -52.511521   -237.48092    26.294316    46.803273    23.424361    31.007378    69.201529    134.28781    112.85143 
  237500    223.70573   -12767.745   -11616.139   -12767.745            0    1251.8119    47.152107    21.448829      21.9618   -9.3475821   -21.577382     2.919427    22211.231    1087.2627    1716.3917     951.7812    440.69969    45.915541    77.883907    47.152107    23.397213    30.926156    68.574912    134.24329    113.54798 
  238000    228.70413   -12694.672   -11517.335   -12694.672            0    1241.9737    47.027796      21.5594    21.924366   -9.1024121   -21.572006    2.9999548    22228.919    2095.7837    169.06983    1461.0677   -420.07748    402.62505   -238.27353    47.027796    23.402172    30.903543    68.842142    134.27021    112.88955 
  238500    229.55021   -12760.277   -11578.584   -12760.277            0    2032.0864    46.632022    21.725195    21.900556   -9.3027295    -21.36633    2.8827639    22187.229    3097.0047    1151.5575    1847.6968    302.25152    178.64875    666.66869    46.632022    23.633131    30.732145    68.905981    134.04664    113.18061 
  239000    228.50105   -12735.405   -11559.114   -12735.405            0    1292.3043    46.713152    21.680627    21.932027   -9.1290223   -21.391312    2.9631707    22212.109    1914.7196    1182.8478    779.34558   -4.0608742    139.08355   -369.87558    46.713152    23.524214    30.779578    68.996327    134.02594    112.83441 
  239500    236.89291   -12711.235   -11491.744   -12711.235            0    1198.9657    47.183921    21.484087    21.948006   -9.2881864   -21.673369    3.0081283     22248.77    905.97564    2016.2373    674.68406   -179.48202    353.39729   -353.19048    47.183921    23.405905    30.991914    68.493594    134.37274    113.38021 
  240000    226.90457   -12731.558   -11563.485   -12731.558            0    1344.2006    47.375481    21.394785    21.944153   -9.4042951   -21.586128    2.7507494    22242.335    1061.5386    1457.0177    1514.0454   -89.468048   -207.68199    806.55869    47.375481    23.370442    30.904262    68.742809    134.30549    113.72838 
  240500    225.42421   -12729.053   -11568.601   -12729.053            0    951.48202    46.930433    21.647871    21.909865   -9.2252588     -21.6708    2.9984922    22259.195    1099.2003    302.27266    1452.9731   -515.21085    771.85077   -46.701582    46.930433     23.53159    30.962182    68.685758    134.41994    113.08132 
  241000    226.02076   -12734.474   -11570.951   -12734.474            0    489.70115    46.733958    21.792824    21.880155   -9.2252689   -21.334284    2.9840476     22284.17    613.48369    404.40738    451.21239    228.21261    251.75939   -682.92471    46.733958    23.665011    30.705006    68.878083    134.01244    112.94376 
  241500    232.95992   -12693.376   -11494.131   -12693.376            0    1147.0072    46.930718    21.553469    22.016461   -9.2077631   -21.628768    2.9722277    22270.086    727.68019    2134.7801    578.56123    28.742769    924.89183   -564.03905    46.930718    23.437895    31.005843    68.764682    134.23243    113.13245 
  242000    229.12203    -12726.16   -11546.672    -12726.16            0    549.03402    47.187405    21.459128    22.026582   -9.3157246   -21.619316    2.9551266     22304.13    379.87704    993.90709    273.31794    77.947956    86.645123    121.64951    47.187405     23.39395    31.004805    68.586439    134.20992    113.46638 
  242500    227.98088   -12688.708   -11515.094   -12688.708            0    996.22548    46.973243    21.602575    22.015571   -9.0710367   -21.485473    3.1233047    22340.147    1242.5801    1305.8799    440.21643   -928.68403   -86.938471   -1298.4227    46.973243    23.429788    30.920317    68.767279    134.01653     112.7778 
  243000    227.88164   -12699.843   -11526.741   -12699.843            0    384.88372    46.784131    21.697398     21.99765   -9.2736963   -21.579319    2.9410518    22329.681    1486.9007    198.08009   -530.32962    176.76463    407.91236   -52.822232    46.784131    23.596155    30.955023    68.817198    134.19628    113.14237 
  243500    226.08481   -12736.191   -11572.338   -12736.191            0    786.91389    46.977769    21.609534    21.945343    -9.186615   -21.387985    2.8908779    22278.204      156.445    1046.2522    1158.0445    19.737855    32.715891   -219.49479    46.977769    23.481181    30.779883    69.004756    134.01678    113.03125 
  244000    229.03662   -12723.573   -11544.525   -12723.573            0    591.59608    47.244668    21.525813    21.900623   -9.3050861    -21.79448    3.0604909    22272.493    117.47928    809.41496    847.89401   -131.64703    31.968061   -871.17472    47.244668    23.450912    31.048401    68.345597     134.5838    113.37766 
  244500    233.58046   -12729.151   -11526.712   -12729.151            0    963.08066    47.062651    21.597004    21.882229   -9.3620654   -21.632362    2.8839173    22241.367    1079.4013    938.89118    870.94952    515.50412    160.84757   -107.37719    47.062651     23.53888    30.904822    68.653072    134.42437     113.4362 
  245000    230.92817   -12723.959   -11535.173   -12723.959            0     1805.745    46.841894    21.738798    21.758998   -9.1486053   -21.443161    2.9032142    22156.894     1454.234    357.27171    3605.7292    387.12541   -515.29389    452.07787    46.841894    23.585426    30.686998    69.007386    134.32842    112.82342 
  245500    238.17774   -12698.789   -11472.684   -12698.789            0    1666.9692    47.065671    21.597886    21.828361   -9.2890059   -21.600914    2.9672935    22188.944    1466.7746    1941.3996    1592.7335    174.39404    189.59286    136.89923    47.065671    23.510728    30.852579    68.594158    134.43769    113.27199 
  246000    226.31784   -12718.044   -11552.991   -12718.044            0    1997.6964     47.12611    21.526035    21.840142   -9.2947474   -21.711625    2.8387727    22155.476    1188.1359    2518.3673     2286.586    494.10375    673.54173    196.71854     47.12611    23.447015    30.926447    68.741873    134.59096    113.35425 
  246500    235.03819   -12772.264   -11562.321   -12772.264            0    1602.4063    47.022147     21.53222    21.935197   -9.2257695   -21.399082    2.9639154    22209.194    1802.1604    912.22012    2092.8383    -282.3457   -192.46702    109.81685    47.022147    23.425441    30.787308    68.762778    134.03214    113.19336 
  247000     238.4151   -12738.735   -11511.407   -12738.735            0    875.07712    46.846348    21.663489    22.043121   -9.1587925   -21.495992    3.0045864    22370.579    2059.6268   -124.72962    690.33415   -127.31438   -246.13828    200.42845    46.846348    23.519996    30.935487    68.897252    134.01647    112.91745 
  247500    226.37705   -12760.913   -11595.556   -12760.913            0    471.78715    46.393486    21.708545      22.1623   -9.2512128    -21.31597    2.8225519     22320.43    1915.9178    250.65306   -751.20939    385.71496   -269.12822    618.14943    46.393486    23.597581    30.878875    69.223766    133.65459    113.08154 
  248000    231.09367   -12788.194   -11598.557   -12788.194            0    384.31295    46.877108    21.595219    22.005323   -9.1333245   -21.458654    3.0077377    22276.459    1718.0171    240.91125    -805.9895   -692.17411   -226.60947   -439.81155    46.877108    23.447198    30.882916    68.877822    134.01439    112.92509 
  248500    236.54361    -12738.76   -11521.067    -12738.76            0    727.31982    47.125488    21.508564    21.965491   -9.2762253   -21.634918    2.9108831    22264.257    873.89366     858.7911    449.27471   -213.32196   -554.41513   -9.2432607    47.125488    23.423635    30.968141    68.716804    134.31628     113.3296 
  249000    227.24003   -12745.697   -11575.897   -12745.697            0    1172.6251    47.133338    21.582839     21.83323   -9.2573823   -21.493986    2.8966609    22210.316    803.00301    441.92862    2272.9437     30.87833   -244.58902     474.8646    47.133338    23.484421    30.774535    68.787914    134.30151    113.21562 
  249500    227.04166   -12758.253   -11589.475   -12758.253            0    1462.2197    46.793216    21.724864    21.850396   -9.2285992   -21.633685    3.0042022    22212.594    1181.4209    980.92712    2224.3112    632.74327    354.78391   -63.059823    46.793216    23.603745    30.894682    68.698252    134.44624    113.01551 
  250000    242.82368   -12768.909   -11518.887   -12768.909            0     817.8147    46.951064    21.676335    21.868743   -9.2579529   -21.414888    2.8001895     22256.41    855.63638    473.25517    1124.5525    743.67008   -859.85907   -212.04949    46.951064    23.570601    30.735654    69.056459    134.16637    113.12731 
  250500    235.70064    -12748.71   -11535.357    -12748.71            0    713.65007    47.325333    21.456419    21.882896   -9.2505158   -21.913866    3.1641228    22220.597   -738.35554    1669.5141    1209.7917    399.95807    321.56989   -467.76763    47.325333    23.365572    31.130216    68.159143    134.74413    113.32235 
  251000    234.17008    -12738.77   -11533.295    -12738.77            0    670.10746    47.048148     21.54766    21.969976   -9.3284203    -21.50984    2.9204449    22272.667    1030.5269    284.90227    694.89325    359.40851   -776.33734    -310.5419    47.048148    23.480228    30.884981    68.686708    134.14286    113.40877 
  251500    233.30292   -12733.027   -11532.016   -12733.027            0    2011.6677    46.704441     21.61099    21.983262   -9.0511712   -21.427393    2.9281156    22188.348    2040.6481      2480.45    1513.9051   -334.88219    40.637959    767.15053    46.704441    23.429865    30.837815    69.144977    134.01459    112.72504 
  252000    224.75204   -12785.502    -11628.51   -12785.502            0     1765.694    46.736668    21.619125     21.95505   -9.4105975   -21.477468    3.1076667     22183.51    2252.5618    1509.4113    1535.1089    406.34497    358.06297   -162.58075    46.736668    23.578505    30.870105    68.285349    134.08596    113.52303 
  252500     233.1481   -12747.976   -11547.763   -12747.976            0    1411.4384    46.962023    21.576813    21.931654   -9.1065147   -21.435905    2.8408149    22223.143    1022.6644    1895.8766    1315.7741     968.5834   -655.05143    46.852648    46.962023    23.419809    30.798794    69.169169    134.10681    112.88222 
  253000    226.07839   -12734.113   -11570.293   -12734.113            0    1737.0846    47.266519     21.49614    21.823812     -9.38082   -21.844003    2.9490319    22174.035     500.8582    2032.9198    2677.4759    1118.8759    519.98096   -230.08163    47.266519    23.453866    31.018318    68.357891     134.7673    113.57624 
  253500    234.75863   -12731.358   -11522.854   -12731.358            0    126.93876    47.081044    21.680031    21.884057   -9.1856769   -21.523594    2.9275331    22337.461   -183.78353    151.59448    413.00534    693.20988   -783.06585    304.52921    47.081044    23.545709    30.834193    68.915611    134.27021    112.96203 
  254000    225.14936   -12723.712   -11564.675   -12723.712            0    1121.8995     46.98998     21.62685    21.964292   -9.1905649   -21.550145    2.8603296    22321.107    1153.9186    1489.2278    722.55216    417.31226    117.44571   -2.9568146     46.98998    23.498662    30.903404    69.027448    134.21389    113.02359 
  254500    230.79518   -12728.413   -11540.312   -12728.413            0    1883.7065     46.83804    21.576801    22.002906   -9.3901601   -21.518506    3.1194099    22236.469    2375.8356    887.27298     2388.011    1459.4173   -505.35917   -37.537424     46.83804    23.531541    30.933877     68.28116    134.07737    113.51853 
  255000    227.89299   -12725.246   -11552.085   -12725.246            0    2061.6144    46.775871    21.551319    21.983607   -9.0533784   -21.443367    2.8714741    22161.272    1885.7515    2029.1678    2269.9239    455.26852   -584.40975    727.60211    46.775871    23.375692    30.843838    69.200999    134.04505    112.78653 
  255500    234.93856   -12765.784   -11556.354   -12765.784            0     2604.142    46.982854    21.457273    21.891223   -9.3463867   -21.458462    2.8917679    22069.066    2616.2266    2445.6744    2750.5248    169.80778   -498.56529    107.31367    46.982854    23.404476    30.790479    68.628558    134.18032    113.53704 
  256000    238.90105   -12708.531   -11478.702   -12708.531            0    1924.7856    46.872166    21.622929    21.910292   -9.1105375   -21.711039    3.0924927    22206.377    2514.5247    1140.9467    2118.8853   -833.89158    350.13889    474.53103    46.872166    23.463865    30.999897    68.662182    134.45577    112.84749 
  256500    230.75431   -12738.018   -11550.128   -12738.018            0     1249.054    46.837126     21.66822    21.928477   -9.2220421   -21.349121    2.8563381    22254.711    1503.6205    1259.4411    984.10039   -22.696645   -184.56414    34.046636    46.837126    23.549052    30.737628    69.053195    133.99215    113.05471 
  257000    227.68747   -12707.693    -11535.59   -12707.693            0    1005.2047    46.981149    21.552918     22.05628   -9.2341937    -21.67775    3.0292705    22333.767    555.37649     1550.805     909.4325    212.41411    268.38789   -456.22094    46.981149    23.447785    31.073796     68.63271    134.23649    113.19237 
  257500    228.49002   -12783.314    -11607.08   -12783.314            0    79.853145    47.116673    21.481349    22.099282   -9.2555862   -21.358911    2.9441881    22367.339    759.83588    721.14745   -1241.4239   -38.059989   -293.52184   -710.01858    47.116673    23.390473     30.87474     68.81887    133.77216    113.30957 
  258000    226.81762   -12728.061   -11560.436   -12728.061            0    803.21215     46.90894    21.551229     22.06445   -9.1886452   -21.569948    2.9063605    22305.952    584.70031    1442.8498    382.08638   -249.49358   -65.116425   -69.529176     46.90894     23.42833    30.992734    68.947553     134.1044     113.0916 
  258500     226.3798   -12723.266   -11557.895   -12723.266            0    1171.4139    46.825101    21.677965    21.948099   -9.2546604   -21.519718    3.1094232    22278.921    2257.8116     792.5064    463.92358    373.85456   -804.10701   -483.17726    46.825101    23.570806    30.894754    68.527715     134.1508    113.11839 
  259000    231.61466   -12726.385   -11534.066   -12726.385            0    1309.7156    46.826511    21.642626    21.920561   -9.1091614   -21.311692    2.8436239    22215.363     1881.706    767.72155    1279.7194     152.6881   -842.69423    328.81346    46.826511    23.481484     30.70481    69.230178     133.9542    112.82573 
  259500    233.21766   -12796.259   -11595.687   -12796.259            0    74.103377    47.100214    21.617349    21.893725   -9.3597122   -21.733561    2.9824144    22291.791   -522.49957   -317.98178    1062.7915    169.88943    410.34272    216.67777    47.100214    23.556612    30.993187    68.473746    134.52631    113.41127 
  260000    219.23986   -12746.828   -11618.212   -12746.828            0    1536.2379     47.21492     21.54262    21.777696   -9.2707614   -21.555248      2.90804    22150.814    890.20058    1613.4144    2105.0987   -15.039323   -168.14243    143.29765     47.21492     23.45275    30.779107    68.677358    134.45274    113.28439 
  260500    228.50019    -12757.61   -11581.323    -12757.61            0    1786.6593    47.001043    21.598631    21.814397   -9.2535428   -21.712444     2.871988    22145.063    1479.5989    2366.6274    1513.7517    108.88493    230.86572   -323.61524    47.001043    23.497423    30.911914    68.776146    134.61965    113.19184 
  261000    230.75461   -12734.773   -11546.881   -12734.773            0    961.76086    46.969342     21.63209    21.920411   -9.2792441   -21.507597     2.974405    22272.125    1031.1351    1609.6117     244.5358   -44.262107   -330.95936    -650.9933    46.969342    23.538303    30.853334    68.690597    134.19412    113.21727 
  261500    232.29059   -12713.353   -11517.554   -12713.353            0    78.246829    47.154995    21.619534     21.94973   -9.0816634   -21.593716    2.8194068    22377.069   -73.730995    1105.6245   -797.15303   -582.89331    101.27872   -174.31958    47.154995    23.449538    30.919707    69.234671     134.2972    112.78569 
  262000    229.90555   -12710.972   -11527.451   -12710.972            0   -50.112535    47.140445    21.629439    21.981132   -9.5196812   -21.655833    3.1415468    22412.431   -745.03251    47.191372    547.50354    755.50357    103.20525   -1045.1755    47.140445    23.631694    31.016359    68.039497    134.28331    113.75555 
  262500    228.09301   -12761.333   -11587.142   -12761.333            0    514.08968    46.945084    21.677623    21.923993   -9.0373007    -21.48062    2.7970893    22311.124    587.37308    508.13356    446.76241   -115.67635     411.5663    302.37217    46.945084    23.485999    30.820484    69.393189    134.18355    112.63103 
  263000    236.20512   -12724.588   -11508.637   -12724.588            0    646.53367    46.740687    21.742793    21.980133   -9.2880406   -21.443047    3.0893184    22337.818    677.21956    149.08094    1113.3005    57.922749    350.62364   -440.68053    46.740687    23.643535    30.862184    68.592667    134.01129     113.1311 
  263500    233.77899   -12723.423   -11519.962   -12723.423            0    748.65238    47.132961    21.566299    21.991306    -9.296055   -21.617685    2.9412329      22353.8    902.53601    1212.6858    130.73533    77.886207   -354.23362   -483.66316    47.132961    23.484503    30.977293    68.688977    134.25523    113.31824 
  264000    228.64627   -12719.045   -11542.006   -12719.045            0    305.89448    46.980975    21.596044    22.038028    -9.068435   -21.547271    2.8817901    22359.853   -113.31478    980.24807    50.750142   -671.43335   -298.51069   -3.8582247    46.980975    23.422758    30.955844    69.186691    134.11212    112.77811 
  264500    229.81168   -12754.495   -11571.457   -12754.495            0    -73.25975    47.027579    21.671934    21.965737   -9.4439943   -21.485236    3.0896993    22387.009    590.58597   -308.46661   -501.89861    598.30667   -448.27714    85.590134    47.027579    23.640257    30.881309    68.305446    134.08589    113.54616 
  265000    221.72387   -12740.086   -11598.683   -12740.086            0    392.33029    46.880627    21.672538    21.965432   -9.0986734   -21.645662     2.869836    22317.365    771.65118   -74.207981    479.54768   -171.72311   -91.241052      14.7662    46.880627    23.504994    30.971775    69.147066    134.33749    112.77388 
  265500    224.81462   -12704.838   -11547.524   -12704.838            0    1239.3688     47.03024     21.61288    21.874709   -9.2947291   -21.428088    2.9945402    22234.743    1303.2543     939.2694    1475.5828    803.63227    -647.4273    298.61139     47.03024    23.526763    30.767403    68.619539    134.14321    113.27037 
  266000    222.42139   -12733.039   -11588.045   -12733.039            0    1902.0629    47.046373      21.4857    21.869736   -9.2663689   -21.832368    2.9795336    22106.459    1169.2011    1807.4633    2729.5241   -346.52023    485.04111   -50.620585    47.046373    23.398737    31.045374    68.492422    134.68758    113.32961 
  266500    229.45541    -12725.53   -11544.326    -12725.53            0    2240.2266    46.933882    21.617692    21.829205   -9.1289289   -21.358693     2.819652     22147.96    2703.6858    1720.9235    2296.0705   -971.57747    83.036768    559.45635    46.933882    23.466188    30.670154     69.16919    134.13888    112.89383 
  267000    235.37165   -12724.373   -11512.713   -12724.373            0    1548.9022    46.926266    21.599949     21.91204   -9.2842495    -21.57419    2.9978365    22210.152    1819.7262    1230.6275     1596.353    537.98026    35.210387    -371.5547    46.926266    23.510744     30.89612    68.599139    134.28929    113.25936 
  267500     234.2689    -12743.72   -11537.737    -12743.72            0    1227.2342    47.075109    21.443436    22.009863   -9.0897725   -21.552456    2.8516121    22217.902    880.47726    1703.8915    1097.3339   -504.94465   -112.65122    -85.59753    47.075109    23.290447    30.936615    69.098662    134.16004    112.97186 
  268000    228.75956   -12742.639   -11565.017   -12742.639            0    800.64341    46.976645    21.580653    21.964308   -9.3480443   -21.476983    2.9760039    22267.123    585.88007    1089.3368    726.71337    1392.2967   -276.85274    499.95479    46.976645    23.518302    30.863379    68.587747     134.0968    113.42071 
  268500    229.59901   -12741.207   -11559.264   -12741.207            0    926.49847     46.87639    21.624058    21.989027   -9.1351569   -21.681056    2.9556973    22289.348    1122.5678    532.96607    1123.9615    280.28736     155.8414    455.27434     46.87639    23.474475     31.02131    68.915085     134.3395    112.90179 
  269000    224.99729   -12765.495   -11607.241   -12765.495            0    441.98388    47.145227    21.656128    21.847729   -9.4013449   -21.268956    3.0639922    22306.161   -161.73638    447.95502     1039.733    936.32821    -622.9565   -43.919786    47.145227    23.608752    30.644409    68.401565    133.95209     113.4666 
  269500    240.77925   -12696.506   -11457.009   -12696.506            0      346.879    47.079826    21.608996     21.99503    -9.142509   -21.787933     2.913109    22376.594    231.91549    619.56802    189.15349   -311.87904    521.35865    14.020729    47.079826    23.463464    31.096327    68.943582    134.47993    112.93264 
  270000    227.05326     -12729.8   -11560.961     -12729.8            0    393.46132     47.06995    21.660629    21.917573   -9.3367037   -21.440806    2.9809186    22346.384    -449.8721    298.36274    1331.8933    828.56388     130.7809   -126.57591     47.06995    23.587218    30.805423    68.631302    134.10756    113.31821 
  270500     220.5289   -12708.571    -11573.32   -12708.571            0    379.27074    46.907019    21.727117    21.920012   -9.2078714   -21.600841    2.8762718    22339.873   -438.65117    622.88457    953.57883   -6.9278905    759.92176    -239.3848    46.907019    23.597722    30.908837     68.99957    134.33533    112.96705 
  271000    229.51998   -12767.886   -11586.349   -12767.886            0    349.23829    47.109434    21.617014    21.923248   -9.2027025   -21.661143    2.9953984    22325.876    642.24572   -139.85143    545.32057   -351.05882    157.10828    371.70391    47.109434    23.494362    30.964598    68.714393    134.39054    113.06022 
  271500    235.64319   -12742.269   -11529.211   -12742.269            0    179.67095    47.180934    21.609132    21.923006    -9.392903   -21.513628    2.9018061    22351.361   -347.96748     518.8793    368.10102    63.166485   -995.06289   -212.94121    47.180934    23.562284     30.85247    68.639607     134.2113    113.49328 
  272000    229.92451   -12695.914   -11512.295   -12695.914            0    425.24167    47.068838    21.622233    21.975066   -9.0717414   -21.756178    2.9354009    22364.758     681.8778    768.69351   -174.84631   -873.37611    473.39035    513.06147    47.068838    23.448186    31.062057    69.015214    134.45991    112.76079 
  272500    230.66552   -12740.153    -11552.72   -12740.153            0    661.57292    47.034381    21.680951    21.879155   -9.4533402   -21.404107    3.0446233    22311.271   -28.797663    350.24187    1663.2746    554.78964   -399.64086   -44.034973    47.034381    23.652257    30.758787    68.354711    134.09656    113.55819 
  273000    233.07647   -12739.698   -11539.853   -12739.698            0    243.68041    47.000954    21.573769      22.0213    -9.018019   -21.706959    2.8373508    22329.328   -85.963683    408.25761    408.74731   -535.15552    633.24538    162.96057    47.000954    23.382732    31.051253    69.272913    134.35233    112.68534 
  273500    225.49945   -12728.614   -11567.775   -12728.614            0    571.79417    47.198134     21.55753    21.880938   -9.4163278   -21.548534    3.0585874    22263.312   -1082.6022    1573.0314    1224.9533    858.52127    521.11344    173.68927    47.198134    23.524335    30.862109    68.265715    134.28435     113.5957 
  274000    228.34733   -12721.131   -11545.631   -12721.131            0    552.86669    47.102649    21.604153    21.932746    -9.230214   -21.639789    2.8581386    22319.044    27.064038    1035.8633    595.67277   -60.198044   -291.91373   -310.23028    47.102649    23.493324    30.943412    68.918334    134.37362    113.13424 
  274500    226.64861   -12737.561   -11570.806   -12737.561            0     55.22528    46.950164    21.706043    21.963885   -9.0962873   -21.507248    2.9262247    22383.445    159.69387    155.07967    -149.0977   -722.46672    465.43966   -582.45012    46.950164    23.534968     30.87939    69.108849    134.14623    112.73695 
  275000    228.62403   -12725.994    -11549.07   -12725.994            0    113.73559    47.018337    21.593937    22.033541   -9.4889232   -21.595576    2.9713788    22370.896    454.72462   -71.799044     -41.7188    682.07145    139.38681    677.16741    47.018337    23.586813    30.994756    68.403488    134.16678     113.7219 
  275500    222.70653   -12762.039   -11615.577   -12762.039            0    1192.7961    46.949983     21.52055    22.009577   -9.0317543   -21.559962    2.9126742    22238.245    2162.3431    390.03986    1026.0053   -597.85934    128.94904    721.20203    46.949983    23.338952    30.947328     69.12186    134.16015    112.76684 
  276000    228.30378    -12709.38   -11534.105    -12709.38            0    1748.6043    46.911257    21.568304    21.933037   -9.4414369   -21.271082    2.9545386    22191.764    2019.1011    1169.4707    2057.2411   -170.07618    -1308.118   -190.57495    46.911257    23.544266    30.696031    68.527448    133.86477     113.6412 
  276500    227.12489   -12790.681   -11621.474   -12790.681            0    1316.0841    46.811565    21.656616    21.896065   -9.2011586    -21.58764    2.9745678    22197.794    1050.3662    1306.9065    1590.9798    1194.4459   -160.62561   -12.774562    46.811565      23.5302    30.891939     68.78412    134.33172    113.01899 
  277000    228.86133   -12693.867   -11515.721   -12693.867            0    712.08594    47.158605    21.627919    21.879767   -9.2404514   -21.401111    2.8296718    22316.104    473.32284    688.04547     974.8895    493.47623   -801.66879    1066.1997    47.158605    23.519201    30.736604     69.00921    134.12886    113.13442 
  277500    221.04817   -12735.031   -11597.106   -12735.031            0     607.0868    47.196228    21.544614    21.972376   -9.3315824    -21.83199    3.0069141     22342.05      176.072     707.2356    937.95279   -118.09595    669.26137    68.983723    47.196228    23.478689    31.120132     68.43913    134.55062     113.4188 
  278000    230.81679   -12752.201   -11563.989   -12752.201            0     502.1382    47.013284    21.645318    21.943439   -9.1936042   -21.435126    3.0173335    22330.027    1091.6399   -471.92401    886.69868   -624.26883    51.774491    788.24602    47.013284    23.516848    30.823424    68.779101    134.06044    113.01281 
  278500    228.49343    -12688.73   -11512.478    -12688.73            0    648.01699    46.790096    21.593407    22.115151   -9.2362023   -21.390303    2.7566105     22344.21    1234.6153    393.31144    316.12419    74.294147   -308.44615    827.66244    46.790096    23.485797    30.890514    69.245291    133.82479    113.15797 
  279000    229.05592   -12709.565   -11530.418   -12709.565            0    291.51826    46.829647    21.668117    22.047091   -9.2054176    -21.42505    3.1104453     22371.41     537.9537    371.13285    -34.53178    91.997917    343.25521   -55.470729    46.829647    23.542451    30.899545    68.668164    133.89807    113.01758 
  279500    225.69227   -12734.716   -11572.884   -12734.716            0    1099.6775     46.87116    21.570441    22.030604   -9.2020001    -21.41088    2.9023624    22273.636    1689.5168      904.997    704.51854   -168.87258   -198.97804     -613.148     46.87116    23.451241     30.85769    68.974997    133.93635    113.10321 
  280000    233.18155   -12672.193   -11471.808   -12672.193            0      1328.03     46.86103    21.603066    22.032914   -9.1986553   -21.617218    3.1163317    22304.843    2011.9118    1186.1898    785.98844   -787.78941    1.9375294   -528.19294     46.86103    23.479943    31.023619    68.567603    134.17073    113.06446 
  280500    234.29471   -12704.597   -11498.481   -12704.597            0    1680.9207     46.95708    21.582704    21.954409   -9.2482076   -21.334775     2.953054    22249.932    1452.0557    2485.5431    1105.1632    499.02751   -805.13287   -26.391734     46.95708    23.480682    30.755313    68.809015    133.92324    113.19518 
  281000    227.06267   -12739.952   -11571.066   -12739.952            0     1812.344    46.819951    21.560796    21.956724   -9.2001714   -21.574147     2.839526    22164.773     1941.235    2359.3191     1136.478    333.10342    543.50441     381.6716    46.819951    23.441653    30.912853    68.998514    134.25894    113.10835 
  281500    227.62224   -12737.562   -11565.795   -12737.562            0    2220.9821    46.959539    21.540586    21.872328    -9.341899   -21.487578    3.1618572    22124.647    2113.3523    2285.1504    2264.4435    98.637086   -27.583613   -736.60085    46.959539    23.479095    30.823888    68.193364    134.19543    113.44581 
  282000    231.50413   -12742.306   -11550.556   -12742.306            0    1506.8474    46.946898    21.555958    21.912468   -9.1137953   -21.476125    2.8967314    22175.098    1484.0199     1946.389    1090.1334   -732.63804    521.86672   -126.98436    46.946898    23.403432    30.818359    69.025863    134.17573     112.9185 
  282500    231.33648   -12746.999   -11556.112   -12746.999            0    1499.5558     46.97381    21.567961    21.909904   -9.3408652   -21.633327    2.9035467    22197.565    1557.6815    1237.7676    1703.2183    957.46621   -417.54455    396.37978     46.97381    23.503801    30.926935    68.644994    134.38674    113.41695 
  283000    228.52074   -12713.466   -11537.073   -12713.466            0    1191.0567    46.991079    21.709706     21.85349   -9.1796584   -21.370872    2.9876371    22294.111     688.6283    1104.6582    1779.8837    553.48486   -178.63952    115.68079    46.991079    23.570691    30.711808    68.862933    134.09515    112.92042 
  283500    231.60013   -12761.192   -11568.947   -12761.192            0    132.20531    46.994804    21.629347     21.99564     -9.16453   -21.644812    2.9379368     22357.84    46.113008    267.40745    83.095477   -442.40017    266.69449   -226.72954    46.994804    23.490791    30.998992    68.919919    134.28616    112.96277 
  284000    228.88552   -12708.029   -11529.758   -12708.029            0    659.32896    47.155522    21.467407    22.066779   -9.5096504   -21.498065    2.8018253     22338.35    752.87242    458.92303    766.19143     67.34756    274.12196    880.41555    47.155522    23.479417    30.934766     68.63677     134.0231    113.89243 
  284500    228.74058   -12703.039   -11525.514   -12703.039            0    959.84907    46.986316    21.579262    21.998909   -9.0399001   -21.606488    3.0112008    22305.354    1265.3481    458.74382    1155.4553   -878.17225    577.41154   -205.49177    46.986316    23.396246    30.981602    68.954625    134.21857    112.72959 
  285000    225.55851   -12740.622   -11579.479   -12740.622            0    1244.2434    46.857651    21.634049     21.92025   -9.3134558     -21.4015    2.8843234    22221.011    1765.5092    572.77914    1394.4419   -159.25941    84.186128    176.41889    46.857651     23.55361    30.770779    68.831418    134.06817    113.29187 
  285500    231.41569   -12759.935    -11568.64   -12759.935            0    1573.6563    46.825443    21.710091    21.826505   -9.0353899   -21.712317    3.0167079    22188.489    1451.2274    1301.1533    1968.5881    -569.9243    377.77389   -139.27013    46.825443    23.515236    30.934148    68.916715     134.5787    112.59629 
  286000    227.43446   -12755.233   -11584.432   -12755.233            0    1371.5181    47.101527    21.505663     21.91934   -9.2779899   -21.527119    3.0082091    22203.186     768.8686    1443.5857    1902.0999    575.80363   -377.49856     380.3252    47.101527     23.42167    30.869462    68.548005    134.21556    113.33637 
  286500    233.62597   -12717.243   -11514.569   -12717.243            0    1205.0841    47.083746    21.459919    21.989999   -9.2580251   -21.624162     2.871917    22218.989    1051.4073    1735.1703    828.67454    167.45565    94.549857    355.67382    47.083746     23.37176    30.974382    68.796708    134.27721    113.33585 
  287000    233.98683   -12756.769   -11552.238   -12756.769            0    1517.5928    46.743309    21.667105    21.928523   -9.0805487    -21.35512    3.1167335    22209.037    1494.3313    1651.8882     1406.559    222.24589   -563.52914   -929.27061    46.743309    23.492974    30.767114    68.794849    133.95468    112.73825 
  287500    230.09343    -12642.78   -11458.291    -12642.78            0     998.1091     46.79571     21.68736    22.006522   -9.3008836   -21.562581    2.8996238    22333.878    1480.8243     360.3624    1153.1406    607.68444   -47.780914     243.6072     46.79571    23.597628    30.945754    68.853749    134.16974    113.21265 
  288000     226.6005   -12773.243   -11606.736   -12773.243            0    1435.7298     46.97741    21.524417     21.93827    -9.147712   -21.577083    2.7949318     22183.13     1669.272    1905.5813    732.33593   -182.19125    375.24908    88.770495     46.97741    23.387628    30.897732    69.121001    134.29387    113.02512 
  288500    236.78202   -12714.588   -11495.667   -12714.588            0    1475.9551    47.217022     21.51959    21.901895   -9.3056663   -21.510259    3.2169684    22254.318    1153.3834    2334.3101    940.17165    38.998637     188.5604   -852.67484    47.217022     23.44543    30.866376    68.144959    134.17748    113.38499 
  289000    231.46492   -12676.201   -11484.653   -12676.201            0    1206.6229    46.979107    21.592966    21.962326   -9.1741936   -21.599608    2.8081761    22278.985    1652.0015     969.9935    997.87366   -209.35216    103.34241   -12.380174    46.979107    23.461075    30.931742    69.107272     134.2907    113.01916 
  289500    230.76904   -12749.095   -11561.128   -12749.095            0    1113.0822    46.913319    21.655157    21.934811   -9.4567885   -21.368555    2.9501886     22283.91    1629.4918     1117.904    591.85086    197.61655   -558.46725   -143.08098    46.913319    23.629995    30.764504    68.539714    133.99414    113.59085 
  290000    233.61681   -12715.247   -11512.621   -12715.247            0    985.91016     46.85927    21.592938    22.024158    -8.985531   -21.626938    3.0574646    22284.689    1866.2258    1438.7731   -347.26849   -628.97196    69.491416   -582.31207     46.85927    23.387918    31.018318    68.968718    134.20528     112.5938 
  290500    233.13155   -12757.337   -11557.209   -12757.337            0    1611.0795    46.866345    21.546505    21.979808    -9.263669    -21.33108    2.8078458    22195.341    1847.9687    1504.9148    1480.3552    26.826565   -370.38596    247.59935    46.866345    23.453517     30.75729    69.034993    133.91013    113.26472 
  291000    228.23583   -12696.111   -11521.186   -12696.111            0    1536.4432    46.923166    21.535626    21.993854   -9.2635403   -21.685077    3.0972192    22225.223    2371.3958    1413.5709    824.36278   -146.06723    526.00312   -1022.1567    46.923166    23.443471    31.041342    68.426189    134.31375    113.27494 
  291500    237.23457   -12732.944   -11511.694   -12732.944            0    1161.3514    46.901916    21.660295    21.915098   -9.0781977   -21.288214     2.895454    22263.752    1463.4494    993.56242    1027.0423   -1321.0009   -415.72654    54.644469    46.901916    23.485784    30.689464    69.197795    133.92095    112.73939 
  292000    225.61385   -12734.497   -11573.068   -12734.497            0    960.71984    46.937962    21.631277    21.929312   -9.3394004   -21.734076    2.9138071    22265.446    1269.4453    129.14039    1483.5738   -66.849444    541.90218    412.71659    46.937962    23.561336    31.012176    68.650404    134.49315    113.35249 
  292500    230.29161   -12731.398   -11545.889   -12731.398            0    1085.4612    47.093654    21.558898    21.948615   -9.2338014   -21.670754    3.0240705    22284.151    893.76046    1064.6739    1297.9491    741.95368    -376.4096   -493.04616    47.093654    23.453128    30.992069    68.592855     134.3657    113.18573 
  293000    225.79965   -12749.193   -11586.808   -12749.193            0      1436.26     47.02797    21.566086    21.894425   -9.2415464   -21.230404    2.9634956    22205.529    1019.1831    2049.1402    1240.4567   -111.52175   -70.215789   -195.57345     47.02797    23.462785     30.64112    68.788762    133.85796    113.19621 
  293500    231.08244   -12737.682   -11548.102   -12737.682            0    695.59968    46.836963     21.65147    21.984955   -9.1863802   -21.797049    3.0074968    22294.703    779.70968    497.90733    809.18203   -223.58282    295.29625   -208.42185    46.836963    23.519688    31.104576    68.732861    134.48854    112.99075 
  294000    234.17835   -12741.246   -11535.729   -12741.246            0     1077.863    47.030431    21.624604    21.875845   -9.2443635   -21.313054    2.9145869    22248.051    660.17657    926.61274    1646.7997   -152.57853   -469.15546    485.02325    47.030431    23.517691     30.68051    68.874276    134.00151    113.14636 
  294500    233.94961   -12693.982   -11489.642   -12693.982            0    1021.5871    47.129963    21.509958    21.980382   -9.1889506   -21.788551     3.029902     22282.91    826.28409    958.19376    1280.2836   -207.57783    83.873536   -291.21262    47.129963    23.390492    31.097563    68.601672    134.47929    113.13194 
  295000    234.56975   -12705.159   -11497.627   -12705.159            0    607.84412    47.099283    21.601805    21.955383    -9.387884   -21.597115    2.9191709    22338.056    533.08907    262.41305    1028.0302    741.87251   -415.82704    349.47674    47.099283    23.553564    30.935348    68.604426    134.27773    113.48918 
  295500    233.73023   -12743.761   -11540.551   -12743.761            0    1152.3491    46.792162    21.726283    21.886273   -9.0638698   -21.347442    2.8934408    22250.017    1129.2584    468.16375    1859.6251   -337.95763   -141.41965    512.26614    46.792162    23.541136    30.709839    69.231236    134.03787    112.64514 
  296000    231.02833   -12695.243   -11505.942   -12695.243            0     1591.978    46.822299    21.648104    21.912634   -9.2461493   -21.642779    3.0886202    22210.953    1722.1571    1380.1972    1673.5796   -15.665464   -112.32702    70.170413    46.822299    23.540002      30.9534    68.506208    134.36327    113.12787 
  296500    226.30372    -12746.57    -11581.59    -12746.57            0    1203.0606    47.051397    21.517685    21.971217   -9.2457614   -21.503502    2.8967881    22244.475    1276.0437    1135.3795    1197.7586   -13.534869    192.95217    79.769052    47.051397    23.419967    30.879221    68.831862    134.13685    113.25233 
  297000    235.97032    -12762.64   -11547.898    -12762.64            0     2139.994    46.919471     21.52788    21.893114   -9.1247184    -21.66416    3.1329074    22113.725     2116.144    1771.5892    2532.2489   -630.53609    56.563072   -496.97606    46.919471    23.381833    30.958995    68.515139    134.40851    112.96994 
  297500    232.47051   -12721.772   -11525.047   -12721.772            0    790.14096    46.865344    21.675327    21.915016   -9.3043428   -21.390392    2.8953959    22261.748    898.17766   -261.04354    1733.2888   -175.54735    403.75726    1029.5741    46.865344    23.587933    30.760366    68.851064    134.05815    113.23189 
  298000    224.88998   -12770.094   -11612.392   -12770.094            0    547.93928    46.883931    21.621097    21.950907   -9.1338063   -21.643548    2.8780106     22251.24    728.22941    1049.6187   -134.03022   -288.36317    280.17939   -205.01325    46.883931    23.471222    30.960757    69.042857    134.35195    112.90157 
  298500    231.36612   -12732.633   -11541.592   -12732.633            0    248.60804    47.352117    21.556791    21.880862   -9.4213716   -21.637602    3.1064744    22335.102    259.86416   -49.650466    535.61042    241.54317   -231.35663     10.40728    47.352117    23.525677    30.929082    68.148765    134.39393    113.60768 
  299000     229.0343   -12741.532   -11562.496   -12741.532            0    883.66076    47.106457    21.556472    21.939426   -9.1585695   -21.640535    2.7641121    22278.368     167.1118    709.70084    1774.1696   -128.85088    167.98033    567.70993    47.106457    23.421376    30.940127    69.162027     134.3815    113.01889 
  299500    226.40784   -12770.718   -11605.202   -12770.718            0    979.74958    46.961654    21.713417    21.830124   -9.3365957   -21.552182    3.0257852    22260.133    159.32853    894.36235    1885.5579    900.57023    98.950659   -87.558561    46.961654    23.635661    30.825415    68.508535    134.36039    113.26732 
  300000    230.38306   -12658.117   -11472.138   -12658.117            0    614.79407    46.978561    21.717157    21.875217   -9.2373821   -21.567383    2.8974573    22317.989    1303.0189    560.87355   -19.510203   -179.39437   -394.44106    -4.083753    46.978561    23.600088     30.85567    68.899809    134.34493    113.04245 
  300500    227.47818   -12721.665   -11550.639   -12721.665            0    387.81953    47.215499     21.55843     21.89178   -9.2151319   -21.708456    2.8490808    22283.468   -204.04025    970.71964    396.77921    217.41218    159.02344    443.08163    47.215499    23.445352     30.96166    68.887835    134.51853    113.14424 
  301000    234.13188   -12726.757   -11521.479   -12726.757            0    442.48357    47.258307    21.473391    21.943966   -9.4755495    -21.62797    3.0526891    22268.651    113.63083     681.7564    532.06347    379.88486   -692.24038   -193.06657    47.258307      23.4711     30.96168    68.147875    134.30998     113.8104 
  301500    227.73516   -12754.391   -11582.042   -12754.391            0    756.37631     46.76478    21.626313    21.989262   -9.0277021   -21.503269    2.8490593    22238.835    1485.5206   -559.36421    1342.9726    -818.6576    139.81908    824.84076     46.76478    23.434949    30.887463    69.310292    134.12141    112.65764 
  302000    227.41743   -12739.169   -11568.456   -12739.169            0     400.5633    46.648846    21.695905    22.018126   -9.2306756   -21.298918     2.872628    22284.301    1035.5927    457.75281   -291.65567   -29.762643   -462.58375    218.59117    46.648846    23.577906    30.768389    69.088959    133.80719    113.04767 
  302500    224.06666    -12749.73   -11596.267    -12749.73            0    246.26595    46.932605    21.621773    21.959442   -9.1908931   -21.620544    3.1281275    22283.698   -221.45817    1317.8652   -357.60923    77.575965   -346.58459    -1023.268    46.932605    23.494118    30.974993    68.530987    134.26676    113.02917 
  303000    227.73205   -12727.383    -11555.05   -12727.383            0   -104.60225    47.273695    21.511957    21.991716   -9.2540776   -21.539262    2.7210021    22364.469   -503.28943    145.08748    44.395206    -225.3805   -1091.4129    1091.5774    47.273695     23.41799    30.902738    69.125768    134.18694    113.27655 
  303500     232.4945   -12704.676   -11507.828   -12704.676            0     319.0536    47.203501    21.611529     21.90725   -9.3500792   -21.777634    3.0412391    22348.459    1288.7896   -316.42126   -15.207546    -304.9439   -81.313926   -779.30493    47.203501    23.547445    31.039364    68.375797    134.55659    113.39539 
  304000    232.96125   -12757.763   -11558.511   -12757.763            0    1688.0119    46.987514    21.656267    21.820577   -9.1138205   -21.487954    2.9659589    22204.055    1539.0427    1293.1947    2231.7984   -66.838809   -534.66719    701.01225    46.987514    23.495864    30.767949    68.915271    134.29778     112.8233 
  304500    227.93751   -12748.868   -11575.477   -12748.868            0    1670.7333    46.756279    21.687575    21.849009   -9.2586048   -21.459657    2.7217218    22155.557     2179.966    691.47629    2140.7577   -81.181035    449.34466    967.45058    46.756279    23.581193    30.745794    69.178569     134.2644    113.11804 
  305000    236.85065   -12706.685   -11487.411   -12706.685            0    1320.1313    47.006181    21.597701    21.926959   -9.2734219   -21.644306    3.1197953    22260.807    1248.9699    931.50413    1779.9199     100.9649    290.52612   -512.98143    47.006181    23.504405    30.967736    68.387524    134.34129    113.23727 
  305500    230.19859   -12705.381   -11520.351   -12705.381            0     806.5653    47.157084    21.544906    21.946644   -9.1556011   -21.425685    2.8094681    22297.678    926.86914    692.01275    800.81403   -672.65799    70.117676    70.292532    47.157084     23.40957    30.799485    69.143743     134.0791    113.02328 
  306000    227.85808   -12734.993   -11562.011   -12734.993            0    1261.8439    46.909111    21.566393    21.968112   -9.2930468    -21.77079    2.9399638    22224.268    1937.8682    828.24543     1019.418    -447.5809     1102.888   -581.12075    46.909111    23.483399    31.067807    68.640868    134.48727    113.31141 
  306500    229.41467    -12757.58   -11576.585    -12757.58            0    686.00656    46.859167    21.678011    21.929517   -9.2431069   -21.358654    3.0427838      22276.3    659.20432    748.76913    650.04622   -189.12059    191.89649   -8.8629111    46.859167    23.566314    30.762873    68.696906    133.97144    113.09251 
  307000    227.51173   -12708.144   -11536.946   -12708.144            0    727.27693    46.896501    21.597157    22.036334   -9.0887034   -21.646444    2.6917103    22319.084    994.04948    920.96783    266.81347   -381.51681    573.64093    734.32994    46.896501    23.431639    31.006674    69.463565    134.27653    112.82275 
  307500    224.98183   -12731.316   -11573.141   -12731.316            0     305.3775    47.309844     21.58367    21.874768   -9.4401881    -21.60406    3.1083959    22336.764    594.10407   -128.81915    450.84759    590.16818   -1058.2367    -196.0558    47.309844    23.557843    30.901505    68.141388    134.35696    113.62343 
  308000    230.94133   -12753.924   -11565.071   -12753.924            0    1410.1712    47.065121    21.554206     21.89459   -9.0934351   -21.482655    2.8397037    22210.995    1527.7764    1378.8221     1323.915    348.34325   -757.40716     687.7123    47.065121    23.393896    30.804893    69.144528    134.21702    112.87424 
  308500    237.23661   -12742.778   -11521.517   -12742.778            0    911.25168    46.820736    21.690262    21.929174    -9.379495   -21.697742    2.9191111    22270.262    1068.6831    547.00733    1118.0646    131.94983    263.36324    88.815165    46.820736    23.631386    30.987124    68.630058     134.4445    113.38505 
  309000    232.11472   -12744.915   -11550.021   -12744.915            0    1093.4404    46.958376    21.654146    21.887344   -9.2406602   -21.406005    3.0252781    22256.005    1183.9183    868.75729    1227.6457    49.651305    289.01179   -494.91626    46.958376    23.543403    30.764025    68.681637    134.09203    113.10981 
  309500    226.45059   -12703.024   -11537.288   -12703.024            0     731.6689    47.118678    21.477693    22.034746   -9.0989226     -21.7932    2.8471413    22299.174    506.03653    1732.6204   -43.650192   -20.847655     504.0581   -645.27012    47.118678    23.325559    31.122015    69.059876    134.44709    112.95971 
  310000    228.41807   -12686.123   -11510.259   -12686.123            0    664.78876    47.117216    21.563047    21.989786   -9.5099191   -21.392491    2.9975473    22341.418    462.88148    1012.3686    519.11617    511.69899   -429.17164    49.059423    47.117216    23.567001    30.824903     68.34461    133.94761    113.79885 
  310500    239.87218   -12697.399   -11462.571   -12697.399            0    407.05659    46.939751    21.663681    21.955316   -9.0899204   -21.551367    2.8887657    22326.093    820.02064    454.90537   -53.756233     -229.586    99.069342   -237.94217    46.939751     23.49344    30.900523    69.141885    134.22225    112.76256 
  311000    233.75776   -12751.774   -11548.422   -12751.774            0    1614.0611    46.836887    21.585911     21.94392   -9.4837987   -21.624089    3.0223421    22185.674     1556.185    1476.9618    1809.0365    553.96706    252.84123   -394.98012    46.836887    23.577404    30.955959    68.261576    134.31028    113.71835 
  311500    232.70745   -12755.046     -11557.1   -12755.046            0    1971.3203    46.895318    21.532503    21.951324    -9.057452    -21.39405    2.9361798    22165.867    1978.6809    1949.0409    1986.2392   -345.53917   -258.19449     204.7373    46.895318    23.359926    30.792647    69.066551    134.00952    112.81361 
  312000    229.08853   -12740.709   -11561.394   -12740.709            0    1005.6331    46.869367    21.599425    21.979747   -9.1432053   -21.568494    2.9503327    22251.228    1464.5082     1887.027   -334.63574   -674.26781    596.74936   -475.68704    46.869367    23.454922    30.935638    68.923739    134.20322    112.94332 
  312500    236.26557   -12739.596   -11523.335   -12739.596            0    1485.3837    46.930719    21.583811    21.944036   -9.5302633   -21.544567    2.9600882    22228.074    989.02727    1487.8731    1979.2508    711.44007    135.83582    100.84184    46.930719    23.594211    30.894517    68.325781    134.21549     113.8237 
  313000    228.21642   -12737.494   -11562.668   -12737.494            0    1435.2167    46.839299    21.647602    21.906728   -8.9389133   -21.534782    2.9054617    22212.513     1678.109    1606.1794    1021.3616   -465.19824   -524.66229    154.73351    46.839299    23.420565    30.856008    69.304248    134.25973    112.43713 
  313500    227.01699   -12731.064   -11562.413   -12731.064            0    1220.1027    47.068883    21.558429    21.901161   -9.4658457   -21.473562    2.9999683    22223.791    1025.1219     802.5862    1832.5999    456.35898   -461.00629   -56.458806    47.068883    23.545023    30.818412    68.330225    134.16899    113.70525 
  314000    226.39786   -12691.977   -11526.513   -12691.977            0    889.37233    47.026252    21.549275     21.98518   -9.1174743   -21.800144     2.856038    22279.377     1644.794    297.96571    725.35732   -468.89393     421.4559    106.30267    47.026252    23.398709    31.092625    69.034976    134.51818    112.93317 
  314500    240.20805   -12738.707    -11502.15   -12738.707            0     1224.642    46.950069    21.676637    21.871309   -9.2142634   -21.407858    3.0395271     22258.86    1306.3383    1096.6817     1270.906   -300.79676    366.65346   -581.66224    46.950069    23.553752    30.755313    68.699653    134.11256    113.02928 
  315000    230.44482    -12732.48   -11546.183    -12732.48            0    1291.3052    46.852864    21.636053    21.924052   -9.3562475   -21.645893    2.8058926    22224.654    1187.9683    1508.8332     1177.114    106.80866    303.44055    544.62173    46.852864    23.572403    30.936738    68.840707    134.40153    113.38548 
  315500    232.69496   -12765.167   -11567.286   -12765.167            0    1142.9115    47.140017    21.549195    21.916777   -9.1578559   -21.539033    2.9501377    22263.707     659.8938    1208.1019    1560.7386   -154.64345      576.139    248.01139    47.140017      23.4144    30.870348    68.847744    134.24481    113.02425 
  316000    235.62678   -12727.111   -11514.137   -12727.111            0     1165.609    47.124119    21.562674    21.931841   -9.2951883   -21.608104    3.0624503    22285.426    727.37368    1347.2364    1422.2169    604.50458   -323.32838   -399.20459    47.124119    23.480832    30.940174    68.447225    134.29745     113.3198 
  316500    230.41252   -12714.286   -11528.155   -12714.286            0    552.50544    46.935865    21.646717    21.941933   -9.2143167   -21.693269    2.7460664    22293.165    35.599661    310.36839    1311.5483    463.90036    432.83722    144.68676    46.935865     23.52624    30.977205    69.154737     134.4509    113.05791 
  317000    221.72703   -12726.623   -11585.204   -12726.623            0     951.0654    46.921843    21.709931    21.863793    -9.258517    -21.40165    3.1743593    22271.989    142.60669    1289.4751    1421.1144    937.59313    -444.7113   -362.86151    46.921843    23.601721    30.759269    68.415732    134.08932    113.09653 
  317500    228.03725   -12784.043   -11610.139   -12784.043            0    577.12682      47.0224    21.527485    21.989822    -9.213657   -21.665974    2.9622479    22259.725    744.97557    1139.3675   -152.96264   -87.527954   -43.078589   -205.71562      47.0224    23.416321    31.011959    68.733477    134.31742    113.17069 
  318000    232.37787   -12725.208    -11528.96   -12725.208            0    1587.5094     47.12397     21.43948    21.996409   -9.3427223   -21.305046     2.780574    22223.267     1048.144    2350.1954    1364.1888    436.67571   -394.33678   -448.02226     47.12397      23.3867    30.748636    68.918429    133.85834    113.54622 
  318500    234.52931   -12741.549   -11534.225   -12741.549            0    1689.8036    46.752958    21.583847    22.007494   -9.1606641   -21.634896    3.0930713    22207.954    2030.2175    1842.5882     1196.605   -142.11974    836.68473   -348.69815    46.752958    23.447393    31.015571    68.633887    134.23073    112.99745 
  319000    227.00059   -12716.359   -11547.792   -12716.359            0    986.85551    46.705304     21.66374    22.020829   -9.2103042   -21.292205    2.8827254     22280.93    1397.0278    1080.2809    483.25781    510.95721    -13.46217   -148.68625    46.705304    23.540334    30.766622     69.08404    133.79303    113.03269 
  319500    228.08041    -12702.95   -11528.824    -12702.95            0    1414.5198     46.47188    21.642787    22.115444   -9.0583939   -21.287095    3.0041922    22243.293    2441.4521      1507.65    294.45719     1301.736   -783.67042    262.31648     46.47188    23.461985    30.842477    69.125324    133.64496    112.71131 
  320000    234.80945   -12729.953   -11521.187   -12729.953            0    632.76912    47.129108    21.524273    21.969058   -9.3509407    -21.63943    2.9726305    22285.847    922.76156    719.92578    255.62002    234.54766   -244.10025    187.04124    47.129108    23.467731    30.979686    68.510339    134.30709    113.48191 
  320500     227.9233   -12741.524   -11568.207   -12741.524            0     453.0713    47.140595    21.572646    21.947421   -9.1419268    -21.38557    2.7547019    22319.372    249.33904    524.14003    585.73482   -68.247317    -859.5144    1182.2545    47.140595    23.429765    30.767195    69.289568    134.03335    112.96597 
  321000    222.35086    -12719.98   -11575.349    -12719.98            0    624.28398    46.907194    21.685534    21.906812   -9.3832813   -21.646281    3.0374615    22283.774    1120.2053    286.86413     465.7825     499.4742    27.100607    82.053245    46.907194    23.628549    30.946665    68.416827    134.38454    113.39803 
  321500    228.74597   -12766.755   -11589.203   -12766.755            0    723.34764    46.908052    21.716014    21.844888   -9.1576857   -21.452114     2.890271    22252.424    1678.8266    266.80575    224.41061   -1019.0134   -332.80499    168.32111    46.908052    23.567954    30.752984    69.044262    134.23173    112.86525 
  322000    233.70401   -12776.729   -11573.654   -12776.729            0    650.64608    47.195848    21.529136    21.887177   -9.1313552   -21.697258    2.9518542    22239.251    509.89064    709.67764    732.36996    141.28651   -30.016612   -86.081661    47.195848     23.38558    30.960184    68.812549    134.49216    112.98371 
  322500    229.68521   -12722.247    -11539.86   -12722.247            0     1305.717    46.976005     21.53792    21.985071   -9.3542918     -21.5278    3.0060176    22243.736    1801.0679    1682.8993    433.18394    -57.07037   -11.315847    -303.6623    46.976005    23.481584    30.916431    68.495506    134.13268    113.47614 
  323000    227.11435   -12710.381   -11541.229   -12710.381            0    753.24028    46.881553    21.653123    21.973918   -9.0790192   -21.490211    2.9319748    22306.429    80.651039     1966.063    213.00683   -418.99503   -100.38958    231.59438    46.881553    23.479488    30.875212    69.101279    134.10971      112.748 
  323500     230.1393   -12716.308   -11531.584   -12716.308            0    671.43348    46.923125     21.60233    21.992418    -9.493604   -21.501501    3.1080551    22292.589    1085.9047    860.53295    67.862775    1143.5335   -575.80372   -214.87307    46.923125    23.596381    30.913444    68.168238    134.07017    113.72411 
  324000    224.95725   -12732.068    -11574.02   -12732.068            0    908.27692    46.960621    21.569701    22.003374   -9.0488566   -21.552451    2.7989731    22287.802    312.28211    1339.0815    1073.4672    31.813044    507.92769    812.85584    46.960621    23.390892    30.927186    69.326309      134.177    112.75888 
  324500    230.67818   -12761.428    -11573.93   -12761.428            0    1309.1801    47.042839    21.556251     21.86616   -9.2980748    -21.51997    2.9845322    22173.757    1822.6832    1214.1843     890.6727   -53.113948   -654.28441   -510.69319    47.042839    23.476076     30.82443    68.566712    134.27849    113.33247 
  325000    225.69894   -12695.786    -11533.92   -12695.786            0    1932.3402    46.943678    21.551094     21.91207   -9.3510659   -21.620885    2.8771665     22168.17     1860.285    2426.4546     1510.281   -608.75715     245.3907   -271.09366    46.943678    23.492383    30.917302    68.670586    134.37195    113.45613 
  325500    233.16067   -12785.259   -11584.981   -12785.259            0    1554.6586      46.8676    21.599426    21.903721    -9.064679    -21.45439     2.913052    22173.427    1230.3282    1642.2217    1791.4259   -339.28765   -747.36388   -444.65933      46.8676    23.424423    30.798535    69.097186    134.15519    112.76644 
  326000    230.80736   -12756.391   -11568.227   -12756.391            0    1654.2455    47.026651    21.548697    21.896671   -9.4259522   -21.483323    3.0267346    22189.277    1204.1022    2056.3766    1702.2576    728.32754   -284.26345   -519.03553    47.026651    23.520096    30.824641    68.329162    134.18304     113.6258 
  326500    233.22414   -12734.073   -11533.468   -12734.073            0    1766.5677    46.948949    21.520387    21.963533   -8.9739537   -21.678284     2.861574    22191.065    2247.3861    2051.8579    1000.4592   -660.38379    565.35578    595.35112    46.948949    23.316494    30.992473    69.241631    134.38444    112.63603 
  327000    236.55672   -12718.012   -11500.252   -12718.012            0    923.87836    46.958923    21.668609    21.879769   -9.3612504   -21.426123    2.9012839    22263.421    277.74873     1163.453    1330.4333    826.74204    358.20251   -80.261139    46.958923    23.604271    30.760697    68.726148    134.15024    113.36526 
  327500    232.96328   -12790.953   -11591.691   -12790.953            0    705.35331    46.934709    21.653796    21.945512   -9.1819136   -21.669749    3.0694708    22303.545    709.33557    491.59396    915.13039   -386.20978    541.76745   -439.51012    46.934709    23.520085    30.993631    68.646407    134.36027    112.97852 
  328000    231.32252   -12702.428   -11511.612   -12702.428            0    1173.6764    47.068697    21.531399    22.026607   -9.2060623   -21.383109    2.8250386    22322.973    1072.0899    1613.0215    835.91764   -230.78142   -583.88431    686.81227    47.068697    23.416933     30.82839    69.087269    133.91715    113.14983 
  328500    223.26544   -12740.491   -11591.152   -12740.491            0    1212.8663     47.01086    21.496693    22.043049   -9.2602852   -21.771812    3.0473567    22276.221    807.04233     1781.563    1049.9936    480.15571     311.9454   -403.08093     47.01086    23.406425    31.131884    68.495188    134.37418    113.30528 
  329000    231.01851    -12730.06   -11540.809    -12730.06            0    1105.3689    46.905172    21.650311    21.931577   -9.1926388   -21.431333    2.9945765     22271.77    1450.5013    721.54644    1144.0589   -141.68316   -104.77966    28.324248    46.905172    23.521067    30.810121    68.818705    134.07456    113.00589 
  329500     222.7432   -12735.238   -11588.588   -12735.238            0    870.78564    46.940372    21.702985    21.856896   -9.2439139   -21.589925    2.8240371    22266.629    1164.1665    763.41933    684.77111    -114.6714   -257.36789    666.37388    46.940372    23.589606    30.851644    68.995523    134.41082    113.07052 
  330000    232.73945    -12662.43    -11464.32    -12662.43            0    649.95147    47.334378    21.595142    21.856365   -9.3279675   -21.710415    3.0258311    22341.414    470.70197    620.67257    858.47987   -110.16608   -83.904244    309.03333    47.334378    23.523629    30.954781    68.416883    134.53614    113.36181 
  330500    228.33214   -12740.889   -11565.467   -12740.889            0    776.46826    47.203591    21.598625    21.855585   -9.2269146   -21.573062    2.8308081    22282.483    275.23678    803.31021    1250.8578   -53.739634   -1261.3318    727.89237    47.203591    23.486944    30.839538    68.947547      134.389    113.13213 
  331000    223.20182   -12754.213   -11605.202   -12754.213            0    360.57615    46.994877    21.689892    21.877683   -9.2530229   -21.672332    3.0272606    22300.224    712.57469   -512.95358    882.10734    719.10592   -501.37333    321.44415    46.994877    23.581133    30.943291    68.603962     134.4582    113.10335 
  331500    232.09671   -12728.315   -11533.513   -12728.315            0    1511.9403    46.690107    21.755749    21.875784   -9.2041487   -21.304925    3.0126315    22220.945    2321.7547    857.95594    1356.1102    816.72138    -872.1689   -28.075004    46.690107    23.622636    30.684291    68.841164    133.97359    112.93164 
  332000    227.51088   -12728.673   -11557.479   -12728.673            0    1266.6377    46.888305    21.485601    22.052223   -9.2069336    -21.58581    2.8337053    22215.926    2910.0783    763.50233     126.3326   -539.09957   -95.588694    459.75604    46.888305    23.375172    30.988347    68.996923    134.15312    113.19593 
  332500    225.32909   -12705.354   -11545.391   -12705.354            0    1214.2716    46.964107    21.496432    21.988126   -9.2717626   -21.487039    3.0513678    22198.349    1142.4672    1312.5885    1187.7591    806.55246    153.39215   -158.94559    46.964107    23.410728    30.894682    68.522305    134.06653    113.33133 
  333000    232.28488   -12706.679    -11510.91   -12706.679            0    1737.5633    46.770411     21.55926    21.989076   -9.0789752   -21.430685     2.959205    22172.365      1386.92    1444.6736    2381.0963   -128.43037    101.46997    676.09415    46.770411    23.392937    30.847214    69.019889    134.00622     112.8368 
  333500    236.01441   -12715.577   -11500.609   -12715.577            0    1819.5211    46.715478    21.672994    21.886779   -9.2418928   -21.393482    2.8898002    22159.582    1945.4828    1253.1802    2259.9003    340.81423   -452.16704    331.94734    46.715478    23.561224    30.741879    68.934306    134.09952    113.09458 
  334000    228.61552   -12691.771   -11514.891   -12691.771            0    1899.4431    46.979566    21.596499    21.895638    -9.205179   -21.558241    3.0136194    22215.187    1544.5584    1239.1375    2914.6334   -4.9778487   -175.54721     31.62109    46.979566    23.476458    30.874887    68.680093    134.28638    113.08539 
  334500    225.16153   -12719.163   -11560.063   -12719.163            0    2054.3811    47.336176     21.45305    21.827285    -9.357196   -21.664075    2.8919273    22165.724    1730.2014    2117.1744    2315.7673    478.64118   -41.155873   -113.01097    47.336176    23.404924    30.888926    68.517673    134.53575    113.56543 
  335000    230.75075   -12793.662    -11605.79   -12793.662            0    674.32228    46.992194    21.599948    21.911138   -9.2567319   -21.525259    2.8663651    22240.439    256.01499    1032.1494    734.80248    692.44338   -96.978502    359.46454    46.992194     23.49989    30.848838    68.883966    134.24801    113.19772 
  335500    240.08026   -12700.863   -11464.963   -12700.863            0    491.25058     46.69164    21.718615    22.045831   -9.1258196   -21.593736    3.0257671    22356.187    1441.4017    424.62628   -392.27628   -517.30079    1153.4613   -553.61718     46.69164    23.557988    31.007473    68.916157    134.13922    112.79138 
  336000    223.96575   -12683.376   -11530.431   -12683.376            0    691.74455    46.959709    21.662668    21.957623   -9.3089184   -21.255937    2.9308683    22336.887    801.26483    606.29443    667.67438   -27.564774   -223.78709    122.90681    46.959709    23.578107    30.700848    68.834651    133.81695    113.25425 
  336500    232.23277   -12729.689   -11534.187   -12729.689            0    648.68881    47.087742    21.531874    21.980291    -9.170857   -21.736401    2.8801976    22285.538    1558.3881    353.82376    33.854608   -747.91599   -270.52727   -301.93353    47.087742    23.403551    31.046736    68.918391    134.43653    113.07013 
  337000    236.21849   -12744.573   -11528.553   -12744.573            0    743.40645    47.070458    21.643177    21.867713   -9.4047005   -21.402161    3.0226011    22277.825    696.73621    660.06301    873.42012    327.39366   -333.41414    246.53827    47.070458     23.59821    30.747122    68.434232    134.11258    113.48659 
  337500    233.72262   -12724.643   -11521.472   -12724.643            0    1238.3379    46.859759    21.709792    21.840032   -9.0962956   -21.613715    2.8803977    22218.205     745.6257    784.56114     2184.827  -0.56777045    715.34475    416.40785    46.859759    23.538429    30.861568    69.100727    134.45461    112.73344 
  338000    225.01983   -12792.686   -11634.316   -12792.686            0    1965.4784    46.957308    21.524212    21.872441   -9.3921599   -21.560488    2.9059829    22106.893    1943.5846     1438.635    2514.2156   -77.965866    145.04816    505.20868    46.957308     23.48413    30.849685    68.540245    134.33789    113.57421 
  338500    225.46948   -12712.755    -11552.07   -12712.755            0    1805.7795    47.172418    21.550743    21.819979   -9.0679164   -21.512586    3.0504478    22182.205     997.2172    2342.9748    2077.1463    140.60267     178.2468   -104.95889    47.172418    23.380796    30.792987    68.760997    134.31636    112.81992 
  339000    233.19674   -12702.711   -11502.247   -12702.711            0    908.46551    47.024186    21.582382    21.925001   -9.2599061   -21.626776    2.8499179     22251.55    94.843346     2318.173    312.38017    410.49769    166.26041    129.67167    47.024186    23.484997    30.928064    68.875657    134.36771    113.22172 
  339500    222.32561    -12712.39   -11567.889    -12712.39            0    1537.2494    46.850321    21.617027    21.971748   -9.3508591   -21.418497    2.9504131    22252.209    2090.0772     730.6527    1791.0183    533.95629    -195.5965    474.99447    46.850321    23.552801    30.825552    68.672053    134.01362    113.39182 
  340000    235.15262   -12730.802   -11520.269   -12730.802            0    2294.4319    46.674738    21.585848     22.00378   -8.7569644   -21.535862    3.0947019    22169.112    2997.3057    2581.5298    1304.4601   -431.11366   -319.53723    -1112.476    46.674738     23.29449    30.944093    69.249316     134.1038    112.08145 
  340500    233.27545   -12738.979    -11538.11   -12738.979            0    1448.2034    46.919146    21.531508    21.966763   -9.4200857   -21.450672    2.9055161    22191.701    1510.0031    1320.0595    1514.5475    392.01419    44.791526    516.66927    46.919146    23.501997    30.840104    68.586147    134.07064    113.62949 
  341000    225.61955   -12718.492   -11557.035   -12718.492            0    1264.0934    46.826473     21.55908    22.001145   -8.9225041   -21.549135    2.9070499    22210.941    1307.4373    1464.6539    1020.1891   -244.49129    196.55481    268.71471    46.826473    23.332489    30.933259    69.314839     134.1575    112.48285 
  341500    220.65023   -12691.915   -11556.039   -12691.915            0    1427.6053    46.936717    21.588927     21.94191   -9.4607871   -21.425394    3.0061493     22234.03    739.28168     2574.005    969.52931    612.75616    143.50767   -484.60911    46.936717    23.570919    30.814475    68.381132    134.05136    113.66419 
  342000    237.23378   -12780.233   -11558.987   -12780.233            0    1027.5903     46.87569    21.595996    21.918197   -9.2014753   -21.573143    2.9131472    22188.388    893.69358    1514.1456    674.93176    -36.70938    367.45139   -362.72154     46.87569    23.474544    30.891654    68.869587    134.29466    113.07755 
  342500    229.46033   -12735.333   -11554.104   -12735.333            0    1540.3851    47.110566    21.585276    21.864302   -9.2016264   -21.571411    2.9180766    22233.689    1196.2985    1330.1527     2094.704    374.61314   -66.986296   -301.34732    47.110566    23.464741    30.852692    68.827052     134.3608    113.08815 
  343000    226.47295   -12745.621    -11579.77   -12745.621            0    836.80918    47.102579    21.616534     21.82475   -9.3974409   -21.728707    2.9432269    22221.841    -5.545004    528.95003    1987.0225    1216.5474    471.06972    302.49306    47.102579    23.570881     30.93734    68.453002     134.6155    113.49622 
  343500    225.80911   -12698.059   -11535.626   -12698.059            0    946.96504     47.05105    21.683721    21.855157   -9.1135273   -21.577678    2.7778698    22297.546    192.80254    1117.6359    1530.4567     93.24514    563.45717    594.39456     47.05105    23.521058     30.83765    69.258115    134.40443     112.7967 
  344000    226.42406   -12770.146   -11604.547   -12770.146            0      732.831    47.120736    21.586817    21.900041   -9.3428775   -21.596876    3.0308583    22276.431   -293.46644    1208.1417    1283.8178     616.4915     445.1808   -484.83924    47.120736    23.521905    30.906682    68.435353    134.32896    113.40319 
  344500    225.93305   -12717.439   -11554.368   -12717.439            0    794.27624    46.983849    21.510447    22.055539   -9.1996283   -21.552786    2.9021087    22290.289    593.73138    1407.6735     381.4238   -56.712157   -198.01398    257.66369    46.983849    23.395138    30.974047    68.914032    134.09369    113.15552 
  345000    231.07103   -12736.711    -11547.19   -12736.711            0    1605.4476    46.766054    21.544189    22.069473   -9.0986257   -21.264697    2.9574111    22235.804    2090.5422    1763.8127    961.98804   -251.86962   -730.10766   -538.16434    46.766054    23.386686    30.789532    69.072745    133.68135     112.8955 
  345500    226.06776   -12738.193   -11574.428   -12738.193            0    1141.8732    46.776048    21.616555    22.004509   -9.2711616   -21.535525    3.0000163    22249.574    2005.7474    1564.0696   -144.19735    73.678287   -116.41791    -765.2058    46.776048    23.520839    30.935051    68.683004    134.11916    113.21409 
  346000    230.48958   -12772.559   -11586.031   -12772.559            0    1338.2251    46.725674    21.543417     22.10574   -9.1280064   -21.307197    2.8751179    22252.317    2184.6151    2268.2652   -438.20508    865.91995   -742.94836    342.32973    46.725674    23.397422      30.8371    69.181364    133.70614    112.96251 
  346500     230.2367   -12727.939   -11542.712   -12727.939            0    1296.9242    47.072066    21.437006    22.099687   -9.2306845   -21.644185    3.0548186    22300.444    1504.6013    2026.5399    359.63154    279.61752    200.64818   -266.84772    47.072066    23.339896    31.083739     68.55233    134.13238    113.29651 
  347000     230.4087   -12716.518   -11530.407   -12716.518            0    1724.3142    46.933201    21.547652    21.948019   -9.3114033   -21.486514    2.9068278    22196.038    2481.9147    2097.1282    593.89955    295.75838   -398.81135   -75.806724    46.933201    23.473465    30.851831    68.730686    134.14225    113.37066 
  347500    230.04183   -12719.863   -11535.641   -12719.863            0    2159.6471    46.880236    21.713824    21.721006   -8.8178494   -21.533304    3.0260525     22110.88     1526.689    968.64048    3983.6118   -216.41337   -605.30991    343.95357    46.880236    23.435968    30.735034    69.217086    134.47605    112.10177 
  348000    222.39658   -12770.389   -11625.523   -12770.389            0    1382.5859    47.023785    21.617626    21.811771   -9.3745817   -21.612743    2.9532183    22172.595    1166.1057    846.44439    2135.2075    741.02017   -374.65533    203.32046    47.023785    23.562779     30.84778     68.49516    134.47721    113.44419 
  348500    223.25796    -12734.28    -11584.98    -12734.28            0    1570.9248    47.162082    21.552107    21.828495   -9.1659772   -21.638061    2.8534752    22187.404    1211.6977    1557.6969    1943.3798   -375.87412    245.87063    418.17418    47.162082    23.420258    30.867964    68.935858     134.5063    113.03975 
  349000    226.73725   -12759.974   -11592.762   -12759.974            0    842.39112    47.130339    21.593809    21.881693   -9.3152078   -21.597524    3.0356053    22269.514    647.95982     1370.047    509.16657    360.10284    240.07242   -115.98779    47.130339    23.517349    30.894602    68.461779    134.35253    113.33456 
  349500    234.10185   -12732.508   -11527.385   -12732.508            0    368.33308    46.960707    21.664356    21.974073    -9.240486   -21.623019    2.9455563    22355.839   -508.97861    1476.7538    137.22402     428.4377    419.18952    16.003554    46.960707    23.552726    30.969197    68.812758    134.28361    113.09968 
  350000     231.7755    -12753.85   -11560.702    -12753.85            0    -68.52115    46.886931    21.621778    22.072315   -9.2226743   -21.422421    2.7791338    22376.445    769.62916   -1151.1002    175.90754   0.50706903   -495.56293    1697.3382    46.886931    23.506574    30.884151    69.211728    133.91878    113.10046 
  350500    239.43926   -12723.321   -11490.721   -12723.321            0    661.51619     47.16667    21.547042    21.989193   -9.2787304   -21.648034    3.1522634    22347.666    391.76116    1025.9344    566.85305    109.55435    541.50936    -41.02339     47.16667    23.459963    31.017716     68.32263    134.26075      113.298 
  351000    230.81265   -12748.079   -11559.888   -12748.079            0    1168.6391    46.952987    21.540277     22.00905   -9.1775772   -21.605274    2.7375456     22259.52    1710.9995    359.44244    1435.4755   -444.29338    426.44863     1243.248    46.952987    23.413916    30.962563    69.215635    134.24972     113.0772 
  351500    238.02703   -12706.528   -11481.198   -12706.528            0    1258.7898    46.715767    21.778041    21.873189   -9.2370179   -21.364643    3.1686474    22253.299     1878.048    508.86271    1389.4587    201.52568    -83.72866   -783.95407    46.715767    23.655984    30.739627    68.513415    134.02878    112.98392 
  352000    231.92673   -12762.219   -11568.293   -12762.219            0    869.36625    46.901838     21.63424     21.93728    -9.146458   -21.575327    2.9764479    22259.442    1903.7765    917.16822   -212.84596   -148.24338    188.11626   -193.75559    46.901838    23.488253    30.912752    68.871056    134.26217    112.91752 
  352500    227.58343   -12755.345   -11583.778   -12755.345            0    918.03591    47.232728     21.50388    21.925134   -9.4280441   -21.557399    2.8583687    22269.072    149.46837    844.08774    1760.5516    357.31043   -17.991133    106.90602    47.232728    23.479882    30.880466    68.587352     134.2741    113.67431 
  353000    221.80597   -12737.997   -11596.171   -12737.997            0    149.73942    47.159323    21.630935    21.920648   -9.0695939   -21.687175    3.1138547    22361.258   -7.2485955   -367.53943    824.00628   -934.65753     897.4972    510.75799    47.159323     23.45538    30.992652    68.701185    134.40712    112.74773 
  353500     223.8159   -12749.677   -11597.504   -12749.677            0     120.7673    46.900339     21.68803    21.968929   -9.3480649   -21.478719    2.8572915    22346.267    976.65339   -669.55159    55.200095   -171.63119   -539.12967    -498.6484    46.900339    23.616879    30.856658    68.865432    134.11339    113.31721 
  354000    233.18169   -12733.456   -11533.069   -12733.456            0    1225.1273    46.823712    21.669805    21.966104   -9.1258121   -21.438689    2.9837682    22288.143    1423.5307    764.35349    1487.4978   -564.66485   -164.60317   -42.884381    46.823712    23.512994    30.838774    68.962225    134.04205    112.83744 
  354500    239.14683   -12730.724   -11499.629   -12730.724            0    1128.8188    47.049497    21.515925    22.010894    -9.222885   -21.611553     3.089017    22281.925    1220.2805    1022.7684    1143.4075   -545.35246    109.93853   -872.51952    47.049497    23.409328    31.001301    68.516394     134.1962    113.20258 
  355000    238.26923    -12765.65   -11539.073    -12765.65            0     1107.499    46.996935    21.463043    22.027699   -9.2961181   -21.524581    2.8187595     22219.28     271.1497     2158.174    893.17324    153.59332   -338.25226    127.34726    46.996935    23.389742     30.92689    68.884497    134.10558     113.4185 
  355500    225.10073   -12759.027    -11600.24   -12759.027            0    921.76879     46.81834    21.608809    21.967009   -9.0243823   -21.629893    3.0700031    22223.772    1708.7023    1032.1235    24.480501   -1357.9844     1140.304    -594.1288     46.81834    23.417517     30.98107    68.869697    134.27995    112.66664 
  356000    231.21505   -12729.772    -11539.51   -12729.772            0    805.44504    46.742203    21.719064    21.936346   -9.4146767   -21.302154    2.8642757     22269.71    1304.1937    141.54196    970.59947    442.35833    -195.4368    -58.57208    46.742203    23.671795    30.711384    68.811535    133.91767    113.43554 
  356500    233.08336   -12688.816   -11488.936   -12688.816            0    884.91033    47.069214    21.553257    21.974851   -9.1131915   -21.713519    2.8869505    22293.373    262.98667    1063.9022    1327.8421   -448.67062    81.236892   -166.89646    47.069214    23.400708    31.027495    69.008107     134.4122    112.91971 
  357000    229.35974   -12729.815   -11549.103   -12729.815            0    1730.2249    47.256901    21.480414     21.86133   -9.4184914   -21.468493    3.1095792    22191.387    1621.5601    1671.0288    1898.0858    738.64153   -679.33449   -1162.0355    47.256901    23.454555    30.797458    68.136617    134.19372    113.67595 
  357500     233.1422   -12709.166   -11508.983   -12709.166            0     1592.059    46.827028    21.604323    21.958318   -9.1213958    -21.61852    2.7825989     22214.49    2106.7218    1555.9273    1113.5279   -27.520941    300.44621     543.8249    46.827028    23.450941    30.939796     69.22929    134.32509    112.88958 
  358000    231.78262   -12761.021   -11567.836   -12761.021            0     1289.756    46.870174      21.6921    21.861281   -9.2979118   -21.483199    3.1307164    22226.637    2057.6286    1086.2293       725.41    72.770864    742.59774   -203.71556    46.870174    23.600813    30.809817    68.401371    134.20952    113.20149 
  358500    229.64803   -12735.745   -11553.549   -12735.745            0    668.35732     47.10643     21.54813    21.979351   -9.1779773    -21.59707    2.9426242    22310.261    637.70134    911.36853    456.00209   -740.43533   -264.21203   -35.305167     47.10643    23.421298    30.954553    68.846684    134.24297    113.07057 
  359000    232.47606   -12734.696   -11537.942   -12734.696            0    316.03024    47.162911    21.529706    21.988249   -9.2037574   -21.733383    2.8418101    22326.948   -769.62127    961.89786    755.81414    240.34204    312.06804    1074.9296    47.162911     23.41447    31.046722    68.940957    134.42876    113.14628 
  359500     239.5716   -12717.414   -11484.133   -12717.414            0    1130.1316    47.025485     21.65377     21.88019   -9.3793714   -21.390569    3.1056807    22280.139     1128.488    991.71416    1270.1925    544.35661   -594.56184     240.4828    47.025485    23.597847    30.756209    68.340364     134.0661    113.41994 
  360000    228.81018   -12740.643   -11562.761   -12740.643            0    813.65212    46.736231     21.68703    21.966222   -8.9905476   -21.715067    2.8634689    22264.305    1092.4314    701.83167    646.69333   -190.31855    1351.6786    659.63904    46.736231    23.476738    31.020292    69.307522    134.42924    112.51688 
  360500    233.79232   -12784.432   -11580.902   -12784.432            0    577.90245    47.005173    21.613521    21.940307   -9.3768457   -21.451332     2.956053    22290.196    664.81935    1082.4031   -13.515103     335.5535    171.35355    -26.98683    47.005173    23.559914     30.82653    68.596836    134.09678    113.45321 
  361000    234.73049   -12728.849    -11520.49   -12728.849            0    401.95805     47.18772    21.549273    21.992339   -9.0921425   -21.685105     3.032074    22363.153   -142.76141    1534.9899   -186.35435   -253.20375    129.20929   -570.91501     47.18772    23.388848    31.033856     68.79837    134.32731    112.87602 
  361500    229.24116   -12701.395   -11521.294   -12701.395            0    380.04947     47.02397     21.62016    22.018246   -9.5126874   -21.459916    2.7936473    22385.197    1005.4057   -136.28817    271.03082     464.8858   -284.64414    355.05426     47.02397    23.620384    30.872894    68.729764    134.03562    113.74909 
  362000    229.12643   -12749.659   -11570.149   -12749.659            0    642.34834    46.879792    21.648004    21.975311   -9.1828027   -21.525001     2.965544    22301.731    1216.3859   -225.08425    935.74331   -76.559392   -628.14247   -34.707721    46.879792    23.515101    30.903631    68.879078    134.14848    112.98603 
  362500    235.32481   -12712.509    -11501.09   -12712.509            0    818.89469    47.100751    21.611666    21.875495   -9.2009113   -21.511519    2.9562639    22267.628     572.6602    597.92856    1286.0953   -131.78341   -28.132288    288.65202    47.100751    23.488739    30.822431    68.799457    134.26018    113.06131 
  363000     235.6049   -12713.766   -11500.905   -12713.766            0     822.8893    47.236613    21.556041    21.858091   -9.4598125   -21.813427    2.8487148     22256.66    109.82169    878.66359    1480.1826   -225.27982     604.1731   -22.388015    47.236613    23.540412    31.011561    68.482882    134.70015    113.69414 
  363500    229.70421   -12700.459   -11517.975   -12700.459            0     411.4688    47.155144    21.659161    21.828143   -9.0590392   -21.535442    3.0014479    22293.974    25.699096    502.76401     705.9433   -333.57448   -387.93107     47.67886    47.155144    23.477339     30.80993    68.925392    134.34501    112.69733 
  364000    230.65776   -12701.455   -11514.062   -12701.455            0    1045.7497    46.930256    21.642074     21.91778   -9.4120213   -21.498877    2.9279693     22261.19    994.09209    765.64081    1377.5162    402.54263     89.53838    155.64565    46.930256    23.600117    30.840944    68.588189     134.1939    113.50396 
  364500    227.49438   -12746.302   -11575.193   -12746.302            0    673.91261    46.875692    21.510551    22.063552   -9.0396775   -21.632733    2.7438781    22247.164    925.42202     362.5814    733.73443   -160.09012    36.203934    129.14562    46.875692    23.332801     31.02103    69.407642    134.21534    112.79428 
  365000    235.77118   -12737.039   -11523.322   -12737.039            0    727.34915    47.036426    21.628728    21.929142   -9.2533583   -21.369469    3.1414195    22309.352    297.14268    1331.5382     553.3666   -491.55117   -252.95428   -535.59834    47.036426    23.525019    30.780026    68.474445    133.96861    113.16256 
  365500     230.1984   -12742.113   -11557.084   -12742.113            0    826.10525    46.830513    21.629435    22.026464    -9.167999   -21.549549    2.8498141    22310.991    1335.4197    933.24271    209.65333   -286.45808   -603.24266    71.070253    46.830513    23.492225    30.946238    69.111893    134.13525    112.97047 
  366000    231.13184   -12690.731   -11500.897   -12690.731            0    901.84048    46.719585     21.64446    22.075627   -9.3255811   -21.351886    2.9066231     22323.32    1566.2829    1.3951161    1137.8434    457.88321   -79.399567    733.89748    46.719585    23.567968    30.849389    68.875276    133.79921    113.30894 
  366500    229.83936   -12758.883   -11575.702   -12758.883            0    592.60383    47.079561    21.583931    21.929546   -9.1854799   -21.528969    3.0530145    22283.971    474.60756    939.32017    363.88375    195.95655    110.28908   -245.84033    47.079561    23.457176    30.882396    68.657059      134.197    113.05316 
  367000    221.01306   -12732.293   -11594.549   -12732.293            0    1081.1341    46.918655    21.533367    22.002522   -9.1756085   -21.669186     2.822873    22229.514    1299.2723    1408.8757    535.25431   -319.39986    416.11472    271.19508    46.918655    23.406787    31.010211    69.042882    134.32887     113.0794 
  367500    221.84446   -12677.143   -11535.119   -12677.143            0    1439.5861     46.87613    21.671899    21.903744   -9.3794798   -21.357492    2.9768772    22251.899    1616.1842    1621.6304    1080.9435    771.34689   -814.71978   -374.57963     46.87613    23.614526    30.737245    68.600629    134.01453     113.4027 
  368000    230.49058    -12699.25   -11512.717    -12699.25            0    2014.3511    46.872386    21.622908     21.91589   -8.9339658   -21.574796    2.9930558    22212.134    2244.9194    1819.8759    1978.2581   -539.35178    396.11595    96.807439    46.872386    23.395853     30.89881    69.135651      134.286    112.44901 
  368500    232.32189   -12762.557   -11566.597   -12762.557            0    1333.0618    47.056098    21.517978    21.925812   -9.5248901   -21.532563    2.8588588    22201.026     924.7732    1790.8659    1283.5463    162.78712   -222.27376    204.58483    47.056098    23.531828    30.863661    68.463515    134.24014    113.87648 
  369000    230.66172   -12722.007   -11534.593   -12722.007            0    959.69622    46.966755    21.611079    21.956192   -9.0719866   -21.604594    2.9691561    22285.584    675.06988    942.83221    1261.1866   -67.236764   -79.852526    85.409192    46.966755    23.437996      30.9459    68.980077    134.27803    112.77189 
  369500    228.23447   -12690.806   -11515.887   -12690.806            0    1325.1575    47.000679    21.721705    21.795817   -9.3327804   -21.453753    3.1000893     22252.11    1040.7235    723.46293    2211.2862    193.93377    359.01023    -157.0643    47.000679     23.64177    30.739741    68.397383    134.26003    113.25089 
  370000    231.87164    -12723.79   -11530.148    -12723.79            0    1556.4977    47.043381    21.542454    21.883244   -9.2766442   -21.615992    2.8447965    22177.133    699.49291    1754.1828    2215.8172    470.91542    374.40394    366.48787    47.043381    23.454924    30.890458    68.817072    134.40797    113.29775 
  370500    223.67778   -12715.199   -11563.738   -12715.199            0    1896.1533    46.936665    21.575184    21.893212   -9.0610344   -21.521266    2.9897959    22170.538    1397.2452    2216.2986    2074.9161    448.58108    277.03343   -266.31933    46.936665    23.400661     30.84504    68.928358    134.24453    112.78118 
  371000    223.92133   -12746.216   -11593.501   -12746.216            0    1523.9111    46.949271      21.5639    21.920197   -9.5654707   -21.486941    2.9673571    22192.213    1530.0026     2102.417    939.31362    1130.8222   -296.69227   -483.13342    46.949271    23.590253    30.838108    68.254423     134.1681    113.92146 
  371500    223.40503   -12731.094   -11581.036   -12731.094            0    1164.1675    46.898683    21.544648    22.034975   -9.0422454   -21.544152    2.8055998    22264.483    1131.6761    1643.3097    717.51667     642.7361    98.332058   -536.66507    46.898683    23.365232    30.944499    69.326946    134.12445    112.76769 
  372000    230.62375   -12749.697   -11562.479   -12749.697            0    773.23009    46.915816    21.601104     21.98782     -9.34486   -21.417519    3.1259187    22283.192      1215.97    1442.0889   -338.36858    871.74901   -657.89955   -1076.8569    46.915816    23.535805    30.853618     68.37047    133.96076    113.39381 
  372500    233.96375   -12769.413   -11565.001   -12769.413            0    773.72884    46.839231    21.553168    22.058682   -9.2015233   -21.616471    2.8205509    22268.985    749.57445    1407.5024    164.10966   -122.88889    412.52944   -314.18256    46.839231    23.435168    31.013106    69.064551    134.18767    113.11871 
  373000    231.11321   -12800.806   -11611.068   -12800.806            0    889.28364    46.898415    21.563815    21.991189   -9.1370906   -21.438206    2.9700088    22239.881    1909.9571     553.1345    204.75931   -543.35307   -762.28069    152.84986    46.898415    23.419747    30.854984    68.918005     134.0117    112.96351 
  373500    233.16715   -12723.093   -11522.782   -12723.093            0    1030.4072    46.909476    21.615648    22.006004   -9.3918701   -21.576274    3.1388677     22313.62    1450.5928    637.93843    1002.6905   -242.67152    257.40501   -426.08104    46.909476    23.567848    30.978256    68.254255    134.14666    113.48466 
  374000    238.04374   -12727.281   -11501.865   -12727.281            0    586.29714    46.963457    21.618008     21.94599   -9.0780154   -21.508128    2.7206174    22280.807    525.62528    276.88664    956.37949    269.32928   -194.99792    517.76222    46.963457    23.446719    30.848466    69.435535    134.20429    112.77892 
  374500    225.27686   -12672.228   -11512.534   -12672.228            0    474.90024     47.24008    21.608639    21.927908   -9.4432239   -21.669093    3.1146713    22383.873    536.76215    763.27094    124.66763    140.41801    162.49687    -443.4227     47.24008    23.581937    30.985221    68.151467    134.37379    113.60588 
  375000    227.85179   -12766.526   -11593.577   -12766.526            0    149.13879    47.129415    21.662892    21.901194   -9.1410314   -21.742102    2.9466077     22360.23   -77.158538    233.86273    290.71218   -236.36338    660.63684     519.5176    47.129415    23.512536    31.001029    68.885592     134.5342    112.87815 
  375500    225.37595   -12724.334    -11564.13   -12724.334            0    924.28341    46.952413    21.631082    21.938474    -9.296757   -21.406126    2.8580633    22281.406    1165.0621    851.90942    755.87866    388.58692   -217.70906    589.05272    46.952413    23.544286    30.784532    68.908055    134.05538     113.2574 
  376000    231.98751   -12728.627   -11534.388   -12728.627            0     471.6508    46.820561    21.652068    22.066967   -9.1763918   -21.829414    3.1576613    22370.652    205.70501    1109.7485    99.498886   -289.92796    684.75355   -798.08145    46.820561     23.51634    31.200083    68.518556    134.39964    112.96778 
  376500    231.89706   -12712.992   -11519.219   -12712.992            0    918.22346    46.954002    21.588363    22.001651   -9.1864129   -21.353106    2.8887742    22302.194    1223.8395     1389.563    141.26789     82.33926   -820.85525   -495.93606    46.954002     23.46162    30.795662    69.034335    133.89829    113.05102 
  377000    219.98401   -12757.338   -11624.892   -12757.338            0    958.85032    46.916348    21.544584    22.018086   -9.3076832   -21.586943    2.9436272    22255.732    452.17553    1020.0856    1404.2898    130.00617    -444.4251    488.70956    46.916348    23.469173    30.975105    68.676777    134.17983    113.36529 
  377500    229.56922   -12748.117   -11566.327   -12748.117            0    1097.7763    46.953154    21.523601    22.002787     -9.12248   -21.548081    3.1014189    22236.037    1198.3509    1101.7393    993.23871    392.56407   -44.391816   -320.25039    46.953154     23.37702    30.952564    68.658792     134.1201    112.96899 
  378000    230.71707   -12745.773   -11558.074   -12745.773            0    887.68423    46.947699    21.619386    21.955287   -9.2872615   -21.327583    2.8673693    22284.187    865.90938    929.97911    867.16419    29.245026   -82.056305    2.5024084    46.947699    23.529791     30.74284    68.929392    133.92701    113.24741 
  378500    227.72562   -12723.118   -11550.818   -12723.118            0    1103.1366    46.882863     21.61644    22.006122   -9.1821704   -21.836957    2.9710399    22301.898    1377.6684    1632.8577    298.88347    454.48441    47.292859   -865.58309    46.882863    23.485799    31.144007    68.780959    134.52021    113.01468 
  379000    225.12049    -12743.58   -11584.692    -12743.58            0    1014.1019    47.088177    21.585588    21.919531   -9.3253503   -21.275414     2.933073    22279.581    724.37046    1037.4986    1280.4365    393.98707   -535.96128    -440.5349    47.088177    23.513821    30.687327    68.734144    133.89162    113.36519 
  379500     230.7036   -12790.633   -11603.004   -12790.633            0    1306.3333    46.975979    21.566611    21.890401   -9.1440741    -21.69846    2.9883409    22177.443    716.86326    1438.8393    1763.2972    69.126516    584.43702   -449.08039    46.975979    23.425046    30.966805    68.754358    134.48324    112.97656 
  380000    221.98266   -12820.461   -11677.726   -12820.461            0    1547.4363    46.934211    21.589891    21.838822   -9.4722818     -21.4681    2.8161975    22129.376    2012.6687    1021.4037    1608.2366    844.36441   -801.09797    612.82425    46.934211    23.576419    30.752958    68.633832    134.27336    113.68883 
  380500    229.29076    -12669.59   -11489.234    -12669.59            0    1761.0409    46.956437    21.608194    21.919094   -9.0057616   -21.507645    3.0588074    22240.073    936.09487    2028.1246    2318.9031    197.30538   -397.39784   -137.06358    46.956437     23.40978    30.860683    68.924541    134.18098    112.62517 
  381000    232.69458   -12720.053   -11522.175   -12720.053            0    1734.5507    46.879907    21.548907    21.997286   -9.3291941   -21.565072    2.9434619    22221.895    2104.4627    1680.8412    1418.3482    986.89882    118.28211   -5.5886134    46.879907    23.481679    30.945063    68.644173    134.17742    113.40929 
  381500    233.77682   -12690.304   -11486.854   -12690.304            0    1056.2192    46.931002    21.533422    22.061038   -9.1377128   -21.433335    2.8938149    22294.556      868.438    2169.2694    130.95035    142.17305   -231.15077   -243.63955    46.931002    23.392009    30.894197    69.069536    133.92894    112.99395 
  382000    228.44915   -12738.833   -11562.809   -12738.833            0    723.18835    46.758663    21.645936    22.023752   -9.1157734   -21.479347    3.0914238    22291.011    618.03177    1486.4898    65.043423    710.51701   -69.091319   -27.830357    46.758663      23.4871    30.918682     68.79074    134.00367    112.83747 
  382500    229.30101   -12721.716   -11541.307   -12721.716            0    1027.7691    46.934884    21.583018     21.97769   -9.3955053    -21.42932    2.7914269    22263.321    1400.2091     1068.965    614.13309    307.34749   -324.96584    335.70392    46.934884    23.539375    30.822503    68.866668    134.04708    113.52442 
  383000    231.57299   -12713.235   -11521.129   -12713.235            0    1342.1236     47.16504    21.525158    21.918269    -9.090806   -21.765611    3.0159515    22252.193    1436.3425    1611.5431     978.4853   -910.68784    499.91499   -289.00322     47.16504    23.366112    31.036242    68.754488    134.53112    112.89599 
  383500    234.01895   -12724.118   -11519.421   -12724.118            0    942.00525    47.038506    21.590284    21.927627   -9.3152386   -21.504729    3.0076256    22269.143     785.7902    978.34128    1061.8843    700.81665   -341.27756   -30.275195    47.038506    23.514124    30.859683    68.558561    134.17523    113.33803 
  384000    222.26228   -12749.258   -11605.083   -12749.258            0    1158.1141    46.858663     21.56802    21.991595   -9.2334777   -21.597776    2.8376446    22225.774    994.33334    1150.7762    1329.2327    718.98017    543.92612    896.61977    46.858663    23.461385     30.95394    68.968715     134.2459    113.17624 
  384500    224.00803    -12740.18   -11587.018    -12740.18            0    893.68496    46.686548    21.765559    21.922997   -9.2175001   -21.215219    3.1732664    22277.246    1963.2308    18.793376    699.03068   -298.22132   -791.45071   -553.94281    46.686548    23.636875    30.672022    68.592623    133.76323    112.95218 
  385000     228.7594   -12733.178   -11555.556   -12733.178            0    1340.1399    46.951405    21.532446    21.991866   -9.1401578   -21.534573    2.8593571    22233.306    1395.0586    1080.1324    1545.2288   -420.29675    272.78589    575.25968    46.951405    23.392065    30.912068    69.062495    134.15802     113.0004 
  385500    235.70442   -12750.561   -11537.188   -12750.561            0    1182.3309     47.18002    21.488408    21.924998   -9.4759528   -21.738382    2.8885461    22228.079    999.76416     1495.317    1051.9114    596.16076    320.63393   -525.07529     47.18002    23.485003     31.00978    68.402539    134.50865    113.79651 
  386000    228.79413   -12715.154   -11537.354   -12715.154            0    686.37098    47.062043    21.689544    21.829024   -9.0896116   -21.503959    3.0342785    22282.069    1149.5239   -652.76341    1562.3525   -209.54229   -182.54345    517.32553    47.062043    23.517171    30.791775    68.850098    134.29613    112.73749 
  386500    232.65104   -12739.128   -11541.473   -12739.128            0    1166.4013    46.950541    21.660479    21.857617   -9.2148848   -21.541705     2.817342    22228.567    733.70733    916.76973    1848.7269    159.13103   -266.97992    1162.0837    46.950541    23.539126    30.817818    69.037185    134.34696    113.04606 
  387000    225.36584   -12732.955   -11572.804   -12732.955            0    1455.9219    47.131458    21.607374    21.830192   -9.4439097   -21.746576     3.061311    22231.584    1609.4533    768.94263    1989.3697    500.21544   -69.314266    343.84045    47.131458    23.581052    30.965181    68.170424    134.61112    113.60864 
  387500    226.54821   -12758.155   -11591.917   -12758.155            0    1036.8675    47.059335    21.557023    21.874213   -9.0148808   -21.501404    2.7564227    22190.496    843.90649    1400.5624     866.1336   -359.08581   -310.04355    200.81737    47.059335    23.366072    30.795932    69.393649    134.28195    112.69408 
  388000    228.63231   -12730.621   -11553.654   -12730.621            0    634.61599    46.948086    21.627647    21.959845   -9.4112706   -21.562509    3.0248121    22297.514    839.23125    410.73608    653.88064    52.384006    213.04069   -21.723377    46.948086    23.586588    30.924522    68.413629    134.20778    113.51627 
  388500    228.91683   -12770.032     -11591.6   -12770.032            0      323.198    46.673223    21.652569    22.059938   -9.0622093    -21.46345    3.0378194    22293.667    1270.9614    52.119142   -353.48657   -147.81361    185.93038    64.968368    46.673223    23.472482    30.928125    68.989675    133.94586    112.71068 
  389000    233.12968   -12740.236   -11540.117   -12740.236            0    302.83132    47.014952    21.530794    22.051079   -9.2505066    -21.48374    2.8514798    22321.629    218.06831    826.75854   -136.33289   -310.02794    292.16205    755.65577    47.014952    23.433885    30.918152    68.959259    134.01594    113.25033 
  389500    224.21369    -12719.08   -11564.859    -12719.08            0    744.14027    47.070715    21.564803    22.014643   -9.3417609   -21.654306    3.0247075    22346.419    1179.9697    1382.9416   -330.49051    494.72931    392.62477   -1218.7737    47.070715     23.50126    31.027445    68.477219    134.25941    113.42201 
  390000    225.65674    -12762.08   -11600.431    -12762.08            0    137.01782    47.054316    21.717998    21.835241   -9.1021293   -21.461027    2.9117971    22313.991   -136.88916   -221.93153    769.87415   -536.55492    60.909792   -120.60979    47.054316    23.548253    30.754382      69.0809    134.25237    112.73882 
  390500    229.07861   -12706.959   -11527.694   -12706.959            0    405.27657    47.044652    21.714254    21.869668   -9.3625917   -21.714293    2.8902339     22340.73    69.500725    440.02746    706.30152   -257.57535    301.27194   -145.11413    47.044652    23.646711    30.953939    68.685181    134.54775    113.32438 
  391000    226.23433   -12742.523   -11577.901   -12742.523            0    563.56202    47.167004    21.589235    21.911526   -9.2621202   -21.671086    2.9987573    22312.497   -55.599756     1143.091    603.19484    14.111015    508.00688   -428.70934    47.167004    23.492168    30.963583    68.595847    134.41814    113.22009 
  391500    238.47824   -12727.491   -11499.839   -12727.491            0    573.02365    47.161763    21.545942    21.987368   -9.1253257   -21.433802    2.8756982    22342.346   -143.50506    1570.2807    292.29531   -170.36374   -8.7438466    126.27128    47.161763    23.398701    30.840264    69.089799    134.02675    112.95405 
  392000    228.83299   -12771.395   -11593.395   -12771.395            0    742.85469     46.84408     21.63332    21.966649   -9.3533036   -21.630978    2.9757695    22260.848    918.28804    677.48609    632.78994    288.08194   -98.203724    16.226171     46.84408    23.568726    30.972376     68.57097    134.29844    113.38155 
  392500     234.1216   -12756.777   -11551.552   -12756.777            0    743.16976    46.850281    21.647778     21.96125   -9.0889441   -21.352923    2.9956975    22273.198    1176.4795    492.05497    560.97479    -937.8016   -56.656773     488.8226    46.850281    23.478398    30.776907    69.002401    133.93142    112.77538 
  393000    240.58114   -12732.216   -11493.738   -12732.216            0    1545.8008    47.009673    21.466083    22.009992    -9.299521   -21.650532    2.8863632    22210.581    1971.6304    1074.3146    1591.4573   -59.244022     213.7538    307.63072    47.009673    23.393884    31.008328     68.71745     134.2841    113.42319 
  393500     223.0858   -12722.931   -11574.517   -12722.931            0    988.82639    47.084951    21.539576    21.999655   -9.3365299   -21.660633     2.939371    22311.827    1004.9795    944.78485    1016.7148    98.367429   -102.87125   -32.175544    47.084951    23.476033    31.013025    68.608897    134.30171    113.43477 
  394000    226.65106   -12771.319   -11604.551   -12771.319            0    723.84213     46.86069    21.672272    21.958507   -9.0416084   -21.312433    2.9358158    22300.569    1042.6043    346.30621    782.61592   -1007.8711    282.78221   0.79414287     46.86069    23.482719    30.741094    69.201844    133.89095    112.64575 
  394500    229.50235    -12762.23   -11580.784    -12762.23            0    444.03276    46.872198    21.645714    21.959689   -9.3606904    -21.68731    3.0474247     22279.91    403.55469    262.02658    666.51701    192.22874    638.89594   -474.15055    46.872198    23.583033    31.013774    68.423083    134.36926    113.38607 
  395000    227.09408   -12743.425   -11574.377   -12743.425            0     915.2235    47.231637    21.576256     21.84055   -9.2284983   -21.582941    2.8458478     22257.31    336.87875    420.49612    1988.2956    -877.1955    184.68334   -267.19543    47.231637    23.466999    30.837182    68.894316    134.41897    113.15714 
  395500    220.07516   -12765.247   -11632.331   -12765.247            0     1467.692    47.111156     21.59685    21.815038   -9.1229657   -21.583118     2.986592    22195.767    1067.2275    1760.2572    1575.5912   -644.50648    94.901671   -268.70451    47.111156    23.444667    30.832557    68.800049    134.42786    112.90022 
  396000    227.34371   -12752.856   -11582.523   -12752.856            0    1374.0651    47.073107    21.629272    21.774413   -9.5346213   -21.756773     2.871986    22169.772    852.48651    916.94749    2352.7614    663.98902    1137.8153    880.65063    47.073107    23.637564    30.914892    68.353314    134.72974    113.78886 
  396500    235.67119   -12686.619   -11473.416   -12686.619            0    1100.1571     46.91897    21.670875    21.894799   -9.0577889   -21.446967    2.8973538    22262.088    2106.4971    256.53879    937.43536   -1040.9894   -232.40066    113.26509     46.91897    23.487665    30.785537    69.176313    134.15943    112.68349 
  397000     228.1028   -12765.409   -11591.168   -12765.409            0     1312.529    46.952228    21.609365    21.879302   -9.2785709   -21.565409    3.0213474    22198.912    1364.9292    807.98462    1764.6731      750.895   -417.56121    -96.25805    46.952228    23.517154    30.869066    68.557412    134.31551    113.23759 
  397500    233.96945   -12732.575   -11528.134   -12732.575            0    937.85021    47.047379     21.45015    22.083427   -9.2146935   -21.639419    2.8777702    22286.006      621.492    1700.9234    491.13519    35.591233    339.67306    358.17013    47.047379    23.345653    31.051953    68.886665    134.17705     113.2477 
  398000    229.51147   -12726.138   -11544.645   -12726.138            0    515.71757    46.870561    21.632171    22.002305   -9.1360773   -21.375876    3.0147115    22308.401    1054.2904    504.21651   -11.354177   -307.87425   -535.25483   -273.33854    46.870561    23.482307    30.823984    68.905587    133.90637    112.89616 
  398500    226.25472   -12659.906   -11495.179   -12659.906            0    703.83803    46.773629    21.678584    22.051063   -9.2981404   -21.551225    2.9894986     22359.47    984.00432    583.43109    544.07869    378.86269    466.28641   -288.44739    46.773629     23.58848    30.978086    68.720423    134.08243    113.21493 
  399000    218.75972   -12722.983   -11596.838   -12722.983            0    1103.8627    46.999559    21.586458    21.995138   -9.2051478   -21.515753    2.9377024    22315.255    970.44276    1495.5821    845.56327    321.80757   0.30564844   -253.88797    46.999559    23.467209    30.908636     68.87033    134.11559    113.09493 
  399500    224.25743   -12762.776    -11608.33   -12762.776            0    1070.4948    47.183372    21.541127     21.86576   -9.2214754   -21.559532    2.9461964    22223.987    494.71734    2116.6924    600.07457   -59.144368    48.254391   -27.143041    47.183372    23.431939    30.848095    68.725014    134.33829    113.17514 
  400000    234.71254   -12782.946   -11574.679   -12782.946            0    1234.9183    47.054157    21.567567    21.841023   -9.3968824   -21.793104    2.8386041    22165.225    1091.0354    1388.9604    1224.7591    241.13836    321.72126   -225.96143    47.054157    23.525759    30.984308    68.596656    134.69715    113.54252 
  400500    226.29233   -12690.994   -11526.073   -12690.994            0    1360.8596    47.001006     21.70988    21.777246   -9.1170257   -21.391601    3.0431656    22221.201    1744.7011    466.30365     1871.574   -590.53107    126.63375   -213.76625    47.001006    23.546529    30.677515    68.810601    134.21123    112.77988 
  401000    232.35053   -12691.315   -11495.208   -12691.315            0    1983.7047    46.886125    21.601855     21.88528   -9.3003767   -21.657449    2.8829561    22166.008    1793.4259    2155.8946    2001.7934    708.44009    669.27927    49.075542    46.886125    23.518867    30.924457    68.741929    134.45381    113.29362 
  401500    233.85264   -12706.935   -11503.095   -12706.935            0     1522.605     47.04866    21.473149    22.007086   -9.2357807   -21.534393    2.8823873    22233.382    1867.0687     1802.977     897.7693   -12.866433    26.313672    468.50378     47.04866     23.37511     30.92491    68.853366    134.13446    113.27294 
  402000    232.43789   -12723.017   -11526.459   -12723.017            0    1189.0086    46.863989    21.592058    22.039084   -9.1337918   -21.390181    3.0983614    22301.128    1650.4975    670.00295    1246.5253   -947.20375   -70.357262   -677.28859    46.863989    23.444469    30.868445    68.751774    133.86381    112.92915 
  402500    231.62785   -12715.901   -11523.514   -12715.901            0    705.41929    46.753117    21.617622    22.053189   -9.3004161   -21.516926    2.8802139    22288.965    1388.7629     1147.485   -419.99004    47.395884    113.50895   -800.90187    46.753117    23.533366    30.945386    68.882088    134.05267    113.27853 
  403000    230.84832   -12734.345   -11545.971   -12734.345            0     734.7659    47.001175     21.60779    21.955126   -9.1167767   -21.490227    3.0119945     22297.44    831.65889    971.67571     400.9631    -942.9338   -494.17733   -49.360005    47.001175    23.452339    30.869557    68.867789    134.11992    112.87589 
  403500     228.4735   -12724.956   -11548.807   -12724.956            0     1250.781    47.295663    21.559889    21.834437   -9.3994505   -21.675278    2.9864622    22264.341    843.96757    1478.8098    1429.5657   -438.17203    525.93762   -421.13768    47.295663    23.519747    30.910828    68.358335    134.52493    113.55573 
  404000    224.72557   -12755.569   -11598.714   -12755.569            0    1437.2776    47.059403    21.603101    21.836941   -9.2068506   -21.681395    2.8044042    22200.069     1465.828    1490.1511    1355.8538   -641.00779    128.70683    469.83402    47.059403    23.483187    30.899831    68.986475    134.56091    113.08282 
  404500    226.12215   -12719.643   -11555.598   -12719.643            0    1283.5748    47.025841     21.71322    21.770453   -9.3348019   -21.577649    3.0287021    22229.428    707.77403    1261.0022    1881.9482    325.26407    628.01435   -131.75899    47.025841    23.634772    30.801309    68.467878    134.47061    113.26351 
  405000    227.63555   -12759.336     -11587.5   -12759.336            0    912.01562    46.849236    21.698918    21.931113   -9.1369467   -21.563875     2.947692    22294.681    749.05577    311.93823    1675.0529   -469.47743    715.08559    143.72639    46.849236    23.544147    30.897627    68.975365    134.25985    112.83491 
  405500    238.32859   -12745.112   -11518.231   -12745.112            0    459.12132    47.110738    21.543988    21.977156   -9.3249766   -21.592238    2.8129335    22305.784    878.81609    143.91241    354.63546   -147.92435   -302.78357    360.29441    47.110738    23.475489    30.937561    68.858352    134.26113    113.40462 
  406000    238.40437   -12771.012    -11543.74   -12771.012            0    963.98702    47.057121    21.503136    22.011319   -9.2424718   -21.575335    3.1571207    22272.719    1354.4713    1126.5328    410.95694   -299.94028   -681.01416   -718.50134    47.057121    23.405302    30.983232    68.370778    134.13531    113.25899 
  406500    230.86783   -12773.872   -11585.397   -12773.872            0    952.91716    46.759338      21.5917    22.029715   -9.1481267   -21.416363    2.8477424      22241.5    1557.4617    1069.9034    231.38632    -657.3341    129.96658    141.79085    46.759338    23.449728     30.85577    69.160503    133.95392    112.96175 
  407000    224.36286   -12710.034   -11555.046   -12710.034            0    658.03198    46.464682    21.776948    22.079456   -9.3187796   -21.364742    2.9739815    22341.296    2236.1862    -539.0802     276.9899    429.86911   -119.83405    721.46376    46.464682    23.687025    30.867445    68.845978    133.80013    113.16702 
  407500    227.50051   -12750.101    -11578.96   -12750.101            0    639.81487    47.027375    21.566091    22.001373   -9.1633265   -21.473398    2.9779254    22313.719    755.90121    866.65241      296.891   -111.06931    65.788926   -333.09163    47.027375     23.43209    30.887462    68.862704    134.04428     113.0204 
  408000    229.40772   -12730.861   -11549.902   -12730.861            0     1221.577    47.048358    21.554539    21.919329   -9.2346937   -21.587618    2.9232268    22228.516    1943.9686    691.32343    1029.4391    241.30483   -143.98715   -43.210006    47.048358    23.449472    30.903519    68.774138     134.3107    113.19193 
  408500    236.13994   -12753.967   -11538.352   -12753.967            0    1152.1206    47.071846    21.664067    21.765418   -9.2871045   -21.690558    2.9290833    22195.668    866.52447    281.18412    2308.6532     156.3015    143.11954     70.20757    47.071846    23.570789     30.86735    68.648563    134.64422    113.20419 
  409000    232.23002   -12723.261   -11527.773   -12723.261            0    1115.9688    47.102187    21.690438    21.774612   -9.1995211   -21.494805    2.9718754    22246.404    989.28318    315.64062    2042.9825   -123.64164   -597.60158   -227.21123    47.102187    23.560693    30.740729    68.775534    134.36517    112.98316 
  409500    230.75765   -12785.986   -11598.079   -12785.986            0    1072.4085    47.138597    21.603101    21.795354   -9.2372736   -21.626171    2.9443122    22195.078    5.4398858    1537.0519    1674.7336   -578.30146    582.37309   -178.07444    47.138597    23.495131    30.844735    68.689429    134.51774    113.15108 
  410000    225.35939   -12739.087   -11578.969   -12739.087            0    410.79864    46.999954    21.574004    22.014562    -9.262299   -21.573539    2.8730369    22322.264    254.54566    891.55661    86.293641    51.250745   -246.83479    159.58467    46.999954    23.478241    30.956629    68.886885    134.17847    113.23515 
  410500    231.32839   -12703.176   -11512.331   -12703.176            0      462.464    46.971598    21.579683    22.057533   -9.2146395   -21.435275    3.0107575    22358.226    1169.4789   -188.66214    406.57521    87.141404   -188.46251    101.96191    46.971598    23.464703    30.904214     68.77843    133.91605    113.12274 
  411000    236.45613   -12692.129   -11474.886   -12692.129            0   -87.412303    46.827035    21.659543    22.111786    -9.147786    -21.51555    3.0235887    22426.927    171.56319    55.841567   -489.64167   -152.43065   -235.52678   -633.63493    46.827035    23.512077    30.999872    68.906924    133.95179    112.89649 
  411500    225.23249   -12772.932   -11613.467   -12772.932            0    101.35675    46.788988    21.609281    22.105259   -9.3371661   -21.372429    2.8248844    22350.105    1067.5178   -553.60007   -209.84748    344.15057   -108.84622     415.1385    46.788988    23.540257    30.877227    68.989945    133.80249    113.36872 
  412000    232.41931   -12741.398   -11544.936   -12741.398            0    566.78164    46.962609    21.587052    21.989017   -9.1081572   -21.574813    3.0128534     22292.12    220.72834    963.11655    516.50004   -903.60491    363.70694    100.03754    46.962609    23.429882    30.952653    68.860227    134.18891    112.87619 
  412500    222.92329    -12681.95   -11534.372    -12681.95            0     343.5581    47.415606    21.530488    21.920098    -9.401298   -21.623369    3.0273507    22377.815   -338.57431    833.09696    536.15163    113.60966    98.052782    658.09813    47.415606    23.493538    30.939063    68.324519    134.33897    113.58851 
  413000    224.81086   -12732.546   -11575.251   -12732.546            0    517.02094     47.03762    21.679132    21.867053   -9.2015067   -21.651722    2.8292087    22298.594    187.33036   -30.700658    1394.4331   -547.37329    497.48911    652.24603     47.03762    23.551061    30.902581     69.02132    134.47873    112.99835 
  413500    233.41154   -12741.591   -11540.021   -12741.591            0    226.55594     46.97735    21.746455    21.857456   -9.2195619   -21.516155    3.0699689    22329.377   -164.70694    -297.4362     1141.811    34.103156   -177.57173   -285.52193     46.97735    23.620089    30.823985    68.644254    134.26939    112.97486 
  414000    229.23125   -12740.224   -11560.174   -12740.224            0    791.77863    47.042243    21.600284    21.931973   -9.2650284   -21.581836    2.7486254    22285.644    862.13826    1029.8794    483.31827    164.46914    71.841262    921.25156    47.042243    23.503469    30.892427    69.074034    134.31579    113.21599 
  414500    223.25689   -12751.313   -11602.018   -12751.313            0    590.03606    47.141431    21.469673    22.025767   -9.2267771   -21.593039    2.9284855    22292.524     542.5089    1843.0944    -615.4951   -160.13067     50.62663   -246.09505    47.141431    23.368361     30.98338    68.776193    134.18068    113.25603 
  415000    227.50118   -12738.536   -11567.392   -12738.536            0    1085.4677    46.902698    21.550549    22.055176   -9.2962551   -21.427124    3.0131165    22292.907    1576.6942    799.83826    879.87063     354.7677   -670.77751   -251.63732    46.902698     23.47012    30.897109    68.639651    133.90775    113.33391 
  415500    227.99144   -12746.595   -11572.927   -12746.595            0    802.24603    46.478576    21.685415    22.099881    -9.061679   -21.424069    2.8574728     22274.63    1192.7235     590.4663    623.54826   -485.35327    512.69711    332.33577    46.478576     23.50258    30.912144    69.359113    133.87308    112.67857 
  416000    228.91115   -12762.393    -11583.99   -12762.393            0     1026.421    46.869251    21.619948     21.97195   -9.3050336   -21.428029    3.0543171    22264.414    1315.5749    1064.8305    698.85751    437.46088    9.7615854   -184.51798    46.869251    23.537328    30.842436    68.554137    134.00794    113.28661 
  416500    230.15004    -12762.67    -11577.89    -12762.67            0     600.1081    47.143719    21.471792    22.013959   -9.1654314   -21.653972    2.8910217    22283.853   -347.94499    1784.2988    363.97052   -837.30906    573.22125    461.57246    47.143719    23.346155    31.013979    68.909742     134.2828    113.11566 
  417000    227.43955   -12744.455   -11573.628   -12744.455            0    594.84145    47.091413    21.608975    21.904035   -9.2717052   -21.576315    2.9249945    22289.484    902.47557    511.14222    370.90655   -126.49592   -210.72602   -65.587877    47.091413    23.514088    30.884943    68.746485    134.31503    113.22259 
  417500    226.02544   -12705.128   -11541.581   -12705.128            0    850.55291    46.938581    21.767285     21.83076   -9.2587714   -21.588721    3.0295925    22305.044    882.70616    711.01909    957.93348    199.50194    515.31018   -499.19242    46.938581    23.654588    30.851797    68.638037    134.40741     113.0426 
  418000     230.3025   -12749.738   -11564.173   -12749.738            0    487.23558    47.099114     21.71367    21.818191   -9.2267981   -21.613523    2.7616345    22313.347    164.23897   -348.10063    1645.5684   -503.53591    536.09701    795.22247    47.099114    23.592737    30.835117    69.111183    134.50235    113.02211 
  418500     228.0976   -12718.258   -11544.044   -12718.258            0    592.84481    47.217951    21.553449    21.933616   -9.3106395   -21.629892    3.0237978    22322.054    268.42652    1455.8022    54.305748   -772.84423   -549.63336   -865.66462    47.217951    23.478483    30.952852    68.481745    134.33091    113.36334 
  419000     232.2513   -12736.691   -11541.094   -12736.691            0    768.53719    47.109066    21.482157    21.984567   -9.1885501   -21.631761    2.8546961    22248.478    400.25777    1284.1665    621.18733    112.59131   -545.12046     267.5766    47.109066    23.364771     30.97424     68.93753     134.2971    113.15782 
  419500    226.82535   -12691.869   -11524.204   -12691.869            0    848.14967     46.76207    21.681188    22.036074   -9.4129121     -21.4106    2.9765062    22341.433    1581.4102   -371.82525    1334.8641     824.3365  -0.45050118    180.05335     46.76207    23.636346    30.868462    68.612672    133.91637    113.46813 
  420000    227.85918   -12750.773   -11577.786   -12750.773            0    508.13918    46.781608     21.65012    22.008607    -9.075818   -21.467433    3.0183595    22290.921    847.31632    380.73551    296.36572   -716.05252     427.1358   -128.74322    46.781608     23.47548    30.892393    68.975542    134.02005    112.74363 
  420500    239.89638    -12698.59   -11463.637    -12698.59            0    664.90809    47.067963    21.511612    22.084789   -9.3338628   -21.530338    2.8390292     22361.02    611.27109    1153.9371    229.51612    197.20676   -171.30723     193.1526    47.067963    23.449316    30.973431    68.852172      134.037    113.45596 
  421000    232.77379   -12749.022   -11550.736   -12749.022            0    442.48912    47.322154    21.459083     22.03748   -9.1267052   -21.741258    3.1278342    22378.841   -1239.1543    1793.5504    773.07121   -283.17601    879.74833   -750.31178    47.322154    23.319283    31.114566    68.531871    134.32669    113.04041 
  421500    234.94498   -12716.714    -11507.25   -12716.714            0    1156.7253    46.886406    21.698898    21.889572   -9.2614805   -21.437459      2.90798    22270.086    865.12759    949.44822    1655.6002    119.59579     166.9149   -302.95625    46.886406    23.592736    30.776198    68.878787    134.15163    113.11366 
  422000      236.348   -12734.549   -11517.863   -12734.549            0    698.66649     46.91791    21.761022    21.826154      -9.2305   -21.646047    2.8398188    22284.103    826.94077    590.53984    678.51887   -816.69093    1052.0049   -222.51222     46.91791    23.637771    30.870648    68.991982    134.52218    112.98548 
  422500    227.02609   -12700.156   -11531.458   -12700.156            0    1025.8524    47.331501    21.540668    21.825044   -9.2783006   -21.618523    3.0353563    22251.771    404.45397    927.57382    1745.5293   -187.52034    117.09284   -176.11879    47.331501    23.453939    30.869183     68.44739    134.45325    113.30319 
  423000    232.27745   -12741.259   -11545.528   -12741.259            0    1285.1844    47.174537    21.420911    21.976172   -9.2847255    -21.66549    2.8053451    22207.396    628.93819    1922.6027    1304.0122   -368.57726    204.11623   -40.576199    47.174537    23.346554    30.987345    68.831028    134.36063    113.43394 
  423500    233.08332   -12766.129   -11566.249   -12766.129            0    1783.9207    46.804216    21.624606    21.934008   -9.2095244   -21.402127    3.0303503    22199.908    1937.2788     1650.272    1764.2113    274.61361   -490.20519   -466.10429    46.804216    23.504019    30.795045    68.724667    134.02611    113.06827 
  424000    226.03545   -12763.085   -11599.487   -12763.085            0    366.78623     46.64417    21.742591    22.017352   -9.1655028   -21.398587    2.9758205     22329.23     727.6107    75.323471    297.42451    438.38234   -103.58502   -535.61107     46.64417     23.59548    30.846698     69.00039    133.92431    112.85766 
  424500    237.91755   -12732.604   -11507.838   -12732.604            0    77.669354     47.15204    21.598529     22.02755   -9.3219081   -21.588766    2.8811042    22433.182   -648.81232   -146.54277    1028.3632   -79.322618    870.34533    711.03824     47.15204    23.524337    30.977226     68.80392    134.18072    113.34499 
  425000    235.70325   -12729.761   -11516.394   -12729.761            0    263.23029    47.180489    21.594825    21.936212   -9.2206695   -21.585354    2.9953106    22349.807   -347.39817    873.21897    263.87006    531.55215   -481.79766    259.27268    47.180489    23.480997    30.920815    68.702075    134.27356    113.12176 
  425500    235.00396   -12717.077    -11507.31   -12717.077            0    385.24918    47.046655    21.668552    21.919154   -9.2643388   -21.652194    2.9005119    22345.105    169.15439   -41.180424    1027.7736    567.69696    359.49873    298.80547    47.046655    23.565952    30.946401     68.82384    134.40034    113.14902 
  426000    232.93781   -12738.974   -11539.843   -12738.974            0      871.053    47.065924    21.643351    21.862214   -9.3380683   -21.482568    2.8364697    22270.258    460.58683    1703.9638    448.60834    846.75998   -158.96757    28.043284    47.065924    23.571894    30.781531    68.833096    134.25912    113.33788 
  426500    229.04744    -12739.67   -11560.566    -12739.67            0    1053.7459    47.097307    21.582945    21.879521   -9.1339832   -21.725922    3.0240175    22240.502     487.9432     1542.461    1130.8337     297.9173   -116.16617    26.541164    47.097307    23.436151    30.981831    68.703679    134.52715    112.93826 
  427000    230.01281   -12735.845   -11551.772   -12735.845            0    1596.4981    47.113804    21.510085    21.890317   -9.3749785   -21.482062    2.9107459    22184.128    1508.7769     1508.048    1772.6692    67.771568   -723.35075    543.99565    47.113804    23.464313    30.808074    68.579706    134.20972    113.54955 
  427500    231.83885   -12713.398   -11519.924   -12713.398            0    1373.6312    46.912747     21.57864    21.949195   -9.1890477   -21.536991    2.8819256    22219.461    635.08669    1441.1005    2044.7063    648.01651    -106.5502    534.18902    46.912747    23.453705    30.885508    68.957799    134.21214    113.06624 
  428000    234.34176   -12756.206   -11549.847   -12756.206            0    1612.2074    46.608732    21.653305     21.96107   -9.2499873   -21.357813    3.0906629    22163.838    2629.9704    377.22098    1829.4306    497.80839   -435.16242    425.79817    46.608732    23.546292    30.789559    68.603887    133.92138    113.13149 
  428500     222.8753   -12691.176   -11543.845   -12691.176            0     1216.679    46.764248    21.550792    22.134535   -9.1188062   -21.388317    2.9262279     22307.33    2075.7536    1584.1308   -9.8475644   -65.407074   -903.87106     350.9686    46.764248    23.400625    30.918612    69.100576    133.76974    112.93472 
  429000    230.70954   -12711.746   -11524.086   -12711.746            0    872.78317    46.920099    21.498826    22.141484   -9.2793671   -21.559926    2.9347701    22334.713    727.45636    1401.5851    489.30807    331.40016    12.952515   -195.44606    46.920099    23.415939    31.043334    68.775608    133.98823    113.34609 
  429500    234.39192   -12708.107    -11501.49   -12708.107            0    566.45717    46.922711    21.603308    22.074123    -9.156622   -21.442735    3.0387631    22376.224    1368.8924    133.41096    197.06814    229.62522   -303.66773   -10.403071    46.922711     23.46373    30.923969    68.833995        133.9    112.96979 
  430000    228.74512   -12781.632   -11604.084   -12781.632            0    1212.0902    46.863872     21.60477    21.939737   -9.2404833    -21.49259    2.8706965    22213.615     1237.915    713.45975    1684.8957   -143.24701   -481.11381    482.96511    46.863872    23.497928    30.846789    68.926759    134.16707    113.15667 
  430500    234.95737   -12736.655   -11527.128   -12736.655            0    1157.0166    47.059081    21.620852    21.864338   -9.3039901   -21.617459    2.9372478    22246.033     1126.289    534.29934    1810.4615      202.993    426.89237    745.24128    47.059081    23.537746    30.886748    68.653539    134.41852    113.28341 
  431000    224.97404   -12766.286   -11608.152   -12766.286            0    1423.7964    47.305315    21.570886     21.72796   -9.1747519   -21.720858    2.9433834    22171.591    296.51841    2512.1995    1462.6713   -470.85975    356.77603   -399.48046    47.305315    23.440972    30.863626    68.702357    134.73017    113.04152 
  431500    224.20581   -12710.257   -11556.077   -12710.257            0    1320.4964    47.220225    21.563457    21.817676   -9.3481659   -21.716354     2.881555    22215.441    1604.7391    966.10086    1390.6493    487.54863   -843.09045   -116.65227    47.220225    23.502572    30.917865    68.599417    134.61895    113.43764 
  432000     234.0672   -12724.129   -11519.184   -12724.129            0    1557.5215    46.978642    21.695035    21.775024   -9.2130725   -21.568858    2.9342268    22193.175    944.59671    2101.7275    1626.2403   -63.760161    69.379933   -408.46427    46.978642    23.570219    30.789235    68.805132    134.46974    113.00912 
  432500    234.44098   -12763.578   -11556.709   -12763.578            0    1292.0903    46.869854     21.61266    21.952114   -9.2615169   -21.490395    2.9347145    22237.101    1798.2319    441.28699    1636.7521    1208.7901   -629.49111    412.31073    46.869854    23.513459    30.860086    68.795261    134.13741    113.19623 
  433000    229.29035   -12740.161   -11559.807   -12740.161            0    850.59309    46.909693     21.53857    22.041971   -9.2460596   -21.506336    2.9344589    22270.495    2218.7329    758.02333   -424.97693    508.69813   -357.95697   -202.06078    46.909693    23.439275    30.935126    68.813556    134.04377    113.23284 
  433500    234.26206   -12744.762   -11538.814   -12744.762            0    1280.8397    46.782275    21.498487    22.128713   -9.1039819   -21.363943    2.8997586    22255.912    1601.6516    1508.1218    732.74554   -1085.9904    70.467535   -56.792733    46.782275    23.346679     30.89509    69.140549    133.74893    112.95124 
  434000    232.79522   -12735.164   -11536.767   -12735.164            0    1370.1722    46.790573    21.561705    22.072557   -9.2433848   -21.487396    3.0382974    22268.661    1991.4074    979.20274    1139.9065   -17.538018   -30.103731   -223.91381    46.790573    23.459481    30.953791     68.67047    133.96163    113.20455 
  434500    238.00723     -12727.5   -11502.272     -12727.5            0     1303.359    46.716905    21.661916    22.020484    -9.110297   -21.444197    2.8230919    22284.238    1118.1942    1512.2416    1279.6412    -39.98803   -284.87527     577.8395    46.716905    23.499705    30.866246    69.289492    134.00697    112.81004 
  435000     224.0634   -12772.544   -11619.097   -12772.544            0    1197.7876    47.081378    21.610128    21.849295   -9.2829897   -21.552344    3.1217836    22230.229     1414.598    786.55208    1392.2128   -657.95872    355.17461   -127.95979    47.081378    23.519599    30.848675    68.362614    134.31858    113.24675 
  435500    227.06477   -12756.977   -11588.079   -12756.977            0    1393.2179     47.12841    21.492629    21.867365   -9.2543408   -21.644026    2.9117604    22149.747    875.40824    2090.8662    1213.3794   -19.819096    212.51173    518.08818     47.12841     23.40034    30.905078    68.684424    134.45419    113.29585 
  436000    238.15432   -12738.267   -11512.283   -12738.267            0    1437.0948    47.093725    21.603249    21.830799   -9.3200412   -21.615141    2.8939131    22210.163    376.58839    1741.3392    2193.3568   -572.18623    819.66897   -268.77315    47.093725    23.527931    30.857297     68.67895     134.4661    113.33626 
  436500    228.61868   -12771.049   -11594.153   -12771.049            0    1273.2165    46.830033    21.787622    21.750846   -9.1082866    -21.43564    3.0008998    22192.715    1515.1225     656.5826    1647.9443   -578.82831    464.87961    233.94052    46.830033    23.614854    30.685361    68.920354    134.31178     112.6873 
  437000    227.30572   -12734.674   -11564.536   -12734.674            0    947.40651     46.94157    21.663439     21.91353   -9.3025035   -21.659195    2.8846663    22284.215    789.09308    293.91728    1759.2092    63.664051    456.05388    887.37537     46.94157    23.576284    30.945837    68.788237    134.41951    113.23918 
  437500    237.77844   -12721.557   -11497.507   -12721.557            0    629.82958    47.277077     21.49229     21.97657   -9.2602111   -21.546367    2.9878756    22330.231    75.846075     1477.602    336.04069   -361.33421   -164.72245   -546.84469    47.277077    23.402351    30.921561     68.62536     134.1714    113.30937 
  438000    224.22154   -12714.147   -11559.886   -12714.147            0    746.24689    47.113383    21.485454    22.054026   -9.2047859   -21.636506    2.8815162    22324.241    956.97657    786.98048    494.78364   -632.33137    407.21888    481.96851    47.113383    23.374191    31.029366    68.902598    134.21008    113.19123 
  438500    234.16538   -12750.966   -11545.515   -12750.966            0    1192.4942    46.711071    21.695671    21.954355    -9.290152   -21.429468    2.9940043     22249.16    1726.1408    364.35238    1486.9894    692.95437    180.43439    421.96303    46.711071     23.60104    30.824988      68.7191    134.04299    113.18076 
  439000    235.90482   -12735.502   -11521.097   -12735.502            0    430.36323    46.687759    21.708812    21.960732   -9.0566584   -21.377264    2.8499791    22257.987    1762.0403   -205.27836   -265.67228   -468.14287   -531.78336    269.79033    46.687759    23.522235    30.779596    69.337327    133.98955    112.64532 
  439500    230.28894   -12684.877   -11499.382   -12684.877            0    711.86026    47.251422    21.520681    21.950676   -9.4447274   -21.717495    3.0129985    22321.264    146.96041    816.11011    1172.5103   -272.59131    202.06681   -196.36673    47.251422     23.50197     31.02515    68.269892    134.42672    113.69511 
  440000    228.17224   -12783.257   -11608.659   -12783.257            0    708.72861    47.228033    21.466876    21.909966   -9.1648496   -21.633438    2.9360954    22213.164    288.50116    1313.6643    524.02041   -1026.8835    132.92148   -385.65885    47.228033    23.341406    30.930129    68.781258    134.38123    113.11908 
  440500    226.44247    -12739.39   -11573.697    -12739.39            0    1866.5658    46.919955    21.618386    21.873573   -9.2063881   -21.519942    2.8491918    22187.103     2320.446     899.9816    2379.2697    113.78507    33.201154    615.64722    46.919955    23.497068    30.816863    68.981394    134.29214    113.06717 
  441000    219.67478    -12771.26   -11640.406    -12771.26            0    1242.1762    46.819039    21.683472    21.864018   -9.2829085   -21.579767     3.166013    22196.336    1598.0463    872.70241    1255.7799   -37.146619    194.45827   -537.29357    46.819039    23.586974    30.882767    68.330629    134.32793    113.17625 
  441500    229.75496    -12709.84   -11527.093    -12709.84            0    1697.0944     46.91521    21.581713    21.931749   -9.0797117   -21.407317    2.7750899    22206.129    1913.9446    1625.4196    1551.9189   -19.117438   -720.21402    554.65179     46.91521    23.413917    30.772975    69.335765    134.07929    112.81713 
  442000    232.12389   -12746.423   -11551.482   -12746.423            0    1987.7131    47.159461    21.420731    21.917954   -9.4579019   -21.722339    2.9274872    22141.302    1803.8966    2347.4295    1811.8133      758.122    303.96528   -205.02491    47.159461    23.415799    30.997208    68.318227    134.48992    113.82291 
  442500    232.46426    -12715.71   -11519.017    -12715.71            0    1267.8718    46.916425    21.591177    21.924041   -9.1801921   -21.472179     3.030716    22208.634    1033.6691    2023.9017    746.04463    3.2486743   -164.34044   -979.93339    46.916425    23.461774     30.83672    68.721339    134.13238    113.03435 
  443000    228.83269   -12741.394   -11563.396   -12741.394            0    1594.3082    46.795545    21.613516    21.906942   -9.1075015   -21.345969     2.796022    22157.037    1801.1618      1646.86    1334.9029   -328.89926   -363.43174    352.64765    46.795545    23.454011    30.714528    69.282612    134.02559    112.84958 
  443500    227.52294   -12708.569   -11537.313   -12708.569            0    2109.8208     46.81694     21.54651    21.959711    -9.428074   -21.657738    3.1218142    22151.676    2504.2522    2606.1026    1219.1077    587.64351     163.4373   -1137.0288     46.81694    23.518943     31.00052    68.141515    134.31679    113.63267 
  444000    227.35524   -12720.075   -11549.682   -12720.075            0    812.90911     47.15986    21.537962    21.977556   -9.1225676   -21.499858    2.9007607    22323.203    494.64732    1689.5704    254.50957    -580.4562   -228.36228   -1081.6091     47.15986    23.390277    30.881569    69.021153     134.1232    112.95546 
  444500    226.14852   -12754.761    -11590.58   -12754.761            0    278.23227    46.983399    21.674447    21.886103   -9.2847613   -21.553558    2.9682747    22287.476    171.54073    141.78199    521.37408   -443.94328    654.48575    101.35619    46.983399    23.579407     30.86046    68.689196    134.30037    113.18901 
  445000    230.65166   -12711.404   -11524.042   -12711.404            0    927.09837    46.938278    21.717177    21.860308   -9.2998563   -21.712616    2.9872261    22283.674    1299.1924    581.62855    900.47413     467.9627    517.89809    87.816857    46.938278    23.624629    30.955359    68.603307     134.5408    113.18186 
  445500    233.28284   -12726.336   -11525.428   -12726.336            0    803.41167    47.048938    21.609594    21.938417   -9.1484653   -21.483214    2.8731063    22304.974    1593.4045    495.18728    321.64325   -271.72698   -59.393368    5.5933891    47.048938    23.466337    30.839542    69.061266    134.15586    112.94547 
  446000    238.10773   -12750.348   -11524.603   -12750.348            0     1308.301    47.138626     21.54816    21.878069   -9.4235017   -21.652218    3.1025774    22222.663    868.81024    1887.6587    1168.4342    24.951678    690.03571   -55.749439    47.138626    23.518622    30.936943    68.141515    134.41756    113.62086 
  446500    231.71635   -12754.051   -11561.208   -12754.051            0    949.61823    46.886877    21.543746    22.005698   -9.0128775   -21.480285    2.7394302    22228.372     1772.356    1016.3558    60.142861   -8.8333233   -561.12032    41.522777    46.886877     23.35305    30.873255    69.489597    134.08758    112.70211 
  447000    231.43392   -12716.577   -11525.188   -12716.577            0    1625.9605    46.752396      21.6461    21.984976   -9.2888696   -21.350377    3.0016085    22248.951    2411.8571     1257.183    1208.8413     95.85922   -468.29358    82.249311    46.752396    23.554973    30.792653    68.715212    133.89663    113.22535 
  447500    227.83696   -12738.641   -11565.768   -12738.641            0    463.16626    46.642881    21.651399    22.088669   -9.1079598   -21.510617    2.9903888    22306.986    1689.0178    145.86044   -445.37942   -19.348867    197.38216   -126.55644    46.642881    23.489104    30.976739    69.007613    133.98037    112.81473 
  448000    224.01887   -12699.385   -11546.167   -12699.385            0    1032.2569    47.138135    21.462944    22.028369   -9.2766104   -21.435703    2.8692069    22286.611    851.28811    2280.0377   -34.555047   -9.6097134   -406.67433   -444.56394    47.138135    23.381905    30.870225    68.850224    133.97793    113.37473 
  448500    223.63337    -12733.24   -11582.007    -12733.24            0    264.09189    47.048878    21.555827     22.01834   -9.3588777   -21.741392      2.99461    22330.505   -471.07025    822.67605    440.66987   -49.927493     377.3273    178.33894    47.048878    23.499836     31.08799    68.476884    134.37489      113.469 
  449000    223.82622   -12729.797   -11577.571   -12729.797            0     526.9964    46.956171    21.707337     21.90215   -9.0451014   -21.285579    2.9976606    22324.718    1368.6625   -480.70298     693.0297   -895.90818    67.198983   -103.58806    46.956171    23.516427    30.688207    69.087094    133.91638    112.62071 
  449500    219.42496   -12703.265   -11573.697   -12703.265            0    874.12496    46.886506    21.656512    21.935233   -9.3594846   -21.636981    2.9094285    22272.996    1123.5161    809.75366    689.10511    617.83112    641.24474    202.94143    46.886506    23.592466    30.947992     68.67515    134.35805    113.37298 
  450000    225.27453   -12698.475   -11538.794   -12698.475            0    1165.8089    47.103067    21.578015    21.942742   -9.3065958   -21.704798    2.9203644    22302.399     455.9462    1041.9685    1999.5119    375.60286    741.01825    106.00057    47.103067    23.499435    31.001786    68.668254    134.43619    113.33053 
  450500     224.8713   -12695.269   -11537.663   -12695.269            0    728.33706    47.338457    21.567004    21.896349   -9.1193825   -21.402914    3.0781171    22355.049    383.82981    1582.7594    218.42193   -270.46399   -528.05599   -422.35588    47.338457    23.415781    30.773521    68.715928    134.06689    112.92056 
  451000    217.21325   -12760.738   -11642.555   -12760.738            0    960.06493     46.86553    21.589341    21.981192   -9.3071636   -21.667483     2.900524     22240.48    995.81311    843.10584    1041.2758    285.48855    676.08171   -59.199737     46.86553     23.51006    31.001059    68.739452      134.341    113.32087 
  451500    234.39813   -12785.765   -11579.117   -12785.765            0    400.87143    46.730771    21.690041    21.980221   -9.1994545   -21.345373    2.8640062    22278.984    51.165806    213.80544    937.64304    552.73081    514.28536    334.79899    46.730771    23.560303    30.772676       69.113     133.9195    112.98339 
  452000    230.30893   -12714.418    -11528.82   -12714.418            0    1016.4423    46.879071    21.579003    22.020475   -9.0764247   -21.508037    3.1916247    22275.992    1548.7791    1131.0585    369.48936   -166.85433    247.63998   -738.54855    46.879071    23.410144    30.946461    68.621309    134.02785    112.81229 
  452500    234.78231   -12788.616    -11579.99   -12788.616            0    1418.7114     47.00992    21.461902    22.021223   -9.3411114   -21.601172    2.8160519    22217.703    1737.2058    1367.6472    1151.2811     193.6417    130.71095   -205.33542     47.00992    23.406614    30.975394    68.797589    134.21602    113.52068 
  453000    224.57867   -12763.749    -11607.65   -12763.749            0     1675.926    46.890345    21.620883    21.879024   -9.0914225   -21.375181    2.9431638    22181.187    1533.8731    1295.9641    2197.9407   -1028.6983   -463.00557    7.1834869    46.890345    23.454563    30.728688    69.027348    134.07584     112.8064 
  453500    229.75184   -12669.456   -11486.726   -12669.456            0     1158.665    46.909534    21.668644    21.925698   -9.2396524    -21.66229    3.1330952    22286.726    1683.3303    234.82194    1557.8427    238.42884    345.75707    -3.542606    46.909534    23.556343    30.980757    68.451743    134.36426    113.09372 
  454000     225.6078   -12684.208   -11522.811   -12684.208            0    428.47801    47.065176    21.618786     21.93545   -9.3574404   -21.492725    2.6853642    22319.145   -545.65099     1149.503      681.582     455.7995   -150.59594    715.41064    47.065176    23.557028    30.827137    69.090745    134.20291    113.40481 
  454500    235.96843   -12737.949   -11523.217   -12737.949            0    6.4628365    47.159449    21.603025    21.934113   -9.2359585   -21.746689    3.0407937    22346.184   -653.83976   -404.78719    1078.0155    111.84579    6.5321348    68.780823    47.159449    23.494544    31.036595    68.559729     134.4815     113.1482 
  455000    230.50719   -12733.156   -11546.537   -12733.156            0    308.66133     47.03028    21.628405    21.962582   -9.2330857   -21.443556    3.0726225    22340.118    560.02662    585.57693   -219.61954    8.0809706   -155.75898   -584.93114     47.03028    23.516755    30.848373    68.621636    134.03739    113.11746 
  455500    229.06998   -12757.503   -11578.283   -12757.503            0    289.56702    46.829247    21.563557    22.085302   -9.3055357   -21.701829    2.6597629    22301.851    231.24507    492.46038    144.99562    109.09681    1124.5634    550.36171    46.829247     23.48574    31.077392    69.190157    134.29202    113.34213 
  456000    235.53919   -12716.015   -11503.493   -12716.015            0    1010.3544    46.930432    21.607672    21.986931   -9.2122109   -21.519611    3.0147171    22296.009    913.20863    1273.7934    844.06103    122.01994   -53.905193    457.07964    46.930432    23.489493    30.912899    68.732416    134.11789    113.09048 
  456500    223.67694   -12737.654   -11586.196   -12737.654            0    1099.3697    46.827994    21.619525    21.990753   -9.1405538   -21.351438    3.0110966    22263.416    1543.0769    1135.4531    619.57912   -614.43806   -614.30994   -11.846202    46.827994    23.472401    30.798438    68.898644    133.88901    112.91823 
  457000    235.05909   -12792.608   -11582.557   -12792.608            0    781.49235     47.02405    21.549212    21.944952     -9.42202   -21.804761    2.7704985    22237.505    919.14532    663.94272    761.38899    466.92313    24.819203    143.40848     47.02405    23.518993    31.059687    68.717288    134.58991    113.61652 
  457500    229.10293   -12693.835   -11514.446   -12693.835            0    281.25822     47.19103     21.65091    21.907328   -9.1868142   -21.402568    3.0926227    22383.347   -495.20534    407.20282    931.77718   -1.0360554   -811.60395    413.12092     47.19103    23.519342    30.782548    68.649794    134.04974    112.99226 
  458000    227.51601   -12750.956   -11579.736   -12750.956            0    391.10862    47.046173    21.569463    21.961209   -9.2452262   -21.768958    2.8852392    22285.372    689.50422    274.07033    209.75131   -580.33812    678.83534    258.64615    47.046173    23.467338     31.05651    68.805474    134.50301    113.20122 
  458500    231.04967    -12747.67   -11558.259    -12747.67            0    352.14825    47.007453    21.626962    21.958455   -9.3752628   -21.529132    2.8364904    22323.589    714.34589    9.4590161    332.63983   -74.573005    207.17736    154.81667    47.007453    23.571615    30.882405    68.804896     134.1974    113.43668 
  459000    228.43597   -12738.315   -11562.359   -12738.315            0    214.11426    47.009944    21.664741    21.912322    -8.998371   -21.470194    3.1233795    22316.785   -40.923527   -661.53779    1344.8041   -1105.1357     94.33347   -279.12558    47.009944    23.459149    30.836254    68.862211    134.12808    112.55538 
  459500    223.43854   -12724.659   -11574.429   -12724.659            0    802.02713      47.0522    21.559539    21.977002   -9.4197704   -21.648554    2.7883638    22293.992    662.11948    1429.9856     313.9763    322.82654    200.25251   -115.82821      47.0522    23.527554    30.974562    68.757468    134.33994    113.60143 
  460000     221.9689   -12666.262   -11523.597   -12666.262            0    1293.1253    46.930748    21.637165     21.95874   -9.2496275   -21.523557    2.9435717    22297.966    2075.0079    690.17105    1114.1971    872.04589   -208.15272    217.12057    46.930748    23.531309    30.888742    68.806113    134.17156    113.14612 
  460500    226.75483   -12718.337   -11551.035   -12718.337            0    519.06021    46.888799    21.693952    21.992198   -8.9986936   -21.562583    3.1052721    22370.538    391.51672   -74.410048     1240.074   -393.16082    245.57629    867.92687    46.888799    23.486253    30.955524    68.927663    134.15218    112.52877 
  461000    232.33898   -12687.283   -11491.235   -12687.283            0    331.60364    47.078003    21.584603    21.992856   -9.4732063   -21.562449    2.8284218    22348.261      531.259    470.51115   -6.9592212    368.10825   -94.289991   -95.513188    47.078003    23.571948    30.929353     68.65933    134.19892    113.69606 
  461500    224.57797   -12756.727   -11600.632   -12756.727            0    832.94559    46.996905    21.610734    21.893315   -9.0700283   -21.759346    2.9931495    22235.675      865.355    1451.7939    181.68791   -830.01654    580.63817   -1030.8904    46.996905    23.436921    31.012019    68.867304    134.55892     112.7678 
  462000    225.01024   -12713.157   -11554.836   -12713.157            0     1029.211    47.030907    21.618094    21.909428   -9.4651879   -21.315676    3.0311579    22275.723    1077.5977    886.65882    1123.3766   -594.46572   -24.381746    -131.1887    47.030907    23.599402    30.717568    68.363845    133.94158    113.64555 
  462500    238.03503   -12711.768   -11486.397   -12711.768            0    1036.6814    46.854209    21.554344     22.04857   -9.1681346   -21.655105    2.8531075    22267.109    1258.5594    1332.8984    518.58621   -788.95948    471.89161    203.52662    46.854209    23.423161    31.035838    69.040894    134.24638    113.04246 
  463000    233.47699   -12708.765   -11506.859   -12708.765            0     1341.006    46.903634    21.546251    22.050979    -9.172807    -21.31667    3.0979539    22284.664    1920.6398    1202.6677    899.71037   -877.25608   -370.84118    284.46951    46.903634    23.417543    30.826019    68.694635    133.75019    113.06073 
  463500    230.72921   -12754.204   -11566.443   -12754.204            0     759.1835    46.918709    21.560718     22.01411   -9.2508589   -21.540829    2.9286141    22269.497    309.62408     1235.537    732.38941    302.47092     353.4836    240.40428    46.918709    23.461521    30.938732    68.806615    134.12623    113.22227 
  464000    229.69638   -12726.086   -11543.642   -12726.086            0    1151.8995    46.788945    21.635595    21.989061   -9.1907353   -21.483808    2.8231675    22259.673    1514.6866     258.4429    1682.5689    79.982874    241.40689    813.07862    46.788945    23.506777    30.871396    69.129344    134.10002    113.01564 
  464500    230.35462   -12728.116   -11542.283   -12728.116            0    1156.3542     47.08329    21.621155    21.860642   -9.2549946   -21.523511     3.148199    22254.027    1988.2894    580.01667     900.7564   -760.43984   -660.97396   -69.107657     47.08329      23.5187    30.839266    68.377302     134.2608    113.17348 
  465000    231.61773   -12749.533   -11557.198   -12749.533            0    1005.6594     47.17537    21.486846    21.901985   -9.1207467   -21.695598    2.7087826    22200.945    914.02798    1243.8718    859.07845   -428.31398   -269.84184   -29.010632     47.17537    23.342506    30.947269     69.23744    134.51135    113.00027 
  465500    231.74017   -12764.572   -11571.606   -12764.572            0    1231.3404    46.998573    21.586267    21.916793   -9.3327236    -21.54252    2.9823401    22235.107    1270.0083    699.60414    1724.4087   -156.91102    596.54691    697.67044    46.998573    23.517369    30.875887    68.558993    134.24384    113.38102 
  466000    233.45592   -12726.144   -11524.346   -12726.144            0    940.46768    46.965398    21.660315    21.920814   -9.0752382    -21.55669    3.0351634    22299.722    206.25255    926.81831    1688.3322   -521.20577    489.22048   -301.57912    46.965398    23.484659    30.893773    68.884228    134.24821    112.73271 
  466500    229.90743   -12730.549   -11547.018   -12730.549            0    393.26959    46.995979    21.651361    21.950261   -9.4900044    -21.55053    2.7815455    22334.981    379.77728    279.72247    520.30901   -36.785474     304.1344     476.8649    46.995979    23.639831    30.886507    68.741237    134.24539    113.66831 
  467000    230.29996   -12703.639   -11518.087   -12703.639            0    518.27732    47.132263    21.549314    21.999482   -9.1748246   -21.699831    3.0035029    22344.168    58.294884    1544.8263   -48.289184   -12.230194   -172.63449   -802.84716    47.132263    23.421152    31.046431    68.727068    134.34264    113.06234 
  467500    222.31061    -12751.25   -11606.826    -12751.25            0    562.01248    47.007239    21.609476    21.962643   -9.1803659   -21.478453    3.0372773    22309.692    1204.4796    399.58686    81.971032   -533.84633  -0.31224272   -623.85314    47.007239    23.478683    30.869187    68.738923    134.09016    113.01727 
  468000    224.33808   -12715.853   -11560.992   -12715.853            0    659.05987    46.838222    21.609279    22.026058   -9.5144937    -21.63295    2.6795499    22293.459    147.10954    1093.7263    736.34372    394.20143    469.77813    207.32156    46.838222    23.611153    30.988897    68.872638    134.27374    113.76373 
  468500    223.65954   -12723.971   -11572.604   -12723.971            0    521.92009      47.0929    21.600803    21.957437   -9.1778394   -21.609232    3.0399346    22336.081    113.03671    1608.7149   -155.99131    144.97212     47.17118   -1042.0423      47.0929    23.469713    30.956892    68.693978    134.27018    113.01987 
  469000    232.53096   -12727.711   -11530.674   -12727.711            0    243.90096    47.157036    21.591779    21.962349   -9.3318752   -21.616614    3.0876603    22362.158    64.004747    623.14837    44.549776    187.86198   -19.013257    -184.9493    47.157036    23.522092    30.970251    68.381526    134.26516     113.3738 
  469500    227.32894   -12738.609   -11568.352   -12738.609            0     19.13444    46.852492    21.644499    22.073271   -9.2246076   -21.610111    2.6867308    22384.476   -9.2038211    287.35736   -220.75022    393.06633    483.48799    695.18905    46.852492    23.528232    31.007172    69.331707    134.18194    113.08308 
  470000    229.27938   -12713.062   -11532.765   -12713.062            0    977.42403    46.897961    21.695039    21.958911   -9.2628022   -21.463541    3.1212956    22342.162     1138.973      1906.53   -113.23091    57.062134   -105.44495   -694.21116    46.897961    23.589706    30.864541    68.526643    134.05998    113.12029 
  470500    228.75331    -12723.31   -11545.721    -12723.31            0    621.87645    47.008391    21.588249    22.001863   -9.2196827   -21.556886    2.9750502    22328.125    516.14426    1306.2734    43.211684    230.43123   -212.30701   -469.99735    47.008391    23.474562    30.945633    68.776568    134.15526    113.12585 
  471000    227.58539   -12724.047    -11552.47   -12724.047            0     999.5223    47.018984    21.479396    22.030666   -9.3490506   -21.603933    2.7182125    22249.638    1363.6831    1183.7104    451.17335      10.7705   -226.78789    437.69343    47.018984    23.425824    30.975294    68.972743    134.22333    113.52141 
  471500    228.00106   -12703.991   -11530.274   -12703.991            0    1278.8109    46.937902    21.637724    21.927534   -9.1404268   -21.494414    3.1852756    22270.247    1726.9842    1214.2155    895.23318   -9.2764162   -596.11558   -504.02677    46.937902    23.489115    30.870253    68.531018     134.1295    112.90066 
  472000    230.86896   -12715.023   -11526.542   -12715.023            0    1450.6125    46.843322    21.633268    21.902536   -9.2371899   -21.454422    2.7979396    22195.464    1771.3114    1527.8723    1052.6538   -199.88276    498.95192    596.19703    46.843322    23.522839    30.787039    69.069679    134.17605      113.122 
  472500    232.46609    -12734.68   -11537.978    -12734.68            0    600.35891    47.124499    21.508827    22.030304   -9.3304238   -21.762329    2.9222287    22329.756    1259.3226    726.06169   -184.30757    262.40197    94.452808   -79.285395    47.124499    23.445393    31.104223     68.61529     134.3996    113.45096 
  473000    232.10622   -12701.249   -11506.399   -12701.249            0    1596.1839    47.114444    21.534955    21.940668   -9.1667216   -21.487094     3.134775    22261.166    1563.4497    1871.5053    1353.5966   -361.72466   -58.152007   -604.98718    47.114444    23.404766     30.86932    68.527251    134.11225    113.05786 
  473500    234.31836   -12696.962   -11490.724   -12696.962            0    1465.6218    46.807143    21.628976    21.980926   -9.2253287   -21.557121    2.7326142    22253.281    1599.3611    2045.3166    752.18776   -261.13911   -424.25159    192.73768    46.807143    23.514236    30.908539     69.20955    134.22267    113.09953 
  474000     231.0588   -12743.385   -11553.927   -12743.385            0    1726.6444    46.726447    21.768934    21.850449    -9.247448   -21.461826     3.116185    22225.948    1816.2422    1509.9081     1853.783    624.38417    1019.7417    208.99694    46.726447    23.651676    30.785755    68.547279    134.19759     113.0158 
  474500    239.63322   -12760.737   -11527.139   -12760.737            0    1110.7862    46.969187    21.603147    21.908089   -9.1987511   -21.471109    2.8882742     22229.75    1477.7729    1135.5538    719.03194   -29.997589   -1066.1441   -318.85173    46.969187    23.480055    30.810956    68.945321     134.1761     113.0646 
  475000    235.87759   -12784.471   -11570.207   -12784.471            0    1549.6406    47.216737    21.367035    21.922385   -9.3818777   -21.724908    2.9048474    22117.093     803.9763    1992.6842    1852.2613     538.8733    384.86928    75.239906    47.216737     23.33602    31.000012    68.435697    134.49148    113.70541 
  475500     227.0298   -12736.475   -11567.758   -12736.475            0    1269.3988    47.059336    21.571039     21.90003   -9.1821671   -21.486385    3.0052763    22231.131    817.34667    2140.9457    849.90404    350.97757    10.492731   -178.32706    47.059336    23.444016    30.827062    68.734614    134.18661    113.05805 
  476000    243.16717    -12735.43    -11483.64    -12735.43            0    1040.4975    46.696297    21.735587    21.937725    -9.218413   -21.480838    2.9161947    22266.164    1783.3437    556.15966    781.98917   -388.81037    226.36346    11.644489    46.696297    23.609635    30.841439    68.961479    134.14629    112.98258 
  476500    230.41199   -12705.041   -11518.913   -12705.041            0    526.52936    46.850862    21.639457    22.031844   -9.3378434   -21.462369    2.9354456    22336.483     943.1401    483.11543    153.33256    365.21457   -546.63656   -781.95198    46.850862    23.568229    30.897448     68.74941    133.99793    113.34113 
  477000    234.53852   -12721.372       -11514   -12721.372            0    1075.5821    47.129752    21.451517    22.090391   -9.0224787   -21.446358    3.0136708    22333.489    985.38306    2333.6395   -92.276275     -438.737   -392.22437   -561.07123    47.129752    23.271715     30.93564    68.987304    133.88851    112.81156 
  477500    235.59854   -12688.918    -11476.09   -12688.918            0    557.28201    47.085818    21.530794    22.071236   -9.3779417   -21.586314    2.9163732    22375.709     1047.881    857.93599   -233.97093   -104.19521    290.56742   -9.2113844    47.085818    23.484481    31.009895     68.64182    134.11578    113.53599 
  478000    234.38067   -12750.823   -11544.264   -12750.823            0    593.04997    46.814788    21.606646    22.040375   -9.1019932   -21.507067    2.9722363    22294.071    219.37186    618.40036     941.3777   -19.750831   -47.648806    107.58522    46.814788    23.445541    30.938104    68.997356    134.04032     112.8437 
  478500    229.31109   -12765.956   -11585.494   -12765.956            0    897.47153    46.894235    21.732633    21.812559   -9.2744545   -21.333913    2.9819339    22229.946    1817.1922     45.61065    829.61171    564.16675   -1128.5532   -452.54064    46.894235    23.628856    30.656411    68.739451    134.09928    113.11049 
  479000    230.87895   -12759.559   -11571.027   -12759.559            0    1612.1454    47.016036    21.568615    21.890027   -9.2481883   -21.717318    2.9490622    22198.037    1449.0764    2168.9688     1218.391   -148.02758    194.53559    -554.8219    47.016036    23.467726    30.975993    68.666784    134.51545    113.20868 
  479500    232.18574   -12766.799   -11571.539   -12766.799            0    1228.8824     47.45244    21.433284     21.82616   -9.1899629   -21.474825    2.7595463     22198.55    515.30424    2314.3104    857.03246   -377.51286   -1203.9059   -134.94677     47.45244      23.3204    30.743527    69.037096    134.30801    113.20823 
  480000    230.73779   -12720.278   -11532.473   -12720.278            0    978.20971    46.998264    21.643164    21.907887   -9.2400641   -21.624594    3.0102229    22284.509    668.92818    1388.3414    877.35956   -458.81127    91.882835   -462.89019    46.998264    23.533069    30.929597    68.652315    134.35928    113.11897 
  480500    232.85949   -12704.739   -11506.011   -12704.739            0    1461.9998    46.714346    21.678679    21.931205   -9.1436479   -21.493784    2.7964913    22209.848    1297.1492    1263.6542    1825.1962   -273.18912    428.52055     73.71165    46.714346    23.528099    30.834734    69.239543    134.19192    112.86908 
  481000     226.3374   -12807.881   -11642.728   -12807.881            0    1541.5485    46.993472    21.519495    21.951856   -9.2721509   -21.386633    3.0682621    22199.381    792.11774    2894.2007    938.32709    163.84078   -702.62651   -817.78975    46.993472    23.432061    30.800752    68.515834    133.97578    113.30986 
  481500    232.27529    -12712.43   -11516.709    -12712.43            0    1606.1932    47.029928    21.476544    22.051386   -9.1832559   -21.719029    2.9369744    22272.788    956.47062    2260.4847    1601.6245   -135.26612    319.07724   -238.51097    47.029928    23.357528    31.090282    68.806893    134.31314    113.15129 
  482000    223.46243   -12779.504   -11629.151   -12779.504            0     1372.724    46.796178    21.532822    22.033637   -9.3449525   -21.056345    2.8015443    22202.277    2118.8031    1788.7935    210.57548    300.49125   -1560.5747   -607.60649    46.796178    23.473188    30.605546    69.030694     133.4713    113.46019 
  482500    240.56788   -12748.763   -11510.353   -12748.763            0     982.7944    46.918974    21.615248    21.997798   -9.1551616   -21.641079    3.0065223    22309.402    384.88173    1131.4893    1432.0121    -100.9104    303.33508    307.95273    46.918974    23.474154    31.004493    68.806552    134.26662    112.95514 
  483000     224.5108   -12751.233   -11595.483   -12751.233            0    4.2680146    47.038301    21.626753    21.948798   -9.4182091   -21.509053    2.8853702    22328.198   -66.459523   -222.41366    301.67723    590.24802   -587.07803    207.22469    47.038301    23.588537    30.866073    68.657763     134.1749    113.53259 
  483500    231.79653   -12722.397   -11529.142   -12722.397            0   -165.66413    47.222304    21.622165    21.942794   -9.0172277   -21.666184    2.9646695    22404.656   -1264.4149    499.23211    268.19044    251.87786    304.16806   -224.23762    47.222304    23.427087    30.979009    69.051855     134.3775    112.63791 
  484000    232.14991   -12731.802   -11536.727   -12731.802            0   -121.91908    47.129041    21.654795    21.953686   -9.4180222   -21.624834    3.0324639    22405.267    885.69562   -1026.6797   -224.77316   -218.24208   -358.69518   -137.63207    47.129041    23.614176    30.964393    68.386651    134.29697      113.505 
  484500    229.36105   -12740.701   -11559.982   -12740.701            0     33.34994    46.880399    21.612243      22.0511   -9.1802853   -21.412547    2.7356975    22341.967    385.34131    364.47965   -649.77114   -146.33593   -137.78252    200.58978    46.880399    23.481199    30.858261    69.336015    133.93963    113.01445 
  485000    228.99292   -12701.445   -11522.622   -12701.445            0    435.79914    46.803863    21.666147    22.046158   -9.1977347   -21.557164    3.0988123    22356.112    860.44479    26.678499    420.27412   -469.43679   -228.47549   -308.68656    46.803863    23.537634    30.989466    68.661706    134.07734    113.00224 
  485500    225.68987   -12719.327   -11557.507   -12719.327            0    485.31211    47.003823    21.587754    22.019663   -9.3164118   -21.411945    2.9316795    22343.506   -241.11648    1228.0472    469.00564    110.43702    -598.0274    389.89178    47.003823    23.512266     30.85339    68.763023    133.94679     113.3431 
  486000    220.03844   -12791.944   -11659.217   -12791.944            0   -53.865705    47.091899    21.564032    21.969945   -9.1178299   -21.766201    2.8444755    22310.286   -374.57199   -150.13115    363.10603   -132.88076    747.64907    320.00607    47.091899    23.412439    31.056996    69.065622    134.49499     112.9199 
  486500    231.42908   -12736.348   -11544.984   -12736.348            0    1392.0898    47.065166    21.616868    21.855716   -9.3702289   -21.493584    3.0056069    22236.038    1498.1624    991.92801    1686.1791   -240.38643    -279.7269    81.736119    47.065166    23.560351    30.800652    68.465107    134.25307    113.43521 
  487000    221.70061   -12759.032   -11617.748   -12759.032            0    322.65792    47.032866    21.693307    21.853918   -9.0601486    -21.65527    2.8704265    22297.518   -244.85766    461.13846    751.69297   -360.69645     356.9736    521.38904    47.032866    23.509272    30.899577    69.156974    134.49343    112.66772 
  487500    232.81385   -12757.766   -11559.273   -12757.766            0    1874.0224    47.012479    21.640837    21.825971   -9.4915134   -21.535712    2.9397138    22205.511    1840.7177    1511.6293    2269.7201    1188.1241   -285.34576    47.736854    47.012479    23.630799    30.802626    68.394079    134.35899    113.68191 
  488000    233.32244   -12735.189   -11534.078   -12735.189            0    1369.1448    46.994911    21.598332    21.933384   -9.1321312   -21.501262     2.930392    22262.641    2098.3973    922.31721    1086.7198     89.65017   -511.55131     638.9088    46.994911      23.4496    30.853927    68.969432    134.17664    112.91944 
  488500    234.41605   -12730.955   -11524.214   -12730.955            0    971.14125    46.766712     21.52625    22.130381   -9.2653793   -21.665845    2.9586269    22278.919    1678.3368    508.31957    726.76738    628.01677   -171.23665    295.79845    46.766712    23.435586     31.11135    68.735478    134.13863    113.28812 
  489000    225.75229   -12728.097   -11565.956   -12728.097            0    1258.6494     46.90794      21.5784    21.960662   -9.2213386   -21.358104    2.9333153    22228.544     1203.904    1762.9019    809.14222     293.4062    -53.61948   -275.00564     46.90794    23.466155    30.774073    68.876598     133.9499    113.13901 
  489500    230.05135   -12741.295   -11557.023   -12741.295            0    710.79979    46.989028    21.601539     21.95203   -9.1849772   -21.778314    2.9211078    22282.086    652.45075    593.11597    886.83265   -995.85793    935.49357    303.70546    46.989028    23.473182    31.059933    68.843645      134.521     113.0352 
  490000    232.65401   -12726.416   -11528.746   -12726.416            0    414.65034    47.078622    21.716543    21.824973   -9.3561264   -21.428083    2.8926794    22313.524    511.93302    355.40746    376.61052     -394.221   -35.065267    659.17584    47.078622    23.646255    30.722301    68.749708    134.22489     113.3078 
  490500    230.38026   -12697.698   -11511.732   -12697.698            0    864.96405    47.055205    21.624366    21.919445   -9.1107258   -21.682818    2.9738572     22303.89    1173.1361    1084.7547    337.00127   -680.91622    309.07403    168.95778    47.055205    23.465262    30.974998    68.883508    134.42783    112.84655 
  491000    225.51661   -12683.452   -11522.524   -12683.452            0    1022.7035    47.094559    21.546688    22.009823   -9.4788206   -21.298428    2.8740291    22334.066    1219.7835     1255.715    592.61181     379.2377   -1128.2372    486.35564    47.094559    23.539494     30.76224     68.63463    133.81692    113.74566 
  491500    226.57449    -12732.76   -11566.387    -12732.76            0    826.56908    46.777177    21.618679    22.057464   -9.1455003   -21.531463    2.9028939    22305.848    1548.7775    669.39974       261.53   -162.67763   -7.0582314    176.01264    46.777177    23.473548    30.960659    69.065306    134.06276    112.93016 
  492000    220.14195   -12685.675   -11552.415   -12685.675            0    739.89939    46.829468       21.644    22.064096   -9.2658896   -21.486668    3.0713772    22363.659    1740.4423    392.71763    86.538194   -359.85783     28.66265    -255.5848    46.829468    23.543989    30.950518     68.62662    133.96561    113.17598 
  492500     217.7076   -12739.219   -11618.491   -12739.219            0    250.13259    47.019398    21.560026    22.010949   -9.1743996   -21.411786    2.8174877    22313.368    1182.3647   -497.78916    65.822255   -362.89039   -442.97143    415.87399    47.019398    23.430842    30.836419    69.148046    133.97678    113.05112 
  493000    226.53184   -12773.162   -11607.008   -12773.162            0    1228.1514    47.053861    21.541605    21.920592   -9.2894272   -21.668454    2.9919734    22219.056    572.93561    1768.8725     1342.646    341.74627    254.77298   -145.11831    47.053861    23.459203    30.967501    68.543544    134.40422    113.32725 
  493500    242.20181     -12734.4   -11487.579     -12734.4            0    1219.5348    47.104628    21.621123    21.828218   -9.2014048   -21.449326    2.9679699    22231.057    1067.4891    1240.1768    1350.9384   -825.70876    195.15667   -327.90268    47.104628    23.497634    30.746601    68.776946    134.23606    113.05338 
  494000    232.98292   -12689.556   -11490.193   -12689.556            0    1956.6953    46.823627    21.656955    21.881077   -9.2171423   -21.678188    2.8075108    22188.664    2590.3234    1015.5838    2264.1789    28.559739    608.26445    180.40837    46.823627    23.536767    30.929072    69.022606    134.49926    113.05447 
  494500    229.17785    -12715.96   -11536.185    -12715.96            0    591.54876    46.931826    21.704487    21.921917   -9.3187796   -21.432647    3.0131309    22330.348    1061.3569    345.41279    367.87659    786.76356   -398.56943    -553.2462    46.931826    23.620423    30.805969    68.631967    134.08544    113.23617 
  495000    234.02524   -12717.426   -11512.697   -12717.426            0    168.43943    47.097523    21.568754    22.028117   -9.0421777    -21.56408    2.8973072    22376.929    464.77558    328.36132   -287.81862   -159.60278   -119.65208    -361.9463    47.097523    23.387435    30.961942    69.171444    134.14451    112.74469 
  495500    235.15883   -12754.465     -11543.9   -12754.465            0    116.14145    46.977695    21.555382    22.088614   -9.6350233   -21.568183    3.0362102     22367.42     536.9987    621.08918   -809.66351     1499.181   -760.01767    118.36084    46.977695    23.610764    31.021153    68.094266    134.04901    114.08413 
  496000     225.7099   -12724.909   -11562.987   -12724.909            0    715.07383    46.871298    21.663168    21.950405   -9.0410924   -21.438635    2.9021213     22288.02    1120.6204    417.47893    607.12212    183.29069   -867.02268    326.02615    46.871298    23.474118    30.819761     69.21781    134.07611    112.65315 
  496500    229.00149   -12757.704   -11578.836   -12757.704            0   -613.42765    47.154603    21.608112     21.98496   -9.2891363   -21.628902    2.9742319    22400.958   -640.06016   -747.61668    -452.6061    206.28827    148.30984   -59.605592    47.154603    23.520173    30.983769    68.660811    134.27253    113.26244 
  497000    227.56787   -12750.442   -11578.955   -12750.442            0   -305.45268    47.252474     21.55828    21.967481   -9.4498084   -21.702249      2.95795    22377.879   -714.77074   -170.31216   -31.275158    970.56489   -476.98466   -632.13942    47.252474    23.538443    31.021079    68.395753    134.39467    113.66965 
  497500    220.96965   -12764.073   -11626.552   -12764.073            0    820.56928    47.001502    21.629522     21.90898   -9.0428175   -21.518628    2.9071528    22273.107     1138.596    860.41387    462.69799   -279.52745    382.96749     144.8018    47.001502    23.443736    30.846495      69.1431    134.23506    112.68871 
  498000    225.65462   -12731.685   -11570.047   -12731.685            0    -204.2689    46.948736    21.738012    21.918714   -9.4778948   -21.529301    3.0158631    22369.629   -309.20029   -660.55334    356.94694    341.29495    326.95972    266.21056    46.948736    23.714377    30.871285    68.390757    134.21791    113.55747 
  498500    229.72836   -12776.836   -11594.227   -12776.836            0    536.15527    47.037548      21.6087    21.917613   -9.1238528   -21.629962    2.8832072    22277.505   -462.09567    562.46622    1508.0953   -516.13935    764.11504    438.74335    47.037548    23.455929    30.928141    69.027616    134.37583    112.89096 
  499000     237.6198   -12721.112   -11497.879   -12721.112            0   -19.609313    47.377485    21.561689    21.887147   -9.3907234   -21.665126    3.0248188    22358.565   -1417.5829    130.59521    1228.1597    645.28292   -216.16356   -382.04651    47.377485    23.517911    30.944699    68.335035    134.43695    113.53448 
  499500     228.0771   -12754.952   -11580.843   -12754.952            0    1037.7841    46.962367    21.546423    21.989971   -9.1774902   -21.630749    2.9250451    22251.014    1739.8153    1306.4752     67.06174   -886.72567    394.18714   -492.56155    46.962367    23.419536    30.983931    68.873252      134.277    113.07111 
  500000    231.07188   -12700.924   -11511.399   -12700.924            0    554.93407    46.940323    21.644429    21.956065   -9.1862306   -21.474665    2.8179732    22307.285    1274.1644   -18.366715    409.00448   -528.28168   -519.06712   -289.27943    46.940323    23.513148     30.84106    69.136464    134.13099    112.99712 
Loop time of 1022.11 on 48 procs for 500000 steps with 2592 atoms

Performance: 84.531 ns/day, 0.284 hours/ns, 489.185 timesteps/s
100.0% CPU use with 48 MPI tasks x 1 OpenMP threads

MPI task timing breakdown:
Section |  min time  |  avg time  |  max time  |%varavg| %total
---------------------------------------------------------------
Pair    | 222.61     | 230.42     | 238.36     |  38.8 | 22.54
Bond    | 0.6995     | 0.75211    | 1.0139     |   5.5 |  0.07
Kspace  | 368.25     | 376.27     | 384.05     |  30.4 | 36.81
Neigh   | 13.012     | 13.092     | 13.16      |   1.1 |  1.28
Comm    | 45.665     | 70.325     | 85.058     | 200.0 |  6.88
Output  | 3.789      | 3.7898     | 3.8068     |   0.1 |  0.37
Modify  | 182.4      | 246.56     | 349.31     | 455.0 | 24.12
Other   |            | 80.9       |            |       |  7.91

Nlocal:             54 ave          62 max          44 min
Histogram: 1 0 3 5 4 15 10 6 3 1
Nghost:        3919.88 ave        3951 max        3872 min
Histogram: 1 1 2 4 9 5 8 8 8 2
Neighs:        16686.6 ave       19269 max       13543 min
Histogram: 1 0 4 4 8 14 7 6 3 1

Total # of neighbors = 800957
Ave neighs/atom = 309.01119
Ave special neighs/atom = 2
Neighbor list builds = 19542
Dangerous builds = 0

unfix		3
unfix		2
unfix		1

write_data	data.final.${pid}
write_data	data.final.0
System init for write_data ...
PPPM initialization ...
  extracting TIP4P info from pair style
  using 12-bit tables for long-range coulomb (../kspace.cpp:340)
  G vector (1/distance) = 0.38074518
  grid = 50 40 54
  stencil order = 5
  estimated absolute RMS force accuracy = 0.0021592114
  estimated relative force accuracy = 6.502401e-06
  using single precision MKL FFT
  3d grid and FFT values/proc = 11832 4000
  generated 0 of 1 mixed pair_coeff terms from geometric mixing rule
Last active /omp style is kspace_style pppm/tip4p/omp
WARNING: Not all mixed pair coeffs generated from mixing. Use write_data with 'pair ij' option to store all pair coeffs. (../write_data.cpp:309)

write_restart   restart.lmp.${pid}
write_restart   restart.lmp.0
System init for write_restart ...
PPPM initialization ...
  extracting TIP4P info from pair style
  using 12-bit tables for long-range coulomb (../kspace.cpp:340)
  G vector (1/distance) = 0.38074518
  grid = 50 40 54
  stencil order = 5
  estimated absolute RMS force accuracy = 0.0021592114
  estimated relative force accuracy = 6.502401e-06
  using single precision MKL FFT
  3d grid and FFT values/proc = 11832 4000
  generated 0 of 1 mixed pair_coeff terms from geometric mixing rule
Last active /omp style is kspace_style pppm/tip4p/omp
Total wall time: 0:17:02
cp: cannot stat ‘restart2.lmp’: No such file or directory
cp: cannot stat ‘restart.lmp’: No such file or directory
cp: cannot stat ‘data.final’: No such file or directory
Mon Jan 17 16:31:33 EST 2022
Start Epilogue v2.5.3 Mon Jan 17 16:31:34 EST 2022 
Memory usage reported in GB
                    % of     user     user     user    total    total
Node               limit      max    limit  current  current     phys
r1i5n16             1.75     3.06   175.00     0.17     5.31   187.31
Memory summary:
		min    3.06 GB
		max    3.06 GB
		ave    3.06 GB
End Epilogue v2.5.3 Mon Jan 17 16:31:37 EST 2022 
