LAMMPS (30 Jul 2021)
  using 1 OpenMP thread(s) per MPI task
package omp 0
using multi-threaded neighbor list subroutines
echo both

include		in.partitions
variable        pid world 0
include		in.temp
variable        temperature equal 263.83
variable	tempDamp equal 100.0
include		in.pressure
variable        pressure equal 5500.0
variable        pressureDamp equal 1000.0 # This is 1 ps
include		in.seed
variable        seed world 745823

units		real
atom_style	full

read_restart	restart.lmp.${pid}
read_restart	restart.lmp.0
Reading restart file ...
  restart file = 30 Jul 2021, LAMMPS = 30 Jul 2021
  restoring atom style full from restart
  orthogonal box = (0.0071319316 -0.073621714 -0.027599307) to (19.992869 20.073623 20.727597)
  4 by 4 by 4 MPI processor grid
  restoring pair style lj/cut/tip4p/long/omp from restart
  restoring bond style harmonic/omp from restart
  restoring angle style harmonic/omp from restart
  972 atoms
  648 bonds
  324 angles
Finding 1-2 1-3 1-4 neighbors ...
  special bond factors lj:    0        0        0       
  special bond factors coul:  0        0        0       
     2 = max # of 1-2 neighbors
     1 = max # of 1-3 neighbors
     1 = max # of 1-4 neighbors
     2 = max # of special neighbors
  special bonds CPU = 0.517 seconds
  read_restart CPU = 0.785 seconds
include 	in.setup
variable	out_freq equal 1000
variable	out_freq2 equal 10000
variable	out_freq3 equal 1000

timestep	2.0

neigh_modify    delay 7 every 1

include		in.tip4p
# This is TIP4P/Ice

# create groups ###
group ox type 2
324 atoms in group ox
group hy type 1
648 atoms in group hy

# set charges - beside manually ###
set group ox charge -1.1794
Setting atom values ...
  324 settings made for charge
set group hy charge 0.5897
Setting atom values ...
  648 settings made for charge

# ### TIP3P Potential Parameters ###
pair_style lj/cut/tip4p/long/omp 2 1 1 1 0.1577 8.5
pair_coeff 1 1*2 0.000 0.000
pair_coeff 2 2 0.21084 3.1668
bond_style  harmonic
bond_coeff  1 450 0.9572
angle_style harmonic
angle_coeff 1 55 104.52
kspace_style pppm/tip4p/omp 1.0e-5
pair_modify tail yes

thermo          ${out_freq}
thermo          1000
thermo_style    custom step temp pe etotal epair emol press lx ly lz vol pxx pyy pzz pxy pxz pyz enthalpy

restart 	${out_freq3} restart.lmp.${pid} restart2.lmp.${pid}
restart 	1000 restart.lmp.${pid} restart2.lmp.${pid}
restart 	1000 restart.lmp.0 restart2.lmp.${pid}
restart 	1000 restart.lmp.0 restart2.lmp.0


include         in.dump
dump            myDump all atom ${out_freq2} dump.water.${pid}
dump            myDump all atom 10000 dump.water.${pid}
dump            myDump all atom 10000 dump.water.0
dump            myDump2 all dcd ${out_freq2} dump.dcd
dump            myDump2 all dcd 10000 dump.dcd
dump_modify     myDump append yes
dump_modify     myDump2 append yes


variable natoms 	equal  "count(all)"                        # NUMBER ATOMS
variable H      	equal  "enthalpy/v_natoms"                 # ENTHALPY-per-atom
variable Vol      	equal  "vol/v_natoms"                 # volume-per-atom
fix AVG all 		ave/time ${out_freq} 1 ${out_freq} v_Vol v_H file vol_enthalpy.dat
fix AVG all 		ave/time 1000 1 ${out_freq} v_Vol v_H file vol_enthalpy.dat
fix AVG all 		ave/time 1000 1 1000 v_Vol v_H file vol_enthalpy.dat


timer           timeout 02:55:00 every 1000
New timer settings: style=normal  mode=nosync  timeout=02:55:00

fix 		1 all shake 1e-6 200 0 b 1 a 1
       0 = # of size 2 clusters
       0 = # of size 3 clusters
       0 = # of size 4 clusters
     324 = # of frozen angles
  find clusters CPU = 0.497 seconds
fix             2 all nph aniso ${pressure} ${pressure} ${pressureDamp}
fix             2 all nph aniso 5500 ${pressure} ${pressureDamp}
fix             2 all nph aniso 5500 5500 ${pressureDamp}
fix             2 all nph aniso 5500 5500 1000
fix             3 all temp/csvr ${temperature} ${temperature} ${tempDamp} ${seed}
fix             3 all temp/csvr 263.83 ${temperature} ${tempDamp} ${seed}
fix             3 all temp/csvr 263.83 263.83 ${tempDamp} ${seed}
fix             3 all temp/csvr 263.83 263.83 100 ${seed}
fix             3 all temp/csvr 263.83 263.83 100 745823


run             250000
PPPM initialization ...
  extracting TIP4P info from pair style
  using 12-bit tables for long-range coulomb (../kspace.cpp:340)
  G vector (1/distance) = 0.37225537
  grid = 24 24 25
  stencil order = 5
  estimated absolute RMS force accuracy = 0.0034272585
  estimated relative force accuracy = 1.0321087e-05
  using double precision FFTW3
  3d grid and FFT values/proc = 2366 288
Last active /omp style is kspace_style pppm/tip4p/omp
Neighbor list info ...
  update every 1 steps, delay 7 steps, check yes
  max neighbors/atom: 2000, page size: 100000
  master list distance cutoff = 10.8154
  ghost atom cutoff = 10.8154
  binsize = 5.4077, bins = 4 4 4
  1 neighbor lists, perpetual/occasional/extra = 1 0 0
  (1) pair lj/cut/tip4p/long/omp, perpetual
      attributes: half, newton on, omp
      pair build: half/bin/newton/omp
      stencil: half/bin/3d
      bin: standard
Per MPI rank memory allocation (min/avg/max) = 9.226 | 9.229 | 9.236 Mbytes
Step Temp PotEng TotEng E_pair E_mol Press Lx Ly Lz Volume Pxx Pyy Pzz Pxy Pxz Pyz Enthalpy 
 6000000     276.6249   -4679.6218   -4146.1274   -4679.6218            0    5822.5881    19.985737    20.147244    20.755197    8357.2362    6313.8159     4838.934    6315.0143    74.881894   -147.12421   -432.27424   -3436.4604 
 6001000    257.52945   -4676.8687   -4180.2015   -4676.8687            0    5431.9206    20.101966    19.917592    20.756031    8310.3567    7420.5042    4376.2285     4499.029   -555.02204    831.72086   -1183.0527   -3521.8635 
 6002000     265.7381   -4691.9109   -4179.4126   -4691.9109            0    5940.5323    19.834968     20.23965    20.705579    8312.3128    7477.7147     3021.859    7322.0233    268.70249   -1529.5828    203.50404   -3459.2623 
 6003000    269.34543   -4698.5709   -4179.1156   -4698.5709            0    4363.0234     20.31249    19.753217    20.694098    8303.2382    1937.3348    6143.8892    5007.8462   -310.93479   -1419.5311    747.99713   -3650.7787 
 6004000    256.88607   -4707.4622   -4212.0358   -4707.4622            0    5386.9107    19.433345    20.357152    20.832342    8241.4318    7949.3701    4369.6507    3841.7112    -685.7645    802.33131   -75.477726   -3564.5678 
 6005000    266.97181   -4691.0736    -4176.196   -4691.0736            0    2791.8529    20.162746    20.008876    20.761773    8376.0024    2920.7275    2284.7298    3170.1015    643.87905    1504.5644    131.76138   -3835.1561 
 6006000    272.39408   -4681.9553   -4156.6204   -4681.9553            0    3830.8469    19.974827    20.307897    20.648123    8375.8436    2750.2049    4558.0701    4184.2659    646.14039   -192.33929   -405.58664   -3688.6706 
 6007000    276.68412   -4704.3647   -4170.7561   -4704.3647            0     6406.516    19.994629    20.006126    20.615929    8246.6823    5991.9269    6445.1222    6782.4988   -175.19353    708.30204    901.68016   -3400.2483 
 6008000    268.17599   -4691.0698   -4173.8699   -4691.0698            0    4841.2807    20.058638    20.147853    20.400888    8244.7842     7667.335    2168.7662     4687.741    397.34594    434.38386     420.4178   -3591.7459 
 6009000    284.94489   -4687.3099   -4137.7697   -4687.3099            0    7613.1624    19.914962    19.883697    20.700431    8197.0203    6010.1103    8446.2599     8383.117   -576.49068   -418.07477    637.32571   -3227.6532 
 6010000    265.96374   -4681.3923   -4168.4589   -4681.3923            0    6424.6914     19.82147    20.089863    20.909357    8326.3282    6720.2816    6604.3619    5949.4306    434.96384   -68.667005    513.11763   -3388.3025 
 6011000    259.32109   -4677.9293   -4177.8068   -4677.9293            0    8023.5698    19.930701    19.902796    20.689948    8207.2196    7318.1978    8121.0251    8631.4864    561.47588   -262.75207   -372.26064   -3217.4346 
 6012000    282.33898   -4676.1583   -4131.6439   -4676.1583            0    5987.9696     19.81452    20.052777     20.79552    8262.8118     6001.391    5074.6811    6887.8368   -177.89741    380.44389    138.20394   -3410.0658 
 6013000    275.00142   -4654.7084    -4124.345   -4654.7084            0    5550.3687    19.819925    19.771479    21.103591    8269.8479    5600.3954    7040.1252    4010.5856    1086.8255   -685.18098    378.42756   -3454.9303 
 6014000    263.50269   -4692.4195   -4184.2324   -4692.4195            0    7440.8139    19.868839     19.88579    20.672086    8167.6974    6730.3626    8625.1158    6966.9634    836.19706   -1909.6855    493.64581   -3297.9013 
 6015000    265.49788   -4696.5373   -4184.5023   -4696.5373            0    5539.4145    20.021113    20.190153    20.583843    8320.5931    6477.7136    4823.6465    5316.8834   -180.89641    1236.7705   -448.25293   -3512.3092 
 6016000    259.38275   -4672.5289   -4172.2875   -4672.5289            0    5593.7487    20.090632     19.95755    20.690895     8296.217    5047.5586    6177.5368    5556.1507   -430.80979   -345.29744    1691.9554   -3495.4897 
 6017000    273.42276   -4713.8215   -4186.5027   -4713.8215            0    5351.1562    19.874849    20.249805    20.775441    8361.3216    6514.4651    3747.9375    5791.0659    26.294386   -699.74662   -415.81065   -3533.9758 
 6018000    256.57023   -4696.2493   -4201.4321   -4696.2493            0    4452.9407    20.012213    19.926313    20.878415    8325.6775    2379.0831     7531.577     3448.162    -749.4161   -238.86238    1973.9339   -3660.7495 
 6019000    257.97148   -4674.4012   -4176.8815   -4674.4012            0    4892.4733    20.004322    19.992621    20.784314    8312.4542    4408.0003      4559.81    5709.6097   -54.405941   -90.921897    -532.9336   -3583.7738 
 6020000    267.68193    -4699.525   -4183.2778    -4699.525            0    6775.6824      20.0573    19.998592    20.574682    8252.8709    4114.9769    8893.8966    7318.1736    44.834843   -631.95871   -324.68336    -3367.759 
 6021000    259.00113   -4696.5453   -4197.0399   -4696.5453            0    6103.1982    20.048969      19.9275    20.547292    8209.1741    8062.2042    5299.8942    4947.4964    51.689304    521.23269   -654.60198   -3466.3504 
 6022000    267.79804   -4692.0081    -4175.537   -4692.0081            0    6156.2458    20.171145    19.969551    20.521314    8266.1639    5569.7528    6789.3852    6109.5995   -146.74028   -575.68314    470.46136   -3433.3799 
 6023000    255.06253   -4698.8333   -4206.9238   -4698.8333            0    5083.4526    19.786638    20.009039    20.984367    8307.9544    5159.4343    5346.8084    4744.1149   -168.87892   -76.608546    342.33317   -3590.9975 
 6024000    280.56891   -4666.2362   -4125.1355   -4666.2362            0    4684.5769    19.963162    20.047285    20.899246    8364.0285    5512.6259    4851.5674    3689.5373   -41.685339    -98.39137    28.993701   -3553.7071 
 6025000    261.96137   -4653.7821   -4148.5676   -4653.7821            0    4720.3983     19.97672    19.986781    20.791548    8301.4483    5469.9346    4235.2521    4456.0083   -143.95542   -978.97437    522.13323   -3577.0779 
 6026000    279.33572   -4680.9712   -4142.2488   -4680.9712            0     5561.179    19.983265    20.215937    20.474871    8271.4473    5077.5103    6019.0625    5586.9643    965.60555    345.71788    777.32716   -3471.4006 
 6027000    258.70395   -4634.5332   -4135.6008   -4634.5332            0     7505.536    20.136183    19.968284    20.585634    8277.1749    7750.7085    7936.6242    6829.2751   -561.69988   -1503.1787    835.84473   -3229.5768 
 6028000    265.62435   -4709.7708   -4197.4919   -4709.7708            0    4764.5406    19.990391    19.866092    20.998199    8339.0347    5919.9161    4204.7257      4168.98   -252.46771    9.8911742    1121.4906   -3618.0463 
 6029000    262.42381   -4678.4306   -4172.3242   -4678.4306            0     5316.839    19.857622    19.960163    21.027856    8334.6301    5919.5709    6072.3365    3958.6096    230.79276   -1746.4213    111.00075   -3526.0517 
 6030000    277.44703    -4685.841    -4150.761    -4685.841            0    7001.6157    19.944365    19.987552    20.654695    8233.7676    8695.3669    6278.7402    6030.7399   -406.73568   -444.84369    703.12056   -3309.9996 
 6031000    275.37916   -4687.0025   -4155.9106   -4687.0025            0    3411.1298    20.258261    20.082806    20.562062    8365.5252    2832.0288    3727.4682    3673.8923   -851.61333    -120.4249    1056.5778   -3739.7439 
 6032000    271.99884   -4674.2736    -4149.701   -4674.2736            0    7063.1111    20.004085    19.887193    20.564305    8180.9965    7044.5145    7706.5113    6438.3075   -542.04703    15.448565   -123.32751    -3306.991 
 6033000    273.70246   -4694.0737   -4166.2155   -4694.0737            0    4415.1304    19.912106    19.910251    20.790811    8242.6217    3126.2803    6935.9965    3183.1144   -258.43328    957.82394    1813.8511   -3635.4719 
 6034000    254.61292   -4683.5402   -4192.4978   -4683.5402            0    5117.9734    19.880317     19.96401     20.95313    8316.1056    5856.0557    5590.9212    3906.9433   -659.43696   -1093.2942    1099.4779   -3571.7804 
 6035000    261.47434   -4725.2499   -4220.9746   -4725.2499            0    6305.9193    19.963622    19.907833    20.723812    8236.3158    6541.0998    5965.8488    6410.8094   -199.16538    820.82377    768.60026   -3463.5188 
 6036000     262.2336   -4705.7814   -4200.0418   -4705.7814            0     5618.195    19.922528    20.113046    20.580237     8246.557    6032.3495    4028.1257      6794.11   -363.66958    -501.9438   -459.33277   -3524.3551 
 6037000    263.14209   -4691.9715   -4184.4798   -4691.9715            0    6625.2025    20.006806    19.927281    20.605262    8214.9313    7014.4642    6430.1664     6430.977    5.3495479     397.7557    171.99251   -3390.7385 
 6038000     271.5411   -4685.5389   -4161.8491   -4685.5389            0    4647.5744    19.962605    20.081417    20.760623    8322.4643    5331.5354    4157.5676    4453.6201   -650.67303    1019.3556   -154.65739   -3597.7516 
 6039000    254.10244   -4687.8749    -4197.817   -4687.8749            0    5231.5857    20.152679    19.922912    20.595389    8269.0498    5477.1191    5084.4293    5133.2087    116.44454     958.3851     905.7107   -3566.9107 
 6040000    261.58793   -4692.7495   -4188.2552   -4692.7495            0    4581.4196    20.108877    20.013255    20.650036    8310.4851    4132.4902    3777.2671    5834.5015    23.373954    1036.6701   -294.47814   -3632.9876 
 6041000    264.97377   -4688.7987   -4177.7745   -4688.7987            0    5316.8671     20.15568    20.075903    20.492241    8292.0516    4257.4241    5665.7339    6027.4432    225.51409   -260.02883   -2440.9964   -3534.8001 
 6042000    255.16239   -4679.4327   -4187.3306   -4679.4327            0     7586.357     19.89245    20.022414    20.744378     8262.379    9200.2717     6840.758    6718.0413   -1506.2536    395.10546    103.69085   -3273.1873 
 6043000    266.14823   -4667.7519   -4154.4626   -4667.7519            0    5345.0083    19.843174    19.906619    20.925241      8265.69    6588.4281    4557.5017     4889.095    116.91183     -305.506    400.23982     -3510.14 
 6044000    257.84802   -4706.3501   -4209.0685   -4706.3501            0    5673.5757    19.885112    20.114441    20.636088    8253.9795    4737.3059    5939.3658    6344.0554   -747.31965   -443.78642   -70.088602   -3526.1071 
 6045000    242.32543   -4685.9298   -4218.5848   -4685.9298            0    4811.2333    20.311415    19.670714    20.877977    8341.5878    4554.4166    4831.9823    5047.3011    789.28489    1093.2616    1036.8563   -3633.2814 
 6046000    253.70572   -4687.5879   -4198.2951   -4687.5879            0    3248.3046    19.995507    20.183697    20.805376    8396.7015    5714.4156    1907.2932    2123.2049   -317.75949    800.95604   -387.28235   -3800.5165 
 6047000    267.55172   -4690.9733   -4174.9773   -4690.9733            0    6129.4256     20.28378    20.081927    20.284481    8262.6275    3215.7839    8189.1024    6983.3905   -382.09433   -1261.8471    343.34441   -3436.3696 
 6048000    267.64728   -4725.5053    -4209.325   -4725.5053            0    6786.0621    20.104912    19.902685    20.620226     8251.013    5826.9755    7168.3522    7362.8587   -1213.6453    2129.9008    148.21543   -3392.7407 
 6049000    275.33252   -4696.1513   -4165.1494   -4696.1513            0    4998.1151    19.968222       19.965    20.848463    8311.5639    7847.5803    3424.7614    3722.0037    324.29025   -902.61238   -206.23333   -3559.2997 
 6050000    271.29255   -4727.2754   -4204.0649   -4727.2754            0    5248.9398    19.728475    19.980203    20.943389    8255.4423    5907.2997    6438.8772    3400.6427   -176.30149    962.63628    1302.8832   -3572.1074 
 6051000     282.6286   -4651.7862   -4106.7132   -4651.7862            0    4101.9464    20.198504    20.072592    20.634506    8365.9781    2494.9084    5011.8073    4799.1235   -314.08371   -58.705181    2.3551236    -3606.238 
 6052000    254.47616   -4697.5357    -4206.757   -4697.5357            0     5880.766    19.877941    20.091419    20.655296    8249.2304      3028.42    7771.6477    6842.2303   -120.20272    616.89463    1647.4988   -3499.2623 
 6053000    252.09063   -4701.6916   -4215.5137   -4701.6916            0    6160.2664    19.851947    19.935324    20.759457     8215.659    7912.3748    4834.9462    5733.4781    373.29017    368.51138   -569.09324   -3477.4093 
 6054000    256.93963   -4645.7635   -4150.2339   -4645.7635            0     6033.352    20.072267     19.84524    20.655799    8228.0096    7882.1987    5461.1409    4756.7165    -439.4476    203.85942   -35.231061   -3426.2492 
 6055000    263.13597   -4688.5668    -4181.087   -4688.5668            0    5382.1029    19.958975    20.060502    20.737663     8303.092    6860.6322    5619.8103    3665.8662   -724.60849    1130.4288   -319.24957   -3529.3569 
 6056000    276.16256   -4661.6587   -4129.0559   -4661.6587            0    3946.7274    20.111034    20.188176    20.602059    8364.5414    4224.1686    3223.2548    4392.7589   -240.97082    205.53775    68.564821   -3647.6015 
 6057000    258.00907   -4708.3162    -4210.724   -4708.3162            0    4987.9282    19.938506     20.16826    20.755459    8346.2885    4725.5372    4615.2575      5622.99    83.449821   -410.61131   -952.77586   -3603.5832 
 6058000    263.08948   -4692.2359   -4184.8457   -4692.2359            0    4328.3418     19.98845    19.983084     20.87963    8339.9691    5407.8229    4653.9135    2923.2889    78.260217    648.88345   -808.35378   -3658.3899 
 6059000    261.17199    -4686.081   -4182.3889    -4686.081            0    5800.8298    19.820483    20.078879    20.739926    8253.9327    3381.6837    6750.2694    7270.5363   -147.11008    1834.5995     538.8476   -3484.1132 
 6060000    268.73562   -4699.8118   -4181.5325   -4699.8118            0    6409.4155    20.090896    19.989869    20.542742    8250.2606     6067.281    5661.1483    7499.8171    645.59181    -806.0867     -1484.98   -3410.3415 
 6061000    257.36039   -4665.2199   -4168.8787   -4665.2199            0    6260.8153    20.036162    20.090776    20.476368    8242.5989    6134.0224     6495.974    6152.4495   -136.32133    1540.3583    1611.0255   -3416.2671 
 6062000    269.36481   -4649.9453   -4130.4527   -4649.9453            0    6209.9719    20.031311    20.114047    20.617007    8306.8132    4796.7618    6297.7947    7535.3591   -1112.3758    524.43178   -163.96049   -3378.1372 
 6063000    264.07298   -4665.1014   -4155.8145   -4665.1014            0    4888.3952    20.050722    19.969403    20.851976    8349.1506    5652.8341    4470.7346    4541.6168   -120.14956     286.0085    371.16133   -3560.5849 
 6064000    266.37969   -4689.0992   -4175.3635   -4689.0992            0    6219.7221    19.907538    19.985275    20.719112    8243.2565    7315.4694    4603.9986    6739.6983    279.42493   -516.76864    741.39137    -3427.632 
 6065000    259.23819   -4688.1851   -4188.2225   -4688.1851            0    4823.6525    20.170105    19.930123     20.67597    8311.5885    5954.6081    3542.3174    4974.0319   -137.90265    646.36729     1606.678   -3603.5187 
 6066000    272.55782    -4666.741   -4141.0903    -4666.741            0    4343.0583    20.110443    20.106455    20.494687    8287.0207    5338.1295    2440.3841    5250.6615   -271.17541    129.98932   -315.81011   -3616.1983 
 6067000    249.11397     -4676.64   -4196.2028     -4676.64            0    5561.9425    19.942273    20.044035    20.712535     8279.289    5399.2707    5472.1367    5814.4202   -441.08803    2247.6703   -876.32569   -3524.6264 
 6068000    260.93836   -4677.0319   -4173.7903   -4677.0319            0    6111.6852    19.868779    20.140954    20.536704    8218.2995    7197.3154    4388.0535    6749.6868    442.48608   -164.29924     792.4404   -3441.2714 
 6069000    256.74874   -4710.5346    -4215.373   -4710.5346            0    6424.6733    20.064279    20.014477    20.395617    8190.3913    5876.0099    7601.7688    5796.2411   -308.52529    583.31509    13.672922   -3447.9557 
 6070000    261.14892   -4683.2108   -4179.5631   -4683.2108            0    2442.4307    20.064841    20.190337    20.710031    8389.9629    2055.4337    2300.4949    2971.3635     -581.029   -9.9752639    687.83133   -3880.7097 
 6071000    262.56681   -4679.6898   -4173.3076   -4679.6898            0    3407.9002    20.229123    19.949711    20.759834    8377.9456    2140.7169    4144.3117    3938.6719    380.93813    612.66468   -1129.0087   -3756.9176 
 6072000    296.14852   -4684.7976   -4113.6502   -4684.7976            0    5955.1739    19.768674    20.167273    20.726813    8263.3708     5821.871    6525.9668    5517.6838     489.4636   -734.31811    1535.5397   -3395.9756 
 6073000    258.12717   -4712.9369   -4215.1169   -4712.9369            0    5941.0112    19.842886    20.016679    20.711381    8226.3258    4072.7572    6847.7165    6902.5599   -2.1028786   -940.15232    130.67203   -3502.3588 
 6074000     267.1379   -4727.6611   -4212.4632   -4727.6611            0    2919.4584    19.794588    20.064717    21.080351    8372.5422    2563.6406    3916.9936    2277.7409    148.29545    1490.8626    1433.7686   -3855.9829 
 6075000    261.69082   -4689.1042   -4184.4114   -4689.1042            0       6744.1    19.938698    19.984251    20.713736    8253.5941    5274.1582    7256.5043    7701.6376   -726.86825    509.97265    261.10082   -3372.6227 
 6076000     256.7471   -4679.3015   -4184.1431   -4679.3015            0     4077.246    19.877285     20.01963    20.805611    8279.2995    4305.1955    4241.6677    3684.8749   -242.73131   -358.54398   -1285.1038   -3691.8357 
 6077000    255.79359   -4712.0678   -4218.7483   -4712.0678            0    4752.1063    20.032081     19.87256    20.870174    8308.1812    4767.5632    5159.7486     4329.007    203.12973   -441.56599   -67.274592   -3642.9532 
 6078000    281.54845   -4678.7412   -4135.7514   -4678.7412            0    5104.1803    19.773185    20.174069    20.748309    8276.6164    6642.2073    3927.7419    4742.5918    19.896918   -272.26205    308.95862   -3519.6464 
 6079000    268.95475   -4707.0051   -4188.3032   -4707.0051            0    6982.0557    19.987718    19.913826    20.602291    8200.3699    6824.3402    7582.4474    6539.3795    -410.3933   -756.25015    1090.1401   -3353.2913 
 6080000    266.58374   -4667.4168   -4153.2877   -4667.4168            0    5455.1206      19.9382     20.23807    20.504791    8273.9025    5119.5481    4887.0435    6358.7703    105.57622    -781.8193    1091.2901    -3495.038 
 6081000    277.88928   -4704.9082   -4168.9753   -4704.9082            0    6375.7336    20.129514    19.785362    20.745168    8262.1724    3872.0545     7829.711    7425.4351    572.79314     -348.153   -1248.8484   -3400.7294 
 6082000    262.99439   -4718.1404   -4210.9336   -4718.1404            0    4730.0461    19.875627    19.905382    21.109229    8351.4852    6556.2979    3896.7713    3737.0691   -100.46316   -387.09887    87.967725   -3634.8242 
 6083000    269.95796   -4685.4844   -4164.8477   -4685.4844            0    4716.7669    20.030493    20.047414    20.652577    8293.2405    4756.8594    5680.2153    3713.2259    210.79204    1408.2562    347.74251   -3594.3623 
 6084000    261.15409   -4641.3961   -4137.7385   -4641.3961            0    5251.2832    20.163122    19.966436    20.545822    8271.4538    3492.3776    7211.9434    5049.5285    798.98469    1600.3787    491.55645   -3504.2727 
 6085000    263.26432    -4719.305   -4211.5776    -4719.305            0    5112.4665    20.041585    19.923863    20.750584    8285.8284    4635.3619    5070.6673    5631.3704   -626.88548   -137.03535    161.04009   -3593.7856 
 6086000    252.32169   -4671.7532   -4185.1296   -4671.7532            0    5105.6384    19.928738    19.761686    21.013799    8275.7688     6369.256    5863.6672    3083.9919     272.7636    150.60931   -241.98166   -3568.9118 
 6087000    262.83096   -4698.0625   -4191.1708   -4698.0625            0    4759.3086    19.721805    20.067557    20.908141    8274.7821    3406.0419    4988.4782    5883.4057     517.5178    1243.9093    -1213.748   -3616.8212 
 6088000    259.91846   -4676.9645   -4175.6899   -4676.9645            0    7060.7215    19.898906    19.928304    20.760784    8232.7193    6217.8108    8866.6988    6097.6551   -943.72735   -1343.3608   -635.92806   -3327.9389 
 6089000    256.21249   -4724.2668   -4230.1395   -4724.2668            0    6660.2327    19.950783    20.146368    20.457378    8222.5528    5749.1927    7363.5039    6868.0014   -546.32028    2436.1078    838.60189   -3431.4611 
 6090000    260.57891    -4683.395   -4180.8467    -4683.395            0    6645.3202    20.028774    19.848949    20.760891    8253.4946    5278.3018    7310.9862    7346.6725    628.97062   -115.30703   -1472.2507   -3380.9578 
 6091000    266.72727   -4707.2615   -4192.8555   -4707.2615            0    4691.9634    19.813161    19.998568    21.002991    8322.1167    4998.9658    4915.1902    4161.7341    -337.9645    162.57049   -721.44436   -3623.3941 
 6092000    255.84367   -4688.1932   -4194.7772   -4688.1932            0    3591.5889    20.040174    20.093597    20.725549    8345.7468    3505.9737    2973.1631    4295.6299   -582.59839    70.822636    2079.8968     -3757.63 
 6093000     275.8195    -4679.274   -4147.3329    -4679.274            0    6669.9361    20.071714    20.019811    20.497223    8236.4383      5389.68     6249.085    8371.0434   -144.22524    -132.1319   -1521.1991   -3346.1401 
 6094000    258.69939   -4685.7297   -4186.8062   -4685.7297            0    5133.2678    19.979097    20.109551     20.72398    8326.2874    6969.0649    3657.6813    4773.0573    346.23782   -1607.3631    1028.0165   -3563.4716 
 6095000    244.38562   -4696.3359   -4225.0177   -4696.3359            0    7183.7859    19.912427    19.924906    20.780897     8244.888    6633.5679    8734.7309    6183.0589    635.14595      1217.98    502.38457    -3361.216 
 6096000    268.96281   -4684.6978   -4165.9804   -4684.6978            0    5199.1187    19.922071    20.028071    20.764966     8285.235    7296.1084    3200.4399    5100.8077    112.76639    1173.9143    1144.5163   -3537.7623 
 6097000    266.09083   -4692.4986     -4179.32   -4692.4986            0    6239.2419    20.018606    20.047237    20.502051    8227.8365    6043.7159    6081.5241    6592.4858    252.20417    1231.9963   -44.123268    -3430.645 
 6098000    265.94707   -4696.8739   -4183.9726   -4696.8739            0    4542.6122    19.986665    19.997844    20.738849    8289.1148    4160.6234    5064.9939    4402.2193    129.11491   -314.50906    172.57091   -3634.8242 
 6099000    251.36135   -4672.9457   -4188.1742   -4672.9457            0    3053.1872    19.848901    20.213149    20.929553    8397.1212    1771.6444    5045.7013     2342.216    -249.8247   -738.40626   -1020.0246   -3814.2705 
 6100000    264.01824   -4685.7689   -4176.5875   -4685.7689            0    5859.1871    19.885121    20.120115    20.567325    8228.8001    6082.9054    5057.0128    6437.6431   -563.67974    966.87919    704.35313   -3473.4346 
 6101000    254.81953   -4724.2156   -4232.7747   -4724.2156            0    4611.9199    20.178255    20.106297    20.528051    8328.4355    3664.1868     4678.116    5493.4571    52.760322    619.88009    1019.8912   -3672.6032 
 6102000    258.78448   -4670.2014   -4171.1137   -4670.2014            0    4831.4951    19.962883    19.988668    20.773671    8289.3482    6288.0299    3744.9075    4461.5478    416.42809   -832.80935    302.29435   -3587.0264 
 6103000    259.10143   -4664.2089     -4164.51   -4664.2089            0    4589.1501    19.934255    19.922948    20.915985    8306.7655    5224.9662    5036.3901    3506.0941    1511.8485   -354.50099    566.17498   -3608.5544 
 6104000    265.24601   -4669.9888   -4158.4396   -4669.9888            0    5995.4791    19.994484    19.970827    20.619557    8233.5205    5041.6032    6898.1542    6046.6799   -162.68202   -16.975448    1212.5354   -3438.5177 
 6105000    270.58947   -4663.1048   -4141.2503   -4663.1048            0    7442.6294    20.086722    20.097442    20.468073     8262.792    7123.5515    6975.2852    8229.0515   -571.52043   -1466.6906    -788.9021   -3244.3811 
 6106000    259.38051   -4714.3302   -4214.0931   -4714.3302            0      7599.79    20.019979    19.868197    20.627244    8204.7107    8338.5369    5971.8731    8488.9599   -93.444649    -481.8468   -634.94839   -3304.7228 
 6107000    257.69872   -4676.0535   -4179.0598   -4676.0535            0    6297.9943     19.85611    20.173942    20.675071    8281.9377    6740.9883    5506.4167    6646.5779   -666.01136    232.82326    385.31483   -3418.3656 
 6108000    267.47317   -4675.1375    -4159.293   -4675.1375            0    5649.2785    20.013442    19.872104     20.99124    8348.4094     7055.471    6370.2166     3522.148   -271.30092    824.46165     1823.316   -3471.4765 
 6109000    271.47568   -4697.5535   -4173.9899   -4697.5535            0    6820.8037    19.902441    19.955899     20.82218    8269.9683    7953.0153    6646.5625    5862.8334    343.98375   -569.45859    489.03893   -3351.3395 
 6110000    267.69154   -4665.1618   -4148.8962   -4665.1618            0    7054.5217    19.980245    19.858014    20.756559    8235.5377     6040.305    9352.9907    5770.2693   -1118.9247    1032.9914   -337.71737   -3301.5997 
 6111000    265.56264   -4648.9349    -4136.775   -4648.9349            0     7278.619    19.980961    19.983222     20.54799    8204.4833    7129.7249    7596.5947    7109.5375    943.88215   -71.854303    1333.7416   -3265.8593 
 6112000    270.16001   -4680.2798   -4159.2535   -4680.2798            0    4401.3213    20.000551    20.027292    20.765551    8317.7841     3806.017     5344.975    4052.9719   -505.98451   -78.767949   -547.10708   -3625.3453 
 6113000    260.42037   -4706.3921   -4204.1495   -4706.3921            0    3864.4341    20.213355    20.026397    20.537979    8313.7879    2825.8966    4402.9456      4364.46    687.46023    1359.3053   -109.71683   -3735.5943 
 6114000    252.04989   -4641.7131   -4155.6137   -4641.7131            0    4446.3533    19.889803     20.09407    20.837217    8327.9499    3415.5859    4865.5002    5057.9736   -279.53875   -1398.9082   -1136.5929   -3615.5836 
 6115000    261.08449   -4673.9692   -4170.4458   -4673.9692            0    7571.6796    19.701389    20.005624    20.737544    8173.4661    9626.1333    5032.3713    8056.5342    61.819531   -368.34909    729.06834   -3267.8893 
 6116000    247.00756   -4682.3445   -4205.9697   -4682.3445            0    3893.0354    19.567697    20.195476    21.103533    8339.6723    4421.3965    4048.2744    3209.4352   -759.80917    637.73814   -85.789986    -3732.477 
 6117000    262.44637   -4695.9004   -4189.7505   -4695.9004            0      5623.97    20.153666    19.786341    20.709451     8258.252    5978.5912    4577.8767    6315.4421   -535.34819    1818.3658    732.05533   -3512.4101 
 6118000    254.87218   -4679.7394    -4188.197   -4679.7394            0    6684.2019     20.01371    19.955895    20.696321    8265.9344    6346.7677    7454.5835    6251.2545    256.53995    1304.2676    651.99259   -3382.4153 
 6119000    266.00867   -4717.7896   -4204.7695   -4717.7896            0     6870.034    19.897193    20.219879    20.592769    8284.8585     7350.686    6890.0191    6369.3971   -485.67727    312.69419   -1100.1585   -3374.6896 
 6120000     258.7701   -4650.9309    -4151.871   -4650.9309            0    4957.6189    20.091413    19.838017    20.727707    8261.5207    5224.0371    3923.2259    5725.5938    278.30291   -72.307901    1016.3814   -3554.5483 
 6121000     256.1323   -4715.4582   -4221.4855   -4715.4582            0    3771.8342    19.962781    20.079526    20.811012    8341.9526    5346.3388    2850.5156    3118.6482     468.0083   -3208.5331     342.7516   -3762.6086 
 6122000    255.61505   -4642.4108   -4149.4357   -4642.4108            0    6816.3265    20.098202    19.994098     20.72313    8327.4946    5210.5676    7870.3092    7368.1026    13.988086    1240.7122   -138.66123   -3321.6067 
 6123000    257.61138   -4665.8869   -4169.0617   -4665.8869            0    5708.2299    19.818205    20.160123    20.689279    8266.1418    5544.5769    6023.8763    5556.2365   -650.98032   -293.54901    900.81542   -3480.9163 
 6124000    261.34875   -4667.3498   -4163.3168   -4667.3498            0    6845.1283    20.085314    19.990249    20.608846    8274.6666    7663.3005    6960.2307    5911.8537   -655.18535    641.86787   -615.20996   -3337.2636 
 6125000    274.25983   -4675.3438   -4146.4106   -4675.3438            0    4158.0788    20.092685    19.973074    20.780521    8339.4868    5423.1001    3704.9129    3346.2234    507.54366    205.07262    220.74558   -3640.6932 
 6126000    249.92015    -4689.372   -4207.3799    -4689.372            0    5753.7317    20.051244    20.083334    20.500353    8255.4068    5468.2963    4703.4419    7089.4571    109.80838    1816.5071   -1105.8385     -3514.65 
 6127000    267.85591   -4695.8406    -4179.258   -4695.8406            0     5257.773    19.899057    20.271556    20.443779     8246.711    6487.8428     3110.345    6175.1312    153.98984   -515.05453    380.82749   -3546.9065 
 6128000    254.18211   -4681.3396    -4191.128   -4681.3396            0    5252.6132    20.159807    19.778542    20.779027    8285.2541     3542.761      7363.87    4851.2086     290.5838   -898.93755   -269.98692   -3556.4446 
 6129000    268.86522   -4649.9219   -4131.3927   -4649.9219            0    4698.2303    20.062938    20.093472    20.707662    8347.9645    4063.7256    5685.4639    4345.5013    781.28937   -1246.7411   -55.929841   -3559.3996 
 6130000    250.37982   -4694.6962   -4211.8177   -4694.6962            0    5827.4929    20.139818    19.829341    20.529843    8198.7837    3902.2791    6495.9793    7084.2204    956.17037    358.38597   -311.59442   -3515.0194 
 6131000    247.19922    -4691.515   -4214.7705    -4691.515            0    5874.7848    20.046337    20.022894    20.636521    8283.2044    5003.7001    6676.5859    5944.0683   -52.126995   -400.78172    324.77261   -3505.0845 
 6132000    267.72888   -4649.2279   -4132.8902   -4649.2279            0    6189.6724    19.974678    19.969077    20.664823    8242.6996    7029.7414     5367.837    6171.4388    702.45283    -1439.646     1153.503   -3388.8215 
 6133000    270.42076   -4664.3423   -4142.8131   -4664.3423            0    5800.7581    19.938144    20.083527    20.698122    8288.1129    5122.4744    7291.9497      4987.85   -491.85844    407.83569   -138.34955   -3441.6545 
 6134000    256.29883   -4682.9123   -4188.6184   -4682.9123            0    5457.6476    19.857822    20.139925    20.520105    8206.7091    5579.3036    6861.4755    3932.1636   -231.90842   -498.89667    -776.7505    -3535.412 
 6135000    263.00792   -4684.6534   -4177.4205   -4684.6534            0    6271.2863    20.250916    20.101726     20.36003    8288.1279    5381.4872    6415.2795    7017.0924    241.79452    107.59525   -316.19575    -3419.386 
 6136000    274.29694    -4695.264   -4166.2593    -4695.264            0     6356.453    20.025002    19.901357    20.665024    8235.5225    5470.4715    6966.2319    6632.6557   -618.17877   -701.23254    773.44659    -3402.807 
 6137000    258.52575    -4689.587   -4190.9984    -4689.587            0    6832.5628    19.922722    19.893367    20.678099    8195.3513    5925.4632    7378.4407    7193.7846    487.51448    1086.4088    1494.3849    -3374.365 
 6138000    245.66117   -4664.4566   -4190.6784   -4664.4566            0    5840.7826    19.749914    20.272543    20.650352    8268.0079    6123.9245    5421.0885    5977.3348   -148.92545   -372.56965   -823.67813   -3486.3944 
 6139000    246.59286   -4692.0051     -4216.43   -4692.0051            0    6657.9594     19.90173    20.038099    20.594785    8213.0532    6494.1398    6605.2809    6874.4574   -249.57873    1303.7786    773.83147   -3418.9466 
 6140000    265.49904   -4676.2458   -4164.2086   -4676.2458            0    5452.1724    19.895779    20.115083     20.68753    8279.2581    7446.6884    4896.6664    4013.1623    97.314486    1484.9261    1108.6973   -3505.8888 
 6141000    267.07471   -4700.9483   -4185.8722   -4700.9483            0    4717.2252    20.056543    20.014363    20.680056    8301.3659    4099.2862    5308.9101    4743.4794   -184.26139    -190.7716    1630.8722   -3614.7724 
 6142000    258.48928   -4685.7196   -4187.2013   -4685.7196            0    4020.2853     19.94228    20.064486    20.696769     8281.431     4286.763    5432.4794    2341.6136   -665.59194   -196.75163   -794.69019   -3701.6466 
 6143000    252.56743   -4674.4663   -4187.3688   -4674.4663            0    6020.1257    20.142047    19.981391      20.6767    8321.6712    5684.3007    5650.3961    6725.6802    690.98835   -557.38753   -470.99089    -3456.748 
 6144000    257.57042   -4665.1927   -4168.4465   -4665.1927            0    5427.7507    19.813507    20.109251    20.730821    8259.8804     6946.282    4665.7345    4671.2357    -397.6379    90.665394    220.87866   -3514.6094 
 6145000    274.57643   -4712.0771   -4182.5334   -4712.0771            0    5769.3188      20.0765    19.752886    20.749049    8228.4257    6209.4221    5814.0941    5284.4403    300.84607    235.59457   -946.71592   -3490.1969 
 6146000    257.78759   -4696.4139   -4199.2488   -4696.4139            0    6880.8281    19.938725    20.140874    20.467705    8219.4891    7347.4247     5480.196    7814.8635   -175.56437   -438.62625    788.68425   -3374.4246 
 6147000    261.86244   -4714.2843   -4209.2606   -4714.2843            0    5681.8572    19.932359    19.989437     20.82898    8299.0288    5085.0094    7035.6626    4924.8994   -64.019749    144.39309    545.32728   -3521.5694 
 6148000    252.28389   -4674.5811   -4188.0303   -4674.5811            0    5439.4235    19.900655    19.978034    20.787908    8264.7725    6218.8744    5203.8943    4895.5017    493.09029   -406.29349   -360.42899   -3532.3991 
 6149000    279.82178   -4689.5676   -4149.9078   -4689.5676            0    5663.3025    19.946905    20.151063    20.564222    8265.8167     6628.367     4605.232    5756.3086   -101.12585    526.39798   -427.18296   -3467.2054 
 6150000     260.0495   -4689.3693    -4187.842   -4689.3693            0    5043.6755    19.843827    20.222426     20.65426    8288.3546    5192.5943    3984.5642    5953.8682   -18.547055    308.92619   -778.10195   -3578.1769 
 6151000    264.35178   -4646.3767    -4136.552   -4646.3767            0    5088.5385     20.04568    19.896113    20.781173    8288.1784     4841.719    5030.9531    5392.9435    371.05458   -21.730078   -88.456189   -3521.4771 
 6152000    271.56279   -4681.1262   -4157.3945   -4681.1262            0      5185.49    20.067813    20.068164    20.617458    8303.1483    3996.8043    5994.8623    5564.8034    -286.4532     226.2243   -337.33893   -3529.4684 
 6153000    253.17205   -4670.2038   -4181.9402   -4670.2038            0    5497.5997     19.97732    20.156196    20.507842    8257.8264    6414.8725    2550.3422    7527.5845    -832.4027    143.13303    460.87793   -3519.8536 
 6154000     264.9821    -4696.016   -4184.9757    -4696.016            0    5996.0901    20.166006    19.857959    20.624352      8259.14    3950.1475    7208.2173    6829.9054   -175.21911    810.12497    1632.7639   -3462.7402 
 6155000    260.62764   -4687.6224   -4184.9801   -4687.6224            0     5327.746    20.069638    20.048296    20.564871    8274.5235    3795.5801    6905.2825    5282.3754    164.88853    172.32962    185.86891    -3542.052 
 6156000    257.00952   -4699.0447   -4203.3802   -4699.0447            0    5499.0725    20.009745    20.123392    20.613681    8300.3862    3906.6517    6271.1917    6319.3739   -544.00436    1279.8143   -487.34991   -3537.7031 
 6157000    254.58938   -4661.8009   -4170.8039   -4661.8009            0    5215.1202    19.917963     20.01447     20.87205      8320.59    5668.4106    4842.0073    5134.9425   -335.81572    26.366584    291.83502   -3537.9633 
 6158000    250.67162   -4693.4715   -4210.0301   -4693.4715            0    4936.5636    20.035214    19.972803    20.766017    8309.7167    3092.7408    6631.4515    5085.4985   -155.54775    49.853438   -1237.9941   -3611.7745 
 6159000     261.6182   -4697.8097    -4193.257   -4697.8097            0    6774.4355    19.864473    20.104107    20.546034    8205.2128     6376.596    6516.9715    7429.7388   -383.72193    865.73731    1087.8866   -3382.5968 
 6160000    268.09742   -4693.5997   -4176.5512   -4693.5997            0    4505.3099     20.10837    20.291525    20.339165    8298.9795    3164.6945    4715.2039    5636.0312    867.49049    -440.3724     1266.484   -3631.2641 
 6161000    259.74549   -4693.0147   -4192.0736   -4693.0147            0    6454.5865    20.062147    19.961984    20.553749     8231.371    5478.8953    6458.7691    7426.0952    478.70239    493.60798    338.96638   -3417.2257 
 6162000    267.02335    -4676.786    -4161.809    -4676.786            0    4372.7016    19.911911    19.943358    20.751927    8240.8056    3655.7647    4011.5952     5450.745    689.80759    693.78105   -230.13476   -3636.2816 
 6163000    262.71684   -4677.4814   -4170.8099   -4677.4814            0    5187.4402    19.989576    19.900762    20.935239    8328.2014    5493.7392     5978.134    4090.4473    1028.3004    123.22116     32.29856   -3540.7524 
 6164000    268.25705   -4705.9198   -4188.5635   -4705.9198            0    6121.6505    19.925627     20.07984    20.696716    8280.8268    5546.6156    6277.1198    6541.2162    796.17657    440.55781      1422.31   -3449.2679 
 6165000    266.55802   -4698.9557   -4184.8761   -4698.9557            0    4221.4014    20.058549    20.093511    20.723641    8352.5948    3219.1915    6369.5257    3075.4872    148.34682   -392.50916   -179.52457   -3670.6502 
 6166000    264.69776   -4662.0072   -4151.5153   -4662.0072            0    6959.9119    20.099898    19.990848    20.532765    8250.3526    6954.7763    7531.1128    6393.8464   -399.58508    1166.4639   -1166.7816   -3314.0783 
 6167000    262.46953   -4677.8287   -4171.6342   -4677.8287            0    4243.2729    19.989654    20.353967    20.362792    8284.9841    4121.1874    2718.6144     5890.017   -437.02722   -293.61402   -339.53126    -3658.928 
 6168000    266.16615   -4653.4635   -4140.1397   -4653.4635            0      5675.38    19.960865    20.025023    20.715334    8280.2668    7476.3525    4877.7843    4672.0033   -890.70105   -209.11528   -893.60473   -3454.7854 
 6169000    271.45622   -4667.5146   -4143.9884   -4667.5146            0    4934.6163    19.790312    20.089232    20.847556    8288.4081    7085.4487    4167.0909    3551.3092    331.78747   -205.96759    779.37605   -3547.5022 
 6170000    268.28114   -4671.0975   -4153.6947   -4671.0975            0    6519.6608    20.061237    20.176885    20.438107    8272.7992    5746.1572    6822.7727    6990.0526   -225.10899    53.003035   -339.64084   -3367.0957 
 6171000    266.92051   -4672.0259   -4157.2472   -4672.0259            0    6178.8459    20.133388    20.054143    20.524425    8286.8974    6382.8215    6224.7274    5928.9888   -888.12925    919.61589    754.71255   -3410.4973 
 6172000    260.19998   -4684.1094   -4182.2919   -4684.1094            0    5706.1008    19.968194    20.019175    20.682788    8267.8782    5555.6717    5551.1014    6011.5292    41.548198    529.94386   -325.88266   -3494.2587 
 6173000    259.96581   -4697.5012   -4196.1352   -4697.5012            0    6965.6055    19.803903    19.875193    20.917551    8233.2821    7772.2381    7808.4625     5316.116    -271.3999   -406.64935   -95.321251   -3359.7473 
 6174000    253.20755   -4656.6004   -4168.2684   -4656.6004            0     5675.606    19.852445    20.214983    20.544124    8244.7026    5252.1319    5020.5062    6754.1798    39.622538   -338.76541    93.712254   -3485.8305 
 6175000    261.48303   -4687.3305   -4183.0385   -4687.3305            0     7019.732    20.089646      20.0364     20.37377    8200.9355    7688.9267    6350.7792    7019.4901    124.37502   -48.134808   -653.27066   -3343.4628 
 6176000    247.55728    -4688.733   -4211.2979    -4688.733            0    5483.3684    20.089921    19.924627    20.712755    8290.9882    6988.5617    5170.1468    4291.3968   -897.33353   -35.377634   -987.98768   -3548.2734 
 6177000    269.16241   -4701.8588   -4182.7564   -4701.8588            0    3638.7991    20.142245    19.917724    20.750262    8324.7497    2966.3321    5410.6842    2539.3811    232.37236   -21.627127    52.278979   -3740.9773 
 6178000    260.53081   -4676.4189   -4173.9633   -4676.4189            0    6239.4792    19.838799    20.037081    20.698066     8227.722    6590.4034    6286.9533     5841.081    599.30634   -2070.2647   -377.37928   -3425.2702 
 6179000    273.56304   -4679.1653   -4151.5759   -4679.1653            0    5077.6401    20.118151    19.919719     20.66003    8279.4642    5321.8678    4430.3841    5480.6685    397.77782    791.50476   -704.75112   -3538.4636 
 6180000    280.82712   -4698.4381   -4156.8394   -4698.4381            0    4082.2744     20.15364    19.976231    20.721706    8342.4297    4304.8684    4313.5324    3628.4223    471.47232   -958.21695   -237.33217   -3660.1663 
 6181000    257.23744   -4684.2969   -4188.1929   -4684.2969            0    7347.0244    20.080073    20.081797    20.577554    8297.7738    6799.5532    7068.4999      8173.02   -903.57875   -1129.3888    1454.1361   -3299.0963 
 6182000    259.09968   -4680.0805   -4180.3849   -4680.0805            0    5609.7477    20.074045    19.831073    20.821025    8288.6386     5312.158    6258.1593    5258.9258   -56.884399   -778.66456   -1218.8923   -3502.2714 
 6183000     260.8626   -4710.7883   -4207.6928   -4710.7883            0    6881.2574    19.775943    19.988688    20.898672    8261.1439    7001.4594    7447.6541    6194.6587   -1011.0059    1391.3441   -592.90762   -3378.6368 
 6184000      255.497   -4690.6736   -4197.9262   -4690.6736            0    4413.7438    19.814846    20.030735    20.868734    8282.9246    5771.9476    4387.5669    3081.7171     704.7396    70.988003     -128.275   -3664.7549 
 6185000    265.81724   -4666.3751   -4153.7241   -4666.3751            0    6216.1067    20.015104    20.053408    20.627514    8279.2869    5802.1549    6626.6375    6219.5278   -201.45616    428.15368     83.67754   -3403.1609 
 6186000    257.16867   -4653.1563   -4157.1849   -4653.1563            0    5122.8442    20.119106    20.108784    20.518352    8301.1254    5538.5454    4504.3002     5325.687   -755.50996    1574.6679     433.4103   -3536.9959 
 6187000    253.22633   -4678.7624   -4190.3941   -4678.7624            0    5442.4567    19.936994    19.941114    20.702255    8230.5097    6362.9691    5281.7947    4682.6062    394.34212   -432.42905    112.53855   -3537.1168 
 6188000    264.42682   -4675.0073    -4165.038   -4675.0073            0    5625.2373    20.010883    19.881301    20.847593    8294.0561    5600.7225    6606.8632    4668.1264    285.57034   -1308.1751   -276.76452   -3484.6076 
 6189000    255.14402    -4693.294   -4201.2273    -4693.294            0    5894.4635    19.996154    19.844247    20.829711    8265.4084     6837.536    5764.4677    5081.3868    138.14786    -1086.453    801.50085   -3490.6939 
 6190000    266.24639     -4644.82   -4131.3414     -4644.82            0    4384.5756    20.049914    20.115198    20.547849    8287.1119    5523.5604    2719.2955     4910.871    267.86133    56.125299   -1316.4323   -3601.4259 
 6191000    271.17013   -4702.6375   -4179.6631   -4702.6375            0    4445.1196     20.16784    20.124471    20.531139     8332.914    4700.6032    4461.0083    4173.7473    16.589146    -662.5949    407.26451   -3639.4611 
 6192000    252.72739   -4659.7104   -4172.3044   -4659.7104            0    4584.0126    20.051682    19.992753    20.797155    8337.3363    5143.0825    4169.9125    4439.0428    242.46377   -690.68047    515.53392   -3614.9274 
 6193000    245.90055   -4638.6512   -4164.4113   -4638.6512            0    5872.5353    19.992468    19.836309    20.767531    8235.9205    5390.3534    6367.7022    5859.5503   -257.21142   -685.12269   -126.43022   -3459.0467 
 6194000    267.79013   -4659.8934   -4143.4377   -4659.8934            0    6172.4627    19.912584    20.044081    20.662448    8246.9914    7579.1944    4273.4277    6664.7662    315.58973    415.88335    1152.3707   -3401.0514 
 6195000    263.66999   -4688.0956   -4179.5858   -4688.0956            0    3660.7581    19.923366     20.17257    20.788485    8355.0067    4347.0299     2140.099    4495.1455   -266.98165    1653.9865    1544.2589   -3733.5254 
 6196000    261.54868   -4682.4012   -4177.9826   -4682.4012            0    4666.4612    19.969322    20.054223    20.721735    8298.4175    4944.2083    3608.8003     5446.375    1393.1131   -32.384694   -1425.3008   -3613.2292 
 6197000    254.81518   -4663.3241   -4171.8916   -4663.3241            0    6191.1751    19.715634    19.980733    21.072751    8301.2479     11687.69    2953.3228    3932.5123    165.12506   -33.878178   -992.87785   -3422.3558 
 6198000    255.13032   -4656.4909   -4164.4507   -4656.4909            0    6112.1925    19.909298    19.897904    20.781287    8232.5754    5213.6758     8389.657    4733.2446   -68.722087    771.12976    68.358875   -3430.5984 
 6199000    274.00077   -4676.5059   -4148.0723   -4676.5059            0    3467.4135    19.960828     20.22024    20.621387    8323.0546    4383.0491    2098.4795    3920.7118    222.97234    24.591012   -246.63069   -3727.1865 
 6200000      262.697   -4693.9648   -4187.3316   -4693.9648            0    5979.5432    19.706025    20.258008    20.692939    8260.7208    7220.8837      4809.07     5908.676    247.60393     196.0249   -1368.2781   -3466.9513 
 6201000    253.27696   -4677.2003   -4188.7344   -4677.2003            0    6334.9808    20.247466    19.994898    20.423183    8268.2444    4286.7133    5795.9458    8922.2833    630.39456    432.18416    405.72464   -3424.8379 
 6202000    245.93306    -4647.422   -4173.1194    -4647.422            0    5280.3028    19.941301     20.16287    20.642067    8299.6354     4862.562    5979.4891    4998.8573    183.74401    913.71602    561.80762   -3533.9827 
 6203000    258.52614   -4704.8293   -4206.2399   -4704.8293            0    5473.4436    20.203341    19.848762    20.580995    8253.2118    5056.8337    6458.2098    4905.2873     96.10053    612.91297   -65.856157   -3547.4309 
 6204000    256.40937    -4701.387   -4206.8799    -4701.387            0    5546.8413    19.891884    19.926642    20.973591    8313.4794    6051.7626    6116.6025    4472.1589   -1129.4816   -1069.2926    261.73411   -3534.3611 
 6205000    252.10491   -4700.2974   -4214.0919   -4700.2974            0    4891.6468    19.880038    20.104286    20.725519    8283.4503    5219.3429     3689.193    5766.4045    475.55725   -781.68356    367.58575   -3623.1534 
 6206000    258.76968   -4702.4267   -4203.3676   -4702.4267            0    7762.1846    19.960425    20.141695    20.388519    8196.9346    6150.4609    7926.6101    9209.4828   -561.46125    15.417985    644.13756   -3275.4459 
 6207000    264.74762   -4687.2601   -4176.6721   -4687.2601            0    4361.5928    20.006891     20.22133    20.615658    8340.3933    3708.2239    5339.2059    4037.3487    196.73542   -572.07807    609.55417    -3646.145 
 6208000    264.17412   -4674.8144   -4165.3324   -4674.8144            0    6183.6287     20.21412    19.768052    20.593313      8228.96    6236.1329    6321.3781    5993.3752    192.60196    406.12211     514.4721   -3423.2293 
 6209000    261.71237   -4699.8635   -4195.1291   -4699.8635            0    4089.1221    20.170572    20.061477    20.737451      8391.44    3792.6874    4207.3507    4267.3281   -819.31066    679.16022   -535.06384   -3694.7002 
 6210000    267.95634   -4666.1592   -4149.3829   -4666.1592            0    5890.8887    20.236101     19.94405    20.567039    8300.6474    4239.7576    6539.0607    6893.8477    308.11123    383.18288    240.42884    -3436.253 
 6211000    269.23272   -4689.9698   -4170.7318   -4689.9698            0    4820.9003     20.30005    19.781641    20.607308    8275.2417    3441.1446     7447.877    3573.6793   -993.11072    909.30992   -40.493044   -3588.9171 
 6212000    259.05907   -4678.7869   -4179.1697   -4678.7869            0    5131.8504    19.802567    20.088549    20.883559    8307.5807    5681.3795    4703.6798    5010.4918    201.27357    130.97586   -827.02175   -3557.4073 
 6213000    282.07337   -4702.6257   -4158.6235   -4702.6257            0    3956.1229    20.161642    20.008718    20.716615    8357.2609    6101.3292    2744.0032    3023.0364    135.96525    1274.1723    -36.39648    -3676.443 
 6214000      266.047   -4676.6897   -4163.5957   -4676.6897            0    7343.5425    19.885128    19.884662     20.70609    8187.3753    8219.2581    6918.6377    6892.7317    870.94359    655.46448   -100.12703   -3286.7439 
 6215000    251.59666   -4709.1489   -4223.9236   -4709.1489            0    6142.7167    20.030484    19.761114    20.635302    8167.9621    6486.5507    6206.9027    5734.6969   -811.41504    190.23556    -797.3709   -3492.1949 
 6216000    259.60919   -4695.8661   -4195.1879   -4695.8661            0    4825.6462    19.804315    19.971147    20.918759    8273.6804     5260.149    4398.8446     4817.945   -789.92923    342.21551    57.258628   -3612.9103 
 6217000    257.69592   -4712.7413    -4215.753   -4712.7413            0    6097.9398    19.906425    19.958221    20.714623     8229.854    6544.9339     5932.227    5816.6586   -37.665361    122.57729   -16.584418    -3483.854 
 6218000    272.03385   -4679.3546   -4154.7144   -4679.3546            0    6608.0719    20.173378    19.810953    20.614053    8238.4855    5308.6412    8343.5559    6172.0185    214.92827    1809.2696    1270.6391   -3360.7555 
 6219000    260.47793   -4675.2292   -4172.8756   -4675.2292            0    4219.3659    20.283382    19.963899    20.587818    8336.7361    3529.1208    4707.2881    4421.6888   -704.28099     600.1615    -223.1189   -3659.8735 
 6220000    259.37763   -4707.4973   -4207.2658   -4707.4973            0    5791.2681    19.786462    20.090085    20.796961    8267.0358    8022.4926    4916.6444    4434.6672   -122.62455   -392.84102    541.61552   -3509.0344 
 6221000    256.41338   -4674.5408   -4180.0261   -4674.5408            0     5524.975     19.69033    20.021906    20.952612    8260.3145    5146.4408    4692.7624    6735.7218    52.808901    805.52294   -506.51804   -3514.4422 
 6222000    258.93085   -4694.3281   -4194.9582   -4694.3281            0    6167.0569    20.004521    20.013785    20.602692    8248.6209    6731.0792    5860.3787    5909.7126    826.15492   -710.98377   -380.72426   -3453.0756 
 6223000    254.89257   -4688.0604   -4196.4787   -4688.0604            0    4516.0765    20.113569    20.093764     20.55045    8305.6143     5464.052    3155.8158    4928.3615     295.9842    671.61975    -9.875467   -3649.4515 
 6224000    269.02107   -4705.5666   -4186.7368   -4705.5666            0    4524.1322    20.150519    19.979063    20.639594    8309.2631     4776.951    3455.1851    5340.2604    351.12496    209.35569   -870.04981   -3638.4931 
 6225000    263.93128   -4706.3068   -4197.2931   -4706.3068            0    5658.1969    20.020632    19.897819    20.624619    8216.1656    4606.8418    6867.1133    5500.6356   -587.62008    859.31475    133.05696   -3519.3033 
 6226000    260.50216   -4680.9321   -4178.5318   -4680.9321            0     4277.673    19.935308    20.276168     20.58928    8322.4269    5639.4504    2792.9549    4400.6136   -529.16779     647.8019    171.74319   -3659.3332 
 6227000    280.74842   -4664.5526   -4123.1056   -4664.5526            0    5687.7873    20.166498    20.227855    20.464994    8348.1828    5765.2549    4332.0982    6966.0087   -682.21423   -240.58092   -1105.2917   -3430.6193 
 6228000    278.49872   -4689.1856   -4152.0774   -4689.1856            0     6628.433    20.018136    19.947214    20.652849    8246.8072    7066.1284    7045.1467    5774.0239   -69.509398    1034.7481    117.59523   -3354.8677 
 6229000    279.41989   -4704.4466   -4165.5619   -4704.4466            0    5020.3098    20.009144    20.123949    20.623197    8304.1983    4044.5505    5862.1963    5154.1826    749.71751    1228.2726   -1359.9517   -3557.5611 
 6230000    266.61121    -4650.058   -4135.8759    -4650.058            0    7907.1466    19.886222    20.146034     20.59464       8250.8    8966.2318     7285.341    7469.8671    564.38803    844.32148    648.07444   -3184.4132 
 6231000    269.38969   -4679.7568   -4160.2162   -4679.7568            0    5575.2433    19.959069    20.038387    20.725807    8289.2358    6272.2589    3893.0011    6560.4698   -33.034792   -1430.7232   -436.25224    -3486.225 
 6232000    256.31857   -4667.5085   -4173.1765   -4667.5085            0    6532.1406    20.002915    19.902849    20.909046     8324.205    10119.341    3476.5193    6000.5612    -26.34714   -1565.4659     901.7308   -3380.1747 
 6233000    260.14938   -4696.0829    -4194.363   -4696.0829            0    6125.1822    20.040939    19.863669    20.815965    8286.5559    5482.7212    7832.0649    5060.7604    434.95854   -169.02072    632.40225   -3454.1291 
 6234000    267.39648   -4677.9259   -4162.2293   -4677.9259            0    5401.8601    19.940799    20.065141    20.642845    8259.5108     5244.818     4918.318    6042.4443    -552.0849    1365.1636   -799.06884   -3511.5402 
 6235000    263.96194   -4715.5654   -4206.4927   -4715.5654            0    3469.3013    20.009434    20.145367    20.714338    8349.8953     2537.332    2710.3162    5160.2558     406.8992    926.18139   -65.611904   -3784.0197 
 6236000    251.21272   -4686.8596   -4202.3748   -4686.8596            0    4082.6957    19.954887    20.140735    20.713787    8324.9973     5773.004     2884.109     3590.974   -405.54787    976.51793    243.37702   -3706.6884 
 6237000    268.53361   -4691.5404   -4173.6507   -4691.5404            0    4249.3991    20.152779    20.108617    20.418472    8274.4739    1926.2477      5403.01    5418.9396    910.87835    614.63261    486.77099   -3660.8557 
 6238000    278.77091   -4696.8246   -4159.1915   -4696.8246            0    5317.1539    19.858127    20.204208     20.63851     8280.536    8221.9019    1505.1928    6224.3671   -113.54394    532.69569    199.09411   -3517.0753 
 6239000     256.8807   -4665.4703   -4170.0542   -4665.4703            0     6226.857    20.153152    19.726269    20.638332    8204.6963    5830.3029    5923.9776    6926.2906   -42.204841    374.39646   -617.96296   -3424.9667 
 6240000    265.01747   -4677.3076   -4166.1991   -4677.3076            0    3964.0751    20.115391    20.110792    20.616293    8340.0416    4310.7593    4015.7283    3565.7378   -346.03489   -337.86318    994.62989   -3684.0449 
 6241000    252.34165   -4697.1662   -4210.5041   -4697.1662            0     4149.461    20.101697    20.094366    20.605075    8323.0256    4547.9286    3118.4702    4781.9841    -267.1519   -118.73742    478.09692    -3706.831 
 6242000    266.12906   -4694.6004   -4181.3481   -4694.6004            0    3210.1937    20.114753    20.057229    20.719287    8359.1176    2921.8622     2495.986    4212.7328    283.59895   -1915.4857    314.78134   -3789.9961 
 6243000    262.56853    -4665.115   -4158.7295    -4665.115            0    6168.5266    19.889656    19.811194    20.971573    8263.5929    6869.9343    6998.3062    4637.3393   -777.90913    664.45008   -184.34194   -3415.3232 
 6244000    268.07945   -4682.8182   -4165.8045   -4682.8182            0    4590.8342    20.026491    20.083598    20.636292     8299.999    6909.7056    2346.2225    4516.5745    806.63038    1003.0846     543.5289   -3610.0979 
 6245000      283.203   -4682.9696   -4136.7888   -4682.9696            0    4266.5312    20.192656    20.195704    20.420708    8327.6648    5209.2442    2456.7816    5133.5679    94.630809    164.32855    42.120231   -3618.6167 
 6246000     268.8038    -4684.241   -4165.8302    -4684.241            0    4859.8713    19.965547    20.167531    20.618839     8302.295    4844.4307    4032.5604     5702.623   -4.9378136    383.04036   -12.889046   -3577.3948 
 6247000    263.95987   -4688.3259   -4179.2571   -4688.3259            0     7304.345    20.204271    19.761957    20.640797    8241.3731    8770.1524     6195.437    6947.4457   -89.432268   -1723.2525   -400.63116   -3301.3335 
 6248000    259.00809   -4649.7469    -4150.228   -4649.7469            0    5131.7032      20.0439    19.991912    20.670499    8282.9972    6158.0547    3994.0499    5243.0051   -591.66859    521.08754    -553.6189   -3530.3233 
 6249000    253.43682     -4690.77   -4201.9958     -4690.77            0    6176.1159    19.883597     20.05516    20.745138    8272.5117    7215.1019    4771.2627    6541.9832    770.19179    634.14016    832.36315   -3456.8715 
 6250000    270.94692   -4656.4726   -4133.9287   -4656.4726            0     5492.239    20.097471    20.029622    20.525618    8262.4797    5247.0528    4480.0311    6749.6333   -54.480718   -41.344726   -282.60103    -3472.115 
Loop time of 400.226 on 64 procs for 250000 steps with 972 atoms

Performance: 107.939 ns/day, 0.222 hours/ns, 624.647 timesteps/s
99.1% CPU use with 64 MPI tasks x 1 OpenMP threads

MPI task timing breakdown:
Section |  min time  |  avg time  |  max time  |%varavg| %total
---------------------------------------------------------------
Pair    | 20.403     | 28.223     | 36.352     |  77.9 |  7.05
Bond    | 0.26706    | 0.27845    | 0.29026    |   0.9 |  0.07
Kspace  | 161.71     | 173.53     | 183.71     |  37.8 | 43.36
Neigh   | 3.0014     | 3.3466     | 3.9307     |  12.1 |  0.84
Comm    | 81.137     | 89.262     | 94.199     |  30.1 | 22.30
Output  | 1.5171     | 1.5216     | 1.5435     |   0.5 |  0.38
Modify  | 94.713     | 96.797     | 100.02     |  12.1 | 24.19
Other   |            | 7.265      |            |       |  1.82

Nlocal:        15.1875 ave          20 max          10 min
Histogram: 1 2 5 7 10 9 9 12 6 3
Nghost:        2233.47 ave        2259 max        2203 min
Histogram: 1 1 4 12 7 10 16 8 2 3
Neighs:        4758.67 ave        6955 max        2550 min
Histogram: 1 1 9 8 10 14 12 6 2 1

Total # of neighbors = 304555
Ave neighs/atom = 313.32819
Ave special neighs/atom = 2.0000000
Neighbor list builds = 8415
Dangerous builds = 0

unfix		3
unfix		2
unfix		1

write_data	data.final.${pid}
write_data	data.final.0
System init for write_data ...
PPPM initialization ...
  extracting TIP4P info from pair style
  using 12-bit tables for long-range coulomb (../kspace.cpp:340)
  G vector (1/distance) = 0.37143859
  grid = 24 24 24
  stencil order = 5
  estimated absolute RMS force accuracy = 0.0036018837
  estimated relative force accuracy = 1.0846966e-05
  using double precision FFTW3
  3d grid and FFT values/proc = 2197 216
Last active /omp style is kspace_style pppm/tip4p/omp
WARNING: Not all mixed pair coeffs generated from mixing. Use write_data with 'pair ij' option to store all pair coeffs. (../write_data.cpp:312)

write_restart   restart.lmp.${pid}
write_restart   restart.lmp.0
System init for write_restart ...
PPPM initialization ...
  extracting TIP4P info from pair style
  using 12-bit tables for long-range coulomb (../kspace.cpp:340)
  G vector (1/distance) = 0.37143859
  grid = 24 24 24
  stencil order = 5
  estimated absolute RMS force accuracy = 0.0036018837
  estimated relative force accuracy = 1.0846966e-05
  using double precision FFTW3
  3d grid and FFT values/proc = 2197 216
Last active /omp style is kspace_style pppm/tip4p/omp
Total wall time: 0:06:42
