#include		in.partitions
include		in.temp
variable        temperature equal 264.07
variable	tempDamp equal 100.0
include		in.pressure
variable        pressure equal 5125.0
variable        pressureDamp equal 1000.0 # This is 1 ps
include		in.seed
variable        seed equal 745823

units		real
atom_style	full

read_restart	restart.lmp.${pid}
read_restart	restart.lmp.0
Reading restart file ...
  restart file = 30 Jul 2021, LAMMPS = 30 Jul 2021
  restoring atom style full from restart
  orthogonal box = (-0.094283160 0.091227044 -0.076160820) to (20.094284 19.908774 20.776159)
  4 by 2 by 4 MPI processor grid
  restoring pair style lj/cut/tip4p/long/omp from restart
  restoring bond style harmonic/omp from restart
  restoring angle style harmonic/omp from restart
  972 atoms
  648 bonds
  324 angles
Finding 1-2 1-3 1-4 neighbors ...
  special bond factors lj:    0        0        0       
  special bond factors coul:  0        0        0       
     2 = max # of 1-2 neighbors
     1 = max # of 1-3 neighbors
     1 = max # of 1-4 neighbors
     2 = max # of special neighbors
  special bonds CPU = 0.002 seconds
  read_restart CPU = 0.010 seconds
include 	in.setup
variable	out_freq equal 1000
variable	out_freq2 equal 10000
variable	out_freq3 equal 1000

timestep	2.0

neigh_modify    delay 7 every 1

include		in.tip4p
# This is TIP4P/Ice

# create groups ###
group ox type 2
324 atoms in group ox
group hy type 1
648 atoms in group hy

# set charges - beside manually ###
set group ox charge -1.1794
Setting atom values ...
  324 settings made for charge
set group hy charge 0.5897
Setting atom values ...
  648 settings made for charge

# ### TIP3P Potential Parameters ###
pair_style lj/cut/tip4p/long/omp 2 1 1 1 0.1577 8.5
pair_coeff 1 1*2 0.000 0.000
pair_coeff 2 2 0.21084 3.1668
bond_style  harmonic
bond_coeff  1 450 0.9572
angle_style harmonic
angle_coeff 1 55 104.52
kspace_style pppm/tip4p/omp 1.0e-5
pair_modify tail yes

thermo          ${out_freq}
thermo          1000
thermo_style    custom step temp pe etotal epair emol press lx ly lz vol pxx pyy pzz pxy pxz pyz enthalpy

restart 	${out_freq3} restart.lmp.${pid} restart2.lmp.${pid}
restart 	1000 restart.lmp.${pid} restart2.lmp.${pid}
restart 	1000 restart.lmp.0 restart2.lmp.${pid}
restart 	1000 restart.lmp.0 restart2.lmp.0


include         in.dump
dump            myDump all atom ${out_freq2} dump.water.${pid}
dump            myDump all atom 10000 dump.water.${pid}
dump            myDump all atom 10000 dump.water.0
dump            myDump2 all dcd ${out_freq2} dump.dcd
dump            myDump2 all dcd 10000 dump.dcd
dump_modify     myDump append yes
dump_modify     myDump2 append yes


variable natoms 	equal  "count(all)"                        # NUMBER ATOMS
variable H      	equal  "enthalpy/v_natoms"                 # ENTHALPY-per-atom
variable Vol      	equal  "vol/v_natoms"                 # volume-per-atom
fix AVG all 		ave/time ${out_freq} 1 ${out_freq} v_Vol v_H file vol_enthalpy.dat
fix AVG all 		ave/time 1000 1 ${out_freq} v_Vol v_H file vol_enthalpy.dat
fix AVG all 		ave/time 1000 1 1000 v_Vol v_H file vol_enthalpy.dat


timer           timeout 02:55:00 every 1000
New timer settings: style=normal  mode=nosync  timeout=02:55:00

fix 		1 all shake 1e-6 200 0 b 1 a 1
       0 = # of size 2 clusters
       0 = # of size 3 clusters
       0 = # of size 4 clusters
     324 = # of frozen angles
  find clusters CPU = 0.000 seconds
fix             2 all nph aniso ${pressure} ${pressure} ${pressureDamp}
fix             2 all nph aniso 5125 ${pressure} ${pressureDamp}
fix             2 all nph aniso 5125 5125 ${pressureDamp}
fix             2 all nph aniso 5125 5125 1000
fix             3 all temp/csvr ${temperature} ${temperature} ${tempDamp} ${seed}
fix             3 all temp/csvr 264.07 ${temperature} ${tempDamp} ${seed}
fix             3 all temp/csvr 264.07 264.07 ${tempDamp} ${seed}
fix             3 all temp/csvr 264.07 264.07 100 ${seed}
fix             3 all temp/csvr 264.07 264.07 100 745823


run             250000
PPPM initialization ...
  extracting TIP4P info from pair style
  using 12-bit tables for long-range coulomb (../kspace.cpp:340)
  G vector (1/distance) = 0.37230559
  grid = 24 24 25
  stencil order = 5
  estimated absolute RMS force accuracy = 0.0034209596
  estimated relative force accuracy = 1.0302118e-05
  using double precision FFTW3
  3d grid and FFT values/proc = 3458 576
Last active /omp style is kspace_style pppm/tip4p/omp
Neighbor list info ...
  update every 1 steps, delay 7 steps, check yes
  max neighbors/atom: 2000, page size: 100000
  master list distance cutoff = 10.8154
  ghost atom cutoff = 10.8154
  binsize = 5.4077, bins = 4 4 4
  1 neighbor lists, perpetual/occasional/extra = 1 0 0
  (1) pair lj/cut/tip4p/long/omp, perpetual
      attributes: half, newton on, omp
      pair build: half/bin/newton/omp
      stencil: half/bin/3d
      bin: standard
Per MPI rank memory allocation (min/avg/max) = 10.19 | 10.19 | 10.21 Mbytes
Step Temp PotEng TotEng E_pair E_mol Press Lx Ly Lz Volume Pxx Pyy Pzz Pxy Pxz Pyz Enthalpy 
12750000    272.39245   -4665.7527   -4140.4209   -4665.7527            0    4700.1161    20.188567    19.817547     20.85232    8342.7604    3888.5979    5617.1083    4594.6422   -158.98475   -102.76266   -1031.9078    -3568.555 
12751000    250.66038   -4673.9325   -4190.5129   -4673.9325            0    4725.7645    19.776329    20.265567    20.785093     8330.219     7758.443    2647.7768    3771.0739    -66.67554   -158.49906   -717.94255   -3616.3906 
12752000    266.57686   -4690.7519    -4176.636   -4690.7519            0    5828.4255    20.125503      19.9241     20.63997    8276.2674    5045.4749    5647.0083    6792.7933   -332.46367   -348.34265     621.3055     -3473.14 
12753000    261.72038   -4694.1908    -4189.441   -4694.1908            0    4988.6233    19.973572    20.127716    20.583152    8274.8878    5460.3065    3927.7647    5577.7987   -259.66269   -213.91924   -827.94894   -3587.4102 
12754000    260.27962    -4720.842   -4218.8709    -4720.842            0    6371.4035    19.901248    19.897812    20.750421    8216.9858    7698.3307    5690.4047     5725.475    306.13393   -884.89239     211.7852   -3455.3454 
12755000    263.96179   -4693.3057   -4184.2332   -4693.3057            0    3985.7322    19.869613     20.00706    20.872542    8297.5149    2760.1156    5117.0925    4079.9884   -446.67819    1745.3668   -549.43166   -3701.9167 
12756000    271.68325   -4683.2954   -4159.3314   -4683.2954            0    4879.3795     19.85185    20.064751    20.871135    8313.4412    4300.9801    6105.3534     4231.805    -391.4613   -64.655482   -827.43325   -3567.7408 
12757000    264.95356   -4698.7539   -4187.7687   -4698.7539            0    4565.6872    20.182838    20.173005    20.510717    8350.9077    4376.1866     4362.532    4958.3429    703.93659    314.68266   -2249.9501   -3631.7163 
12758000    264.34199    -4690.299   -4180.4933    -4690.299            0    4401.8273    20.136109    20.141812    20.586878    8349.5788    1902.7522    6093.4736     5209.256   -121.52921   -1773.7956    868.02619   -3644.4826 
12759000    275.47774   -4688.5003   -4157.2184   -4688.5003            0    4201.5331     19.90756    20.047055    20.847407    8319.9491     4702.686    4267.2176    3634.6958   -626.69164   -578.85568   -550.85849   -3647.4131 
12760000    286.27768    -4718.739   -4166.6285    -4718.739            0    6110.6455     20.00703    19.998428    20.835629    8336.5255    6216.5189      6859.93    5255.4876    198.28483   -238.25051    296.23166   -3423.6982 
12761000    252.22154   -4674.8644   -4188.4339   -4674.8644            0    6321.1017    20.067544    20.075621    20.657913    8322.4205    5076.2056    7966.1413    5920.9582   -327.17993   -127.37623    1474.2558   -3421.2167 
12762000    270.04116   -4651.8373   -4131.0403   -4651.8373            0    5370.0285    20.060013    20.083119     20.49614    8257.2313    5702.8234    5396.6981    5010.5641    96.366049    548.59895    345.45304    -3484.364 
12763000    263.00185   -4645.3499   -4138.1287   -4645.3499            0    4460.8243     20.14693    19.751803    20.878023    8308.1626    5060.7791    5844.5675    2477.1263   -461.97111    68.584068    192.74324   -3597.6283 
12764000     249.6997     -4670.75   -4189.1831     -4670.75            0    6582.5407    19.992385    20.051717    20.669066    8285.8493    7221.8771    4428.6728    8097.0721    140.98931     1181.353     815.9846   -3393.7449 
12765000    257.26341   -4696.8641     -4200.71   -4696.8641            0    3744.3958    20.083787    20.151123    20.602329    8337.9863    2918.1007    4115.8905    4199.1962   -800.98445   -248.72277   -415.25922   -3745.3878 
12766000    265.12366   -4693.3238   -4182.0106   -4693.3238            0    5245.6679    20.021595    19.840737    20.782368    8255.6545    3367.7208     7407.047    4962.2359   -741.48239   -102.99742    -333.3674   -3550.4308 
12767000    256.36667   -4680.8587   -4186.4341   -4680.8587            0    5714.5342    19.845577    20.182969    20.672235    8280.1122    6043.9365    4068.4376    7031.2285    98.543016    116.93824   -838.32922   -3496.3644 
12768000    257.51086   -4706.8079   -4210.1765   -4706.8079            0    5302.5609    20.105814    19.963106    20.634563     8282.187    5115.1461    4565.4355    6227.1009    53.715217   -8.8841602   -561.67933   -3569.6951 
12769000    263.49853   -4688.7763   -4180.5972   -4688.7763            0    6826.4509    19.687194    19.993568     21.01212    8270.7329    6433.3627    8299.4869     5746.503   -302.79951    178.39031   -116.97636   -3357.1896 
12770000    266.50508   -4711.1523   -4197.1748   -4711.1523            0    4907.3608    20.033434    20.005602    20.737875     8311.344    3859.7357    6078.9819    4783.3647    83.860713    658.56008   -100.81281   -3602.3417 
12771000    268.60904   -4729.4091    -4211.374   -4729.4091            0     4714.994    19.903755    20.287559    20.590812     8314.541    6132.5242    2484.7056    5527.7522   -505.18746    507.47305   -313.73099   -3639.6383 
12772000    258.15947   -4676.9601   -4179.0779   -4676.9601            0    7265.9813    20.063006    19.895917    20.597882    8222.0958    7262.4086    6320.3049    8215.2304    1158.9143    134.68947    413.87265    -3307.808 
12773000    257.80694   -4696.1646   -4198.9622   -4696.1646            0    6395.9774     19.94483    19.758371    21.051427    8295.8906    6682.7185    7649.4437    4855.7701    328.09288    584.51528    229.65125   -3425.1318 
12774000     281.4878   -4678.0617   -4135.1888   -4678.0617            0    4616.4528    20.260115    19.999224    20.691231    8383.8087     4214.337    4942.8977    4692.1236    794.15493    305.52117    767.28635   -3570.7386 
12775000    267.31335   -4663.2162   -4147.6799   -4663.2162            0    5730.8869    20.208317    20.101419    20.478119    8318.5366    4556.8954    5819.2632    6816.5023    951.10517    283.40627    753.01337    -3452.424 
12776000    274.16392   -4682.8568   -4154.1086   -4682.8568            0    5407.7831    19.963501    20.142167    20.717776     8330.787    6163.5415    4791.5961    5268.2116   -223.78774    517.18671    687.92503   -3497.0847 
12777000    277.22796   -4681.9861   -4147.3286   -4681.9861            0    4524.0661    20.141931    19.900606    20.877827    8368.5977    2324.3403    7002.7449    4245.1131    537.83298   -1620.1083   -788.70399   -3595.1781 
12778000    252.91812   -4694.6309   -4206.8571   -4694.6309            0    3884.7398    20.053979    20.165799    20.708777    8374.7222     2995.643    3780.0916    4878.4849   -133.56875    657.03852   -951.87273   -3732.3877 
12779000    272.24336   -4711.5291   -4186.4849   -4711.5291            0    3070.3009    20.239054    20.101462    20.735055    8435.7372    2333.7302    3694.0846    3183.0879   -667.39858   -840.71682    967.40743   -3808.7563 
12780000    273.49627   -4697.4454   -4169.9848   -4697.4454            0    4101.7377     20.07309     20.15854    20.614292    8341.4537    4601.3287    3382.2422    4321.6422    63.978871    1896.8414   -1602.2657   -3671.0021 
12781000    268.00266   -4671.0631   -4154.1975   -4671.0631            0    3684.2422    20.085266    20.150068    20.645575    8355.6664    3705.6101    2602.4697    4744.6468   -1278.0298    559.80343    473.57284     -3705.24 
12782000    260.37349   -4657.2354   -4155.0832   -4657.2354            0     7240.324    20.040794    19.778971    20.752996    8226.2027    7389.5144    6589.5481    7741.9095   -583.04001    1678.0815   -615.90935   -3286.4562 
12783000    261.01336   -4679.1335   -4175.7472   -4679.1335            0    6908.9357    19.929455    20.077025    20.742718    8299.6627    9218.9532    4146.7788    7361.0751     461.2438   -1230.5103   -109.66169   -3339.4754 
12784000    257.37759   -4692.9947   -4196.6203   -4692.9947            0    4454.2441    20.336148    19.867294    20.506851    8285.2646    3018.5025    5136.2812    5207.9486   -473.24416    448.23102   -266.19072   -3658.4047 
12785000    251.40674   -4724.4217   -4239.5626   -4724.4217            0    4456.3539    20.100735    20.065627    20.692793    8346.1041    3560.7899    4786.4953    5021.7764   -596.74127    1590.6804     1480.924   -3697.1381 
12786000    251.53222   -4699.7769   -4214.6759   -4699.7769            0    5516.3043    20.002359    19.861733    20.776002    8253.9219    4325.7464    6462.0163    5761.1503    215.30473    456.33961   -200.24781   -3550.6508 
12787000    261.63017    -4685.464   -4180.8882    -4685.464            0    4737.6237    19.778514    20.019973    20.911813    8280.3527    4597.0786    6247.1113    3368.6813    12.081325    1181.3449    1015.6202   -3608.7706 
12788000    277.08771   -4697.0693   -4162.6824   -4697.0693            0    5240.2392    20.050755    20.053774    20.707665    8326.4135    3787.7696    6712.8414    5220.1065   -756.59373    -6.040343    989.58348   -3526.3486 
12789000    253.93135   -4696.9199   -4207.1919   -4696.9199            0    4470.7512    20.069357    20.202687    20.443389    8288.8732    3763.1777    5361.9489    4287.1268    -30.63015    -806.9512    1308.7412   -3666.7465 
12790000    255.84788   -4676.9732   -4183.5491   -4676.9732            0    6793.6709    20.142636    19.969888    20.537802    8261.2524    5932.8051    5960.7895    8487.4179    810.63127    540.76009   -340.04633   -3365.0348 
12791000    264.00067   -4687.9159   -4178.7684   -4687.9159            0    5103.1403    20.042463    19.853442    20.904421    8318.1173    3272.7799     8009.018    4027.6231    105.74017   -236.87113   -450.22303   -3559.7003 
12792000    253.16452   -4676.4201   -4188.1711   -4676.4201            0    4861.8018    20.027785    19.943879    20.781217     8300.677    4553.8812    5311.3254    4720.1988   -173.77915   -897.02683   -1094.5116   -3599.6166 
12793000    270.89247   -4685.9822   -4163.5432   -4685.9822            0    5035.8006    20.124061    20.119345    20.466893    8286.6952    5694.5637    3947.3636    5465.4745    270.69119   -1266.3972    -298.0048   -3554.9519 
12794000    260.97056   -4716.5498   -4213.2461   -4716.5498            0    5448.7945    20.009706    19.809587    21.027928    8335.1344    5544.8221     6316.246    4485.3154    553.48449    319.97388   -394.03458    -3550.894 
12795000    255.73724   -4719.6983   -4226.4875   -4719.6983            0    4856.6502    19.996694    19.873608    20.962908    8330.7952    6597.9563    4621.1514    3350.8429    604.45561    743.06028   -645.27421   -3636.4235 
12796000    257.54354   -4704.1557   -4207.4613   -4704.1557            0    4660.2827    20.006062    20.262661    20.506231    8312.7352     5144.492    2215.0696    6621.2866   -518.18463    684.65975    321.02121   -3642.4826 
12797000    264.04908   -4701.0922   -4191.8513   -4701.0922            0    4342.0123    20.076892    20.073927      20.6581    8325.6697    4891.1975    4380.0804    3754.7591   -480.99607    645.96513    1068.1136   -3664.6383 
12798000    250.09095   -4696.0939   -4213.7724   -4696.0939            0    6214.8198    20.007773       19.984    20.665742    8262.8937    5210.9699    7296.1675    6137.3221    254.90524    1234.6084   -119.82094   -3464.8504 
12799000    263.53821   -4672.6361   -4164.3805   -4672.6361            0     4827.622    20.002617    20.219789    20.516837     8298.008    7117.6865    1285.2741    6079.9055   -23.011802   -164.09348   -821.38161   -3580.1517 
12800000    257.89577   -4705.1045   -4207.7309   -4705.1045            0    5577.9281    20.033791    20.116393    20.658137    8325.3869    6590.8138    4018.5974     6124.373   -1490.6096     884.2677    384.24871   -3530.4743 
12801000    279.06007   -4664.2554   -4126.0646   -4664.2554            0    3381.3825    20.154161    19.974745    20.897994     8412.994     4168.126    2332.5875    3643.4341   -577.33563    640.19449   -787.70402   -3711.1863 
12802000    263.10884   -4713.8001   -4206.3726   -4713.8001            0    7256.7412    19.894722    19.959608    20.762904    8244.7591    7591.5339     7606.306    6572.3838    509.72279   -699.03324    1741.7711   -3333.8122 
12803000    238.38231   -4679.3304     -4219.59   -4679.3304            0    5528.9265    20.103329    20.169266    20.499067    8311.7445    4678.3403    5632.4216    6276.0175   -37.662815    85.354644   -722.71525   -3549.3831 
12804000    265.60909   -4677.8475   -4165.5981   -4677.8475            0    4272.0503    20.201704    20.001139    20.623451    8333.0521    4651.2561    3078.2561    5086.6387   -878.44756    357.61513    596.59437     -3646.42 
12805000    260.84039   -4680.7949   -4177.7422   -4680.7949            0    5917.4353    19.958729    20.040571    20.717487      8286.67    6157.1809    5551.4554    6043.6696   -333.19114    -1347.085   -1765.8696   -3462.6049 
12806000    265.48776   -4644.2126   -4132.1971   -4644.2126            0    4798.4446    19.984408    19.851622    20.798718     8251.328    6630.9279    3972.1058    3792.3001   -501.17423     1440.637   -562.61124   -3554.7659 
12807000    249.31152   -4701.7735   -4220.9552   -4701.7735            0    3227.2131    19.905316    20.168126    20.882567    8383.3677    3782.2846    2720.0626    3179.2921   -129.13766   -22.723534   -534.19467   -3826.3871 
12808000    271.52614   -4706.4605   -4182.7995   -4706.4605            0    3969.2581    20.203493    20.061178    20.605038    8351.3429    2210.8905    5074.4398     4622.444     1020.234    619.43221       334.23   -3699.3606 
12809000    261.48438   -4697.9904   -4193.6958   -4697.9904            0    4314.1722    19.883542    20.283554    20.610142    8312.2533    6026.4471    2504.5111    4411.5585    411.77654    772.83103   -1705.3769   -3670.7073 
12810000    265.00112   -4697.8028   -4186.7259   -4697.8028            0    3840.0407     20.27059    19.831855    20.721816    8330.2404    2002.7122     6246.871     3270.539    256.31689    208.03873    726.25508   -3720.2069 
12811000    263.79888   -4683.3716   -4174.6133   -4683.3716            0    5658.1574     19.86532    20.083828    20.952793    8359.5711    6223.2188    5655.9135      5095.34   -1031.0877   -689.56114   -1300.0162   -3484.7947 
12812000    276.85694   -4670.6599    -4136.718   -4670.6599            0     4677.423    19.933205     19.95885    20.822199    8283.9838    4788.1246    4888.4876    4355.6567   -468.80711    1119.7004    336.90762   -3571.6226 
12813000     279.4057   -4687.5457   -4148.6883   -4687.5457            0    6137.9848    20.092439    19.905213    20.659962     8262.834    7061.0335    4618.7897    6734.1312    181.74279   -906.78412   -1368.3838   -3409.0307 
12814000    265.54189   -4689.4709    -4177.351   -4689.4709            0     5725.487    20.110937    20.098588    20.433442    8259.2266    6691.0732    4744.7696    5740.6182   -255.53266   -119.06849   -1852.9863   -3487.7027 
12815000    267.26561   -4704.7541   -4189.3099   -4704.7541            0    6101.6301    20.204425    19.900398    20.572966    8271.8977    4661.7973    7452.6365    6190.4566    464.90882    746.44456    279.64895   -3453.2267 
12816000    276.86316   -4665.9633   -4132.0095   -4665.9633            0    4470.2014    19.968886    19.973393    20.990198    8371.8652    5669.3697    3911.0753    3830.1593    1149.6861    262.37907     166.5941   -3586.2199 
12817000    253.43523   -4690.4124   -4201.6412   -4690.4124            0    4015.1538    20.128959    20.109544    20.662759    8363.9582    5819.9827    1767.6841    4457.7947   -22.308889   -162.53528   -425.68902   -3711.8738 
12818000    265.20885   -4696.3848   -4184.9073   -4696.3848            0    4456.5366    20.058081    20.169032    20.573454    8323.0337    4332.7029    4158.7646    4878.1422   -82.509581   -688.87587    299.72244   -3643.9599 
12819000    265.24981   -4723.0631   -4211.5066   -4723.0631            0    7357.1247    19.964507    19.917892    20.680137    8223.4751    7120.0822    8679.5005    6271.7914   -158.37764   -588.09502     -722.471   -3329.1596 
12820000    252.66204   -4646.3332   -4159.0532   -4646.3332            0     6793.065    20.073559    19.780114     20.88718    8293.4073    6089.4253      8553.54    5736.2298    25.714932   -935.55723   -46.753471   -3337.4263 
12821000    261.17078   -4679.2478   -4175.5579   -4679.2478            0    5438.2456    20.088176    19.959807    20.716494    8306.4053    5246.2331    4565.5079    6502.9957   -810.39986   -888.16159   -870.16833   -3516.7667 
12822000    282.50804   -4662.6647   -4117.8242   -4662.6647            0    5989.1176     19.93838    19.974552    20.675022    8234.0388    6112.2365    6843.3445    5011.7718   -71.887968    -98.28624   -115.40893   -3398.6209 
12823000    252.80742   -4703.9578   -4216.3974   -4703.9578            0    6547.2139     20.09873    19.777159    20.777812    8259.0922    5374.1814    8616.6179    5650.8425   -491.64973     70.33753   -452.46843    -3427.783 
12824000    246.22893   -4683.8369   -4208.9637   -4683.8369            0    5772.9753    20.005973     20.02108    20.604063     8252.776    6608.0632    5006.8694    5703.9932    545.11483   -903.89002    1750.9883   -3514.1384 
12825000    256.85813   -4693.1138   -4197.7413   -4693.1138            0    5327.5054    20.111458    19.985136    20.701057    8320.3805    3895.4597    7360.6647    4726.3917    409.67404    236.53668   -447.61137   -3551.2793 
12826000    260.92043   -4692.4177   -4189.2107   -4692.4177            0    5963.4924    19.828791    20.144696    20.803067    8309.6805    6298.4899    6113.4264    5478.5609    354.44648   -341.66969     403.1341    -3466.506 
12827000    247.46287   -4712.6491   -4235.3962   -4712.6491            0    3825.4383    20.061376    19.985901     20.85065    8359.9575    4454.3675    3643.7595    3378.1881    129.35648   -24.857976   -1304.7164   -3768.9933 
12828000    269.84527   -4661.8286   -4141.4093   -4661.8286            0    5273.9069    19.896077     20.12551    20.748582    8308.1198    5299.6686    5837.8356    4684.2165   -518.41062    898.78477   -1019.4355   -3502.3942 
12829000    270.28754   -4732.5931   -4211.3208   -4732.5931            0    4618.8722     20.03317    19.923106     20.79359    8299.1993     4945.766     5302.583    3608.2676    467.99262    964.77192     497.3317   -3652.2742 
12830000    258.58573   -4657.4338   -4158.7295   -4657.4338            0    3624.5142    20.039628    20.101027    20.825461    8388.8519    1899.1022    4594.2881    4380.1522    37.128248    340.01818    479.94272   -3715.2963 
12831000    274.77118   -4699.7351   -4169.8158   -4699.7351            0    5790.8246    20.228166    19.990016     20.40685    8251.7417    5355.7573    4908.5031    7108.2133    754.00139   -585.98054    111.52912   -3472.9295 
12832000    253.50677   -4698.7374   -4209.8282   -4698.7374            0     4623.837    20.157408    19.953091    20.587578    8280.3777    5955.9451    3626.7991    4288.7668    129.91817    146.87166    235.93642   -3651.4499 
12833000    267.62489   -4691.4645   -4175.3274   -4691.4645            0    2810.5836    20.158173    20.081886    20.855426    8442.5715    1431.3907    3607.1046    3393.2555   -1215.4176   -745.95278    571.24514   -3829.2708 
12834000    272.57678   -4657.7324   -4132.0452   -4657.7324            0    4860.7159    20.314576    19.925424    20.540596    8314.3518    1276.8167    8210.7872    5094.5437   -269.02615    -252.3225     768.5741   -3542.6528 
12835000    246.99499   -4679.9315   -4203.5809   -4679.9315            0    6950.6256    20.045692    20.169718    20.596807    8327.6177    7090.9284     6509.895    7251.0534   -607.99253   -75.007435   -57.836855    -3359.429 
12836000    255.48317   -4687.9918    -4195.271   -4687.9918            0    5142.0526    20.102533    19.830431    20.817809    8298.8511     3940.051    6325.2638    5160.8429   -746.78611    721.30579   -820.56582   -3572.9272 
12837000    265.82927   -4723.4255   -4210.7514   -4723.4255            0    4231.3842    19.901859    19.933505    21.027872     8342.047    4940.5737    5048.2252    2705.3538   -769.25046    519.83467   -598.62972   -3695.9603 
12838000    269.47889   -4704.5495   -4184.8368   -4704.5495            0    5630.4368    19.918251    20.026522    20.711411     8261.643    5100.4278    6288.1761    5502.7066   -901.50443    1804.2226   -639.12474   -3506.4391 
12839000    254.19783   -4734.0079    -4243.766   -4734.0079            0    4911.2592     19.92898    20.175109    20.738139    8338.1699    4923.8918    5097.0109     4712.875   -19.646765   -551.16926   -1095.7705   -3646.5389 
12840000    253.88296   -4697.4184   -4207.7837   -4697.4184            0    5176.2747    20.061064    19.895041    20.922177    8350.3689    5855.5194    5646.7436    4026.5612   -116.60666   -776.21935    57.180485   -3577.4089 
12841000    263.68673    -4709.498   -4200.9559    -4709.498            0    5411.6809    20.082357    19.947629    20.758173    8315.6286    5395.7922    5160.0446     5679.206    -89.20778    661.41713   -720.19758   -3544.6548 
12842000    255.61606   -4683.1205   -4190.1434   -4683.1205            0    5348.1307    20.134657    20.071143    20.522692     8293.745    4198.6382    5340.1946    6505.5594   -88.056041   -162.81999    554.15663   -3543.2561 
12843000    276.99346   -4690.6146   -4156.4094   -4690.6146            0    4507.5569    19.749247     20.21994    20.757182    8288.9364    5063.6075    4388.2957    4070.7673   -168.63434    352.06761    201.69125   -3611.5105 
12844000    261.78695    -4703.471   -4198.5929    -4703.471            0    4295.5536     20.24377    19.863743    20.849837     8384.075     4022.467    5187.6527    3676.5409    187.07291   -294.28646   -91.648478   -3673.3621 
12845000    252.46422   -4711.5612   -4224.6627   -4711.5612            0    6540.3608    19.999662    20.086795    20.499554    8235.2677    8297.3938    4721.5446     6602.144   -531.04814    1420.5454   -128.28378   -3439.1462 
12846000     272.4235    -4692.938   -4167.5464    -4692.938            0    5737.4148     20.07565    20.092109    20.464808    8254.7293    4962.8148    6421.6332    5827.7965    201.01771   -82.913953    348.51003   -3476.8376 
12847000    264.93384   -4700.0735   -4189.1263   -4700.0735            0    5085.3508    19.936565    19.989386    20.795169    8287.2842    4874.6668    6142.1054    4239.2803    439.62592    -288.3424   -349.23649    -3574.503 
12848000    261.39023   -4682.4635   -4178.3505   -4682.4635            0    6702.3709    20.083206    19.883532    20.736626    8280.6544    5341.4275    7864.6297    6901.0555   -344.29043    108.67016    59.786362   -3368.9397 
12849000    257.88015   -4694.6503   -4197.3067   -4694.6503            0    5454.1555    20.255889    19.902305    20.601176    8305.1351    4527.6875     6432.709    5402.0701    460.80754     570.4324   -6.7237801   -3536.6892 
12850000    261.42848   -4692.3815   -4188.1947   -4692.3815            0    4988.8062    20.169422     19.97216    20.690749    8334.7908    5430.4121    5521.2603     4014.746    50.340413    187.61855    656.77328   -3581.7834 
12851000    247.96024   -4713.2437   -4235.0315   -4713.2437            0    3400.2095    20.154574    19.893133    20.853196    8360.8307      2305.53    5212.0898    2683.0087   -829.00763     31.36642    130.24656   -3820.4299 
12852000     254.2926   -4670.0043   -4179.5796   -4670.0043            0    5550.0811    19.837576    19.953871    20.909555    8276.7639    6261.5943    4430.8401     5957.809    82.047295    414.96117    117.22264   -3509.6398 
12853000    274.06727   -4697.0256   -4168.4638   -4697.0256            0    4879.1865    20.031775    20.024498    20.723897    8312.8987    5150.4399    3893.2182    5593.9015    474.12467   -1331.9844    185.16812   -3576.9351 
12854000    262.02336   -4675.8523   -4170.5183   -4675.8523            0    5982.3512    19.978672    19.952205    20.754492    8273.1256    6406.3198    6074.4568    5466.2771   -67.433995    1884.5153   -511.29127   -3448.7174 
12855000    267.98291   -4660.5501   -4143.7225   -4660.5501            0    4984.1189    20.085541    20.049856    20.735666    8350.5055    4859.4661    5721.3509    4371.5396     464.3584   -840.80887   -354.19837   -3536.7387 
12856000    258.15005   -4715.2887   -4217.4247   -4715.2887            0    5113.6381    19.988353    20.011039    20.686311    8274.2703    6024.5014    4048.1725    5268.2404   -560.67877    893.83893    827.06388    -3600.353 
12857000     262.0868   -4680.0787   -4174.6223   -4680.0787            0    4337.6552    19.843465    20.141378    20.671681    8261.9483    5753.0655    3029.7899    4230.1101    191.28391    529.19092   -1101.7487   -3651.9693 
12858000    253.76956   -4650.4464   -4161.0305   -4650.4464            0    5290.4778    20.234941    19.927817     20.60292    8307.8843    4176.1927    5877.0703    5818.1703    137.73348   -2105.7621    1017.0726   -3520.0257 
12859000    264.95131   -4693.3347   -4182.3538   -4693.3347            0    7599.1921    19.861332    20.001805    20.695381    8221.4985    10171.484    5637.4296    6988.6632   -856.60999   -364.89293   -567.81416   -3271.1946 
12860000    274.10794   -4691.7854   -4163.1452   -4691.7854            0    3797.3588    20.138411    20.035879    20.711213    8356.7832    3316.6943    4048.7518    4026.6304    191.62119   -1738.2279    877.79337   -3700.3416 
12861000    272.45314   -4678.6865   -4153.2377   -4678.6865            0    5525.3683    19.864346    20.077935     20.82164    8304.3997    4005.3259    7327.6991    5243.0799    644.10285    427.77099    699.29039    -3484.054 
12862000    251.31988   -4666.3076   -4181.6161   -4666.3076            0    5119.6717    20.188539    19.992894    20.556456    8297.1474    4079.3945    6041.2082    5238.4123    184.92037   -659.97107    607.03435   -3562.1083 
12863000    244.84659   -4691.9853   -4219.7781   -4691.9853            0    6264.2729     19.97932    20.187812    20.555771    8290.9393    8034.9751    5195.8257    5562.0177    310.92413    223.65221   -844.06949   -3462.3345 
12864000    265.00224   -4684.6738   -4173.5947   -4684.6738            0     6977.274     20.11984    20.036175     20.62767    8315.5216    8270.9314    6334.7246    6326.1661    263.74873   -1886.5733    -266.1895   -3327.4373 
12865000     257.1945   -4672.7678   -4176.7466   -4672.7678            0    5596.7953    20.051456     19.93034    20.708124     8275.636    7093.7175    5807.1535    3889.5149   -606.91159   -582.74087   -629.57141     -3501.26 
12866000     263.9302   -4725.0631   -4216.0515   -4725.0631            0    6010.9853    20.117284    19.824415    20.886901     8329.976    5200.1835    7995.8932    4836.8792    -531.6434    1425.0548    731.30074    -3485.812 
12867000    265.47089    -4728.762    -4216.779    -4728.762            0    4397.3194    20.030872    19.929204    20.649062    8243.0917    6132.6527    3377.3787    3681.9269    125.12804   -831.38712   -327.32073   -3688.1463 
12868000    261.69045   -4714.4017   -4209.7097   -4714.4017            0    3414.6804    20.185037    20.019714     20.69182    8361.5368    2909.3061    3517.0349    3817.7001   -11.370636   -633.06333   -245.67952   -3793.3084 
12869000    255.43226   -4704.1533   -4211.5307   -4704.1533            0    5100.4705    19.968011    19.987378    20.853368      8322.75    6684.5098    4681.5704    3935.3313    737.03246    505.72129    1594.5671   -3592.4418 
12870000    269.32121   -4703.9259   -4184.5173   -4703.9259            0    5991.0589    19.793167    20.133731    20.864504    8314.7198    7593.5431    5622.5145     4757.119   -224.02975    952.01979    898.92111   -3458.0316 
12871000    266.96094   -4739.8917   -4225.0351   -4739.8917            0    4779.5169    20.202382    19.923684    20.674002    8321.4073    3825.9249    5081.0227     5431.603   -83.389865   -1089.5349   -491.97749   -3644.9968 
12872000    277.76223   -4695.6865   -4159.9987   -4695.6865            0     4450.399    20.065877    20.217234     20.48416     8309.943    5440.6956    2727.8869    5182.6145    1091.9779   -818.80634   -81.133923    -3620.646 
12873000     255.6646   -4667.8081   -4174.7374   -4667.8081            0    5618.5738     19.95961    19.923473    20.706159    8234.1092    5976.5849    6066.5984    4812.5381   -304.14606   -77.696483    923.08105   -3500.0252 
12874000     263.9618   -4690.9462   -4181.8737   -4690.9462            0    4525.4187    20.058823    19.971776    20.718786    8300.1596    4650.5904    4176.1943    4749.4712   -387.31731    1927.8328   -421.65764   -3634.0749 
12875000    268.44769   -4667.8548   -4150.1309   -4667.8548            0    7112.7981    20.088825    19.905103    20.744622    8295.1548    5779.0603    9842.3399     5716.994    107.68123    544.94697   -1754.8364   -3289.6507 
12876000    246.03285   -4699.3899   -4224.8948   -4699.3899            0    5379.1313    19.858283    19.940941    21.071774    8344.2723    6623.3436    5594.2814     3919.769    817.52516   -467.40914   -893.40595   -3570.2941 
12877000    275.03544   -4724.4339    -4194.005   -4724.4339            0    5747.0833    20.019405    19.956157    20.654686    8251.7616     6330.852     4891.011     6019.387   -750.60119   -47.837301    33.208654    -3502.381 
12878000    265.71519   -4720.5563   -4208.1022   -4720.5563            0    4229.2743    19.936769    20.227991    20.637973    8322.8981    5549.1695    2656.8507    4481.8027   -233.64494    1174.3807   -1128.8993   -3694.7489 
12879000    274.13699   -4669.6026   -4140.9064   -4669.6026            0    3635.1723    20.054098    20.048977    20.788594    8358.3486    3105.8105    4002.3012    3797.4052   -30.214423   -1805.4232   -484.20352   -3697.7863 
12880000    248.75221   -4711.1973   -4231.4577   -4711.1973            0    4254.8774    20.213554    19.914048    20.750929     8352.948    4105.9917    4041.9137    4616.7268    165.13676    377.20488     952.7412   -3713.1321 
12881000    241.77398   -4691.0235   -4224.7421   -4691.0235            0    4703.9387    19.846868    20.143633    20.761609     8300.243    6269.9066     3083.169    4758.7406    388.50133    1090.6616    573.13885   -3655.3278 
12882000      268.285    -4679.054   -4161.6438    -4679.054            0    5362.7549    20.242656    19.942927    20.670535    8344.6496    5247.8857    6401.0544    4439.3245    173.69434    457.73577   -40.506182   -3509.0065 
12883000    271.23317   -4671.8982   -4148.8022   -4671.8982            0    5311.1292    20.083371     19.87849    20.816749    8310.6104    6225.7084    5219.7024    4487.9766   -413.77312    668.26682    939.11685   -3505.0842 
12884000    255.99407   -4701.4411    -4207.735   -4701.4411            0    5275.0258    19.950881    19.947432    20.773432    8267.1786    5855.4208    4664.2341    5305.4224    48.634988   -1846.8966   -962.12991    -3571.734 
12885000    259.14049   -4687.3284   -4187.5542   -4687.3284            0    7046.2578    20.146382    20.067026    20.426574     8258.014    5988.7903    6958.7097    8191.2734    -1095.002    1176.9775    146.99306   -3338.9405 
12886000     274.5578   -4702.5668    -4173.059   -4702.5668            0    5671.2371     20.03134     19.90969    20.666464    8242.1529    4694.1855    6092.2003    6227.3256   -215.37626    1110.5026    859.42167   -3491.3573 
12887000    261.02246   -4720.5944   -4217.1907   -4720.5944            0    4252.8571    20.137433    19.936358    20.797083    8349.3445    4556.2205    4033.0878    4169.2631   -598.75596    134.09279     101.2908   -3699.3346 
12888000    266.19422   -4710.2183   -4196.8404   -4710.2183            0    5222.0412     19.92294    19.999564    20.825685    8297.9965    4993.8884    5664.5267    5007.7084   -749.60621    1566.5995   -1694.1803   -3564.8806 
12889000    247.73505   -4710.9162   -4233.1384   -4710.9162            0    5312.1573    20.267855    19.861336    20.602579    8293.4998    4982.5989    4401.5786    6552.2944    486.95254    412.24999    918.58216   -3590.6213 
12890000    268.44271   -4686.6049   -4168.8906   -4686.6049            0    5216.0219    19.971182    20.090491    20.607827    8268.4959    4899.9126     4996.911     5751.242   -327.48478    255.88288   -345.78777   -3539.9034 
12891000    258.54082   -4699.4232   -4200.8055   -4699.4232            0    4220.0534    20.153165    19.998729    20.811835    8387.9537    2645.3062    5631.6566    4383.1973     285.6533    1410.6798    -343.7542   -3684.5676 
12892000    263.32496   -4698.4758   -4190.6315   -4698.4758            0     6051.923    20.000537    19.855559    20.917364    8306.7423    8371.9259    4973.4988    4810.3443    188.38522    1388.4985   -589.58271   -3457.4693 
12893000    266.34285   -4715.0529   -4201.3883   -4715.0529            0    3667.7907    20.045316     20.21159    20.607573    8349.1113    2637.8123    2219.2551    6146.3046   -13.166538    387.83168    637.32406   -3754.7863 
12894000    261.26286   -4692.2695   -4188.4021   -4692.2695            0    4355.3548    20.234166    19.962018     20.61244    8325.6694    3622.3329    4590.0684     4853.663   -537.13465    -56.52881   -161.61015   -3659.5691 
12895000    271.79923   -4721.2748   -4197.0871   -4721.2748            0    5165.8527     19.97233    19.878945    20.922118    8306.6845    4641.1227    5629.3481    5227.0874   -710.90148   -753.01372    1204.5274   -3571.2726 
12896000     258.8478   -4709.7162   -4210.5065   -4709.7162            0    4167.4086    20.033888    20.009744    20.854607    8360.0483    4099.0362    3891.1978    4511.9918   -844.55928   -711.11751    34.101079   -3702.4046 
12897000    248.34818   -4700.4561   -4221.4958   -4700.4561            0    3857.8632    20.026904    19.971317    20.795667    8317.5107    4212.9208    4779.1435    2581.5253   -248.39322    536.03879   -316.01966   -3753.5279 
12898000    253.54023   -4689.0292   -4200.0555   -4689.0292            0    6780.9652    20.080268    20.076171    20.508458    8267.6751    6778.5372    6533.3281    7031.0305   -228.63728    -322.7522     1667.515   -3382.4369 
12899000    267.59031   -4675.6405   -4159.5701   -4675.6405            0    3642.5688    20.283421    19.960802    20.609571    8344.2661    1437.1363    5103.3311    4387.2391    -656.6085   -493.17692    1165.4111   -3716.2966 
12900000    268.03507   -4721.9878   -4205.0596   -4721.9878            0     5225.273    19.834514    20.167953    20.779287    8312.1623    6957.1565    4116.8462    4601.8162    305.41769    626.19463    523.65358   -3571.6292 
12901000    268.99711   -4652.2267   -4133.4432   -4652.2267            0    7119.8055    20.218636    19.669665    20.649059    8212.0025    5498.9367    9083.9888    6776.4909    725.77255   -1605.8394   -1473.8983   -3280.7494 
12902000    275.05676    -4693.457   -4162.9869    -4693.457            0    5873.5948    20.101683    19.975282    20.574223    8261.3073    6474.0777    4742.0338    6404.6729    7.3500904   -274.76416    501.52055   -3455.3204 
12903000    261.32502   -4699.5733    -4195.586   -4699.5733            0     4888.714    20.129109    20.252194    20.407581    8319.3264    5280.9224    3156.9465     6228.273    237.59258    469.53872    -816.8484    -3602.444 
12904000     265.3513   -4701.2925   -4189.5402   -4701.2925            0    4238.6566     20.06859    19.924208    20.690497     8273.111    2955.4208    5818.1226    3942.4264    -299.6043   -1392.2615   -903.84537   -3678.1258 
12905000    264.69556   -4708.0138   -4197.5262   -4708.0138            0    6770.8403    20.058449    19.859497    20.857449    8308.5798    7752.0618    6346.3475    6214.1115   -557.54084    45.781199    599.44264   -3377.0892 
12906000     253.5066   -4698.7881   -4209.8793   -4698.7881            0    5007.8881    19.976673    20.130941    20.590447    8280.4322    5227.4672    5208.5459    4587.6513   -687.72836     1114.567    588.97368   -3605.1187 
12907000    276.22274   -4712.2297   -4179.5109   -4712.2297            0    4833.9108    20.115706    20.304472    20.385442     8326.205    5004.5777    3907.1446    5590.0101    423.43558   -911.85817    721.86388   -3592.5331 
12908000    250.48282   -4707.7282   -4224.6511   -4707.7282            0    3737.4056     19.90038    20.147452    20.819394    8347.3684    2745.1415    5423.0252    3044.0502     67.63711   -1192.7702    458.07662   -3769.6675 
12909000    251.58613   -4696.1159   -4210.9109   -4696.1159            0    5288.5434    20.274068    19.809599     20.74446    8331.4136    3963.3438    6799.8341    5102.4523    -164.5329   -430.11987    1244.8495   -3568.3258 
12910000    276.43941   -4713.5422   -4180.4056   -4713.5422            0    3666.9053    20.156301    20.029795    20.694418    8354.8863    2883.7872    3807.8574    4309.0712    162.15538   -1240.0934   -654.57189   -3733.6025 
12911000    256.02799    -4695.005   -4201.2335    -4695.005            0    6330.3908      19.9526    19.841828    20.892995     8271.454    7402.6426    6033.3471    5555.1826    20.166552    1964.5711   -127.94799   -3437.5942 
12912000    257.45775   -4680.1104   -4183.5815   -4680.1104            0    4718.5863     20.03373    19.972728    20.793975    8320.2562     3943.045    6785.8698     3426.844    219.59185   -48.357436   -1946.8753   -3611.0169 
12913000    274.06968   -4709.3608   -4180.7943   -4709.3608            0    4449.8725    20.274174    19.916396    20.613781    8323.6074    3032.3033    4188.7938    6128.5205    470.95249   -733.35143     374.0098   -3640.6186 
12914000     257.8728   -4694.1518   -4196.8224   -4694.1518            0    5948.5963    19.887081    20.020783     20.74236    8258.6726    5623.9668    6274.7777    5947.0442   -237.84788    28.425367    -666.7019   -3480.3481 
12915000    264.86136   -4704.3028   -4193.4954   -4704.3028            0    4480.7172    20.015476    20.002407    20.885173    8361.5396     5638.519    4443.8926      3359.74    450.59415    427.81178   -203.33081   -3647.0966 
12916000    263.49043   -4680.6411   -4172.4776   -4680.6411            0    3864.5374     20.18796    20.043835    20.612272    8340.6348    1463.8312    5306.3739    4823.4069    875.30479   -870.81769    -407.3395   -3702.3968 
12917000    272.43109   -4714.3181   -4188.9118   -4714.3181            0    5289.4044    20.018803     20.19475    20.507882    8290.8185    6303.3541    4270.9474    5293.9116    -745.5827    1038.5983   -626.34537   -3549.3536 
12918000    264.64813   -4658.1584   -4147.7622   -4658.1584            0    6857.2157    20.178323    19.737206    20.756048    8266.3805    7274.3169    5855.6564    7441.6738   -119.77868   -1194.5956   -471.34528   -3321.0791 
12919000    282.01823   -4689.9837   -4146.0879   -4689.9837            0    5915.0302    20.112952    20.100582    20.555514    8310.2249    5625.9274    5924.9743     6194.189   -130.54615   -494.88256   -328.96988   -3429.2092 
12920000    260.56209   -4673.4592   -4170.9433   -4673.4592            0    3605.6351    20.189376    20.037829    20.540334    8309.6179    3455.7501     3101.556    4259.5993    28.975292   -881.88157    664.08903   -3733.9863 
12921000    269.23423   -4688.2859   -4169.0451   -4688.2859            0    3428.7433     19.95635    20.229106    20.646906    8335.1374    5514.4047    904.57175    3867.2535    131.97274    829.91162   -1044.5441    -3752.249 
12922000    262.33049   -4703.6155   -4197.6891   -4703.6155            0    5822.8947    19.900117     19.95081     20.85176    8278.6377    7757.7842    4582.8259    5128.0739    308.92433    608.42682    45.796533   -3494.6593 
12923000     255.2974   -4701.0718   -4208.7093   -4701.0718            0    5469.2088    20.091425    19.752906    20.900595    8294.6945    5151.3727    6180.8142    5075.4396    636.74304   -228.42238   -621.41178   -3547.1012 
12924000    273.22234   -4714.8139   -4187.8817   -4714.8139            0    3700.0919    19.977385    20.147714    20.787991    8367.1384    3831.5979    2892.0996    4376.5781   -198.14512    767.45457   -26.676164   -3736.3738 
12925000    271.54999   -4723.4887   -4199.7817   -4723.4887            0    5289.9449    20.105984    20.077522    20.525484    8285.6935     4791.685    5872.0313    5206.1185    185.54421    1185.1647    250.57125   -3560.5535 
12926000     263.0784   -4717.4007   -4210.0319   -4717.4007            0     6804.572     19.95527     19.92767    20.637113    8206.5964    7240.7489    6448.6877    6724.2793     -735.576    -14.86074   -159.58158   -3395.6282 
12927000    258.78933   -4681.4354   -4182.3384   -4681.4354            0    3797.3057    20.003977    19.979851    20.873079     8342.479     4940.547    3973.5262    2477.8437   -476.10616    850.71363    975.92901   -3720.3335 
12928000    259.74573   -4681.4822   -4180.5407   -4681.4822            0    5499.3153    20.029328    20.193531    20.456371    8273.8421    4865.7172    4906.6749    6725.5538   -287.69762    504.48344   -636.31012   -3516.9631 
12929000    272.11491   -4682.8909   -4158.0944   -4682.8909            0    5207.4822    20.132505    19.995269    20.573041    8281.7777    4347.0417    6178.4354    5096.9694    -280.1038    2359.6528   -878.40427   -3529.1283 
12930000    266.97766   -4683.8464   -4168.9575   -4683.8464            0    3916.0248    20.064388    19.934915    20.924013     8369.226    2762.9356    5908.4194    3076.7193    -437.3973    -438.7338     685.1504   -3690.9809 
12931000    264.95203   -4708.8399   -4197.8576   -4708.8399            0    5158.8162    19.971845    19.982257    20.836092    8315.3203    5711.3061    5154.8608    4610.2817   -820.39331   -617.39098   -249.38733   -3572.2458 
12932000    264.49029   -4689.1211   -4179.0294   -4689.1211            0    5545.8983    19.999529    20.135969    20.544306    8273.3956    5761.3901     4252.703    6623.6017   -431.73166    166.88957    505.28578   -3509.8669 
12933000    257.87273   -4707.4948   -4210.1656   -4707.4948            0    4479.0167    20.097772    20.109643     20.59462    8323.5013    4113.6798    3673.3703    5649.9999    110.16189    1316.2903   -1428.0805   -3666.4589 
12934000    250.33622   -4689.6635    -4206.869   -4689.6635            0    5818.7047    20.031463    19.852723    20.821308    8280.1987    5423.9062    7126.8221    4905.3857   -427.90421    134.98962   -238.21923   -3504.2127 
12935000    272.06766   -4689.7285   -4165.0231   -4689.7285            0    5272.4924    20.034914    20.005975     20.88075    8369.3802    5815.1686    5390.1389    4612.1697    106.60078   -157.22177   -632.38184   -3521.4689 
12936000    276.27647     -4684.21   -4151.3876     -4684.21            0    5282.5023    20.311586    19.919685    20.473285     8283.499    5047.9372    5461.0688     5338.501    -561.0941    2053.4924    249.23701   -3513.2279 
12937000    260.47168    -4703.249   -4200.9075    -4703.249            0    4834.0535    20.142481    20.162461    20.554156    8347.4947     4330.003    4851.4563    5320.7011    84.034964   -438.74819    -140.7353   -3612.4115 
12938000    266.38594   -4694.9526   -4181.2049   -4694.9526            0      5322.83    19.928539    19.910883    21.054256    8354.2197     5479.773    7057.0996    3431.6175    366.97507   -596.74537   -112.31202   -3532.6834 
12939000    254.59384   -4711.1478   -4220.1421   -4711.1478            0    5081.6323    19.838048    20.011564    20.811405    8261.9274    6761.0458    4259.1239    4224.7272    98.760046    794.62979   -272.29707   -3607.8474 
12940000     268.3995   -4655.3861   -4137.7551   -4655.3861            0    5089.9755    20.393304    19.987519    20.391177    8311.6793    3281.5505    6182.0434    5806.3327   -444.15201   -680.19411   -849.78407   -3520.7619 
12941000    259.84963   -4677.1141   -4175.9722   -4677.1141            0    6286.0516    20.022713    20.054377    20.597628     8270.834    6448.3533    5819.4718    6590.3297    159.89098    330.88796    1151.5511   -3417.7384 
12942000    262.38532   -4682.2719   -4176.2397   -4682.2719            0    5134.5156    20.051916    20.059734    20.636617    8300.7925    5340.7676    5271.2096    4791.5696   -201.40234   -562.19972   -306.97074   -3554.6627 
12943000    267.51239   -4695.0626   -4179.1425   -4695.0626            0    5455.5222    19.813644    20.149465    20.943779    8361.4753    7213.4585    4187.8671    4965.2409    335.49431    167.12648   -717.26818   -3513.8768 
12944000    269.41071   -4679.1967   -4159.6155   -4679.1967            0    4051.7407    19.950449    20.031058    20.723382    8281.6559    4543.1089    4525.7332    3086.3799    814.57195   -777.59616     680.7968   -3670.2485 
12945000    274.39137   -4717.9833   -4188.7965   -4717.9833            0    4075.0924    19.735075    20.261315    20.925437    8367.2157    6773.7711    1628.1386    3823.3675    27.445138   -791.82821    149.26991   -3691.5241 
12946000    263.40292   -4699.4739   -4191.4792   -4699.4739            0    4953.0184     20.20606    19.792207    20.655329    8260.5311    4800.1789    5346.8907    4711.9856    504.99272    214.18555    321.31744   -3594.7823 
12947000    266.54413   -4706.9243   -4192.8715   -4706.9243            0    4459.3442    20.078641    20.049204    20.596375    8291.2926     4189.695    5178.5585    4009.7789     591.0366   -201.82684    204.25046   -3653.6477 
12948000    267.22388   -4689.8613   -4174.4975   -4689.8613            0    5174.0387    20.122943    19.988165    20.742567    8343.0901     4662.736    4949.6471    5909.7331   -22.945569    706.78742   -96.140863   -3544.9443 
12949000    265.46738   -4675.7526   -4163.7765   -4675.7526            0    4004.0128    20.267771    19.897397    20.928032    8439.7705    2444.0802    6211.5798    3356.3784   -8.4969132   -73.721177   -473.60429    -3670.941 
12950000    249.66534   -4679.3046    -4197.804   -4679.3046            0    5744.2965     19.95607    20.097866    20.679722    8294.1075    7085.4646    4270.2154    5877.2095   -622.78665   -581.87818    1300.0021   -3502.9679 
12951000    262.65729   -4704.9692   -4198.4126   -4704.9692            0    5238.6491    20.172587     19.96631    20.724179    8347.1216    7606.9216    2565.3413    5543.6846    63.052002   -629.12546    1159.6304   -3560.6898 
12952000     275.5707   -4717.4624   -4186.0012   -4717.4624            0    3244.1893    20.052034    20.118677    20.852062    8412.1473    4277.9834    3152.6538    2301.9307    479.07535   -168.14431    -968.9759   -3787.9958 
12953000    248.88484   -4700.1433    -4220.148   -4700.1433            0    4442.4504    20.118052    19.885494     20.82968    8333.0676    5883.2887    5984.6705     1459.392    261.03825    -267.8301    932.66027   -3680.2604 
12954000    260.44289   -4717.6001   -4215.3141   -4717.6001            0    4695.5865    20.209169    20.042932    20.568148    8331.1487     2789.745    6281.4345      5015.58   -276.01658    1391.7834   -479.57618   -3644.7944 
12955000    259.50083   -4724.7398   -4224.2706   -4724.7398            0    4692.8682    19.937172     20.13242    20.712298    8313.5749    4687.8642    4519.6841    4871.0563    -31.97459   -155.23901   -420.69231    -3655.284 
12956000    261.07958   -4715.5245   -4212.0106   -4715.5245            0    5303.0463    20.221039    19.785306    20.743589    8299.0837    6445.6137    4777.8917    4685.6336    194.58882     907.0799   -783.43252   -3570.1636 
12957000    266.57879     -4710.19   -4196.0704     -4710.19            0    3695.1302    20.312107    20.064579       20.629    8407.4289    2858.9365    3754.6162    4471.8379    376.64861   -178.89548    628.24312   -3742.9968 
12958000     273.8717   -4693.7611   -4165.5765   -4693.7611            0    6343.2802    19.864901    20.189839    20.580024    8254.0133    8743.5324    3962.7335    6323.5746   -630.36142    865.38711    76.739594   -3401.9958 
12959000    258.20077   -4694.7503   -4196.7884   -4694.7503            0     4965.639    20.260866    19.794546    20.750693    8322.1615    2506.2857    7206.0889    5184.5425    230.48488   -748.24213    817.54809   -3594.1079 
12960000    277.05293   -4680.0942   -4145.7743   -4680.0942            0     4946.712    19.880933    19.962367     20.77196    8243.7774    5862.2307    4180.1704    4797.7349    522.31508    1007.7627   -357.22804   -3551.0458 
12961000    260.52039   -4676.8953   -4174.4599   -4676.8953            0    6537.4495    20.161989    19.985972    20.552292    8281.6888    6011.7269    7092.1188    6508.5028    528.92397   -956.70294   -762.64616   -3384.8671 
12962000    261.75124   -4698.2927   -4193.4834   -4698.2927            0    4303.1901    20.200998    19.968483    20.827541    8401.4821    2086.7003    6230.2837    4592.5861    301.68277    1489.9103   -707.89947   -3666.2264 
12963000    272.31387   -4686.6635   -4161.4833   -4686.6635            0    4903.5039    20.051809    19.893537     20.82639    8307.6762    3317.9744    7203.1816    4189.3556   -9.8091635   -498.21558   -427.09185     -3567.38 
12964000    274.88063   -4707.2016   -4177.0712   -4707.2016            0    4571.2623    20.058183    19.920663    20.980635    8383.2807    4961.0426    4962.6305    3790.1137   -689.24385   -225.29534    144.93503   -3618.1816 
12965000    263.31683   -4740.9931   -4233.1644   -4740.9931            0    6333.1023    19.956156    20.074106    20.551219    8232.8595    8244.7178    4109.9581    6644.6312    86.884586     243.8378    1035.4859   -3472.7627 
12966000    248.07741   -4681.7719   -4203.3338   -4681.7719            0    5581.8188     20.10363    20.138433    20.412327    8264.0449    4618.6709    5876.0035     6250.782    589.27376    1094.6862    51.983053   -3530.5983 
12967000    258.89985   -4726.5583   -4227.2482   -4726.5583            0    5521.9123    20.062931    20.014418    20.658061    8295.2009    4268.9683     6315.907    5980.8615   -39.847343   -133.61831   -1081.5089   -3559.2238 
12968000    261.04515   -4669.9128   -4166.4653   -4669.9128            0    5525.6735    19.937092    19.925821     20.88469    8296.7129    5500.8158    6650.2358    4425.9689    -164.5815    1263.4273   -566.26644   -3497.8641 
12969000    261.68747   -4683.6186   -4178.9323   -4683.6186            0    2710.9622     20.17807    20.126899    20.836772    8462.2708    2203.8594    2321.7939    3607.2332    728.77256   -469.41108    202.82457   -3844.3629 
12970000    257.58788    -4717.285   -4220.5051    -4717.285            0    4726.0984     19.97609    20.135823    20.665403    8312.3487    4480.3676    4936.4706     4761.457    -833.3871   -84.508631   -861.75796    -3647.574 
12971000    259.38227   -4697.5333   -4197.2928   -4697.5333            0    4331.3981    20.079048     19.98763    20.797422    8346.6827    4625.0746    4961.6131    3407.5067    276.57516    923.37886    952.14105   -3670.0412 
12972000    259.11349   -4704.8106   -4205.0885   -4704.8106            0    3737.0328    19.785977    20.239277    20.838492    8344.8549    4579.6004    3224.3633    3407.1349    63.581247   -100.21851   -844.53741   -3750.2873 
12973000    261.00586   -4712.2974   -4208.9256   -4712.2974            0    4093.8856    20.098652    20.047294     20.75745    8363.6664    5602.0878    2931.2381    3748.3309    389.26905    1227.3301    -8.883381   -3709.5719 
12974000      255.319    -4687.792   -4195.3878    -4687.792            0    4425.4128    20.150505    19.974126    20.867278    8398.8441    2724.5477    6080.7559    4470.9348    216.87377    391.99309   -323.66037   -3653.3255 
12975000    254.01675   -4701.2614   -4211.3688   -4701.2614            0    5051.3573    19.937582    20.095313    20.774243    8323.2407    5525.6354    4731.0655    4897.3708    581.67377    634.52858    567.99842   -3598.2051 
12976000    257.56053   -4687.3182   -4190.5911   -4687.3182            0    4186.9536    20.023442    19.949725    20.907134     8351.609      4367.34    5807.7108    2385.8099    166.33324   -551.91464    -502.6675   -3680.6216 
12977000    271.92865   -4651.1935   -4126.7562   -4651.1935            0    3901.6959     20.16529    20.108703    20.676892    8384.4347    4514.7545    4263.4435    2926.8897    528.62726   -499.82923    -306.7246   -3649.6632 
12978000     275.4813   -4693.6673   -4162.3784   -4693.6673            0    5971.0974    19.971534    19.945973    20.821886    8294.4331    7699.8458    5194.4629    5018.9835   -573.98423   -367.35134    1681.2099   -3440.0799 
12979000     275.9899   -4702.7394   -4170.4697   -4702.7394            0    5905.2061    20.189938    19.914618    20.601663    8283.4114    5296.9255    7015.5626    5403.1303    72.655878    117.22776   -1451.7651   -3457.0909 
12980000    273.56502   -4672.4502    -4144.857   -4672.4502            0    4318.7188    20.183153    20.230078    20.457582    8352.9692    3855.1192    4727.5751    4373.4622   -249.03646   -727.70534   -722.95178   -3618.7529 
12981000    273.25384    -4690.522    -4163.529    -4690.522            0    5909.1394     19.82737     20.22358    20.576517    8250.7798    4037.8106    7299.0417     6390.566    925.48447    55.935661   -798.01175   -3452.4872 
12982000    264.14849   -4693.4376    -4184.005   -4693.4376            0    4936.9387    20.045768    19.856992    20.861487    8303.8868    5485.2965    6117.8118    3207.7079   -446.96311    865.24846   -1028.1355   -3586.1236 
12983000     262.4778    -4708.953   -4202.7425    -4708.953            0    4669.3183    19.969649    19.997954    20.924175    8356.1136    4614.8023    4263.5041    5129.6484    179.15512    831.82985   -608.32047   -3633.7144 
12984000    259.26692   -4671.3829   -4171.3649   -4671.3829            0    4950.7719    20.119646    20.014924    20.685929    8330.0827    4573.2064    5049.4453     5229.664    307.04658   -1793.3528   -1258.7128   -3569.9168 
12985000    261.02216   -4729.7898   -4226.3866   -4729.7898            0     3711.915    20.049833    19.959812    20.807009    8326.7755    3980.3021    3660.9355    3494.5072    51.748748    412.47538    522.75838    -3775.621 
12986000     265.5746   -4717.3528   -4205.1698   -4717.3528            0    4862.3226    19.773864    20.003222    21.097026    8344.7387    5491.5189    4818.6565    4276.7923    51.661625    814.42017     1362.645   -3613.4278 
12987000    262.05876   -4695.9669   -4190.5645   -4695.9669            0    4347.3418    20.058678    19.993997    20.818848    8349.4647     3583.915    5986.1566    3471.9539   -572.15201    -439.0983   -598.29476   -3661.1958 
12988000    269.55777   -4694.3642   -4174.4994   -4694.3642            0    3349.5336     20.37236    20.024211    20.385239    8315.9633    3179.3415    3681.4954    3187.7638     915.1422    636.82824   -1703.2313   -3768.2687 
12989000    258.38043   -4683.4215   -4185.1131   -4683.4215            0    5053.9499    20.034641    20.080925    20.529736    8259.4027    5827.5798    4042.4464    5291.8236    483.26614     1627.621    1199.9349     -3576.34 
12990000    264.06495   -4686.2787   -4177.0073   -4686.2787            0    6019.6845    20.255891    19.745612    20.786769    8313.9795    5994.4486    7005.8464    5058.7585     406.7305     763.9717   -426.48406   -3447.1153 
12991000    257.62535   -4699.8016   -4202.9495   -4699.8016            0    6252.8393    20.059253    19.894681    20.696355     8259.345    7954.4507    4793.0215    6011.0457   -233.77509    206.54054    681.60395   -3449.7695 
12992000    263.71286   -4698.3686   -4189.7761   -4698.3686            0    6435.4494     19.94059    20.163417    20.556188    8265.0357    4940.9232    7808.3942    6557.0308    675.56543    396.61097   -1105.6456   -3414.0659 
12993000    260.46219   -4672.1904   -4169.8672   -4672.1904            0    4665.4342    20.295369      20.0037     20.63108    8375.8569    4376.4272    4369.5747    5250.3007   -699.53939    450.14304    118.10673   -3599.9691 
12994000    272.61386   -4696.9734   -4171.2147   -4696.9734            0    4718.7188    20.053561    19.982206    20.752576    8315.8557    4522.2821    4471.2716    5162.6026   -298.00273    841.00654   -1418.4867   -3598.9369 
12995000    272.86078   -4665.6291   -4139.3942   -4665.6291            0    5069.5985    19.921821    19.981347    20.995512    8357.5748     6514.554    4071.8262    4622.4152   -386.76118    34.588492    701.87616   -3521.4778 
12996000    274.80711   -4694.6564   -4164.6678   -4694.6564            0    5615.4428    19.944365    20.148809    20.682933    8311.5445     5416.518    5245.1078    6184.7025   -314.79721   -1437.2893    29.072249   -3483.9899 
12997000    265.60608    -4707.897   -4195.6533    -4707.897            0    2648.6103     20.22689    20.045432    20.772658    8422.4138    927.60575    3787.8177    3230.4074   -233.42912    1098.6021   -32.167818   -3870.3185 
12998000    266.80922   -4674.9848   -4160.4208   -4674.9848            0    6182.5597     19.90319    20.060631    20.675983    8255.3115    7458.7531    5938.5638    5150.3624   -294.89478    619.62917    979.40446     -3416.07 
12999000     263.5644   -4714.2682   -4205.9621   -4714.2682            0    5295.0057    20.027445    20.045341    20.689126    8305.7936    4603.6198    6041.7686    5239.6286   -1010.1734    329.49286   -302.22543   -3564.5702 
13000000    258.58221    -4642.853   -4144.1555    -4642.853            0    6073.0358     20.04932     19.88241    20.879369    8323.1178    7173.5467    5637.7217    5407.8391   -68.648212   -926.85058   -234.25108   -3406.9853 
Loop time of 393.785 on 64 procs for 250000 steps with 972 atoms

Performance: 109.705 ns/day, 0.219 hours/ns, 634.864 timesteps/s
191.1% CPU use with 32 MPI tasks x 2 OpenMP threads

MPI task timing breakdown:
Section |  min time  |  avg time  |  max time  |%varavg| %total
---------------------------------------------------------------
Pair    | 25.317     | 34.436     | 44.439     |  74.4 |  8.74
Bond    | 0.88353    | 1.0893     | 1.2815     |  10.6 |  0.28
Kspace  | 166.86     | 178.62     | 187.65     |  34.7 | 45.36
Neigh   | 2.3515     | 2.5587     | 2.8645     |  11.0 |  0.65
Comm    | 75.633     | 79.955     | 84.696     |  28.5 | 20.30
Output  | 0.57595    | 0.57631    | 0.57806    |   0.0 |  0.15
Modify  | 75.35      | 77.748     | 81.342     |  17.4 | 19.74
Other   |            | 18.8       |            |       |  4.78

Nlocal:        30.3750 ave          35 max          25 min
Histogram: 1 2 2 3 3 3 8 3 3 4
Nghost:        2613.41 ave        2644 max        2590 min
Histogram: 4 3 5 5 2 3 5 1 2 2
Neighs:        9452.12 ave       11975 max        6938 min
Histogram: 1 4 2 4 5 4 7 0 3 2

Total # of neighbors = 302468
Ave neighs/atom = 311.18107
Ave special neighs/atom = 2.0000000
Neighbor list builds = 8200
Dangerous builds = 1

unfix		3
unfix		2
unfix		1

write_data	data.final.${pid}
write_data	data.final.0
System init for write_data ...
PPPM initialization ...
  extracting TIP4P info from pair style
  using 12-bit tables for long-range coulomb (../kspace.cpp:340)
  G vector (1/distance) = 0.37238821
  grid = 24 24 25
  stencil order = 5
  estimated absolute RMS force accuracy = 0.003409772
  estimated relative force accuracy = 1.0268427e-05
  using double precision FFTW3
  3d grid and FFT values/proc = 3458 576
Last active /omp style is kspace_style pppm/tip4p/omp
WARNING: Not all mixed pair coeffs generated from mixing. Use write_data with 'pair ij' option to store all pair coeffs. (../write_data.cpp:312)

write_restart   restart.lmp.${pid}
write_restart   restart.lmp.0
System init for write_restart ...
PPPM initialization ...
  extracting TIP4P info from pair style
  using 12-bit tables for long-range coulomb (../kspace.cpp:340)
  G vector (1/distance) = 0.37238821
  grid = 24 24 25
  stencil order = 5
  estimated absolute RMS force accuracy = 0.003409772
  estimated relative force accuracy = 1.0268427e-05
  using double precision FFTW3
  3d grid and FFT values/proc = 3458 576
Last active /omp style is kspace_style pppm/tip4p/omp
Total wall time: 0:06:33
