#include		in.partitions
include		in.temp
variable        temperature equal 30.10
variable	tempDamp equal 100.0
include		in.pressure
variable        pressure equal 2001.3
variable        pressureDamp equal 1000.0 # This is 1 ps
include		in.seed
variable        seed equal 745823

units		real
atom_style	full
box tilt large
read_restart	restart.lmp.${pid}
read_restart	restart.lmp.0
Reading restart file ...
  restart file = 30 Jul 2021, LAMMPS = 30 Jul 2021
  restoring atom style full from restart
  triclinic box = (-10.627760 -9.1009572 0.15015995) to (12.607760 12.090955 21.709839) with tilt (-9.0872417 1.8751152 2.7742991)
  2 by 2 by 4 MPI processor grid
  restoring pair style lj/cut/tip4p/long/omp from restart
  restoring bond style harmonic/omp from restart
  restoring angle style harmonic/omp from restart
  1296 atoms
  864 bonds
  432 angles
Finding 1-2 1-3 1-4 neighbors ...
  special bond factors lj:    0        0        0       
  special bond factors coul:  0        0        0       
     2 = max # of 1-2 neighbors
     1 = max # of 1-3 neighbors
     1 = max # of 1-4 neighbors
     2 = max # of special neighbors
  special bonds CPU = 0.001 seconds
  read_restart CPU = 0.006 seconds
include 	in.setup
variable	out_freq equal 1000
variable	out_freq2 equal 10000
variable	out_freq3 equal 1000

timestep	2.0

neigh_modify    delay 7 every 1

include		in.tip4p
# This is TIP4P/Ice

# create groups ###
group ox type 2
432 atoms in group ox
group hy type 1
864 atoms in group hy

# set charges - beside manually ###
set group ox charge -1.1794
Setting atom values ...
  432 settings made for charge
set group hy charge 0.5897
Setting atom values ...
  864 settings made for charge

# ### TIP3P Potential Parameters ###
pair_style lj/cut/tip4p/long/omp 2 1 1 1 0.1577 8.5
pair_coeff 1 1*2 0.000 0.000
pair_coeff 2 2 0.21084 3.1668
bond_style  harmonic
bond_coeff  1 450 0.9572
angle_style harmonic
angle_coeff 1 55 104.52
kspace_style pppm/tip4p/omp 1.0e-5
pair_modify tail yes

thermo          ${out_freq}
thermo          1000
thermo_style    custom step temp pe etotal epair emol press lx ly lz vol pxx pyy pzz pxy pxz pyz enthalpy

restart 	${out_freq3} restart.lmp.${pid} restart2.lmp.${pid}
restart 	1000 restart.lmp.${pid} restart2.lmp.${pid}
restart 	1000 restart.lmp.0 restart2.lmp.${pid}
restart 	1000 restart.lmp.0 restart2.lmp.0


include         in.dump
dump            myDump all atom ${out_freq2} dump.water.${pid}
dump            myDump all atom 10000 dump.water.${pid}
dump            myDump all atom 10000 dump.water.0
dump            myDump2 all dcd ${out_freq2} dump.dcd
dump            myDump2 all dcd 10000 dump.dcd
dump_modify     myDump append yes
dump_modify     myDump2 append yes


variable natoms 	equal  "count(all)"                        # NUMBER ATOMS
variable H      	equal  "enthalpy/v_natoms"                 # ENTHALPY-per-atom
variable Vol      	equal  "vol/v_natoms"                 # volume-per-atom
fix AVG all 		ave/time ${out_freq} 1 ${out_freq} v_Vol v_H file vol_enthalpy.dat
fix AVG all 		ave/time 1000 1 ${out_freq} v_Vol v_H file vol_enthalpy.dat
fix AVG all 		ave/time 1000 1 1000 v_Vol v_H file vol_enthalpy.dat


timer           timeout 10:00:00 every 1000
New timer settings: style=normal  mode=nosync  timeout=10:00:00

fix 		1 all shake 1e-6 200 0 b 1 a 1
       0 = # of size 2 clusters
       0 = # of size 3 clusters
       0 = # of size 4 clusters
     432 = # of frozen angles
  find clusters CPU = 0.000 seconds
fix             2 all nph tri ${pressure} ${pressure} ${pressureDamp}
fix             2 all nph tri 2001.3 ${pressure} ${pressureDamp}
fix             2 all nph tri 2001.3 2001.3 ${pressureDamp}
fix             2 all nph tri 2001.3 2001.3 1000
fix             3 all temp/csvr ${temperature} ${temperature} ${tempDamp} ${seed}
fix             3 all temp/csvr 30.1 ${temperature} ${tempDamp} ${seed}
fix             3 all temp/csvr 30.1 30.1 ${tempDamp} ${seed}
fix             3 all temp/csvr 30.1 30.1 100 ${seed}
fix             3 all temp/csvr 30.1 30.1 100 745823


run             250000
PPPM initialization ...
  extracting TIP4P info from pair style
  using 12-bit tables for long-range coulomb (../kspace.cpp:340)
  G vector (1/distance) = 0.36856889
  grid = 30 40 32
  stencil order = 5
  estimated absolute RMS force accuracy = 0.0042780369
  estimated relative force accuracy = 1.2883181e-05
  using double precision FFTW3
  3d grid and FFT values/proc = 11832 2400
Last active /omp style is kspace_style pppm/tip4p/omp
Neighbor list info ...
  update every 1 steps, delay 7 steps, check yes
  max neighbors/atom: 2000, page size: 100000
  master list distance cutoff = 10.8154
  ghost atom cutoff = 10.8154
  binsize = 5.4077, bins = 7 5 4
  1 neighbor lists, perpetual/occasional/extra = 1 0 0
  (1) pair lj/cut/tip4p/long/omp, perpetual
      attributes: half, newton on, omp
      pair build: half/bin/newton/tri/omp
      stencil: half/bin/3d/tri
      bin: standard
Per MPI rank memory allocation (min/avg/max) = 12.76 | 12.77 | 12.77 Mbytes
Step Temp PotEng TotEng E_pair E_mol Press Lx Ly Lz Volume Pxx Pyy Pzz Pxy Pxz Pyz Enthalpy 
42000000    32.849656   -6935.7765   -6851.2727   -6935.7765            0    2474.0249    23.235521    21.191912    21.559679    10616.096    2327.3531    2212.5913    2882.1304   -233.89971    -46.19676    162.52415   -6468.2321 
42001000    31.747885   -6953.5844   -6871.9149   -6953.5844            0    2247.4621    23.160817    21.279431     21.55733    10624.508    2208.0653    2169.6395    2364.6815    154.34039   -214.22893    -50.76782   -6523.6761 
42002000    30.284566   -6948.0412    -6870.136   -6948.0412            0    1964.8752    23.099357    21.372369    21.551389    10639.662    2138.7822    1712.7598    2043.0836    375.80348    140.62644   -226.93288   -6565.2491 
42003000    29.938672   -6947.8833   -6870.8679   -6947.8833            0    2005.2338    23.161672    21.304957    21.558115    10638.033    1699.5866    2035.4291    2280.6855   -165.76751    415.90422   -113.94917   -6559.7663 
42004000    29.821936   -6951.0137   -6874.2985   -6951.0137            0    2120.6368     23.21977    21.190067    21.612262    10633.848    1947.0424    2446.2424    1968.6254    201.41821    6.5238058   -97.152804   -6545.4222 
42005000    29.206316   -6946.0318   -6870.9003   -6946.0318            0    2121.2987    23.148027    21.263476    21.612563    10637.866    2091.2955    2061.5199    2211.0807    638.69917   -643.93359    562.27521    -6541.797 
42006000    30.608541   -6945.9735   -6867.2349   -6945.9735            0    2036.4861    23.086983     21.32679    21.585281    10627.971    2325.8412    1700.9095    2082.7077    284.41076     129.6026    79.926459   -6551.5835 
42007000    30.412239   -6951.0834   -6872.8498   -6951.0834            0    1770.4594    23.146685    21.294267    21.587695    10640.395    1794.7661    1785.7912    1730.8209    541.36653    -575.7936     106.9919   -6598.1112 
42008000     30.39845   -6947.6787   -6869.4806   -6947.6787            0    1805.1668     23.20019    21.238651    21.606967    10646.633    2139.6212    1590.5311     1685.348   -109.45664   -399.10553    116.85415    -6589.192 
42009000    29.804293   -6943.1346   -6866.4649   -6943.1346            0    1914.3555     23.16928    21.262914    21.614272    10648.193     2188.393    2264.3161    1290.3574   -103.24289   -89.918635   -253.22055   -6569.1789 
42010000    29.532764   -6944.7839   -6868.8127   -6944.7839            0    2021.1777    23.074306    21.368637    21.560136     10630.58    2128.9273    1818.6486    2115.9572    375.81435   -86.385971    88.473721   -6555.4572 
42011000    30.807644   -6949.2785   -6870.0277   -6949.2785            0    2118.5374    23.108324    21.353618    21.545418    10631.507    2308.0898    1519.3797    2528.1428    52.823018    -145.4776    277.71303   -6541.5493 
42012000    30.525811    -6943.254   -6864.7282    -6943.254            0    2138.6773    23.202827    21.243321    21.578876    10636.338     1873.953    2410.3912    2131.6876     18.13715   -259.27999   -239.02558   -6532.9764 
42013000    32.435049   -6950.4429   -6867.0057   -6950.4429            0    2148.7116    23.199643    21.273421    21.531959    10626.792    1654.0845    2220.8596    2571.1907    151.55278   -597.63779    424.55151   -6533.9966 
42014000    30.064112   -6951.0208   -6873.6827   -6951.0208            0    2217.6547    23.077414    21.356282    21.553116    10622.405    2625.6422    1767.7565    2259.5655    69.666297    396.99279   -140.90099   -6530.1306 
42015000    30.546876   -6948.0276   -6869.4476   -6948.0276            0    2152.0408    23.116823     21.28633    21.598898     10628.22    2356.1217    2104.3719     1995.629    269.25765   -148.91388    183.79646   -6535.8777 
42016000     29.90928   -6947.6878    -6870.748   -6947.6878            0     2203.403     23.19196    21.201163    21.606006    10623.598    2111.8454    2098.0757     2400.288   -232.60753    153.38433    140.35319   -6529.3653 
42017000    29.544862   -6946.2601   -6870.2577   -6946.2601            0    2135.2035    23.150203    21.261492    21.595274    10629.363    2452.4259    2133.9338    1819.2507   -146.86426   -211.06924   -25.920629    -6539.262 
42018000    30.389976   -6952.6001   -6874.4238   -6952.6001            0    2289.7908    23.075186    21.358253    21.555121    10623.348     2512.246    2209.5933    2147.5331    345.59721   -80.002124   -187.85182    -6519.665 
42019000    30.312869   -6949.8415   -6871.8635   -6949.8415            0    1601.9738    23.141392    21.335628    21.567482    10648.645    1597.4927    1522.0168    1686.4119    180.88575   -69.454684    78.923005   -6623.0776 
42020000    30.013242   -6949.9184   -6872.7111   -6949.9184            0    1835.7305    23.176401     21.23691    21.629803    10646.084     1704.784    1896.8625    1905.5449   -80.071614    117.26907    132.76096   -6587.6915 
42021000    29.911574    -6951.201   -6874.2553    -6951.201            0    2208.7288    23.151364     21.24702    21.597134    10623.576    2084.8842    2577.2558    1964.0466   -102.17435    -8.811427   -140.05014   -6532.0482 
42022000    29.777348   -6945.4598   -6868.8594   -6945.4598            0    2145.8363    23.126578    21.329021    21.533622    10621.831    2389.5381    1960.4605    2087.5102   -269.53648   -5.5100037   -296.54934   -6536.4511 
42023000    29.889062   -6948.6804   -6871.7926   -6948.6804            0    2333.7586    23.168553    21.306173    21.516545    10621.281    1968.3146    2159.8956    2873.0656    63.277415   -122.65567   -53.385997   -6510.2923 
42024000    33.081695   -6947.5028   -6862.4021   -6947.5028            0    1950.1634     23.22289    21.222697    21.582945    10637.205    1695.7872    2681.9026    1472.8004    242.05782    35.672397   -511.53788    -6559.868 
42025000    30.879132   -6944.9826   -6865.5479   -6944.9826            0    2092.6669     23.16833    21.234802    21.613259    10633.181    1445.6417    2661.6994    2170.6598   -286.97767    457.08989    354.14481   -6541.0296 
42026000    31.304682   -6946.7834    -6866.254   -6946.7834            0    2057.2334    23.108387    21.311606    21.588831        10632    2152.4695    2145.7229    1873.5077   -368.01133   -8.3505548    6.8286125   -6547.2659 
42027000     31.00487   -6947.7371   -6867.9789   -6947.7371            0    1813.6218    23.152709    21.314277     21.58135    10650.035    1746.0479    1516.6342    2178.1833    256.72718    140.15292   -361.77354   -6586.2875 
42028000    29.194099    -6949.284   -6874.1839    -6949.284            0    2125.8359    23.202221    21.241649    21.581963    10636.745    2082.8322     2384.283    1910.3924   -114.37003   -375.94761   -525.31751   -6544.4115 
42029000     29.27832   -6947.4334   -6872.1168   -6947.4334            0    1876.3434    23.144506      21.2575    21.616706    10635.297     1699.971    2436.7562    1492.3031   -7.3163419    589.55127    39.274838   -6581.0867 
42030000    31.797176   -6946.8672   -6865.0709   -6946.8672            0    1872.2005     23.08994    21.308414    21.605224    10629.986    2095.8463    1778.6387    1742.1164   -163.28312    155.23218    286.82955   -6574.8284 
42031000    29.679798   -6943.8025    -6867.453   -6943.8025            0    1807.1999     23.16575    21.263546    21.600497    10640.102    1784.9717      1815.99    1820.6379    135.69145    255.51122   -33.168414   -6587.0208 
42032000    31.037283   -6948.2721   -6868.4306   -6948.2721            0    2079.5675    23.239102    21.223232    21.558373    10632.781    1610.4687    2382.1997    2246.0341   -26.218543   -595.30786   -82.189739   -6545.9558 
42033000    30.082072    -6948.006   -6870.6217    -6948.006            0    2044.8327    23.176705    21.316774    21.519124    10631.579    1983.9121    1853.0153    2297.5707    23.936647   -47.808585   -448.01811    -6553.569 
42034000    30.581776   -6950.7905   -6872.1207   -6950.7905            0    1846.1276    23.121753    21.354083    21.541121    10635.796     1660.763    1477.1381    2400.4818   -23.792721    503.38221    132.25582   -6585.7638 
42035000    28.578789   -6947.1216   -6873.6044   -6947.1216            0     1443.744    23.143377    21.297468    21.635154    10663.867    1670.5961    1474.1778    1186.4581    117.30641   -52.233075    305.09958   -6649.0711 
42036000    30.935068   -6952.8434   -6873.2648   -6952.8434            0    2049.6278    23.165231    21.252664    21.618834    10643.446    2116.5586    1983.9551    2048.3698    200.00852   -455.36427    117.21431   -6555.1139 
42037000    30.177571   -6946.5936   -6868.9636   -6946.5936            0    2128.1845    23.123342     21.30467     21.58508     10633.57      2444.56    1846.3245     2093.669    98.666628    -51.12184   -262.43219   -6538.9254 
42038000    30.321472   -6948.4838   -6870.4836   -6948.4838            0    2092.3282    23.088541    21.321623    21.601485    10634.091    1798.8716    2356.6256    2121.4873    230.50042    260.88859   -364.65523   -6545.9901 
42039000    30.866078   -6950.1222   -6870.7211   -6950.1222            0    2027.9861    23.126682    21.238882    21.640424    10629.449    2614.0674    1902.3288    1567.5621    -211.9497   -604.46655    421.87791   -6556.3435 
42040000    30.373498    -6950.517    -6872.383    -6950.517            0    2114.3844    23.160944    21.192993    21.654359    10629.036    2305.1415    2388.2962    1649.7155    140.68238   -58.004703    180.72795   -6544.6247 
42041000    30.565722   -6952.2679   -6873.6394   -6952.2679            0    1958.2048    23.120499    21.276436    21.621311    10635.995    1970.5902    2171.7694    1732.2549   -124.11824    383.93444    3.0227362   -6569.8924 
42042000    30.924029   -6950.6129   -6871.0627   -6950.6129            0    1877.6401    23.069383    21.362077    21.594208     10641.84    2220.6844    1898.6836    1513.5523    97.802633   -69.301642   -300.37005   -6579.6524 
42043000    30.645849   -6947.7658   -6868.9312   -6947.7658            0    2115.6773    23.121195    21.306324    21.587494    10634.597     2247.929    2045.1586    2053.9441    181.73694   -189.53472   -237.26984   -6540.8009 
42044000    31.057236   -6948.6175   -6868.7247   -6948.6175            0     2255.406    23.205952    21.231673    21.564935    10625.069    1824.1424    2579.0038    2363.0719    15.677223    271.56563   -517.71667   -6519.2366 
42045000    27.773496   -6950.3214   -6878.8758   -6950.3214            0    2025.8485    23.183081    21.278279    21.541144    10626.162    1874.0468    1681.6043    2521.8945   -317.07361   -64.592711    292.34413   -6564.9266 
42046000    30.263205   -6946.6041   -6868.7538   -6946.6041            0    2370.1958    23.141013    21.350161    21.470946    10608.029    1963.7942    2023.9674    3122.8257    269.10782    134.58171   -312.16538   -6502.0674 
42047000    30.419278   -6952.1085   -6873.8568   -6952.1085            0    1814.7443    23.188463    21.344516    21.481547    10632.217    1533.8287     1504.044    2406.3601    162.20216    34.805388   -12.721255   -6592.4625 
42048000    30.689486   -6947.4279   -6868.4811   -6947.4279            0    2037.1208    23.196474    21.271684    21.543233    10630.036    1920.8457    1955.5123    2235.0045   -134.88304   -61.180174   -162.03482     -6552.67 
42049000    30.597359    -6947.935   -6869.2252    -6947.935            0    1996.6042     23.15386    21.276656     21.59031    10636.179    2381.9914    1620.0257    1987.7954   -103.82505   -134.43294    213.94652   -6559.5164 
42050000    30.602561   -6949.3696   -6870.6463   -6949.3696            0    2041.4446    23.061028    21.347723    21.596925    10632.175    2530.9092    1730.8253    1862.5992    162.04847     77.81025   -213.71774   -6554.1012 
42051000    30.233542   -6944.9377   -6867.1637   -6944.9377            0    1954.0324    23.112522    21.310931    21.609571     10643.78    2067.0248    1769.6466    2025.4258    102.58825   -122.55886    91.118923    -6563.842 
42052000    29.444877   -6948.8319   -6873.0867   -6948.8319            0     1893.352     23.16126    21.240189    21.633863    10642.769    2210.8638    1829.1802     1640.012   -220.21116    35.268008     44.06595   -6579.2122 
42053000      29.2872   -6948.7322   -6873.3927   -6948.7322            0    1799.0998    23.175767    21.212188    21.649307    10642.988    1928.9101    2053.3074     1415.082    257.62618    -67.10848    248.90867   -6594.1417 
42054000    30.285627   -6946.4169    -6868.509   -6946.4169            0    2193.3056    23.114005    21.264143    21.628261     10630.28    1954.8161    2377.1215    2247.9793    634.13106    556.95033    361.08062    -6528.477 
42055000    30.878054   -6948.5416   -6869.1097   -6948.5416            0    1803.1869    23.115812    21.282692    21.633476     10642.95    2154.9228    1630.9194    1623.7184   -334.67023    288.04865    294.64233   -6589.2253 
42056000    31.094578   -6945.7506   -6865.7617   -6945.7506            0    2015.2157    23.193604    21.197949    21.653899    10646.287    1816.6887    2740.2928    1488.6656    120.98712   -121.13809   -221.20592   -6552.8689 
42057000    30.451663   -6949.3406   -6871.0056   -6949.3406            0    1896.7641    23.162453    21.243629    21.631107    10643.685    1936.9936    2000.7194    1752.5795   -199.06538   -155.40631   -61.521843   -6576.5761 
42058000    31.040015   -6950.6157   -6870.7672   -6950.6157            0    1825.2948     23.10181    21.340947     21.58487    10641.654    1800.7098    1580.6374    2094.5373    389.93744   -178.61245    296.24962   -6587.4858 
42059000    30.058051   -6946.9146   -6869.5921   -6946.9146            0    2284.6611    23.113941    21.325684    21.546655     10620.79    2325.0756    2231.3897    2297.5181   -135.93392    3.7265364   -154.19182   -6515.7133 
42060000     27.69586   -6946.3899    -6875.144   -6946.3899            0    2096.4973    23.203852    21.267945    21.528307    10624.182    1827.4094    1979.0327    2483.0496   -313.36523   -99.795183   -142.62791   -6550.3069 
42061000      29.3717   -6945.7923   -6870.2354   -6945.7923            0    2120.3362    23.226932    21.284479    21.488333    10623.255    1642.6058    2151.7869    2566.6158   -117.17564    29.721084    33.115226   -6541.7333 
42062000    29.901036   -6945.0826    -6868.164   -6945.0826            0    2061.7689    23.208693    21.339713    21.447509     10622.24    1698.1796    2003.4153    2483.7119   -37.195913   -144.38533   -205.48543   -6548.7662 
42063000    31.082697   -6944.3812   -6864.4229   -6944.3812            0    2122.6936    23.187158    21.342218    21.482285    10630.839    1706.6332    1691.6577    2969.7898   -136.09063    387.30111    154.97576   -6535.3207 
42064000    29.878042   -6948.9434    -6872.084   -6948.9434            0    2099.8056    23.188132    21.273317    21.553648    10632.167    2033.5786    2150.6446    2115.1935   -285.64163   -1.8378838   -258.30513   -6546.4897 
42065000    29.531042   -6952.9552   -6876.9884   -6952.9552            0    1941.3709    23.162968    21.255186    21.610198    10639.418    1914.3048    2271.9321    1637.8756   -237.91269   -68.386435   -93.790916   -6575.7556 
42066000    31.511445   -6948.5595   -6867.4982   -6948.5595            0    1804.2452    23.105859    21.304594    21.629536    10647.376    2111.1531    1771.9603    1529.6222   -145.20638    12.850312   -191.40372   -6587.3331 
42067000    28.612185   -6949.5077   -6875.9045   -6949.5077            0    2311.0714    23.080696     21.26597    21.646731    10624.938     2385.162    2607.5375    1940.5148    336.99069    429.70526   -120.64407   -6517.7952 
42068000    29.889361   -6950.7797   -6873.8911   -6950.7797            0    2079.8329    23.134577    21.202316    21.675108    10631.784    2324.5393     2991.312    923.64729    51.774977     57.99207   -37.262993   -6551.4054 
42069000    28.912433   -6951.1801   -6876.8046   -6951.1801            0    2020.4395    23.153979    21.221086    21.650731    10638.143     2204.507    2130.2201    1726.5915   -330.93113    175.71917   -100.95526   -6563.3407 
42070000    29.440413   -6948.7365   -6873.0028   -6948.7365            0    1611.0847    23.139248    21.270859     21.65596    10658.884    1920.8722     1712.123    1200.2589    239.99646   -263.33012    83.407194   -6622.5615 
42071000    29.386274   -6946.2093   -6870.6149   -6946.2093            0    1864.7807    23.131716    21.321495    21.586067    10646.308    1775.2117    1743.9297    2075.2007    286.32866    60.313846    294.08652   -6581.0788 
42072000    32.178225   -6947.1911   -6864.4146   -6947.1911            0    1806.5854    23.156515     21.31957    21.557133    10642.475    2135.6952    1515.6862    1768.3746   -157.82854   0.16374138   -344.87198   -6584.0152 
42073000    29.152703   -6949.2067   -6874.2132   -6949.2067            0    2169.9307    23.170846    21.310762    21.514454    10623.587    2042.8699    1858.0204    2608.9018   -542.10723   -131.15747   -357.17016   -6538.0169 
42074000    29.764687   -6947.5389    -6870.971   -6947.5389            0    2138.2601    23.157706    21.325219    21.523376    10629.172    1941.5876    1981.1461    2492.0465    69.246078   -62.699652   -169.18744   -6539.5074 
42075000    30.020785   -6948.1923   -6870.9656   -6948.1923            0    2121.4609    23.164465    21.329476    21.506215    10625.917     2065.073    1773.4837    2525.8261    139.45468   -102.38556    184.58153   -6542.2068 
42076000    29.406239    -6946.301   -6870.6553    -6946.301            0    2431.1809    23.179902     21.31322    21.474131    10609.044    2321.3472     2279.482    2692.7136   -62.323362    283.82954   -323.44555    -6494.498 
42077000    30.152578   -6950.9298   -6873.3641   -6950.9298            0    2088.3677    23.195189    21.285267    21.515932    10622.755    2202.2348    1665.7843    2397.0842   -372.33999   -259.17223    661.63695     -6549.83 
42078000    31.566258   -6947.5238   -6866.3215   -6947.5238            0    2035.1837    23.131027    21.305913    21.577326    10633.903    2155.1625    1917.5872    2032.8014   -182.94119    94.538434   -85.509198    -6550.696 
42079000    29.743744    -6950.063   -6873.5491    -6950.063            0    2082.4816    23.132482    21.286947    21.600367    10636.451    1925.5148    1893.1172    2428.8129    251.27257    52.652077    129.42174   -6550.5109 
42080000    31.220393   -6947.5206   -6867.2081   -6947.5206            0    1729.0118    23.117011    21.251599    21.685148    10653.337     2460.459    1905.5214    821.05506   -194.38503    130.04245   -617.01586    -6598.575 
42081000    29.166006   -6947.9299   -6872.9021   -6947.9299            0    1965.2805    23.080288     21.28796    21.677282    10650.748     2757.616    1542.3342    1595.8912   -463.52479   -123.07599    213.46151   -6567.6346 
42082000    29.800959    -6949.594   -6872.9329    -6949.594            0      1879.12     23.11381    21.294278    21.634382    10648.268     2152.144    1817.9673    1667.2487    261.51764    50.683014    91.591289   -6581.1167 
42083000    29.915502   -6947.6641   -6870.7082   -6947.6641            0    2084.4028    23.138627    21.240098    21.636063    10633.405    2275.0737    2465.7741    1512.3605    55.746302    136.23757   -11.944451   -6547.4647 
42084000    30.806422   -6944.5941   -6865.3464   -6944.5941            0    2023.4395    23.194793    21.260729    21.572776     10638.36    1425.9234    2298.2131    2346.1819   -178.23212    204.71403    341.09454   -6551.4107 
42085000    29.880367    -6948.836   -6871.9706    -6948.836            0    2683.2749    23.192576    21.227341    21.524127    10596.687    2320.9053      2756.08    2972.8394   -73.065629    174.47049    237.06511   -6457.2924 
42086000    30.500768   -6950.7859   -6872.3245   -6950.7859            0    2574.6897     23.17532    21.254496    21.536329     10608.36    2327.1269    2965.2597    2431.6826    170.23189   -222.74777   -93.808073    -6473.989 
42087000    28.810264   -6949.0661   -6874.9534   -6949.0661            0    1751.2979    23.156138    21.358847    21.521481    10644.275    1672.6267    1427.4963    2153.7709    22.330462     15.03725   -447.44758   -6603.0892 
42088000    29.282732   -6944.3908   -6869.0628   -6944.3908            0    2039.8298    23.139691    21.354852    21.527148    10637.526    1989.1863    1413.4115    2716.8915   -352.06169    -205.6467    130.52052   -6552.6089 
42089000    29.489351   -6951.7229   -6875.8634   -6951.7229            0    2156.8543    23.149659    21.298686    21.560515    10630.569    2136.1659    2116.9654    2217.4318   -428.05167    224.40195   -549.65625   -6541.4734 
42090000    30.966215   -6951.9463   -6872.2876   -6951.9463            0    1931.4469    23.148909    21.300284    21.574713    10638.024    1579.5435    1969.9614    2244.8357   -284.74076    260.08477    38.076923   -6572.6339 
42091000    29.665173   -6950.4062   -6874.0944   -6950.4062            0    2261.5825    23.119861    21.318842    21.548602    10621.062    2435.5905    1842.9381    2506.2189    514.63777    64.815284    408.75844   -6523.7814 
42092000    30.886573   -6949.3999   -6869.9461   -6949.3999            0    2013.7786    23.164162     21.27498    21.572056    10631.078    2557.9215    1761.6423    1721.7719   -415.44053   -267.99334   -345.23612   -6557.7231 
42093000    29.192024   -6946.0177    -6870.923   -6946.0177            0    2312.1728    23.162045    21.239919    21.591309     10622.06    2401.5927    2573.3452    1961.5804    425.27127    201.10193     77.32119   -6512.7401 
42094000    29.725264   -6946.0861   -6869.6197   -6946.0861            0    2203.1928    23.148124    21.261603    21.599557    10630.572     2145.884    2574.6528    1889.0416    346.09485   -226.18263    214.95912   -6528.0455 
42095000    29.198145   -6949.8797   -6874.7693   -6949.8797            0    2146.5836    23.095963    21.254836    21.655214    10630.565    2826.2814    2011.0122    1602.4573   -39.946495   -598.62893    364.78993   -6541.9718 
42096000    29.743349   -6943.9543   -6867.4414   -6943.9543            0    2114.3148    23.094238     21.25259    21.674798    10638.259    2062.5179    2649.8216     1630.605    181.38918    193.20389   -125.78557   -6539.4095 
42097000    30.312468   -6949.3183   -6871.3413   -6949.3183            0    1751.0124    23.111027    21.290158    21.655472    10655.302     1958.622    1926.3337    1368.0814    279.16997   -287.94755    -60.81625   -6599.2398 
42098000    29.934161   -6952.9238     -6875.92   -6952.9238            0    1852.9593    23.113125    21.315483    21.607862    10645.489    1804.5165    2073.0956    1681.2659    55.636612    107.62989   -237.51632   -6588.2415 
42099000     30.50348   -6949.1408   -6870.6725   -6949.1408            0     2072.881    23.186349    21.260745    21.571212    10633.725    1776.0436    2077.4318    2365.1675    52.710538   -38.016266    67.728855    -6549.206 
42100000    29.138206   -6948.4813   -6873.5251   -6948.4813            0    2140.5738    23.200506    21.201459    21.594833    10622.165    2130.7183    2138.7843    2152.2188    355.17831   -161.17414    309.91572   -6541.9215 
42101000    28.628064   -6948.7849    -6875.141   -6948.7849            0    1976.7128    23.204637    21.272308    21.535153      10630.1    1244.8485    2058.8533    2626.4367    482.62164    241.76845    84.315843    -6568.693 
42102000    30.202634   -6949.6618   -6871.9673   -6949.6618            0    1903.2217    23.143019    21.343171     21.54524    10642.172    1823.1708    1792.0864    2094.4079   -128.02256   -311.88392   -501.37094   -6576.5775 
42103000    29.998766   -6945.1876   -6868.0176   -6945.1876            0    1929.4999    23.147144    21.322469    21.576907    10649.375    2021.1353    1586.2471    2181.1173    507.65056   -272.42991   -115.93791   -6568.3466 
42104000    29.579768   -6946.2694   -6870.1772   -6946.2694            0    2342.5591    23.127286    21.273046    21.592196    10623.098    2537.9036    2371.6199    2118.1539   -73.760619   -298.14774   -387.15567   -6507.2516 
42105000    30.740524   -6948.5205   -6869.4424   -6948.5205            0    1954.2278    23.172951    21.255207    21.582507    10630.375     2019.716    1949.4996    1893.4677   -129.50111    40.688957    394.04457   -6566.4724 
42106000    29.948564   -6950.8966   -6873.8558   -6950.8966            0    1897.8932    23.178704    21.250947      21.5843    10631.766    1811.9335    2099.0375    1782.7085    -54.77964    279.55684    422.50343    -6579.581 
42107000    29.891363   -6950.0505   -6873.1567   -6950.0505            0    2007.0698    23.134366    21.322762    21.560428    10635.513    2134.1209    1912.2724     1974.816   -47.504909    81.841591   -9.6442565   -6561.8441 
42108000    29.649674   -6948.7782   -6872.5062   -6948.7782            0    1875.4405    23.093961    21.325349    21.635438    10655.167    2767.5549    1498.7717    1359.9951   -81.111973   -426.56418   -292.80279   -6581.0727 
42109000    29.639831   -6949.9601   -6873.7135   -6949.9601            0    1736.0684    23.114815    21.282492    21.661746    10656.298    2118.7695    1725.8039     1363.632    -264.3216   -90.731999   -195.68317    -6603.909 
42110000     29.46105   -6949.8812   -6874.0944   -6949.8812            0    1843.9529    23.116721    21.283656    21.638527    10646.336    2118.1511    1744.4898    1669.2179   -201.06019    132.27232    443.01435   -6587.7915 
42111000    29.162865   -6945.6452   -6870.6255   -6945.6452            0    2032.6145    23.117032    21.339192    21.545612    10628.424    2017.6737    1916.7154    2163.4545     119.0945    494.37409   -315.23439   -6555.5607 
42112000    29.170766   -6946.0262   -6870.9862   -6946.0262            0    1934.0566    23.183285     21.31306    21.527573    10636.919    2316.9998    1602.5887    1882.5812    117.23341   -613.94739   -325.78908   -6570.9588 
42113000    30.290416   -6948.6982   -6870.7779   -6948.6982            0    2078.4801    23.260078    21.221575      21.5448    10634.847     1236.186    2579.9551    2419.2991    59.307307    207.88918   -187.63364   -6548.4091 
42114000    30.558043    -6947.629   -6869.0203    -6947.629            0    2080.4012    23.171871    21.268612    21.569259    10630.054    1760.0599    2041.0505    2440.0932   -342.34125    485.05464    55.051851    -6546.499 
42115000     30.21157   -6946.5698   -6868.8523   -6946.5698            0    2262.1848    23.061088    21.320199    21.614947    10627.356    3117.5346     1937.696     1731.324    6.0424633    349.29251   -61.594115   -6518.2384 
42116000    27.270112   -6945.9315   -6875.7808   -6945.9315            0    2213.1653    23.123195    21.282168    21.606838    10632.978    1970.1569    2678.4446    1990.8944    189.23059      46.9475    176.21173   -6532.5828 
42117000    28.315253   -6951.7367   -6878.8974   -6951.7367            0    1919.8149    23.230019     21.20704      21.5957    10638.905    1759.9387    2415.0785    1584.4275   -340.06641   -18.575317   -115.14645   -6581.0237 
42118000    29.006127   -6949.5929   -6874.9764   -6949.5929            0    1920.7119    23.176398    21.233961    21.619862    10639.712    1763.3437    2098.0739    1900.7182    3.1635501     -19.3901    363.52563   -6576.9409 
42119000    29.308855   -6947.2926   -6871.8973   -6947.2926            0     1997.702    23.097384    21.319252    21.595795    10634.179    2011.6055    2121.3209    1860.1795    360.72262   -54.023392   -257.45274   -6562.0765 
42120000    29.630289   -6947.2315   -6871.0094   -6947.2315            0    1836.3905    23.133647     21.29242    21.598618     10638.86    1774.6707    1801.8346    1932.6663    374.02197    477.78551    32.651798   -6586.0808 
42121000    29.486955   -6948.0919   -6872.2385   -6948.0919            0    1976.2452    23.172405    21.234668     21.61719    10636.918     2291.775    2068.8232    1568.1373   -496.07598   -135.06126   -181.53329   -6565.6664 
42122000    31.056927   -6946.2543   -6866.3622   -6946.2543            0    1855.6596    23.158124    21.296307    21.583647    10644.677    2089.4332    1480.3965     1997.149    -728.2711    24.516663    217.93915   -6578.2865 
42123000    29.954887   -6948.9089   -6871.8518   -6948.9089            0    2267.6312    23.120483    21.344577    21.516951    10618.549    2474.5858    2078.2362    2250.0716   -448.19598    241.95615   -215.66467   -6520.6849 
42124000    29.356658   -6945.2639   -6869.7457   -6945.2639            0    2261.0297    23.150431    21.323294    21.514653    10620.568    2343.8877    2418.0918    2021.1097   -349.23356    304.50238   -530.55505   -6519.5346 
42125000    30.383877   -6946.9131   -6868.7524   -6946.9131            0    1911.8364    23.253383    21.199533    21.575498    10635.875    1185.5823    2346.5317    2203.3951    40.991801   -38.190978    538.98373   -6572.2011 
42126000    30.929683   -6951.2708    -6871.706   -6951.2708            0    1945.8661    23.187799    21.251651    21.576986    10632.686    1794.5487    1922.7545    2120.2952   -604.94837    462.73178   -147.28787   -6569.9668 
42127000    29.986078   -6949.9942   -6872.8568   -6949.9942            0    1906.7781    23.108744    21.363726    21.547444    10637.733    2215.9921    1868.4298    1635.9124   -245.09424   -142.66993    -89.74331   -6577.0384 
42128000    29.166042   -6945.6584   -6870.6306   -6945.6584            0    1975.6936    23.132526    21.334908    21.562207    10641.603    1884.6753    1749.4045     2293.001    257.67501    449.79095   -617.09305   -6564.0091 
42129000    31.424323   -6947.0248   -6866.1876   -6947.0248            0    1783.2244    23.235339    21.247421    21.572964    10650.379    1216.7615    2406.4437    1726.4681    91.049466   -174.63577   -181.87695   -6589.2085 
42130000    28.968649   -6951.7746   -6877.2545   -6951.7746            0    2028.5769    23.199617    21.247965    21.575313    10635.436    1756.1727     2088.946    2240.6119   -10.092109    329.33067    100.12524   -6562.6082 
42131000    29.716871   -6951.4886   -6875.0438   -6951.4886            0    1810.5645    23.095971    21.304506    21.620758    10638.456    2192.6664    1524.9002     1714.127   -48.466116    15.946031     289.6737   -6594.1329 
42132000    31.597943   -6947.6684   -6866.3846   -6947.6684            0     2078.755    23.105581    21.280034    21.612648     10626.67     2391.152    2251.0436    1594.0694    279.82392    115.27163   -268.88556    -6544.221 
42133000    30.902941    -6949.053   -6869.5571    -6949.053            0    1697.2928    23.237457    21.214401    21.600281    10648.263    1234.3723    2042.4689    1815.0371    248.30531   -740.30989    204.04253   -6605.9777 
42134000    29.027758   -6950.3643   -6875.6921   -6950.3643            0    2195.8634    23.192794    21.224357    21.593401    10629.398    1786.2832    2907.7064    1893.6006    226.83755    121.86999   -503.41757   -6535.2919 
42135000    28.789652   -6949.7977    -6875.738   -6949.7977            0    1779.0694    23.101949    21.344036      21.5932    10647.366    2121.0162    1353.5162    1862.6758   -21.885726   -160.44124    211.70868   -6599.4825 
42136000    30.402818   -6945.4348   -6867.2254   -6945.4348            0    1911.5065    23.060226    21.409601    21.543898    10636.443    2060.7496     1355.388    2318.3817   -4.2549316     506.5061    321.23759   -6570.7094 
42137000     30.39481   -6949.8888      -6871.7   -6949.8888            0    1969.5244    23.208845    21.281393    21.534198    10636.097    1976.6207    1745.3806    2186.5718    83.854504   -232.50449    566.66627   -6566.1942 
42138000     28.90981   -6948.5192   -6874.1505   -6948.5192            0    1983.5921    23.257142    21.225374    21.538932    10632.512    1452.0568    1866.7813    2631.9381   -20.743413   -88.452645   -199.11063   -6566.5662 
42139000    30.286851   -6950.8276   -6872.9166   -6950.8276            0    2086.8031    23.159681    21.322983    21.516929     10625.78    1954.2582    1816.8086    2489.3426     165.7579   -10.499192   -234.54814   -6549.5328 
42140000    30.164895   -6949.2814    -6871.684   -6949.2814            0    2138.9107    23.062268    21.374814    21.553593     10624.88     2152.706    2170.4917    2093.5345    489.50877    97.910613   -181.36362   -6540.2535 
42141000    29.406196   -6949.6558   -6874.0102   -6949.6558            0    2001.4894    23.145481    21.233112    21.642098    10636.022    2068.8001    2243.1172    1692.5509   -284.71678    17.895161    138.82568   -6563.5482 
42142000    30.008053   -6948.3954   -6871.2015   -6948.3954            0    2041.5236    23.173141    21.207641    21.639316    10634.591    2047.6664    2381.6909    1695.2136   -64.211549     276.7082    177.53684   -6554.5722 
42143000    30.937092    -6950.925   -6871.3412    -6950.925            0    1821.7405    23.124367    21.303119    21.614529    10647.774    1827.8974    1707.3065    1930.0174    327.83106   -235.31273    506.37138   -6588.4488 
42144000    30.701457   -6951.0138   -6872.0361   -6951.0138            0    1826.2462    23.115085    21.315564    21.595272     10640.23    1800.4483    2228.7263    1449.5641    556.83058    227.16127   -293.69965    -6588.645 
42145000    29.845469   -6943.7841   -6867.0084   -6943.7841            0    2036.0389    23.182597    21.237583    21.602142    10635.649    1932.4125    2265.9216    1909.7824    119.59688   -155.69905    234.82643   -6551.1984 
42146000    29.844485   -6949.9502   -6873.1771   -6949.9502            0    2035.0069    23.172352    21.226475     21.62268    10635.491    2144.4388    1804.2567    2156.3252   -489.06282    159.72594    219.63707   -6557.5318 
42147000    30.040963   -6952.2289   -6874.9503   -6952.2289            0    1924.1067    23.100958    21.304464    21.616725    10638.747    2191.1722    1938.1424    1643.0054    8.4238677   -33.884629     29.34223   -6576.4151 
42148000    30.148653   -6952.0213   -6874.4657   -6952.0213            0     2068.416    23.054326    21.391372    21.541905    10623.685    2735.9061    1586.0369    1883.3051    423.24597   -178.07573    -69.48402   -6553.9945 
42149000    31.029727   -6947.3657   -6867.5436   -6947.3657            0    2043.2411    23.172548    21.314642     21.52035    10629.214    1908.7322    1723.0891     2497.902    116.85091   -355.12437   -6.9103453   -6550.8082 
42150000    29.712048   -6949.7039   -6873.2714   -6949.7039            0    1883.9741    23.247246    21.258537    21.519756    10635.116      1382.11    1890.5077    2379.3048   -226.58614   -123.44707   -531.62344   -6581.0628 
42151000    30.050438   -6944.8231   -6867.5202   -6944.8231            0    2010.0795    23.172447    21.346058    21.484454    10627.079    1918.8373    1542.8894    2568.5118    -80.45595    4.2144831    163.02567   -6555.9879 
42152000    29.601455   -6950.5825   -6874.4345   -6950.5825            0    2146.8253    23.150325    21.330412    21.508064    10620.811    1814.4373    2132.2915    2493.7471    85.350813    321.33926   -103.25129    -6541.905 
42153000      30.6935    -6945.586   -6866.6288    -6945.586            0    2081.1164     23.19314    21.261591    21.549978    10626.791     1601.709    2368.4252    2273.2151   -106.35875     175.2647    -136.9181   -6544.0956 
42154000    30.316058   -6948.9932    -6871.007   -6948.9932            0    2095.1312    23.188506    21.234393    21.584696    10628.171    1502.7104      2907.73    1874.9532   -106.33282   -165.63947    -153.5293   -6546.2596 
42155000    29.707465   -6950.5693   -6874.1486   -6950.5693            0    1895.1777     23.16064    21.260216    21.614256    10642.865    1593.1914    2251.2963    1841.0455    89.712665    212.09492   -173.68776   -6579.9881 
42156000    29.106437   -6953.2539   -6878.3794   -6953.2539            0     2007.965    23.094849    21.291631    21.618128    10630.217    2313.1537    2109.9195     1600.822    330.11578    67.965663   -97.326726    -6567.083 
42157000    29.979181   -6951.0592   -6873.9396   -6951.0592            0    1755.9177    23.154896    21.249842    21.642287    10648.825    1266.2038    2274.5691    1726.9802    586.63369    176.51569    426.12928   -6601.2417 
42158000    29.478358   -6950.4053   -6874.5741   -6950.4053            0    1974.4955    23.184408    21.205533    21.633099    10635.647    1970.4441    2157.0285    1796.0138   -273.96889    51.451312    253.01176   -6568.3101 
42159000    30.187725   -6948.9806   -6871.3245   -6948.9806            0    2014.7987    23.145299    21.261948    21.614647    10636.874    2023.4155    2222.0211    1798.9593    359.75548    -85.71843    153.02456   -6558.7731 
42160000    29.788562   -6948.6863    -6872.057   -6948.6863            0     1664.346    23.120064    21.339486    21.583475    10648.645    1683.0347    1799.4084    1510.5947    376.79691   -399.75884   -531.42487   -6613.5848 
42161000    28.930068   -6949.4422   -6875.0213   -6949.4422            0    2019.9688    23.141482    21.344725     21.53389    10636.634    2090.2989     1529.933    2439.6746    109.56907    -276.5234   -191.22082   -6561.6749 
42162000     30.13361   -6947.7633   -6870.2465   -6947.7633            0    1955.2251    23.206686    21.265733    21.540324    10630.305    1745.5221    1726.9088    2393.2445   -264.13842   -201.73931    374.92155   -6567.1238 
42163000    29.599745   -6947.3454   -6871.2018   -6947.3454            0    2068.7745    23.164928     21.27101    21.563643      10625.3    1883.8305    2014.3763    2308.1167   -2.4424316     328.0422    445.71627   -6550.6264 
42164000    29.964102    -6950.746   -6873.6652    -6950.746            0    2096.7028    23.130505    21.340973    21.517055     10621.41    2130.0901     1788.188    2371.8302   -50.331534    216.00308    368.39505   -6548.8809 
42165000    29.589244   -6946.9523   -6870.8358   -6946.9523            0     2267.917    23.117796    21.317241    21.571373    10630.537    2498.2031    1915.7138    2389.8342   -117.33857   -92.983749    15.852457   -6519.2282 
42166000    30.011076    -6945.013   -6867.8113    -6945.013            0    2079.7761    23.158332    21.233042     21.64705    10644.327    2498.9956    2221.0074    1519.3253   -85.746997   -514.74691   -636.71157    -6544.954 
42167000    30.600211   -6951.4792   -6872.7621   -6951.4792            0    2030.5969    23.112481    21.260836    21.638549    10632.981    2043.6721    1987.7755    2060.3432    511.58585   -76.477159    408.79149   -6557.8751 
42168000      30.3171        -6946   -6868.0111        -6946            0    2052.7979    23.118832    21.287255    21.598804    10629.559    1890.1355    2404.3287    1863.9297    389.97399    132.79088    162.66311   -6549.7839 
42169000    31.348572   -6946.8518   -6866.2095   -6946.8518            0     1844.263    23.183035     21.28411    21.574488    10645.505    1722.1361    1616.1244    2194.5286    26.602101   -217.83381     49.25575   -6579.8807 
42170000    29.394562   -6947.8277    -6872.212   -6947.8277            0    1977.8701     23.21957    21.236999    21.582314    10642.541    1901.0699    2303.8944    1728.6461    380.80401    87.603743   -246.92191   -6565.2257 
42171000    30.403551   -6950.1585   -6871.9473   -6950.1585            0    1898.1189    23.149237    21.309588    21.581523     10646.18    1872.7386    1524.4288    2297.1895    161.99115   -19.803029    212.79508   -6577.2384 
42172000    29.979405   -6947.6284   -6870.5082   -6947.6284            0    2170.8819    23.070144    21.326173    21.603775    10629.012     2738.152    1902.0011    1872.4927   -553.07299    441.65736   -122.68089   -6533.9927 
42173000    28.225335   -6945.3043   -6872.6964   -6945.3043            0    2268.7416    23.081706    21.285605    21.624297    10624.192     2367.671    2425.6907     2012.863    27.724713   -115.20436    371.32866   -6521.1709 
42174000    29.630513   -6951.1955   -6874.9728   -6951.1955            0     1896.231    23.224921    21.241678    21.572689     10642.59    1435.0215    2040.8713    2212.8001   -4.2836237    198.50269   -231.62982   -6580.6564 
42175000    29.451716   -6946.3452   -6870.5824   -6946.3452            0    1922.3157    23.211134    21.274165     21.55471    10643.662    1732.4077    2178.7246    1855.8149    -220.3296   -159.24633   -365.42555   -6572.1873 
42176000    29.311875    -6950.251    -6874.848    -6950.251            0    1607.6924    23.100705    21.384225    21.559445    10650.165    1759.4997    1485.5872    1577.9904   -113.11614     224.3243   -55.663023   -6625.1384 
42177000    31.652619   -6947.7383   -6866.3139   -6947.7383            0    1992.4799    23.116448    21.331396    21.558836    10630.794     1813.865    2002.8051    2160.7695    -183.8813    635.77524    42.256638   -6557.4014 
42178000    31.064772   -6949.7931   -6869.8808   -6949.7931            0    2063.3632    23.186482      21.2357    21.600493    10635.676    2272.3844    2161.1253    1756.5799    114.41227   -210.64703   -49.840667   -6549.8317 
42179000    30.065135   -6949.5033   -6872.1626   -6949.5033            0    1899.5214    23.176243    21.282254    21.567875    10638.197    1974.2074    1904.1148     1820.242   -295.30459    -216.7017   -39.167915   -6577.4572 
42180000    30.269646   -6949.1669   -6871.3001   -6949.1669            0    1901.7974    23.078183    21.387175    21.558354    10640.711     2360.502    1476.4247    1868.4655   -519.66546    9.1946958   -361.26463   -6576.1718 
42181000    30.339259   -6950.8415   -6872.7956   -6950.8415            0    2183.7006    23.100806    21.315292    21.588416    10630.145     2454.209    1844.6052    2252.2876    156.53439    153.27574     173.2859    -6534.257 
42182000    30.489335   -6947.2919     -6868.86   -6947.2919            0    1858.3549    23.242334    21.207862    21.589129    10641.718    1287.0771    2233.1975    2054.7902   -135.49573    111.19068    229.39463    -6580.446 
42183000    29.109066   -6949.1166   -6874.2353   -6949.1166            0    1991.9808    23.215615    21.259454    21.544886    10633.506    1659.3354    1790.4942    2526.1127   -13.776481    30.634427    428.14909   -6565.3214 
42184000    29.038688   -6947.3975   -6872.6973   -6947.3975            0    2311.3683    23.095966    21.343345    21.560501    10628.145    2561.5279    2220.2506    2152.3264   -151.10844    327.02849   -403.96473   -6514.4338 
42185000    30.439372   -6946.9754    -6868.672   -6946.9754            0    2037.3023    23.101845    21.327193    21.596982    10640.779    1771.1378    2174.5939     2166.175     650.3481    426.48617   -63.703414   -6552.5135 
42186000    31.073462   -6948.3873   -6868.4528   -6948.3873            0    2191.7026    23.184331    21.205717    21.630256    10634.307    1810.6859    2820.6075    1943.8144    463.67624   -202.00342   -24.248246   -6528.5406 
42187000    28.882826   -6949.8907   -6875.5914   -6949.8907            0    2029.5045    23.224888    21.193015    21.616464    10639.741     1662.587    2660.9555    1764.9711   -445.63273   -237.73106   -78.333365   -6560.6738 
42188000    29.805607    -6944.704   -6868.0309    -6944.704            0    1973.5691    23.134718    21.291751    21.591668    10635.595    1875.2061    1990.6967    2054.8045   -102.92522    472.54636   -53.181237   -6561.9121 
42189000    28.230248   -6949.0324   -6876.4118   -6949.0324            0    2204.0011    23.107036    21.320513     21.54311    10613.296    2441.9742    2309.8702    1860.1591    172.27589    3.8231399   -41.681931   -6535.2676 
42190000    31.771815    -6946.432   -6864.7009    -6946.432            0    2185.3652     23.17555    21.265261    21.565391    10628.161    1945.4344    1991.4243    2619.2369   -201.75625    85.773446   -107.24984   -6525.9675 
42191000    31.426789   -6948.7409   -6867.8974   -6948.7409            0     1995.418    23.253401    21.189811    21.598784     10642.48    1730.1993    2438.2159    1817.8387   -250.25812   -345.07461   -324.33195   -6558.1893 
42192000    29.832395   -6946.6499   -6869.9079   -6946.6499            0    2151.8041    23.140663     21.30056    21.575398     10634.71    2168.9251    2189.8572    2096.6301   -179.11823   -57.844619     -279.318   -6536.1709 
42193000    30.361309   -6950.7622   -6872.6596   -6950.7622            0    1789.3761    23.077261    21.378296     21.56377     10638.54    2000.0439    1527.2195     1840.865     59.62751    205.74642    103.96915   -6595.0339 
42194000    28.949943    -6945.052   -6870.5801    -6945.052            0    1902.2995    23.166273    21.272985    21.585578    10637.713    1923.0439    2182.8446    1601.0101    40.722308    149.69104    108.83876   -6575.4571 
42195000    30.652556   -6947.8642   -6869.0124   -6947.8642            0    2019.0901    23.250591    21.213023    21.559392    10633.423    1785.1278    2348.8681    1923.2744    -236.8993   -216.31631    199.50318   -6555.8968 
42196000    30.178344   -6950.9072   -6873.2753   -6950.9072            0    1735.8103    23.171058     21.31385     21.54494     10640.28    1625.9457    2016.1157    1565.3695   -197.87775    436.64756   -415.80957   -6603.9165 
42197000    30.386044   -6948.7813   -6870.6151   -6948.7813            0    2128.6655    23.102677    21.376208     21.52991    10632.495     2422.726    1392.7325    2570.5381    298.29853    -413.4631    386.70718   -6540.5356 
42198000     30.50013   -6947.4047    -6868.945   -6947.4047            0    2029.4394    23.135065    21.308303    21.574042    10635.333    2375.9327    1576.4824    2135.9031   -275.33006    180.26655   -184.07551   -6554.1679 
42199000    30.994928   -6948.6985   -6868.9659   -6948.6985            0    2299.5654    23.116299    21.235476    21.639665      10622.6    2084.3854    2791.4645    2022.8462   -356.80792    382.10104    155.40675   -6512.7179 
42200000    29.723972   -6949.7591    -6873.296   -6949.7591            0    2060.6558    23.116265    21.282674    21.610887    10632.036    2155.0603    2073.5912    1953.3158   -164.93851   -143.19719     117.3087   -6553.7762 
42201000    30.610391   -6948.7567   -6870.0133   -6948.7567            0    2249.0735    23.142045    21.302051    21.551389    10624.253    2053.1738    2662.7318    2031.3149     147.6445   -22.749269   -116.31267   -6521.5332 
42202000    30.344876   -6949.2916   -6871.2313   -6949.2916            0    2472.3758    23.167422     21.24202    21.578061    10619.056    2740.3559    2415.6151    2261.1563    240.86801   -314.70081   -11.680261   -6488.3393 
42203000    28.208266   -6949.3975   -6876.8334   -6949.3975            0    2107.9131    23.171768    21.232104    21.613947    10633.746    2474.4556    2009.7054    1839.5783    106.53623   -609.83469    60.880775   -6549.9335 
42204000    30.199731   -6950.4648   -6872.7779   -6950.4648            0    2064.0172    23.136142    21.288765    21.592938    10635.384    1754.5162    1743.1373    2694.3981    63.586099    56.906633    253.67651   -6552.6361 
42205000    29.816774   -6950.7784   -6874.0765   -6950.7784            0    2079.1779      23.0734    21.315283    21.618415    10632.284    2568.3741    2475.0696      1194.09     253.0762   -209.26905   -244.35528   -6551.6772 
42206000    28.814534   -6949.8768   -6875.7532   -6949.8768            0    2106.2022    23.116612    21.265667    21.642082    10639.035    2273.8387    2081.6891    1963.0788    247.77286   -17.292324    97.804481   -6548.9561 
42207000    28.226045   -6947.4938    -6874.884   -6947.4938            0    2087.4124    23.166825     21.26249    21.588668    10634.241     2055.741    2224.1259    1982.3704   -436.70168   -378.50492   -492.37613   -6551.1482 
42208000     29.99048    -6948.382   -6871.2333    -6948.382            0    1919.6787    23.149097    21.310278    21.564751    10638.187    1745.3719    1719.8849    2293.7791    86.828074   -103.95122    275.01154   -6573.4009 
42209000    31.312944      -6949.8   -6869.2493      -6949.8            0    1714.1129    23.122491    21.345309    21.558558    10640.371     1869.849    1578.5105    1693.9792    572.48058    163.20731    85.062776   -6603.2552 
42210000    29.996244   -6949.6481   -6872.4846   -6949.6481            0    1918.6507    23.242037     21.26029    21.509837    10628.709    1517.3448    2209.5655    2029.0417   -214.43234    8.3228799    251.93705   -6575.0768 
42211000    30.187759    -6947.359   -6869.7028    -6947.359            0    1948.0363    23.240851    21.242217    21.541282    10634.655    1681.2826    1929.3353    2233.4911   -355.09925    125.28695   -33.220087   -6567.5711 
42212000    29.455005   -6949.6244   -6873.8532   -6949.6244            0    2149.3392    23.118995    21.316934    21.569184    10629.857    2404.7023    1942.5012     2100.814   -324.02083   -218.52508   -12.569406   -6540.6507 
42213000    29.486044   -6947.8226   -6871.9716   -6947.8226            0    2141.9355    23.068415    21.355406    21.573124    10627.684    2190.6916    1980.0756    2255.0392    33.572321    573.26466    36.932282   -6539.9847 
42214000    31.106047   -6951.2278   -6871.2094   -6951.2278            0     1849.951    23.138078     21.28928    21.599476    10639.751    1888.6916    1954.8705    1706.2908   -108.43247   -321.20707    140.45994   -6584.1528 
42215000     29.20328   -6950.7645   -6875.6408   -6950.7645            0    2180.4504    23.196501    21.214822    21.605391    10632.221    2108.2211    2210.6187    2222.5113   -421.18984   -80.038736     117.9388   -6537.5401 
42216000    29.392926   -6948.3448   -6872.7333   -6948.3448            0    1985.3686     23.16253    21.265261    21.594739    10636.645    2045.0021    2045.3927     1865.711    328.89063   -261.93319    128.82374   -6564.7539 
42217000    30.973433   -6952.0288   -6872.3516   -6952.0288            0    2249.6959    23.063586    21.345993    21.575501    10621.946    2830.7881    1744.8854    2173.4143    352.73215    198.23521   -38.316679   -6523.8508 
42218000    31.112233   -6950.0882   -6870.0539   -6950.0882            0    2018.7694    23.135158    21.290703    21.608137    10643.386    2082.2213    1952.3834    2021.7033    234.60862    -50.35851    214.56648   -6556.6947 
42219000    29.419846   -6948.3124   -6872.6316   -6948.3124            0    2147.7809    23.220072    21.166483    21.652725    10642.039    2011.5869    2689.4264    1742.3293   -75.141501    205.51729   -416.05702   -6539.2891 
42220000     29.15775   -6951.5252   -6876.5187   -6951.5252            0    2008.8112    23.150757    21.247221    21.627333    10638.253    2076.5789    2463.6108    1486.2438   -254.99645    13.073071   -420.87041   -6564.8557 
42221000    30.037027   -6950.0529   -6872.7845   -6950.0529            0    2117.1908    23.077952    21.328598    21.591134    10627.596    1931.3608    2191.9482    2228.2633    480.81246    133.68231    5.3136998   -6544.6356 
42222000    28.925616   -6948.2079   -6873.7985   -6948.2079            0    2178.7173    23.180416    21.258465    21.556736     10622.73    2091.0188    2196.5264    2248.6068    121.58639    -72.47755   -256.68976   -6536.2681 
42223000    29.326521   -6948.7725   -6873.3318   -6948.7725            0    2026.6256    23.234797     21.22117    21.569197    10635.114    2018.5639    2237.4818    1823.8311   -531.44348   -22.564549   -504.15617   -6558.9977 
42224000    30.456876   -6945.7683   -6867.4199   -6945.7683            0    1969.4823    23.140187    21.310346    21.572231    10637.815    1974.4489    2099.1552    1834.8427    249.47373    -304.0608   -312.43318   -6561.8712 
42225000    29.622235   -6950.0402   -6873.8388   -6950.0402            0    1763.4726    23.086512    21.372271    21.566104    10640.957    2024.2782    1286.9642    1979.1752     29.83006     311.8262   -300.59924     -6600.17 
42226000    29.125426   -6946.8721   -6871.9488   -6946.8721            0    2133.6642    23.152497     21.25702    21.588928    10625.057    2480.5375    1811.8874    2108.5677    34.244647   -448.73824    563.81805   -6541.3256 
42227000    30.946963   -6944.6563   -6865.0471   -6944.6563            0     1856.298    23.265145    21.188393    21.586668    10641.171    1264.0739    2418.9862    1885.8339   -425.43014    -67.62242   -5.0524462   -6576.9672 
42228000    32.112784   -6949.7189   -6867.1107   -6949.7189            0    1761.1597    23.174674    21.298905    21.560106    10641.964    1493.9725    1846.5614    1942.9452    -124.3195     22.00847   -31.878962    -6593.775 
42229000    30.416548   -6947.4014   -6869.1567   -6947.4014            0    1772.6889    23.093395    21.364995    21.581729    10648.215    2117.6753     1701.209    1499.1825    497.41472   -560.05866   -192.03936     -6593.87 
42230000    30.273588    -6946.078    -6868.201    -6946.078            0    1939.9977     23.15681    21.285561    21.588438    10641.064    2088.4586    1974.3222    1757.2123   -212.50696    313.20435   -367.54382   -6567.1347 
42231000    30.574381   -6945.9346   -6867.2839   -6945.9346            0    1842.9238    23.244523    21.166584    21.630684    10642.452    1470.4872    2374.0882    1684.1959   -15.321253   -614.84634   -112.14143   -6581.2451 
42232000    29.926171   -6947.4707   -6870.4874   -6947.4707            0    2080.7981    23.170828    21.246312    21.599718    10633.425    1792.7384    2041.8929    2407.7631    359.87921    -62.13705    198.09052   -6547.8023 
42233000    28.945038   -6948.7824   -6874.3231   -6948.7824            0     1887.757    23.091736    21.325891    21.616306    10644.989    2055.8849    1945.5639    1661.8221   -44.482895   -64.635644   -76.209081   -6581.2559 
42234000    29.855212   -6948.2305   -6871.4297   -6948.2305            0    1869.3893    23.123338    21.284791    21.627236    10644.394    1629.0881    2077.5192    1901.5605   -9.7834217    590.61092    107.22329   -6581.2303 
42235000    30.107251    -6949.861   -6872.4119    -6949.861            0    1697.9083    23.230933    21.219078     21.60908    10651.958    1632.0293    1871.1078    1590.5878   -303.02006   -43.313599    138.90302   -6608.6455 
42236000    29.518786   -6948.5867   -6872.6515   -6948.5867            0    1983.8997    23.173109    21.288887    21.542949    10627.777     1949.576    1913.6704    2088.4527    201.72754    -11.15211    277.98187   -6565.1565 
42237000    30.627431   -6952.1334   -6873.3462   -6952.1334            0    2095.2381    23.126942    21.351882    21.488372    10611.039    2047.6777    1261.5819    2976.4546   -113.43778    296.36381    475.05284   -6549.1058 
42238000    30.358511   -6945.5446   -6867.4492   -6945.5446            0    2093.9659    23.142222     21.31262    21.541217    10624.589    2184.3748    1764.1112    2333.4115   -244.94144    280.31721    -129.4202   -6542.9918 
42239000    29.162441   -6947.3087   -6872.2901   -6947.3087            0    2227.6163    23.171473    21.293162     21.52876     10622.16    1827.3837     2444.653    2410.8122   -341.10216   -225.28744    42.154748   -6527.2027 
42240000    30.861638   -6948.6945   -6869.3048   -6948.6945            0    1969.3111    23.202258     21.30697    21.515376    10636.553    1531.2147    1926.3252    2450.3934   -276.07641    115.52946      -390.73    -6563.819 
42241000    30.151029   -6950.3656   -6872.8039   -6950.3656            0    1871.6498    23.206187    21.316692    21.514837    10642.941      1568.16    1837.6671    2209.1223    231.05925   -226.01165   -37.085818   -6582.2932 
42242000    29.332348   -6947.6083   -6872.1526   -6947.6083            0    2112.5801    23.180784    21.332995    21.497638    10630.916    1717.6155    2064.6342    2555.4907    154.15752   -106.46058   -194.11352    -6544.616 
42243000     29.97232   -6946.4315   -6869.3296   -6946.4315            0    2046.6094    23.226871    21.234706    21.561551    10634.497    1676.3318    2215.2423     2248.254   -222.67385   -399.02515   -58.640897   -6551.9143 
42244000    29.852012   -6948.1711   -6871.3786   -6948.1711            0    2235.3449    23.132054    21.239589    21.626872    10625.613    2636.9793    2306.7987    1762.2568    266.23988   -196.50012    -306.7455   -6524.9813 
42245000    31.412489   -6947.4912   -6866.6845   -6947.4912            0    1907.6078    23.094483    21.307314    21.608879    10633.327    1967.4622    1876.0278    1879.3332    395.66211   -69.870445    217.92118   -6570.8599 
42246000    29.432093   -6949.4717   -6873.7594   -6949.4717            0    2132.7237    23.092778    21.269328    21.637138    10627.467    2150.1459    2407.6396    1840.3855    274.80643    13.656651    106.65814   -6543.2071 
42247000    30.362369   -6949.9499   -6871.8445   -6949.9499            0    1783.4756       23.187    21.224139    21.641718    10650.411    1978.4584    1919.3047    1452.6636   -33.069141    18.016227     197.0478   -6594.8256 
42248000    30.931169   -6950.6256    -6871.057   -6950.6256            0    1802.9449    23.155405    21.255757    21.632513    10647.212    2064.7108    1860.2102    1483.9137     71.39916   -298.71183    118.88525   -6591.0981 
42249000    30.001261   -6950.3796   -6873.2032   -6950.3796            0    1958.4269    23.115772    21.328339    21.587941    10643.308    2145.2631     1815.233    1914.7847    84.757819    168.44937    176.65779   -6569.2128 
42250000    30.536639   -6943.3128   -6864.7591   -6943.3128            0    2167.9257     23.13529    21.324944    21.558057    10635.856    2302.5083     2226.259    1975.0099   -597.44167     345.7602   -108.70963   -6528.4856 
Loop time of 610.591 on 64 procs for 250000 steps with 1296 atoms

Performance: 70.751 ns/day, 0.339 hours/ns, 409.440 timesteps/s
386.4% CPU use with 16 MPI tasks x 4 OpenMP threads

MPI task timing breakdown:
Section |  min time  |  avg time  |  max time  |%varavg| %total
---------------------------------------------------------------
Pair    | 43.637     | 50.117     | 59.594     |  67.9 |  8.21
Bond    | 1.5699     | 1.7882     | 2.571      |  19.0 |  0.29
Kspace  | 311.13     | 327.34     | 341.27     |  37.6 | 53.61
Neigh   | 0.11742    | 0.13343    | 0.14417    |   2.3 |  0.02
Comm    | 59.588     | 68.857     | 75.546     |  60.8 | 11.28
Output  | 1.3111     | 1.3115     | 1.3153     |   0.1 |  0.21
Modify  | 136.77     | 142.45     | 147.46     |  25.1 | 23.33
Other   |            | 18.6       |            |       |  3.05

Nlocal:        81.0000 ave          97 max          65 min
Histogram: 2 2 0 2 2 2 2 0 2 2
Nghost:        3705.69 ave        3735 max        3684 min
Histogram: 3 1 1 4 2 1 0 1 1 2
Neighs:        26259.8 ave       31417 max       21054 min
Histogram: 2 2 0 2 3 1 2 0 2 2

Total # of neighbors = 420157
Ave neighs/atom = 324.19522
Ave special neighs/atom = 2.0000000
Neighbor list builds = 257
Dangerous builds = 0

unfix		3
unfix		2
unfix		1

write_data	data.final.${pid}
write_data	data.final.0
System init for write_data ...
PPPM initialization ...
  extracting TIP4P info from pair style
  using 12-bit tables for long-range coulomb (../kspace.cpp:340)
  G vector (1/distance) = 0.36795336
  grid = 27 40 32
  stencil order = 5
  estimated absolute RMS force accuracy = 0.0044126564
  estimated relative force accuracy = 1.3288584e-05
  using double precision FFTW3
  3d grid and FFT values/proc = 10353 2240
Last active /omp style is kspace_style pppm/tip4p/omp
WARNING: Not all mixed pair coeffs generated from mixing. Use write_data with 'pair ij' option to store all pair coeffs. (../write_data.cpp:312)

write_restart   restart.lmp.${pid}
write_restart   restart.lmp.0
System init for write_restart ...
PPPM initialization ...
  extracting TIP4P info from pair style
  using 12-bit tables for long-range coulomb (../kspace.cpp:340)
  G vector (1/distance) = 0.36795336
  grid = 27 40 32
  stencil order = 5
  estimated absolute RMS force accuracy = 0.0044126564
  estimated relative force accuracy = 1.3288584e-05
  using double precision FFTW3
  3d grid and FFT values/proc = 10353 2240
Last active /omp style is kspace_style pppm/tip4p/omp
Total wall time: 0:10:10
