LAMMPS (30 Jul 2021)
Processor partition = 1
  using 2 OpenMP thread(s) per MPI task
using multi-threaded neighbor list subroutines
variable        pid world 0 1
variable        phase world IceII IceVI

shell cd ${phase}
shell cd IceVI
include Restart.lmp
echo both
log log.lammps
#include		in.partitions
include		in.temp
variable        temperature equal 110.49
variable	tempDamp equal 100.0
include		in.pressure
variable        pressure equal 7518.2
variable        pressureDamp equal 1000.0 # This is 1 ps
include		in.seed
variable        seed equal 745823

units		real
atom_style	full
read_restart	restart.lmp.${pid}
read_restart	restart.lmp.1
Reading restart file ...
  restart file = 30 Jul 2021, LAMMPS = 30 Jul 2021
  restoring atom style full from restart
  orthogonal box = (0.013344175 -0.021041414 0.0092283193) to (24.716657 24.751042 22.800772)
  4 by 4 by 2 MPI processor grid
  restoring pair style lj/cut/tip4p/long/omp from restart
  restoring bond style harmonic/omp from restart
  restoring angle style harmonic/omp from restart
  1920 atoms
  1280 bonds
  640 angles
Finding 1-2 1-3 1-4 neighbors ...
  special bond factors lj:    0        0        0       
  special bond factors coul:  0        0        0       
     2 = max # of 1-2 neighbors
     1 = max # of 1-3 neighbors
     1 = max # of 1-4 neighbors
     2 = max # of special neighbors
  special bonds CPU = 0.002 seconds
  read_restart CPU = 0.009 seconds
include 	in.setup
variable	out_freq equal 1000
variable	out_freq2 equal 10000
variable	out_freq3 equal 1000

timestep	2.0

neigh_modify    delay 7 every 1

include		in.tip4p
# This is TIP4P/Ice

# create groups ###
group ox type 2
640 atoms in group ox
group hy type 1
1280 atoms in group hy

# set charges - beside manually ###
set group ox charge -1.1794
Setting atom values ...
  640 settings made for charge
set group hy charge 0.5897
Setting atom values ...
  1280 settings made for charge

# ### TIP3P Potential Parameters ###
pair_style lj/cut/tip4p/long/omp 2 1 1 1 0.1577 8.5
pair_coeff 1 1*2 0.000 0.000
pair_coeff 2 2 0.21084 3.1668
bond_style  harmonic
bond_coeff  1 450 0.9572
angle_style harmonic
angle_coeff 1 55 104.52
kspace_style pppm/tip4p/omp 1.0e-5
pair_modify tail yes

thermo          ${out_freq}
thermo          1000
thermo_style    custom step temp pe etotal epair emol press lx ly lz vol pxx pyy pzz pxy pxz pyz enthalpy

restart 	${out_freq3} restart.lmp.${pid} restart2.lmp.${pid}
restart 	1000 restart.lmp.${pid} restart2.lmp.${pid}
restart 	1000 restart.lmp.1 restart2.lmp.${pid}
restart 	1000 restart.lmp.1 restart2.lmp.1


include         in.dump
dump            myDump all atom ${out_freq2} dump.water.${pid}
dump            myDump all atom 10000 dump.water.${pid}
dump            myDump all atom 10000 dump.water.1
dump            myDump2 all dcd ${out_freq2} dump.dcd
dump            myDump2 all dcd 10000 dump.dcd
dump_modify     myDump append yes
dump_modify     myDump2 append yes


variable natoms 	equal  "count(all)"                        # NUMBER ATOMS
variable H      	equal  "enthalpy/v_natoms"                 # ENTHALPY-per-atom
variable Vol      	equal  "vol/v_natoms"                 # volume-per-atom
fix AVG all 		ave/time ${out_freq} 1 ${out_freq} v_Vol v_H file vol_enthalpy.dat
fix AVG all 		ave/time 1000 1 ${out_freq} v_Vol v_H file vol_enthalpy.dat
fix AVG all 		ave/time 1000 1 1000 v_Vol v_H file vol_enthalpy.dat




fix 		1 all shake 1e-6 200 0 b 1 a 1
Finding SHAKE clusters ...
       0 = # of size 2 clusters
       0 = # of size 3 clusters
       0 = # of size 4 clusters
     640 = # of frozen angles
  find clusters CPU = 0.007 seconds
fix             2 all nph aniso ${pressure} ${pressure} ${pressureDamp}
fix             2 all nph aniso 7518.2 ${pressure} ${pressureDamp}
fix             2 all nph aniso 7518.2 7518.2 ${pressureDamp}
fix             2 all nph aniso 7518.2 7518.2 1000
fix             3 all temp/csvr ${temperature} ${temperature} ${tempDamp} ${seed}
fix             3 all temp/csvr 110.49 ${temperature} ${tempDamp} ${seed}
fix             3 all temp/csvr 110.49 110.49 ${tempDamp} ${seed}
fix             3 all temp/csvr 110.49 110.49 100 ${seed}
fix             3 all temp/csvr 110.49 110.49 100 745823


run             250000
PPPM initialization ...
  extracting TIP4P info from pair style
  using 12-bit tables for long-range coulomb (../kspace.cpp:340)
  G vector (1/distance) = 0.37511145
  grid = 30 30 30
  stencil order = 5
  estimated absolute RMS force accuracy = 0.0031949236
  estimated relative force accuracy = 9.6214175e-06
  using double precision FFTW3
  3d grid and FFT values/proc = 5400 960
Last active /omp style is kspace_style pppm/tip4p/omp
Neighbor list info ...
  update every 1 steps, delay 7 steps, check yes
  max neighbors/atom: 2000, page size: 100000
  master list distance cutoff = 10.8154
  ghost atom cutoff = 10.8154
  binsize = 5.4077, bins = 5 5 5
  1 neighbor lists, perpetual/occasional/extra = 1 0 0
  (1) pair lj/cut/tip4p/long/omp, perpetual
      attributes: half, newton on, omp
      pair build: half/bin/newton/omp
      stencil: half/bin/3d
      bin: standard
Setting up Verlet run ...
  Unit style    : real
  Current step  : 6250000
  Time step     : 2
Per MPI rank memory allocation (min/avg/max) = 10.55 | 10.56 | 10.57 Mbytes
Step Temp PotEng TotEng E_pair E_mol Press Lx Ly Lz Volume Pxx Pyy Pzz Pxy Pxz Pyz Enthalpy 
 6250000    115.52166   -9743.2756   -9302.8543   -9743.2756            0    7755.6988    24.703313    24.772084    22.791543    13947.343    7853.4167    7722.0994    7691.5804   -555.32327   -367.35895    1540.7881   -7725.2856 
 6251000    111.58586   -9747.4369   -9322.0207   -9747.4369            0    6718.7001     24.69065    24.861766    22.807384    14000.385    6841.1121    6391.3627    6923.6257   -521.74205    11.687882     293.3622   -7950.1881 
 6252000    109.79385   -9737.7726   -9319.1884   -9737.7726            0    7704.3968    24.713496    24.817645    22.763412    13961.501    7285.2779    7179.1016    8648.8108    516.65844   -373.45078   -34.211418   -7750.4639 
 6253000    110.31341   -9738.6472   -9318.0822   -9738.6472            0    7471.5617    24.757518    24.705525    22.833437    13966.015      7091.83    8194.3605    7128.4946   -204.95828    315.04493   -317.41486   -7796.2745 
 6254000    108.69228   -9744.0113   -9329.6268   -9744.0113            0    7889.2595    24.728115    24.677849    22.863585    13952.199    7930.8387    8227.0462    7509.8936   -694.19713    7.2762217    222.03168   -7724.3321 
 6255000    112.73618   -9741.4806   -9311.6788   -9741.4806            0    7537.4105    24.795416    24.767991    22.750029    13971.535    7264.7597     7209.557    8137.9148   -678.27929   -589.86517     641.8618   -7775.8522 
 6256000    114.26688   -9725.7376   -9290.1001   -9725.7376            0    8227.9159    24.836464    24.662968    22.759791    13941.303    7547.8284    8560.2782    8575.6413   -844.05213   -464.21582   -124.36544   -7617.2035 
 6257000    107.77576   -9735.1767   -9324.2864   -9735.1767            0    7994.1789    24.749548    24.655943    22.848392    13942.624    7215.5636    9282.6051    7484.3679    267.94328   -608.50659     291.3181   -7698.7591 
 6258000    109.62865   -9744.8723   -9326.9179   -9744.8723            0    7025.5566    24.824355    24.722236    22.798267    13991.606    6344.5375    7394.9437    7337.1887   -560.37284   -854.41839   -129.99237   -7893.3304 
 6259000    115.01375   -9737.8277   -9299.3429   -9737.8277            0    7479.2576    24.710981    24.820376    22.775811    13969.221    7647.9888    6972.9078    7816.8761   -68.973775   -353.94939    109.62139    -7775.618 
 6260000    113.18793   -9738.0948   -9306.5708   -9738.0948            0    8569.9581    24.654605    24.727999    22.840905    13925.164    8481.6331    8882.1458    8346.0955   -567.08869    -222.1379    603.13349   -7566.1474 
 6261000    107.90363   -9732.1381   -9320.7602   -9732.1381            0    7559.9108      24.6898    24.793235    22.834036    13977.627    7393.2788    7613.6853    7672.7683    148.93966    191.06816    451.02835   -7779.6773 
 6262000    111.38549   -9728.7286   -9304.0764   -9728.7286            0      7284.76    24.753737    24.758961    22.826511    13989.839     7671.623    7247.2693    6935.3875    377.28424    332.38923   -301.92221   -7817.7853 
 6263000    109.43821   -9723.4235   -9306.1951   -9723.4235            0    7635.7368    24.765113    24.706555    22.826519    13966.649    7434.6948    8152.0123    7320.5033   -217.87962   -305.80599    780.18904   -7750.8777 
 6264000    109.47587   -9754.8122   -9337.4403   -9754.8122            0    7713.7594    24.794689    24.723004    22.751067    13946.386     6742.021    7942.3582     8456.899    45.672889    73.212325     -194.685     -7768.51 
 6265000    111.64854   -9744.1825   -9318.5274   -9744.1825            0    7299.1885    24.705007     24.79883     22.81648    13978.637    7608.4063    6979.9701     7309.189    265.28507   -570.18878     401.3117    -7830.485 
 6266000    108.38216   -9727.6814   -9314.4792   -9727.6814            0    6739.4355     24.67856    24.837612     22.83922    13999.448    6710.6118    6278.5336    7229.1611   -79.849092   -417.87184    148.31815   -7938.5049 
 6267000    111.85987   -9735.7046   -9309.2437   -9735.7046            0    8565.3887    24.647244    24.806212    22.769826     13921.58    8686.4285    8529.4418    8480.2957    -269.2624   -63.423124    609.50963   -7570.1961 
 6268000    109.97428   -9746.2187   -9326.9466   -9746.2187            0    8092.8681    24.704082    24.753034    22.767105    13922.107    8300.4712    7794.4965    8183.6367    476.45691    53.819787    565.48631   -7683.7735 
 6269000    111.68198   -9750.6025   -9324.8198   -9750.6025            0    7155.7796    24.777881    24.719273    22.815757    13974.451    7062.7256    7479.0875    6925.5256   -261.63568    55.766582    57.820649   -7866.4503 
 6270000    108.60488   -9742.1779   -9328.1266   -9742.1779            0    6915.8287    24.832731    24.773792     22.74125    13990.438     6391.966    6796.6568    7558.8633    118.32356   -657.36493    269.40191   -7917.0472 
 6271000    108.16505   -9734.1809   -9321.8064   -9734.1809            0    8419.9652    24.748709    24.695104    22.778586    13921.632    7701.7286    9655.1342    7903.0329   -45.923391   -72.417666    171.86164   -7612.2779 
 6272000    112.97067   -9738.9177    -9308.222   -9738.9177            0    6760.2211    24.742108    24.767657    22.845923    14000.074    6158.6223     7097.202    7024.8391   -557.13142    35.494851   -54.951807   -7927.9422 
 6273000    108.36611   -9751.1008   -9337.9598   -9751.1008            0    7886.5004    24.706105    24.729734    22.811807    13937.453    8132.3541    7727.5498    7799.5974   -104.01121   -321.00763    641.82508   -7734.9225 
 6274000    112.65977   -9713.8948   -9284.3844   -9713.8948            0    7484.6634    24.788192    24.804243    22.733671    13977.851    6929.9312    6922.1926    8601.8664   -210.35795   -841.85649     693.2556   -7758.6161 
 6275000    111.10721   -9735.5307   -9311.9394   -9735.5307            0     8067.272    24.690614    24.726036    22.836731    13941.847    8011.8717    8598.2195    7591.7248   -299.69784    -519.5753    569.97314   -7671.6408 
 6276000    112.65059   -9740.8636   -9311.3882   -9740.8636            0    6478.7546     24.71327    24.753306    22.914066    14017.339    6673.9816    6998.6629    5763.6192    181.48916   -451.98256   -207.37911    -7986.946 
 6277000    110.86726   -9733.1622   -9310.4856   -9733.1622            0     8124.298    24.741353    24.808812    22.709212    13938.995    8528.9047    6673.1512    9170.8382    88.510187   -393.25716   -27.725864     -7658.93 
 6278000    110.15044    -9742.597   -9322.6532    -9742.597            0    8311.0334    24.700495    24.743089    22.799754    13934.447    8096.0576    8107.7387     8729.304   -601.51513    15.144246   -282.67843   -7633.6882 
 6279000    107.78859   -9743.6861   -9332.7469   -9743.6861            0    7018.6751    24.747722    24.735092    22.846327    13985.086    6666.6957    7456.1524    6933.1772   -321.58576     881.4381   -309.37518    -7901.231 
 6280000    109.17245   -9714.8046   -9298.5894   -9714.8046            0    8356.4593    24.740249    24.705299    22.777591    13922.011    8724.6018    8717.0082    7627.7681   -250.94829   -342.91621    154.93166   -7601.9086 
 6281000     113.8155    -9736.504   -9302.5874    -9736.504            0    6917.7402    24.802108    24.748114    22.802962    13996.581    6590.8666    7576.0644    6586.2897   -37.238266   -331.75671    1077.5458   -7890.4983 
 6282000    111.30098   -9721.9577   -9297.6276   -9721.9577            0    7953.7272    24.690021    24.728994    22.843344    13947.218    8116.0914    7943.1118    7801.9783   -637.78865   -325.64324   -140.13614   -7679.7927 
 6283000    114.50925   -9744.2926   -9307.7312   -9744.2926            0    7707.2781    24.696907    24.810762     22.77504    13955.385    7993.3061     7325.705    7802.8231   -466.25758   -21.538278   -635.09615   -7739.1075 
 6284000    107.94327   -9746.3891   -9334.8601   -9746.3891            0    7386.9705    24.688191    24.825869     22.78231     13963.41    7794.6152    6870.6953     7495.601   -93.598331   -188.17664    541.82071   -7830.5627 
 6285000    106.22721   -9746.7445   -9341.7579   -9746.7445            0    7302.5856    24.715479    24.780399    22.806969    13968.343    7592.6949    6702.3056    7612.7562    -97.10624   -217.65688    414.34499   -7854.1193 
 6286000    115.18225   -9756.4203    -9317.293   -9756.4203            0     7744.764    24.699704    24.757492    22.800612    13942.636    8137.8182    7594.3308    7502.1431    52.436146   -461.57556    494.28598   -7742.4801 
 6287000    109.80129   -9738.0109   -9319.3983   -9738.0109            0    7041.0713    24.792628    24.826893    22.735426    13994.199    7048.0978    6182.4664    7892.6498   -496.48601   -1182.2429   -519.93521   -7882.3788 
 6288000    113.58659   -9742.0458   -9309.0019   -9742.0458            0    7400.7562    24.725785    24.732542    22.839749    13967.227    7182.4531    8334.5704    6685.2451   -809.06196   -735.55326    171.85198    -7801.485 
 6289000    109.48629   -9741.8453   -9324.4336   -9741.8453            0    8197.3797    24.729315    24.717765    22.802452    13938.076    7740.7716    8016.4693     8834.898   -175.03615   -257.25508    28.370874   -7658.1314 
 6290000    111.55846   -9751.9674   -9326.6557   -9751.9674            0    7313.8545    24.772737    24.760576    22.765234    13963.904    6733.0047    7528.9362    7679.6225   -203.98547   -195.44632    179.67632   -7837.1949 
 6291000    106.11566    -9743.875   -9339.3137    -9743.875            0    7970.1114    24.773097    24.700204    22.806844     13955.52     7717.248    8423.9946    7769.0917    260.21128     713.7252    123.31239   -7717.1813 
 6292000    110.03909   -9739.9994   -9320.4802   -9739.9994            0     7488.163     24.82133    24.669414    22.821055    13973.963    6856.6452    8628.1989    6979.6451   -372.58697   -298.22572    228.54965   -7794.4231 
 6293000    109.75812   -9726.5619    -9308.114   -9726.5619            0    8119.1618    24.745518    24.758017    22.774174    13952.596    7853.1483    8330.2482    8174.0889   -304.87214   -705.80426    277.97575   -7655.9919 
 6294000    111.25662   -9742.5815   -9318.4205   -9742.5815            0    7236.3458    24.736725    24.810028    22.780523    13980.836    7084.2074    6936.1176    7688.7125    -203.0886   -627.39719   -177.06647   -7842.9574 
 6295000    107.13598   -9745.3036   -9336.8524   -9745.3036            0    8875.9269    24.685509    24.700049    22.800392    13902.158    8909.7038    8458.9228     9259.154   -59.712336     911.8332   -313.66152   -7537.2696 
 6296000     115.7432   -9742.6955   -9301.4297   -9742.6955            0    6784.8661    24.723894    24.821299    22.814936    14001.051    6707.8409    6734.1242    6912.6331   -403.68713   -755.34123     692.3352   -7916.0213 
 6297000    110.12734    -9743.684   -9323.8284    -9743.684            0    7956.2089    24.695704    24.810753    22.752394    13940.824    8246.7103    7318.4126    8303.5038    312.76146   -294.39271    702.06379   -7706.2307 
 6298000    110.53144   -9748.2499   -9326.8537   -9748.2499            0    6955.9301    24.691403    24.752335    22.885846     13987.14    7442.7118    7185.4253    6239.6532   -255.15774   -413.33203   -409.87286   -7907.9268 
 6299000    111.19317   -9725.0695   -9301.1504   -9725.0695            0    7855.3601    24.714147    24.755709     22.79099    13943.898    8339.3705      7702.95    7523.7597    44.131945    211.99773    107.99581   -7703.7045 
 6300000    111.47812   -9731.7807   -9306.7752   -9731.7807            0    6858.0693    24.788513    24.739616    22.831913     14001.86    7136.7073    6854.2835    6583.2172    -511.1146    4.3201299    88.234674   -7906.3385 
 6301000    111.38437   -9734.7862   -9310.1382   -9734.7862            0    7742.0614    24.754819    24.753855    22.772876      13954.7    7255.5622    7640.1535    8330.4685   -136.07876    78.412097    850.26871   -7734.5127 
 6302000     110.0392   -9739.3713   -9319.8517   -9739.3713            0    7449.7505     24.79487    24.684713    22.808087    13959.786    6718.9721    8240.9695    7389.3098   -376.81942    289.42389    45.426877   -7803.1632 
 6303000    108.30824    -9732.385   -9319.4646    -9732.385            0    7562.1361    24.788123    24.711953    22.803122    13968.347    7063.1377    8318.0552    7305.2154   -403.60828    417.00306   -801.78411   -7778.9515 
 6304000    113.42123   -9745.9532   -9313.5398   -9745.9532            0    7433.7488    24.783066    24.739496    22.781572     13967.85     7825.146     7310.895    7165.2056   -231.48402   -1170.1786    605.21854   -7799.2349 
 6305000    113.63247   -9740.8318    -9307.613   -9740.8318            0    7555.9419    24.719269    24.781977    22.797944    13965.846    7737.7853    6749.0939    8180.9466    308.38054   -776.09276    290.87263   -7768.6374 
 6306000    111.29617   -9732.2157    -9307.904   -9732.2157            0    6525.4082    24.695002    24.875732    22.837401    14029.158    7311.7223    5734.2687    6530.2335    296.09167   -379.02361   -414.12101   -7972.7997 
 6307000    109.51709   -9729.2606   -9311.7315   -9729.2606            0    8216.5017    24.756373    24.740709    22.732361    13923.349    7440.4373    8515.1145    8693.9534   -135.63329    580.42807    -399.9639   -7643.3071 
 6308000    108.39601   -9740.9858   -9327.7308   -9740.9858            0    7287.3053    24.731824    24.701812    22.897198    13988.376    8022.3065    6215.9543    7623.6552   -1335.5247    193.61925   -122.56781    -7841.076 
 6309000    109.41182   -9731.1436   -9314.0158   -9731.1436            0    8076.5986    24.785332    24.774315    22.694583    13935.373    7419.6338    8041.0187    8769.1435     240.7821    -831.7457    554.68626   -7672.5834 
 6310000    109.33102   -9753.4045   -9336.5848   -9753.4045            0    7810.2645    24.772672    24.754273    22.730801    13939.198    7602.8784    7677.0155    8150.8995   -342.59537    234.48087   -351.26197   -7748.8447 
 6311000    107.09178   -9734.9504   -9326.6677   -9734.9504            0    7643.1869    24.651558    24.719263    22.910589    13960.988    8626.8315    7717.5328    6585.1965    28.886089   -241.46644    37.902564   -7770.4637 
 6312000    109.30155   -9737.7724   -9321.0651   -9737.7724            0    7261.2643    24.734061    24.753143    22.839142    13983.167    6808.1408    7449.3009    7526.3513   -471.06704     27.41872    607.93384   -7840.2743 
 6313000    114.93172   -9736.2825   -9298.1104   -9736.2825            0    8299.7349    24.738894     24.81454    22.702565    13936.748    7780.6633    7853.4362    9265.1052   -89.619599    181.49924    63.099766   -7611.1629 
 6314000    111.19652   -9739.1305   -9315.1986   -9739.1305            0    7214.0045    24.725175    24.789378    22.809378    13980.363    6825.3067     7862.056    6954.6509    23.848679   -499.06246    173.89339   -7844.3406 
 6315000    106.22125   -9740.9674   -9336.0036   -9740.9674            0    8231.0754     24.60295    24.794654    22.821105    13921.368    9348.6529    7892.1032    7452.4701   -31.836376    81.398461    507.14559   -7664.8576 
 6316000    115.21485   -9731.2661   -9292.0146   -9731.2661            0    7010.8779    24.731921    24.775368    22.829254    13988.453    6836.3037    7289.5817    6906.7485   -78.039789   -240.04375    349.33911   -7861.7447 
 6317000    111.39208   -9757.6524    -9332.975   -9757.6524            0    7674.9998    24.703749    24.813986    22.739814    13939.471    8807.9884    6580.2223    7636.7888   -65.140048    292.05635   -193.46454    -7772.702 
 6318000     109.2074   -9745.1039   -9328.7555   -9745.1039            0       8091.8    24.680684    24.772563    22.801579    13940.971     8059.481    7701.9839    8513.9352   -170.87792    192.79656    593.58216    -7683.573 
 6319000    110.47964    -9756.389   -9335.1902    -9756.389            0    7149.2114    24.760427    24.691211    22.870238    13982.062    7074.3033    7574.0414    6799.2893    303.16686   -406.23752    789.37426   -7877.3657 
 6320000    105.75903   -9738.1415   -9334.9399   -9738.1415            0    7149.4819    24.814557    24.710513    22.823855    13995.142    6491.4242    7611.4788    7345.5426   -194.24701   -272.91777    480.30326   -7875.6964 
 6321000    111.52031   -9745.0497   -9319.8835   -9745.0497            0    6797.0303     24.80166    24.794776    22.765874    13999.911    6566.8391    6576.8716    7247.3801   -91.474504    88.685414   -94.576412   -7932.1043 
 6322000    114.67371   -9737.6858   -9300.4973   -9737.6858            0    8522.9726    24.690855    24.720534    22.789824    13910.251    8297.4527    8763.4684    8507.9966    429.00435    -178.2754     169.2284   -7571.4696 
 6323000    104.24945    -9748.379   -9350.9325    -9748.379            0    6533.4212      24.7574    24.697665    22.882414    13991.452     6489.673    6982.3067    6128.2839   -66.668003   -590.27418    -1035.512   -8017.7816 
 6324000     112.7736   -9739.4324    -9309.488   -9739.4324            0    7620.7151    24.779116    24.719034    22.800063    13965.399    6698.8191    7594.6091    8568.7172   -794.65884    604.18267    14.760154   -7757.3691 
 6325000    115.64875   -9739.3834   -9298.4776   -9739.3834            0    7324.3733    24.777928    24.773813    22.750642     13965.34    6763.9107    7834.0301    7375.1791   -52.827292    751.74775   -55.066613   -7806.7214 
 6326000    111.62556     -9743.36   -9317.7924     -9743.36            0    8295.0294    24.649129    24.807415    22.783506    13931.685    8897.8437    7871.9451    8115.2994   -177.82216   -464.45355   -348.01871   -7632.4139 
 6327000    106.88546   -9745.0665   -9337.5704   -9745.0665            0    6727.6582     24.69005    24.772867    22.878194    13993.295    7391.5089    7121.9249    5669.5407   -255.07026    109.25008    710.72292   -7964.6043 
 6328000     109.8197   -9717.0678    -9298.385   -9717.0678            0    8042.4348    24.698185     24.76213    22.821675    13957.273    7869.5541    8218.9546    8038.7956   -362.71744   -718.52063    505.66698   -7661.3273 
 6329000    110.82244   -9748.3465   -9325.8408   -9748.3465            0     7197.237     24.78535    24.805789    22.735921    13978.503    7379.5761    6942.6265    7269.5085   -804.87735   -501.08971    940.63618   -7858.5967 
 6330000    109.86794   -9740.4834   -9321.6167   -9740.4834            0    7079.4706    24.785651    24.768974    22.763754    13975.014    6231.5098    8133.4781    6873.4238   -140.76665    454.17004    665.65756    -7878.741 
 6331000    110.62181   -9724.0701   -9302.3293   -9724.0701            0    8312.7278    24.667201    24.693661    22.888782    13942.095     8902.992    8371.2047    7663.9868    295.68473    208.61339    37.049531   -7612.0928 
 6332000    109.05976   -9739.3625    -9323.577   -9739.3625            0      7673.39    24.689544    24.775125    22.835256    13968.018    7867.1921    7773.7155    7379.2623    179.14302     164.4999    363.89337   -7760.4367 
 6333000    108.58033   -9758.0211   -9344.0633   -9758.0211            0    7034.8841    24.781986    24.810849    22.733469    13977.949    6397.7838    6764.7474    7942.1211    450.65737   -266.35992   -115.49456   -7909.9737 
 6334000    112.14836   -9728.8205   -9301.2598   -9728.8205            0    7155.6764    24.776132     24.78409    22.772618    13983.615    7422.8931    6903.1979    7140.9381   -211.49161   -288.31812    820.10038    -7841.955 
 6335000    108.30626   -9739.5319   -9326.6191   -9739.5319            0    7343.7448    24.713324    24.720137     22.88277    13979.467    7906.4874    7373.5685    6751.1785     -555.701   -100.96501     83.48063   -7829.4043 
 6336000    112.09962   -9732.3271   -9304.9522   -9732.3271            0    9463.6797    24.715787    24.689387     22.75171    13883.494    9153.7046    9465.6914     9771.643   -183.95491    319.91743    286.52303   -7388.7793 
 6337000    110.94812    -9744.263   -9321.2781    -9744.263            0    7217.6983    24.812122    24.732587    22.789467    13985.166    5910.9052    8000.8839    7741.3059   -613.74288   -597.13451   -57.821947   -7849.1615 
 6338000     113.0464   -9729.7361   -9298.7517   -9729.7361            0    7791.7997    24.778847    24.656544    22.846023    13958.023    7470.2742    8341.4294    7563.6955   -615.63989    182.41973    654.31824   -7712.6261 
 6339000    108.44771   -9754.1853   -9340.7331   -9754.1853            0    7652.1748    24.703149    24.744394      22.8091    13942.392     8089.757    7781.3328    7085.4347   -15.236238   -391.78916    520.53176   -7784.7744 
 6340000    114.06939   -9744.1438   -9309.2592   -9744.1438            0    7884.9841    24.661551    24.844214    22.750546    13939.188    7925.2151    7597.6004    8132.1369   -204.41378   -80.989106    875.69797   -7706.3306 
 6341000    107.88435   -9736.1218   -9324.8174   -9736.1218            0    8672.2847    24.631901    24.775441    22.805345    13917.331    8891.1216    8395.1525      8730.58    250.85157     22.12563    299.78385   -7564.6038 
 6342000    111.24235    -9741.696   -9317.5894    -9741.696            0    6792.9459    24.663675     24.84646    22.830078    13990.387    7425.7919    6872.1113    6080.9346    196.55674    133.18599   -291.17637   -7931.5877 
 6343000    112.10518   -9737.4118   -9310.0158   -9737.4118            0    7621.4031    24.714389    24.801078    22.779715    13962.678    8964.8552    7109.3226    6790.0316   -559.00862   -1041.5992    -360.1688   -7758.0593 
 6344000    110.45913   -9737.7075   -9316.5869   -9737.7075            0    8185.7646    24.784179    24.757296    22.718827    13940.028    7800.5792    8496.8636     8259.851    36.172893   -166.70839   -207.10296   -7652.4127 
 6345000    106.28753   -9744.3713   -9339.1548   -9744.3713            0    8657.0164    24.738198    24.699111    22.776304    13916.583    8827.9954    8900.1629     8242.891   -31.925594   -468.01407   -126.18224   -7582.1346 
 6346000    112.92601   -9744.6357   -9314.1102   -9744.6357            0    7780.6876    24.722944    24.703212    22.829326    13942.695    7774.8523    8685.4703    6881.7403   -93.851967   -212.98818   -2.5111276    -7731.986 
 6347000    113.57792   -9746.8215   -9313.8107   -9746.8215            0    7252.4636    24.835975    24.782633    22.714461     13980.77    6068.7157    7727.7978    7960.8772   -403.51999   -245.93871   -160.79594   -7835.0683 
 6348000    104.69735   -9740.4508   -9341.2968   -9740.4508            0     7370.373    24.786712    24.737948    22.759109    13955.257    7004.6503    8040.7333    7065.7354    135.09919    584.87256   -246.86021   -7841.2555 
 6349000     112.4337    -9739.295   -9310.6465    -9739.295            0    6970.5622    24.708173    24.696774    22.912762    13981.646    6988.2821    8301.8438    5621.5607   -203.06894   -307.32023   -342.15745   -7889.2933 
 6350000    110.63587   -9752.6747   -9330.8803   -9752.6747            0    7996.5412    24.729983    24.717282    22.791282    13931.353     8695.603    8065.1263    7228.8944    594.00325   -43.783716   -322.81303   -7706.1871 
 6351000     110.6607   -9745.6814   -9323.7923   -9745.6814            0    7757.2926    24.758308    24.790717    22.711282    13939.645    6738.6926    8141.1292    8392.0561   -701.90127   -7.3369204    332.61628   -7746.7703 
 6352000    113.86786   -9736.0928   -9301.9766   -9736.0928            0    7957.1787    24.666179    24.760339    22.856386    13959.377    8069.5236    7834.9857    7967.0268    332.43086    223.36117    33.518607   -7682.0287 
 6353000    112.69092   -9748.3281   -9318.6989   -9748.3281            0    7219.0009     24.64239     24.79703    22.870063    13974.937    7779.5824    6864.0608    7013.3596    114.20717    332.65279     1718.384   -7847.3935 
 6354000    112.22697   -9746.4408   -9318.5804   -9746.4408            0    7622.0607    24.700241     24.76796    22.800181    13948.571     7774.309    7695.3902    7396.4828   -160.17471    -1437.471    1015.4484   -7768.0582 
 6355000    109.68978   -9726.2859   -9308.0984   -9726.2859            0    8307.9555    24.808673    24.767352     22.68394    13938.037     7936.976    7727.9428    9258.9476   -385.50264    590.91759   -472.63537   -7619.3239 
 6356000    111.25727   -9747.7112   -9323.5477   -9747.7112            0    9082.0394    24.771451    24.721229    22.674451    13885.397    8452.2928    9067.1005    9726.7249   -270.54638    -579.6725    354.70233    -7484.396 
 6357000     114.5905   -9759.1204   -9322.2492   -9759.1204            0    6393.1554    24.729897    24.782946    22.851759    14005.379    6606.1772    6513.6979    6059.5911   -228.72563    327.45432   -445.21923    -8016.421 
 6358000    111.10364   -9734.4564   -9310.8787   -9734.4564            0    9191.9974    24.698961     24.72685    22.737499    13886.416    9781.4164    8799.2865    8995.2893   -144.93168     -19.9285    111.55354   -7449.3233 
 6359000    110.19724   -9745.7264   -9325.6043   -9745.7264            0    7364.2399    24.763663    24.740453    22.802878    13970.507    8203.3247     7269.627    6619.7681    106.63183    5.1291263    148.31848   -7825.1734 
 6360000    112.30826   -9757.2188   -9329.0485   -9757.2188            0    7823.4483    24.764344    24.671674    22.834711    13951.502    7959.4628     8108.128    7402.7541   -367.64338   -1062.3642   -166.30821   -7737.2244 
 6361000    107.26488   -9727.9464   -9319.0038   -9727.9464            0    7528.2702    24.720353    24.842224    22.745595    13968.264    8160.7639    6397.8058    8026.2409   -697.68431   -184.41045   -51.692563   -7785.3987 
 6362000    114.01217   -9748.9392   -9314.2728   -9748.9392            0     6710.776     24.69794    24.884182    22.763573    13990.219    7620.6838    5339.0217    7172.6226   -377.92104   -101.73376    428.02597    -7945.053 
 6363000    111.53992   -9740.8506   -9315.6096   -9740.8506            0    7653.4254    24.763787    24.714111    22.807079    13958.274     7348.582    8346.1639    7265.5303    362.00048   -152.76966   -519.28939   -7757.6239 
 6364000    116.34003   -9732.3068   -9288.7656   -9732.3068            0    7491.3085    24.828817    24.684495    22.785411    13964.878    7119.6317    7583.6578    7770.6361    455.14934   -706.75491   -361.73305   -7763.0601 
 6365000    116.38739   -9742.8144   -9299.0926   -9742.8144            0     7082.122    24.838308    24.710586    22.799612    13993.698    6237.1851    7282.2102    7726.9706   -323.90484    594.11856    563.23808   -7853.7467 
 6366000    110.45285   -9747.7141   -9326.6175   -9747.7141            0    7455.5022    24.748439    24.768751    22.775574    13961.152    7657.7147    6623.9188    8084.8731    233.91268    404.62168   -374.71792   -7808.6095 
 6367000     109.7172   -9753.6982   -9335.4062   -9753.6982            0    9029.0275    24.617359    24.766845     22.79638    13898.823    9753.4416    8666.8215    8666.8195   -167.95572   -319.16389   -168.81687   -7505.2216 
 6368000    105.15142   -9741.6673   -9340.7821   -9741.6673            0    7423.5423    24.687266    24.791834    22.804345    13957.231    7279.1087    7211.5803    7779.9381   -225.25482    48.203188    378.00551    -7829.706 
 6369000    113.01146    -9748.276   -9317.4248    -9748.276            0    8048.3887    24.755579    24.774591    22.715164    13931.422    8156.8292    7577.1277    8411.2091   -307.22124   -641.67675    -300.0595   -7682.1894 
 6370000    107.19354   -9734.6802   -9326.0095   -9734.6802            0    7264.9465    24.769201    24.695606    22.863086    13985.131    6910.4936    7996.3156    6888.0303    182.01602    333.85166   -57.687926   -7844.2599 
 6371000    111.86572   -9757.1737   -9330.6906   -9757.1737            0    7006.7562    24.826926     24.68128    22.842728    13997.117    6161.4588    7495.5107    7363.2989   -409.02577   -349.74847   -31.405623   -7900.3762 
 6372000    109.27165   -9728.3382   -9311.7448   -9728.3382            0    7403.4049    24.739146    24.774674    22.796813    13972.264    7727.9399     7249.531    7232.7437    61.700079   -1082.3143   -753.71497   -7803.1446 
 6373000    106.71412   -9740.5132   -9333.6703   -9740.5132            0    7352.5766    24.767171    24.805446    22.737866    13969.252    7239.7747    7474.4268    7343.5281   -47.920141   -330.99378   -665.82415   -7835.7504 
 6374000     116.1825   -9743.5305   -9300.5898   -9743.5305            0    8097.3219    24.695183    24.690647    22.863936    13941.057    7758.5784      8703.12    7830.2674   -514.04118    86.850903    66.240168   -7654.2746 
 6375000    113.18537   -9735.0754   -9303.5612   -9735.0754            0    7392.4402    24.733051    24.700449    22.888423    13982.937    7332.1573    8039.0765    6806.0869     108.1083   -782.74699   -438.49357   -7796.0445 
 6376000    109.41521   -9738.3613   -9321.2206   -9738.3613            0    7243.8711    24.787159    24.797739    22.736605    13975.407    6888.1155    7581.2379    7262.2598   -720.02974   -376.26099    439.87707   -7844.7967 
 6377000    110.14259   -9733.3388    -9313.425   -9733.3388            0    7821.4918    24.730526    24.758767    22.772621    13943.615    7637.9967    7849.7362    7976.7424   -480.23334   -66.960539   -15.472883   -7722.8986 
 6378000    110.15374   -9747.1155   -9327.1592   -9747.1155            0    6983.4934    24.696912    24.764717    22.878095    13992.518    6561.6163       7339.5    7049.3639    100.74066   -647.55323    111.57765    -7902.062 
 6379000    107.77118   -9722.2527   -9311.3798   -9722.2527            0    7772.2599    24.778417    24.763824     22.74196    13954.656    7626.5891    7507.3441    8182.8465    461.69378   -49.781126      292.856   -7729.6134 
 6380000    107.99092   -9746.1295   -9334.4189   -9746.1295            0    7517.3924     24.71953    24.804894    22.760947    13956.224    7601.2934    6572.6043    8378.2795    358.83633    22.691334    -273.0079   -7804.3498 
 6381000    109.69822   -9753.2906   -9335.0709   -9753.2906            0     7115.917    24.692052       24.785    22.848347    13983.017    7689.3034    7208.6106    6449.8369    -472.2437   -31.649646    -201.8561   -7883.9364 
 6382000    107.65795   -9735.1667   -9324.7255   -9735.1667            0    7843.8109    24.665433    24.796044    22.834573    13965.743    8073.0756    7657.0612    7801.2959   -365.06201   -514.64169   -378.47822   -7727.1292 
 6383000    108.02612   -9736.1321   -9324.2873   -9736.1321            0    7404.4882    24.749259    24.793202    22.761027    13966.471     7930.965     6927.693    7354.8067    196.85156   -61.902761     1175.577   -7816.0919 
 6384000    108.36061   -9745.4677   -9332.3476   -9745.4677            0    8733.7186    24.757393    24.679002    22.774205     13914.76    8892.1964    8784.6653    8524.2942   -539.20639   -233.65869    655.95027   -7559.9922 
 6385000    108.68497   -9757.1393   -9342.7826   -9757.1393            0    6903.7879    24.674609    24.767898    22.877962    13981.596    8141.0805    6574.2331    5996.0502   -329.83845    -1070.531    338.94501   -7935.0503 
 6386000    106.40986   -9724.0876   -9318.4047   -9724.0876            0    7140.0293    24.744925    24.795139    22.786241    13980.586    7149.8179    7260.0174    7010.2526   -351.79012    553.14115    765.31454   -7862.6062 
 6387000     110.2246   -9750.6469   -9330.4204   -9750.6469            0    7615.4485    24.752444    24.810411    22.724298    13955.408    7304.8245      7292.63    8248.8909    -922.6223   -78.414962   -766.01635   -7780.4839 
 6388000    108.11729   -9728.6541   -9316.4616   -9728.6541            0    7533.9751    24.700971    24.703045    22.903702    13975.591    8097.3779    8017.7982     6486.749   -599.90582   -621.55411    409.00136   -7780.8893 
 6389000    110.62948   -9754.5985   -9332.8284   -9754.5985            0    7418.9903    24.742114    24.724261     22.83437     13968.48    7059.6762    6986.0748    8211.2198    249.51132   -281.39586    -234.3776   -7821.4617 
 6390000    110.98129   -9734.0301   -9310.9188   -9734.0301            0     8780.682    24.763142    24.735681    22.706471    13908.467    8191.9151    9207.8802    8942.2507   -275.69167    251.01346    725.22027   -7529.8389 
 6391000    106.25253   -9741.8967   -9336.8136   -9741.8967            0    6631.9927    24.762606    24.801522    22.779866    13990.262    5875.8217    7282.4977    6737.6589   -127.37074   -367.53197    547.51758   -7983.6641 
 6392000    112.52341   -9760.8576    -9331.867   -9760.8576            0    7984.4622    24.688044     24.72024    22.837653    13937.691    7880.6127    8338.1288     7734.645   -13.721024    9.7560916    315.50086   -7708.8899 
 6393000    109.46368   -9743.1805    -9325.855   -9743.1805            0    6438.0305    24.824975    24.817459    22.757463    14020.709     5933.925    6297.0971    7083.0694   -176.05315   -270.05095    36.119942   -8009.4216 
 6394000    108.47426   -9732.8671   -9319.3137   -9732.8671            0    8020.5976    24.748807    24.716087     22.80531    13949.864     7899.107    8705.0383    7457.6473    228.93087   -566.97372    47.250255   -7687.5676 
 6395000     115.2842   -9732.9425   -9293.4265   -9732.9425            0    7741.0052    24.693315    24.658796    22.917325    13954.529    8385.4338    8156.8264    6680.7555    -491.7349    813.25352    330.13339   -7718.0353 
 6396000    109.29385   -9737.7422   -9321.0642   -9737.7422            0    8109.3567    24.694324    24.772788    22.788688    13940.917      8419.56    7796.4637    8112.0465    3.0056023    175.43576   -264.40713   -7672.3187 
 6397000    110.80741   -9747.1128   -9324.6644   -9747.1128            0    7380.8322    24.759257    24.854167    22.693951    13965.192    8526.1614    6096.8715    7519.4638   -411.67953    120.97037    672.47604    -7821.425 
 6398000    108.27883   -9751.6297   -9338.8215   -9751.6297            0    7258.6985     24.72878    24.783789    22.808315    13978.597    7876.6861     6552.218    7347.1913    -660.8489   -1372.7679    135.36773   -7859.0378 
 6399000    108.70323   -9731.3336   -9316.9073   -9731.3336            0    7914.1882    24.696042    24.763409     22.82926     13961.42    7424.3194    8840.1003     7478.145    722.87704   -232.94461    900.73913   -7705.4757 
 6400000    107.73585   -9740.8789   -9330.1407   -9740.8789            0     7385.184     24.69834    24.803432    22.796655    13965.313    7902.9651    7025.3207    7227.2661    46.145118    269.10542    172.46929   -7826.0021 
 6401000    109.34413   -9732.0768   -9315.2071   -9732.0768            0    7355.7269    24.724967    24.814143    22.768155     13968.92    7523.8687    6691.8314    7851.4807   -143.62735   -311.82934    -318.8952    -7816.681 
 6402000    109.14912   -9747.9843   -9331.8581   -9747.9843            0    7797.5106    24.715452    24.760691    22.788471    13945.898    7648.4208    8377.0517    7367.0593    113.53674   -272.80503    150.05152   -7745.9487 
 6403000    107.77384   -9721.0893   -9310.2063   -9721.0893            0      7993.04    24.706803    24.655768    22.913921    13958.363    7127.3694    9159.3523    7692.3982   -477.50833    263.83163     338.0612   -7683.0759 
 6404000    109.84295   -9751.2059   -9332.4345   -9751.2059            0    8053.4073    24.737072    24.753191    22.752632    13931.925    8329.3765    7638.6856    8192.1598    180.05045    272.18164    117.04161   -7696.1204 
 6405000    112.78709   -9756.6444   -9326.6486   -9756.6444            0    6552.7874    24.790248    24.843419    22.730165     13998.93    6041.7232    6070.6486    7545.9904   -688.36578    28.061461    662.38569   -7988.8313 
 6406000    104.84793   -9755.0976   -9355.3695   -9755.0976            0    7723.0937    24.695046    24.711243    22.824914    13928.796    7992.0044    7784.5521    7392.7244   -55.107866   -529.33427    204.29131   -7786.5218 
 6407000     105.4506   -9730.7421   -9328.7163   -9730.7421            0    6932.4417    24.678482    24.756151    22.916061    14000.435    8040.4439    6941.4177    5815.4636   -265.90888    409.16889    266.99969   -7913.2366 
 6408000    109.97687   -9736.4244   -9317.1425   -9736.4244            0    8032.6565    24.746404    24.776424    22.726733    13934.382    7497.8699    8588.7188    8011.3809   -258.39728   -694.14528    -750.5726   -7684.7566 
 6409000    113.12746   -9742.2936   -9311.0001   -9742.2936            0    7059.6199    24.746444    24.850407    22.745376    13987.478    7332.3234    6601.2973    7245.2391    376.44294    559.77042   -882.32638   -7870.8869 
 6410000    108.46149   -9736.7253   -9323.2206   -9736.7253            0    7484.7988    24.626779    24.807496    22.866979    13970.094    8781.5919    6391.7106     7281.094   -21.187444    314.14852    431.28534   -7798.2714 
 6411000    109.09619   -9756.4217   -9340.4972   -9756.4217            0    7676.2652    24.666912    24.777154    22.819544    13946.755    8238.7982    7481.3142    7308.6833   -81.550681    205.70484   -270.84481   -7779.1517 
 6412000    107.03758   -9733.6895   -9325.6134   -9733.6895            0    7766.3722    24.687067    24.791535     22.80144    13955.172    8716.9992    6889.2539    7692.8635    71.594409   -151.32761   -111.40284   -7744.9869 
 6413000    112.37708   -9745.7224   -9317.2897   -9745.7224            0    7199.1328    24.782558     24.79113    22.759808    13983.345    6361.3666    7859.7069    7376.3249    37.966486   -23.901357    80.656772   -7849.1509 
 6414000    108.40422   -9750.8502   -9337.5639   -9750.8502            0     7690.032    24.770925    24.677232    22.840715    13962.023    6523.7417    9129.4203    7416.9341     751.1964    269.70865     581.9745   -7771.7059 
 6415000    111.15836   -9746.8873   -9323.1009   -9746.8873            0    7499.8258    24.796947     24.67983     22.82538    13968.777     6282.568    8465.8591    7751.0502    432.54677   -227.27601   -40.011153   -7795.2343 
 6416000    111.11462   -9733.5585    -9309.939   -9733.5585            0       7161.1    24.763028    24.772252      22.8072    13990.757     7084.895    6756.8647    7641.5404   -79.027553    78.007139    691.98488   -7848.7821 
 6417000    109.88012   -9765.2025   -9346.2894   -9765.2025            0    7413.8003    24.679947    24.798119    22.799075    13953.405     7644.433    7277.3555    7319.6123   -79.243442   -51.332243    119.36502     -7837.61 
 6418000    110.49741   -9722.0796   -9300.8131   -9722.0796            0    7796.0607    24.633391    24.856537    22.809712    13966.404    8015.9933    7199.3661    8172.8227     262.2437    -464.9853   -108.07564   -7712.8672 
 6419000    109.78831   -9736.9584   -9318.3953   -9736.9584            0    7382.3298    24.738034    24.805498    22.757808    13965.084    7653.6693    6985.8303    7507.4897   -554.53047   -115.07225   -824.73178   -7814.8626 
 6420000    111.20484   -9753.6334   -9329.6698   -9753.6334            0    6897.5401     24.66432    24.859248    22.802781    13981.216    7909.2867    6029.4456    6753.8879    320.42524   -501.99316    275.22416   -7923.2498 
 6421000    110.01719   -9749.5141   -9330.0784   -9749.5141            0    6964.7805    24.626672    24.844286    22.860484    13986.778    8223.7321    5941.5792    6729.0301   -327.05723   -614.43826    275.04082   -7909.3829 
 6422000    110.32129   -9744.7091   -9324.1141   -9744.7091            0    7161.7461    24.701835    24.771243    22.828248    13968.494    6744.0134    6976.7021    7764.5229    121.94247    112.07687    626.08146   -7865.1506 
 6423000    111.38318   -9743.4997   -9318.8562   -9743.4997            0    8108.5136     24.68451    24.807184    22.770903    13943.835    8301.9868    7439.3142    8584.2396     208.4384   -1002.7393    72.974978    -7669.937 
 6424000    111.02543    -9757.216   -9333.9364    -9757.216            0    7437.4086    24.732745    24.751372    22.802065    13958.726    7223.4106    7760.1144    7328.7007     93.10557   -194.93681    884.18879   -7819.8757 
 6425000    111.46909   -9747.5346   -9322.5636   -9747.5346            0    7192.1048    24.795958    24.743077    22.775507    13973.418    6208.0107    8103.5394    7264.7645    -680.2854    237.99674   -545.28678   -7856.8992 
 6426000    108.69724   -9738.0188   -9323.6153   -9738.0188            0    8001.9807     24.83318     24.63642    22.792021    13944.173    7740.5161    8610.9946    7654.4314   -99.190149   -261.47313   -967.61447   -7696.3208 
 6427000     112.4048   -9745.6777   -9317.1394   -9745.6777            0    7229.1371    24.785783    24.703979    22.831658    13979.995    6959.5943    7746.1156    6981.7015   -273.09053    -924.3077   -75.879146   -7843.2348 
 6428000    109.90758   -9742.0505   -9323.0327   -9742.0505            0    7035.3733    24.814018    24.748172    22.758284    13975.899    6435.2121    7210.0701    7460.8376   -547.82604   -365.87655    541.40867   -7889.0537 
 6429000    111.21837   -9746.0526   -9322.0375   -9746.0526            0    7909.1953    24.759976    24.665884    22.822701    13938.433    7973.5134    8581.1563    7172.9161    116.77964     596.9125   -188.62291   -7714.2741 
 6430000    110.56842   -9760.2663    -9338.729   -9760.2663            0    6877.4507    24.772074    24.743838    22.819841    13987.563    7269.1568    6262.7664    7100.4287    270.12274   -278.15507    163.79786   -7935.7686 
 6431000    112.53706   -9747.0738   -9318.0312   -9747.0738            0    7888.1799    24.727797    24.758968    22.752567    13929.911    7641.9555    7579.9743      8442.61   -716.32302   -400.65919    650.26919   -7715.5201 
 6432000    112.91546   -9741.2044   -9310.7192   -9741.2044            0    6885.1145    24.719034     24.80956    22.813012    13990.498    7534.5438     6499.083    6621.7167    183.09812   -716.01852    275.87364   -7905.9006 
 6433000    108.87742   -9736.1466   -9321.0562   -9736.1466            0    8062.2182    24.707189    24.703753    22.842078    13941.898    8661.1311    7970.1369    7555.3866    216.04415    629.28266   -406.29461   -7681.7793 
 6434000    109.58404   -9739.5524    -9321.768   -9739.5524            0    7155.5053    24.757386    24.828186    22.759774        13990    7624.2776    6592.4437    7249.7947    34.210636    135.11753    78.174309   -7861.8317 
 6435000    112.81045   -9722.2781   -9292.1932   -9722.2781            0    8541.8293     24.67923    24.878545    22.680415    13925.397    9175.0728    6770.6854    9679.7296   -228.57073    193.42365    470.47718   -7557.4533 
 6436000      111.219   -9726.3185   -9302.3009   -9726.3185            0    7447.6071    24.707472    24.764153    22.832998     13970.59     7529.221    7668.6548    7144.9455    521.79759    430.62547     152.4855   -7784.8754 
 6437000    107.50608   -9748.2983   -9338.4361   -9748.2983            0    8799.1028    24.666016    24.722133    22.797858    13902.054    8522.1028    8671.0973    9204.1082    221.45869   -271.39086    194.55462   -7554.4427 
 6438000    112.43999   -9734.6179   -9305.9454   -9734.6179            0    6728.7624    24.729374    24.846041    22.786431    14000.599    7660.9968    5822.1519    6703.1384   -165.52339   -817.61644    279.18931   -7932.0372 
 6439000    109.35576   -9756.5286   -9339.6146   -9756.5286            0    7546.1734    24.687422    24.797677    22.782889    13947.474    7449.1109    7137.8253    8051.5842   -162.45029   -1059.6614    589.19338   -7804.6505 
 6440000    111.80906   -9727.0023   -9300.7352   -9727.0023            0    7818.5938    24.694845    24.792821    22.774352    13943.708    7367.8243    8228.3653    7859.5917    257.76399    -524.4832   -475.08357   -7710.7876 
 6441000    112.45621   -9746.9288   -9318.1944   -9746.9288            0    7186.2103    24.693003    24.776581     22.85787    13984.633    7557.5351    7390.9559    6610.1399   -871.03948    -1191.415    313.42337   -7852.5559 
 6442000    111.27765   -9730.1743   -9305.9332   -9730.1743            0     7807.118    24.715278    24.756195    22.818743     13961.79    7641.3124    8202.3089    7577.7328    566.52554    -390.7494    835.46922   -7716.2604 
 6443000    112.96228   -9755.3823   -9324.7186   -9755.3823            0     6935.698    24.739284    24.734436    22.871095    13995.103    6634.2773    7033.0072    7139.8095   -377.21449   -259.50108    795.32569   -7909.1133 
 6444000    110.63631    -9743.896      -9322.1    -9743.896            0    7667.6076    24.773171    24.750203     22.74582    13946.395    7791.9607    7210.7341    8000.1279   -268.97807   -7.9489439    287.99883   -7762.5556 
 6445000    108.57436   -9735.3033   -9321.3683   -9735.3033            0    7264.7671    24.743707    24.768759    22.777478    13959.654    7226.6496    7506.9093    7060.7423   -854.46394     138.2833   -127.72012   -7842.3545 
 6446000    111.00899   -9737.0414   -9313.8245   -9737.0414            0    6913.2899    24.661829    24.867785    22.793367    13978.831     7971.618    5770.9528    6997.2989     243.0478   -491.33043   -92.352092   -7904.4334 
 6447000    111.81078   -9746.9179   -9320.6442   -9746.9179            0     6937.158    24.699359     24.74614    22.864984    13975.393     7173.157    7011.4515    6626.8655   -390.26077   -233.60931    443.49219    -7906.735 
 6448000    113.21187   -9736.0038   -9304.3885   -9736.0038            0    8853.7784    24.737511     24.79425    22.655444    13895.672    8997.4161    7852.5041    9711.4149   -30.681565   -180.19635   -274.69236   -7510.1338 
 6449000    112.32842    -9735.439   -9307.1919    -9735.439            0    7229.5945    24.703167     24.80241    22.801403    13970.376    7959.2186     6819.909    6909.6559    214.32482    -893.0073    567.07381   -7834.2082 
 6450000    109.90722   -9736.3163   -9317.2998   -9736.3163            0    8031.5883    24.639275    24.738843    22.865293    13937.474    8419.5627    8211.2916    7463.9106   -291.23139    619.90897   -140.68833    -7684.769 
 6451000    112.21796   -9730.4459   -9302.6198   -9730.4459            0    7544.6933    24.752579    24.768037     22.78348    13967.932    8506.7522    6573.9355    7553.3922   -192.23831    139.18769   -89.453721   -7765.7058 
 6452000    109.34026    -9747.376   -9330.5211    -9747.376            0    7569.5734    24.726981    24.803736    22.769241    13964.865    7529.0673    7039.1794    8140.4736    51.082167    551.37637   -375.83271   -7788.8773 
 6453000    109.49263   -9756.8849   -9339.4491   -9756.8849            0    7634.0485    24.684523    24.793652    22.806774     13958.19    8368.8722    6851.9151    7681.3583    53.163206    117.34264    758.26511   -7785.4173 
 6454000     107.6278   -9720.7778   -9310.4516   -9720.7778            0    8557.5755    24.699876     24.76707    22.788227    13940.551    8731.0624    8309.2167    8632.4473   -376.08749   -242.47977   -850.91098   -7570.6226 
 6455000    107.36659   -9736.0662   -9326.7358   -9736.0662            0    8578.4428    24.772201    24.767742    22.667464    13907.657    8060.5537    8764.4776    8910.2972   -1274.2239    3.1718453    497.24501   -7586.7796 
 6456000    100.82971   -9744.3844   -9359.9756   -9744.3844            0    7011.1411     24.78627    24.735665    22.805007    13981.861    6851.1768    6778.9564    7403.2901   -24.196645    115.35199    352.88942   -7930.3261 
 6457000    109.43055   -9735.4117   -9318.2125   -9735.4117            0     8179.409    24.740147    24.698634     22.81649    13941.967    7907.7323    8901.4264    7729.0685   -421.70978   -504.13844   -130.72896   -7655.0991 
 6458000    107.30037   -9727.2332   -9318.1552   -9727.2332            0    8182.9844    24.816299    24.718563    22.722634    13938.592    7144.4485     8967.556    8436.9486    4.9284768   -439.86587    597.09924   -7654.7176 
 6459000    108.79128   -9717.9046   -9303.1426   -9717.9046            0    7648.6876    24.747442    24.768204    22.779369    13962.607    7051.6628    8191.1668    7703.2333    407.27566    50.203002    333.71903    -7745.638 
 6460000    113.08855   -9741.5891    -9310.444   -9741.5891            0    7830.3258      24.6434     24.74079    22.862188    13939.011    8351.0027    7971.2868     7168.688   -354.90043   -336.94718    186.92715   -7718.6469 
 6461000    111.30901   -9738.7915   -9314.4308   -9738.7915            0    6576.1605    24.740471    24.850545    22.793998    14014.073    6697.0837    5668.5148     7362.883   -1044.8148    27.573703    505.49188   -7970.3893 
 6462000    107.29281   -9724.9876   -9315.9385   -9724.9876            0    8536.7189    24.737315    24.765945    22.730472    13925.664    7652.0588    9233.4596    8724.6383   -191.26157   -322.70971   -15.440228   -7582.2032 
 6463000    108.42428    -9743.106   -9329.7432    -9743.106            0    8030.0243    24.758752    24.713239    22.801751    13951.683    7629.6061    8221.3813    8239.0855    90.810801   -406.31573   -582.98086   -7695.8662 
 6464000    111.63856   -9737.4266   -9311.8095   -9737.4266            0    7683.9391    24.748725     24.69602    22.861918     13973.09    7618.1269    8213.5015    7220.1888    95.088608    1.9245765    811.54223   -7745.9519 
 6465000    109.62555   -9747.3983   -9329.4557   -9747.3983            0    6953.9984    24.806397    24.817788    22.694332    13971.536    6397.1087     6348.126    8116.7604   -220.81091    509.40315     103.5012   -7912.5053 
 6466000    107.58854   -9740.1374   -9329.9608   -9740.1374            0    8447.8929     24.70544    24.733197    22.789789    13925.576     8092.995    8930.4085    8320.2751   -516.38015    15.325678    -64.93174   -7614.2762 
 6467000    114.03649   -9745.4848   -9310.7257   -9745.4848            0    7270.5508    24.710451     24.75131    22.822888    13958.844    6781.6928    7703.8537    7326.1058   -280.71819   -585.21883     145.2646   -7830.6202 
 6468000    110.51564   -9737.5054   -9316.1694   -9737.5054            0    7982.5803    24.742988    24.841456    22.693755    13948.758     7809.305    7229.9514    8908.4845   -241.33511   -205.23458   -54.019375   -7692.2864 
 6469000    109.20229    -9752.884   -9336.5551    -9752.884            0    7558.0793     24.70188    24.767459    22.788931    13942.332     8325.761     6415.607    7932.8699    264.51273    37.253822    203.09449    -7799.736 
 6470000    111.30176   -9754.1862   -9329.8532   -9754.1862            0    6432.1502    24.683156     24.79283    22.890187        14008    7176.6039    6145.6988     5974.148   -286.72496   -248.03325    796.21041   -8015.8143 
 6471000    106.96804   -9730.7419   -9322.9309   -9730.7419            0    7629.4264    24.694925    24.758715    22.840178    13964.818    8279.1614    7779.3418    6829.7759    237.54993   -312.86636    115.47344   -7769.1025 
 6472000    109.80579    -9746.199   -9327.5693    -9746.199            0    7789.5684    24.804356    24.820098    22.642098    13939.529    6716.8599    7230.6667    9421.1787   -170.10318   -110.39032    146.48734   -7743.9988 
 6473000    108.31143   -9735.3623   -9322.4297   -9735.3623            0    7260.6187    24.728775    24.817099     22.76616    13971.512    7000.1235    7522.8125    7258.9201    67.498268   -541.49577    718.57003   -7843.0048 
 6474000    110.21255   -9716.1776   -9295.9971   -9716.1776            0    6743.8655    24.640628    24.869801    22.882613    14022.637    8601.8043    5635.2343    5994.5579   -593.43033   -252.03775     166.9404   -7916.8376 
 6475000    107.75357   -9735.3661   -9324.5603   -9735.3661            0    8316.4998    24.710176    24.776518    22.757173    13932.673    8384.1995    7909.2803    8656.0196    -326.7429   -907.96523    136.32889   -7634.6996 
 6476000    111.27117    -9750.964   -9326.7476    -9750.964            0    6752.9835    24.729414    24.893022    22.737054      13996.7    6901.0773    5917.4056    7440.4677   -225.18308  -0.98701583    390.83887   -7948.2779 
 6477000    115.89146   -9752.7423   -9310.9112   -9752.7423            0    7008.2115    24.706505    24.790076    22.821334    13977.523    7791.2608    6278.6023    6954.7714   -244.99846     117.2076   -66.117104   -7882.3025 
 6478000    109.85587   -9728.1498   -9309.3292   -9728.1498            0    8365.5462     24.72986    24.677365    22.831339    13933.231    8463.7087    9010.8042    7622.1257   -37.498826    205.83901    334.12518   -7609.4345 
 6479000    111.33543   -9756.5519   -9332.0905   -9756.5519            0    6651.2307    24.798696    24.795752    22.762986    13997.013    6189.7522    6933.6444    6830.2954   -370.37676    458.11212    112.48634    -7974.361 
 6480000    108.12741   -9732.7758   -9320.5448   -9732.7758            0    7400.5007    24.750081    24.748132    22.813415    13973.634    7123.6671    7729.6808    7348.1543   -377.40511   -589.88235    144.88775   -7812.3885 
 6481000    113.33743   -9726.9931   -9294.8991   -9726.9931            0    8594.1425    24.692467    24.699477    22.816414    13915.526    8801.1326    9112.1355    7869.1595    -354.6896   -86.220435    877.70774   -7550.7722 
 6482000    112.30559   -9743.4767   -9315.3166   -9743.4767            0    6962.0084    24.765909     24.78613         22.8    13995.803    6498.4139    7045.4189    7342.1923   -192.25011    144.51942    88.664676   -7894.2702 
 6483000    111.60542   -9721.0957    -9295.605   -9721.0957            0    8986.6784    24.686859    24.691848    22.799509    13897.764    8432.2925    9389.1664    9138.5762    278.67055   -511.36158     785.5745   -7474.1434 
 6484000    110.67579   -9739.0332   -9317.0866   -9739.0332            0    6999.7121     24.72677    24.745402      22.8664    13991.352    6865.8504    7587.8218    6545.4642    133.37272   -1175.3491     113.9552   -7888.7987 
 6485000     107.5568   -9741.4074   -9331.3519   -9741.4074            0    7225.5298    24.703366      24.8907     22.73165     13977.33     7778.018    6602.0034    7296.5682   -328.42731    173.85083   -412.64287   -7858.4636 
 6486000    114.10408    -9749.553   -9314.5362    -9749.553            0    6922.0063      24.7464    24.806198    22.772364    13979.137    7629.7835    6153.2792    6982.9564   -212.82257   -13.306362    1341.0062   -7903.3372 
 6487000    110.27727   -9747.5563   -9327.1291   -9747.5563            0    7920.6022     24.69466    24.698484    22.858074    13941.612    7758.5465    8610.9715    7392.2886   -168.68677   -227.43509    648.99998   -7716.6797 
 6488000    112.01092   -9720.5522   -9293.5155   -9720.5522            0    7187.2968    24.778197    24.731914    22.818177    13983.258    6437.8414    7793.1941    7330.8549   -234.40416   -136.35469    670.72282   -7827.7994 
 6489000    113.37999   -9747.5322    -9315.276   -9747.5322            0     7870.358     24.80182    24.742939    22.720482    13942.876    7217.7614    8087.7299    8305.5827    995.50543   -36.492287   -680.00131   -7714.8973 
 6490000    115.38356   -9740.2303   -9300.3356   -9740.2303            0    7809.2372    24.686697    24.731659    22.844539    13947.573    7636.7228    8410.8182    7380.1706    124.74039   -86.658411    471.48305   -7711.8505 
 6491000    109.77179   -9734.1479   -9315.6478   -9734.1479            0    7222.4093    24.659974    24.787919    22.886042    13989.538    8234.8414    6769.5089    6662.8776   -260.18553   -42.367806    943.99756   -7842.1097 
 6492000    109.08747   -9726.2735   -9310.3824   -9726.2735            0    7817.7189    24.750564    24.788145    22.749811    13957.477    7394.3119    8016.9048      8041.94   -68.364935   -367.97974    225.61539   -7719.0428 
 6493000    111.31534   -9742.5386   -9318.1537   -9742.5386            0    8054.0037    24.732791    24.752526     22.76242    13935.132     8059.532    7725.4032     8377.076   -706.62232   -927.81005    95.927735   -7681.3417 
 6494000    109.21228   -9747.7223   -9331.3553   -9747.7223            0    7363.9302    24.704802    24.689921    22.900299    13968.257    7951.6573    7990.6965    6149.4367   -503.48341   -1259.3283   -464.20434   -7831.2291 
 6495000    111.18573   -9737.1295   -9313.2388   -9737.1295            0    8315.5936    24.735414    24.696193    22.803977    13930.278    8335.6147     8939.889    7671.2772    -531.7066    353.91875    1324.1555   -7623.8526 
 6496000    110.22357   -9752.1643   -9331.9417   -9752.1643            0    6587.9195    24.788676    24.861258    22.717319    14000.177      6094.77    5980.6072    7688.3812    201.89928    -836.7126     348.2614    -7986.832 
 6497000    113.44795   -9728.7103    -9296.195   -9728.7103            0    7845.8049    24.669388     24.76212    22.855156    13961.445    8676.8319    6999.5435    7861.0394   -223.88572   -442.91365   -321.46238   -7698.6843 
 6498000    104.92511   -9742.3886   -9342.3663   -9742.3886            0    7123.1075     24.69901    24.807042    22.830035    13988.177    7457.1667    6183.9213    7728.2346   -122.40083    720.66611   -590.73683   -7889.2295 
 6499000    106.13025   -9754.0449   -9349.4279   -9754.0449            0    6661.6899    24.790622     24.78943    22.744406    13977.469    6079.2549    7069.2026    6836.6123   -29.822696   -566.30273    445.38317   -7991.4621 
 6500000    106.43496   -9715.2883   -9309.5097   -9715.2883            0    7590.1193    24.770899      24.7746    22.756419    13965.367     7322.784    7393.8034    8053.7706    37.390581    238.28127    972.84068   -7763.6259 
Loop time of 532.604 on 64 procs for 250000 steps with 1920 atoms

Performance: 81.111 ns/day, 0.296 hours/ns, 469.392 timesteps/s
194.9% CPU use with 32 MPI tasks x 2 OpenMP threads

MPI task timing breakdown:
Section |  min time  |  avg time  |  max time  |%varavg| %total
---------------------------------------------------------------
Pair    | 71.407     | 73.633     | 76.763     |  14.4 | 13.83
Bond    | 0.88055    | 1.0391     | 1.4938     |  13.3 |  0.20
Kspace  | 245.28     | 253.73     | 263.05     |  25.9 | 47.64
Neigh   | 0.19741    | 0.22363    | 0.25201    |   2.6 |  0.04
Comm    | 75.246     | 82.719     | 93.9       |  46.4 | 15.53
Output  | 0.6882     | 0.68858    | 0.69054    |   0.0 |  0.13
Modify  | 90.741     | 96.958     | 101.98     |  29.8 | 18.20
Other   |            | 23.62      |            |       |  4.43

Nlocal:        60.0000 ave          64 max          58 min
Histogram: 2 9 0 13 0 5 2 0 0 1
Nghost:        3503.44 ave        3546 max        3458 min
Histogram: 1 3 4 3 5 4 4 2 3 3
Neighs:        21772.6 ave       23715 max       21045 min
Histogram: 3 10 8 7 1 2 0 0 0 1

Total # of neighbors = 696724
Ave neighs/atom = 362.87708
Ave special neighs/atom = 2.0000000
Neighbor list builds = 383
Dangerous builds = 0

unfix		3
unfix		2
unfix		1

write_data	data.final.${pid}
write_data	data.final.1
System init for write_data ...
PPPM initialization ...
  extracting TIP4P info from pair style
  using 12-bit tables for long-range coulomb (../kspace.cpp:340)
  G vector (1/distance) = 0.375051
  grid = 30 30 30
  stencil order = 5
  estimated absolute RMS force accuracy = 0.0032033831
  estimated relative force accuracy = 9.646893e-06
  using double precision FFTW3
  3d grid and FFT values/proc = 5400 960
Last active /omp style is kspace_style pppm/tip4p/omp
WARNING: Not all mixed pair coeffs generated from mixing. Use write_data with 'pair ij' option to store all pair coeffs. (../write_data.cpp:312)

write_restart   restart.lmp.${pid}
write_restart   restart.lmp.1
System init for write_restart ...
PPPM initialization ...
  extracting TIP4P info from pair style
  using 12-bit tables for long-range coulomb (../kspace.cpp:340)
  G vector (1/distance) = 0.375051
  grid = 30 30 30
  stencil order = 5
  estimated absolute RMS force accuracy = 0.0032033831
  estimated relative force accuracy = 9.646893e-06
  using double precision FFTW3
  3d grid and FFT values/proc = 5400 960
Last active /omp style is kspace_style pppm/tip4p/omp
Total wall time: 0:08:52
