LAMMPS (30 Jul 2021)
  using 1 OpenMP thread(s) per MPI task
package omp 0
using multi-threaded neighbor list subroutines
echo both

include		in.partitions
variable        pid world 0
include		in.temp
variable        temperature equal 266.20
variable	tempDamp equal 100.0
include		in.pressure
variable        pressure equal 8750.0
variable        pressureDamp equal 1000.0 # This is 1 ps
include		in.seed
variable        seed world 745823

units		real
atom_style	full
read_restart	restart.lmp.${pid}
read_restart	restart.lmp.0
Reading restart file ...
  restart file = 30 Jul 2021, LAMMPS = 30 Jul 2021
  restoring atom style full from restart
  orthogonal box = (0.59176491 1.7885522 0.72195181) to (17.615807 21.840626 21.491244)
  4 by 4 by 4 MPI processor grid
  restoring pair style lj/cut/tip4p/long/omp from restart
  restoring bond style harmonic/omp from restart
  restoring angle style harmonic/omp from restart
  864 atoms
  576 bonds
  288 angles
Finding 1-2 1-3 1-4 neighbors ...
  special bond factors lj:    0        0        0       
  special bond factors coul:  0        0        0       
     2 = max # of 1-2 neighbors
     1 = max # of 1-3 neighbors
     1 = max # of 1-4 neighbors
     2 = max # of special neighbors
  special bonds CPU = 1.564 seconds
  read_restart CPU = 1.983 seconds
include 	in.setup
variable	out_freq equal 1000
variable	out_freq2 equal 10000
variable	out_freq3 equal 1000

timestep	2.0

neigh_modify    delay 7 every 1

include		in.tip4p
# This is TIP4P/Ice

# create groups ###
group ox type 2
288 atoms in group ox
group hy type 1
576 atoms in group hy

# set charges - beside manually ###
set group ox charge -1.1794
Setting atom values ...
  288 settings made for charge
set group hy charge 0.5897
Setting atom values ...
  576 settings made for charge

# ### TIP3P Potential Parameters ###
pair_style lj/cut/tip4p/long/omp 2 1 1 1 0.1577 8.5
pair_coeff 1 1*2 0.000 0.000
pair_coeff 2 2 0.21084 3.1668
bond_style  harmonic
bond_coeff  1 450 0.9572
angle_style harmonic
angle_coeff 1 55 104.52
kspace_style pppm/tip4p/omp 1.0e-5
pair_modify tail yes

thermo          ${out_freq}
thermo          1000
thermo_style    custom step temp pe etotal epair emol press lx ly lz vol pxx pyy pzz pxy pxz pyz enthalpy

restart 	${out_freq3} restart.lmp.${pid} restart2.lmp.${pid}
restart 	1000 restart.lmp.${pid} restart2.lmp.${pid}
restart 	1000 restart.lmp.0 restart2.lmp.${pid}
restart 	1000 restart.lmp.0 restart2.lmp.0


include         in.dump
dump            myDump all atom ${out_freq2} dump.water.${pid}
dump            myDump all atom 10000 dump.water.${pid}
dump            myDump all atom 10000 dump.water.0
dump            myDump2 all dcd ${out_freq2} dump.dcd
dump            myDump2 all dcd 10000 dump.dcd
dump_modify     myDump append yes
dump_modify     myDump2 append yes


variable natoms 	equal  "count(all)"                        # NUMBER ATOMS
variable H      	equal  "enthalpy/v_natoms"                 # ENTHALPY-per-atom
variable Vol      	equal  "vol/v_natoms"                 # volume-per-atom
fix AVG all 		ave/time ${out_freq} 1 ${out_freq} v_Vol v_H file vol_enthalpy.dat
fix AVG all 		ave/time 1000 1 ${out_freq} v_Vol v_H file vol_enthalpy.dat
fix AVG all 		ave/time 1000 1 1000 v_Vol v_H file vol_enthalpy.dat


timer           timeout 23:50:00 every 1000
New timer settings: style=normal  mode=nosync  timeout=23:50:00

fix 		1 all shake 1e-6 200 0 b 1 a 1
       0 = # of size 2 clusters
       0 = # of size 3 clusters
       0 = # of size 4 clusters
     288 = # of frozen angles
  find clusters CPU = 0.002 seconds
fix             2 all nph iso ${pressure} ${pressure} ${pressureDamp}
fix             2 all nph iso 8750 ${pressure} ${pressureDamp}
fix             2 all nph iso 8750 8750 ${pressureDamp}
fix             2 all nph iso 8750 8750 1000
fix             3 all temp/csvr ${temperature} ${temperature} ${tempDamp} ${seed}
fix             3 all temp/csvr 266.2 ${temperature} ${tempDamp} ${seed}
fix             3 all temp/csvr 266.2 266.2 ${tempDamp} ${seed}
fix             3 all temp/csvr 266.2 266.2 100 ${seed}
fix             3 all temp/csvr 266.2 266.2 100 745823

run             250000
PPPM initialization ...
  extracting TIP4P info from pair style
  using 12-bit tables for long-range coulomb (../kspace.cpp:340)
  G vector (1/distance) = 0.37402345
  grid = 24 24 24
  stencil order = 5
  estimated absolute RMS force accuracy = 0.0031882819
  estimated relative force accuracy = 9.6014161e-06
  using double precision FFTW3
  3d grid and FFT values/proc = 2535 216
Last active /omp style is kspace_style pppm/tip4p/omp
Neighbor list info ...
  update every 1 steps, delay 7 steps, check yes
  max neighbors/atom: 2000, page size: 100000
  master list distance cutoff = 10.8154
  ghost atom cutoff = 10.8154
  binsize = 5.4077, bins = 4 4 4
  1 neighbor lists, perpetual/occasional/extra = 1 0 0
  (1) pair lj/cut/tip4p/long/omp, perpetual
      attributes: half, newton on, omp
      pair build: half/bin/newton/omp
      stencil: half/bin/3d
      bin: standard
Per MPI rank memory allocation (min/avg/max) = 9.237 | 9.239 | 9.241 Mbytes
Step Temp PotEng TotEng E_pair E_mol Press Lx Ly Lz Volume Pxx Pyy Pzz Pxy Pxz Pyz Enthalpy 
 5250000    287.47307   -3830.0008   -3337.2818   -3830.0008            0    8085.4578    17.024043    20.052073    20.769292    7089.9583    8791.2971    7942.9405    7522.1359    112.40465    -171.1411   -86.415242   -2501.2473 
 5251000    268.48892   -3818.0316   -3357.8508   -3818.0316            0    8850.6403    17.018154    20.045138    20.762109    7082.6041    10235.037    7440.3271    8876.5565    76.739527    785.89561    655.12862   -2443.6459 
 5252000    261.13544   -3823.9593   -3376.3821   -3823.9593            0    7481.9539    17.053918    20.087262     20.80574    7127.3497    6850.1317    7848.2312    7747.4987    384.06579   -575.03363    358.33594   -2598.6697 
 5253000    261.12026   -3832.8172    -3385.266   -3832.8172            0    9591.1715    16.996899    20.020102    20.736177    7056.0995    6843.7941    11289.711    10640.009   -266.59964    1067.0695    217.26352   -2398.2772 
 5254000    268.37503   -3872.5644   -3412.5788   -3872.5644            0    7377.6056    16.954252    19.969869    20.684147    7003.1183    7641.0595    5789.4348    8702.3225   -655.57106   -73.846293   -588.22781   -2659.0796 
 5255000    269.02257   -3832.9026   -3371.8072   -3832.9026            0    7831.3626    17.040706      20.0717    20.789621    7110.7977    7049.9213    9386.7268    7057.4397   -2173.8473    373.80409    451.87323    -2559.666 
 5256000    278.18893   -3852.6424   -3375.8361   -3852.6424            0    9291.6009    17.011658    20.037486    20.754183    7074.4966    9350.8605     8605.219    9918.7232    387.77112    1176.6924    86.197848   -2417.1819 
 5257000    275.40048   -3859.2723   -3387.2453   -3859.2723            0    8476.6093    16.972766    19.991677    20.706735    7026.0865    7492.7703    8863.3693    9073.6883     1172.557    1402.9357   -535.82516   -2518.6618 
 5258000     277.9265   -3853.5403   -3377.1838   -3853.5403            0    7468.6872    16.939164    19.952097     20.66574    6984.4381    7437.6135    8474.9894    6493.4587   -936.31906    627.09477   -1915.8542   -2616.4169 
 5259000    269.87704   -3812.2246   -3349.6646   -3812.2246            0    8825.9645    16.914414    19.922945    20.635545    6953.8681    7263.9643    10436.316    8777.6129    1172.9896    -405.4602    350.77504   -2454.5791 
 5260000    263.27004   -3855.9209   -3404.6851   -3855.9209            0    9573.1517    16.998778    20.022316     20.73847      7058.44    10086.006    10080.276    8553.1727    872.72875    1941.0438    522.27269   -2419.2238 
 5261000    268.36142   -3859.3311   -3399.3688   -3859.3311            0     10402.05    16.928458    19.939487    20.652679    6971.2036    9222.6563    12023.938    9959.5544   -1150.7432     393.9003   -1475.0346   -2341.8148 
 5262000    279.18415    -3838.098   -3359.5859    -3838.098            0    9229.7289    17.027054    20.055621    20.772966    7093.7217    8728.1927    10507.329    8453.6651    350.85946   -456.88701   -1964.2863   -2404.7275 
 5263000    271.33417    -3853.599   -3388.5416    -3853.599            0     6523.675    17.066239    20.101775    20.820771     7142.809    7935.7987    4356.1386    7279.0879   -438.90329     2704.136    509.27268   -2708.9668 
 5264000     265.5122   -3852.3315   -3397.2527   -3852.3315            0     10516.56    16.924758     19.93513    20.648166    6966.6343    9220.3115    11100.026    11229.343    1405.5533    1076.2577   -251.06825   -2328.7574 
 5265000    257.65582   -3842.8402   -3401.2269   -3842.8402            0    10334.272    16.993804    20.016457    20.732402    7052.2457     10700.14    7705.7643    12596.913    569.97814    317.14665   -1105.7265   -2338.3494 
 5266000    257.14529   -3828.4865   -3387.7482   -3828.4865            0    8666.7034    17.024059    20.052093    20.769312    7089.9785    9765.7031    7596.2773    8638.1298   -1459.2608   -47.874615     144.0243   -2491.6106 
 5267000    273.92257   -3860.6856   -3391.1916   -3860.6856            0    8859.4633    16.965644    19.983287    20.698046    7017.2446    8531.1556     9950.417    8096.8173    383.19006    476.96405   -2258.5151   -2484.5202 
 5268000    255.26208   -3872.7803   -3435.2699   -3872.7803            0    8532.6656    16.989676    20.011595    20.727365    7047.1076     6835.447    8788.7448     9973.805    1584.4113   -330.55061   -1392.9488   -2558.3266 
 5269000    257.66185   -3833.5307   -3391.9071   -3833.5307            0    7385.4437    16.985554    20.006739    20.722336    7041.9792    6649.4273    6455.5039    9051.3999    550.06149   -1554.9694   -220.39537   -2633.4217 
 5270000    263.97641   -3883.5714   -3431.1248   -3883.5714            0    8382.6185    16.991546    20.013797    20.729647    7049.4349     8462.593    8521.7171    8163.5454    263.19621    1947.2676    1281.4046   -2569.3181 
 5271000    265.09185   -3873.2968   -3418.9384   -3873.2968            0    9403.8666    16.973849    19.992952    20.708056    7027.4312    9881.6632    8799.8521    9530.0844   -1082.3283   -236.92625   -1139.9021   -2455.1561 
 5272000    279.34472   -3832.2801   -3353.4928   -3832.2801            0    9537.2315    16.954072    19.969658    20.683929    7002.8961    10375.645    8836.5208    9399.5291    1373.5749    99.634867    483.62289   -2379.4548 
 5273000    262.35795   -3893.6227   -3443.9502   -3893.6227            0    8153.8756    17.055081    20.088633    20.807159    7128.8089    9216.0426    6859.5866    8385.9978    1921.1519   -1664.4193    714.04716   -2596.2213 
 5274000     276.7471   -3822.5742   -3348.2391   -3822.5742            0    10524.212    16.951304    19.966397    20.680552    6999.4668    11766.872    10354.988    9450.7744     301.6681   -820.27578   -282.95746   -2273.9272 
 5275000    259.43479   -3840.3202   -3395.6579   -3840.3202            0      5832.11     17.02475    20.052906    20.770155    7090.8418    4907.6575    6472.1179    6116.5547   -1205.9436    521.96578    1101.6499   -2792.5439 
 5276000     274.6372   -3838.6596   -3367.9409   -3838.6596            0    8078.2659    16.954965    19.970709    20.685018    7004.0025    9164.6094    5353.4216    9716.7668    2338.3798    2139.0589      331.918   -2542.7768 
 5277000    268.12125   -3833.5236   -3373.9729   -3833.5236            0     8161.417    16.999319    20.022953     20.73913    7059.1136    7584.0728    8726.8936    8173.2845    1766.0778    556.82373     1654.097   -2533.7556 
 5278000    268.38513   -3873.1828   -3413.1799   -3873.1828            0    6940.8522    17.023166    20.051041    20.768222    7088.8627    7360.5864    4765.1465    8696.8236    372.03293    19.579062   -44.790035   -2695.6083 
 5279000    262.79645   -3897.9418   -3447.5177   -3897.9418            0    9782.3768      17.0187     20.04578    20.762774    7083.2849    9788.9558    9307.7012    10250.473    49.613109   -197.04126    406.38188   -2436.9743 
 5280000     278.6804   -3832.1665   -3354.5178   -3832.1665            0    10087.885    16.898997    19.904786    20.616736    6934.8702    8685.0337    10484.644    11093.977   -7.5336517   -207.06743   -1266.5385   -2334.2496 
 5281000    262.45018   -3789.4874   -3339.6567   -3789.4874            0    8522.0904    16.935275    19.947517    20.660996    6979.6292    9765.9617    8319.5305    7480.7789    555.06541   -351.58104   -927.71184   -2472.1869 
 5282000    266.74627   -3807.3592   -3350.1652   -3807.3592            0    8582.0792     17.04382    20.075369    20.793421    7114.6974    7157.4612    7977.5826    10611.194    1207.0823   -661.27051   -682.19245   -2459.6838 
 5283000     265.3874   -3823.5438   -3368.6789   -3823.5438            0    9576.5888    16.937778    19.950466     20.66405    6982.7248    8399.2925    8688.3266    11642.147    -1964.083   -508.01514    991.88098   -2393.4386 
 5284000    265.50243   -3862.5947   -3407.5326   -3862.5947            0    8661.0852    16.946113    19.960283    20.674218    6993.0378    10098.239    8839.5536     7045.463   -599.13292   -2173.8713    224.79925   -2524.2208 
 5285000    256.25451    -3867.801   -3428.5896    -3867.801            0    8792.4238    16.934621    19.946747    20.660198     6978.821    10072.334    7597.9496    8706.9878    64.438729   -272.91093    45.264146    -2533.706 
 5286000      260.409   -3860.9897   -3414.6576   -3860.9897            0    8473.3352    16.957138    19.973269    20.687669    7006.6962    9575.5717    9310.0963    6534.3375   -765.44533   -1456.8123   -1591.4922   -2548.8058 
 5287000    270.01214    -3840.637   -3377.8454    -3840.637            0    8632.3604    17.044836    20.076566     20.79466    7115.9697    8817.1036    9090.5942    7989.3835   -55.546649    426.01473    124.35909   -2481.9867 
 5288000    260.32139   -3844.2294   -3398.0475   -3844.2294            0      7824.75    16.970187    19.988638    20.703588    7022.8831    8850.1369    6760.1777    7863.9352   -2533.1718   -590.87239   -665.75008   -2596.6245 
 5289000     273.7109   -3848.3961   -3379.2649   -3848.3961            0    8882.3435    16.995561    20.018525    20.734544    7054.4323    8414.0236    9503.3571    8729.6498    900.53356   -1051.3511     1244.665   -2465.4347 
 5290000    264.92406   -3832.6783   -3378.6075   -3832.6783            0    10222.314    16.961648    19.978581    20.693171    7012.2882    8951.0903    11709.995    10005.858    -909.6626     664.5694   -2473.4525   -2333.2018 
 5291000    254.52371   -3826.5706   -3390.3257   -3826.5706            0    8582.8221    16.923337    19.933455    20.646431     6964.879    12250.607    5490.4221    8007.4369    195.74856    528.54404    2328.5356   -2518.5202 
 5292000    279.23455   -3871.9959   -3393.3974   -3871.9959            0    8797.0866    16.910871    19.918773    20.631223    6949.4996     8665.355    9333.5226    8392.3823   -479.93373    1145.6541   -571.05407    -2501.801 
 5293000    273.29226   -3858.7708   -3390.3572   -3858.7708            0    7885.3866    17.016652    20.043368    20.760276    7080.7286    8037.2552    9274.4864    6344.4181   -1227.9255   -983.65244   -424.35262   -2576.0715 
 5294000    266.49832   -3856.6791     -3399.91   -3856.6791            0    8916.2562    16.939764    19.952804    20.666472    6985.1806    8480.3657    10537.886    7730.5166   -798.38957   -525.84979    1779.0829   -2491.5959 
 5295000    243.52969   -3873.9696   -3456.5681   -3873.9696            0    7982.4934    16.962945    19.980109    20.694754    7013.8969    7854.8592    8159.6961    7932.9249    -919.7991   -1335.7685     198.2154   -2640.0349 
 5296000    261.95796   -3827.4422   -3378.4552   -3827.4422            0     7643.396    16.960875    19.977671    20.692228    7011.3295    6726.4525    8278.5784    7925.1573    1273.4103   -117.72337    89.380885   -2596.8946 
 5297000    267.67949   -3863.4913   -3404.6978   -3863.4913            0    8944.3808    16.894421    19.899396    20.611154    6929.2388    9961.3953    8774.8517    8096.8953    849.59908   -1910.0287   -875.31385   -2500.8159 
 5298000     265.1584   -3857.3965   -3402.9241   -3857.3965            0    7279.2989    17.007582    20.032686    20.749211    7069.4129    7354.8945    5816.0122    8666.9901   -524.45551   -1486.5957   -1555.7215   -2652.4274 
 5299000    271.14756   -3858.6721   -3393.9345   -3858.6721            0      10052.1    16.949543    19.964323    20.678403    6997.2857    10757.133    8900.8648    10498.302   -1480.9629    216.48569    119.80525   -2368.1354 
 5300000    261.13498   -3874.3802   -3426.8038   -3874.3802            0    8395.3181    16.974448    19.993657    20.708787    7028.1748    6428.8483    10157.602    8599.5034    558.75901     685.0843    1146.5385   -2566.2944 
 5301000    270.65344   -3845.1699   -3381.2791   -3845.1699            0    7034.8187    16.942016    19.955457     20.66922     6987.967    7401.1035    6875.6941    6827.6587    -59.93855    845.95065   -1811.5056   -2664.3444 
 5302000    257.82852   -3860.1895   -3418.2802   -3860.1895            0    7248.5671    16.938554    19.951379    20.664996     6983.684    8369.5673    6140.6428    7235.4912    1059.5673    2831.9412   -1508.0654   -2680.0146 
 5303000    261.67981   -3846.1049   -3397.5947   -3846.1049            0    10387.477    16.898624    19.904347    20.616281    6934.4113    12316.184    9573.1916    9273.0549    237.85287    51.423999   -1264.5862   -2347.0959 
 5304000    273.06223   -3855.6325   -3387.6132   -3855.6325            0    6536.9905    16.962234    19.979271    20.693886    7013.0146    7777.5482     6049.195    5784.2283   -7.5008744    373.42754    607.98427   -2719.0253 
 5305000    265.89782   -3854.6481   -3398.9083   -3854.6481            0    8244.9246    16.920551    19.930174    20.643032    6961.4399    6302.4343    11491.027    6941.3132    86.830457    694.33571   -520.49312   -2561.8386 
 5306000    273.18734    -3856.852   -3388.6182    -3856.852            0    7800.5063    17.013003    20.039071    20.755824    7076.1747     8777.658     9345.855    5278.0058    -155.5821    298.76988    576.91638   -2583.6157 
 5307000    271.61852   -3889.4628    -3423.918   -3889.4628            0       8574.2    16.945983     19.96013     20.67406    6992.8774    7640.6553     9673.281    8408.6638   -863.97505    593.28306    924.90056   -2549.4872 
 5308000    265.80339    -3871.934   -3416.3561    -3871.934            0    7213.6464    16.981119    20.001515    20.716926    7036.4648    7492.1475       6157.7    7991.0917   -522.81969    1620.6831   -304.22669   -2676.0945 
 5309000    266.78943   -3863.2291   -3405.9612   -3863.2291            0    8595.1282    16.960496    19.977224    20.691765    7010.8585    7274.9541    8822.8741    9687.5564   -1450.2207    405.29775   -1418.7101   -2527.1421 
 5310000    236.58437   -3849.7187   -3444.2212   -3849.7187            0    10817.087    16.921014    19.930719    20.643597    6962.0115    10111.036    11439.001    10901.223    193.47747    1691.6639    599.05946   -2345.9213 
 5311000    257.41733   -3843.8822   -3402.6777   -3843.8822            0    7953.2929    16.972552    19.991425    20.706474    7025.8208    7242.3963    9655.8796    6961.6028   -1650.0486    461.89248   -174.93186   -2587.7484 
 5312000    275.17287   -3860.9835   -3389.3466   -3860.9835            0    7716.0263    16.991581    20.013837    20.729689    7049.4774    7481.1182    9048.4093    6618.5515    -30.43694    212.76637   -2363.0803   -2596.0666 
 5313000    268.75643   -3821.6866   -3361.0473   -3821.6866            0    9507.7744    16.920945    19.930639    20.643514     6961.927    9888.8509    8386.9687    10247.504    1794.6646   -725.92996   -390.81925   -2395.6986 
 5314000    276.68018    -3872.995   -3398.7747    -3872.995            0    9360.2652    16.922598    19.932586     20.64553    6963.9674     9910.363    9109.1366    9061.2959   -867.02781   -805.59487    595.92079   -2448.1244 
 5315000    250.31643   -3853.5975   -3424.5637   -3853.5975            0    7652.7888    16.975938    19.995413    20.710605    7030.0259    7460.3887    9315.0786    6182.8989    375.88664    498.61632   -145.06728    -2639.956 
 5316000    278.70624   -3833.4547   -3355.7618   -3833.4547            0    7620.2803    17.003777    20.028203    20.744568    7064.6688    7862.6946    7320.8772     7677.269   -880.62741    50.440677    -583.3844   -2570.6371 
 5317000    266.48616   -3873.0479   -3416.2997   -3873.0479            0    6457.6416    17.025062    20.053274    20.770535    7091.2314    7065.3994    5840.4537    6467.0718   -195.26155   -505.10746    464.71432   -2748.4612 
 5318000    266.53929   -3841.8259   -3384.9867   -3841.8259            0    7460.7608     16.96726    19.985191    20.700018    7019.2504    7341.4412     8238.941    6801.9002    1424.4676     647.2336     265.8543   -2621.2393 
 5319000    246.19154   -3852.6078   -3430.6439   -3852.6078            0    9642.4369    16.939545    19.952547    20.666205    6984.9101    10711.015     9978.757    8237.5385    2116.0139    821.32949   -1402.0731   -2448.3906 
 5320000    268.91062   -3860.7895   -3399.8859   -3860.7895            0    6412.5343    17.069674    20.105821    20.824962    7147.1231    7132.9259    6425.8934    5678.7835    1401.9255    -1003.071   -1677.3018   -2731.4853 
 5321000    262.20245   -3835.9136   -3386.5076   -3835.9136            0    10760.755    16.936307    19.948732    20.662255    6980.9052    11513.727     10830.12    9938.4168   -541.37755   -551.36719   -1376.8785   -2290.9622 
 5322000    288.58785   -3801.3983   -3306.7687   -3801.3983            0     9938.134    16.905823    19.912826    20.625065    6943.2778    11385.244    9889.1415    8540.0165   -135.02268    539.59355   -254.66751   -2300.4274 
 5323000    256.12285   -3881.7392   -3442.7534   -3881.7392            0    9609.1322    16.932269    19.943977    20.657329    6975.9137    8554.5858    9856.1244    10416.686   -392.20692    503.03574   -826.29138   -2465.1535 
 5324000    276.47718   -3884.3453   -3410.4729   -3884.3453            0    9574.5437    16.945921    19.960057    20.673984    6992.8002    8553.7952    10922.192    9247.6441    1551.2919    548.98376   -729.11807   -2434.0339 
 5325000    262.63011   -3866.9776   -3416.8386   -3866.9776            0    7779.0199    16.942049    19.955496    20.669261    6988.0083      8711.68    6938.0407    7687.3388    1206.4001    302.52082    959.00148   -2624.0559 
 5326000    264.73794   -3859.2701   -3405.5183   -3859.2701            0    6761.2697    16.940793    19.954017    20.667728    6986.4543    7137.2063    5671.0688    7475.5339   -933.57341     492.8923   -526.94088   -2716.6108 
 5327000    266.08058   -3881.6626   -3425.6096   -3881.6626            0    9698.4891    16.857264    19.855631    20.565823    6883.6198    10321.371    11582.086    7192.0105    628.76811    551.20646   -1649.2217   -2451.9731 
 5328000     271.9691   -3836.3192   -3370.1735   -3836.3192            0    6985.7532     16.98543    20.006592    20.722184    7041.8244    8197.4769    6583.5081    6176.2745   -232.70806    197.85669   -1174.0011   -2652.7521 
 5329000    264.52738   -3886.0332   -3432.6423   -3886.0332            0    8071.6815    16.975386    19.994762    20.709931      7029.34    7832.2831    9307.1011    7075.6603   -460.59633   -376.21915    814.28032   -2605.1681 
 5330000    269.83146   -3838.0877   -3375.6058   -3838.0877            0    7656.0749    16.997625    20.020957    20.737062    7057.0028    8984.4018    7256.6957    6727.1272   -53.650854   -141.15485    593.51928   -2587.6491 
 5331000    260.24023    -3853.001   -3406.9582    -3853.001            0     8711.987    16.923546    19.933702    20.646687    6965.1379    10889.325     7374.096    7872.5394   -12.860287   -307.92777    213.09134   -2521.9998 
 5332000    256.43036   -3867.2951   -3427.7822   -3867.2951            0    7992.1224    16.895905    19.901145    20.612965    6931.0654    7633.7293    8362.8329    7979.8048   -1197.6774    493.04777   -479.62501   -2619.9187 
 5333000    253.29486   -3860.8396   -3426.7009   -3860.8396            0    10004.351    16.928458    19.939488    20.652679    6971.2043    10715.842    8730.5217    10566.689    17.693657   -1497.2289   -74.099927   -2409.5799 
 5334000    279.00019    -3829.866   -3351.6692    -3829.866            0    9869.0675    16.916027    19.924845    20.637513    6955.8576    11438.044    7631.6987     10537.46   -1379.6093   -2166.4725   -85.327729    -2350.511 
 5335000    265.41626    -3865.837   -3410.9226    -3865.837            0    7002.2698    16.959331    19.975852    20.690344    7009.4147    6864.2446    8390.1611    5752.4038   -1211.2504    1813.5834   -119.86785   -2695.1147 
 5336000    273.22011   -3872.4972   -3404.2072   -3872.4972            0    9024.6403    16.986549     20.00791     20.72355    7043.2163    6984.1532    9852.4911    10237.277   -576.24799   -73.267643   -1585.9213   -2477.2135 
 5337000    253.39347   -3868.6301   -3434.3224   -3868.6301            0     8796.348    16.967883    19.985925    20.700778     7020.024    8084.7061    11464.069    6840.2689    316.65671   -662.84111    5.6964769   -2533.7536 
 5338000    282.99411   -3879.3057   -3394.2635   -3879.3057            0    8715.3598    16.939053    19.951967    20.665605    6984.3013    8030.6942    9814.0288    8301.3563   -721.29674   -189.83629    174.56465   -2506.5268 
 5339000    254.90754   -3872.4377   -3435.5349   -3872.4377            0    8715.4344    16.928802    19.939893    20.653099    6971.6291    9509.1967    8104.5341    8532.5724   -1117.3398   -740.44211   -412.55329   -2549.4013 
 5340000    261.82494   -3867.2542   -3418.4952   -3867.2542            0    8890.7517    16.886582    19.890162     20.60159    6919.5972    8504.8223    6922.4202    11245.013   -207.29027    761.75103   -1094.8687    -2521.283 
 5341000    247.45947   -3882.4124   -3458.2754   -3882.4124            0    6516.7244    16.994114    20.016822    20.732779    7052.6312    4245.9192     8737.109    6567.1451    448.89259    -330.8987   -98.481071   -2787.9951 
 5342000     280.9845   -3865.5192   -3383.9214   -3865.5192            0    9494.6016    16.883087    19.886046    20.597327    6915.3023    10268.725    9613.5993    8601.4803   -110.15858    585.10745   -1948.3658   -2426.3662 
 5343000    264.39309   -3864.2216   -3411.0608   -3864.2216            0    9609.5317    16.912671    19.920893    20.633419    6951.7188    10177.282    10604.983    8046.3301    397.33002    428.95013    558.25484   -2436.8111 
 5344000    262.99319   -3854.2555   -3403.4942   -3854.2555            0    8753.0402    16.957661    19.973884    20.688306    7007.3435    8412.0293    7688.8898    10158.202    43.124446   -1847.6979    1924.9608    -2508.978 
 5345000    265.66433   -3881.8846    -3426.545   -3881.8846            0    9170.3344    16.990374    20.012416    20.728217    7047.9758    10267.371    7375.6078     9868.024    -953.2781    671.83085    1529.6735   -2483.9493 
 5346000    265.97047   -3806.2998   -3350.4355   -3806.2998            0    7487.3932    16.999173     20.02278    20.738951     7058.931    5649.1954    9156.3076    7656.6766    1123.1942     206.5648     1115.938   -2579.6288 
 5347000    277.49714   -3834.3958   -3358.7753   -3834.3958            0    9104.2467    16.909703    19.917397    20.629798    6948.0596    8550.9363    10772.045     7989.759   -408.05901    775.49656    592.98407    -2436.239 
 5348000    257.90476   -3858.4833   -3416.4433   -3858.4833            0    6496.7891    17.014144    20.040414    20.757216     7077.598    7407.1095    6921.7739    5161.4839   -761.95591    872.29192   -203.40592    -2745.848 
 5349000    266.99277   -3855.0546   -3397.4381   -3855.0546            0    8166.6731    16.983922    20.004817    20.720345    7039.9499    7839.0907    8631.1188    8029.8099   -213.40796    998.35486    199.04123   -2558.9621 
 5350000    261.80735   -3863.6394   -3414.9106   -3863.6394            0    8255.5966    17.013932    20.040165    20.756957    7077.3338    7885.6826    8365.0714    8516.0358    595.23421    -48.32785    131.72705   -2562.8038 
 5351000    260.06973   -3892.5399   -3446.7893   -3892.5399            0    10351.927     17.00011    20.023884    20.740095    7060.0991    11523.897    8852.3123     10679.57   -624.86541    1060.9412    408.75946   -2380.9104 
 5352000    258.64827   -3828.8772   -3385.5629   -3828.8772            0    9089.2396    16.989502    20.011389    20.727153    7046.8908    11352.236    7823.1538    8092.3289    1012.9056   -455.61613   -1186.0785   -2451.4466 
 5353000      255.237   -3818.5308   -3381.0633   -3818.5308            0    8713.4839    17.062841    20.097772    20.816626    7138.5431    8003.2481    8188.2498    9948.9539    653.49249   -372.92297    188.91637   -2473.9171 
 5354000    264.08723   -3848.4951   -3395.8587   -3848.4951            0    10172.692    16.973681    19.992754    20.707851    7027.2219    8584.0448    10705.736    11228.294     53.48871    588.03787   -1860.9153   -2353.3122 
 5355000    279.08064   -3856.9294   -3378.5948   -3856.9294            0    6917.4683    17.047196    20.079345    20.797539    7118.9256    7930.6167    7340.5363    5481.2518    121.51221   -1554.0568    100.85055   -2660.4078 
 5356000    268.76198    -3902.859   -3442.2101    -3902.859            0    7707.2109    16.984129     20.00506    20.720597    7040.2064    10186.882    6517.7115    6417.0396    -359.8272   -293.14634    928.48919   -2650.8785 
 5357000    260.66268   -3899.2644   -3452.4975   -3899.2644            0    7618.7231    17.053247    20.086472    20.804921    7126.5085    9097.2985    6628.6793    7130.1915   -87.015204    368.96634    176.02776   -2660.6622 
 5358000    259.91295   -3844.0604   -3398.5785   -3844.0604            0    9281.7727    17.053665    20.086965    20.805431    7127.0329    8855.2743    9944.2411    9045.8028   -1090.1937    607.04071   -318.30924   -2433.8267 
 5359000    267.36816   -3849.7792   -3391.5193   -3849.7792            0    8921.6625    16.958392    19.974746    20.689198      7008.25    7968.5245    8354.6762    10441.787   -1185.8958   -329.74001   -1046.0064   -2479.6528 
 5360000    266.86564   -3864.1034   -3406.7048   -3864.1034            0    9446.9053    16.971469    19.990148    20.705152    7024.4748    8212.7143    10998.371    9129.6301   -786.09666    695.76303    828.74218   -2438.9189 
 5361000    266.25178   -3835.3681   -3379.0217   -3835.3681            0    7562.4822    16.980352    20.000611     20.71599    7035.5109    7770.2926    6829.1878    8087.9662   -368.89094   -76.509136    639.54166   -2603.0678 
 5362000     253.6995   -3806.9506   -3372.1183   -3806.9506            0    10970.639    16.906962    19.914168    20.626454    6944.6814     10593.45     10864.99    11453.478   -401.37797   -230.79259   -659.86921   -2261.0004 
 5363000    265.23794   -3860.4966   -3405.8878   -3860.4966            0    9239.7822    16.935165    19.947387    20.660862     6979.493    11089.672    7398.8142      9230.86    711.21554   -189.91018   -22.090542    -2465.382 
 5364000    275.14542   -3793.3424   -3321.7526   -3793.3424            0    8832.7348    16.956806    19.972877    20.687263    7006.2836    10568.662    8650.2689    7279.2737    2095.7944   -1073.5488    94.617503   -2419.2285 
 5365000    287.81775   -3868.8628    -3375.553   -3868.8628            0    9571.8663    16.967642    19.985641    20.700484    7019.7244    9643.5265    9322.8313     9749.241   -1425.4816   -1154.5917     867.7716   -2395.6286 
 5366000    254.40402   -3851.4432   -3415.4034   -3851.4432            0    7461.0827     17.00467    20.029255    20.745658    7065.7818    6734.6202    8101.3947    7547.2332   -407.06688     1427.719    190.83857   -2646.5598 
 5367000    254.04362      -3862.5   -3427.0779      -3862.5            0    9510.6288    16.964627     19.98209    20.696806    7015.9835    9986.0929    10597.316    7948.4778   -1170.9291    541.23159    143.76686   -2453.9416 
 5368000    264.90062    -3891.423   -3437.3924    -3891.423            0    7325.2882    16.941619     19.95499    20.668736    6987.4765     7115.353    7615.7321    7244.7795   -862.38021   -75.726731   -489.24747   -2690.9076 
 5369000    267.56806    -3842.654   -3384.0515    -3842.654            0    7280.6247    16.926493    19.937173    20.650282    6968.7768    7168.5832    7309.4455    7363.8455   -187.80867    1932.8039    188.44291   -2644.1037 
 5370000    260.97234   -3870.3247    -3423.027   -3870.3247            0    9357.4862    16.929703    19.940954    20.654198    6972.7422    11424.066    8098.7646    8549.6275   -836.62766    1415.7435    -436.9201   -2471.4615 
 5371000    265.60911   -3886.7839   -3431.5389   -3886.7839            0    7775.9865     16.91055    19.918394    20.630831    6949.1032     8855.203    7085.1685    7387.5881    -468.5012    329.59308   -1713.9204   -2643.4774 
 5372000    289.14967   -3877.7219   -3382.1292   -3877.7219            0    7336.2174    16.948894    19.963559    20.677611    6996.4816    7124.8197    6945.9818    7937.8506   -739.67298    742.53117   -239.67274   -2633.5672 
 5373000    251.85187   -3854.4794   -3422.8139   -3854.4794            0    10517.142    16.896339    19.901656    20.613494    6931.5991    12407.808    7980.7444    11162.874    32.623528   -1663.9245   -279.10679   -2359.6332 
 5374000    270.23344   -3838.4804   -3375.3096   -3838.4804            0     8613.644    16.969506    19.987837    20.702758    7022.0384    9121.8627    8563.9234    8155.1461   -1650.7994   -350.66595   -1261.1939   -2493.1929 
 5375000    264.22716   -3804.0873    -3351.211   -3804.0873            0    9527.9002    16.975063    19.994383    20.709538    7028.9395    10797.055    9436.6718    8349.9739   -906.29974   -962.85659    1359.4471   -2374.5071 
 5376000    275.98444   -3853.5749    -3380.547   -3853.5749            0    9125.6411    16.953072    19.968479    20.682708    7001.6564    7241.7361    9922.2646    10212.922    1304.6072    860.50303    70.945575   -2448.7098 
 5377000    268.32597   -3859.9736    -3400.072   -3859.9736            0     9361.275    16.874661    19.876121    20.587046     6904.953    9006.1785    8375.1001    10702.546    1030.7299   -236.75014   -476.46892   -2457.3761 
 5378000     266.6565   -3860.2545   -3403.2143   -3860.2545            0    9046.2049    16.902453    19.908857    20.620953    6939.1266    10591.881    8830.3373    7716.3967    -37.96006   -1483.2118   -639.77788    -2487.738 
 5379000    284.94294   -3874.7583   -3386.3758   -3874.7583            0    8701.6169    16.909943    19.917679     20.63009    6948.3547    5713.6542    9319.2216    11071.975    636.71889    288.96618    474.25447   -2504.6007 
 5380000    259.42251   -3902.6925   -3458.0512   -3902.6925            0    9858.6685    16.896379    19.901703    20.613543    6931.6481    11324.192    9810.3077    8441.5054    128.76243    130.22697   -942.86778   -2461.4288 
 5381000    256.92362    -3875.226   -3434.8677    -3875.226            0    9642.9419    16.884093    19.887231    20.598553    6916.5379    9467.3095     10983.37    8478.1464   -822.17289   -624.78456   -1487.5823   -2462.1782 
 5382000    265.45081   -3840.3624   -3385.3888   -3840.3624            0    8789.0832    16.903531    19.910127    20.622268    6940.4543    9817.0852    7951.7672    8598.3971   -181.46467    1073.0736    1527.9723    -2495.763 
 5383000    268.85591   -3898.8571   -3438.0473   -3898.8571            0    7329.4515    16.925334    19.935808    20.648868     6967.345    7926.2126    5978.7056    8083.4364   -75.206095   -939.79949   -1196.3497   -2693.2901 
 5384000    255.64352   -3876.5916   -3438.4273   -3876.5916            0    8070.7655    16.929138    19.940288    20.653508    6972.0437    7672.5647    8887.1001    7652.6318   -617.57059   -1344.2018    213.28034    -2617.791 
 5385000    257.14063   -3898.4547   -3457.7245   -3898.4547            0    8851.4232    16.935228    19.947462    20.660939    6979.5713    9158.4003    7763.9349    9631.9345     623.3124     49.95978   -656.63776   -2556.7391 
 5386000    265.29915   -3865.5132   -3410.7995   -3865.5132            0     8969.962    16.966479    19.984272    20.699065    7018.2815    8731.1483    8238.2027     9940.535   -747.58692   -1709.6816    71.253101   -2492.6841 
 5387000    248.44483   -3867.2996   -3441.4737   -3867.2996            0    9381.8749    16.993009     20.01552    20.731431    7051.2556     7391.117     10471.36    10283.148   -1216.5157    1362.0165   -1806.9614   -2476.6855 
 5388000    261.58121   -3863.7679   -3415.4267   -3863.7679            0    8096.1057    16.987065    20.008519    20.724179    7043.8585    9417.0583    8031.8736    6839.3851   -1042.9991    915.33184    1118.9856   -2583.7344 
 5389000    249.30325   -3881.5316   -3454.2344   -3881.5316            0    8228.1755    16.918789    19.928098    20.640883    6959.2651    10500.938    7720.3423    6463.2462   -244.41642     574.3889    13.526375   -2619.1261 
 5390000    272.13161   -3872.9039   -3406.4797   -3872.9039            0    9616.8018    16.918157    19.927354    20.640112     6958.486    8963.8126    11789.777    8096.8162   -271.24495   -1275.9857    1748.2026   -2430.5437 
 5391000    259.73813   -3883.3044   -3438.1221   -3883.3044            0    8451.9018    16.941921    19.955345    20.669104    6987.8493    7997.9058    9123.8331    8233.9666    190.62142   -467.83702   -2242.8562   -2576.7836 
 5392000    254.76694   -3856.0753   -3419.4134   -3856.0753            0    8422.3428    16.913993     19.92245    20.635032    6953.3492    9133.3501    6745.3662    9388.3123   -86.011699    1090.3092    1114.8041    -2565.325 
 5393000    260.91812   -3869.9267    -3422.722   -3869.9267            0      8737.87    16.925044    19.935467    20.648515    6966.9876    9193.5918    8889.0593     8130.959   -1313.0773    -1951.167    240.45368   -2534.8988 
 5394000    262.12045   -3869.5571   -3420.2916   -3869.5571            0    8660.1561    16.914742    19.923331    20.635945    6954.2724    7828.9491    7364.6885    10786.831    375.13481   -95.871634    -1363.963   -2541.9705 
 5395000    264.11524   -3811.7669   -3359.0825   -3811.7669            0    8726.7109    16.902618    19.909052    20.621155    6939.3301     8245.595     9562.852    8371.6857   -566.14448    908.13157     238.1675    -2475.913 
 5396000    270.95065   -3855.3769   -3390.9768   -3855.3769            0    8880.1904    16.934503    19.946607    20.660054    6978.6742    7320.8222    10565.067    8754.6815   -797.30618   -1070.2275    487.16868   -2487.1794 
 5397000    248.25597   -3849.4147   -3423.9124   -3849.4147            0     10903.16     16.87429    19.875684    20.586594    6904.4979    9435.2819    10136.314    13137.884    820.28053    1005.2726    519.32015   -2326.0185 
 5398000     270.2729   -3889.4221   -3426.1836   -3889.4221            0    9319.0341    16.906574    19.913711    20.625981    6944.2034    9835.1061    9513.3456    8608.6507   -809.98935    325.31696   -31.813024    -2482.407 
 5399000    266.49098   -3802.9313   -3346.1749   -3802.9313            0    9792.1088    16.928065    19.939025      20.6522    6970.7189    9327.5231    9083.6482    10965.155   -1394.5093   -734.39139   -1791.9365   -2350.7014 
 5400000    271.78055   -3876.3888   -3410.5663   -3876.3888            0    7499.5545    17.017016    20.043797     20.76072    7081.1831    8256.6507    7070.4491    7171.5639   -1184.9558   -488.26989    1526.4723   -2636.0739 
 5401000    262.40944    -3855.237   -3405.4762    -3855.237            0    6277.0847    16.961447    19.978344    20.692925    7012.0379    6768.5838    5827.7438    6234.9264   -439.05604   -2.2742817    1750.6905   -2763.5603 
 5402000    237.86523   -3850.4774   -3442.7845   -3850.4774            0    9094.0071    16.977157    19.996848    20.712092    7031.5404     8549.344     7767.143    10965.534   -626.11273   -179.12485   -1234.0926   -2510.2141 
 5403000    260.25072   -3856.5276   -3410.4668   -3856.5276            0      8816.24    16.939582     19.95259     20.66625    6984.9554    8762.4891    9222.9569    8463.2741    1114.8027    375.05947    1340.4894   -2512.3704 
 5404000    255.03368   -3870.4996   -3433.3806   -3870.4996            0    9840.0358    16.889498    19.893598    20.605149    6923.1835    10501.221    10480.771    8538.1159   -1114.1705    131.34751    919.36882   -2439.8565 
 5405000    264.62495   -3872.8588   -3419.3007   -3872.8588            0    8767.0263      16.9062    19.913271    20.625525    6943.7427    9455.2019    8582.3621    8263.5147   -118.09874   -117.24496   -396.53421   -2531.4871 
 5406000     254.2319   -3898.9155   -3463.1707   -3898.9155            0    8551.7171     16.90989    19.917617    20.630026      6948.29    8427.2819    8070.3249    9157.5446    2041.7386   -1776.0478    908.12421   -2596.5937 
 5407000    264.10341   -3885.6633   -3432.9991   -3885.6633            0    9121.5149    16.917584    19.926679    20.639413    6957.7785    9085.3221    8278.8033    10000.419    944.40948    152.58236    816.58088   -2507.4201 
 5408000    262.10036   -3890.0678   -3440.8368   -3890.0678            0    9131.0829     16.93671    19.949208    20.662747     6981.404    10057.104    7809.1623    9526.9828    260.61607    1029.9329    1752.5244   -2511.1408 
 5409000    264.17984   -3874.1098   -3421.3146   -3874.1098            0    9129.7562    16.954461    19.970116    20.684403    7003.3779    8645.9655    8505.6005    10237.703    406.93614    372.99423    601.39413    -2488.828 
 5410000    289.04213   -3864.8344    -3369.426   -3864.8344            0    10937.897    16.896479    19.901821    20.613665    6931.7717     9960.448    11840.003    11013.239    546.92269   -684.63924   -297.68568   -2263.6836 
 5411000    251.26808   -3874.5999    -3443.935   -3874.5999            0    8877.4949    16.980491    20.000775    20.716159    7035.6836    9050.1573    8078.6391    9503.6884    438.63903   -58.316664   -513.68775    -2533.031 
 5412000     248.8645   -3860.7748   -3434.2296   -3860.7748            0    7647.7303    16.965354    19.982945    20.697692    7016.8845    8115.5961    6848.9618     7978.633    1558.5666   -679.27775   -1334.4733   -2651.6062 
 5413000    264.69611   -3866.2398   -3412.5597   -3866.2398            0    7802.4837    17.014909    20.041316     20.75815    7078.5533    8961.1479    6765.2994    7681.0038    15.794594    1497.4551    431.90942   -2607.0825 
 5414000    263.95173   -3854.1525   -3401.7483   -3854.1525            0    8306.5014     16.93544    19.947711    20.661197    6979.8331    8831.8613    7004.7458    9082.8971   -29.439097    620.04976    398.83892   -2556.1987 
 5415000    253.60456   -3811.7954   -3377.1258   -3811.7954            0    6977.2289    16.912999    19.921278    20.633819    6952.1226    8793.9249    5389.6848     6748.077    739.46685   -50.374285    1015.6398   -2669.7075 
 5416000    267.13417   -3815.8804   -3358.0216   -3815.8804            0    9819.6733    16.930322    19.941683    20.654954    6973.5075    9715.9816    9255.8492    10487.189   -1701.3749   -151.76589   -22.584193   -2359.3465 
 5417000    251.75717   -3850.9529   -3419.4497   -3850.9529            0    8306.8904     16.96391    19.981245    20.695931    7015.0937    7495.6538    8811.6119    8613.4056   -121.35376   -324.63132   -292.92526   -2569.5888 
 5418000    271.48656   -3833.5347    -3368.216   -3833.5347            0     8714.885    16.972736    19.991642    20.706699    7026.0493    8356.2413    9427.7726    8360.6411    1411.6222    253.22162    1415.9291   -2475.2216 
 5419000    265.07275   -3812.7471   -3358.4215   -3812.7471            0    6896.5969    17.064936    20.100241    20.819182    7141.1738     6571.424    7512.1831    6606.1836    57.776452   -123.16316   -985.16906   -2640.1637 
 5420000    276.07042   -3850.0398   -3376.8645   -3850.0398            0    9180.0879    16.968276    19.986388    20.701257    7020.5117    8018.2893    11424.817    8097.1569    136.17727   -461.11289   -2146.2803   -2436.9432 
 5421000    261.87193   -3841.8507   -3393.0112   -3841.8507            0    8608.5276    16.920082    19.929622     20.64246    6960.8612    7939.0543    8504.7965     9381.732   -627.81059    304.30017      1676.46   -2519.0991 
 5422000    277.64146   -3906.2998   -3430.4318   -3906.2998            0    10647.556     16.92199    19.931869    20.644788    6963.2159    10832.824    10586.571    10523.273   -200.57521   -824.67628    727.22168    -2349.158 
 5423000    266.77062    -3885.259   -3428.0233    -3885.259            0    8237.5736    16.947299     19.96168    20.675665    6994.5065    8329.2631    8132.7404    8250.7174    350.92206    61.381031   -737.75663   -2587.7273 
 5424000    258.78011   -3878.5931   -3435.0529   -3878.5931            0    8020.0978    16.973855    19.992959    20.708064    7027.4388    7619.1369     10053.61    6387.5462    1068.9709   -743.69407   -242.58144   -2613.0892 
 5425000    279.12644   -3889.0107   -3410.5975   -3889.0107            0    9109.1102    16.939108    19.952032    20.665672    6984.3695    9097.0858    8363.2609     9866.984    103.98342    341.74562    1617.5126   -2482.7448 
 5426000    273.96425   -3907.8375   -3438.2721   -3907.8375            0    7194.7334    16.927233    19.938044    20.651184    6969.6903    6548.6512     7371.747    7663.8021     581.2283    653.50073    1074.3258   -2706.9578 
 5427000    265.08567   -3839.8848   -3385.5371   -3839.8848            0    8499.3843    16.952671    19.968007    20.682219    7001.1598    8332.2628    6004.6647    11161.225      2638.12   -216.65199    1259.1267   -2517.7097 
 5428000    280.16659   -3868.0335   -3387.8375   -3868.0335            0    11308.483    16.871362    19.872236    20.583022    6900.9045    10053.729     11725.44     12146.28      721.389    1444.6104   -84.906239   -2249.7222 
 5429000     251.2838   -3843.3999   -3412.7081   -3843.3999            0    7339.0945    16.920064    19.929601    20.642439    6960.8392    6379.8607    7726.6471    7910.7757   -1016.9948   -1470.1184   -986.18498   -2667.6674 
 5430000     256.9483   -3840.6348   -3400.2342   -3840.6348            0    8396.9677    16.920597    19.930228    20.643089    6961.4972    10462.495    6669.8433     8058.565   -3927.8606    1207.1733    219.89932   -2547.7212 
 5431000    278.66917   -3868.4778   -3390.8484   -3868.4778            0    9226.0766     16.98279    20.003484    20.718965    7038.5425    10368.833    8607.3649    8702.0322    211.98399    997.64056    462.72264   -2443.7924 
 5432000    280.66771   -3847.8495   -3366.7947   -3847.8495            0    9420.1833    16.985529     20.00671    20.722306    7041.9486    9192.1871    8852.5581    10215.805    -943.2038     213.5172    1154.6065   -2399.3457 
 5433000    262.89209   -3867.5875   -3416.9995   -3867.5875            0    8982.8321    16.954702    19.970399    20.684696    7003.6758    9537.1979    7006.7737    10404.525    1031.0986   -1320.7761    148.28421   -2499.4802 
 5434000    264.61829   -3852.1922   -3398.6455   -3852.1922            0    8222.4422    16.966901    19.984769     20.69958    7018.8054    8680.4795    7501.9571    8484.8899   -758.20298   -682.57567   -827.05348   -2556.9793 
 5435000    262.60389   -3831.7538   -3381.6598   -3831.7538            0    10695.606    16.921983    19.931861     20.64478     6963.208    9695.1803     11398.44    10993.197    952.65852     621.9888   -1064.0821   -2295.5077 
 5436000    275.87975   -3841.2551   -3368.4067   -3841.2551            0    6179.8543    17.008273    20.033499    20.750053    7070.2741     5992.692    7069.2748    5477.5962    385.53303     519.6992   -149.56979   -2731.1852 
 5437000    254.25409   -3838.7668    -3402.984   -3838.7668            0    8530.5768     16.98601    20.007276    20.722892    7042.5462    6689.3229    9963.6081    8938.7996    1955.7662    1227.0207    61.894815   -2526.8229 
 5438000    282.13243   -3842.5959   -3359.0306   -3842.5959            0    10476.226    16.899679    19.905589    20.617569    6935.7102    10855.276     11022.35    9551.0508    625.42971    486.33076   -1668.6053   -2299.3581 
 5439000    259.04716   -3843.4006   -3399.4026   -3843.4006            0    10049.627    16.842379    19.838098    20.547663    6865.4012    10866.517    9522.7387     9759.625   -2111.5832   -138.21034   -1402.5164   -2393.1854 
 5440000    277.78757    -3814.363   -3338.2446    -3814.363            0     9678.058    16.918488    19.927744    20.640516    6958.8945    10425.724     9789.069    8819.3812   -1219.2997    77.970039    589.04746   -2356.0346 
 5441000    280.23948   -3874.9218   -3394.6009   -3874.9218            0    8553.0511    16.957213    19.973357     20.68776    7006.7882     10666.78    5781.7521    9210.6207   -347.95134    1871.2455   -139.04468   -2520.5918 
 5442000     265.6575   -3830.2679   -3374.9401   -3830.2679            0    10683.503    16.892942    19.897654    20.609349    6927.4187    11044.874    9029.5052     11976.13   -625.61316   -768.66168    304.37245   -2295.5933 
 5443000     266.8279   -3858.2311   -3400.8972   -3858.2311            0    9111.8384    16.914163     19.92265    20.635239    6953.5586    10268.558    8143.0921    8923.8648    -1697.461    -300.6138    76.067837    -2476.861 
 5444000     276.5321   -3854.1953   -3380.2288   -3854.1953            0    6615.6535     16.98914    20.010963    20.726711    7046.4403    5468.9422    7532.9565    6845.0619    -256.4485   -649.42067   -1380.7075   -2700.3704 
 5445000    271.81045   -3883.8631   -3417.9893   -3883.8631            0    8556.5652    16.938942    19.951836    20.665469    6984.1638    7853.8171    9050.1573    8765.7211    258.76502    922.31904   -1.0472321   -2546.4443 
 5446000    262.35918   -3847.2699   -3397.5952   -3847.2699            0    6672.5565    16.985564    20.006751    20.722349    7041.9918    5927.6126    6885.3628     7204.694   -1114.6399     862.8783   -390.65651   -2712.3222 
 5447000    261.80678   -3843.5674   -3394.8396   -3843.5674            0    11484.952    16.908945    19.916504    20.628873    6947.1251    12006.618    11247.677    11200.562    -1612.408   -1316.2452    402.20859   -2231.2222 
 5448000    272.28476   -3836.5665   -3369.8798   -3836.5665            0    8787.5705    16.929294    19.940472    20.653699     6972.237    10459.566    7536.7578    8366.3874    187.85249   -201.01634    651.74679   -2476.3339 
 5449000    271.97056   -3836.1744   -3370.0262   -3836.1744            0    7951.7576    17.016329    20.042988    20.759881    7080.3251    7948.5905    7681.6916    8224.9905    -1022.917    738.33873    520.54096   -2548.9334 
 5450000    269.77668   -3828.7048   -3366.3168   -3828.7048            0    8804.4322    16.940356    19.953502    20.667195    6985.9132     9600.998    7506.6585      9305.64   -1629.9459   -902.95638     228.0264   -2469.3003 
 5451000    254.55074   -3833.3039   -3397.0126   -3833.3039            0    7202.0961    17.075896     20.11315    20.832553    7154.9412    7905.6751    8239.2772    5461.3359    342.15796   -276.12518   -164.42304   -2645.4921 
 5452000     270.3603   -3847.8196   -3384.4313   -3847.8196            0    6470.5598    17.065639    20.101069     20.82004    7142.0563    6961.1828    5448.7222    7001.7743    391.06653    2.2127651   -301.90558   -2710.4606 
 5453000    245.70826   -3830.3556     -3409.22   -3830.3556            0     8304.854    16.964574    19.982028    20.696741    7015.9179    8263.3602     8537.681    8113.5207   -1105.5849   -1272.2329    135.28762   -2559.4677 
 5454000     257.7373   -3869.4054   -3427.6524   -3869.4054            0    7664.9004    17.003125    20.027435    20.743772    7063.8554    6852.9908    8752.8015    7388.9089    436.39458    167.39086    737.48702   -2638.0214 
 5455000    252.37938    -3861.656   -3429.0864    -3861.656            0    6873.5435    16.994027    20.016719    20.732673    7052.5227    7271.8359    6665.5594    6683.2352   -688.88711    1492.5932    142.81198   -2722.1162 
 5456000    258.30136   -3858.8097     -3416.09   -3858.8097            0    7256.3133    16.993829    20.016486    20.732432    7052.2766    6678.1601    7356.2984    7734.4815   -850.76039  -0.96665791   -113.55449   -2669.7765 
 5457000    269.84105   -3844.2315   -3381.7332   -3844.2315            0    8710.7297    16.972381    19.991223    20.706265    7025.6076    9473.6418     8004.486    8654.0613   -566.72638   -868.16271    550.03368   -2489.2207 
 5458000    270.37146    -3820.779   -3357.3715    -3820.779            0    9590.2528    16.968494    19.986645    20.701524    7020.7825     8739.699    9431.6218    10599.438    619.95629    840.00275   -1186.0664   -2375.4168 
 5459000    255.07649   -3858.9804    -3421.788   -3858.9804            0    8091.8187    16.955219    19.971008    20.685328    7004.3172    9093.1345    7602.3807    7579.9408    589.52581   -642.90061     35.36029   -2595.2024 
 5460000    265.94872   -3807.6242   -3351.7972   -3807.6242            0    9066.8452    16.919632    19.929092    20.641912    6960.3064    9687.6144    10586.787    6926.1342    975.66767   -170.37481   -367.72571   -2431.4315 
 5461000    265.56506   -3866.3881   -3411.2186   -3866.3881            0    9584.3113    16.918341    19.927571    20.640336    6958.7126    8517.8003    10275.858    9959.2756    -1580.937   -632.86673   -324.05096   -2438.5482 
 5462000    267.21541   -3840.0725   -3382.0744   -3840.0725            0    10674.612    16.898005    19.903618    20.615527    6933.6498    11695.126    8601.0305    11727.678   -214.60555    247.92187   -689.43297   -2302.6558 
 5463000    274.44838   -3832.6242    -3362.229   -3832.6242            0    8949.5902     16.96227    19.979314     20.69393    7013.0596    8669.6014     10337.44    7841.7288   -446.62375   -575.38895   -353.68362   -2446.8803 
 5464000    253.86368   -3852.6699   -3417.5562   -3852.6699            0    5778.2826    16.987305    20.008802    20.724473    7044.1578    5576.5597    5733.4808    6024.8074   -1084.2874    919.43613   -1545.8567   -2823.9428 
 5465000     257.8172   -3904.4927   -3462.6028   -3904.4927            0    7165.8792    16.923891    19.934108    20.647108    6965.5635    7936.5049    5567.7345    7993.3981    731.45135   -57.964792    318.48769   -2734.6527 
 5466000    264.37406    -3875.623   -3422.4949    -3875.623            0    9366.5214    16.901284     19.90748    20.619527    6937.6865    8091.2905    9456.2758    10551.998   -1305.4892    -474.2287   -683.61622   -2474.7993 
 5467000     258.5248   -3867.7188   -3424.6162   -3867.7188            0    9661.6818    16.870232    19.870905    20.581644    6899.5179    9136.0174    10885.214     8963.814   -903.16504    753.46748   -1638.5331   -2452.4346 
 5468000    264.22923   -3856.2903   -3403.4104   -3856.2903            0    9080.1965     16.94402    19.957817    20.671665    6990.4469    9155.9046    9757.9354    8326.7496    64.728609    452.67356     3055.311    -2477.698 
 5469000    263.74065    -3832.548   -3380.5055    -3832.548            0     9087.296    16.930454    19.941838    20.655114    6973.6701    8039.2963    10650.033    8572.5592    98.484472    809.87824   -48.927312   -2456.2928 
 5470000    256.43936   -3857.9981   -3418.4698   -3857.9981            0     8710.125    16.942374    19.955879    20.669657    6988.4107    7308.4402    9670.8796    9151.0553    1679.1836   -722.99656     270.4336   -2530.7443 
 5471000    263.92646   -3856.2145   -3403.8536   -3856.2145            0    7005.7968    17.034032     20.06384     20.78148    7102.4468    5847.2325    7768.2957    7401.8622    148.24825    -236.4122    420.77082   -2678.1798 
 5472000    256.71669   -3875.9845   -3435.9809   -3875.9845            0    10643.939    16.978941     19.99895    20.714269    7033.7577    11239.126     11387.13    9305.5623   -178.10965   -1264.1449   -829.65392   -2344.1241 
 5473000    263.03641   -3845.3556   -3394.5201   -3845.3556            0     7534.377    17.011545    20.037354    20.754046    7074.3558    6754.4594    6646.7353    9201.9363    -1506.186    876.82998    1245.3172   -2617.1817 
 5474000    261.79888    -3836.423   -3387.7087    -3836.423            0    8607.3675    16.977239    19.996945    20.712192    7031.6426     8175.503    8074.2192    9572.3802    89.015446    390.25899   -1412.9822   -2505.0292 
 5475000    254.68195   -3857.9369   -3421.4208   -3857.9369            0    10013.518    16.933312    19.945205    20.658601    6977.2025    11492.139    10255.765    8292.6511    209.47234    918.80217   -175.23934   -2402.4918 
 5476000     275.5377   -3870.0104   -3397.7482   -3870.0104            0    7988.4909    16.985708    20.006921    20.722525    7042.1713    7732.1262    8288.5902    7944.7562    -1087.824    626.96918    1005.8908   -2577.3075 
 5477000    284.82539   -3834.0846   -3345.9036   -3834.0846            0    7520.5149    17.017288    20.044118    20.761052    7081.5229    7949.3609    7904.6108    6707.5729   -258.71507    499.55351    270.52649   -2569.2093 
 5478000    267.53131   -3829.2198   -3370.6803   -3829.2198            0    8664.8438    16.982744     20.00343    20.718908    7038.4851    10336.525    8936.1855     6721.821   -746.76291   -1895.5867    399.63453    -2481.242 
 5479000    269.65586   -3853.6628   -3391.4818   -3853.6628            0    8310.1272    17.025346    20.053608    20.770882    7091.5864    5350.3993    10576.709    9003.2733    310.99306   -47.068537    368.95665   -2532.0193 
 5480000    269.01317   -3827.8572   -3366.7778   -3827.8572            0    7700.2667    17.025765    20.054103    20.771394    7092.1109    8072.9751    6722.1638    8305.6611    736.65791   -1054.5849   -318.61602   -2570.3302 
 5481000    279.76182   -3874.4171   -3394.9149   -3874.4171            0    6696.4607    17.011381    20.037159    20.753845    7074.1501    8075.7325    6878.3753    5135.2744     1070.037     317.6904   -121.91994   -2704.0463 
 5482000    272.48107    -3869.832   -3402.8088    -3869.832            0    8419.5136    16.997906    20.021288    20.737406    7057.3538    7926.6113    8547.2233    8784.7062    -710.5317   -2273.6562    2262.7045   -2536.2366 
 5483000    259.86768   -3852.0495   -3406.6452   -3852.0495            0    9397.9334    16.943157    19.956801    20.670612     6989.379    10014.749    9012.2497    9166.8018    291.71214    424.56253    849.23666   -2448.6864 
 5484000    265.97114   -3834.9129   -3379.0475   -3834.9129            0    10091.635    16.970129     19.98857    20.703518    7022.8115    11170.873    10120.017    8984.0142    1066.3871    1528.2137   -192.39647   -2345.4571 
 5485000    254.88642   -3851.5286    -3414.662   -3851.5286            0    7642.9889    16.996883    20.020083    20.736157    7056.0787    7115.0598    7550.5454    8263.3614    1348.2827   -1219.2305   -982.29693   -2628.1551 
 5486000    262.85629    -3847.929   -3397.4023    -3847.929            0    8381.7874    16.951592    19.966736    20.680903    6999.8232    8801.8502    8305.9401    8037.5718    1839.8324   -108.79559    358.12129   -2541.7455 
 5487000    268.41392   -3854.6972   -3394.6449   -3854.6972            0    7260.0187    17.007759    20.032894    20.749427    7069.6334    6927.2744    5909.6254    8943.1562    686.05767    1184.4958    363.69265   -2646.1127 
 5488000    269.43467   -3822.5495   -3360.7477   -3822.5495            0    10408.275    16.918597    19.927872    20.640649    6959.0286    9121.1137    10406.768    11696.943     735.3858   -1165.5265   -303.24152   -2304.4088 
 5489000    262.78998   -3836.4529   -3386.0399   -3836.4529            0    8173.0241    16.965256    19.982831    20.697573    7016.7638      8483.83    8546.4786    7488.7637    512.30975    1443.1105   -1440.9069   -2549.6755 
 5490000    256.83252   -3825.6484   -3385.4463   -3825.6484            0     8709.104    17.019751    20.047019    20.764057    7084.5979    8299.6022    8412.5058     9415.204    759.62439   -1383.8406    -954.5864   -2485.6078 
 5491000    268.78082   -3862.1908   -3401.5096   -3862.1908            0    8491.6534    16.945322    19.959351    20.673254    6992.0591    8816.9409    6809.4684    9848.5509   -2100.2858    580.15429    1160.5313   -2535.5987 
 5492000    269.71458   -3827.6011   -3365.3196   -3827.6011            0    8059.4283    16.997948    20.021338    20.737457    7057.4058     8692.776    7175.4896    8310.0194    602.16829   -1275.4567    977.70654   -2535.8027 
 5493000     269.8199   -3800.1712   -3337.7092   -3800.1712            0    10319.814    16.891032    19.895405     20.60702    6925.0698     10390.58    10824.071    9744.7915    242.96973   -1224.1824    890.94521   -2295.4591 
 5494000    271.66069   -3832.3309   -3366.7138   -3832.3309            0    8958.0356    16.959912    19.976536    20.691053    7010.1348    9313.4392    8190.9643    9369.7032   -87.203517    202.19295   -170.20534   -2450.8834 
 5495000    266.24625   -3803.3617   -3347.0247   -3803.3617            0    9221.6931     16.98547     20.00664    20.722234    7041.8749    9842.0824    8695.8114    9127.1853   -244.19466   -312.59081    1055.5294   -2399.9704 
 5496000    260.41522   -3833.3667    -3387.024   -3833.3667            0    7222.6536      16.9761    19.995603    20.710802    7030.2268    7229.9589    7566.9779    6871.0238    1167.9143    6.9403227    833.86247   -2646.4951 
 5497000    265.00967   -3848.0072   -3393.7897   -3848.0072            0    8598.3035     17.03501    20.064992    20.782672    7103.6699    8209.4031     7690.406    9895.1014   -655.20232   -491.36255    1172.5412   -2503.0077 
 5498000    278.32219    -3828.879   -3351.8443    -3828.879            0    7755.9505    17.008742    20.034052    20.750626    7070.8591    7355.3756    6666.6573    9245.8187   -502.71243   -211.31306    -86.02302   -2552.0412 
 5499000    257.26039   -3849.2641   -3408.3286   -3849.2641            0    11366.637    16.927216    19.938025    20.651165    6969.6703    11605.838     12532.56    9961.5136    997.93765   -49.792373    1049.8479   -2252.9612 
 5500000    285.02102   -3840.2137   -3351.6974   -3840.2137            0     7916.056    17.031023    20.060296    20.777808    7098.6833    6734.5966    9836.9113    7176.6601    726.19786    1457.8236    761.41702   -2532.1718 
Loop time of 530.315 on 64 procs for 250000 steps with 864 atoms

Performance: 81.461 ns/day, 0.295 hours/ns, 471.418 timesteps/s
99.0% CPU use with 64 MPI tasks x 1 OpenMP threads

MPI task timing breakdown:
Section |  min time  |  avg time  |  max time  |%varavg| %total
---------------------------------------------------------------
Pair    | 21.194     | 26.925     | 31.601     |  48.0 |  5.08
Bond    | 0.27339    | 0.28303    | 0.29919    |   1.0 |  0.05
Kspace  | 220.87     | 234.98     | 246.82     |  40.0 | 44.31
Neigh   | 5.7882     | 7.145      | 8.6818     |  29.0 |  1.35
Comm    | 117.97     | 131.04     | 145.13     |  57.5 | 24.71
Output  | 1.1035     | 1.1041     | 1.1057     |   0.0 |  0.21
Modify  | 121.22     | 124.24     | 126.15     |  13.0 | 23.43
Other   |            | 4.599      |            |       |  0.87

Nlocal:        13.5000 ave          17 max           8 min
Histogram: 3 1 2 5 8 10 15 7 6 7
Nghost:        2235.59 ave        2260 max        2212 min
Histogram: 1 4 6 12 9 13 8 6 3 2
Neighs:        4341.45 ave        6370 max        2486 min
Histogram: 3 4 5 9 18 9 5 8 2 1

Total # of neighbors = 277853
Ave neighs/atom = 321.58912
Ave special neighs/atom = 2.0000000
Neighbor list builds = 14548
Dangerous builds = 0

unfix		3
unfix		2
unfix		1

write_data	data.final.${pid}
write_data	data.final.0
System init for write_data ...
PPPM initialization ...
  extracting TIP4P info from pair style
  using 12-bit tables for long-range coulomb (../kspace.cpp:340)
  G vector (1/distance) = 0.3739896
  grid = 24 24 24
  stencil order = 5
  estimated absolute RMS force accuracy = 0.0031921769
  estimated relative force accuracy = 9.6131459e-06
  using double precision FFTW3
  3d grid and FFT values/proc = 2535 216
Last active /omp style is kspace_style pppm/tip4p/omp
WARNING: Not all mixed pair coeffs generated from mixing. Use write_data with 'pair ij' option to store all pair coeffs. (../write_data.cpp:312)

write_restart   restart.lmp.${pid}
write_restart   restart.lmp.0
System init for write_restart ...
PPPM initialization ...
  extracting TIP4P info from pair style
  using 12-bit tables for long-range coulomb (../kspace.cpp:340)
  G vector (1/distance) = 0.3739896
  grid = 24 24 24
  stencil order = 5
  estimated absolute RMS force accuracy = 0.0031921769
  estimated relative force accuracy = 9.6131459e-06
  using double precision FFTW3
  3d grid and FFT values/proc = 2535 216
Last active /omp style is kspace_style pppm/tip4p/omp
Total wall time: 0:08:53
