LAMMPS (30 Jul 2021)
  using 1 OpenMP thread(s) per MPI task
package omp 0
using multi-threaded neighbor list subroutines
echo both

include		in.partitions
variable        pid world 0
include		in.temp
variable        temperature equal 255.45
variable	tempDamp equal 100.0
include		in.pressure
variable        pressure equal 10000.0
variable        pressureDamp equal 1000.0 # This is 1 ps
include		in.seed
variable        seed world 745823

units		real
atom_style	full

read_restart	restart.lmp.${pid}
read_restart	restart.lmp.0
Reading restart file ...
  restart file = 30 Jul 2021, LAMMPS = 30 Jul 2021
  restoring atom style full from restart
  orthogonal box = (0.11632803 0.072798845 0.059157937) to (19.883673 19.927202 20.640840)
  4 by 4 by 4 MPI processor grid
  restoring pair style lj/cut/tip4p/long/omp from restart
  restoring bond style harmonic/omp from restart
  restoring angle style harmonic/omp from restart
  972 atoms
  648 bonds
  324 angles
Finding 1-2 1-3 1-4 neighbors ...
  special bond factors lj:    0        0        0       
  special bond factors coul:  0        0        0       
     2 = max # of 1-2 neighbors
     1 = max # of 1-3 neighbors
     1 = max # of 1-4 neighbors
     2 = max # of special neighbors
  special bonds CPU = 1.645 seconds
  read_restart CPU = 2.027 seconds
include 	in.setup
variable	out_freq equal 1000
variable	out_freq2 equal 10000
variable	out_freq3 equal 1000

timestep	2.0

neigh_modify    delay 7 every 1

include		in.tip4p
# This is TIP4P/Ice

# create groups ###
group ox type 2
324 atoms in group ox
group hy type 1
648 atoms in group hy

# set charges - beside manually ###
set group ox charge -1.1794
Setting atom values ...
  324 settings made for charge
set group hy charge 0.5897
Setting atom values ...
  648 settings made for charge

# ### TIP3P Potential Parameters ###
pair_style lj/cut/tip4p/long/omp 2 1 1 1 0.1577 8.5
pair_coeff 1 1*2 0.000 0.000
pair_coeff 2 2 0.21084 3.1668
bond_style  harmonic
bond_coeff  1 450 0.9572
angle_style harmonic
angle_coeff 1 55 104.52
kspace_style pppm/tip4p/omp 1.0e-5
pair_modify tail yes

thermo          ${out_freq}
thermo          1000
thermo_style    custom step temp pe etotal epair emol press lx ly lz vol pxx pyy pzz pxy pxz pyz enthalpy

restart 	${out_freq3} restart.lmp.${pid} restart2.lmp.${pid}
restart 	1000 restart.lmp.${pid} restart2.lmp.${pid}
restart 	1000 restart.lmp.0 restart2.lmp.${pid}
restart 	1000 restart.lmp.0 restart2.lmp.0


include         in.dump
dump            myDump all atom ${out_freq2} dump.water.${pid}
dump            myDump all atom 10000 dump.water.${pid}
dump            myDump all atom 10000 dump.water.0
dump            myDump2 all dcd ${out_freq2} dump.dcd
dump            myDump2 all dcd 10000 dump.dcd
dump_modify     myDump append yes
dump_modify     myDump2 append yes


variable natoms 	equal  "count(all)"                        # NUMBER ATOMS
variable H      	equal  "enthalpy/v_natoms"                 # ENTHALPY-per-atom
variable Vol      	equal  "vol/v_natoms"                 # volume-per-atom
fix AVG all 		ave/time ${out_freq} 1 ${out_freq} v_Vol v_H file vol_enthalpy.dat
fix AVG all 		ave/time 1000 1 ${out_freq} v_Vol v_H file vol_enthalpy.dat
fix AVG all 		ave/time 1000 1 1000 v_Vol v_H file vol_enthalpy.dat


timer           timeout 02:55:00 every 1000
New timer settings: style=normal  mode=nosync  timeout=02:55:00

fix 		1 all shake 1e-6 200 0 b 1 a 1
       0 = # of size 2 clusters
       0 = # of size 3 clusters
       0 = # of size 4 clusters
     324 = # of frozen angles
  find clusters CPU = 0.084 seconds
fix             2 all nph aniso ${pressure} ${pressure} ${pressureDamp}
fix             2 all nph aniso 10000 ${pressure} ${pressureDamp}
fix             2 all nph aniso 10000 10000 ${pressureDamp}
fix             2 all nph aniso 10000 10000 1000
fix             3 all temp/csvr ${temperature} ${temperature} ${tempDamp} ${seed}
fix             3 all temp/csvr 255.45 ${temperature} ${tempDamp} ${seed}
fix             3 all temp/csvr 255.45 255.45 ${tempDamp} ${seed}
fix             3 all temp/csvr 255.45 255.45 100 ${seed}
fix             3 all temp/csvr 255.45 255.45 100 745823


run             250000
PPPM initialization ...
  extracting TIP4P info from pair style
  using 12-bit tables for long-range coulomb (../kspace.cpp:340)
  G vector (1/distance) = 0.37200311
  grid = 24 24 24
  stencil order = 5
  estimated absolute RMS force accuracy = 0.0035339382
  estimated relative force accuracy = 1.064235e-05
  using double precision FFTW3
  3d grid and FFT values/proc = 2197 216
Last active /omp style is kspace_style pppm/tip4p/omp
Neighbor list info ...
  update every 1 steps, delay 7 steps, check yes
  max neighbors/atom: 2000, page size: 100000
  master list distance cutoff = 10.8154
  ghost atom cutoff = 10.8154
  binsize = 5.4077, bins = 4 4 4
  1 neighbor lists, perpetual/occasional/extra = 1 0 0
  (1) pair lj/cut/tip4p/long/omp, perpetual
      attributes: half, newton on, omp
      pair build: half/bin/newton/omp
      stencil: half/bin/3d
      bin: standard
Per MPI rank memory allocation (min/avg/max) = 9.225 | 9.227 | 9.229 Mbytes
Step Temp PotEng TotEng E_pair E_mol Press Lx Ly Lz Volume Pxx Pyy Pzz Pxy Pxz Pyz Enthalpy 
24000000    272.46431   -4713.8906   -4188.4203   -4713.8906            0    8356.7732    19.767345    19.854403    20.581682    8077.6689    9538.2147    8264.9695    7267.1354    184.40466   -57.606222    1113.1574   -3203.9546 
24001000    257.94004   -4704.1014   -4206.6424   -4704.1014            0    12245.585    19.786954    19.569763    20.419671    7907.0272    12360.429    13090.465     11285.86   -686.22531    1677.9573    1131.3102   -2794.5319 
24002000    250.95488   -4703.1305   -4219.1429   -4703.1305            0    9723.3234    19.707618    19.635376    20.844025    8065.9395    11907.441    9542.3081    7720.2211     -653.097    1170.9908   -291.90394   -3075.3548 
24003000    245.62041   -4706.2421   -4232.5425   -4706.2421            0    9508.6977    19.995949    19.816674    20.270614    8032.2961    8518.6817    10745.272      9262.14    246.85826   -670.37006    733.85875    -3118.667 
24004000    253.92594    -4730.515   -4240.7975    -4730.515            0    10550.091    19.411145    20.050492    20.352566    7921.2802    11838.295    10333.378    9478.6008   -373.27845   -251.22512    1530.6414   -3022.0114 
24005000    241.31175   -4675.2383   -4209.8482   -4675.2383            0    9353.9488    19.643155    19.710215    20.649387    7994.8398    9945.1192     9765.504    8351.2233    47.999707   -315.22318    312.80338   -3119.2102 
24006000      253.113   -4686.1871   -4198.0374   -4686.1871            0    10065.249    19.673715    19.872607    20.506283    8017.3007    11354.667    8838.6593    10002.421    2.9454903   -95.520259   -451.24016   -3021.1671 
24007000      261.553   -4703.3372   -4198.9102   -4703.3372            0    9816.9285    19.707267    19.953693    20.211333    7947.7584    10615.822    7661.7748    11173.189    271.07796    946.85346    907.02965   -3061.0309 
24008000     271.9042   -4742.3916   -4218.0015   -4742.3916            0    9722.5288     19.70678    19.825311     20.53354    8022.3109    9438.9369    9596.9132    10131.736    314.99756    1515.2584    577.26781    -3080.493 
24009000    265.17343    -4695.206   -4183.7967    -4695.206            0     10070.95    19.730319    19.587887    20.740811    8015.8102    10414.877    10752.798    9045.1738    227.40146    1715.3167   -1816.4931   -3006.4788 
24010000    258.31252   -4708.2738   -4210.0964   -4708.2738            0     8311.228    19.818265    19.673562    20.798018    8109.0617    8553.8338    8403.1724    7976.6779   -175.16151     960.4464    240.65927    -3227.191 
24011000    250.04605   -4696.5271   -4214.2923   -4696.5271            0    10948.975    20.052681    19.647403     20.23627    7972.7486    9889.0997    10487.534     12470.29    1600.5939    822.42926   -2558.1793   -2941.2073 
24012000    272.83529   -4698.5212   -4172.3354   -4698.5212            0    9938.1267    19.895535    19.913355    20.323514    8051.9091    9942.5685    9848.9927    10022.819   -254.20113    1655.4219   -1636.8808   -3005.3128 
24013000    261.66049   -4672.2495   -4167.6152   -4672.2495            0    9693.2591    19.813593    19.631051    20.509498    7977.4081    10317.609    9539.3971    9222.7708   -189.24673    -633.4344   -831.04851    -3039.879 
24014000    258.15182   -4725.3987   -4227.5312   -4725.3987            0     10847.59    19.706507    19.808234    20.546749     8020.446    9735.0106    11491.076    11316.684    1160.4515   -1011.4982   -778.79858   -2958.6888 
24015000     256.4568   -4713.9021   -4219.3036   -4713.9021            0    10151.287    19.821164    19.658394     20.57325    8016.4131    12018.229    9901.2844    8534.3486    26.819743   -637.00484    392.11134   -3032.5048 
24016000    256.15093   -4693.9722   -4199.9636   -4693.9722            0    10329.047    19.715981     19.70208    20.549127    7982.2227    9855.2976     11224.86    9906.9817    1016.6155   -632.36501    799.79539   -2997.5332 
24017000    253.81985   -4701.6231   -4212.1101   -4701.6231            0    12117.629    19.777652    19.646698    20.434928    7940.3088    11369.653    13617.148    11366.087    450.82396    1369.0119    1657.5465   -2808.8734 
24018000    250.98288    -4725.137   -4241.0954    -4725.137            0    9268.1434    19.794221    19.574339    20.688464    8015.9273    8570.8767    10799.371    8434.1828     587.7494   -607.13903   -1140.6617   -3157.6116 
24019000    252.24476   -4697.8304   -4211.3552   -4697.8304            0    10691.685    19.760504    19.980037    20.293684     8012.263    9439.1614    10508.961    12126.934   -11.210613    402.85534   -377.93864   -2962.0249 
24020000    254.28061    -4717.455   -4227.0535    -4717.455            0    8082.2818    20.073361    19.647091    20.514797    8090.6904    7126.4031    9695.0994    7425.3429   -873.13777    901.45947   -680.29585   -3273.3894 
24021000    245.34053   -4708.4312   -4235.2714   -4708.4312            0    10724.514    19.407381    19.819188    20.715247    7967.8821    12906.263    9434.1766    9833.1011    163.36843    395.93313    440.61896   -2989.0465 
24022000    252.58344   -4694.4359   -4207.3075   -4694.4359            0    11130.993    19.718907    19.854794    20.407827    7989.9674    11474.766    11016.745    10901.468   -46.382977   -389.49251    32.688357   -2910.2632 
24023000    258.16916   -4740.4117   -4242.5108   -4740.4117            0    12177.995    19.903672    19.723133    20.312707    7974.0127    11258.803    11931.096    13344.084   -52.536097   -154.67556    690.18042   -2826.2977 
24024000    269.74078   -4701.4603   -4181.2425   -4701.4603            0     8845.442      19.8621    19.891665    20.577499    8129.9688    8833.7797     9549.965    8152.5814    441.38213   -694.41982   -644.40363   -3132.4627 
24025000    270.20004   -4702.0652   -4180.9617   -4702.0652            0    8922.9674     19.77534    19.922748    20.347848     8016.627    8209.2619    7959.4236    10600.217    310.23279   -658.07909    247.18907   -3137.7394 
24026000    265.05544   -4695.9869   -4184.8052   -4695.9869            0    11043.752     19.58295    20.016474      20.4314     8008.733     11925.99    9742.4555    11462.811    421.56072    548.09367   -50.531027   -2894.9043 
24027000    271.93034   -4695.7672   -4171.3267   -4695.7672            0     12179.93    19.793874    19.600739    20.493105    7950.8035    13522.399    11977.698    11039.692    600.36945    1057.9881   -30.012815   -2759.0113 
24028000    250.20272   -4708.0654   -4225.5284   -4708.0654            0    10859.808    20.001342    19.705491    20.215486    7967.6565    7469.8895    12846.608    12262.927    165.12341    989.81225   -1876.3408   -2963.6176 
24029000    264.00383   -4708.8777   -4199.7241   -4708.8777            0     10513.35    19.611716     19.73328    20.648146    7990.9044    11455.667    10995.426    9088.9562    530.47439    159.75436    456.99845   -2974.5073 
24030000    265.00135   -4689.5946   -4178.5173   -4689.5946            0    9031.5763      19.6843     19.52317    20.701933    7955.7518    9636.3009     8728.993    8729.4349   -285.63146    751.17308     806.9336   -3130.6153 
24031000    248.74402   -4665.9603   -4186.2366   -4665.9603            0    10020.067    19.804094    19.785952    20.473021     8022.207    10717.435    10759.726    8583.0387    51.141569    1593.9117   -930.65244   -3013.9323 
24032000    249.31917   -4689.6199   -4208.7869   -4689.6199            0    9213.3572    19.816395    19.976485      20.3518    8056.5022    9540.7918    7302.9963    10796.283   -863.04881   -623.82971   -1212.7807   -3126.2559 
24033000    254.01744   -4706.6781   -4216.7841   -4706.6781            0    9522.5365    19.800481    19.937601    20.363658    8039.0449    9163.2609    9142.8854    10261.463     -456.974   -262.46001    753.05049   -3100.3502 
24034000    254.62415    -4709.036   -4217.9719    -4709.036            0    10128.974    19.746817    20.010127    20.179582    7973.6854    8987.9771    10640.141    10758.803    154.73682     299.6871   -210.47228   -3040.0936 
24035000    260.95251   -4744.6702   -4241.4013   -4744.6702            0    10980.102    19.728217    19.722357    20.268543    7886.2252    9073.6158    13314.778    10551.912    1361.6973   -1455.8653    437.04021   -2978.5523 
24036000    252.06152   -4718.2182   -4232.0964   -4718.2182            0    11717.018    19.786412    19.734736    20.339063    7941.9893    11442.572    12502.334    11206.147    226.67552   -910.80954    515.32555   -2874.9638 
24037000    252.91443   -4710.8839   -4223.1172   -4710.8839            0    10038.288     19.93747    19.736555    20.407415    8030.2561    8028.4433    11480.176    10606.244   -508.89473   -27.047617    448.99941   -3047.5027 
24038000    247.61843   -4674.0791   -4196.5261   -4674.0791            0    9269.4405    19.621182    20.102472    20.388158    8041.7882    8091.2407    10194.976     9522.105   -27.983986    383.28385    59.592873   -3109.3947 
24039000    250.54972   -4718.9917   -4235.7855   -4718.9917            0    11176.579    20.074908    19.714772    20.106759    7957.6966    9776.5103    12504.483    11248.744   -472.36331   -1351.4926    -839.5735   -2938.6894 
24040000     255.0133   -4717.7203   -4225.9057   -4717.7203            0    7437.6358    19.700994    19.804005    20.640611    8053.1116    7043.8977     8924.725    6344.2848   -589.55432   -712.55992   -1224.0672   -3352.3823 
24041000    256.92265   -4703.2858   -4207.7889   -4703.2858            0    9076.4788     19.90694    19.871864    20.394001    8067.6221    9231.6489    8490.3896    9507.3979    285.57787    1127.3604    -416.4519   -3139.8686 
24042000    254.49595   -4710.2228   -4219.4059   -4710.2228            0    10402.856    19.774659    20.008083    20.152395    7973.3557    10068.045    8703.6805    12436.843   -289.94902   -226.09867    771.02377   -3009.7284 
24043000    264.58821   -4705.9734   -4195.6927   -4705.9734            0    10771.145    19.789282    19.709215    20.552489    8016.1122    11111.231    10890.301    10311.904    167.01638   -733.26244   -793.45278   -2936.4729 
24044000    247.37962   -4719.3029   -4242.2105   -4719.3029            0      11494.5    19.495849    19.863589    20.559499     7961.821     12525.06    11771.834    10186.606    1003.5867    1293.1174    -216.8964   -2907.5267 
24045000    242.85182   -4719.6779   -4251.3177   -4719.6779            0    10559.799    19.806246    19.807318     20.33191     7976.383    10041.912    10318.435    11319.048   -431.16579   -1082.3282    1790.8618   -3022.9242 
24046000    256.07607   -4717.1612   -4223.2969   -4717.1612            0    11386.462    19.735986    19.774883    20.392788    7958.8324    11520.273    11263.062    11376.052    633.07124    716.70755    -1034.097   -2901.6543 
24047000    270.43807    -4744.752   -4223.1894    -4744.752            0    9393.1849    19.954784    19.620329    20.530742    8038.1841    9472.9449    9960.6364    8745.9734    358.12303   -764.16468    1210.6667   -3122.0388 
24048000    251.87683   -4729.9097   -4244.1441   -4729.9097            0    10049.057    19.806411     19.84679    20.258076    7963.3218    10097.645    8251.7541    11797.772    90.942284    1244.3255    -693.8525   -3077.0779 
24049000    256.81905   -4697.2095   -4201.9123   -4697.2095            0    9662.1764    19.692439    19.981032    20.362418    8012.1072    8916.6404    9599.1282    10470.761    228.73108     -434.305   -529.88141   -3072.9028 
24050000    254.42765   -4736.8624   -4246.1773   -4736.8624            0    8670.1065    19.814926    19.777069    20.492013    8030.4341    7695.2853    10583.977    7731.0568   -399.98939    532.13688   -1550.9177   -3230.7722 
24051000    279.39617   -4678.7605   -4139.9215   -4678.7605            0    8874.4366    19.581463    19.978641    20.440499    7996.5485    8919.1573    9058.0975    8646.0549    501.42624   -653.50309   -1866.3482   -3104.9718 
24052000    252.31298   -4719.3599   -4232.7531   -4719.3599            0    11720.379    19.660226    20.022081    20.288041    7986.1569    11716.126    11503.264    11941.745   -210.58286   -17.943899    86.206623   -2867.6817 
24053000    245.70701    -4729.281   -4255.4143    -4729.281            0    9027.5196    19.869348    19.797731    20.399783     8024.622    8970.6352    8915.6959    9196.2276   -252.39072    1514.2313   -143.34296   -3198.9158 
24054000    260.58813   -4680.8602   -4178.2941   -4680.8602            0     10770.15    19.562787    19.819808    20.494119    7946.1989    12676.822    10563.127    9070.5003    499.85168    258.26408   -1389.4108    -2930.172 
24055000    252.68281   -4694.7731   -4207.4531   -4694.7731            0    9773.6655    19.927824    19.955556    20.016642    7960.0342    10612.586    7004.4897    11703.921    251.30186   -139.39807   -454.18842   -3072.8387 
24056000    264.90785   -4678.7329   -4167.8358   -4678.7329            0    9785.0968    19.708017    19.754968    20.538068    7996.1115    11272.682     7866.049    10216.559    375.34775   -56.799817    529.91899   -3026.7459 
24057000    253.91864   -4728.3923   -4238.6888   -4728.3923            0    11622.879    19.838425     19.68927    20.375549    7958.7729    10492.318    11953.272    12423.048   -785.56602     505.8669    127.40916    -2889.615 
24058000    257.04744   -4701.8666    -4206.129   -4701.8666            0    9822.2769    19.997581    19.841469    20.154922     7997.098    7743.5284    9553.2531    12170.049   -462.24581     1127.458    -52.31126   -3060.5621 
24059000    249.60596    -4699.087   -4217.7009    -4699.087            0    10610.232    19.882284    19.485902    20.658452    8003.5852    7932.6469     15022.49    8875.5594    42.760123    334.76839    443.17871   -2979.2313 
24060000    249.21097   -4705.9834    -4225.359   -4705.9834            0    8331.4478    19.597024    19.941283    20.605769    8052.5246    8154.3311    8291.5282    8548.4841   -601.20024    873.31946   -777.47475   -3246.9321 
24061000    252.62148   -4696.0408    -4208.839   -4696.0408            0    9604.6965     20.04753     19.91558    20.160906    8049.4067    8866.6443     9431.652    10515.793     458.4914   -398.43308   -123.37598   -3081.3212 
24062000    263.90887   -4693.4265   -4184.4561   -4693.4265            0    8863.0639    19.713318    20.024999    20.490828    8088.9421    9066.9167    8806.8376    8715.4376   -674.70149    1058.0791    1886.0873   -3138.8899 
24063000     259.5509   -4689.2153   -4188.6495   -4689.2153            0    8608.1487    19.807976    19.808355    20.467389    8030.6549    8148.7442    7957.5451    9718.1569   -337.12426    156.25899    -567.8017   -3180.4729 
24064000    253.57126   -4698.2776   -4209.2441   -4698.2776            0    11135.283    19.633855     19.87452    20.485186    7993.5948    10835.349    10573.478    11997.022    134.24689    686.05142   -219.09884   -2911.1109 
24065000    266.28923    -4732.367   -4218.8058    -4732.367            0    10420.048    19.859646    19.559813    20.566969    7989.2586    9897.9862    12857.789    8504.3689   -659.61916    1427.6179   -33.211948   -3004.7125 
24066000     257.3684   -4668.6669   -4172.3103   -4668.6669            0    10124.807    19.922628    19.887333    20.284037    8036.6968    10771.599    9671.8519    9930.9686    458.50044     1435.335    750.13492   -2985.6123 
24067000    255.30178   -4731.7682   -4239.3972   -4731.7682            0    9223.2456    19.748798    19.983479    20.368779    8038.5324    8199.5966     9477.699    9992.4411    357.31197   -633.04309   -1707.1589   -3158.1216 
24068000    255.56776   -4715.9394   -4223.0555   -4715.9394            0    9305.5438    19.878608    19.860669    20.330577    8026.5614    8336.2305    11122.598    8457.8032   -86.970443   -1248.1251   -383.12712   -3133.7563 
24069000    249.30918   -4731.4007    -4250.587   -4731.4007            0    10856.295    19.723624    19.909666     20.37629     8001.581    10102.149    12877.953    9588.7833   -846.40866    1373.4044    132.25601   -2983.7132 
24070000    267.16368   -4727.5505   -4212.3029   -4727.5505            0    9681.3981    19.786678    19.879555    20.402608    8025.3732    10771.493    7946.6557    10326.046     29.96307   -324.92179    1336.0274   -3079.1743 
24071000    261.10133   -4699.0338   -4195.4779   -4699.0338            0    11871.041    19.535052     19.92277     20.40079    7939.8312    11577.831    11554.364    12480.927    432.05655   -497.19518   -924.77367   -2820.8792 
24072000    264.35009    -4670.492   -4160.6706    -4670.492            0    8805.1861    19.829142     19.57674    20.682941    8028.9101    9122.3645    9764.8511    7528.3426   -378.02959    -274.8018    1467.1152   -3129.6413 
24073000    242.52318   -4722.0535   -4254.3272   -4722.0535            0    10012.047    19.577249      19.8209    20.607578    7996.5377    11079.988    10479.314     8476.838    149.82774   -373.21504    87.630782   -3086.7093 
24074000    248.67834   -4730.7493   -4251.1522   -4730.7493            0    8206.6485    19.884688    20.074928    20.189498     8059.318    7390.7153    7797.3285    9431.9018      401.588   -953.56689    767.50924   -3286.5683 
24075000    244.25768   -4692.1188   -4221.0473   -4692.1188            0    9989.2958    19.665567    19.757397    20.525959    7975.1644    11196.041    7801.9469      10969.9   -34.219289   -432.07071    259.61124   -3059.1964 
24076000    256.33515    -4716.387   -4222.0231    -4716.387            0    9891.2827    19.774986    19.752063    20.429274    7979.6083    8612.2058    10490.787    10570.855   -184.31458   -263.21545   -1530.1129    -3070.931 
24077000    244.00366   -4727.2429   -4256.6613   -4727.2429            0    9894.5232     19.67909    19.956407    20.277295    7963.3791    8942.4766    10327.103     10413.99    1364.4635    531.80115   -830.14122    -3107.534 
24078000     263.2404   -4692.1252   -4184.4439   -4692.1252            0     10184.64    19.775318    19.732258    20.473104    7988.8442    9696.9356    11510.747    9346.2379    643.64242   -628.68054    1050.7057   -2997.8407 
24079000    250.47572   -4700.0942   -4217.0307   -4700.0942            0    11126.309    19.581151    19.507079    20.560691    7853.5888    11077.451      10892.2    11409.275     410.6907    1604.1307   -880.11216   -2942.6618 
24080000    260.48576   -4701.2411   -4198.8724   -4701.2411            0    9463.9947    19.643903    19.750188    20.749611    8050.2425    8702.0972    10929.287    8760.5996    330.25443    1530.5691    624.55942   -3087.7565 
24081000    266.45987   -4708.9712   -4195.0809   -4708.9712            0    11059.105    19.858046    19.865138     20.17531    7958.8132    11593.527     10748.96    10834.827   -281.84157   -584.78508    1766.8025   -2911.4382 
24082000    251.15831   -4729.9923   -4245.6124   -4729.9923            0    9767.5673    19.862898    19.959731     20.20525    8010.5349    9672.6262    9521.2172    10108.859   -817.05378   -1366.1034   -427.33924   -3104.5121 
24083000     261.5449   -4713.5639   -4209.1526   -4713.5639            0    9702.4157    19.910327    20.044532    20.175152    8051.7656     9372.435    10133.598    9601.2138    353.22959   -695.63747   -160.26843   -3069.8295 
24084000    267.74186   -4696.5117    -4180.149   -4696.5117            0    7688.1698    19.807185    19.614578    20.705395    8044.2437    8522.3223     5857.069    8685.1182    450.54393    1266.2714    182.99424   -3278.1956 
24085000    246.76123   -4717.6829   -4241.7831   -4717.6829            0    9590.4521    19.808115    19.819831     20.40338    8010.2343    9609.7587    9568.1143    9593.4833    477.60832   -57.512725   -2114.6876   -3121.4164 
24086000    248.39447   -4709.6783   -4230.6287   -4709.6783            0    8438.0519    19.873139    19.824603    20.413063    8042.2792    6173.5229    10413.688    8726.9443     -553.619   -107.37091    1630.8438   -3240.9431 
24087000     249.2264   -4713.1994   -4232.5453   -4713.1994            0    8715.5256     19.71473    19.820568    20.585727    8044.0196    10504.352    7382.8639     8259.361      320.101    526.55982     1560.773   -3210.0941 
24088000    252.91763   -4702.3792   -4214.6063   -4702.3792            0    9440.6411    19.848074    19.611941    20.589915    8014.8147    6978.6943    12510.454    8832.7752    39.255057   -663.43837    399.58235   -3111.1101 
24089000    241.65209   -4712.1177   -4246.0713   -4712.1177            0    11911.972    19.912682    19.827151    20.148134    7954.7201    10334.848    13190.575    12210.492    357.28899   -353.03023   -2001.7304   -2864.1464 
24090000    251.13691   -4719.1765   -4234.8378   -4719.1765            0     7846.344    19.996562      19.8424    20.293719    8052.1372     7777.964    7991.4763    7769.5918     302.4056   -5.0007262   -1493.8779   -3313.4247 
24091000    251.15774   -4709.5129   -4225.1341   -4709.5129            0    11107.495    19.483106    19.756672    20.612954    7934.3658    11897.232      10933.6    10491.653    1306.2922    315.62454    278.68279   -2939.8349 
24092000    257.35458   -4712.9314   -4216.6014   -4712.9314            0    10704.389    19.989688    19.767709    20.095748    7940.8414    9266.8238    11876.143    10970.202    168.54278   -1012.5566   -569.83841   -2976.9365 
24093000     263.7987   -4710.4776   -4201.7197   -4710.4776            0    9741.4288    19.776146    19.989334    20.450938    8084.5009    10188.249    9581.7214    9454.3157   -415.40179    49.062549    1615.7566   -3053.1647 
24094000     263.3679   -4724.1397   -4216.2126   -4724.1397            0    9291.2785    19.793808    19.807015      20.4228    8006.8865    10671.938    8432.6428    8769.2548    -524.1996    10.977595     492.0496   -3131.2493 
24095000    250.19998    -4743.674   -4261.1423    -4743.674            0     10716.07    19.665009    19.801454    20.452882     7964.266     8879.931    12368.113    10900.166   -243.59876   -738.31255    -213.6795   -3016.4639 
24096000    253.39629   -4700.9319   -4212.2359   -4700.9319            0    7141.4446     19.81715    19.861589    20.544388    8086.2732    9079.6566    6258.8991    6085.7782    648.16576    463.03606    -990.7601   -3370.0453 
24097000    251.85089   -4706.2509   -4220.5353   -4706.2509            0    9532.8139    19.747782    19.842922    20.477989    8024.3758    10519.898    8938.8872    9139.6562   -702.77804    805.82699    -249.3852   -3104.9359 
24098000    257.86384   -4725.2429   -4227.9308   -4725.2429            0    9746.5208    19.985617    20.024731     20.19748    8083.1649    7035.3991    10538.071    11666.092   -52.162036   -1682.1118   -659.39798   -3078.9654 
24099000    250.92928   -4698.5697   -4214.6314   -4698.5697            0    9501.2523    19.673198    19.661853    20.612541    7973.1684    9051.2589    11819.337    7633.1614   -208.45688   -34.858323   -276.81224   -3109.8212 
24100000    257.01377   -4717.6599   -4221.9873   -4717.6599            0    11006.459    19.759677    19.789439    20.557008    8038.4667    9849.4807    13458.106    9711.7908    -58.07944    1457.2329   -274.90526   -2931.6693 
24101000    254.92287   -4748.3513   -4256.7111   -4748.3513            0    10558.698    19.819088    19.828147    20.346858    7995.8225    10089.868    10742.106     10844.12   -603.03727   -541.90372     75.16891   -3025.4521 
24102000    243.10321   -4691.4738   -4222.6288   -4691.4738            0    9617.9551    19.825957    19.990771    20.354978    8067.4142    10555.349    9283.3017    9015.2142    89.024819      109.641    1290.6745   -3091.0286 
24103000    249.53037   -4684.8388   -4203.5985   -4684.8388            0    9117.0181    19.723782    19.914665    20.457636    8035.6063    6509.8247    11482.102    9359.1274    -468.8224    612.26862   -837.74663   -3135.1653 
24104000    255.13319   -4695.9017   -4203.8559   -4695.9017            0    10641.775    19.655352    19.846767    20.632922     8048.804    9226.4998    12007.425      10691.4   -11.309859    39.645828   -549.75225   -2954.6866 
24105000    260.06012   -4674.1646   -4172.6168   -4674.1646            0    10334.263    19.587728    19.873439    20.527166    7990.7229    11547.227    9218.1436    10237.419   -15.751602    871.53838   -525.27586    -2968.298 
24106000    252.44327   -4723.7137   -4236.8556   -4723.7137            0    10685.761    19.723052    19.938511    20.214196    7949.1979    12173.838    8926.7028    10956.741   -756.99721    236.75434   -63.037035   -2998.0457 
24107000    260.34152    -4699.594   -4197.5034    -4699.594            0    12922.387    19.577367    19.712771    20.434192    7886.0481    14705.581     12187.71    11873.872   -15.011024     194.6823    833.88019   -2711.3007 
24108000    261.71229   -4688.3531   -4183.6189   -4688.3531            0    11637.608    19.725126    19.719367    20.468157     7961.438    10817.638    13658.849    10436.336    -132.8552    1139.7558     659.3617   -2832.3832 
24109000    263.30607   -4733.1581   -4225.3502   -4733.1581            0    10611.975    19.838112    19.803217    20.395099    8012.3865    8560.3537    13010.774    10264.797    166.78875    114.92875   -913.90676    -2985.315 
24110000    256.89615   -4684.7219   -4189.2761   -4684.7219            0    10243.035    19.832291    19.897172    20.332451    8023.3175    10355.688    10444.907    9928.5111   -873.93075    -343.6157    42.446449   -2990.7195 
24111000    261.01476   -4701.3539   -4197.9649   -4701.3539            0    8555.1071    19.935811    19.801083    20.518341    8099.6281    9394.8269     6998.082    9272.4123   -354.90652    520.08692   -216.17995   -3187.3949 
24112000    259.21141   -4688.9699   -4189.0589   -4688.9699            0    9692.6408    19.797705    19.521177    20.544619    7939.9715    10085.579    8956.9803    10035.363    609.27471    952.07377    -620.0745   -3066.6865 
24113000    253.36979   -4739.7478   -4251.1028   -4739.7478            0    8670.4154    19.916517    19.607793    20.593827    8042.2798    7847.1124    9476.8847    8687.2489    100.15434   -998.23706    475.16827   -3234.1637 
24114000    258.70675   -4708.6513   -4209.7136   -4708.6513            0     9107.382    19.831639    20.085962    20.235324    8060.4896    8243.7986    7786.6666    11291.681    720.62417    825.30924    1039.7474   -3139.1046 
24115000    258.40866   -4717.0149   -4218.6521   -4717.0149            0    9399.7838    19.883325    19.566147    20.577456    8005.4546    9232.5105    9633.1854    9333.6554   -433.70835    -802.0451    197.16922   -3121.2147 
24116000    244.33626   -4716.6029   -4245.3798   -4716.6029            0    9139.4162    19.657315    19.768278    20.596034    8003.4385    10180.516    8744.3158    8493.4171   -749.05895     948.6937   -1151.2745   -3178.6094 
24117000    238.76299    -4713.532   -4253.0575    -4713.532            0    9870.5678    19.882965    19.705966     20.45885     8016.044    8431.9809     11611.86    9567.8627   -198.34128   -374.10722    1716.9058   -3099.1311 
24118000    255.69138   -4727.7347   -4234.6124   -4727.7347            0    10058.393    19.703285    19.724803    20.535794    7981.1013    9775.7212    9578.9449    10820.512   -255.92413   -1010.1345    1240.4254   -3063.8539 
24119000    252.37974   -4741.8161   -4255.0805   -4741.8161            0    10105.519    20.099375     19.79104     20.21095    8039.6644     8624.918    9632.9467    12058.693    416.07717    278.35181   -213.21791   -3070.2058 
24120000    250.01046   -4678.3112    -4196.145   -4678.3112            0    12244.294    19.486232    19.811077    20.520673    7921.8675     14040.77    11033.156    11658.955   -678.82255   -611.50171   -1303.9284   -2781.5335 
24121000    255.59831   -4750.1811   -4257.2382   -4750.1811            0    9768.1352    19.805902    19.731309    20.484668    8005.3336    9004.0338    11349.233    8951.1391    390.33428   -395.50931   -579.94607   -3116.8126 
24122000    263.37345   -4693.0348   -4185.0969   -4693.0348            0    9803.6203    19.785068    19.938388    20.311149    8012.3898    10506.815     7955.747    10948.299    377.46487    738.39778    1140.6611   -3039.5195 
24123000    251.72127   -4703.4497   -4217.9841   -4703.4497            0    9041.3755    19.944252    19.876276    20.354451    8068.8597    8214.9891    9991.5061    8917.6314   -95.464777   -234.95363   -157.37255   -3154.0308 
24124000    248.01108   -4706.0926   -4227.7824   -4706.0926            0     7849.678    19.698956    20.048217    20.529139     8107.551    6450.8794    9607.3263    7490.8283    431.76023   -400.07132   -716.18235    -3299.634 
24125000    260.80573   -4685.8935   -4182.9077   -4685.8935            0    9219.1144    20.130913    19.461292    20.437919    8007.0366    7724.1896    11209.528    8723.6252    755.10296    934.47718    344.36814    -3106.351 
24126000    241.43679   -4726.9805   -4261.3493   -4726.9805            0    8539.6446    19.777441    19.787414    20.572703    8051.0128    9560.4546    7377.2732    8681.2059   -732.86927   -845.73637    -94.71295   -3258.6605 
24127000    253.58815   -4715.4701    -4226.404   -4715.4701            0    10882.513    19.806793    19.663108    20.615904    8029.1343    11792.345    10172.917    10682.278    173.68237    1773.9976   -816.66593   -2952.0977 
24128000    258.19977   -4726.6227   -4228.6627   -4726.6227            0    10105.168    19.925618    19.793571    20.260228    7990.6163     9476.173    9327.1094     11512.22   -1534.9623    882.35687    888.65801   -3051.0576 
24129000    262.61066   -4681.0826   -4174.6159   -4681.0826            0    9685.3846    19.528185     19.96285    20.612132    8035.3968     8699.276    11070.809    9286.0693   -65.096817   -1615.1488    13.157992   -3039.6048 
24130000    244.98988   -4737.6045   -4265.1209   -4737.6045            0    8851.1767    19.953968    19.694102    20.500903    8056.3523    10163.332    8097.0359    8293.1618    301.45285   -5.1799044   -32.583624    -3225.164 
24131000     234.9257   -4717.6367   -4264.5627   -4717.6367            0     9823.292    19.678127    20.075085    20.374679    8048.8144    11852.652    8066.2161     9551.008    280.61444    1076.4227    42.921321   -3111.4683 
24132000    253.45252   -4679.2614   -4190.4569   -4679.2614            0    8551.9154     20.29625    19.695085    20.209593    8078.5098    7176.1677    10222.122    8257.4568      510.249    1549.7029    -218.0983   -3182.8978 
24133000    268.30085   -4696.8027    -4179.362   -4696.8027            0    11613.846     19.82642    19.774071    20.422765    8006.7252    11483.144    11770.475    11587.919   -315.77534   -621.38231    -52.34195   -2823.2146 
24134000    249.96962   -4723.7395   -4241.6521   -4723.7395            0     10419.66    19.916118    19.910011    20.151235     7990.572    9698.8048    9353.6881    12206.486    1274.2455   -885.38743   -116.85864   -3027.4044 
24135000    256.99411   -4722.6419   -4227.0072   -4722.6419            0    10288.321    19.690264    19.761338    20.462159    7961.9479    9213.7762    10211.996     11439.19   -880.90774   -619.50688    20.044255   -3032.3599 
24136000    254.02995   -4691.9286   -4202.0104   -4691.9286            0    10286.285    19.628714    19.891071    20.520983    8012.1333    9102.8575     12033.12    9722.8773   -699.63453   -176.69465    1007.0721    -3000.071 
24137000    255.43503     -4729.71   -4237.0821     -4729.71            0    9203.7131    19.910134    19.873616    20.277784    8023.6421    7845.5573    9554.9415     10210.64   -627.71746   -3.9058229    610.70039    -3160.095 
24138000      256.335   -4726.3293   -4231.9657   -4726.3293            0    10603.592    19.780057    19.901756    20.379669     8022.617     11518.92    10127.366    10164.491   -461.23262    1474.0372    861.12713   -2991.3281 
24139000    237.78462   -4712.6947   -4254.1071   -4712.6947            0    12533.889    19.729312    19.706446    20.444353    7948.6542    13380.062    11158.467    13063.138   -428.62611   -1172.2137    294.61057   -2801.1415 
24140000    266.62616   -4719.9664   -4205.7554   -4719.9664            0    8903.2927    19.669733    19.919787    20.485471     8026.554    10504.727    7211.3364    8993.8151   -205.89852   -204.95222   -1073.9988   -3163.5444 
24141000    254.32379   -4707.4299   -4216.9451   -4707.4299            0    10563.928    19.870106    19.596015    20.543399    7999.0837     8666.169    11359.204    11666.412   -397.59172   -267.41864    961.21881   -2984.5738 
24142000    245.67697    -4694.443   -4220.6343    -4694.443            0    9399.7629    19.808214     19.86915    20.341217    8005.7411    9151.5549    8640.0597    10407.674   -607.74289    1301.0972    97.956201   -3123.1601 
24143000    258.81099   -4732.7248    -4233.586   -4732.7248            0    9533.4173    19.875408    20.093883    20.209574    8071.1811    11051.844    7559.9883    9988.4202    62.658069    81.654262   -50.367753   -3111.4084 
24144000    259.39089   -4721.8134   -4221.5563   -4721.8134            0    9260.0901    19.770791    19.907561    20.376916    8020.1141    10721.791    7740.7875     9317.692   -281.68271    810.84718   -545.45552   -3138.4486 
24145000    253.51559    -4715.366   -4226.4399    -4715.366            0    9111.7671     19.88938    19.952747     20.31288    8061.1209    10250.538    7616.5116    9468.2513   -519.81075    128.93144    136.30858   -3155.2316 
24146000    243.08551   -4706.7299    -4237.919   -4706.7299            0    10753.783    19.608106    19.821116    20.518674    7974.6757    11402.546    11115.446    9743.3582     -406.034    1584.9483    593.26967   -2987.2275 
24147000    235.41222   -4706.0866   -4252.0743   -4706.0866            0    8209.7971    19.803807    19.683035    20.714632    8074.5431     7627.596    9225.3971    7776.3982    342.82709    602.47905   -375.17705   -3285.2974 
24148000    246.20053    -4712.426   -4237.6075    -4712.426            0    10441.779    19.605536    20.045139    20.280206    7970.0339    10693.428    8915.5353    11716.374   0.79082484   -77.243797   -1235.0374   -3023.9098 
24149000    260.00634   -4686.8508   -4185.4067   -4686.8508            0    9962.5308    19.848861    19.685062    20.433312    7983.8277     9444.263    9043.8132    11399.516   -526.68435    568.33034    537.81275   -3025.4101 
24150000    247.65516   -4709.3684   -4231.7446   -4709.3684            0     8663.724    19.799668    20.178741    20.131719    8043.2735    8756.0743    6687.7784    10547.319    526.02332   -410.51587   -496.32371   -3215.4647 
24151000    257.02225   -4679.8787   -4184.1897   -4679.8787            0    10353.019    19.779432    19.818732    20.441313    8013.0613    9208.0474    12153.123    9697.8886    50.345755   -504.74669   -1073.5384   -2974.3122 
24152000     259.9799   -4707.9612   -4206.5681   -4707.9612            0    8403.4036    19.862148    19.690346    20.673899    8085.4087     7438.213    10604.644    7167.3541   -178.11498   -713.20369   -1072.9201   -3215.6607 
24153000    261.81003   -4739.5067   -4234.5841   -4739.5067            0    8540.5797    19.719467    19.790867    20.586859    8034.3376    8912.9832    7706.6659    9002.0901    419.09336   -96.210338   -275.20652   -3233.8624 
24154000    259.91544    -4723.565   -4222.2962    -4723.565            0    8735.5074    20.010371    19.749704    20.300314    8022.6616    7980.6962     8058.968    10166.858   -386.59043     551.9839    573.46462   -3200.2219 
24155000    250.69969    -4715.387   -4231.8915    -4715.387            0    9593.7227    19.945741    19.757009    20.428381    8050.1752    8818.5395    9659.0751    10303.553    696.39051    -215.7461   -932.79394   -3105.5545 
24156000    252.48887   -4732.1681   -4245.2221   -4732.1681            0    8338.3627    19.533907    19.937636    20.589443     8018.763    9269.1419    8700.8675    7045.0786   -262.28665     479.8174    1253.0801   -3270.0886 
24157000    260.48736   -4711.9619   -4209.5901   -4711.9619            0    9446.6961    20.034433    19.905964    20.152907    8037.0738    7577.3197    9947.1793    10815.589   -562.73941    1935.0867    320.14503   -3102.3194 
24158000     235.0929   -4704.1776   -4250.7812   -4704.1776            0     9530.178    19.921943    20.001032    20.133314    8022.3083    10837.122    8249.7384    9503.6734   -421.95736    309.96385   -714.45229   -3135.7776 
24159000    253.61546   -4729.7015   -4240.5827   -4729.7015            0    10526.759    19.857522    19.664933    20.415295    7972.1085    9379.2902    11125.179    11075.809   -493.26177   -247.62672   -537.06125   -3016.6888 
24160000     258.8528   -4708.3724    -4209.153   -4708.3724            0    10287.303    19.512769    19.764744    20.652628    7964.9938    11899.493    9493.0109    9469.4046   -283.15678   -68.372934   -631.32966   -3014.1669 
24161000    248.20187   -4723.3305   -4244.6523   -4723.3305            0    10284.803    19.952822    19.470896     20.57936    7995.0675    7933.0477    11773.368    11147.992    696.78977    1274.6456   -169.72151   -3045.4458 
24162000    251.98495   -4703.8451    -4217.871   -4703.8451            0    8431.9362    19.606222    19.951997    20.552425    8039.7651    9537.8553    7902.8264     7855.127   -238.82642    441.02829   -35.184004   -3229.2119 
24163000    253.60214   -4701.8529   -4212.7599   -4701.8529            0    10258.823    19.846197     19.83338     20.35111    8010.5464    9963.1203     11002.41    9810.9372   -398.09847    939.13061   -262.86862   -3014.2667 
24164000    259.23758   -4739.9646   -4240.0031   -4739.9646            0    7989.6682    19.768956    20.003249    20.481945    8099.4489    10505.621    5551.6336    7911.7499    616.11723   -868.29802   -108.86255   -3296.2463 
24165000    257.65595   -4713.0923   -4216.1811   -4713.0923            0    10044.187    19.969388    19.707087    20.310163    7992.8306    11086.917    8792.4163    10253.227    584.80594    712.25494    650.60307    -3045.358 
24166000     255.7009   -4691.6163   -4198.4756   -4691.6163            0     10986.33    19.664005    20.102185    20.263352      8009.89    10456.583    11121.813    11380.593   -33.927159   -766.84617    419.79146   -2915.0962 
24167000    258.88437    -4714.114   -4214.8337    -4714.114            0     8879.624    19.794935    19.663849    20.538617    7994.5466    8967.9507    8851.5971    8819.3243    224.82563   -257.59323   -259.77475   -3179.5383 
24168000    262.98987   -4687.0336   -4179.8355   -4687.0336            0     11671.72    19.591186    19.871035    20.503416    7981.9213    12674.909    12345.366     9994.886   -26.046168   -219.55871    32.089314   -2821.1523 
24169000    265.80851   -4691.4233   -4178.7893   -4691.4233            0    10755.377    19.946617    19.762058    20.131078    7935.3931     9239.982    11597.953    11428.195    354.43256    568.25568      1011.07   -2934.0742 
24170000    264.50614   -4701.4224   -4191.3001   -4701.4224            0    9634.9267    19.800381    19.647396    20.451374    7956.1149    10131.224    9116.6615    9656.8949     641.5289    -897.1154    459.99276   -3073.3425 
24171000    250.22332   -4673.5498   -4190.9731   -4673.5498            0    11488.466    19.769962    19.461631    20.689674    7960.4701    14355.191     9374.348    10735.858    101.97464   -171.43696   -561.78227   -2857.2163 
24172000    249.41513   -4712.8072   -4231.7891   -4712.8072            0    9766.9672    19.774079    19.766728    20.470156    8001.1462    10059.041    9985.7919    9256.0691   -101.81963   -537.65857   -646.02217   -3092.0963 
24173000    243.90648   -4714.8754   -4244.4812   -4714.8754            0    9935.5696    19.629303    19.976547    20.319184    7967.6742    8783.0124    9726.9859    11296.711    952.28377     -244.001    423.43781   -3089.9645 
24174000    247.34552   -4692.3846   -4215.3579   -4692.3846            0    8790.4965    19.536678    19.845622    20.767411    8051.8894    9532.4568     7593.093    9245.9397   -279.73886    774.87708    778.31338   -3183.1027 
24175000    257.31663   -4716.4705   -4220.2137   -4716.4705            0    10339.167    19.683714    19.790858    20.416682    7953.4733    9484.0616    11675.379    9858.0599   -41.878107    1788.7952    98.120173   -3020.9402 
24176000    243.65815   -4706.3322    -4236.417   -4706.3322            0    11305.715    19.591369    19.776293    20.435117    7917.4769    10372.834    12402.127    11142.184    1231.0004   -174.90043    351.44934   -2930.9655 
24177000    269.06603   -4730.0278   -4211.1114   -4730.0278            0    10450.471    19.725561    19.785134    20.455336    7983.1629     9348.649    12039.665    9963.0981    268.84213    1190.0195    1115.7495   -2994.4024 
24178000    241.72988   -4686.9963   -4220.7999   -4686.9963            0    9609.8822    19.642155    20.115812    20.348985    8040.2481    10452.595    8557.6894    9819.3624   -585.01957    -584.9165    464.33243   -3093.9569 
24179000    264.34704   -4700.0305    -4190.215   -4700.0305            0    10674.641     19.76931    19.760003    20.510468    8012.2425    10504.938    11255.023     10263.96    233.74431    282.06375    -483.1669   -2942.8797 
24180000    260.98269   -4708.1117   -4204.7846   -4708.1117            0     9555.017    19.930473    19.729681    20.426322    8032.0767    7245.4514    10220.861    11198.739    67.532352   -412.04691   -100.05742   -3085.5138 
24181000     260.8201   -4730.5117   -4227.4982   -4730.5117            0    9405.3743    19.999919    19.705339     20.35953    8023.7966    7506.9569    10709.485    9999.6805     484.3176   -405.44575   -1096.5541   -3126.8922 
24182000    255.29872   -4713.4055   -4221.0405   -4713.4055            0    10313.578    19.556266    19.724698    20.690182    7981.0606    11137.121    10638.423    9165.1912   -110.63029   -758.19405    60.110037   -3020.5855 
24183000    252.82473   -4728.1829   -4240.5891   -4728.1829            0    11531.788    19.529681    19.765561    20.585762    7946.4155    12283.495    11137.367    11174.503   -131.01957    665.30591    526.32601   -2904.1665 
24184000    250.02748   -4715.8936   -4233.6946   -4715.8936            0    9555.7856    19.502316    19.999246    20.445228    7974.2851    11225.261    8501.0313    8941.0646    505.14605    1461.3796   -108.16034   -3122.3876 
24185000    260.49558   -4698.9826    -4196.595   -4698.9826            0    10382.548    20.045003     19.47833    20.472784    7993.4587     9350.035    12070.951    9726.6593   -399.96511    401.54793   -566.52388   -2986.2349 
24186000    262.92932   -4696.3611   -4189.2798   -4696.3611            0    11108.918     19.85124     19.77701    20.404494    8010.7673    11032.857     11836.38    10457.517   -235.76381   -1164.0975    1220.5098    -2891.438 
24187000    252.07625   -4718.6778   -4232.5276   -4718.6778            0    9048.9425    19.923298    19.576479    20.628525    8045.7028    9576.0635    8477.7709    9092.9931   -121.47456   -109.30028    16.615029   -3170.7398 
24188000    264.12228   -4714.5428   -4205.1608   -4714.5428            0    9645.5354    19.899749    19.867664    20.314397    8031.5307    8397.1462    9451.9848    11087.475     201.7281   -2.1079085   -1060.4888   -3075.3634 
24189000    242.40447   -4711.6409   -4244.1435   -4711.6409            0     10785.54    19.801316    19.688803    20.496733    7990.9426    10109.681    12021.197    10225.742     456.9009   -798.57898    724.78673   -2987.1999 
24190000    269.80006   -4702.4106   -4182.0785   -4702.4106            0    9004.0257    19.901236    20.022529    20.156438     8031.798    8962.4931    8506.9618    9542.6222   -386.82698    948.12611    604.81434   -3127.3871 
24191000    248.97385   -4679.0532   -4198.8862   -4679.0532            0    12332.043    19.873284    19.701965    20.318341    7955.4991    12556.264    12425.357    12014.507    1106.1851   -130.43426    1243.2238   -2768.0882 
24192000    259.29518   -4714.0476   -4213.9751   -4714.0476            0    9412.5478    20.098716    19.577256    20.450947    8046.9919    8505.5621    11297.299    8434.7824     450.8618   -498.81207   -442.67368   -3109.3455 
24193000    252.95729   -4694.5355   -4206.6861   -4694.5355            0    11440.827    19.693179    19.655432    20.646642    7991.8595    13512.266    9514.9621    11295.253   -719.63656    74.284482    40.368091   -2873.2225 
24194000    273.84407   -4719.4797   -4191.3484   -4719.4797            0    10744.046    20.009968    19.712015    20.213848    7973.0855    9426.8826    12147.011    10658.243    1043.4608    687.24603   -739.73446   -2942.0385 
24195000    256.69659   -4700.3855   -4205.3246   -4700.3855            0    10393.514    19.717497    19.774648    20.349904    7934.5612    9555.6876    10507.812    11117.043    -744.2462   -420.35758    638.97167   -3002.6137 
24196000    264.11616   -4731.8646   -4222.4943   -4731.8646            0    10745.266    19.801983    19.570976    20.666244    8009.0813    9039.3111    12168.676    11027.811   -297.65415    1569.5582   -84.905871   -2967.4017 
24197000    261.49913   -4722.2812   -4217.9581   -4722.2812            0    10118.092    19.977242    19.673462    20.442483    8034.3357    10109.294    9187.4813    11057.501   -105.58522    697.61109    1240.0782   -3032.3955 
24198000    246.88316   -4675.3946   -4199.2597   -4675.3946            0    10569.068    19.810098    19.900423    20.316347       8009.3    12222.492    8514.8781    10969.833   -174.54282    310.32704    918.61924    -2964.714 
24199000    259.34224   -4678.8688   -4178.7055   -4678.8688            0    10444.585    19.839499    19.603092    20.495421    7970.9875    11101.555    8709.6061    11522.592    611.41663   -464.33798   -983.12577   -2964.5363 
24200000    249.74747   -4705.2636   -4223.6046   -4705.2636            0    10245.951    19.775529    19.759561    20.499027    8010.1129    11272.491      9610.69    9854.6721    -162.9546    598.41726    101.03095     -3026.68 
24201000    245.09534   -4702.3478   -4229.6608   -4702.3478            0    9416.0692    19.806058    19.878541    20.410761    8036.0336    8507.3152    9884.4965    9856.3957    156.93128    1108.3178   -404.53115   -3126.1228 
24202000    254.00812   -4708.4135   -4218.5375   -4708.4135            0    9260.2778    19.919107      19.9426    20.269158    8051.6955    8743.0327    8689.4168    10348.384    339.06917    710.65844    139.24173   -3131.1427 
24203000    256.51746   -4740.8088   -4246.0933   -4740.8088            0    10325.219    19.811539    19.903469    20.310633    8008.8553    11241.933    9262.8554    10470.868    345.21108   -759.82299    853.18916    -3040.098 
24204000    245.18473   -4713.1389   -4240.2795   -4713.1389            0    9689.1421    19.865986    19.930283    20.242206    8014.5919    9472.6473    9364.3217    10230.457    419.17032    427.85383    807.79404    -3107.768 
24205000    230.99404   -4697.7403   -4252.2488   -4697.7403            0    10595.142     19.76102    19.836727    20.395804    7995.0321    11190.289    10045.855    10549.281     435.4144     586.9567    1215.2226   -3016.8622 
24206000    253.77406   -4733.6593   -4244.2347   -4733.6593            0    8839.7292    19.922876    19.681894    20.450162    8018.9159    9621.6276    8603.7437    8293.8164   -471.70413    135.68699    1022.9075    -3210.449 
24207000    246.28745   -4707.0647   -4232.0787   -4707.0647            0     8330.313    19.661324    20.036819    20.545675     8093.977    9290.1194    7756.7651    7944.0544    448.74843   -419.94446     -374.517   -3248.7489 
24208000    261.74031   -4717.2016   -4212.4134   -4717.2016            0    10151.955    19.721755    19.832357    20.429014    7990.3771    9912.4707    10686.855    9856.5403   -1048.7678     110.8675     691.8008   -3029.3913 
24209000    246.15164   -4694.0276   -4219.3034   -4694.0276            0    9552.0875    19.640526    19.817923     20.61427    8023.7835    8680.6766    10400.615    9574.9712    334.18303    551.29029    -258.3065    -3101.531 
24210000    259.76245    -4685.159   -4184.1852    -4685.159            0    10781.432    19.586163    19.787089    20.567766    7971.1027    12742.556    9376.8946    10224.844   -394.06162   -558.10591   -96.268748     -2930.84 
24211000    255.09206    -4712.426   -4220.4595    -4712.426            0    9254.6704    19.645353    19.698564    20.830887    8061.2459    7853.0773    10873.225    9037.7084    693.25251     954.1013   -200.38449   -3132.4341 
24212000    248.74954   -4689.1162   -4209.3818   -4689.1162            0    10691.436    19.851847    19.732008    20.246219    7930.7846    8688.7134    12955.669    10429.927   -55.733458   -772.44103    2030.9604    -2972.785 
24213000    256.68307   -4675.5712   -4180.5364   -4675.5712            0    9889.4478    19.560522    19.906468    20.464032     7968.303    9149.1012    10026.591    10492.651   -812.95385   -135.64959    11.130609   -3031.2883 
24214000    273.30596   -4721.1257   -4194.0322   -4721.1257            0    10215.271    19.601463    19.658832      20.5896    7934.0349    11048.149    10175.511    9422.1539    259.47259   -1881.6925    109.99161   -3012.0256 
24215000    242.27367   -4724.4909   -4257.2457   -4724.4909            0    13215.976    19.759871    19.488188    20.665249    7957.8585    12715.439    14427.017    12505.473    866.44885    116.42352   -482.89995   -2723.4365 
24216000    252.49227   -4720.2476   -4233.2951   -4720.2476            0    9181.3939    19.918474    19.671998    20.434391    8006.9339    9737.0923    8466.1982    9340.8911    689.26019    658.55578    159.36052   -3161.1569 
24217000    236.49016   -4708.2673   -4252.1761   -4708.2673            0    10294.141    19.765819    19.987719    20.198382    7979.8481    9881.4398    9748.1798    11252.803      7.10082    1197.3488    1864.2825   -3054.1657 
24218000    265.60434   -4711.3256   -4199.0853   -4711.3256            0    10205.184    19.869477    19.643503    20.490008    7997.3758     9491.615    10850.349    10273.588   -30.284286   -15.735903    495.56859   -3008.8187 
24219000    259.46719   -4712.9801   -4212.5758   -4712.9801            0    10629.192    19.907246    19.460202    20.645668    7998.1119    11898.442    11514.809    8474.3254    -434.3965    551.11516    881.92785   -2972.7416 
24220000     244.8546   -4722.8861   -4250.6634   -4722.8861            0    9830.4286    19.922285    19.770118    20.390325    8031.0542    8974.5202    10272.784    10243.982    191.60187    395.82465   -1482.2411   -3099.2775 
24221000    257.65667   -4719.9792   -4223.0667   -4719.9792            0    9477.8856    19.741641     19.72349    20.596059    8019.5711    10011.603    9284.7037    9137.3501    -145.2319    71.214278   -237.04979   -3114.5595 
24222000     245.7264   -4716.7226   -4242.8186   -4716.7226            0    9824.7804    20.006567    19.849752    20.208764    8025.4136    9598.0271    9981.2357    9895.0783    452.83775   -185.43619    869.41994   -3092.9025 
24223000    256.03651   -4732.3061   -4238.5182   -4732.3061            0    9057.5867    19.985901     19.77607    20.351728    8043.8694    7681.4892    10150.463    9340.8076    452.86968    499.45713    192.90462   -3175.9583 
24224000    241.67475   -4697.9761   -4231.8861   -4697.9761            0    9263.1755    20.085083    19.885777    20.228586    8079.4483    7605.7858    9128.9779    11054.763   -1157.9167    26.081255    722.28431   -3140.4018 
24225000    254.93825    -4728.544   -4236.8742    -4728.544            0    10050.071    19.672367    19.798609    20.458346    7968.2294    9421.5665    11217.826    9510.8214   -754.56248    1085.8843   -778.87689   -3068.9709 
24226000    256.92488   -4711.2541   -4215.7528   -4711.2541            0    12432.462    19.518653    19.820277    20.498163    7930.0242    13338.372    12080.932    11878.082   -895.56502    373.45237   -1237.0527   -2777.9228 
24227000    266.82998   -4665.1823   -4150.5782   -4665.1823            0    9350.1633    19.818063    20.081018    20.168401    8026.3557    9819.1141    7382.0062     10849.37   -209.14262   -2174.4099     927.0702    -3056.084 
24228000    269.04335   -4713.6968   -4194.8241   -4713.6968            0    9305.1599    19.858033    19.878835     20.33515    8027.3934    7971.5704     10584.36    9359.5498   -29.110179    236.61833    768.42414   -3105.4569 
24229000    262.96335    -4708.417   -4201.2701    -4708.417            0    11168.645    19.789011    19.682161    20.565569     8010.094    10107.384    12369.654    11028.897     89.32102    1638.3805    626.18868   -2896.5601 
24230000     273.4588   -4705.2173    -4177.829   -4705.2173            0    9243.0866    19.640059    19.730052    20.660692    8006.0054    9179.2701    10658.462    7891.5277   -960.20758    -408.6099   -867.84032   -3098.6119 
24231000    260.55164   -4703.4763   -4200.9806   -4703.4763            0    9761.6816    19.670481    19.986316    20.396065    8018.5183     9856.469    9076.7703    10351.805     85.21434   -1497.6646   -314.57908   -3059.4313 
24232000    246.40025   -4686.6343   -4211.4307   -4686.6343            0    10479.182    19.696487    20.018139    20.203834    7966.1091    9726.4746    9680.3225     12030.75    90.826801   -778.89252     499.5094   -2993.9852 
24233000    263.00073   -4746.3056   -4239.0866   -4746.3056            0    9610.5525    19.648737    19.861271     20.53899    8015.3183    8486.0762    10793.059    9552.5224   -643.29888   -945.67212   -63.895718   -3115.6592 
24234000    264.52846   -4703.8386   -4193.6733   -4703.8386            0    11258.524    19.771302     19.79134    20.333199    7956.3922    9687.1721    13049.588    11038.812   -390.93662   -356.40374    688.93843   -2887.2812 
24235000    244.59582   -4718.8871   -4247.1635   -4718.8871            0    9604.2795    20.019471    19.670577    20.327091    8004.6976    8024.0732    10186.374    10602.392    -6.093262    705.97749   -331.97989    -3125.957 
24236000    244.66907   -4700.5031   -4228.6382   -4700.5031            0    9913.7623    19.805114    19.617258    20.528054    7975.6011    10588.281    9979.3948    9173.6115    -344.5323    287.38129   -1197.9364   -3075.5094 
24237000    244.14465   -4694.7289   -4223.8754   -4694.7289            0    9048.4278     19.91436    19.630176    20.643626    8070.0559    9220.0788    9293.1071    8632.0974    16.881702   -697.68962    175.58192   -3158.9344 
24238000    258.90602   -4682.3975   -4183.0755   -4682.3975            0    10352.712    19.616912    19.925434    20.276368    7925.5351    11276.437    8489.8687    11291.831   -331.80946   -1344.9679    636.00471    -2986.449 
24239000    250.56789   -4713.2338   -4229.9925   -4713.2338            0     7030.324     19.91908    19.812096    20.428772    8061.9846      6217.52    7819.2034    7054.2487    -619.8038    277.92209   -197.15245   -3403.3967 
24240000    256.79224   -4709.2868   -4214.0414   -4709.2868            0    9725.1557    19.794342    19.883223    20.460276    8052.6597    9612.7347    8633.2785    10929.454    -62.66401   -260.63949    571.03241   -3071.9212 
24241000    253.43228   -4721.9881   -4233.2226   -4721.9881            0    10401.997     19.56281    19.876201     20.52738    7981.7507    10687.523    9759.1069     10759.36   -84.686001   -7.5496217   -190.80136   -3022.3715 
24242000    257.71425   -4714.3083   -4217.2847   -4714.3083            0    10859.955    19.870984    19.626564    20.513086     8000.086    10326.616    12305.533    9947.7175   -574.41917   -108.20882    1481.8977   -2950.2206 
24243000    255.78526   -4701.5821   -4208.2787   -4701.5821            0    8503.1039    19.845931    19.950909     20.36736    8064.3417    8701.6178    7901.3817    8906.3122    14.689083   -1134.1254    385.86265   -3208.2273 
24244000    257.56856   -4704.7056    -4207.963   -4704.7056            0     7890.075    19.980301    19.856452    20.350924    8073.9822    6423.5207    8551.7709    8694.9332    153.28174    74.149114    383.17508   -3278.9008 
24245000    266.82253   -4687.2956   -4172.7059   -4687.2956            0    10730.549    19.782839    19.804153    20.407744    7995.3946    11221.379    10843.225    10127.043   -703.00873    -1011.937   -1156.7201   -2921.4742 
24246000    266.55855   -4709.5202   -4195.4396   -4709.5202            0    11040.227    19.823205    19.483014    20.628513    7967.0572    10788.128    11585.932    10746.622    202.25421   -1044.4677    386.06101   -2912.6606 
24247000     257.6085   -4716.8166   -4219.9969   -4716.8166            0    10771.795    19.503356    19.963214    20.568606    8008.3802    12133.387    9285.8763    10896.122   -163.64669   -616.00328   -554.46815   -2961.9158 
24248000    248.57034   -4678.5709   -4199.1821   -4678.5709            0    9465.0696     20.12144     19.96917    20.045543    8054.4687    8747.7784    9160.9723    10486.458    560.50468   -742.41517     521.1154   -3087.3567 
24249000    256.09554   -4733.9793   -4240.0775   -4733.9793            0    9470.3477    19.911562    19.868308    20.244166    8008.7756    7537.7994    9429.6783    11443.565    135.05389    -274.8915    -383.1901    -3133.943 
24250000    270.33628   -4687.9344   -4166.5681   -4687.9344            0    11332.163    19.776464    19.535976    20.602699    7959.9049    12882.009    11971.545    9142.9345    945.19837    101.02717   -1254.9888   -2851.0508 
Loop time of 474.021 on 64 procs for 250000 steps with 972 atoms

Performance: 91.135 ns/day, 0.263 hours/ns, 527.403 timesteps/s
99.1% CPU use with 64 MPI tasks x 1 OpenMP threads

MPI task timing breakdown:
Section |  min time  |  avg time  |  max time  |%varavg| %total
---------------------------------------------------------------
Pair    | 21.331     | 29.251     | 38.383     |  79.0 |  6.17
Bond    | 0.26478    | 0.28055    | 0.29591    |   1.0 |  0.06
Kspace  | 196.51     | 206.2      | 219.01     |  41.9 | 43.50
Neigh   | 3.0267     | 3.5177     | 4.2324     |  18.0 |  0.74
Comm    | 99.062     | 108.67     | 116.66     |  44.5 | 22.92
Output  | 1.0727     | 1.0735     | 1.075      |   0.0 |  0.23
Modify  | 116.92     | 118.63     | 120.17     |   7.0 | 25.03
Other   |            | 6.4        |            |       |  1.35

Nlocal:        15.1875 ave          19 max          11 min
Histogram: 1 8 1 15 0 13 8 8 7 3
Nghost:        2335.69 ave        2373 max        2281 min
Histogram: 1 2 3 8 9 6 12 9 6 8
Neighs:        4923.94 ave        6893 max        3439 min
Histogram: 2 8 11 6 15 7 9 2 2 2

Total # of neighbors = 315132
Ave neighs/atom = 324.20988
Ave special neighs/atom = 2.0000000
Neighbor list builds = 7381
Dangerous builds = 0

unfix		3
unfix		2
unfix		1

write_data	data.final.${pid}
write_data	data.final.0
System init for write_data ...
PPPM initialization ...
  extracting TIP4P info from pair style
  using 12-bit tables for long-range coulomb (../kspace.cpp:340)
  G vector (1/distance) = 0.37235396
  grid = 24 24 24
  stencil order = 5
  estimated absolute RMS force accuracy = 0.0034933612
  estimated relative force accuracy = 1.0520154e-05
  using double precision FFTW3
  3d grid and FFT values/proc = 2197 216
Last active /omp style is kspace_style pppm/tip4p/omp
WARNING: Not all mixed pair coeffs generated from mixing. Use write_data with 'pair ij' option to store all pair coeffs. (../write_data.cpp:312)

write_restart   restart.lmp.${pid}
write_restart   restart.lmp.0
System init for write_restart ...
PPPM initialization ...
  extracting TIP4P info from pair style
  using 12-bit tables for long-range coulomb (../kspace.cpp:340)
  G vector (1/distance) = 0.37235396
  grid = 24 24 24
  stencil order = 5
  estimated absolute RMS force accuracy = 0.0034933612
  estimated relative force accuracy = 1.0520154e-05
  using double precision FFTW3
  3d grid and FFT values/proc = 2197 216
Last active /omp style is kspace_style pppm/tip4p/omp
Total wall time: 0:07:57
