#include		in.partitions
include		in.temp
variable        temperature equal 262.12
variable	tempDamp equal 100.0
include		in.pressure
variable        pressure equal 7625.0
variable        pressureDamp equal 1000.0 # This is 1 ps
include		in.seed
variable        seed equal 745823

units		real
atom_style	full
read_restart	restart.lmp.${pid}
read_restart	restart.lmp.1
Reading restart file ...
  restart file = 30 Jul 2021, LAMMPS = 30 Jul 2021
  restoring atom style full from restart
  orthogonal box = (0.59893871 1.7970020 0.73070382) to (17.608634 21.832176 21.482492)
  2 by 4 by 4 MPI processor grid
  restoring pair style lj/cut/tip4p/long/omp from restart
  restoring bond style harmonic/omp from restart
  restoring angle style harmonic/omp from restart
  864 atoms
  576 bonds
  288 angles
Finding 1-2 1-3 1-4 neighbors ...
  special bond factors lj:    0        0        0       
  special bond factors coul:  0        0        0       
     2 = max # of 1-2 neighbors
     1 = max # of 1-3 neighbors
     1 = max # of 1-4 neighbors
     2 = max # of special neighbors
  special bonds CPU = 0.003 seconds
  read_restart CPU = 0.008 seconds
include 	in.setup
variable	out_freq equal 1000
variable	out_freq2 equal 10000
variable	out_freq3 equal 1000

timestep	2.0

neigh_modify    delay 7 every 1

include		in.tip4p
# This is TIP4P/Ice

# create groups ###
group ox type 2
288 atoms in group ox
group hy type 1
576 atoms in group hy

# set charges - beside manually ###
set group ox charge -1.1794
Setting atom values ...
  288 settings made for charge
set group hy charge 0.5897
Setting atom values ...
  576 settings made for charge

# ### TIP3P Potential Parameters ###
pair_style lj/cut/tip4p/long/omp 2 1 1 1 0.1577 8.5
pair_coeff 1 1*2 0.000 0.000
pair_coeff 2 2 0.21084 3.1668
bond_style  harmonic
bond_coeff  1 450 0.9572
angle_style harmonic
angle_coeff 1 55 104.52
kspace_style pppm/tip4p/omp 1.0e-5
pair_modify tail yes

thermo          ${out_freq}
thermo          1000
thermo_style    custom step temp pe etotal epair emol press lx ly lz vol pxx pyy pzz pxy pxz pyz enthalpy

restart 	${out_freq3} restart.lmp.${pid} restart2.lmp.${pid}
restart 	1000 restart.lmp.${pid} restart2.lmp.${pid}
restart 	1000 restart.lmp.1 restart2.lmp.${pid}
restart 	1000 restart.lmp.1 restart2.lmp.1


include         in.dump
dump            myDump all atom ${out_freq2} dump.water.${pid}
dump            myDump all atom 10000 dump.water.${pid}
dump            myDump all atom 10000 dump.water.1
dump            myDump2 all dcd ${out_freq2} dump.dcd
dump            myDump2 all dcd 10000 dump.dcd
dump_modify     myDump append yes
dump_modify     myDump2 append yes


variable natoms 	equal  "count(all)"                        # NUMBER ATOMS
variable H      	equal  "enthalpy/v_natoms"                 # ENTHALPY-per-atom
variable Vol      	equal  "vol/v_natoms"                 # volume-per-atom
fix AVG all 		ave/time ${out_freq} 1 ${out_freq} v_Vol v_H file vol_enthalpy.dat
fix AVG all 		ave/time 1000 1 ${out_freq} v_Vol v_H file vol_enthalpy.dat
fix AVG all 		ave/time 1000 1 1000 v_Vol v_H file vol_enthalpy.dat


timer           timeout 23:50:00 every 1000
New timer settings: style=normal  mode=nosync  timeout=23:50:00

fix 		1 all shake 1e-6 200 0 b 1 a 1
       0 = # of size 2 clusters
       0 = # of size 3 clusters
       0 = # of size 4 clusters
     288 = # of frozen angles
  find clusters CPU = 0.001 seconds
fix             2 all nph iso ${pressure} ${pressure} ${pressureDamp}
fix             2 all nph iso 7625 ${pressure} ${pressureDamp}
fix             2 all nph iso 7625 7625 ${pressureDamp}
fix             2 all nph iso 7625 7625 1000
fix             3 all temp/csvr ${temperature} ${temperature} ${tempDamp} ${seed}
fix             3 all temp/csvr 262.12 ${temperature} ${tempDamp} ${seed}
fix             3 all temp/csvr 262.12 262.12 ${tempDamp} ${seed}
fix             3 all temp/csvr 262.12 262.12 100 ${seed}
fix             3 all temp/csvr 262.12 262.12 100 745823

run             250000
PPPM initialization ...
  extracting TIP4P info from pair style
  using 12-bit tables for long-range coulomb (../kspace.cpp:340)
  G vector (1/distance) = 0.37409305
  grid = 24 24 24
  stencil order = 5
  estimated absolute RMS force accuracy = 0.0031802867
  estimated relative force accuracy = 9.5773389e-06
  using double precision FFTW3
  3d grid and FFT values/proc = 3549 432
Last active /omp style is kspace_style pppm/tip4p/omp
Neighbor list info ...
  update every 1 steps, delay 7 steps, check yes
  max neighbors/atom: 2000, page size: 100000
  master list distance cutoff = 10.8154
  ghost atom cutoff = 10.8154
  binsize = 5.4077, bins = 4 4 4
  1 neighbor lists, perpetual/occasional/extra = 1 0 0
  (1) pair lj/cut/tip4p/long/omp, perpetual
      attributes: half, newton on, omp
      pair build: half/bin/newton/omp
      stencil: half/bin/3d
      bin: standard
Per MPI rank memory allocation (min/avg/max) = 10.20 | 10.20 | 10.20 Mbytes
Step Temp PotEng TotEng E_pair E_mol Press Lx Ly Lz Volume Pxx Pyy Pzz Pxy Pxz Pyz Enthalpy 
22500000     271.9493    -3833.094   -3366.9823    -3833.094            0      7977.26    17.009695    20.035174    20.751788    7072.0475    8776.4283    7667.9236    7487.4281   -59.818044   -2094.0984    251.15541   -2544.2192 
22501000    267.27032   -3874.4698   -3416.3776   -3874.4698            0    5465.5457    17.073681    20.110541    20.829851    7152.1579    5748.7392    5318.7855    5329.1125    1133.7483   -1031.6182   -1161.0944   -2846.2835 
22502000    259.32385   -3870.0689   -3425.5967   -3870.0689            0    9178.0425    17.048775    20.081205    20.799465    7120.9037    8385.8493    9366.9231    9781.3552   -752.25752   -925.86529   -1145.8548   -2472.4471 
22503000    269.78743   -3882.9989   -3420.5925   -3882.9989            0    7738.7053    17.072409    20.109043    20.828299    7150.5593    8689.0628    6686.7219    7840.3313   -232.09195    1076.1967   -1085.6196   -2613.5726 
22504000    241.50703   -3881.0195   -3467.0847   -3881.0195            0    5274.8228    17.084379    20.123142    20.842903    7165.6106    7627.0376    5016.2971    3181.1338    -1555.487    1103.0078     1698.512   -2915.8495 
22505000    263.47356   -3844.3714   -3392.7868   -3844.3714            0    7346.0237    17.056624     20.09045    20.809041    7130.7432    6622.0343    7913.5707     7502.466     -859.716   -1067.1725    72.252519   -2628.8402 
22506000    272.23316   -3836.2342   -3369.6359   -3836.2342            0    8372.3888     16.97235    19.991187    20.706228    7025.5699    8959.8897    10146.111    6011.1651   -2061.5899   -1743.0105   -991.74846   -2511.7949 
22507000    263.08906   -3862.9149   -3411.9892   -3862.9149            0    7720.3598    16.996919    20.020126    20.736202    7056.1244    8915.3416    5376.3677    8869.3701   -276.27573   -61.088877    -571.1614   -2617.5153 
22508000    269.87766   -3854.7095   -3392.1484   -3854.7095            0    8130.6597    17.008017    20.033197    20.749741    7069.9548    9810.8861    7547.1863    7033.9066   -815.93493    129.55805   -659.90367    -2553.812 
22509000     286.9691    -3858.863   -3367.0078    -3858.863            0    7520.6058    17.027633    20.056303    20.773673    7094.4456    6354.6046    7149.7711    9057.4416    146.98286    648.84468    455.34358   -2588.8867 
22510000    251.88799   -3850.5975   -3418.8701   -3850.5975            0    4409.9658    17.122749    20.168336    20.889714    7213.9985    4423.0623    4235.4643    4571.3709    708.20572   -357.90691    149.86579    -2954.903 
22511000    255.32201   -3877.0374   -3439.4243   -3877.0374            0    7459.5937    17.006267    20.031136    20.747606    7067.7721    6813.0626    6523.4532    9042.2652   -1180.1142   -282.79357   -1745.7816   -2670.5176 
22512000    274.43761   -3853.0654   -3382.6887   -3853.0654            0    7575.1274    16.993374     20.01595    20.731876    7051.7096    7860.2159    7144.6618    7720.5045   -1133.9752     614.5322   -222.23516   -2603.6479 
22513000    258.80865   -3858.3445   -3414.7554   -3858.3445            0    6042.3543    17.011088    20.036815    20.753488     7073.785    5396.5284    7035.3792    5695.1552    687.57258    36.848437     1144.528   -2791.4026 
22514000    255.13598    -3889.458   -3452.1637    -3889.458            0    7554.4596    17.021838    20.049477    20.766603    7087.2043    6848.8224    8689.9984    7124.5578    358.04616   -1416.6782    246.04856   -2671.3377 
22515000    258.11575   -3856.0988   -3413.6972   -3856.0988            0    8991.2642    17.023696    20.051665    20.768869     7089.525    8381.2166    10961.843    7630.7327   -570.02457   -625.23233    113.61306   -2484.0594 
22516000    266.78422   -3883.6417   -3426.3826   -3883.6417            0    6957.3396    16.997008     20.02023     20.73631    7056.2345     7046.325    6333.8071    7491.8867   -336.01079    137.28258    1182.1995   -2710.4171 
22517000    262.58911   -3865.1632   -3415.0944   -3865.1632            0    8881.2759    16.994358    20.017109    20.733077    7052.9353    7852.3617    8427.9804    10363.486   -1503.9406    1672.6296    263.18602   -2501.5679 
22518000     253.0499   -3884.0684   -3450.3495   -3884.0684            0    7286.1703    17.018545    20.045598    20.762585    7083.0915    7280.3596     7939.485    6638.6662   -532.91619   -451.66852   -13.500984   -2697.6909 
22519000    268.31994   -3875.0217   -3415.1305   -3875.0217            0    8536.3104    17.004643    20.029224    20.745625    7065.7482    7741.2717    8097.0871    9770.5725   -193.39529    1660.5776   -102.27124    -2535.492 
22520000    253.66794   -3871.6408   -3436.8627   -3871.6408            0    8360.1951    17.017889    20.044826    20.761785    7082.2732    7652.4753    8448.8124    8979.2975    477.70364   -542.01227   -1677.4688   -2573.3574 
22521000    260.95374   -3890.1392   -3442.8734   -3890.1392            0    8510.6403    16.993999    20.016686    20.732639    7052.4874    8870.0257    8264.5277    8397.3675    48.294138    -1382.785   -571.32327    -2567.526 
22522000    255.37746   -3839.8413   -3402.1331   -3839.8413            0    7712.7643    17.049214    20.081722    20.800002    7121.4544    6257.6929    8231.7636    8648.8365   -806.08656    1812.4079   -1615.7366   -2601.0923 
22523000    246.31124   -3882.6089   -3460.4399   -3882.6089            0    5289.8024    17.060722    20.095277    20.814041    7135.8846    4241.6034    6265.0365    5362.7672   -866.39714   -660.10969   -623.92437   -2909.9325 
22524000    266.44653   -3829.0178   -3372.3376   -3829.0178            0    7968.2142    17.014811    20.041199    20.758029    7078.4302    5675.5796    8951.0701     9277.993   -2564.3369    136.48751    1189.9249   -2549.7657 
22525000    263.24717   -3873.0763   -3421.8797   -3873.0763            0    8150.1281    17.013395    20.039532    20.756302    7076.6634     6367.571    9867.0812    8215.7321   -609.92333    1164.6219    828.52974   -2580.7386 
22526000     273.3637   -3830.0146   -3361.4786   -3830.0146            0    7246.7729    16.985043    20.006137    20.721713    7041.3437    6469.2211    7238.7654    8032.3323   -911.66088   -564.66809     51.99608   -2617.3018 
22527000    269.60079   -3847.8975    -3385.811   -3847.8975            0    9045.2253    16.999983    20.023734    20.739939    7059.9403    9724.8158    8853.7914    8557.0688   -261.02996    1805.3007    488.37457   -2454.4966 
22528000    261.29782   -3895.7742   -3447.9187   -3895.7742            0    8446.8068    17.001651      20.0257    20.741975    7062.0195    7355.5334    6901.5721    11083.315   -1380.5697   -1348.9933    763.08186   -2577.9626 
22529000    257.28578   -3916.3571   -3475.3781   -3916.3571            0    8486.6373    17.009056    20.034422    20.751009    7071.2508    8048.8151    9232.7617     8178.335    23.423754    698.11233    -681.4289   -2600.1771 
22530000    269.45841   -3872.9753   -3411.1328   -3872.9753            0     10184.44    17.022677    20.050465    20.767626    7088.2522    8666.2369    11709.923     10177.16    313.36798    847.44626     247.0732   -2358.3174 
22531000     266.1912   -3854.5238   -3398.2812   -3854.5238            0    6003.2923    17.163108    20.215874    20.938952    7265.1301    6345.7836    4341.1018    7322.9914   -291.94429   -364.07198   -1537.7656   -2762.2056 
22532000    253.78562   -3837.4246   -3402.4447   -3837.4246            0    8008.0147     17.04419    20.075805    20.793872    7115.1606    5980.5626    8053.6145    9989.8672   -349.72745    575.52254    1119.3009   -2571.4745 
22533000    261.98798   -3851.8397   -3402.8013   -3851.8397            0     8573.784    17.059615    20.093973     20.81269    7134.4952    8332.0877    8615.6955    8773.5687    629.04081    1762.2089    21.536295   -2510.7051 
22534000    254.79155    -3875.891   -3439.1869    -3875.891            0     6741.066    17.031386    20.060723    20.778251    7099.1375     6176.626    7019.6873    7026.8845   -602.98243    339.30911    636.32972   -2741.2599 
22535000    262.19585    -3905.798   -3456.4033    -3905.798            0    5378.9396    17.062349    20.097194    20.816026    7137.9264    5201.5064    4145.6067    6789.7056    452.79079    636.86408    1680.2243   -2896.4593 
22536000    246.05496   -3852.9915   -3431.2617   -3852.9915            0    7317.7622    17.034621    20.064533    20.782198    7103.1832    7511.4461    8081.4302    6360.4103   -1031.3603   -559.83019   -464.94009   -2673.1954 
22537000    269.16627   -3851.1133   -3389.7715   -3851.1133            0    7298.4597    16.995849    20.018865    20.734896    7054.7913    6989.1331    5957.2054    8949.0406   -499.00433   -99.526484   -1890.4194   -2638.8557 
22538000    261.62723   -3832.4901     -3384.07   -3832.4901            0    7278.8437    17.044199    20.075816    20.793884    7115.1722    6161.5232    6752.8538     8922.154   -1147.0915   -1511.1401    925.82716   -2628.7627 
22539000    262.69838   -3847.5227   -3397.2667   -3847.5227            0    9727.3518    17.035204     20.06522    20.782909    7103.9123    10004.322    10365.202    8812.5311    669.85196    745.85454    1969.9959   -2389.4812 
22540000    251.46935   -3851.2187   -3420.2089   -3851.2187            0    6881.9097     17.07904    20.116853    20.836389    7158.8944    5544.7903     7779.095    7321.8439    1443.8837    664.18264    798.99776   -2701.7022 
22541000    251.35382   -3868.2535   -3437.4417   -3868.2535            0    9042.7462    17.059021    20.093274    20.811966    7133.7504    10747.006    7224.6493     9156.583   -1360.4976    76.179446    258.86044   -2496.6485 
22542000    269.26918   -3910.1663   -3448.6481   -3910.1663            0    7486.9683    17.108132     20.15112    20.871881    7195.5395    7451.5488    6917.3886    8091.9676   -377.79725    960.12248    539.87565   -2662.9689 
22543000    257.89533   -3848.0054   -3405.9817   -3848.0054            0    6396.7923     17.08178    20.120081    20.839732    7162.3405    6032.1506    5626.6098    7531.6165   -588.63522    1851.9913     311.5355   -2737.8022 
22544000    259.64315   -3894.3025   -3449.2831   -3894.3025            0    7181.5747      17.1084    20.151435    20.872208    7195.8777    6955.0874    8213.7886     6375.848     138.0373    1753.4608    97.236385   -2695.6163 
22545000    261.66934    -3932.447   -3483.9547    -3932.447            0    7253.8179    17.085788    20.124801    20.844621    7167.3832    8174.9922    5166.7898    8419.6718   -505.03791   -104.91664    139.94365   -2725.7208 
22546000    267.54301   -3871.5409   -3412.9814   -3871.5409            0    5762.7624    17.087791     20.12716    20.847065    7169.9039    5761.9558    6617.7246    4908.6069    236.53215   -28.849958     1210.284   -2810.3941 
22547000    266.07201   -3879.2305   -3423.1922   -3879.2305            0    7616.4794    17.045037    20.076803    20.794906    7116.2216    6820.4316    7337.2126    8691.7941    1620.6822    232.35659    756.60644   -2632.7327 
22548000    269.41834    -3853.603   -3391.8292    -3853.603            0    9421.3389    17.030103    20.059212    20.776686     7097.533    9562.9184    9893.7436    8807.3547    -1199.991   -2320.7922    151.95316   -2416.6242 
22549000    266.88491   -3828.2762   -3370.8446   -3828.2762            0    9270.4946    17.017732     20.04464    20.761593    7082.0764     9199.242    10852.957    7759.2848    464.76024    521.83255    385.21694   -2413.3433 
22550000    273.65205   -3877.8125   -3408.7822   -3877.8125            0    7493.9586    16.979228    19.999288    20.714618    7034.1139    7794.2862    6363.3514     8324.238    410.40031     490.5183    1340.8014    -2640.012 
22551000    266.01597   -3837.5801   -3381.6379   -3837.5801            0    7688.9987    17.051498    20.084412    20.802788    7124.3165    8066.3878    8594.6393    6405.9689   -443.10694   -338.03609   -941.63543   -2582.7444 
22552000    260.49966   -3856.6546   -3410.1671   -3856.6546            0    8854.4373    16.959908    19.976531    20.691048    7010.1293    8090.9979    8656.7732    9815.5409   -1322.1205    1909.4313    477.59773   -2504.9288 
22553000    260.80251   -3906.7625   -3459.7559   -3906.7625            0    7186.4294    17.059648    20.094012    20.812731     7134.537     6859.486    6835.1148    7864.6874   -1072.0206   -966.34781    1368.6014   -2712.0087 
22554000    273.53961   -3891.8359   -3422.9984   -3891.8359            0    7715.0411    17.081509    20.119761    20.839401    7161.9992    7716.7681    6385.7148    9042.6405   -1388.6152    222.52138   -1125.1939   -2617.1591 
22555000     258.3253   -3882.9168   -3440.1561   -3882.9168            0    8742.3943    17.016135     20.04276    20.759645    7080.0834    9247.6439     7636.168    9343.3712   -233.65065   -798.84533     1188.592   -2537.4536 
22556000     274.0102   -3851.7347   -3382.0906   -3851.7347            0    9374.4056    17.027694    20.056374    20.773747    7094.5213    9843.9038    7751.2294    10528.084   -2696.8272   -1527.6022     -595.207   -2412.1554 
22557000    260.85798   -3863.8943   -3416.7926   -3863.8943            0    8216.0798    17.002814    20.027069    20.743393    7063.4683    9397.3509    5229.7028    10021.186   -975.64346   -1485.2795    643.94622    -2570.426 
22558000    265.31226   -3882.3627   -3427.6265   -3882.3627            0    4890.7694    17.122666    20.168239    20.889613    7213.8944    5828.7086    3330.1603    5513.4392   -392.65189    1127.9833    159.78997   -2913.0821 
22559000    271.15466   -3860.0425   -3395.2927   -3860.0425            0    8884.9319    17.070872    20.107232    20.826424    7148.6278    8601.9264    8689.0995    9363.7697    19.568783    484.28215    643.22053   -2468.9906 
22560000    270.45768   -3914.4943   -3450.9391   -3914.4943            0    7738.8207    17.067553    20.103323    20.822375    7144.4594    6766.4741     9562.143     6887.845   -160.94086   -1150.9818   -591.46126   -2644.5957 
22561000    268.06177   -3889.9375   -3430.4888   -3889.9375            0    7410.4895    17.200677    20.260125    20.984785    7312.9431    7687.9993    6710.3317    7833.1374    344.26517     213.4364     -2195.23   -2640.1469 
22562000    267.12368   -3870.6507   -3412.8099   -3870.6507            0    6011.0978    17.125393    20.171451    20.892939    7217.3408    5685.1688    6107.3131    6240.8114   -524.94771    653.02651    787.59548   -2780.0967 
22563000     270.7379   -3834.4927   -3370.4572   -3834.4927            0    7618.9888    17.066035    20.101535    20.820522    7142.5528    5857.3398    7593.4977    9406.1288   -1130.6537    -822.7309    1307.6074   -2576.8115 
22564000     253.9366   -3832.9695   -3397.7309   -3832.9695            0    7677.2459    17.043353    20.074819    20.792851    7114.1123    8221.5379     7479.297    7330.9028    940.87965    65.433668    1662.8605    -2601.201 
22565000    254.86347   -3904.3317   -3467.5045   -3904.3317            0    6118.6694    17.179871    20.235619    20.959403    7286.4383     4760.665    5734.7086    7860.6346   -572.45246   -461.00487    1010.4508   -2817.3027 
22566000    264.19471   -3845.6575   -3392.8368   -3845.6575            0    7644.9952    17.122474    20.168013    20.889379    7213.6514    6574.6428    5712.2266    10648.116    145.44368    633.71745   -523.31597   -2588.5549 
22567000    250.03101   -3876.7452   -3448.2006   -3876.7452            0    6293.1121    17.147166    20.197097    20.919503    7244.9045    7949.9345    4935.3302    5994.0715    95.823368    72.252608    207.18205   -2783.2735 
22568000    259.50886   -3848.1914   -3403.4021   -3848.1914            0    7731.8586     17.07508    20.112189    20.831557    7153.9157    7887.4952    7903.5107    7404.5699    30.567806      373.036    1401.6042   -2596.7178 
22569000    247.93071   -3887.2422   -3462.2974   -3887.2422            0    7250.7606    17.059994    20.094419    20.813153    7134.9707    7106.4577    8781.5586    5864.2654    662.17528    786.61578    -1034.877   -2707.8106 
22570000    260.64031   -3861.5981   -3414.8695   -3861.5981            0    7983.4684    17.068672     20.10464    20.823739    7145.8641    7414.4024    8721.0992    7814.9037   -219.56711   -432.54312   -671.15983   -2582.8716 
22571000    257.43364   -3865.9954   -3424.7629   -3865.9954            0    10227.379    16.977939    19.997769    20.713045    7032.5117    10182.265    9505.9882    10993.883     302.1793    1026.3692   -441.85652   -2375.8228 
22572000    279.82681   -3824.2754   -3344.6618   -3824.2754            0    7180.8647    17.008286    20.033514    20.750069    7070.2904    7646.2784    6639.4854    7256.8304    614.36223    1506.8425    659.85126   -2604.2218 
22573000    245.02018   -3867.9564   -3448.0002   -3867.9564            0    8505.8224    17.013725    20.039921    20.756705    7077.0753     8603.381    8086.3385    8827.7477    13.354915   -166.01334    213.14957   -2570.0983 
22574000    272.96858   -3896.2137   -3428.3549   -3896.2137            0    7047.7755    17.058869    20.093094     20.81178    7133.5595    7302.3168    6827.5036    7013.5062   -1878.3676   -445.32602   -499.98725    -2695.135 
22575000    256.11268   -3863.9993    -3425.031   -3863.9993            0    7712.3148    17.074777    20.111831    20.831188    7153.5346    7013.6325    9619.3315    6503.9803   -564.08543    30.601601    243.53332   -2620.4286 
22576000    248.37703   -3834.8995   -3409.1897   -3834.8995            0    7683.0908    17.057016    20.090912     20.80952    7131.2352    9615.1123    8782.4107    4651.7494   -1290.7255    973.70472   -1888.2795   -2610.1348 
22577000    262.58422   -3882.8093    -3432.749   -3882.8093            0    7049.4901    17.129352    20.176114     20.89777    7222.3481     5122.955    10258.134    5767.3811    456.09262   -864.47315   -156.18356   -2690.2224 
22578000    287.33497   -3870.9002   -3378.4179   -3870.9002            0    6665.5193    17.146708    20.196558    20.918944    7244.3241    7651.6642    4864.8206    7480.0731   -925.66242   -851.75877   -746.23483   -2674.1989 
22579000    272.65893    -3902.938     -3435.61    -3902.938            0    7113.0238    17.057518    20.091503    20.810132    7131.8652    6530.2796    6323.1058    8485.6859   -484.04913     182.5559    -677.2936   -2695.7777 
22580000    276.07972   -3842.7953   -3369.6041   -3842.7953            0    8214.6684    17.019013    20.046149    20.763156    7083.6756     8958.049    6432.0604    9253.8958   -841.52113    786.20688   -831.11637    -2520.962 
22581000    250.63746   -3844.5011   -3414.9171   -3844.5011            0    7244.9578    17.038775    20.069426    20.787265    7108.3807    8816.2616    5928.0051    6990.6066    364.95127   -180.42847   -1756.9623   -2663.8436 
22582000    257.34129   -3878.7158   -3437.6416   -3878.7158            0    6786.4303    17.059712    20.094087    20.812809    7134.6172     5250.233    5757.2957    9351.7624   -814.41022     1136.111   -440.14071   -2731.5063 
22583000    256.74866    -3886.613   -3446.5546    -3886.613            0    6459.4126    17.054363    20.087787    20.806283    7127.9079    6934.1194    6312.7303    6131.3881   -233.08591   -1128.8529    60.717225   -2775.0778 
22584000     282.5581   -3874.9482   -3390.6533   -3874.9482            0    6046.1629    17.063165    20.098155    20.817022    7138.9507    5421.4398    7493.3104    5223.7385   -777.34371    -336.2815    -450.6666   -2761.1614 
22585000    270.65727   -3901.3531   -3437.4558   -3901.3531            0    7226.3656    16.993233    20.015783    20.731704    7051.5338    7617.6377    9371.4816    4689.9775   -80.722302   -362.39889    -445.8638   -2694.3008 
22586000    266.81757   -3888.2781   -3430.9619   -3888.2781            0    6852.4409    17.062788     20.09771    20.816562    7138.4772     6583.344    7852.8249    6121.1538    435.38129    1066.6665    1149.5134   -2717.5723 
22587000    259.45215   -3880.2192   -3435.5271   -3880.2192            0    9033.5814    17.017709    20.044614    20.761566    7082.0484    7644.7642    8791.1948    10664.785   -87.679963   -458.63447    1166.6195    -2502.499 
22588000    268.55217   -3847.5714   -3387.2822   -3847.5714            0    6429.0971    17.142026    20.191043    20.913232    7238.3912    6505.6736    7566.2189    5215.3986    639.94791    -380.6568   -75.845854   -2708.5977 
22589000    263.74533   -3942.3805     -3490.33   -3942.3805            0    7693.1217    17.154048    20.205203    20.927899    7253.6313    6006.2441    9532.7259    7540.3952     1336.161   -762.25123    601.63293   -2676.4995 
22590000     266.0976   -3906.8506   -3450.7684   -3906.8506            0    5876.8948    17.163286    20.216084    20.939169    7265.3565    7640.3537    5210.1284    4780.2023    388.62459   -1259.0109    737.20973   -2828.0658 
22591000    263.42325   -3924.8903   -3473.3918   -3924.8903            0    4715.2648    17.103181    20.145288    20.865841    7189.2946    5062.4286    2723.7477    6359.6182    166.88029   -963.01829    71.404549   -2979.0035 
22592000     277.6235   -3891.5111   -3415.6739   -3891.5111            0    9131.4766    17.010761    20.036429    20.753088    7073.3766    8338.8304    8998.5112    10057.088    23.854272    539.32484   -178.31694   -2473.6895 
22593000    250.87452   -3905.4919   -3475.5015   -3905.4919            0    7009.3109    17.063884    20.099002    20.817899    7139.8533    7577.9297    5974.4296    7475.5734    1218.3429   -592.23031   -718.62907   -2745.6399 
22594000    269.52363   -3906.7511   -3444.7968   -3906.7511            0    7514.0689    16.988425     20.01012    20.725839    7045.5504    9028.2739    7011.2055    6502.7273   -834.98037    133.08434     381.6704   -2672.7102 
22595000    271.94493   -3930.5427   -3464.4384   -3930.5427            0    7229.9604    17.021703    20.049318    20.766438    7087.0359    7884.4031    5833.0404    7972.4378   -728.51501    -877.5327   -644.31067   -2717.1703 
22596000    279.96441    -3890.906   -3411.0566    -3890.906            0    6905.8176    17.065385    20.100769     20.81973     7141.737    7297.7541    6202.8961    7216.8026   -115.52008   -616.77912     2282.887   -2691.7818 
22597000    269.49983   -3877.3886   -3415.4752   -3877.3886            0    5438.3267    17.058506    20.092667    20.811338    7133.1045    6373.0086    4704.9662    5237.0052    1064.8544   -231.92855     357.7979   -2849.7314 
22598000    251.89949   -3879.7107   -3447.9636   -3879.7107            0    7882.3334    17.049918    20.082551     20.80086    7122.3361    7560.1588    7511.2879    8575.5536    695.27857    367.56089    947.94466   -2629.2101 
22599000     260.5687   -3868.7237   -3422.1179   -3868.7237            0    7103.6162    17.097363    20.138435    20.858743    7181.9599    6000.2367    8564.8844    6745.7276    886.75653   -86.136971   -988.50081   -2678.0743 
22600000    257.11735   -3862.1113   -3421.4209   -3862.1113            0    6964.2604    17.107548    20.150432    20.871169     7194.803    5718.3202    7417.4845    7756.9765    1837.4926    864.13749   -670.95331   -2690.6693 
22601000    256.56568   -3879.5606   -3439.8159   -3879.5606            0    5942.6423    17.098781    20.140106    20.860473    7183.7478     6031.375    4846.2866    6950.2653    906.15979   -1393.6084    1520.7935   -2817.2195 
22602000    255.75918   -3807.7918   -3369.4293   -3807.7918            0    6156.9445    17.150906    20.201502    20.924065    7249.6455    5740.7319     5239.456    7490.6457    751.15554     383.3675   -488.26828   -2718.4639 
22603000    266.64252   -3822.1044   -3365.0882   -3822.1044            0    7765.2858    17.109911    20.153215    20.874051    7197.7841    8127.2788    6692.1919    8476.3867    871.94823    150.12217   -1317.1282   -2549.9483 
22604000    258.27226   -3829.6766   -3387.0068   -3829.6766            0    7267.7241      17.0702    20.106441    20.825605    7147.7845    6881.9695    7557.8772    7363.3257   -655.82237   -532.89133    572.70998   -2629.3966 
22605000    267.27052   -3823.6671   -3365.5746   -3823.6671            0    8688.2638    17.047317    20.079488    20.797687    7119.0777    8473.6143    9421.9081    8169.2691   -606.21647   -1043.8417   -1073.7761   -2463.5204 
22606000    256.42741   -3870.0959   -3430.5881   -3870.0959            0    6233.6725    17.042729    20.074083    20.792089    7113.3306    7283.4736    6508.7052    4908.8386    1214.3001   -1116.4086    353.23521    -2783.903 
22607000    258.60948   -3853.0234   -3409.7756   -3853.0234            0    6253.0715    17.010887    20.036578    20.753243    7073.5349    6142.9723    7932.1139    4684.1282    635.20642    1411.0547    232.82931   -2764.7072 
22608000    264.13095   -3842.1552   -3389.4438   -3842.1552            0    6261.8783    17.071669    20.108171    20.827396    7149.6291    6387.1949    5122.9773    7275.4626   -515.70668    -1384.628    -317.9363   -2736.5177 
22609000    250.43827   -3840.5095   -3411.2668   -3840.5095            0    6037.0664    17.064277    20.099464    20.818378    7140.3457    5692.1266    7528.6074    4890.4652   -285.12163    1483.0381    113.45436   -2782.5992 
22610000    258.33391   -3863.5267   -3420.7512   -3863.5267            0    6539.6051    17.051693    20.084642    20.803026     7124.561    7335.5113    6777.7615    5505.5424    -2.678506   -497.75942    347.13995   -2741.2574 
22611000    264.68516   -3837.7048   -3384.0435   -3837.7048            0    8226.3067    16.969363    19.987668    20.702583    7021.8608     11318.46    7046.8689    6313.5909   -848.35304   -153.72069   -1063.9608   -2541.6151 
22612000    268.34963   -3847.7774   -3387.8353   -3847.7774            0    5709.7306    17.058162    20.092262    20.810918     7132.673    5449.8525    5958.7077    5720.6315    385.87753    2190.7379   -1088.9174   -2793.8936 
22613000    273.54132   -3879.5336   -3410.6931   -3879.5336            0    6743.7443    17.014435    20.040757    20.757571    7077.9611    7853.2765    4189.1136    8188.8429    1598.7365   -683.67176   -429.30376   -2714.5715 
22614000    266.76821   -3838.7081   -3381.4765   -3838.7081            0    6526.4677    17.096972    20.137974    20.858265    7181.4667    5684.6879    5023.1673    8871.5478    613.45507     775.7887    -963.9671   -2697.9313 
22615000    267.13776   -3855.2429   -3397.3779   -3855.2429            0    6810.0594    17.075561    20.112755    20.832144      7154.52    5268.2855    7148.1841    8013.7085    128.20479   -344.08213    615.19306   -2686.8073 
22616000    246.13281   -3840.8615   -3418.9983   -3840.8615            0    9278.4169    17.025013    20.053217    20.770477    7091.1714    12673.436     8125.142    7036.6727   -1401.0525    771.49908    130.68801    -2459.448 
22617000     262.3525   -3894.9213   -3445.2581   -3894.9213            0    5707.4861    17.096163    20.137022    20.857279    7180.4483    4680.0741     8833.574    3608.8102     602.5912   -43.516275    422.01612   -2847.5732 
22618000    263.46783   -3887.5669   -3435.9921   -3887.5669            0     8733.771     17.06309    20.098066     20.81693    7138.8561    9299.1229    9095.1305    7807.0598    107.31216    690.22553    249.90368   -2526.6939 
22619000    266.93708    -3877.686    -3420.165    -3877.686            0    8551.5558    17.065883    20.101356    20.820337    7142.3624    8569.5659    8518.5017    8566.5997     64.84195    542.15725    1776.3732   -2529.4005 
22620000    254.52836   -3865.4155   -3429.1626   -3865.4155            0    6090.0219    17.071536    20.108014    20.827234    7149.4623    7247.4675    6460.8643    4561.7339    505.83322   -246.13366    275.71358   -2794.1708 
22621000    264.28901   -3882.5772   -3429.5949   -3882.5772            0    6807.2029    17.101907    20.143787    20.864286    7187.6876    8666.6105    6268.0945    5486.9035   -233.11511    648.26797    802.35409   -2716.0295 
22622000    271.08352   -3832.1709    -3367.543   -3832.1709            0    7222.9727    17.114592    20.158729    20.879762    7203.6938    7879.6851    6992.6821    6796.5511    354.19795    705.75138    404.04319   -2608.7084 
22623000    248.04454   -3840.0276   -3414.8878   -3840.0276            0    8207.6271    17.061765    20.096506    20.815313    7137.1933    10050.806    6653.5305    7918.5443    1783.1383    1124.2737    646.69961    -2560.567 
22624000    274.97586   -3870.0448   -3398.7455   -3870.0448            0    4970.9504    17.076373    20.113712    20.833135    7155.5415    4786.4855    4329.7775    5796.5881    621.66219    45.423088    1445.0696   -2879.9959 
22625000    280.89057   -3883.7715   -3402.3347   -3883.7715            0    7316.5261    17.108186    20.151183    20.871947    7195.6075    8715.1496     8273.701    4960.7277    -1171.084   -689.18428    1017.1804   -2634.5344 
22626000     265.6997   -3906.0914   -3450.6912   -3906.0914            0    7306.6537    17.051755    20.084715    20.803101    7124.6382    5776.7971    8243.9816    7899.1825    230.18455    -981.5317   -43.379609   -2691.4894 
22627000    260.72471   -3845.2539   -3398.3806   -3845.2539            0    9703.6423    16.988813    20.010578    20.726312    7046.0335    10456.687     10390.34    8263.8997    992.96174   -1058.2959    1089.4414   -2401.2424 
22628000    265.20506   -3872.9713   -3418.4189   -3872.9713            0    7512.6786     17.04215    20.073402    20.791384    7112.6064    7211.5745    7695.8857    7630.5756    71.221332   -1492.9081    1682.4075   -2639.1283 
22629000    280.41639   -3871.2267   -3390.6026   -3871.2267            0    6824.3014    17.082227    20.120608    20.840278    7162.9034    5799.2148    5952.9807    8720.7088   -151.40951    1311.6291    152.62216   -2677.7115 
22630000    253.73312   -3875.7432   -3440.8534   -3875.7432            0    7038.6048    17.008452     20.03371    20.750272    7070.4974    4087.3665    8293.9221    8734.5257   -813.29855    680.67239    526.33499   -2715.0609 
22631000    255.79871   -3908.0011   -3469.5708   -3908.0011            0    8749.4326    17.014995    20.041416    20.758254      7078.66     8700.965    10202.396    7344.9367    1136.4007   -985.28744    -752.7365   -2566.3232 
22632000    267.72408   -3867.6364   -3408.7665   -3867.6364            0     8460.009    17.028515    20.057341    20.774749    7095.5476    8707.0106    7974.5982    8698.4182   -491.78409    376.34804     107.6105   -2533.3139 
22633000    263.80631   -3903.1472   -3450.9922   -3903.1472            0    5109.8342    17.142105    20.191135    20.913328    7238.4907    5828.2713    4004.5719    5496.6594    1824.4262    284.63792   -1337.6947   -2911.5676 
22634000    260.86735   -3914.9652   -3467.8475   -3914.9652            0    5670.3245    17.137268    20.185438    20.907426    7232.3648    6009.5114    5997.7762    5003.6859    1056.7346    1599.8026    1595.2121   -2869.7608 
22635000    252.63445   -3881.7041   -3448.6972   -3881.7041            0    6396.7257    17.002791    20.027042    20.743366    7063.4401    4969.8065    7954.6988    6265.6719    836.66326    873.41703    15.058309   -2789.7512 
22636000    260.42501   -3853.3954   -3407.0358   -3853.3954            0    9590.6342    17.002571    20.026783    20.743097    7063.1652    9110.9544    9611.7776    10049.171    503.44623    188.28636   -729.48056    -2419.114 
22637000    249.54517   -3862.4821   -3434.7702   -3862.4821            0    7993.0713    17.052012    20.085018    20.803415    7124.9608    7084.0341    7887.7072    9007.4726   -1238.4502   -1113.0224     1736.138   -2604.2082 
22638000    271.74228   -3883.6336   -3417.8766   -3883.6336            0    8469.0004    17.037465    20.067883    20.785667    7106.7412    7456.6023     8338.617    9611.7819   -1667.8366   -494.46463     1609.937   -2540.1111 
22639000    248.69612   -3886.8604   -3460.6037   -3886.8604            0    5682.2496    17.052777    20.085919    20.804348    7125.9198    5166.7868    6142.4707    5737.4912   -415.54043    818.57001    -847.1618   -2870.0803 
22640000    264.81948   -3853.3883   -3399.4967   -3853.3883            0    5698.4836    17.110845    20.154316    20.875192    7198.9639    5322.6426     4429.635    7343.1733    380.59103    641.59741    1651.8814   -2801.2157 
22641000    261.57425   -3880.0988   -3431.7695   -3880.0988            0    8203.9644    17.053634    20.086928    20.805393    7126.9936     7758.071    7490.0308    9363.7915    -203.4471    939.12336    1042.0001   -2579.0503 
22642000    264.21943   -3854.6726   -3401.8095   -3854.6726            0    7665.5883    17.038621    20.069245    20.787078    7108.1888    7604.2319    7747.4406    7645.0924   -968.05186    467.64312   -1275.6837   -2607.1514 
22643000    245.90245    -3852.996   -3431.5276    -3852.996            0    6388.8198    17.061659     20.09638    20.815184    7137.0596    6093.4908    7124.9042    5948.0644    717.48694    272.65676    1335.5093   -2766.5365 
22644000     257.7436   -3854.9026   -3413.1389   -3854.9026            0    6463.1407    17.025504    20.053795    20.771075    7091.7844    6385.4018    4715.7738    8288.2465   -327.33406    350.36044   -216.57691   -2744.6795 
22645000    268.49612   -3857.1912   -3396.9981   -3857.1912            0     5176.928    17.066915    20.102571    20.821596    7143.6576     4230.609    4397.2313    6902.9437   -650.71655    533.11778    556.32199   -2857.6506 
22646000    253.42184   -3899.9613   -3465.6049   -3899.9613            0    8025.8988    17.065422    20.100813    20.819775    7141.7838    4736.8722    7900.5738     11440.25   -34.402061    109.18139    1201.6445   -2629.6627 
22647000    246.63388   -3886.2743   -3463.5523   -3886.2743            0    7143.5079    17.079513     20.11741    20.836966    7159.4888    6180.9772    6832.3589    8417.1877    126.77965   -1172.4839    841.15704   -2717.6715 
22648000    254.74636    -3880.447   -3443.8205    -3880.447            0    6410.7193    17.049006    20.081477    20.799747    7121.1934    7104.8043    5375.2914    6752.0623    997.78506   -314.12486   -305.09963   -2778.0333 
22649000    272.71088     -3828.11   -3360.6929     -3828.11            0    8410.7041    17.008605     20.03389    20.750458    7070.6881     8265.652    8629.9283    8336.5319    45.026489    755.00335    537.19531   -2493.3917 
22650000    261.68202   -3885.4253   -3436.9112   -3885.4253            0    8682.1819    17.006735    20.031687    20.748177    7068.3559    10846.128    8708.3887    6492.0287    162.65139    1088.1578   -342.23857   -2541.9109 
22651000     259.3372   -3834.0625   -3389.5675   -3834.0625            0     8588.892    17.068295    20.104197     20.82328    7145.3916    9048.4703    9186.0309    7532.1748    692.51184   -1180.8917    1282.1455   -2494.5344 
22652000    247.32673   -3867.6478   -3443.7382   -3867.6478            0    9639.4744    17.036107    20.066284    20.784011    7105.0422    10301.615    11595.261     7021.548    1075.0952    2050.4102    1503.3378   -2444.8982 
22653000    264.52714   -3874.6893   -3421.2989   -3874.6893            0    7105.4518    17.041795    20.072984     20.79095    7112.1616    8877.4703    6013.9568    6424.9282   -1378.3058    2107.2095   -1308.0861   -2684.2959 
22654000    257.05237   -3871.7939    -3431.215   -3871.7939            0      10142.6    16.924757    19.935128    20.648163    6966.6322    9822.7633    10197.121    10407.916   -428.80737    50.014741     34.02959   -2400.7148 
22655000    259.53731   -3858.6342   -3413.7961   -3858.6342            0    6970.5977    16.986432    20.007773    20.723407     7043.071    7729.3565    6368.8354    6813.6013   -218.82255   -380.43307    1146.9663   -2697.8045 
22656000    245.40351   -3895.6091   -3474.9959   -3895.6091            0    6323.0958    16.987476    20.009003    20.724681    7044.3701    7575.1775    6392.0769     5002.033    -453.3292    1772.3756   -193.22117   -2825.3932 
22657000    267.73508   -3901.8023   -3442.9136   -3901.8023            0    8700.3462    16.915198    19.923869    20.636502    6954.8355    8193.0518    8789.4264    9118.5603   -1412.1978    1107.3862   -857.60418   -2560.4449 
22658000    265.32619   -3894.0824   -3439.3224   -3894.0824            0    8103.0339     16.94639    19.960609    20.674557    6993.3813    9330.9517    8118.0983    6860.0518     13.07696    615.35875   -697.21603   -2612.8835 
22659000    258.70879   -3890.6191   -3447.2011   -3890.6191            0    9213.2801    16.941286    19.954598     20.66833    6987.0643    9436.6787    8243.8189    9959.3427   -1262.9578    139.47775    762.50705   -2508.3756 
22660000    273.53163   -3871.3674   -3402.5435   -3871.3674            0    9130.1473    16.992216    20.014586    20.730464    7050.2689    8028.1337    8865.1786     10497.13   -396.67725    426.89491    214.67659   -2463.7732 
22661000    259.83068    -3904.769   -3459.4281    -3904.769            0    7156.3819    16.998886    20.022442    20.738601    7058.5739    7238.1944    6650.9646    7579.9867   -549.82915   -818.41654    296.86656   -2722.7354 
22662000    257.89302   -3882.1992   -3440.1794   -3882.1992            0    7491.6242    17.010058    20.035601    20.752231    7072.4997    8694.5631    6485.4902    7294.8193    -1683.434    1056.9241   -1028.2785   -2667.4546 
22663000    262.21407   -3877.8609    -3428.435   -3877.8609            0    7329.8499    17.025586    20.053891    20.771175    7091.8862    9359.9116    6197.6541     6431.984    -839.8707   -848.65808    625.19146   -2670.3241 
22664000    267.47643   -3904.9681   -3446.5227   -3904.9681            0    7126.4674    17.078825      20.1166    20.836127    7158.6241    7032.3213    8077.1752    6269.9057      599.666   -1701.0891   -782.67378    -2702.511 
22665000    274.10775   -3874.7323    -3404.921   -3874.7323            0    10426.646    17.027087     20.05566    20.773007    7093.7629      9105.59    10877.863    11296.486   -1633.3575    318.22421   -419.99403   -2326.2296 
22666000    255.59202   -3852.6074   -3414.5314   -3852.6074            0     7320.768    17.099338    20.140762    20.861153    7184.4496    7274.3505    5598.2464    9089.7072   -610.87203    382.55222    1194.7912   -2647.4772 
22667000    250.38611   -3881.3144   -3452.1612   -3881.3144            0    8004.7511    16.996311     20.01941     20.73546    7055.3674    8026.0574    7725.8676    8262.3283    609.58584    904.47818    776.86269     -2628.51 
22668000    266.13966   -3845.6913    -3389.537   -3845.6913            0    6664.1014    17.088339    20.127807    20.847734    7170.5945    4678.6294    6532.0308    8781.6439   -573.77404   -1422.7421    597.94518   -2692.6335 
22669000    266.37761   -3846.2777   -3389.7156   -3846.2777            0    8831.9652    17.043609     20.07512    20.793163    7114.4329    9360.7241     7981.034    9154.1375   -900.58075   -790.26035    278.91593     -2473.34 
22670000    265.45886   -3868.4934    -3413.506   -3868.4934            0    9851.0992    17.004882    20.029505    20.745916    7066.0457     10583.51    7726.5189    11243.269    658.53987   -98.422623   -738.44716   -2398.3401 
22671000    256.19939   -3866.4389   -3427.3219   -3866.4389            0    8618.2595    16.970156    19.988603    20.703551    7022.8456    7693.8476    10068.675    8092.2559    1028.8925    152.56094    345.40112   -2544.6312 
22672000     268.1785   -3879.0599   -3419.4111   -3879.0599            0    7306.2595    17.044717    20.076426    20.794515    7115.8209    6447.7056    9374.3955    6096.6776   -119.80689    559.75135    692.08211   -2661.1898 
22673000    255.14551   -3866.6055   -3429.2948   -3866.6055            0    9990.1754     17.03964    20.070445     20.78832     7109.463     8419.688    9693.1694    11857.669   -799.66295   -1689.6241    647.54402   -2393.4712 
22674000    255.30436   -3872.2954   -3434.7125   -3872.2954            0    8679.3488     17.02063    20.048054    20.765129    7085.6956    8967.6502    7707.8527    9362.5436   -871.99258    1550.4628    1470.3363   -2537.8094 
22675000    260.13132   -3841.8779   -3396.0217   -3841.8779            0    8522.3165    17.067461    20.103215    20.822263    7144.3442    7232.9868    10609.541    7724.4222   -819.96065    656.46226   -1665.9861   -2508.0565 
22676000    258.42719   -3893.3709   -3450.4356   -3893.3709            0    8436.9793    17.069433    20.105537    20.824668    7146.8199    8855.7658    8733.4683    7721.7037   -2023.7932   -274.68372   -641.38473   -2571.0573 
22677000     264.8769   -3862.9624   -3408.9725   -3862.9624            0    8678.9616    16.985728    20.006944    20.722548    7042.1954    8377.6063    8348.5618    9310.7166      773.949    876.10536    455.42345   -2517.6154 
22678000     262.4087   -3877.0687   -3427.3092   -3877.0687            0    7912.2271    17.033538    20.063258    20.780877    7101.8288    7452.4154     9788.602    6495.6639   -395.80827   -247.62177   -665.69035    -2607.817 
22679000    253.15409   -3884.2348   -3450.3373   -3884.2348            0    7305.8108    17.058166    20.092266    20.810923    7132.6777    6640.9594    8977.5488    6298.9241    776.43626   -314.85196    1375.0841   -2690.3665 
22680000    251.36402   -3888.4894     -3457.66   -3888.4894            0    7563.5023    17.019617    20.046861    20.763893    7084.4308    6164.6323    8866.2351    7659.6396   -949.24025    785.48866    167.49292   -2676.2054 
22681000    267.61749   -3892.1549   -3433.4676   -3892.1549            0    8049.4609    17.030412    20.059576    20.777063    7097.9191    9237.7343    7168.2079    7742.4404   -1303.3153    506.11602    880.77692   -2600.2207 
22682000    282.33586   -3874.0481   -3390.1341   -3874.0481            0    7910.3301    16.978678    19.998639    20.713947      7033.43    8131.7036    9398.1882    6201.0985    345.36172    591.23708   -1562.4833   -2578.7291 
22683000    261.79593   -3893.9418   -3445.2325   -3893.9418            0    8549.6485    16.963045    19.980226    20.694875    7014.0206    8675.4183    8181.6551    8791.8722    375.85671     414.0334   -39.603777   -2570.6694 
22684000    262.60834    -3889.622   -3439.5203    -3889.622            0    9497.9575     16.96825    19.986358    20.701226    7020.4797    11636.848    9823.4696    7033.5549    389.23007    1971.2936    1189.8938   -2467.0577 
22685000    262.55052   -3838.0703   -3388.0677   -3838.0703            0    7171.6006    17.016574    20.043276     20.76018    7080.6306    5687.7391    8075.7674    7751.2953    2316.4339     1144.079   -948.38162   -2647.5014 
22686000    270.97866   -3863.7847   -3399.3366   -3863.7847            0    7622.4927    17.022593    20.050366    20.767524    7088.1476     8578.405    7001.3875    7287.6855   -836.03404    599.60237   -438.77999   -2611.3739 
22687000    251.73224   -3881.3279   -3449.8674   -3881.3279            0    8037.3723    17.028103    20.056857    20.774246    7095.0332    9607.7179    9405.2659    5099.1331    671.15512     362.3304   -173.75739   -2618.2101 
22688000    272.47132    -3869.043   -3402.0365    -3869.043            0    8646.9225    17.032662    20.062225    20.779807    7100.7323    9543.4953    9855.6828    6541.5894    1031.8723   -307.71929    338.89566    -2506.588 
22689000    252.08864   -3895.3098   -3463.2385   -3895.3098            0    8075.7913    17.051768    20.084731    20.803117    7124.6552    7692.4984    9286.9336    7247.9419    234.70656    914.32822    354.54869   -2624.1171 
22690000    285.03141    -3889.854     -3401.32    -3889.854            0    6040.2237    17.090781    20.130683    20.850713    7173.6689    5086.8841    7413.6082    5620.1788   -968.14597     863.2538   -873.58078   -2769.3881 
22691000    265.49592   -3867.4855   -3412.4346   -3867.4855            0    5809.6365    17.071414    20.107871    20.827085    7149.3089    4780.7256    8077.4095    4570.7746    284.17705   -1177.7668    785.95141   -2806.6909 
22692000    257.94754   -3852.3991   -3410.2858   -3852.3991            0    8316.1822    16.993666    20.016293    20.732232    7052.0728    8367.1931    7018.4613     9562.892   -632.31156    1141.9558    2116.5657   -2554.9894 
22693000    273.83677   -3878.4891   -3409.1422   -3878.4891            0    7678.6632    17.032609    20.062163    20.779743     7100.666    6559.5906     8380.732    8095.6671    12.267832    4.9215428    392.31176   -2613.9711 
22694000    272.43503   -3883.9706   -3417.0262   -3883.9706            0    8877.2513    17.009184    20.034572    20.751165    7071.4103    10966.004    7878.2426    7787.5071    251.17266   -208.50808    655.05077   -2501.5218 
22695000    258.36614   -3856.6162   -3413.7855   -3856.6162            0     9138.699    17.042346    20.073632    20.791622     7112.851    10131.115    8902.8637    8382.1187    977.58791   -416.74309    1489.0806    -2465.795 
22696000    267.22871   -3834.2909   -3376.2701   -3834.2909            0    8442.5827    17.004008    20.028475     20.74485    7064.9564     8673.982    8882.3843    7771.3818   -1406.4067    311.48423    -1071.841   -2506.3874 
22697000    267.34332   -3846.3058   -3388.0885   -3846.3058            0    7861.9651    16.921194    19.930931    20.643817    6962.2337    7598.8224     7230.341    8756.7319   -1272.2083   -1043.5645    26.962089   -2589.8078 
22698000    265.48655   -3851.5716   -3396.5367   -3851.5716            0    5805.3129    17.038746    20.069392    20.787231     7108.345    4259.4578    7124.9733    6031.5077    872.06288   -360.72944    1216.8502    -2794.712 
22699000    270.98019   -3851.4642   -3387.0134   -3851.4642            0    7426.3032     17.03856    20.069173    20.787004    7108.1121    6970.7285    7372.3498    7935.8312    204.57536   -1535.6059   -504.82457   -2617.1692 
22700000    264.66134   -3855.3185    -3401.698   -3855.3185            0    6385.5438    17.019134    20.046292    20.763304    7083.8278    5042.4301    6046.7702    8067.4312   -235.77006    210.23168    315.25386   -2742.0051 
22701000    256.14168   -3865.5364   -3426.5183   -3865.5364            0    7711.6794     16.98236    20.002977     20.71844    7038.0078    8333.2223    7055.1424    7746.6735    -386.6887    658.40828   -2428.6562   -2634.9752 
22702000    261.99439   -3860.0617   -3411.0123   -3860.0617            0    5104.3631     17.10655    20.149257    20.869951     7193.544    3706.6958    4680.3997    6925.9937   -1343.7451   -366.10208   -2185.9886   -2875.5112 
22703000    252.88313   -3894.5186   -3461.0856   -3894.5186            0    8176.4063      17.0248    20.052966    20.770217    7090.9052    6226.9043    9939.3599    8362.9548   -18.711462   -574.05218    1035.9472   -2615.5341 
22704000    266.64913   -3923.7367   -3466.7093   -3923.7367            0     8204.729    17.022813    20.050625    20.767792    7088.4222    7130.5051    8331.5076    9152.1744   -124.35925    262.92227    263.10562    -2618.526 
22705000     245.1527   -3881.9938   -3461.8104   -3881.9938            0     7467.033    16.994555     20.01734    20.733317    7053.1797    9202.0216    6405.2706    6793.8068    1078.4512    2259.6701    512.65779   -2693.7261 
22706000    253.32379   -3888.6994   -3454.5111   -3888.6994            0    9571.5582    16.923775    19.933971    20.646966    6965.4201    10291.485    10739.866    7683.3241   -318.79175    -999.3702    149.03029   -2482.1986 
22707000    260.20425   -3892.8215   -3446.8403   -3892.8215            0    7587.8307    17.040842     20.07186    20.789787    7110.9677    5743.4183    8511.8519    8508.2218    426.59165    967.14731   -576.02408   -2659.9355 
22708000    267.42714   -3858.1735   -3399.8125   -3858.1735            0    8021.2895    16.975505    19.994903    20.710077    7029.4884    8713.8119    6532.5916    8817.4648   -1145.0829    357.93449      609.205   -2577.4869 
22709000    259.57948   -3861.2381   -3416.3277   -3861.2381            0    7631.2364    17.014058    20.040313    20.757111    7077.4904    7802.9189    5160.5416    9930.2487   -697.82949    970.40129   -231.78021   -2628.6472 
22710000    269.57708   -3838.7744   -3376.7285   -3838.7744            0    9400.8119    17.027024    20.055586     20.77293    7093.6844    7304.5351    9205.7063    11692.194    377.42507    1822.0143    -738.3568   -2404.1758 
22711000      255.525   -3852.2127   -3414.2516   -3852.2127            0    7429.7749    16.905236    19.912135    20.624349    6942.5549    8111.8266      7827.06    6350.4382   -253.66914   -743.60586    980.55145   -2661.9865 
22712000    261.76941   -3843.1192   -3394.4554   -3843.1192            0    7179.3929     17.04306    20.074473    20.792493    7113.7452     7024.874    6785.8536    7727.4511   -35.524213    376.38411    282.94454   -2649.6172 
22713000    277.10624   -3884.0749   -3409.1243   -3884.0749            0    6527.3385    17.051762    20.084724     20.80311    7124.6479    5797.7975     7391.725    6392.4931    491.62151   -645.48381    817.44068   -2730.8967 
22714000     260.3721   -3899.5939   -3453.3251   -3899.5939            0    5140.6657    17.125667    20.171773    20.893273     7217.687    5856.7534    3561.4187    6003.8248   -859.46811    60.719911    86.065745   -2912.2054 
22715000     245.0561   -3899.4373   -3479.4195   -3899.4373            0    7450.6894    17.075338    20.112493    20.831873    7154.2406    7284.5948    8568.1058    6499.3675    2284.6985    1895.3946    49.274577    -2702.035 
22716000    262.95105   -3860.2406   -3409.5515   -3860.2406            0    8159.4182    17.019569    20.046804    20.763834      7084.37    6074.1125    8342.9352    10061.207   -858.96426    90.027566    659.18957   -2566.5345 
22717000    252.78867   -3903.8918   -3470.6207   -3903.8918            0    5506.3374    17.206453    20.266928    20.991832    7320.3124     4781.982     7435.921    4301.1093    1335.1379   -1318.7571   -2112.0049   -2882.7682 
22718000    269.26033   -3896.2165   -3434.7135   -3896.2165            0     7492.563    17.120003    20.165102    20.886363    7210.5282     6536.248    7501.5562    8439.8849   -746.37018   -950.52091    304.79323   -2646.8094 
22719000    258.55405   -3852.7778    -3409.625   -3852.7778            0    7985.7251    17.072141    20.108727    20.827972    7150.2221    7484.5964    9855.6262    6616.9526   -64.156504    342.32424    233.70683   -2576.8843 
22720000    249.93501   -3882.4042   -3454.0242   -3882.4042            0    8675.9729    17.086957    20.126179    20.846048    7168.8548    9082.0064    9296.4905    7649.4218     1110.308    539.11613   -54.881507   -2546.9478 
22721000    271.70354   -3883.1739   -3417.4833   -3883.1739            0     7143.358    17.038476    20.069074    20.786901    7108.0066    5665.5513    7832.1845    7932.3382    818.03174   -982.96287   -873.63758   -2676.9815 
22722000    247.79721   -3866.3896   -3441.6736   -3866.3896            0    5533.0588    17.201464    20.261052    20.985746    7313.9471    6638.8821    4480.0889    5480.2054    1055.6744    1656.9796    946.74424   -2851.4821 
22723000    259.51216   -3859.9822   -3415.1872   -3859.9822            0    8318.7831    17.037807    20.068286    20.786084    7107.1689    7818.5448    8329.0561    8808.7483    517.55611    830.50406   -466.56814    -2552.939 
22724000    273.81102   -3863.3758   -3394.0731   -3863.3758            0    6864.4257    17.068126    20.103998    20.823074    7145.1795    6980.9071    5092.8612    8519.5087   -1045.9486   -1071.4881   -753.81405   -2678.7648 
22725000    247.81175    -3834.917   -3410.1761    -3834.917            0    8461.4151    17.066281    20.101825    20.820823    7142.8626    7749.6263    8318.3004    9316.3186   -578.47825    233.36124   -1238.9374   -2528.7393 
22726000     267.7765   -3853.5346   -3394.5749   -3853.5346            0    8144.7405    17.053837    20.087167    20.805641    7127.2488    8480.1882    6173.6623    9780.3711   -293.99021   -2311.0499     98.64391   -2547.9811 
22727000    271.80238   -3798.2953   -3332.4353   -3798.2953            0    8850.7167     17.04162    20.072777    20.790736    7111.9418    10251.661    9484.6913    6815.7982    370.03071   -1036.4352    773.53386   -2414.4357 
22728000    263.11778   -3819.0452   -3368.0703   -3819.0452            0    8344.0246    17.064071    20.099222    20.818127    7140.0875    8643.6212    8473.6164    7914.8364    2500.8606    626.12252    1028.0061   -2499.1999 
22729000    268.98601   -3855.0095   -3393.9767   -3855.0095            0    6865.7908    17.037989      20.0685    20.786306    7107.3967    7179.2826    9096.7911    4321.2986     353.3924   -34.475707    874.09628   -2682.3094 
22730000    264.56389   -3829.5269   -3376.0734   -3829.5269            0    5027.8328    17.142761    20.191908    20.914129    7239.3224    5804.4247    4678.7688    4600.3049   -1813.6896    780.34313    -284.2136   -2845.2444 
22731000    272.50894   -3845.8551   -3378.7841   -3845.8551            0    7672.2509    17.120343    20.165503    20.886779    7210.9583    8630.7804    6603.9398    7782.0324    1412.3619    159.06184    271.89271   -2571.9362 
22732000    255.75573   -3862.5479   -3424.1913   -3862.5479            0    7050.7268    17.134579    20.182271    20.904147    7228.9618    5489.3758    8571.0813    7091.7232    367.21048   -429.06134   -123.14948   -2680.8544 
22733000    259.14063   -3880.3037   -3436.1455   -3880.3037            0    7866.0774    16.988282    20.009953    20.725665    7045.3731    9018.0882    6582.6609     7997.483    265.87904   -837.02704     11.28021   -2627.9097 
22734000    268.94023   -3842.2018   -3381.2474   -3842.2018            0    9008.4239    16.956377    19.972372     20.68674    7005.7519    8939.6984    7912.5441    10173.029    34.337712   -124.88931   -974.36843   -2460.8414 
22735000    269.01419   -3907.1331   -3446.0519   -3907.1331            0    7878.9206    16.998444    20.021922    20.738062     7058.024    5938.5533    9776.1587    7922.0499    1938.0609   -128.44909     104.5051   -2635.0428 
22736000    263.23843   -3876.4187   -3425.2371   -3876.4187            0    5328.5575    17.120708    20.165932    20.887223     7211.419    6282.9257    4115.9686    5586.7783     1322.017   -216.17803   -1739.5299   -2864.8266 
22737000     258.4338   -3844.4991   -3401.5524   -3844.4991            0    7266.1456    17.112945    20.156789    20.877753    7201.6144    5345.3058    8187.1803    8265.9506     2109.826   -1390.8492   -594.66553   -2638.4025 
22738000    280.72926   -3869.8134   -3388.6531   -3869.8134            0    6256.9895     17.11643    20.160894    20.882005    7206.0151    4727.1463    8562.4195    5481.4025    1562.3952   -1893.8212   -31.327179   -2731.0914 
22739000     261.1357   -3854.8036    -3407.226   -3854.8036            0    5748.5093    17.068903    20.104914    20.824022    7146.1553    5221.2915    6249.8721    5774.3643     1198.786    674.84488    731.46926   -2808.1201 
22740000    271.12398   -3860.2302    -3395.533   -3860.2302            0    6323.4228    17.095642    20.136409    20.856644     7179.792     5586.333    7878.3403    5505.5951    494.14294   -502.29017     1268.862    -2733.408 
22741000    252.21253   -3866.7781   -3434.4944   -3866.7781            0    8926.4647    17.088353    20.127823    20.847751    7170.6122     9181.583    8944.0623    8653.7488    980.72206   -1228.2965    857.35988   -2501.0002 
22742000    262.81992   -3856.1246   -3405.6603   -3856.1246            0    5634.7972    17.076191    20.113497    20.832913    7155.3121    5037.4005    6628.6665    5238.3246    -1274.251    94.943611    478.42124   -2817.6529 
22743000    271.63803   -3842.3624   -3376.7841   -3842.3624            0    7714.1255    17.088054    20.127471    20.847386    7170.2356    8983.4298    7430.5292    6728.4174    91.666761   -511.83263    1424.8772   -2570.1139 
22744000    273.04399   -3862.1702   -3394.1822   -3862.1702            0    7606.0298     17.08448    20.123261    20.843026    7165.7375    8324.5957     8150.698    6342.7956    168.05564   -1025.0625    -127.3767   -2599.3145 
22745000    271.59576   -3844.3412   -3378.8354   -3844.3412            0    7597.0848    17.113809    20.157806    20.878806    7202.7045    7980.6277    6001.2332    8809.3935    31.482466    624.62784    1526.7875   -2580.8068 
22746000    247.36973   -3844.4733   -3420.4901   -3844.4733            0    7113.0786    17.078864    20.116645    20.836174    7158.6727    7684.1815     5514.949    8140.1052   -844.19246    76.591133   -79.826797   -2677.8712 
22747000    259.32703   -3865.3086    -3420.831   -3865.3086            0    7102.4746    17.038353    20.068929    20.786751    7107.8529    6343.2968    5802.1081    9162.0191    926.24349    1500.0616   -2024.7335   -2684.5832 
22748000    277.56359   -3863.2634   -3387.5289   -3863.2634            0    7191.6353    17.103545    20.145716    20.866285     7189.753    10061.188     5241.198    6272.5197   -1176.3891    582.94293    -34.06551   -2633.4487 
22749000    250.94397   -3859.5688   -3429.4594   -3859.5688            0    8538.1667     17.03592    20.066064    20.783783    7104.8086    7561.1669     9754.104     8299.229    784.13978   -324.68584    624.86107   -2544.7658 
22750000    272.23678   -3824.2221   -3357.6176   -3824.2221            0    7311.6113    16.997758    20.021113    20.737224    7057.1683     8980.002    6645.8747    6308.9573    356.84993    2237.4352    -382.2991   -2605.0951 
Loop time of 367.622 on 64 procs for 250000 steps with 864 atoms

Performance: 117.512 ns/day, 0.204 hours/ns, 680.046 timesteps/s
195.5% CPU use with 32 MPI tasks x 2 OpenMP threads

MPI task timing breakdown:
Section |  min time  |  avg time  |  max time  |%varavg| %total
---------------------------------------------------------------
Pair    | 26.939     | 32.961     | 40.759     |  48.4 |  8.97
Bond    | 0.84452    | 1.1198     | 1.5078     |  15.4 |  0.30
Kspace  | 159.72     | 169.66     | 175.73     |  30.9 | 46.15
Neigh   | 3.4176     | 4.3584     | 5.0492     |  19.6 |  1.19
Comm    | 67.611     | 77.503     | 89.219     |  48.7 | 21.08
Output  | 0.5754     | 0.57569    | 0.57733    |   0.0 |  0.16
Modify  | 67.966     | 73.141     | 77.988     |  33.5 | 19.90
Other   |            | 8.307      |            |       |  2.26

Nlocal:        27.0000 ave          32 max          23 min
Histogram: 3 4 4 4 5 2 4 1 2 3
Nghost:        2602.19 ave        2637 max        2553 min
Histogram: 1 1 1 4 3 9 3 4 2 4
Neighs:        8740.00 ave       11289 max        6491 min
Histogram: 1 3 6 4 3 6 3 3 0 3

Total # of neighbors = 279680
Ave neighs/atom = 323.70370
Ave special neighs/atom = 2.0000000
Neighbor list builds = 14174
Dangerous builds = 0

unfix		3
unfix		2
unfix		1

write_data	data.final.${pid}
write_data	data.final.1
System init for write_data ...
PPPM initialization ...
  extracting TIP4P info from pair style
  using 12-bit tables for long-range coulomb (../kspace.cpp:340)
  G vector (1/distance) = 0.374151
  grid = 24 24 24
  stencil order = 5
  estimated absolute RMS force accuracy = 0.0031736454
  estimated relative force accuracy = 9.5573389e-06
  using double precision FFTW3
  3d grid and FFT values/proc = 3549 432
Last active /omp style is kspace_style pppm/tip4p/omp
WARNING: Not all mixed pair coeffs generated from mixing. Use write_data with 'pair ij' option to store all pair coeffs. (../write_data.cpp:312)

write_restart   restart.lmp.${pid}
write_restart   restart.lmp.1
System init for write_restart ...
PPPM initialization ...
  extracting TIP4P info from pair style
  using 12-bit tables for long-range coulomb (../kspace.cpp:340)
  G vector (1/distance) = 0.374151
  grid = 24 24 24
  stencil order = 5
  estimated absolute RMS force accuracy = 0.0031736454
  estimated relative force accuracy = 9.5573389e-06
  using double precision FFTW3
  3d grid and FFT values/proc = 3549 432
Last active /omp style is kspace_style pppm/tip4p/omp
Total wall time: 0:06:07
