LAMMPS (30 Jul 2021)
  using 1 OpenMP thread(s) per MPI task
package omp 0
using multi-threaded neighbor list subroutines
echo both

include		in.partitions
variable        pid world 0
include		in.temp
variable        temperature equal 268.04
variable	tempDamp equal 100.0
include		in.pressure
variable        pressure equal 9000.0
variable        pressureDamp equal 1000.0 # This is 1 ps
include		in.seed
variable        seed world 745823

units		real
atom_style	full
read_restart	restart.lmp.${pid}
read_restart	restart.lmp.0
Reading restart file ...
  restart file = 30 Jul 2021, LAMMPS = 30 Jul 2021
  restoring atom style full from restart
  orthogonal box = (0.61437443 1.8151832 0.74953537) to (17.593198 21.813995 21.463660)
  4 by 4 by 4 MPI processor grid
  restoring pair style lj/cut/tip4p/long/omp from restart
  restoring bond style harmonic/omp from restart
  restoring angle style harmonic/omp from restart
  864 atoms
  576 bonds
  288 angles
Finding 1-2 1-3 1-4 neighbors ...
  special bond factors lj:    0        0        0       
  special bond factors coul:  0        0        0       
     2 = max # of 1-2 neighbors
     1 = max # of 1-3 neighbors
     1 = max # of 1-4 neighbors
     2 = max # of special neighbors
  special bonds CPU = 1.470 seconds
  read_restart CPU = 1.825 seconds
include 	in.setup
variable	out_freq equal 1000
variable	out_freq2 equal 10000
variable	out_freq3 equal 1000

timestep	2.0

neigh_modify    delay 7 every 1

include		in.tip4p
# This is TIP4P/Ice

# create groups ###
group ox type 2
288 atoms in group ox
group hy type 1
576 atoms in group hy

# set charges - beside manually ###
set group ox charge -1.1794
Setting atom values ...
  288 settings made for charge
set group hy charge 0.5897
Setting atom values ...
  576 settings made for charge

# ### TIP3P Potential Parameters ###
pair_style lj/cut/tip4p/long/omp 2 1 1 1 0.1577 8.5
pair_coeff 1 1*2 0.000 0.000
pair_coeff 2 2 0.21084 3.1668
bond_style  harmonic
bond_coeff  1 450 0.9572
angle_style harmonic
angle_coeff 1 55 104.52
kspace_style pppm/tip4p/omp 1.0e-5
pair_modify tail yes

thermo          ${out_freq}
thermo          1000
thermo_style    custom step temp pe etotal epair emol press lx ly lz vol pxx pyy pzz pxy pxz pyz enthalpy

restart 	${out_freq3} restart.lmp.${pid} restart2.lmp.${pid}
restart 	1000 restart.lmp.${pid} restart2.lmp.${pid}
restart 	1000 restart.lmp.0 restart2.lmp.${pid}
restart 	1000 restart.lmp.0 restart2.lmp.0


include         in.dump
dump            myDump all atom ${out_freq2} dump.water.${pid}
dump            myDump all atom 10000 dump.water.${pid}
dump            myDump all atom 10000 dump.water.0
dump            myDump2 all dcd ${out_freq2} dump.dcd
dump            myDump2 all dcd 10000 dump.dcd
dump_modify     myDump append yes
dump_modify     myDump2 append yes


variable natoms 	equal  "count(all)"                        # NUMBER ATOMS
variable H      	equal  "enthalpy/v_natoms"                 # ENTHALPY-per-atom
variable Vol      	equal  "vol/v_natoms"                 # volume-per-atom
fix AVG all 		ave/time ${out_freq} 1 ${out_freq} v_Vol v_H file vol_enthalpy.dat
fix AVG all 		ave/time 1000 1 ${out_freq} v_Vol v_H file vol_enthalpy.dat
fix AVG all 		ave/time 1000 1 1000 v_Vol v_H file vol_enthalpy.dat


timer           timeout 23:50:00 every 1000
New timer settings: style=normal  mode=nosync  timeout=23:50:00

fix 		1 all shake 1e-6 200 0 b 1 a 1
       0 = # of size 2 clusters
       0 = # of size 3 clusters
       0 = # of size 4 clusters
     288 = # of frozen angles
  find clusters CPU = 0.549 seconds
fix             2 all nph iso ${pressure} ${pressure} ${pressureDamp}
fix             2 all nph iso 9000 ${pressure} ${pressureDamp}
fix             2 all nph iso 9000 9000 ${pressureDamp}
fix             2 all nph iso 9000 9000 1000
fix             3 all temp/csvr ${temperature} ${temperature} ${tempDamp} ${seed}
fix             3 all temp/csvr 268.04 ${temperature} ${tempDamp} ${seed}
fix             3 all temp/csvr 268.04 268.04 ${tempDamp} ${seed}
fix             3 all temp/csvr 268.04 268.04 100 ${seed}
fix             3 all temp/csvr 268.04 268.04 100 745823

run             250000
PPPM initialization ...
  extracting TIP4P info from pair style
  using 12-bit tables for long-range coulomb (../kspace.cpp:340)
  G vector (1/distance) = 0.37424295
  grid = 24 24 24
  stencil order = 5
  estimated absolute RMS force accuracy = 0.0031631319
  estimated relative force accuracy = 9.5256778e-06
  using double precision FFTW3
  3d grid and FFT values/proc = 2535 216
Last active /omp style is kspace_style pppm/tip4p/omp
Neighbor list info ...
  update every 1 steps, delay 7 steps, check yes
  max neighbors/atom: 2000, page size: 100000
  master list distance cutoff = 10.8154
  ghost atom cutoff = 10.8154
  binsize = 5.4077, bins = 4 4 4
  1 neighbor lists, perpetual/occasional/extra = 1 0 0
  (1) pair lj/cut/tip4p/long/omp, perpetual
      attributes: half, newton on, omp
      pair build: half/bin/newton/omp
      stencil: half/bin/3d
      bin: standard
Per MPI rank memory allocation (min/avg/max) = 9.237 | 9.240 | 9.242 Mbytes
Step Temp PotEng TotEng E_pair E_mol Press Lx Ly Lz Volume Pxx Pyy Pzz Pxy Pxz Pyz Enthalpy 
 4000000    282.59894   -3836.0428   -3351.6779   -3836.0428            0    8596.6871    16.978824    19.998811    20.714125    7033.6114     8901.683    8490.8035     8397.575   -331.67109    48.021865    56.456435   -2469.8469 
 4001000    270.33125   -3849.7863   -3386.4478   -3849.7863            0    10061.088    16.915813    19.924593    20.637252     6955.594    10940.622    8054.6411    11188.001    -239.3441    42.817551    1461.4495    -2365.849 
 4002000    275.41296   -3857.2478   -3385.1994   -3857.2478            0    7441.8011    16.939895    19.952959    20.666632    6985.3428    4991.4962    8353.4531    8980.4541   -2374.8222   -599.61109    675.28845   -2627.0729 
 4003000    270.15439   -3844.9085   -3381.8731   -3844.9085            0    9322.9589    16.890935     19.89529    20.606901    6924.9502     10227.56    9580.6921     8160.625    652.14879   -825.62182   -749.19547   -2440.3167 
 4004000    255.90807   -3861.3998   -3422.7821   -3861.3998            0    8886.7799     16.91827    19.927487    20.640249    6958.6247    11000.574    9062.7847    6596.9805   -1248.8122   -1229.5341   -1966.4825   -2520.9125 
 4005000    273.03494   -3839.7452   -3371.7726   -3839.7452            0    7940.9153    16.972002    19.990777    20.705803    7025.1372    8094.5022    7396.6773    8331.5663   -263.90254   -697.40084   -46.381411   -2558.1908 
 4006000    279.53131   -3861.7413   -3382.6342   -3861.7413            0    9243.4103    16.923073    19.933145     20.64611    6964.5534    9231.5384    9136.3935    9362.2991    359.31044    1231.5967    -1342.601    -2443.773 
 4007000    270.99261   -3874.0559   -3409.5839   -3874.0559            0    9388.3089    17.005477    20.030205    20.746642    7066.7871    9998.5285    9700.3688    8466.0294    1201.6599   -111.00423   -1363.4582   -2442.0075 
 4008000    269.67782   -3861.7666   -3399.5481   -3861.7666            0    8684.7847    17.057231    20.091165    20.809782     7131.505    8025.5579    9111.4896    8917.3065    1812.5399    -218.2032     689.1916   -2496.2811 
 4009000    277.68415   -3851.4346   -3375.4934   -3851.4346            0    8494.9262    16.992174    20.014537    20.730413    7050.2164    8000.6799    8895.1789    8588.9198   -458.18377    497.69329    -927.0559   -2502.0437 
 4010000    276.99644    -3852.652   -3377.8896    -3852.652            0    9666.0263    16.919603    19.929057    20.641876    6960.2698    10614.099    9426.2933    8957.6868    826.09702      971.612    17.729049   -2396.7068 
 4011000    276.49705   -3866.4389   -3392.5325   -3866.4389            0    7557.6002    16.994511    20.017289    20.733264    7053.1255    6558.8367    7459.6062    8654.3578     1163.591   -293.92311   -809.25535    -2615.138 
 4012000     287.9985   -3845.3692   -3351.7496   -3845.3692            0    8145.4148    17.004713    20.029306    20.745711    7065.8357    11211.244    5412.6481    7812.3521    435.52362   -112.31615   -269.32171   -2512.3812 
 4013000     273.4672   -3833.4379   -3364.7245   -3833.4379            0    6305.0369    17.018088     20.04506    20.762028    7082.5215    7495.6759    6767.4833    4651.9515    832.36893   -2044.1629   -280.35128   -2713.4689 
 4014000    255.35017    -3842.216   -3404.5545    -3842.216            0    8875.4299    16.955359    19.971173    20.685498    7004.4902    7639.4967    10703.205    8283.5876    951.72796    1577.0355   -557.12146      -2497.9 
 4015000    269.10975   -3834.5348   -3373.2898   -3834.5348            0    9644.9695     16.93652    19.948984    20.662515    6981.1691    9458.3448    9607.4456     9869.118   -553.98717    879.18358    561.44991   -2391.3047 
 4016000    265.74718   -3819.0928   -3363.6112   -3819.0928            0    10724.499    16.898445    19.904136    20.616063    6934.1909    12039.746    12174.589    7959.1604    580.28065    1403.9696    373.62884   -2279.0634 
 4017000    270.95279   -3850.3241   -3385.9203   -3850.3241            0    8975.4322    16.970633    19.989164    20.704133    7023.4378    7675.1563    8318.4426    10932.698   -221.74953    1364.7045    339.63025     -2466.57 
 4018000    255.31966    -3833.014   -3395.4049    -3833.014            0    8445.7621    16.957447    19.973632    20.688045    7007.0781    8629.0394    9495.6078    7212.6392    755.48851   -988.39223   -1013.1375   -2532.3236 
 4019000    265.61527   -3818.2194   -3362.9639   -3818.2194            0    10257.439    16.898462    19.904157    20.616085    6934.2127    12609.974    9728.5135    8433.8308    869.03061   -59.414414    -284.2837   -2325.6456 
 4020000    264.02907   -3864.8412   -3412.3044   -3864.8412            0    7683.4384    16.928365    19.939378    20.652566    6971.0896    8261.7215    5406.4261    9382.1677   -1372.8196    641.63837    2768.3586   -2631.1585 
 4021000    266.16495   -3835.8523   -3379.6547   -3835.8523            0    9712.5833    16.940886    19.954126    20.667842    6986.5693    11193.306    9696.9913    8247.4527    150.21877    609.17097     735.1406   -2390.0207 
 4022000    277.65387   -3842.8512    -3366.962   -3842.8512            0    10063.277    16.980334     20.00059    20.715968    7035.4885    9770.7671    12228.278    8190.7847    206.08943    884.92854    901.59427   -2334.4156 
 4023000     257.4847    -3867.353    -3426.033    -3867.353            0      8197.22    16.945761    19.959868    20.673789    6992.6018    7985.9278    9352.9845    7252.7477    569.91761     1747.225    688.00519   -2590.0812 
 4024000    282.43069   -3829.4841   -3345.4076   -3829.4841            0    9010.9496    16.992167    20.014528    20.730404    7050.2076     9099.408    7885.5192    10047.922    2117.1707   -1174.3717   -935.44317   -2418.9013 
 4025000    263.60847   -3823.5342   -3371.7183   -3823.5342            0    7574.9143    17.028478    20.057298    20.774703    7095.5014    7668.8454    7115.1081    7940.7894    823.59577   -1245.1048    740.70442   -2587.8615 
 4026000    281.34231   -3846.7181    -3364.507   -3846.7181            0    10105.266    16.921914    19.931779    20.644695    6963.1221    10187.588     9113.398    11014.812    956.81436    2678.4337    1523.0257   -2338.3173 
 4027000    279.87509   -3825.3991   -3345.7028   -3825.3991            0    8720.8973    16.943526    19.957235    20.671062    6989.8353    9707.5984    8992.4161    7462.6774    1432.7675    1481.8579    514.49265   -2456.6982 
 4028000    263.39667   -3840.6509   -3389.1981   -3840.6509            0    7787.1586    16.969003    19.987244    20.702144    7021.4138    7527.9327    8546.2376    7287.3056   -160.01003   -919.32897   -11.434839   -2591.7921 
 4029000    253.85434   -3868.1396    -3433.042   -3868.1396            0    8980.2922    17.016306    20.042961    20.759854     7080.297    8319.3819    10005.786    8615.7082   -170.62744    113.19487   -52.103527   -2505.7472 
 4030000    268.26663   -3816.8106   -3357.0108   -3816.8106            0    10230.692    16.951943    19.967149     20.68133    7000.2573    10462.957    9287.4838    10941.636    1383.7906    583.26919   -328.02892   -2312.5434 
 4031000    285.57013   -3847.1524    -3357.695   -3847.1524            0    8927.2438    16.940095    19.953195    20.666877    6985.5906    8359.6571    7898.9554    10523.119   -782.26551    455.36642    801.22879   -2448.2082 
 4032000    263.02643   -3831.6875   -3380.8692   -3831.6875            0    8846.5575    16.946505    19.960745    20.674697    6993.5237    7820.6332    11029.205    7689.8338   -1647.8142   -786.61507   -200.29366   -2478.5789 
 4033000    274.60864   -3851.6124   -3380.9426   -3851.6124            0    7032.6042    16.970529    19.989041    20.704005     7023.308     5800.799    7817.7057    7479.3078   -5.9637971    24.043355   -433.31811   -2660.6088 
 4034000    247.46517   -3851.1624   -3427.0156   -3851.1624            0    7939.3095    17.036415    20.066646    20.784386    7105.4276    8974.2862    7104.9196    7738.7226   -781.13337   -1199.3199   -1651.2852   -2604.3017 
 4035000    256.46362   -3879.4739   -3439.9041   -3879.4739            0    7661.2842    17.004477    20.029028    20.745422    7065.5412    7826.2393     6028.033    9129.5805    351.52071   -1033.6233   -25.163243   -2650.4572 
 4036000    256.25281   -3855.8971   -3416.6886   -3855.8971            0    7834.1575     16.95971    19.976298    20.690806    7009.8839     6519.481    9095.6709    7887.3204   -944.10265    1688.4932     1873.807   -2615.7872 
 4037000    280.68225    -3846.455   -3365.3753    -3846.455            0    10756.149    16.930983    19.942461    20.655759    6974.3234    10517.921    11413.112    10337.413    1363.4406    264.97919   -1422.6446   -2271.3313 
 4038000    277.40632   -3851.5797   -3376.1147   -3851.5797            0    10001.621    16.942073    19.955524    20.669289    6988.0376    10597.824    11481.914    7925.1261   -856.38935   -1135.0044   -88.335294   -2356.8159 
 4039000    277.18677   -3848.4654   -3373.3768   -3848.4654            0    9032.2801    16.965162     19.98272    20.697459    7016.6474     7984.942    8595.3009    10516.597   -764.58765   -111.44096   -1113.7993   -2449.0981 
 4040000    249.05243   -3810.5984   -3383.7311   -3810.5984            0    7750.1829    17.049439    20.081987    20.800276    7121.7364    6894.9313    7790.9184    8564.6989      1143.44   -290.17091    756.46727   -2578.7721 
 4041000    270.06358   -3859.2334   -3396.3536   -3859.2334            0    6222.1072    17.059795    20.094185     20.81291    7134.7213    6130.3584    5953.1681    6582.7952    164.10623   -1089.0578   -1308.7094   -2748.9272 
 4042000    267.19188   -3820.8786   -3362.9208   -3820.8786            0    7810.9557    16.903622    19.910234     20.62238    6940.5667    8294.8181    7142.4921    7995.5569    529.05251    890.97088   -613.24815   -2572.2877 
 4043000    266.39685   -3801.2336   -3344.6385   -3801.2336            0    8073.0173    16.921074     19.93079    20.643671    6962.0855    6812.9955    7671.6607    9734.3956   -993.77743    339.19501   -1273.6316   -2524.9457 
 4044000     269.1529   -3808.3188   -3346.9999   -3808.3188            0    9033.2829    16.904708    19.911513    20.623704    6941.9036    8950.5596    8834.7709    9314.5182   -224.32645    409.48373   -1829.1908   -2432.4654 
 4045000    253.16133   -3883.6971   -3449.7872   -3883.6971            0     7573.674    16.909434     19.91708     20.62947    6947.7281    6189.5796    7449.3359    9082.1064    -631.5285    1759.0788    3087.1758    -2682.381 
 4046000     272.0986   -3827.0072   -3360.6395   -3827.0072            0    9369.3781    16.891362    19.895793    20.607422    6925.4751     8244.173    10911.395    8952.5661   -425.57501   -1146.7221   -398.22944   -2414.3234 
 4047000     268.7776   -3851.2335   -3390.5578   -3851.2335            0    7978.5644    16.931225    19.942746    20.656055    6974.6225    6619.6221     7190.775    10125.296    675.85211    391.68686   -939.48313   -2578.9965 
 4048000    256.62911   -3779.8279   -3339.9744   -3779.8279            0    9403.2249    16.880158    19.882596    20.593753    6911.7031    9363.4883    7816.8847    11029.302    571.84669    550.59788    459.55959   -2392.1284 
 4049000    274.91917    -3823.354   -3352.1519    -3823.354            0    9822.9975    16.926934    19.937692     20.65082    6969.3211    9996.0238     9519.208    9953.7607   -159.07263   -40.179484     -31.2778   -2353.7385 
 4050000    248.81785   -3798.9067   -3372.4414   -3798.9067            0    10992.785    16.947997    19.962502    20.676517     6995.371    12351.414    11501.261     9125.679   -485.13862   -606.84227   -256.43016   -2250.9541 
 4051000    265.13137   -3818.2242   -3363.7981   -3818.2242            0    8827.0846    16.953733    19.969258    20.683514    7002.4753    8462.4149    9393.4876    8625.3513   -1034.2623    845.86215    322.56744   -2462.3417 
 4052000    262.29058    -3848.677   -3399.1199    -3848.677            0    10019.964    16.906707    19.913868    20.626143    6944.3671    9766.2564    10368.998    9924.6381   -633.66938    58.277443    -726.2843   -2384.3333 
 4053000    250.49427   -3840.9506    -3411.612   -3840.9506            0    7810.6351     16.94655    19.960797    20.674751    6993.5787     7575.231    9615.3731    6241.3013   -2205.5446    619.01574    708.10226   -2614.9728 
 4054000    287.84846   -3859.7981   -3366.4357   -3859.7981            0     8688.728     17.00246    20.026653    20.742962    7063.0277    8915.0941    6970.4832    10180.607   -1811.3913   -1611.6218    -47.08974   -2471.4358 
 4055000    269.53241   -3858.6763    -3396.707   -3858.6763            0    7035.2689    17.094298    20.134826    20.855004    7178.0989    7910.7995    7762.9652     5432.042    146.44386    -355.1253   -1494.7398   -2660.2184 
 4056000    284.82679   -3820.4684   -3332.2851   -3820.4684            0    9360.2441    16.983702    20.004558    20.720077    7039.6762    8068.8688    9924.3639      10087.5   -690.71788   -642.20797   -387.05859    -2371.302 
 4057000    280.77212   -3855.7245   -3374.4907   -3855.7245            0    7997.7283    16.919189     19.92857    20.641372    6959.7598    7672.0144    9772.9921    6548.1784    -1281.027    1791.1382    -671.4172   -2562.7136 
 4058000    275.39709   -3846.7956   -3374.7744   -3846.7956            0    8727.2019    17.014785    20.041169    20.757998    7078.3982    6585.4161    10698.988    8897.2017    809.99059    836.38703    1005.3702   -2473.8551 
 4059000    277.03226   -3853.3572   -3378.5334   -3853.3572            0    10352.963    16.977254    19.996963     20.71221    7031.6612    10975.887    10736.892    9346.1088   -338.93802     103.8223    454.61116   -2316.8416 
 4060000     264.2001   -3883.8709    -3431.041   -3883.8709            0    7865.5135    16.965931    19.983625    20.698396    7017.6006    8716.4314    8811.8399    6068.2692   -878.36532   -1188.2071    646.04935   -2626.0489 
 4061000    268.86953   -3865.1289   -3404.2957   -3865.1289            0    8193.1034    16.925777    19.936329    20.649408    6967.8919     7315.256    9252.9963    8011.0578    459.56203    352.70316    925.78919   -2571.7162 
 4062000    275.41439   -3849.6447   -3377.5938   -3849.6447            0    8690.7662    16.900972    19.907112    20.619146    6937.3024    7621.5117    8924.5456    9526.2413    -505.1293   -1370.7436   -27.524668   -2498.3191 
 4063000    269.74379   -3831.9556    -3369.624   -3831.9556            0    10216.393    16.879781    19.882152    20.593293    6911.2406    9605.5713    9991.1734    11052.436    1791.1798    130.54194    1218.3055   -2339.8795 
 4064000    267.75069   -3859.0726   -3400.1571   -3859.0726            0    10156.874    16.860087    19.858956    20.569267    6887.0785    10006.129    10563.419    9901.0731   -38.300766   -1129.6511    649.69671   -2379.9908 
 4065000    256.38934   -3879.8171   -3440.3745   -3879.8171            0     6380.243    16.907208    19.914458    20.626754    6944.9843    7132.4178      5543.79    6464.5211   -1422.7723     454.7116   -472.60502   -2794.1486 
 4066000    270.64117   -3846.6774   -3382.8077   -3846.6774            0    9896.6667    16.960336    19.977036     20.69157    7010.6607    8919.6283    9039.8184    11730.553    22.090518   -169.20187   -1807.5619   -2370.9399 
 4067000    263.89164   -3890.3795   -3438.0783   -3890.3795            0    9179.7214    16.891203    19.895606    20.607228    6925.2796    8966.7826     9225.221    9347.1606   -887.19233    592.18833   -388.83951   -2510.9439 
 4068000    257.43013   -3820.4185   -3379.1921   -3820.4185            0    9796.2137    16.919438    19.928863    20.641675    6960.0667    9038.6865    9477.7331    10872.222    200.42702   -1097.0168    70.250945   -2384.8232 
 4069000     248.4796   -3843.6632   -3417.7777   -3843.6632            0    9943.5254    16.880226    19.882677    20.593837    6911.7878    10878.454    9672.7495    9279.3725    1976.2276   -153.63755    165.92193    -2415.457 
 4070000    272.78322   -3848.1179   -3380.5768   -3848.1179            0    10004.258    16.925713    19.936254     20.64933    6967.8128    9292.1482    10412.766    10307.859   -515.20282    1981.5103   -1499.0871   -2363.9601 
 4071000     274.1895   -3866.9502   -3396.9988   -3866.9502            0    9534.7583    16.919375    19.928789    20.641598    6959.9888    9108.4992    8443.7551     11052.02   -519.45136    -523.2791     59.01677   -2429.1799 
 4072000    283.81492   -3802.4623   -3316.0133   -3802.4623            0    9794.8779    16.914528    19.923079    20.635684    6954.0084    8810.7694    11521.152    9052.7119    1324.2769   -406.10601    1051.5752   -2322.6454 
 4073000    246.52802   -3824.2347   -3401.6942   -3824.2347            0    8721.7253    16.964845    19.982347    20.697071    7016.2538    8643.6913    8291.1998    9230.2849   -561.71301    344.65097    200.54532   -2509.2448 
 4074000    278.46324   -3858.5678   -3381.2914   -3858.5678            0    11144.767    16.885008    19.888309    20.599671    6917.6634    11041.943    10584.874    11807.486    714.43065   -325.38414   -157.59149   -2256.9289 
 4075000    271.50236   -3854.1546   -3388.8089   -3854.1546            0    8531.3495    16.947143    19.961496    20.675475     6994.313    8298.2713    10536.233    6759.5446   -204.86514   -1374.2017    214.08013   -2518.5696 
 4076000    269.80402   -3840.8465   -3378.4116   -3840.8465            0    8226.0386     16.91602    19.924837    20.637505    6955.8495    9177.0373    7971.4157    7529.6628    -554.1176   -373.09573    263.20289   -2543.9299 
 4077000    261.05048   -3885.9889   -3438.5573   -3885.9889            0    7605.8654    17.070169    20.106404    20.825566    7147.7448     7514.312    6438.1698    8865.1145    -531.4272   -1285.5499   -959.79803   -2645.7027 
 4078000    274.81871   -3819.2454   -3348.2155   -3819.2454            0    9161.3146    16.958065     19.97436    20.688799    7007.8444    10153.367    8695.5833    8634.9941   -1284.1017    260.14759   -1235.6718   -2411.9088 
 4079000    270.99386   -3846.2474   -3381.7732   -3846.2474            0    11322.273     16.89705    19.902493    20.614361    6932.4737    12283.095    11509.545    10174.179    1513.0476    414.36313    994.19257   -2237.0573 
 4080000    279.07608   -3796.8765   -3318.5496   -3796.8765            0    9116.7546    16.916131    19.924968     20.63764     6955.986    10491.036    6788.0038    10071.224     2351.003   -288.75327    1003.6102   -2393.6921 
 4081000    261.04687   -3796.9331   -3349.5077   -3796.9331            0    9283.7362    16.968108     19.98619    20.701052    7020.3027    8026.7339    9144.6244     10679.85   -315.09191   -669.26615     -2363.54   -2399.0025 
 4082000    277.39434   -3862.5961   -3387.1517   -3862.5961            0    9261.5238    16.950316    19.965233    20.679346    6998.2421    9872.5848    9688.1388    8223.8477    430.52895    887.43496    2063.0807   -2441.9003 
 4083000    264.58304   -3844.0438   -3390.5575   -3844.0438            0    6513.7357    17.024745      20.0529    20.770149    7090.8354    6147.3171    7576.6445    5817.2454   -833.84424    657.14567   -633.86045   -2716.9554 
 4084000    275.10402   -3800.8051   -3329.2862   -3800.8051            0    10292.205    16.967428    19.985389    20.700223    7019.4592    10298.361    9176.6162    11401.637   -13.698634   -1023.4136    1154.5754   -2275.6566 
 4085000    279.88206   -3891.0681   -3411.3598   -3891.0681            0    9900.3031    16.956163    19.972121     20.68648    7005.4874    10651.194    8957.7394    10091.976    708.39605   -132.09562   -192.14511   -2399.8672 
 4086000    262.88198   -3847.5464   -3396.9756   -3847.5464            0     10466.85    16.952462    19.967762    20.681965    7000.9014     8782.004    10015.097    12603.449   -418.45065    189.29084   -281.79862   -2328.3001 
 4087000    276.35409   -3892.3678   -3418.7063   -3892.3678            0    8678.5479    16.946559    19.960808    20.674763    6993.5905    8807.3068    6880.2234    10348.114   -1093.4272   -1173.5336   -33.493781   -2533.5435 
 4088000    278.99548   -3822.8156   -3344.6269   -3822.8156            0    11496.164    16.995441    20.018384    20.734398    7054.2832    12911.782    10538.828     11037.88    1592.4919    -1003.882   -464.06746   -2161.9075 
 4089000    254.39708   -3858.8975   -3422.8696   -3858.8975            0    9925.8659    16.993806    20.016458    20.732403    7052.2472     9644.651    10930.017    9202.9296     789.3898   -812.49009   -620.38438   -2401.9964 
 4090000    267.30013   -3815.9883    -3357.845   -3815.9883            0    9449.9952    16.982369    20.002988    20.718451    7038.0188    8327.4063    9974.8184    10047.761    417.81205    35.602836   -2162.0902   -2387.8759 
 4091000    263.20226   -3843.3977   -3392.2781   -3843.3977            0    10937.082    16.918793    19.928103    20.640888    6959.2707    9407.7865    12582.844    10820.617    1468.0897     87.20916    255.53405   -2282.2318 
 4092000    268.76694   -3821.3158   -3360.6584   -3821.3158            0    8922.5568     16.97366     19.99273    20.707826    7027.1967    10223.666    7134.4572    9409.5476   -1.7426229    204.81519   -259.58121    -2446.235 
 4093000    267.82569   -3849.8181   -3390.7741   -3849.8181            0    10694.681    16.901353    19.907561    20.619611    6937.7712    10981.835    11620.653    9481.5538   -2310.6576    1153.9909    1983.6805   -2308.6833 
 4094000    271.20219    -3875.606   -3410.7747    -3875.606            0      7552.16    16.998457    20.021937    20.738078    7058.0394    5311.6027    6676.0901    10668.787    1135.8386     983.8744    -1185.433   -2633.3987 
 4095000    263.68602   -3863.5679   -3411.6191   -3863.5679            0     8804.848    17.011397    20.037178    20.753864    7074.1704    8363.5041    10045.662    8005.3783   -1760.7775    1387.9936    1822.6968   -2503.2272 
 4096000    280.41216   -3849.3877   -3368.7708   -3849.3877            0    8350.8695    17.062251    20.097078    20.815906    7137.8029    7470.9099    9777.7611    7803.9375    -483.2956    1485.3955   -1.4512715   -2499.4659 
 4097000    265.20326   -3849.6154   -3395.0661   -3849.6154            0    8574.7933    17.082319    20.120715    20.840389    7163.0181    7885.5092    9831.2968     8007.574   -1658.7041    448.49375   -131.72263    -2499.298 
 4098000    260.88281   -3857.3241   -3410.1798   -3857.3241            0    10220.889    16.965193    19.982757    20.697496    7016.6858    9896.4155    8840.2981    11925.952   -427.10388   -791.75034   -925.08685   -2364.2644 
 4099000    274.92793   -3839.3753   -3368.1582   -3839.3753            0    9901.5536    16.889958     19.89414     20.60571     6923.749    8913.5318    10082.741    10708.388    1024.1157    527.02375   -2295.6948   -2368.3412 
 4100000    270.05039   -3871.7092   -3408.8521   -3871.7092            0    9324.3277    16.885018    19.888321    20.599683    6917.6756    9049.5112    9643.0549    9280.4169    -717.8861    1284.5091   -105.01584   -2468.1467 
 4101000    257.41491   -3875.9748   -3434.7745   -3875.9748            0    9140.3421    16.934288    19.946354    20.659792    6978.4088    11207.626    8580.0599     7633.341   -315.60172    1553.2652   -582.83561    -2504.535 
 4102000    279.72032   -3889.4578   -3410.0268   -3889.4578            0    9872.5791    16.914285    19.922794    20.635389    6953.7097    10680.049    11099.235    7838.4528    1140.2562    194.22523   -2369.5645   -2408.8216 
 4103000    261.19331   -3842.4151   -3394.7387   -3842.4151            0    9474.8448    16.937775    19.950462    20.664046    6982.7208    10116.107    7634.7327    10673.695    1920.9051    406.78446   -1235.1344   -2429.8601 
 4104000    255.52682   -3824.5971   -3386.6329   -3824.5971            0    9035.5354    16.878578    19.880735    20.591826    6909.7628    8024.5848    9672.4651    9409.5564   -613.05065   -183.54777    116.19063   -2476.1057 
 4105000    273.19755   -3843.0548   -3374.8035   -3843.0548            0    10733.901    16.811813    19.802096    20.510373    6828.0906    10065.056    10937.562    11199.086    2904.8211    -1308.486    950.17983   -2305.9141 
 4106000    256.58425   -3870.8542   -3431.0776   -3870.8542            0    7810.4527    16.841742    19.837348    20.546886     6864.622    6702.7332    10620.263    6108.3621   -154.12656    2052.1303    1079.5568   -2649.1461 
 4107000    262.04745   -3856.8796   -3407.7392   -3856.8796            0    9565.6704     16.88666    19.890255    20.601686    6919.6941     9957.402    9491.0418    9248.5673    179.62223   -453.03944   -452.60331   -2442.4039 
 4108000    263.49213   -3829.6305    -3378.014   -3829.6305            0    6277.7073    16.960948    19.977756    20.692316    7011.4191    6763.4474    6872.2166    5197.4579    377.57986    1189.4624    513.84011   -2736.0911 
 4109000    272.57119   -3855.4792   -3388.3015   -3855.4792            0    9155.9805    16.919456    19.928884    20.641697    6960.0888     10022.01    9233.5906    8212.3406    150.47605    500.39824     797.1904   -2458.9168 
 4110000    255.02363   -3828.8895   -3391.7877   -3828.8895            0     7500.108    16.924883    19.935277    20.648318    6966.7882    8576.8205    7986.9647    5936.5388    2038.3034    894.92519    950.54262   -2629.7508 
 4111000    277.01696   -3851.6272   -3376.8297   -3851.6272            0    9340.8953    16.871604    19.872521    20.583318    6901.2019    9086.7834    10698.369    8237.5329   -54.929429    967.00751   -1682.4207    -2436.697 
 4112000      269.748   -3865.2387   -3402.8999   -3865.2387            0    8268.8398    16.974558    19.993787    20.708921     7028.312    7535.4509    6716.2068    10554.862    835.50964   -1947.5422    1379.8457   -2555.3378 
 4113000    264.96434   -3861.4997   -3407.3599   -3861.4997            0    8998.1266    16.976335     19.99588    20.711089    7030.5195    9423.4252    8573.6266    8997.3282    492.44415   -418.37079   -1315.8176   -2484.7557 
 4114000    264.45475   -3819.5464     -3366.28   -3819.5464            0    8892.9259     16.97941    19.999502     20.71484      7034.34    8388.5519    8738.8099     9551.416   -304.81398   -522.10814   -317.17275   -2453.9669 
 4115000    290.22529   -3873.7764   -3376.3402   -3873.7764            0    7923.2609    16.976244    19.995773    20.710978    7030.4057    9130.6582    8349.6035     6289.521      1054.76   -95.090922   -425.49754   -2563.9583 
 4116000    253.04647   -3851.2052   -3417.4922   -3851.2052            0    9509.2889    16.922511    19.932483    20.645424    6963.8598    9509.3301    10295.882    8722.6546    1034.2346   -234.02798   -1218.0457   -2451.7217 
 4117000    258.76156   -3871.6125    -3428.104   -3871.6125            0    9496.6992    16.934666      19.9468    20.660253    6978.8764    10277.577    9208.2945    9004.2258   -441.33659    288.61698    841.30878   -2461.5323 
 4118000    271.38813   -3869.4081   -3404.2582   -3869.4081            0     9541.773     16.91521    19.923883    20.636517    6954.8502    10126.884    10273.245    8225.1896   -37.219779    235.67584   -1625.2996   -2436.4423 
 4119000    271.53897   -3837.4254   -3372.0169   -3837.4254            0     9193.917    16.962609    19.979713    20.694343    7013.4796    11761.352    8097.4659    7722.9331    360.04784    216.09841   -39.312335   -2431.6226 
 4120000    264.83288   -3856.6933   -3402.7788   -3856.6933            0     8698.971    16.979822    19.999988    20.715344    7034.8527    8848.9161    8838.3202    8409.6767   -106.53933    1252.4479    148.84816   -2510.2982 
 4121000    268.37256   -3875.3888   -3415.4074   -3875.3888            0    9981.1036    16.941608    19.954977    20.668722    6987.4625    9453.9172    10515.049    9974.3443   -536.34284     -127.935    1581.7471   -2398.2833 
 4122000    283.56788    -3846.599   -3360.5733    -3846.599            0     8201.769    16.922939    19.932986    20.645946    6964.3876    7575.5357    8090.5776    8939.1937    621.71067   -657.82163   -65.427423   -2527.5324 
 4123000    261.21735   -3846.0365   -3398.3189   -3846.0365            0    9703.3824     16.90443    19.911186    20.623365    6941.5617    10950.174    8436.3653    9723.6082     1112.027    1442.8564   -627.53438   -2415.9916 
 4124000    276.75089   -3809.8704   -3335.5289   -3809.8704            0    8334.1943    16.944665    19.958578    20.672452    6991.2461    5538.8324    10184.822    9278.9284   -69.861965    259.45962   -1264.7957   -2485.7732 
 4125000    284.85752   -3821.5063   -3333.2703   -3821.5063            0    11380.068    16.942496    19.956022    20.669806    6988.5612    11695.268    10817.091    11627.845    -143.3802   -303.13449    1698.8508   -2173.4024 
 4126000    274.55844   -3843.8751   -3373.2913   -3843.8751            0    9594.2683    16.956286    19.972265    20.686629    7005.6397    10571.208    10261.195    7950.4019    1335.6622   -1548.9199    1716.0975   -2393.0443 
 4127000    274.77122   -3842.5855   -3371.6371   -3842.5855            0    9423.0706    16.970384     19.98887    20.703828    7023.1277    11008.145    10374.586    6886.4811   -766.90788     380.9379    553.09735    -2406.478 
 4128000    269.17008   -3851.0336   -3389.6853   -3851.0336            0     10336.47    16.938564    19.951391    20.665008    6983.6962    10136.505    10232.182    10640.724   -184.54928   -268.40016    922.64651   -2336.9153 
 4129000    280.22201   -3832.9891   -3352.6981   -3832.9891            0    7864.8061    17.013417    20.039558    20.756329    7076.6908    11195.133    7642.0273     4757.258   -220.78906   -381.26036   -1424.2885   -2541.0008 
 4130000    267.41602   -3884.2341   -3425.8922   -3884.2341            0    9603.8427    16.963397    19.980641    20.695304    7014.4569    9242.1173      10173.2    9396.2111   -1521.6383    1057.9824    1624.1064    -2443.432 
 4131000    263.67374   -3862.6342   -3410.7065   -3862.6342            0     10348.52    16.865345    19.865149    20.575682     6893.524    9408.1445    10814.777     10822.64     253.8299     -297.758    1930.9364   -2370.3182 
 4132000    270.34337   -3845.9466   -3382.5873   -3845.9466            0    6568.2695    17.022423    20.050165    20.767316    7087.9345    7545.0179     7016.016    5143.7747   -449.18275   -882.35835   -265.26399   -2703.6236 
 4133000     258.3037   -3841.9831   -3399.2594   -3841.9831            0    7558.9151    17.035897    20.066036    20.783755    7104.7796    6622.3695    8222.7641    7831.6118    -324.2372   -676.42085   -137.48673   -2616.0354 
 4134000    258.76684   -3848.6959   -3405.1784   -3848.6959            0    7972.1069    16.924499    19.934824    20.647849    6966.3135    9141.3868    6615.2004    8159.7336    1337.5969    194.71295    630.94125   -2595.2399 
 4135000     257.7874   -3872.1056   -3430.2669   -3872.1056            0     7851.861     17.00078    20.024674    20.740912    7060.9341    7227.0727    7615.2845    8713.2259   -621.77487    464.21389   -1219.2637   -2621.7098 
 4136000    267.80649   -3838.5152   -3379.5041   -3838.5152            0    8765.7218    16.953468    19.968946    20.683192    7002.1475    8644.8417    9560.6893    8091.6344    82.334602    873.10839   -1005.9716   -2484.3561 
 4137000     269.0791   -3880.1674    -3418.975   -3880.1674            0    5726.3932    16.988367    20.010052    20.725768    7045.4786    5082.1774    6920.9687    5176.0335   -397.36369     116.4274      1264.37    -2830.582 
 4138000    279.90283   -3860.4133   -3380.6694   -3860.4133            0    8984.7238    16.967657    19.985659    20.700502    7019.7433    9377.6941    10307.645    7268.8325   -500.13601    1912.8207    378.07323   -2460.8515 
 4139000    257.10302   -3894.0915   -3453.4257   -3894.0915            0    7913.9625    16.983859    20.004742    20.720268     7039.871    8297.7685     7995.786    7448.3329    58.229741   -1135.6657    801.39225   -2640.9048 
 4140000    260.33073   -3856.6522   -3410.4542   -3856.6522            0    6724.9392    17.061831    20.096583    20.815394    7137.2761    7189.5819    7843.4667    5141.7691   -1439.1785     561.5332    1726.0934   -2710.4563 
 4141000    257.74412   -3872.6749   -3430.9102   -3872.6749            0    7628.0746    17.029894    20.058966    20.776431     7097.272    6921.8971    7540.6081    8421.7185   -937.36237     331.7767    -1464.248   -2641.3555 
 4142000    265.98844   -3870.6498   -3414.7547   -3870.6498            0    7879.1797    17.017731     20.04464    20.761592    7082.0759    7808.2622    7524.7927     8304.484    453.66964    -1155.704   -376.73799   -2600.9551 
 4143000    270.37859   -3882.3527    -3418.933   -3882.3527            0    9417.5418    16.965455    19.983066    20.697816     7017.011    9388.8491    9783.0509    9080.7255    1921.8307   -387.20384   -1571.1738   -2455.1803 
 4144000    263.18233   -3861.9799   -3410.8944   -3861.9799            0    8012.5327    16.990225    20.012241    20.728035    7047.7904    8305.1918     6866.422    8865.9845    -1873.282    -1.818915    1088.2485   -2587.3279 
 4145000    275.90465   -3822.6686   -3349.7775   -3822.6686            0    10901.988    16.899997    19.905964    20.617957    6936.1019    8985.2129    12324.675    11396.075    367.90642    305.34634   -2210.1315   -2246.9768 
 4146000    265.42038   -3846.1987   -3391.2772   -3846.1987            0     10393.64    16.930315    19.941675    20.654945    6973.4988    10532.864    9933.5866    10714.468   -1438.3216    683.08816   -1112.0534   -2334.2303 
 4147000    264.50938   -3858.5763   -3405.2162   -3858.5763            0    10920.213    16.954761    19.970469    20.684769    7003.7498    8748.5863    12449.425    11562.627    378.38142    -1074.107    448.52727   -2289.7983 
 4148000     245.5941   -3840.6441   -3419.7042   -3840.6441            0    8701.8305    16.998631    20.022141     20.73829    7058.2558    7883.5947    10380.886    7841.0105    494.79777    723.73899    343.60546   -2523.9602 
 4149000    284.26484   -3804.5645   -3317.3443   -3804.5645            0    10001.302    16.923445    19.933582    20.646563    6965.0121    9448.0109    10074.411    10481.484   -416.71465    1051.3968   -2780.4378   -2301.4365 
 4150000    267.59796   -3828.8036   -3370.1498   -3828.8036            0    7655.0778     16.94106    19.954331    20.668054    6986.7845    7822.8936    7269.4939     7872.846    -280.5554   -63.850429    386.31586    -2590.135 
 4151000    273.94367   -3810.7039   -3341.1738   -3810.7039            0    9043.6468    17.021623    20.049223     20.76634    7086.9351    10594.256    9353.6091    7183.0753    1337.4855   -184.67726   -755.58955   -2406.4616 
 4152000    257.17845   -3846.5554   -3405.7603   -3846.5554            0    8950.1301    16.928803    19.939894      20.6531    6971.6302    10220.275    9080.7926    7549.3227    193.42774   -3010.9671   -340.91563   -2495.7641 
 4153000    256.96338   -3808.0399   -3367.6135   -3808.0399            0    9175.6432     16.97441    19.993613    20.708741    7028.1284    10523.396     9717.061     7286.473   -362.84403   -2023.8344    464.72165    -2427.128 
 4154000    259.39683   -3834.2388   -3389.6416   -3834.2388            0    8317.0773    16.938237    19.951006    20.664609    6983.2919    8286.7024    8360.2523    8304.2773    1013.3962    409.53832    750.57536   -2542.5959 
 4155000      261.583    -3825.171   -3376.8267    -3825.171            0    10382.974     16.97361     19.99267    20.707764    7027.1338     9240.014    12097.474    9811.4335   -371.62712    651.70502    884.37065   -2312.7428 
 4156000    251.21206   -3863.8697   -3433.3008   -3863.8697            0    9336.0645    16.979453    19.999553    20.714893    7034.3937     10042.72    7572.3212    10393.153   -421.76936    445.65325    353.32318   -2475.5194 
 4157000     257.6269   -3842.7062   -3401.1425   -3842.7062            0    9362.7158    17.022591    20.050364    20.767522    7088.1454    9436.6282    9625.9987    9025.5205    2137.9511    691.16532   -815.05455   -2433.2874 
 4158000    262.69106   -3853.0964   -3402.8529   -3853.0964            0    9110.5016    16.926105    19.936716    20.649809     6968.298    7063.9779    11535.442    8732.0847   -1343.5635   -654.05414    1538.1735   -2476.9939 
 4159000    266.71305    -3838.161    -3381.024    -3838.161            0    11266.729    16.886948    19.890594    20.602037    6920.0471    10964.197    10847.928    11988.062   -151.37469     994.6424   -737.89066   -2243.9655 
 4160000    274.27996    -3795.431   -3325.3246    -3795.431            0    10159.982    16.892291    19.896887    20.608555    6926.6179     9450.752    8534.3466    12494.848   -508.52439     783.1204   -842.55502   -2298.9874 
 4161000    261.53234   -3854.4235    -3406.166   -3854.4235            0     8057.636    16.964355    19.981769    20.696473    7015.6454    8101.1453    8748.7907    7322.9721   -931.50237     1640.452   -360.51028    -2581.741 
 4162000    267.35694   -3838.5029   -3380.2623   -3838.5029            0    6654.5784    16.979214    19.999271    20.714601    7034.0964    5300.2826    7743.4422    6920.0102    770.52067   -1082.8878    1111.4435   -2697.6018 
 4163000    272.64981     -3847.24   -3379.9275     -3847.24            0    8382.7566    16.916455     19.92535    20.638036    6956.3864    9394.7651    8564.1653    7189.3394   -796.30945   -291.35001   -1107.8748   -2529.4821 
 4164000    248.18782   -3801.9399   -3376.5545   -3801.9399            0    7990.7867    16.958017    19.974304    20.688741    7007.7851    8032.7455    9191.0538    6748.5607   -1890.0151    535.69323    434.88754   -2559.8852 
 4165000    255.25683   -3820.2832   -3382.7817   -3820.2832            0    10092.993    16.854978    19.852938    20.563034    6880.8198    8931.0084    12875.388    8472.5838   -1136.3994   -552.87779   -1734.2768   -2369.9529 
 4166000    270.27051   -3857.5364    -3394.302   -3857.5364            0    7505.5253    16.985492    20.006666     20.72226    7041.9019    5838.4819    8492.7391    8185.3548    2009.9227   -761.97319    777.91716   -2623.4927 
 4167000    269.45341   -3900.0839   -3438.2499   -3900.0839            0    7804.2378    16.929582    19.940812    20.654051    6972.5928    7691.1093    9163.1333    6558.4709    536.99227    954.57106    1020.6805   -2644.6517 
 4168000    280.40901   -3834.8472   -3354.2357   -3834.8472            0    10326.371    16.902948     19.90944    20.621558    6939.7366    11630.916    7909.8917    11438.306   -263.53105   -1156.9967   -1451.4908   -2309.1147 
 4169000    287.92171   -3835.3548   -3341.8668   -3835.3548            0    9242.0747    16.941464    19.954807    20.668546    6987.2839    9560.9394    9369.4754    8795.8095   -2557.9352    549.95783   -16.714208   -2400.0775 
 4170000    263.09645    -3837.306   -3386.3677    -3837.306            0    8709.7559    17.026186    20.054598    20.771907    7092.6364    9786.4647    7733.4118    8609.3913   -773.62976   -1180.0411    61.170017   -2485.4408 
 4171000    258.47233   -3837.2139   -3394.2011   -3837.2139            0     9756.882    16.970332    19.988809    20.703765    7023.0631    10594.614    9386.0052    9290.0272   -599.34074   -426.80497   -105.14324   -2394.8606 
 4172000    265.00798   -3832.8433   -3378.6287   -3832.8433            0    11748.232    16.946185    19.960367    20.674306    6993.1268    12012.953    11351.613    11880.129   -1800.7763   -401.06046   -1723.4222    -2180.455 
 4173000    261.63577   -3833.4391   -3385.0043   -3833.4391            0    7020.5341    16.985149    20.006262    20.721842    7041.4751    8597.0441    5759.3027    6705.2556    918.55694    19.059957   -657.81424   -2664.0468 
 4174000    270.93564     -3881.12   -3416.7456     -3881.12            0    8997.1929    16.944868    19.958816    20.672699    6991.4968    10748.095    9273.9372    6969.5462   -258.95068     617.8981   -65.381263   -2499.3575 
 4175000    265.01559   -3825.8835   -3371.6558   -3825.8835            0    10234.085    16.878664    19.880837    20.591931     6909.869    10439.361    10313.716    9949.1782    166.66323   -1333.9357    1600.1741   -2340.3328 
 4176000    255.56486   -3858.4548   -3420.4253   -3858.4548            0    9377.8027    16.970717    19.989263    20.704235     7023.542    10333.546     8948.001     8851.861   -152.26186    1036.0492    688.27274   -2459.8462 
 4177000    268.72661   -3839.7196   -3379.1314   -3839.7196            0    10306.696    16.922606    19.932595     20.64554    6963.9774    10291.768    9750.1831    10878.138    504.45733    -1434.903    1962.9171   -2332.3578 
 4178000    267.00992   -3834.5054   -3376.8596   -3834.5054            0    9614.8866    16.970964    19.989554    20.704537    7023.8486    9605.8217    9941.0573    9297.7807   -980.37678    788.26882    1249.4234   -2391.9526 
 4179000    264.77734   -3830.2222   -3376.4029   -3830.2222            0    8140.9979    16.940573    19.953758     20.66746    6986.1821    8046.9304    7480.8646    8895.1986    2070.3585   -463.28127    920.03882   -2546.9467 
 4180000    255.21349   -3809.6704   -3372.2433   -3809.6704            0     7873.069    16.951507    19.966636    20.680799    6999.7181    6332.9977    8585.0709    8701.1382    126.33052   -82.327039   -1220.0527   -2568.5312 
 4181000    265.66113   -3813.5161    -3358.182   -3813.5161            0    11431.793    16.869679    19.870253    20.580969    6898.8394    10197.954    12175.429    11921.996   -198.92692   -2558.8925   -1892.8211   -2208.0008 
 4182000    283.07028   -3837.2253   -3352.0525   -3837.2253            0    8752.7637    16.967754    19.985773    20.700621    7019.8641    9050.4857    7016.1657     10191.64     1868.227    555.82411    507.44163   -2455.9663 
 4183000    262.54545   -3846.7917   -3396.7978   -3846.7917            0    8693.1788    16.998514    20.022004    20.738147    7058.1105    7615.8246    9649.1918    8814.5201    1424.5987   -287.05795    945.97518   -2501.9628 
 4184000    270.22622   -3840.2464   -3377.0879   -3840.2464            0    9003.2288    16.937557    19.950205     20.66378    6982.4514     7642.102    10235.084    9132.5006    143.12794   -39.177859   -609.35372   -2460.2721 
 4185000    258.61905   -3811.2186   -3367.9544   -3811.2186            0    8263.7887    17.005631    20.030388    20.746831    7066.9802    10103.959    6562.7192    8124.6882   -580.03443    942.67849    468.09817   -2516.2498 
 4186000    275.16948   -3801.2713   -3329.6402   -3801.2713            0    8750.1849    16.951827    19.967014     20.68119    7000.1148     10043.18    8361.4286    7845.9462   -403.58655    891.14956    1030.0149   -2436.3383 
 4187000    257.54075   -3816.9674   -3375.5514   -3816.9674            0    10083.155    16.892564    19.897209    20.608889    6926.9543    11790.423    8657.6676    9801.3737   -777.83511   -579.23397   -132.57716   -2356.9257 
 4188000    280.53698   -3833.8153   -3352.9845   -3833.8153            0    8855.7363    16.979681    19.999821    20.715171    7034.6769     8960.142    9052.1684    8554.8986   -1625.5658   -635.95074   -839.93381   -2444.4431 
 4189000    262.57766   -3884.6824   -3434.6333   -3884.6824            0    8262.8062    16.955892    19.971801    20.686148     7005.151    7559.4894    8720.3675    8508.5618    1356.5702     282.2651   -2078.9925   -2590.4807 
 4190000     258.7962   -3809.3859    -3365.818   -3809.3859            0    8564.7253    17.046281    20.078268    20.796424    7117.7799    6953.1314    9495.6302    9245.4142   -472.61214    475.27754    740.88496   -2476.7523 
 4191000    274.90642    -3855.157   -3383.9768    -3855.157            0    8847.6393    16.975906    19.995375    20.710565    7029.9858    8927.5962    9190.5184    8424.8032   -1056.4714     178.9393   -342.96758   -2476.8714 
 4192000    268.37653   -3842.5169   -3382.5287   -3842.5169            0    10810.263    16.922611    19.932601    20.645546    6963.9835    8421.1657    10374.215    13635.408   -737.11595   -441.74928   -385.49443   -2284.6108 
 4193000    262.79543   -3846.8844    -3396.462   -3846.8844            0    10139.048    16.959718    19.976307    20.690816    7009.8939    9310.4729    11074.581    10032.091   -944.32266    497.23454   -635.42273   -2359.9257 
 4194000    275.71822   -3838.9037   -3366.3321   -3838.9037            0    7113.1564    17.014548     20.04089    20.757709    7078.1021    8506.3607    6371.7368    6461.3718    -1941.384     513.7275    345.62072   -2632.0633 
 4195000    274.07304    -3886.701   -3416.9492    -3886.701            0    9899.5048    17.002325    20.026493    20.742797     7062.859    7748.7546    10754.349     11195.41   -233.60788    141.40855     610.5041   -2397.2551 
 4196000     262.7695   -3841.7099   -3391.3319   -3841.7099            0    6961.4467    17.017576    20.044457    20.761403    7081.8823    6188.4621    7949.9541    6745.9239   -1239.8992    1216.6306   -418.87498   -2672.3399 
 4197000    269.29656   -3855.1219   -3393.5568   -3855.1219            0    9328.5709    16.958793    19.975219    20.689688    7008.7479    8423.4491    9610.3047    9951.9589    1121.4123    2056.4361    1835.7177   -2440.0332 
 4198000    276.41987   -3862.3273   -3388.5531   -3862.3273            0    7176.6162    16.987182    20.008656    20.724322    7044.0039    6302.2068    9143.9308    6083.7111   -945.58797   -298.62783    1692.6088   -2651.3024 
 4199000    269.27281   -3823.5674    -3362.043   -3823.5674            0    7771.2729    16.972508    19.991372     20.70642    7025.7653     9113.928    8079.3907    6120.5001   -324.20458    267.97636   -90.737935   -2565.7706 
 4200000    262.72898   -3842.6998   -3392.3913   -3842.6998            0    8913.9696    16.916977    19.925964    20.638672    6957.0295    8295.8718    11043.675    7402.3616    622.66734   -1300.2802    233.60464   -2487.9698 
 4201000    271.75598   -3845.7202   -3379.9397   -3845.7202            0    10226.767    16.899271    19.905109    20.617071    6935.2079    8631.8241     11611.13    10437.347   -873.83629    476.44951    861.20831    -2345.575 
 4202000     267.3096   -3834.2025    -3376.043   -3834.2025            0    7590.7395    16.954574    19.970248     20.68454    7003.5174    7187.0139    10010.484    5574.7205   -148.99518    1517.7734    1868.7202   -2600.7316 
 4203000    261.59625   -3862.5078   -3414.1408   -3862.5078            0    5769.6629    16.988192    20.009846    20.725555    7045.2611    5812.3875    6095.7551    5400.8462     594.3313   -1628.9016    928.55257     -2821.32 
 4204000    260.26495   -3853.0908   -3407.0056   -3853.0908            0     8940.524    16.985694    20.006904    20.722507    7042.1532    9022.8734    8236.5727     9562.126   -2147.9213   -1197.8417   -223.90191   -2488.7907 
 4205000    252.21461   -3851.0983   -3418.8111   -3851.0983            0    9227.5332    16.940488    19.953657    20.667355     6986.076    9034.2342    9438.3774     9209.988   -477.19787   -726.59995   -224.96698   -2478.6662 
 4206000    259.39798   -3854.5498   -3409.9506   -3854.5498            0    8348.5055    16.975671    19.995098    20.710279    7029.6944    8605.7444    6614.2631    9825.5092   -1289.7086   -1468.1155    906.72795   -2554.0544 
 4207000    271.84407   -3864.0946   -3398.1632   -3864.0946            0    9343.6742    17.003814    20.028247    20.744613    7064.7146    10021.195    6500.8647    11508.963    555.43444   -1112.8146    1509.3532   -2435.4694 
 4208000    271.84668   -3836.9602   -3371.0243   -3836.9602            0    8402.4973    17.016289    20.042941    20.759833    7080.2757    8471.7339    7471.3151    9264.4428    -982.6607    988.78249    92.373876   -2503.3945 
 4209000    257.46154   -3845.3986   -3404.1184   -3845.3986            0    8903.0609    17.022371    20.050104    20.767253    7087.8696    8834.4481    9067.6763    8807.0582   -653.38172   -711.92239     347.0188   -2483.8151 
 4210000    268.99624   -3831.8377   -3370.7874   -3831.8377            0    8568.0144    16.994741     20.01756    20.733544    7053.4119    7451.7945    8969.2609    9282.9879    71.830001    1147.3383     -749.912   -2489.4233 
 4211000    274.01328   -3881.4837   -3411.8343   -3881.4837            0    9524.7119    16.933689    19.945649    20.659061    6977.6687    8276.8295    13012.851    7284.4556    445.28095   -1178.0834    2116.8093   -2442.5792 
 4212000    266.76982   -3848.1137   -3390.8793   -3848.1137            0     8174.161    17.010066    20.035611     20.75224    7072.5099    8547.9218      7875.37    8099.1913    -633.5688   -36.338753   -2084.6986    -2547.753 
 4213000    288.26778   -3874.1949   -3380.1138   -3874.1949            0    7018.2233    17.026528    20.055001    20.772324    7093.0637    7204.4913    8112.3702    5737.8085   -333.34983   -1010.6066    1294.2242   -2654.1133 
 4214000    274.66967   -3838.2588   -3367.4843   -3838.2588            0    9701.9371    16.948364    19.962934    20.676965    6995.8252     9704.959    9004.8546    10395.998   -1368.6915    434.60348    1009.4104   -2377.6254 
 4215000    250.43243   -3880.6123   -3451.3797   -3880.6123            0    9272.9499    16.954781    19.970492    20.684793    7003.7738    8983.2347    9199.1454    9636.4695    800.46812     482.4081    643.97571   -2504.2141 
 4216000    267.99562   -3880.3923    -3421.057   -3880.3923            0    10563.211    16.929745    19.941003    20.654249    6972.7935    10711.477    11489.801    9488.3539    -673.4508   -45.405132    983.77109   -2346.8731 
 4217000    257.60514   -3862.0157   -3420.4893   -3862.0157            0     9856.265    16.944775    19.958707    20.672586    6991.3819    10879.365    11651.958    7037.4723    1234.4592   -1310.2054   -2196.7092   -2415.5235 
 4218000    267.12374   -3853.2743   -3395.4334   -3853.2743            0    8297.1131    17.041247    20.072339    20.790282    7111.4758    10233.718    8435.2928    6222.3281    1032.4408    -927.1264    542.09163     -2534.91 
 4219000    268.97024   -3823.0951   -3362.0893   -3823.0951            0    9895.8993    16.962334    19.979388    20.694007    7013.1382    9500.9005    9375.0589    10811.738   -174.06358    215.54141     357.2337   -2349.9424 
 4220000    282.42804   -3919.3903   -3435.3183   -3919.3903            0     9078.462     16.93531    19.947558    20.661038    6979.6719    8211.8758    9640.1063    9383.4039    1392.5088   -113.29402    119.88327   -2511.2093 
 4221000    272.94001   -3872.5136   -3404.7038   -3872.5136            0    8901.4868    16.937041    19.949597    20.663151    6981.8131    9514.6252    9308.7725    7881.0626    520.82231   -789.51156    302.74385   -2498.3314 
 4222000     264.7836   -3871.8581   -3418.0281   -3871.8581            0    10416.797     16.90893    19.916486    20.628855    6947.1065    9865.5964     11704.84    9679.9532    1013.3471   -63.847298    596.83374   -2362.6355 
 4223000    266.71079    -3881.486   -3424.3528    -3881.486            0     6655.765    16.990887    20.013021    20.728843    7048.6143    6763.5184    6557.6356    6646.1409    208.79041    1070.3335    286.37441   -2740.1614 
 4224000    274.92393   -3874.8582    -3403.648   -3874.8582            0    7987.0552    17.002807    20.027061    20.743385      7063.46     6811.028    7830.4029    9319.7346    482.55317    1235.7152     2051.277   -2580.8749 
 4225000    263.52473   -3862.8806   -3411.2082   -3862.8806            0    10851.355    16.884937    19.888225    20.599583    6917.5755    11913.062    10321.346    10319.655   -898.79894   -1060.3989    527.88771   -2316.4612 
 4226000    267.83409   -3856.8374    -3397.779   -3856.8374            0    9606.9798     16.97961    19.999738    20.715085    7034.5894    9314.6263    10522.463    8983.8504   -2863.1491    -109.5297    200.97612   -2412.1771 
 4227000    281.74473   -3849.7609   -3366.8601   -3849.7609            0    8478.1859    17.020652    20.048079    20.765155    7085.7224     8243.761     7701.193    9489.6037    -1101.956   -1262.9612   -292.10341   -2490.7414 
 4228000    269.07401   -3842.3137     -3381.13   -3842.3137            0    10053.933    16.924634    19.934983    20.648014    6966.4807    10634.272    8637.0627    10890.465   -438.36885    1753.6103    686.36791   -2359.6607 
 4229000    271.43757   -3859.1397    -3393.905   -3859.1397            0    7824.3458    16.997047    20.020276    20.736357    7056.2832     9382.094    6190.9277    7900.0158   -171.65122   -2483.2144    642.43167   -2588.7122 
 4230000    263.57234   -3825.7787   -3374.0247   -3825.7787            0    8785.8216    17.026254    20.054678     20.77199    7092.7211    8460.1776    9732.3025    8164.9849   -309.92537   -1271.4348    969.30236   -2465.2188 
 4231000    279.50913   -3879.4665   -3400.3974   -3879.4665            0     9491.034    16.953175    19.968601    20.682834    7001.7843    9048.2388    9750.5583    9674.3048    1476.4254    107.19772    1935.7274   -2431.2315 
 4232000      276.112   -3848.7889   -3375.5424   -3848.7889            0    11465.315    16.893043    19.897773    20.609473     6927.543    9465.3538    12089.328    12841.264     1163.356    571.05485   -51.914029   -2217.1889 
 4233000     255.2323    -3866.371   -3428.9116    -3866.371            0    10628.328    16.953306    19.968755    20.682994     7001.947    10563.704     10720.06     10601.22    1300.8274   -1070.8057     523.2032    -2343.587 
 4234000     265.7354   -3850.1224    -3394.661   -3850.1224            0    8579.2502    17.014245    20.040533    20.757339    7077.7239    10997.241    8314.2796    6426.2298   -2607.3584    566.21136    1581.1829   -2509.0993 
 4235000    264.30646   -3856.1692   -3403.1569   -3856.1692            0    7728.2507    16.990567    20.012644    20.728452    7048.2161    8111.6856    6687.5226    8385.5439   -2506.0545   -880.48985    1535.0966   -2608.7623 
 4236000    263.82317   -3821.8972   -3369.7133   -3821.8972            0     7735.357    17.025198    20.053434    20.770701    7091.4015    6838.3845    8772.7214    7594.9651    -959.5198   -1.6351784    428.95718   -2569.7164 
 4237000    270.34963   -3868.2995   -3404.9295   -3868.2995            0    7916.2317    17.028107    20.056861    20.774251    7095.0379    7214.8147    7976.8928    8556.9875    1188.3986    651.95756   -247.36416   -2585.8065 
 4238000    272.09374   -3834.5633   -3368.2039   -3834.5633            0    11662.999    16.953878    19.969429    20.683691    7002.6552    11438.465    12086.005    11464.528    218.61335    -2615.525    1709.0049   -2177.1021 
 4239000    259.54648   -3834.5593   -3389.7055   -3834.5593            0    6779.3121    17.029867    20.058933    20.776398    7097.2374    7645.1632    5334.6776    7358.0955   -1300.2919    123.98505    321.32455   -2688.0065 
 4240000    260.79458   -3803.0201   -3356.0271   -3803.0201            0    9779.6635    16.979257    19.999322    20.714654    7034.1502     10943.83    8819.4422    9575.7184    709.94575   -441.63064    554.92021   -2352.7718 
 4241000    256.47894   -3824.1876   -3384.5915   -3824.1876            0    9553.5006    16.918017     19.92719    20.639942    6958.3134    10247.027    9266.6296    9146.8447    230.46659    470.85734   -116.63595   -2415.1036 
 4242000    273.76277   -3839.8208   -3370.6008   -3839.8208            0      8048.69    16.963004    19.980178    20.694826      7013.97    7795.9897    7949.4582    8400.6221   -331.82606   -1473.7097     -1329.16   -2547.2878 
 4243000    271.29149   -3793.9304    -3328.946   -3793.9304            0    10825.476    16.918075    19.927257    20.640012    6958.3841    11403.578    11211.051    9861.7985   -896.95986   -1690.5812   -112.46729    -2230.367 
 4244000    282.55937   -3861.1466   -3376.8495   -3861.1466            0    8200.6932    17.030052    20.059152    20.776624    7097.4697    9583.1157    6997.4993    8021.4645    111.30177    332.82997   -23.220423   -2528.0014 
 4245000    281.53689   -3846.6315   -3364.0869   -3846.6315            0    10896.593    17.022444     20.05019    20.767342     7087.961    12054.953    8765.6102    11869.215   -109.66669    35.853343   -1737.7523   -2237.6992 
 4246000    270.70508    -3865.381   -3401.4018    -3865.381            0    8810.7603    17.003348    20.027697    20.744044    7064.1333    9525.4541    8447.3221    8459.5046   -659.98833    980.98274    -249.0465   -2493.6896 
 4247000    257.37425   -3827.5923   -3386.4617   -3827.5923            0    8838.6787    17.015579    20.042105    20.758967    7079.3897    7366.0544    8026.3761    11123.606   -1476.4626    681.78986    339.55766   -2473.9066 
 4248000     274.7959   -3812.0208     -3341.03   -3812.0208            0    8303.8309    16.960731    19.977501    20.692052    7011.1502    8847.7847     8551.754    7511.9541   -729.38598    1831.4317    -1466.216   -2491.9597 
 4249000    254.62951   -3843.5285   -3407.1023   -3843.5285            0    7523.7499    16.995862     20.01888    20.734912    7054.8077    6415.2504    8422.8348    7733.1644   -1166.9397    -176.4158   -82.892818   -2633.0052 
 4250000    282.81126   -3829.0144   -3344.2855   -3829.0144            0    8479.9986    16.924589     19.93493    20.647959     6966.425     7344.736    8710.4326    9384.8273   -272.83177    693.76046   -236.09491   -2482.7333 
Loop time of 515.012 on 64 procs for 250000 steps with 864 atoms

Performance: 83.882 ns/day, 0.286 hours/ns, 485.425 timesteps/s
99.1% CPU use with 64 MPI tasks x 1 OpenMP threads

MPI task timing breakdown:
Section |  min time  |  avg time  |  max time  |%varavg| %total
---------------------------------------------------------------
Pair    | 21.52      | 27.035     | 32.112     |  48.8 |  5.25
Bond    | 0.27662    | 0.28502    | 0.30261    |   1.0 |  0.06
Kspace  | 211.18     | 227.35     | 242.28     |  50.9 | 44.15
Neigh   | 5.4493     | 7.2306     | 8.4794     |  39.1 |  1.40
Comm    | 111.65     | 124.56     | 141.69     |  74.4 | 24.19
Output  | 1.9074     | 1.9096     | 1.9241     |   0.2 |  0.37
Modify  | 117.71     | 122.02     | 124.66     |  17.6 | 23.69
Other   |            | 4.623      |            |       |  0.90

Nlocal:        13.5000 ave          19 max           7 min
Histogram: 1 1 2 3 11 25 11 5 3 2
Nghost:        2273.14 ave        2326 max        2221 min
Histogram: 1 4 4 10 14 11 11 5 3 1
Neighs:        4426.78 ave        6418 max        2308 min
Histogram: 2 3 3 10 10 19 6 4 5 2

Total # of neighbors = 283314
Ave neighs/atom = 327.90972
Ave special neighs/atom = 2.0000000
Neighbor list builds = 14673
Dangerous builds = 1

unfix		3
unfix		2
unfix		1

write_data	data.final.${pid}
write_data	data.final.0
System init for write_data ...
PPPM initialization ...
  extracting TIP4P info from pair style
  using 12-bit tables for long-range coulomb (../kspace.cpp:340)
  G vector (1/distance) = 0.37450667
  grid = 24 24 24
  stencil order = 5
  estimated absolute RMS force accuracy = 0.0031331539
  estimated relative force accuracy = 9.4353999e-06
  using double precision FFTW3
  3d grid and FFT values/proc = 2535 216
Last active /omp style is kspace_style pppm/tip4p/omp
WARNING: Not all mixed pair coeffs generated from mixing. Use write_data with 'pair ij' option to store all pair coeffs. (../write_data.cpp:312)

write_restart   restart.lmp.${pid}
write_restart   restart.lmp.0
System init for write_restart ...
PPPM initialization ...
  extracting TIP4P info from pair style
  using 12-bit tables for long-range coulomb (../kspace.cpp:340)
  G vector (1/distance) = 0.37450667
  grid = 24 24 24
  stencil order = 5
  estimated absolute RMS force accuracy = 0.0031331539
  estimated relative force accuracy = 9.4353999e-06
  using double precision FFTW3
  3d grid and FFT values/proc = 2535 216
Last active /omp style is kspace_style pppm/tip4p/omp
Total wall time: 0:08:38
