LAMMPS (30 Jul 2021)
Processor partition = 0
  using 2 OpenMP thread(s) per MPI task
using multi-threaded neighbor list subroutines
variable        pid world 0 1
variable        phase world IceV IceIII

shell cd ${phase}
shell cd IceV
include Restart.lmp
echo both
log log.lammps
#include		in.partitions
include		in.temp
variable        temperature equal 211.47
variable	tempDamp equal 100.0
include		in.pressure
variable        pressure equal 7528.0
variable        pressureDamp equal 1000.0 # This is 1 ps
include		in.seed
variable        seed equal 745823

units		real
atom_style	full
read_restart    restart.lmp.${pid}
read_restart    restart.lmp.0
Reading restart file ...
  restart file = 30 Jul 2021, LAMMPS = 30 Jul 2021
  restoring atom style full from restart
  triclinic box = (-3.2838947 -0.055339648 -0.011466436) to (14.893894 22.635339 19.241464) with tilt (-0.15276774 -6.6765648 0.031177370)
  2 by 4 by 4 MPI processor grid
  restoring pair style lj/cut/tip4p/long/omp from restart
  restoring bond style harmonic/omp from restart
  restoring angle style harmonic/omp from restart
  1008 atoms
  672 bonds
  336 angles
Finding 1-2 1-3 1-4 neighbors ...
  special bond factors lj:    0        0        0       
  special bond factors coul:  0        0        0       
     2 = max # of 1-2 neighbors
     1 = max # of 1-3 neighbors
     1 = max # of 1-4 neighbors
     2 = max # of special neighbors
  special bonds CPU = 0.002 seconds
  read_restart CPU = 0.007 seconds

include 	in.setup
variable	out_freq equal 1000
variable	out_freq2 equal 10000
variable	out_freq3 equal 1000

timestep	2.0

neigh_modify    delay 7 every 1

include		in.tip4p
# This is TIP4P/Ice

# create groups ###
group ox type 2
336 atoms in group ox
group hy type 1
672 atoms in group hy

# set charges - beside manually ###
set group ox charge -1.1794
Setting atom values ...
  336 settings made for charge
set group hy charge 0.5897
Setting atom values ...
  672 settings made for charge

# ### TIP3P Potential Parameters ###
pair_style lj/cut/tip4p/long/omp 2 1 1 1 0.1577 8.5
pair_coeff 1 1*2 0.000 0.000
pair_coeff 2 2 0.21084 3.1668
bond_style  harmonic
bond_coeff  1 450 0.9572
angle_style harmonic
angle_coeff 1 55 104.52
kspace_style pppm/tip4p/omp 1.0e-5
pair_modify tail yes

thermo          ${out_freq}
thermo          1000
thermo_style    custom step temp pe etotal epair emol press lx ly lz vol pxx pyy pzz pxy pxz pyz enthalpy

restart 	${out_freq3} restart.lmp.${pid} restart2.lmp.${pid}
restart 	1000 restart.lmp.${pid} restart2.lmp.${pid}
restart 	1000 restart.lmp.0 restart2.lmp.${pid}
restart 	1000 restart.lmp.0 restart2.lmp.0


include         in.dump
dump            myDump all atom ${out_freq2} dump.water.${pid}
dump            myDump all atom 10000 dump.water.${pid}
dump            myDump all atom 10000 dump.water.0
dump            myDump2 all dcd ${out_freq2} dump.dcd
dump            myDump2 all dcd 10000 dump.dcd
dump_modify     myDump append yes
dump_modify     myDump2 append yes


variable natoms 	equal  "count(all)"                        # NUMBER ATOMS
variable H      	equal  "enthalpy/v_natoms"                 # ENTHALPY-per-atom
variable Vol      	equal  "vol/v_natoms"                 # volume-per-atom
fix AVG all 		ave/time ${out_freq} 1 ${out_freq} v_Vol v_H file vol_enthalpy.dat
fix AVG all 		ave/time 1000 1 ${out_freq} v_Vol v_H file vol_enthalpy.dat
fix AVG all 		ave/time 1000 1 1000 v_Vol v_H file vol_enthalpy.dat



fix 		1 all shake 1e-6 200 0 b 1 a 1
Finding SHAKE clusters ...
       0 = # of size 2 clusters
       0 = # of size 3 clusters
       0 = # of size 4 clusters
     336 = # of frozen angles
  find clusters CPU = 0.001 seconds
fix             2 all nph tri ${pressure} ${pressure} ${pressureDamp}
fix             2 all nph tri 7528 ${pressure} ${pressureDamp}
fix             2 all nph tri 7528 7528 ${pressureDamp}
fix             2 all nph tri 7528 7528 1000
fix             3 all temp/csvr ${temperature} ${temperature} ${tempDamp} ${seed}
fix             3 all temp/csvr 211.47 ${temperature} ${tempDamp} ${seed}
fix             3 all temp/csvr 211.47 211.47 ${tempDamp} ${seed}
fix             3 all temp/csvr 211.47 211.47 100 ${seed}
fix             3 all temp/csvr 211.47 211.47 100 745823


run             250000
PPPM initialization ...
  extracting TIP4P info from pair style
  using 12-bit tables for long-range coulomb (../kspace.cpp:340)
  G vector (1/distance) = 0.37926359
  grid = 24 27 32
  stencil order = 5
  estimated absolute RMS force accuracy = 0.0024480239
  estimated relative force accuracy = 7.3721514e-06
  using double precision FFTW3
  3d grid and FFT values/proc = 5355 672
Last active /omp style is kspace_style pppm/tip4p/omp
Neighbor list info ...
  update every 1 steps, delay 7 steps, check yes
  max neighbors/atom: 2000, page size: 100000
  master list distance cutoff = 10.8154
  ghost atom cutoff = 10.8154
  binsize = 5.4077, bins = 5 5 4
  1 neighbor lists, perpetual/occasional/extra = 1 0 0
  (1) pair lj/cut/tip4p/long/omp, perpetual
      attributes: half, newton on, omp
      pair build: half/bin/newton/tri/omp
      stencil: half/bin/3d/tri
      bin: standard
Setting up Verlet run ...
  Unit style    : real
  Current step  : 10000000
  Time step     : 2
Per MPI rank memory allocation (min/avg/max) = 10.31 | 10.32 | 10.33 Mbytes
Step Temp PotEng TotEng E_pair E_mol Press Lx Ly Lz Volume Pxx Pyy Pzz Pxy Pxz Pyz Enthalpy 
10000000    224.39246   -4937.4344   -4488.6218   -4937.4344            0     6927.011    18.177788    22.690678    19.252931    7941.1861    3662.2773    8478.4576     8640.298    1366.7485    65.521334     1626.032   -3686.3766 
10001000    200.73687    -4923.475   -4521.9765    -4923.475            0    6071.0189    18.115689    22.584162     19.40868    7940.6272    5399.3538    6270.1067    6543.5962    389.94332   -129.28244    813.17897   -3818.9166 
10002000    214.86874   -4948.1683   -4518.4043   -4948.1683            0    7589.4051    17.885781    22.740423    19.504025    7932.8765    8549.1431    7290.2419    6928.8303    991.41756   -174.31627   -115.27459   -3640.3643 
10003000    206.53854    -4935.814   -4522.7114    -4935.814            0     8945.777    18.044577    22.796882    19.127467    7868.2766    9126.7542    8187.1899    9523.3871    779.35762   -403.93644    30.634968   -3496.1769 
10004000      206.864   -4967.3839   -4553.6304   -4967.3839            0    6228.6906    18.031592    22.866096    19.251597    7937.6668    6312.6638    6143.6979    6229.7102   -24.557845   -201.83142    1154.6436   -3832.5802 
10005000    211.04796   -4939.7167   -4517.5947   -4939.7167            0    7545.9086     17.88141    22.813282    19.391014    7910.2471    7961.1114    7782.0203    6894.5941    1023.5153    279.76318     757.8225   -3647.0772 
10006000    215.46005   -4935.5125   -4504.5657   -4935.5125            0    6930.2003    17.971437    23.062398     19.16351    7942.5934    8201.2718    6544.5767    6044.7524    1196.2422    549.79355   -158.94041   -3701.8089 
10007000    208.79857   -4934.4704   -4516.8474   -4934.4704            0    9526.0528    17.974845    22.848806    19.070728    7832.4194    9183.1893    8565.2759    10829.693   -100.68144   -148.12649    33.096316   -3428.7074 
10008000    211.32919    -4937.712   -4515.0275    -4937.712            0    6987.3568    17.923651    22.730134    19.419322    7911.5672    6795.7663    7006.2896    7160.0146    1448.6656    838.16125   -900.26706   -3708.8116 
10009000     216.4439   -4923.5284   -4490.6139   -4923.5284            0    7742.3712    18.059678    22.548079    19.418157    7907.2881    7789.2062    7655.0125    7782.8951   -99.796646   -1048.9038    1089.3416   -3597.7661 
10010000    207.61169   -4918.1587   -4502.9096   -4918.1587            0    7663.6381    18.163979    22.525825    19.322509    7905.9707    7312.8491    7869.3038    7808.7614    172.02446   -748.18407   -99.042506   -3619.2885 
10011000    213.45752   -4941.8928   -4514.9514   -4941.8928            0    8307.7389    17.880668    22.742454    19.320268    7856.5923    6654.9308     8435.129    9833.1568   -957.12069    537.03618   -575.53122   -3563.0478 
10012000    227.59413   -4931.4849   -4476.2685   -4931.4849            0    9179.6553    17.742806    23.144794    19.247252    7903.9529    10185.557    7971.9657    9381.4434    309.92141    806.47507    942.34437   -3418.1201 
10013000    223.99441   -4931.7707   -4483.7542   -4931.7707            0    7876.3478    17.885995    23.087419    19.075798    7877.1884    9208.7726    7111.2663    7309.0044   -223.94904    433.47497   -337.26465   -3578.9137 
10014000    210.00702   -4935.1529   -4515.1129   -4935.1529            0    8963.0229    17.806608    22.998122     19.13883    7837.7057    7571.6984    8278.3899     11038.98   -414.72761   -172.39748    -826.7574   -3490.5955 
10015000    210.76764   -4937.5391   -4515.9778   -4937.5391            0    6716.2112    17.808364    22.885302    19.400561    7906.6945    10909.446    5088.8846    4150.3032    769.52011    -663.6991    786.50868   -3741.5245 
10016000    222.12485   -4960.0684   -4515.7912   -4960.0684            0    6330.9495    18.088247     22.66429    19.405661    7955.4917      5262.72    6792.6788    6937.4497    -319.0557   -1929.2941   -358.10963   -3781.2575 
10017000    209.91345   -4937.1862   -4517.3333   -4937.1862            0    7263.8841    18.133494    22.599833    19.359337    7933.7262     8067.966    7154.0174    6569.6688   -154.93921    -109.7949    1568.0863   -3676.8637 
10018000     208.7239   -4949.7073   -4532.2337   -4949.7073            0     7215.453     17.85075    22.918502    19.309524    7899.7666       7290.1    7887.9489    6468.3102    587.97999    31.625173    61.710485   -3700.9414 
10019000    204.90695   -4924.0973    -4514.258   -4924.0973            0    6653.6628    17.801305    23.093055    19.229772       7905.1    8663.4124    5064.7477    6232.8283    1229.2094    -1222.499    24.201632   -3747.1721 
10020000    217.15234   -4950.4361   -4516.1046   -4950.4361            0    9556.6637    17.787148    22.994041    19.161454    7837.0046    9115.1812    9673.5568     9881.253     1606.064    552.81522   -398.22312   -3423.8289 
10021000    202.82321   -4940.8514   -4535.1799   -4940.8514            0    8484.9796    17.934776    22.903904    19.123584    7855.5169    9646.5341    7326.4566    8481.9481   -1566.4798    339.27842   -929.48437   -3563.1012 
10022000    211.30737   -4942.9536   -4520.3128   -4942.9536            0    6094.8976    18.016749     22.69179    19.455103    7953.8745    4817.5615    6758.4828    6708.6487    628.64125    366.12968   -1182.7702   -3813.3102 
10023000    210.59622   -4959.8731   -4538.6546   -4959.8731            0    7742.3052    17.996183    22.618296     19.42223    7905.6823    7976.5537    8442.9675    6807.3945   -146.92606     35.30419   -3237.5674   -3645.9957 
10024000     213.7429   -4902.4847   -4474.9725   -4902.4847            0    8419.7373    18.113404    22.795658    19.162026    7912.1342    7278.1725    9476.6527    8504.3868   -856.89083    705.98522   -2003.0854   -3503.4159 
10025000    214.35698   -4918.0798   -4489.3393   -4918.0798            0    8738.3714    17.817974    22.837949    19.340372    7870.0998    11140.701     7990.777    7083.6359    170.87419   -275.03201   -138.46698   -3486.3724 
10026000    213.78043   -4915.4367   -4487.8495   -4915.4367            0    8105.5582    17.819372    22.952676     19.26635     7879.981    7873.7368    8557.0924    7885.8454   -885.91757   -994.36495    534.26751   -3556.3471 
10027000    220.09855   -4922.4202   -4482.1959   -4922.4202            0    9387.2836    17.885385    22.832743    19.236989    7855.8551    8924.2931    10100.563    9136.9948    374.78485    562.81319    445.72947   -3406.6986 
10028000    206.86898   -4943.1623   -4529.3988   -4943.1623            0    7465.8189     17.93225    22.859635    19.239542    7886.7633    6850.5898     7981.763    7565.1039    754.92091   -362.78909    874.47223   -3670.6776 
10029000     211.9148   -4943.1707   -4519.3149   -4943.1707            0    5657.0539    17.962641    22.844153     19.37403    7949.9651    6926.8426    5493.0016    4551.3175   -183.01064   -347.82644   -1496.1895   -3863.4242 
10030000    221.41297   -4940.6526   -4497.7993   -4940.6526            0    6430.7672    18.080704    22.811818    19.231864    7932.2538    6581.9479    6609.3935    6100.9603     1549.222   -706.21595   -726.48783   -3753.8638 
10031000    208.83771   -4910.9677   -4493.2665   -4910.9677            0    6156.5176    18.109817    22.820452    19.313614    7981.8188     5576.695    6047.1368    6845.7211   -386.72212    320.81856    -225.9513    -3776.607 
10032000    216.99269    -4940.435   -4506.4228    -4940.435            0    6507.8166    17.944152    22.898786    19.284638     7924.044    6729.6744    6678.9584    6114.8171   -234.19606    423.84078   -1865.9707   -3754.3531 
10033000    212.78236    -4944.515    -4518.924    -4944.515            0    6315.8296    17.985562    22.959627    19.257264    7952.1292    4835.5223    6624.3668    7487.5998   -196.26695    211.83775   -157.88307   -3786.4542 
10034000    206.46403   -4956.3528   -4543.3992   -4956.3528            0    7728.0315    18.047023     22.97413    19.061476    7903.1672     6201.069    8174.7287    8808.2966   -360.25994    748.71466   -772.66072   -3652.6695 
10035000    208.88911   -4961.0675   -4543.2635   -4961.0675            0    6322.2378    17.873926     22.88938    19.355189    7918.6547    5966.2468    6457.1062    6543.3605   -443.79378    446.83506    1094.6858    -3813.137 
10036000    213.70551   -4966.2798   -4538.8424   -4966.2798            0    6536.4603    18.022165    22.892869    19.185687    7915.6127    6476.7035    6828.2301    6304.4471    448.29547    14.414937    1554.1333   -3784.2663 
10037000    213.24257   -4937.8305    -4511.319   -4937.8305            0    9002.9012    18.009183    22.947186    19.078012    7884.1804    8939.6974    8528.9309    9540.0752    -1363.155    7.3551757   -303.53176   -3476.1412 
10038000    208.63006   -4944.3424   -4527.0565   -4944.3424            0    7067.7145    18.070067    22.794741    19.291022    7946.0202    6217.6466    7083.1446    7902.3522     567.3622    632.46839    653.98555   -3708.0176 
10039000    209.71565   -4939.7761   -4520.3189   -4939.7761            0    6702.2253    17.941433    22.909545    19.341027     7949.744    7546.5715    5964.0544    6596.0501    1242.9735    421.05828   -1350.5777   -3743.2705 
10040000    203.95166   -4919.1302   -4511.2017   -4919.1302            0    6971.4383    17.979137     22.93977    19.247968     7938.579    7647.3057    6504.5197    6762.4894    -282.3814   -824.65357   -1144.3244   -3704.0762 
10041000    214.12226   -4931.2931   -4503.0221   -4931.2931            0    7649.3539     17.93569    22.708074    19.345854    7879.2756    7825.0109    7921.4573    7201.5934    810.68769   -753.33149   -864.41044   -3624.0261 
10042000    218.35394   -4944.3925   -4507.6576   -4944.3925            0    9440.9628    17.878505    22.710945    19.309035    7840.1968    9507.0354    8749.1704    10066.683   -275.33453   -623.68792     915.9333   -3428.1664 
10043000    221.92012    -4937.744   -4493.8764    -4937.744            0    8406.5973     17.84899    22.829843    19.276719    7855.0634    10163.452    7481.9597      7574.38   -733.84361   -227.74454   -338.99719    -3530.833 
10044000    208.51012   -4956.4036   -4539.3576   -4956.4036            0    7515.1161    17.847362    23.006718    19.215585    7890.0967     6595.264    7359.3551    8590.7292    260.30286   -366.24261    618.41491    -3674.601 
10045000    201.52515   -4944.6403    -4541.565   -4944.6403            0    7448.8403    17.888467    22.973366    19.190351    7886.4342    7103.6891    7355.7576    7887.0741   -582.92587    388.17236   -702.25376   -3684.8326 
10046000    205.27806   -4945.5178   -4534.9363   -4945.5178            0     5963.324    17.999593    22.769125    19.374143    7940.2019    6148.8873    5871.9369    5869.1479   -631.55493    499.85812    687.92054   -3844.3851 
10047000    214.62958   -4947.4976    -4518.212   -4947.4976            0    7180.3832    18.163879    22.688713    19.225969    7923.3108    6750.3813    6837.2426    7953.5258   -116.48713    800.46478    1130.5004   -3688.4946 
10048000    207.76856   -4946.4817    -4530.919   -4946.4817            0    8462.9885    17.954744    22.689956    19.323441     7872.222    7290.7546    9631.2571    8466.9538   -382.02653    1856.8742    1058.3746   -3559.2978 
10049000    213.11687   -4924.7408   -4498.4807   -4924.7408            0     7845.961    17.918138    22.828835     19.30945    7898.5347    9813.8379    6350.9806    7373.0643   -123.69999    345.88655   -1765.2986   -3594.6885 
10050000     200.6637   -4935.8039   -4534.4517   -4935.8039            0    7780.6756    18.079065    22.773883     19.14882    7884.1535    5721.5625    9213.7547    8406.7095   -1112.1102    1097.9511   -1118.5094   -3639.8118 
10051000    219.34603   -4901.7905   -4463.0713   -4901.7905            0    6920.2692     18.00489    22.855453    19.321281    7950.8989    7415.2377    7608.9735    5736.5962    1095.5299    703.02896   -255.29935   -3660.6266 
10052000    205.16974   -4945.5276   -4535.1628   -4945.5276            0    6643.1959    17.816318    22.860304    19.475421    7932.0751    6980.2598    6988.4643    5960.8635   -1363.1251   -620.83242    933.14298     -3766.67 
10053000    199.48891   -4939.7098   -4540.7074   -4939.7098            0    9027.5325    17.916868    22.784801    19.174845    7827.7906    9576.3427    8393.3231    9112.9316   -723.98725    -753.8934   -2080.0894   -3510.1216 
10054000      216.334   -4922.5613   -4489.8666   -4922.5613            0    7606.9856     17.98267    22.813294    19.268498    7904.7849    7237.1068    8190.2021    7393.6478   -1676.8805   -347.07017    524.16613   -3612.9091 
10055000    222.85872   -4945.9069   -4500.1619   -4945.9069            0    6961.8592    17.914309      22.8029    19.397534    7923.8577    7636.2133    6532.2785    6717.0859   -132.46137   -650.43717   -321.65503   -3695.6402 
10056000    222.23622   -4921.8702   -4477.3703   -4921.8702            0    7798.7601    17.919545    22.967141    19.235904    7916.7428    9444.4285     7034.419    6917.4328   -1277.5667    443.47101   -999.03848   -3576.9444 
10057000    203.14784   -4957.4636   -4551.1429   -4957.4636            0    6967.9502    17.935757     22.81564    19.322989    7907.2721    6239.5485    7531.1991     7133.103    667.63775    327.34578    430.52307   -3747.6027 
10058000    211.93613   -4943.2988   -4519.4004   -4943.2988            0    7055.9052    17.935806    22.860431     19.27092    7901.4677    6854.3434    6900.0016    7413.3706    39.328353    839.91586   -1026.0948   -3706.3145 
10059000    217.19146   -4948.0885   -4513.6787   -4948.0885            0    8702.0036    17.952377    22.825408    19.222676     7876.882    8932.2023     7903.653    9270.1554   -716.79732    280.39883   -27.321891   -3514.0252 
10060000    210.91087   -4939.1301   -4517.2823   -4939.1301            0    6724.0274    17.823031    22.957381    19.347344    7916.3548    6532.6917    6400.6852    7238.7053    1569.5871   -367.03777    851.25661   -3740.9805 
10061000    220.44415   -4943.8943   -4502.9788   -4943.8943            0    5413.8565    17.925827    23.037396    19.277747    7961.0226    6538.3078    5283.5287    4419.7329     579.0131   -190.74305    871.64102   -3874.4119 
10062000    229.35138    -4932.398   -4473.6669    -4932.398            0     7379.365    18.037136    22.827704    19.276494    7937.0275    6864.9746    5985.1315     9287.989    1252.1121    -33.85002    -21.76854   -3619.4803 
10063000     211.0884   -4919.7825   -4497.5797   -4919.7825            0    6728.7006    18.043082    22.638953    19.436476    7939.3434    6121.9019    7424.7944    6639.4054   -1837.1119    648.93313   -1608.0685   -3718.4824 
10064000    212.41469   -4943.8324   -4518.9768   -4943.8324            0    6946.5338    18.081493    22.465307    19.432971    7893.7953    6334.4846    9406.1548    5098.9619   -520.07868    1626.6396    1255.5958   -3719.2716 
10065000    207.51018   -4946.3224   -4531.2764   -4946.3224            0    7818.7432    17.983481    22.760027     19.32267    7908.8561    8779.6761    8111.4292    6565.1244    910.63091    917.15112    1078.1802   -3629.4426 
10066000    213.95892   -4920.1412   -4492.1969   -4920.1412            0    6244.7487    17.929268     23.03862    19.234412    7945.0737    5329.8021    6045.9706    7358.4734   -275.79111    578.58217   -473.97599   -3768.6132 
10067000    213.78522   -4950.4098   -4522.8129   -4950.4098            0    8552.9574    17.837147    23.040631    19.187291    7885.5758    8860.8781    9016.1707    7781.8234   -87.012596    106.33596   -1346.4021   -3539.1969 
10068000    207.01555   -4928.4595   -4514.4028   -4928.4595            0    5241.7147    18.099346    23.015198    19.111525    7961.0973    3926.5284    4453.4453    7345.1704   -2121.0872   -153.02421    657.81645   -3905.8164 
10069000    209.35579   -4961.9561   -4543.2186   -4961.9561            0    8252.2525    17.907215    22.701332    19.402392    7887.4142    7159.0914    8929.3184    8668.3477    655.36155   -104.68144   -900.64353   -3593.9633 
10070000     210.4713   -4926.5948   -4505.6262   -4926.5948            0    7209.7374    18.030692    22.779192    19.345929    7945.8489    6459.2503    7192.9543    7977.0076   -1249.4684   -511.78205   -2263.8807    -3670.147 
10071000    217.45076   -4947.0238   -4512.0954   -4947.0238            0    7408.0795    18.034267    22.764017     19.21586    7888.7326    7256.6017    7765.1415    7202.4954    159.61097   -544.43599    -44.88727   -3659.8027 
10072000    220.41477   -4917.1634   -4476.3066   -4917.1634            0    6656.4724     18.02108    22.849432    19.312888    7952.4956    6401.1937    6612.6881    6955.5353    1594.5184   -101.35634     2650.706   -3704.2957 
10073000    202.19127   -4955.0002   -4550.5927   -4955.0002            0    6921.7977    17.893486    22.942136    19.221487     7890.705    4658.2221    8275.0704    7832.1005   -151.27259    592.52318   -2014.6445   -3754.0472 
10074000    195.50566   -4930.6891   -4539.6536   -4930.6891            0    9359.8912    17.907639    23.022933    19.028679    7845.2649    8427.4723    9754.3713      9897.83   -1411.7618   -402.50253   -1266.5197   -3468.7403 
10075000    208.35609   -4925.8241   -4509.0862   -4925.8241            0    9318.9337    17.666201    23.196131     19.13282    7840.3905    9269.5227    9913.2534    8774.0249    614.62034    225.10731   -963.09912   -3443.5215 
10076000    212.25993   -4929.8479   -4505.3018   -4929.8479            0    8235.0974    17.914447    22.971196    19.151019     7880.956    8423.6651    7429.4617    8852.1653    1332.9972   -722.05541   -181.21755   -3558.7955 
10077000    204.38993    -4967.561   -4558.7559    -4967.561            0    7138.4154     17.82391    22.888176    19.334528    7887.6515    7648.7231    7205.6397    6560.8832    66.364227   -626.76409    984.39621   -3737.6004 
10078000    220.89969   -4917.3325   -4475.5059   -4917.3325            0    7631.2796    17.986061    22.939789    19.211784    7926.7138    7716.3433    7369.2594     7808.236   -271.27679    249.04847    359.17117   -3593.3071 
10079000    205.69867   -4936.1767   -4524.7539   -4936.1767            0    9031.9308    17.992171    22.924735    19.102702    7879.2103    7282.5751    8672.6813    11140.536   -449.19965    203.57647    1608.3213    -3486.893 
10080000    226.97724   -4946.9997   -4493.0172   -4946.9997            0    7426.6425    17.826243    22.781346    19.493674     7916.494    8503.1778     8154.185    5622.5647   -790.79351   -7.5296621    489.78445    -3635.582 
10081000    222.10182   -4956.9622   -4512.7311   -4956.9622            0    6405.3312    17.992655    22.977458    19.166626    7923.9715    5063.2012    6606.7674    7546.0249   -474.97028    1085.5828   -2346.7157   -3772.5119 
10082000    211.28401   -4960.1288   -4537.5347   -4960.1288            0    6689.1323    17.794409    23.094673    19.205148    7892.4719    6641.7242    7136.5658    6289.1069    1681.5239    324.98938    1820.6594   -3767.5915 
10083000    216.81912    -4931.108    -4497.443    -4931.108            0    8526.4295    17.731375    22.926241    19.330166    7857.9786    9222.7162    8306.1732    8050.3991   -938.93959   -1122.2307   -1535.4183   -3520.3094 
10084000    218.03867   -4922.3282    -4486.224   -4922.3282            0    8256.2611    18.040434    22.785774    19.279594    7925.1712     8628.273    7356.9065    8783.6037   -560.38473   -211.85529    380.75863   -3531.9612 
10085000    206.10072   -4944.7532   -4532.5263   -4944.7532            0    7390.2316     18.08407    22.524223    19.341755    7878.4696    7269.7851    7930.0385    6970.8711   -237.22778   -148.95667   -525.21688   -3683.3931 
10086000    202.88654   -4935.0943   -4529.2962   -4935.0943            0    7534.0902    18.090111    22.457051    19.435586    7895.7179    6571.6013    9150.3014    6880.3679    677.39807    972.98022    675.32935   -3661.7386 
10087000    204.39127   -4932.4701   -4523.6623   -4932.4701            0    9631.9771     18.12709    22.673785    19.109048     7854.005    10288.513    8590.2097    10017.208   -1180.5322    113.31754   -957.48969   -3420.3906 
10088000     221.1326   -4947.7411   -4505.4486   -4947.7411            0    9068.2379    17.854256    22.866505    19.249429    7858.8572    8799.5086    8655.7312    9749.4738    206.98164    36.162185   -61.919334   -3466.1073 
10089000     200.8068   -4958.7221   -4557.0837   -4958.7221            0    6868.3956    17.776644    23.102459    19.238701    7901.0308    6060.3388    7599.6381      6945.21   -1566.1714    1319.9454   -935.97581   -3765.6492 
10090000    210.61848   -4946.1614   -4524.8984   -4946.1614            0    6079.6266    18.055536     23.02255    19.030083    7910.5105    5576.0153    5695.8612    6967.0033   -384.25331    667.79861     405.4528    -3823.512 
10091000    206.65503   -4936.7601   -4523.4246   -4936.7601            0    8786.0411    17.934412    22.881452    19.161124    7863.0622    8551.9357    8822.5298    8983.6578    -1384.838    773.14485   -1036.2594    -3515.888 
10092000    207.98062   -4941.5426   -4525.5557   -4941.5426            0    8421.1402    17.786331     22.82459    19.393023    7872.9024    8576.5913    8434.4142    8252.4151    356.05067    970.36433    661.16726   -3558.6555 
10093000    223.14037   -4950.5071   -4504.1988   -4950.5071            0    6552.8507    18.047961    22.962135    19.174146    7946.1443    5507.2368    6908.2466    7243.0689   -611.92125   -377.91362   -202.79375   -3744.8127 
10094000    213.95552   -4951.0793   -4523.1418   -4951.0793            0    6697.3911    18.091825    22.864516    19.222768    7951.7064    6554.1117    6972.2204    6565.8413    484.77226    1256.3834   -657.31628   -3746.4622 
10095000    203.73781   -4958.7208     -4551.22   -4958.7208            0    6228.3611    17.797965    22.886589    19.443813    7920.1398    8118.9431    5880.4038    4685.7362    315.19299   -234.89442   -101.22922      -3831.8 
10096000    213.35185   -4939.8727   -4513.1427   -4939.8727            0     5124.649    17.875962    23.038093    19.334191    7962.3628    6285.8713    4467.0748     4621.001   -201.76626   -1680.0302   -752.16111   -3918.0536 
10097000    205.06191   -4926.2728   -4516.1236   -4926.2728            0    8330.5193    17.859466    22.894675    19.287953    7886.5873     7900.155    8512.5709     8578.832    717.46573   -165.14068   -936.62013   -3557.9657 
10098000    204.44707   -4925.8153   -4516.8959   -4925.8153            0    7378.8422    17.939215    22.900067    19.193405    7884.8278    7712.6082    6725.5917    7698.3267   -958.05748   -699.42699   -64.371422   -3668.3871 
10099000    209.58514    -4946.399   -4527.2028    -4946.399            0    5954.8025    18.048902    22.708921    19.359182    7934.7689    5673.0364    5896.1933     6295.178   -377.34795   -1188.7697      1147.48   -3838.1103 
10100000    213.59763   -4945.9193   -4518.6976   -4945.9193            0    6611.5905    18.065687    22.585024     19.38272    7908.4205    5213.9024    6992.6393    7628.2296    509.67489   -1860.0237   -1302.8283   -3756.1419 
10101000    206.76435   -4968.2258   -4554.6715   -4968.2258            0    6674.4997    18.018475    22.687779    19.320552    7898.2259     6619.096     7259.669     6144.734    311.74757   -385.64861   -295.48843   -3785.8524 
10102000    203.50894   -4924.6062   -4517.5632   -4924.6062            0    6991.0891    18.061506    22.763445    19.286034    7929.3007     6274.813    7231.6862    7466.7683   -765.31782    1146.6732   -1659.2271   -3709.1086 
10103000    220.59332   -4933.5245   -4492.3106   -4933.5245            0    8630.5658    17.920131    23.014449     19.09693    7875.9931    8327.7178     8268.912    9295.0676    268.98626    813.15984   -491.08857   -3500.9755 
10104000    220.07127   -4947.0392   -4506.8694   -4947.0392            0    6745.8908    17.828591    22.936975    19.309892    7896.4706    7529.5358    6810.9757    5897.1611    826.78267    488.40981    1160.0407   -3729.9997 
10105000    214.31373   -4905.5343   -4476.8804   -4905.5343            0    6843.9478    17.769327    22.976966    19.404527    7922.5818    8313.5054    6293.9482    5924.3899   -444.02148     57.64166   -145.13916   -3686.1119 
10106000    200.16269   -4938.8139   -4538.4638   -4938.8139            0    8248.4905    18.044703    22.710598    19.243694    7886.1815    7308.6875    7987.3811    9449.4029    -466.8193    791.34057   -297.24608   -3589.7895 
10107000    216.22319   -4943.9044   -4511.4313   -4943.9044            0    8049.2502     17.93358    22.616729      19.4478    7888.0069    9515.6427    8947.3822    5684.7256   -415.44572    967.06252   -601.94796   -3585.4577 
10108000    205.01585   -4910.1061    -4500.049   -4910.1061            0    7245.4676    17.853281    22.848006    19.443389    7931.1894    8087.1766    7742.9247    5906.3015   -649.29487    973.90407    2012.5123   -3661.9784 
10109000    207.18705   -4934.8583   -4520.4586   -4934.8583            0    6984.3655    18.067432    22.841731    19.125008    7892.7264    7081.7263    6008.0168    7863.3534   -110.46204   -468.72246   -955.38335    -3716.507 
10110000    215.39574   -4930.6334   -4499.8153   -4930.6334            0    7721.9661    18.037293    23.013009    19.087192    7922.9482    6711.7326    6879.2823    9574.8833    220.34934   -535.62505   -581.64063    -3607.557 
10111000    223.51299   -4930.6252   -4483.5716   -4930.6252            0    6674.5534    17.924721    22.879488    19.301168    7915.5716    7771.3341    5910.9689    6341.3571    863.26197    397.22046    123.27568   -3713.0579 
10112000    207.59294   -4924.4939   -4509.2824   -4924.4939            0    7290.2519    17.948738    22.819737    19.277197    7895.6597    6853.6536     7811.781    7205.3211    261.00712   -1121.6162    363.34862   -3669.8091 
10113000    210.43432   -4945.9802   -4525.0855   -4945.9802            0    8860.7054    17.965497    22.669255    19.262678    7845.0037    8208.1008    9268.2624    9105.7531   -472.18243   -788.03696   -2305.6008   -3511.3204 
10114000    223.46547   -4948.3204   -4501.3619   -4948.3204            0    6649.6635    18.070361    22.774236    19.244664    7919.9234    6275.4269    6662.4181    7011.1453    102.72458   -383.19226    1399.4242   -3733.2994 
10115000    206.89398   -4931.8933   -4518.0798   -4931.8933            0    7282.0638    17.890178    22.723341    19.445347    7905.0125    7549.9341    7613.3722    6682.8851     271.8947   -626.11854    1026.4468   -3678.5562 
10116000    207.91925   -4953.3339   -4537.4697   -4953.3339            0    7116.2038    18.048669    22.731816    19.265765    7904.3393    7662.4859     7205.636    6480.4896    430.29659    134.77494   -13.246092   -3717.1374 
10117000    195.20996   -4933.7557   -4543.3117   -4933.7557            0    9010.2359    18.179974    22.713728    19.063222    7871.8713    8312.2265    9301.2512      9417.23    680.51345    253.79452   -1154.7908    -3508.908 
10118000     199.3476   -4928.9624   -4530.2425   -4928.9624            0    8669.6176    17.807922    23.034068     19.16601     7861.684    10074.641    8603.2869    7330.9253    263.73052     539.0408   -1033.4588    -3536.231 
10119000    208.74928   -4951.8592   -4534.3349   -4951.8592            0    6855.1382     17.88129    22.926173    19.255609     7893.828    7438.1522    6049.3994    7077.8629    225.62503    359.60482   -979.22384   -3745.1482 
10120000     219.9888   -4956.9763   -4516.9716   -4956.9763            0    9208.3658    18.027055    22.906794    19.007642    7849.0542    7462.4883    9691.7402    10470.869    838.68069    1325.3164    195.55958   -3462.8862 
10121000    215.32536   -4965.8729   -4535.1956   -4965.8729            0    8637.8466    17.955819    22.914931    19.086839    7853.4011    7646.2685    8243.3498    10023.922   -1052.8037   -93.908683   -44.546517   -3545.8702 
10122000    216.92194   -4921.1861   -4487.3154   -4921.1861            0      8447.32    17.859361    22.839835    19.286416     7867.023    6742.2441    9183.2509    9416.4649   -1912.1485    88.751747   -139.47564   -3518.1336 
10123000    209.33926   -4935.1841   -4516.4797   -4935.1841            0    7376.4467    17.876259    22.945184    19.255872    7898.2588    6865.7355    7156.9114    8106.6931    271.38884    32.739469    1455.5833   -3666.8015 
10124000    217.50306   -4942.7985   -4507.7655   -4942.7985            0    6993.9472    17.875897    23.019699    19.232258    7914.0308    7658.5399    6275.8561    7047.4457   -708.31506   -562.27813    526.03416   -3700.5379 
10125000    220.03659   -4932.3307   -4492.2304   -4932.3307            0    8020.3939    17.835546    23.008186    19.262064     7904.449    8375.7327    7070.9301    8614.5189   -838.41414   -1097.6522   -2504.6387   -3567.6531 
10126000    214.75228   -4961.2052   -4531.6741   -4961.2052            0    7777.5667    17.946974    22.944766    19.155563    7888.0522    8688.2793    7553.9967    7090.4242     1256.908    453.72407    1746.5423   -3636.9495 
10127000    204.88155   -4934.9292   -4525.1408   -4934.9292            0    8203.5442    17.892248    22.974537    19.170885    7880.5012    7779.8575     7687.025    9143.7502    47.312666    365.16138    644.18131   -3582.3154 
10128000     204.5354   -4944.0319   -4534.9359   -4944.0319            0    6744.8722     17.80527    23.045054    19.260794    7903.1543    5917.8321    7694.4204    6622.3641   -89.203297    319.98815   -178.41018    -3757.526 
10129000    222.47742   -4928.3077   -4483.3253   -4928.3077            0    7647.7566    17.914219    22.758982    19.379623    7901.2543    8943.1691    7881.4583    6118.6425    619.77808    30.325191    2419.0382   -3602.0614 
10130000    199.71656   -4944.9615   -4545.5037   -4944.9615            0    7902.2987    17.968538    22.629588    19.383757    7881.8351    6685.6383    8986.2613    8034.9965    85.952505    -17.14483    1643.9992   -3637.1465 
10131000    214.10048   -4973.9025   -4545.6751   -4973.9025            0    8681.9922    18.009782    22.646049    19.271774    7860.0012    9761.1911    8400.2159    7884.5695      214.625    301.27647    974.39334   -3550.4579 
10132000    216.29844   -4919.5108   -4486.8872   -4919.5108            0    6610.4013    18.026566    22.724529    19.324545    7916.2079    6435.9533    6697.3898    6697.8608    1423.9916   -994.41491    530.14425   -3723.7178 
10133000    210.05033   -4924.2593   -4504.1327   -4924.2593            0    6553.5136    17.971201    22.798037    19.402921    7949.5344    6867.4257    6268.6412    6524.4739    965.51883    645.66702   -1291.0928   -3744.3458 
10134000    210.88347    -4957.595    -4535.802    -4957.595            0    7306.3648     17.94124    22.919206    19.192383    7891.8881    9661.4695    6335.2837    5922.3412    537.77711    340.10282   -990.31043   -3694.8753 
10135000    199.48156   -4923.3376   -4524.3499   -4923.3376            0     10386.13    17.814819    22.934569    19.183888    7838.0608    8866.3258    11008.537    11283.528   -653.61649    1361.4548   -1224.6976   -3337.1105 
10136000    206.91496   -4917.8799   -4504.0244   -4917.8799            0    9034.5717    17.869932    23.155973    19.078098    7894.4343    9540.0895    7271.1941    10292.431    681.71114    148.59892   -181.99951   -3463.8541 
10137000    203.37675    -4933.739   -4526.9604    -4933.739            0    8508.3445    17.921777    22.902713    19.185364    7874.7728    8628.9221     9117.252    7778.8593    -1158.672    455.85948   -795.68327   -3549.8155 
10138000    201.25102   -4923.8472   -4521.3203   -4923.8472            0    8028.1735    17.916542    22.782983     19.32665    7888.9896    7149.0603    8822.7533     8112.707    372.17804    1114.2987    132.85892   -3597.6563 
10139000     205.8174   -4948.0593    -4536.399   -4948.0593            0    9377.4696    17.920788    22.737335    19.233988    7837.2917    10084.083    8666.7136     9381.612   -73.271763   -2109.7086    1.9613707   -3464.5649 
10140000    211.63402   -4928.3977   -4505.1036   -4928.3977            0    9603.0016    17.973853    22.622068     19.35422    7869.5364    9470.3848    10469.554    8869.0658   -1329.4726   -84.233591   -2019.2779   -3402.9756 
10141000    208.19437   -4947.9821   -4531.5676   -4947.9821            0    7353.1072    17.869127    22.744461    19.467382    7912.0047    7058.8527     7460.166    7540.3028   -272.12679    -59.76794    787.98741   -3683.1038 
10142000     208.3096    -4936.119   -4519.4741    -4936.119            0    7693.3632    18.070363    22.668526    19.264443    7891.2646    5369.2449    8718.1185    8992.7263    458.90311     550.8297    2007.3776   -3634.0757 
10143000    207.71261   -4951.4344   -4535.9835   -4951.4344            0    6647.0395    18.120958    22.675751    19.309683    7934.4709    5763.9075     7413.243     6763.968    208.00144    321.06225    -1494.207   -3766.8139 
10144000    215.85635   -4949.0976   -4517.3583   -4949.0976            0    7491.7661    17.898728    22.927906    19.250029    7899.8336    7999.3652    6497.2543    7978.6787   -747.96188    478.84249   -1358.1386   -3654.2246 
10145000    203.22843   -4930.3399   -4523.8579   -4930.3399            0    6769.9633    17.841392    23.151183     19.16647    7916.6978    8704.0728    5482.2291     6123.588     879.1285   -766.18801   -11.725995   -3742.2189 
10146000    214.68245   -4961.6875   -4532.2961   -4961.6875            0    7521.7669    17.828798    23.189123    19.093912    7894.0758    7966.5394    6139.7374    8459.0238    205.00844   -816.83324    -1143.225   -3666.3377 
10147000    205.34082    -4954.249    -4543.542    -4954.249            0    7626.8994    17.919505    22.861066    19.271605    7894.7862    5478.7328    8865.2149    8536.7503    297.25874    179.43437    523.68942   -3665.4009 
10148000    210.90276   -4956.5006   -4534.6691   -4956.5006            0    6216.2681    17.945029    22.779325    19.424873    7940.4152    6809.5954    6275.5588    5563.6502   -345.20922   -586.36844    1220.4552   -3814.8078 
10149000    217.89058   -4927.3394   -4491.5313   -4927.3394            0    7370.9779    18.111174    22.456211    19.485274    7924.8239    6325.4496    7649.4706    8138.0134   -9.9937736    620.19458   -167.85778   -3639.6273 
10150000    210.14079   -4940.4022   -4520.0947   -4940.4022            0    8634.3297    18.173739    22.365142    19.258074     7827.603    6761.2527    10339.436    8802.3005   -265.22703   -49.760294   -660.11544   -3534.4207 
10151000    224.31438    -4921.403   -4472.7465    -4921.403            0    9538.5696    18.083094    22.434749    19.351478    7850.6949    8145.1455    10421.173     10049.39    -1627.499    557.73244    843.46687   -3380.6344 
10152000    211.90719   -4937.1632   -4513.3227   -4937.1632            0     7925.179    18.009007    22.755615    19.264953    7894.8939    7034.4863    8063.1916     8677.859   -1018.4484   -504.61258   -1221.9943    -3600.826 
10153000     214.3502   -4931.3298   -4502.6029   -4931.3298            0    8478.5832    18.058845    22.780635    19.162404    7883.2587      7736.16    8605.1025    9094.4872    550.98901   -1453.9153    1428.1512   -3527.8267 
10154000    206.56246   -4935.9042   -4522.7538   -4935.9042            0    8334.3177    17.899161    22.836915    19.240067     7864.601    7062.6533    8406.8369    9533.4628    105.57116   -291.96163     1221.643   -3566.8314 
10155000    202.47436   -4929.0353   -4524.0616   -4929.0353            0    8584.7387    17.812126    23.019657    19.171393    7860.8274      10750.6    7667.3709    7336.2457   -1098.0411    841.60881    766.14711   -3539.8891 
10156000    204.98089   -4959.0194   -4549.0323   -4959.0194            0    7649.9898    17.896785    22.962279     19.24387    7908.2868    8519.6885    6772.8835    7657.3975   -697.46524    8.8144524    -375.7363   -3666.7264 
10157000    201.47163   -4928.2099   -4525.2417   -4928.2099            0    7366.0222    17.948935    22.876857    19.273011    7913.7914    6537.5353    7956.6072    7603.9241    104.94289    433.11147   -1238.3744   -3675.0958 
10158000    201.15556   -4946.3074   -4543.9714   -4946.3074            0    8365.7316    17.998872    22.733066    19.250541    7876.7353    7941.6985    8383.2596    8772.2366   -1339.3507   -1031.2016    1834.2687   -3582.9655 
10159000    206.59898   -4949.4371   -4536.2137   -4949.4371            0    8057.7845    17.965859    22.655756    19.335438    7870.1058    8651.1159    8921.7711    6600.4664   -305.25207   -77.169037     1487.588   -3611.3619 
10160000    211.00413   -4934.2887   -4512.2544   -4934.2887            0     6581.183    17.975063    22.790747    19.340753     7923.232    3455.9537    7605.8304     8681.765   -1195.2898    241.66511    243.41837   -3751.7841 
10161000    201.04138   -4942.3152   -4540.2075   -4942.3152            0    6393.4598    17.846296    23.070738    19.284317    7939.8782    6803.8091    6063.1014    6313.4689    333.08986    170.51863    813.37888    -3799.877 
10162000    211.98718    -4941.248   -4517.2475    -4941.248            0    7422.9004    17.757118    23.284132    19.093889    7894.5421    5942.7009    7602.8072    8723.1931     1512.083    1185.9743    2848.1863   -3662.6208 
10163000    212.92742   -4944.6925   -4518.8114   -4944.6925            0    9080.4415    17.786781     23.10297    19.084288    7842.2583    8913.6632    8930.4293    9397.2319   -1293.4049    1163.4403    946.74443   -3480.2696 
10164000    210.70329   -4955.5879   -4534.1553   -4955.5879            0    8656.5011    18.005618    22.817261    19.162364    7872.6443     8248.154    8361.7899    9359.5592    1048.1726    152.51045    839.99218   -3540.2639 
10165000    213.62698   -4950.9944   -4523.7141   -4950.9944            0    8173.7409    17.950531     22.49084    19.487217    7867.4284    8534.3987    8902.3433    7084.4808    1535.2502   -74.982463   -977.45386   -3585.8724 
10166000    224.83178   -4934.2952   -4484.6039   -4934.2952            0     7415.703    18.023314    22.619078    19.423986    7918.5907    9136.3851    7200.6389     5910.085   -93.747634   -560.74021   -263.95608    -3628.205 
10167000    206.43657     -4941.05   -4528.1514     -4941.05            0    7983.7436    18.082857    22.765242      19.1698    7891.4516    7618.1757    8414.5169    7918.5381    13.136337   -213.23688   -66.746376   -3609.3125 
10168000    213.40918   -4927.0548     -4500.21   -4927.0548            0    7208.4027    17.925541    22.843566    19.339389    7919.1559    7813.7481    6375.7245    7435.7356   -168.68627     439.7476   -813.78867   -3667.6917 
10169000     218.8353   -4929.2147   -4491.5171   -4929.2147            0    7494.8005    17.804019    23.133904    19.208639    7911.5862    7819.1388    6574.8071    8090.4555   -2024.8151    1021.1163   -1731.3987   -3626.7493 
10170000    207.05362   -4930.0275   -4515.8947   -4930.0275            0    6986.6366    17.872927    23.280366    19.121099    7956.0654    6215.1896     7003.723    7740.9973    1043.4801     900.5624    2061.5882   -3705.2279 
10171000    212.62819   -4930.5873   -4505.3046   -4930.5873            0    7817.9623    17.861123    23.004164    19.238037    7904.5286    7248.8086    7632.5081    8572.5702   -294.42789    236.89272   -452.46592   -3604.0543 
10172000    205.65846   -4944.2625   -4532.9202   -4944.2625            0    7399.1748    17.906083    22.777504    19.389376    7908.0711    9549.8105    6026.6786    6621.0351    529.87872   -2008.3258    1396.1291   -3679.5652 
10173000    210.20374   -4957.3237   -4536.8902   -4957.3237            0    7733.3686    18.044342    22.605988    19.327856    7884.0287    9201.3587    7505.0707    6493.6764   -850.80724   -578.13822    657.71433   -3647.7039 
10174000    214.44853   -4954.5758   -4525.6523   -4954.5758            0    7831.7014    18.039974    22.661066    19.264112    7875.2659    7961.9535    8113.2667    7419.8839    106.85934   -261.43972    1270.1064   -3626.1604 
10175000    203.46452   -4938.5687   -4531.6145   -4938.5687            0    6960.9459    17.908102    22.676735    19.472119    7907.5744    8660.5735    7019.4095    5202.8548   -1092.7194   -591.46026   -169.16268   -3728.8514 
10176000    216.75177   -4952.7219   -4519.1916   -4952.7219            0    8919.3544    17.885818     22.81284    19.227506    7845.3281    10073.138     9239.423    7445.5022    451.06366    437.31804     -882.262   -3498.6742 
10177000     212.6555   -4926.6075   -4501.2702   -4926.6075            0    6096.0998    17.969636    23.019956    19.200776    7942.5971     7383.392    4814.9831    6089.9242    1465.7728   -1168.3724   -736.36112   -3795.1307 
10178000     219.8182   -4954.0781   -4514.4146   -4954.0781            0    6822.3479     18.04277    22.944809    19.168917    7935.6998    6977.0199    5846.0201    7644.0038   -775.54721    110.45781   -1497.5678   -3724.8367 
10179000    220.41738   -4946.1792   -4505.3172   -4946.1792            0    6488.1318    17.870224     22.92184    19.373021     7935.546    7051.1235    5804.5211    6608.7508   -450.76321   -506.11816   -1367.5782    -3754.434 
10180000    204.61707   -4915.0132   -4505.7537   -4915.0132            0    8785.3663    17.906408     22.72092    19.368787    7880.1922    7672.5502    9220.6669    9462.8818   -934.36461   -361.54531    417.15227   -3496.0997 
10181000    211.81883   -4959.5498    -4535.886   -4959.5498            0    6533.1343    18.041665     22.79815    19.243636    7915.2266    5933.3712    6578.1858    7087.8459   -1519.8008   -327.30098   -674.75748   -3781.7306 
10182000    212.69279   -4937.8152   -4512.4034   -4937.8152            0    7483.9272    17.943445     22.73253    19.387258    7908.0607    7745.2726    7075.9458    7630.5632    968.60329    471.19277    983.36001   -3649.2749 
10183000    198.66041   -4935.3501   -4538.0047   -4935.3501            0    6317.1745    17.937503    22.915142    19.288767     7928.463    4310.6275    7583.3644    7057.5315   -242.28663    -472.9095   -686.05887   -3807.5593 
10184000    211.11908   -4964.5007   -4542.2365   -4964.5007            0    8174.2088    17.884748    22.790707    19.304374    7868.5795    8918.7765    7547.4834    8056.3665   -911.90116    1038.8209   -1016.2352   -3604.2039 
10185000    218.30759   -4929.7908   -4493.1487   -4929.7908            0    7725.7164    17.935233    22.806704     19.32225    7903.6418    6745.7968    7836.1444    8595.2079    610.03254    400.96952    515.55088   -3602.6324 
10186000    209.63101   -4927.7441   -4508.4561   -4927.7441            0    6078.0587    18.049706    22.958359     19.17839    7947.3641    6254.5836    5064.8698    6914.7227   -1624.6209    1398.6397   -1080.3424   -3803.9839 
10187000    215.20355   -4951.5005   -4521.0668   -4951.5005            0    8656.6874    17.729124    23.036863    19.168957    7829.0508     8953.683    9015.8054    8000.5738    133.34858   -498.64831    3326.3643   -3532.6577 
10188000    220.18045   -4936.8587   -4496.4706   -4936.8587            0    8353.9574    17.777097    22.962399    19.246285    7856.4255    10504.496    7230.2517    7327.1243   -771.75588    -746.2937   -2388.0441   -3539.2917 
10189000    206.53539   -4960.5336   -4547.4373   -4960.5336            0    7037.8319    17.874397    22.709713    19.460437    7899.4282    9357.7863    6284.0625    5471.6468    741.93875   -700.06168    513.33082   -3736.6435 
10190000    214.75848   -4908.3282   -4478.7847   -4908.3282            0    7755.0705    18.035201    22.536641    19.434711     7899.294    7561.4024    9321.6522    6382.1568    212.57948    219.04077   -1288.5959   -3585.3766 
10191000    216.48177   -4944.5475   -4511.5573   -4944.5475            0    6062.4873     18.10236     22.38216    19.575961    7931.5904    4055.8163    7486.5511    6645.0945   -609.02889    245.29194   -1001.2148   -3810.2844 
10192000    215.15456   -4940.1767    -4509.841   -4940.1767            0    7290.8521    18.067491    22.736705    19.228666    7899.0442    5270.1759    8436.8807    8165.4997   -987.52679    1058.6038   -140.87878   -3669.9388 
10193000    215.94156   -4952.0939   -4520.1841   -4952.0939            0    8613.9896    17.945351    22.907195    19.092647    7848.5606    5313.4454    9691.0873    10837.436    -447.5641    1557.2667     348.5969   -3534.1992 
10194000    203.98022   -4919.4947   -4511.5091   -4919.4947            0    7722.1956    17.829029    23.020555    19.194392    7878.0338    8278.1924    7153.1096    7735.2848   -460.57095    1071.5227   -1176.0494   -3624.2825 
10195000    208.10529   -4935.1488   -4518.9125   -4935.1488            0    5721.3977    17.981293    22.828618    19.365666    7949.3749    5797.3754    6127.7135    5239.1041   -1302.1942   -285.26068    1045.4259   -3855.6109 
10196000    210.76354   -4948.1704   -4526.6173   -4948.1704            0    7943.4351    18.027257    22.668862    19.347651    7906.5613    6801.8577    8625.5358    8402.9119    753.67085    135.98489    2108.3479    -3610.667 
10197000    211.81977   -4938.3244   -4514.6587   -4938.3244            0    7954.7047    17.973174    22.671787    19.337538    7879.7369    5977.0954     8711.057    9175.9616     2279.174   -923.04325    1109.3734   -3600.5209 
10198000    218.54006   -4953.2865   -4516.1794   -4953.2865            0    8206.6669    17.898807    22.784424    19.335051    7885.1043    7406.1024    8674.5099    8539.3885   -391.49865   -164.30907    509.31837   -3572.4442 
10199000    224.67244   -4947.0123   -4497.6397   -4947.0123            0    7861.7083    17.847057    23.000126    19.213074    7886.6704    9955.6905    7046.8909    6582.5436   -473.21645   -42.697577   -563.65202   -3593.3939 
10200000    208.78923   -4932.8446   -4515.2403   -4932.8446            0    8488.3009    17.853713    23.047213    19.088074    7854.3288    9820.8464    7463.8133     8180.243    63.799679    527.37736   -2275.5663   -3542.9281 
10201000    217.13785   -4953.9443   -4519.6418   -4953.9443            0    7593.0029    18.025757    22.840273    19.134846    7878.0692    6022.6255    8478.3985    8277.9848   -397.52942    145.28064   -1205.3312   -3647.2547 
10202000    206.85918   -4927.9245   -4514.1805   -4927.9245            0    8813.9847    17.788717    22.694455     19.47997    7864.1663    10396.696    9352.8096    6692.4491    2460.3135    75.814599    401.93174   -3503.2976 
10203000    204.13604   -4946.0052   -4537.7079   -4946.0052            0    8386.8612    18.026245    22.346902    19.504995    7857.2115    8507.8091    9368.4142    7284.3603    144.06235   -32.996979    1338.8454   -3576.6628 
10204000    199.25763   -4945.2712   -4546.7313   -4945.2712            0    6688.7049    18.170264    22.569746    19.312223     7919.909    5286.3146    6476.0746    8303.7255   -333.55547   -362.70489    109.36689   -3774.1608 
10205000    210.58416   -4963.2723   -4542.0779   -4963.2723            0    7048.4807      18.0293    22.558471    19.387777    7885.2692    5803.1683      8610.08    6732.1938    244.04908   -39.076199     697.3163   -3731.5128 
10206000    207.33575    -4950.571   -4535.8739    -4950.571            0    5864.5535    18.043331    22.753878    19.371443    7953.0576     5230.525    5847.8235     6515.312    393.27692   -407.67758    951.45462   -3855.6608 
10207000     217.7245   -4947.7207   -4512.2448   -4947.7207            0    8025.7003    17.825596    23.046362    19.164013    7872.8665    7737.5518    7818.7824    8520.7666    264.17772   -614.40986     1202.227   -3590.7525 
10208000    223.45536   -4951.8536   -4504.9152   -4951.8536            0    5470.8473    17.921121    23.118066    19.129144    7925.2362    4745.2416    5011.4315    6655.8689   -288.90065   -249.39466    68.484239   -3872.5868 
10209000    215.76563   -4952.4917   -4520.9338   -4952.4917            0    6476.5163    17.852417    23.103532    19.220803    7927.6948    6510.3107    6506.3542    6412.8841    923.67943   -823.91021    43.099971   -3772.1364 
10210000    212.07389   -4933.1047   -4508.9307   -4933.1047            0    6894.7785    17.927372    22.874788    19.365708    7941.5834    9125.5937    6260.9811    5297.7606   -1200.5626    440.70719     -132.362   -3710.3785 
10211000    218.29935   -4948.8462   -4512.2205   -4948.8462            0    6612.8467    18.002536     22.68233      19.4372     7936.976    5831.8863    6741.7769    7264.8769   -395.81819    1393.0077   -19.176211   -3746.7659 
10212000    212.72605   -4940.7965   -4515.3181   -4940.7965            0    5780.1958    18.271165    22.310793     19.51083    7953.4764    5337.9232    6973.2003    5029.4638   -922.67327    1051.3495   -1509.7164   -3844.8542 
10213000    212.93589   -4948.8745   -4522.9764   -4948.8745            0     7507.898     18.19356    22.510692     19.29971     7904.189    6783.0643    7880.7318    7859.8979    144.83057   -318.72422    841.57159   -3657.5073 
10214000    205.84144   -4931.4416   -4519.7333   -4931.4416            0    9257.7733    17.797636    22.882492    19.282663    7852.9467    11592.526     9183.142    6997.6521   -427.80607    425.20387   -1572.6654   -3459.4667 
10215000    209.50979    -4973.761   -4554.7155    -4973.761            0    9062.1628    17.790377    22.970914    19.169066    7833.6537    9951.5494    8251.4056    8983.5335    846.92867   -310.93465    810.85925   -3519.4015 
10216000    207.47065    -4934.001    -4519.034    -4934.001            0    7635.0306    17.804688    23.131514    19.155457    7889.1632    7607.9938    6585.0782    8712.0197    994.35169    101.83511    410.80933   -3640.5829 
10217000    202.29952   -4948.8665   -4544.2425   -4948.8665            0    7834.6869    17.925478    22.726851    19.334952    7876.8595    8008.9876    8295.9651    7199.1079   -930.77258    -58.40078   -1878.9621   -3644.2256 
10218000    209.89018   -4925.7176   -4505.9113   -4925.7176            0    8014.6665    18.041188    22.618858    19.326978    7886.7805    6800.2368    8138.2168    9105.5459   -262.96669    345.64325   -168.99155   -3584.0595 
10219000    201.72649   -4924.9748   -4521.4969   -4924.9748            0    8650.2883    18.117793    22.492129    19.346092    7883.6823    7768.2098    9350.9303    8831.7248    754.50936    738.88855    600.18783   -3526.9264 
10220000     208.6072   -4962.4145   -4545.1743   -4962.4145            0    7394.0357    17.944128    22.680985     19.34723    7874.1389    8474.5651    6308.2861    7399.2558   -320.87892   -1238.4603   -678.04425   -3696.0711 
10221000    206.32793    -4935.925   -4523.2437    -4935.925            0    9166.1138    17.860616    22.906845      19.1873    7850.1069     9211.143    9154.0641    9133.1342    946.91693    1137.9133   -1293.7277   -3473.8542 
10222000    193.98754   -4936.3598   -4548.3607   -4936.3598            0    7932.9901    17.797356     23.04075    19.178121    7864.2652    8452.9818    7328.6933    8017.2952    867.92944   -400.68341    852.93236   -3638.5083 
10223000    211.01674     -4965.81   -4543.7505     -4965.81            0    8105.3611    17.857115    22.755992    19.352428    7863.9821    8341.0298     7853.022    8122.0315   -1184.4315   -727.06873   -1458.6552   -3614.1619 
10224000    201.69386    -4919.971   -4516.5584    -4919.971            0    7672.1455    18.059228    22.591231    19.404377    7916.6016    6772.1791    8112.7791    8131.4783   -996.30123   -478.92714   -533.42714   -3630.7669 
10225000    201.76514   -4946.6067   -4543.0515   -4946.6067            0    6935.0487    18.001491    22.779163    19.303056    7915.3895    5981.9239    7356.0189    7467.2033   -102.47444    250.39897   -953.20081   -3742.4845 
10226000    207.61474   -4938.5175   -4523.2624   -4938.5175            0    7423.9849    17.888059    22.888514    19.272738    7890.8579    7418.1954    7593.3176    7260.4418    57.980132    797.55253    1247.9759   -3668.9097 
10227000    220.80366    -4914.305   -4472.6704    -4914.305            0    7263.3877     18.01455    22.979219    19.168506    7935.0006    7386.6544    6812.7376    7590.7711    189.78027   -148.60575    287.13899   -3632.1233 
10228000    207.52666   -4912.9482   -4497.8693   -4912.9482            0     7619.511    17.839402    22.904072    19.355089    7908.3916     6974.908    8041.5462    7842.0788   -905.12251    1273.1816   -1520.7282    -3619.067 
10229000    209.92606   -4922.3051    -4502.427   -4922.3051            0    8550.4808    17.903562    22.784533    19.341903    7890.0322    7867.2847    9595.6062    8188.5514   -1421.4409    875.10065   -1514.3065   -3518.5401 
10230000    224.03926   -4929.2733   -4481.1671   -4929.2733            0     8475.259    18.137559     22.61269    19.232915     7888.168    7663.8369    8687.9342    9074.0057   -383.98728    71.441599     299.8196   -3506.1662 
10231000    217.58258     -4932.24    -4497.048     -4932.24            0    9032.1947     18.08689    22.502418    19.345436    7873.5687    8763.4591    9948.8091    8384.3161    525.80957   -311.72868   -964.72436   -3459.8998 
10232000    210.62367   -4925.3413    -4504.068   -4925.3413            0    8392.3001    17.709793    22.863493    19.349811    7834.8878    11497.218    7349.3199    6330.3625   -594.83753   -397.65667   -1406.5399   -3545.1319 
10233000    214.27104   -4953.7295    -4525.161   -4953.7295            0    9784.8484    17.830733    22.965139    19.109349    7824.9965    9572.9732    10141.204    9640.3676    -1264.564    442.83294    238.87327   -3408.5185 
10234000    210.30312   -4926.4578   -4505.8256   -4926.4578            0    6955.0117    17.940028    23.036517    19.170572    7922.7328    6902.2017    6884.1366    7078.6969    1249.7376   -664.95036    1586.6342   -3702.2093 
10235000    205.67809   -4954.6193   -4543.2377   -4954.6193            0    5901.7646    17.855756    23.049253    19.257415    7925.6171    5966.2027    4747.9122    6991.1789   -1479.4704   -700.34105   -693.30804   -3861.0704 
10236000    217.22283   -4958.7495    -4524.277   -4958.7495            0    8337.1654    17.929321    22.650085    19.421388    7887.0383    7151.1174    9141.0244    8719.3543    961.69767    1896.6684    1594.9029   -3565.2999 
10237000    206.79072   -4943.3944   -4529.7874   -4943.3944            0    7746.7432    18.121918    22.664149    19.210277    7890.0036    6306.1232     8851.152    8082.9544   -217.60141    532.73181    252.86677   -3638.3882 
10238000    215.82618   -4941.4538   -4509.7748   -4941.4538            0    6804.0483    17.955406    22.763496    19.393749    7926.7646    6584.4915    8194.4776    5633.1756   -159.64856    729.17695    -172.6275   -3723.2014 
10239000    215.76563    -4944.369   -4512.8111    -4944.369            0    8229.4918    17.936293    22.815817    19.236369    7872.1222    7966.2738    8913.3301    7808.8715    1176.5005    160.81448   -114.31764   -3568.0092 
10240000    217.89019   -4943.2211   -4507.4138   -4943.2211            0    7652.0484    17.952004    22.973137    19.145275    7895.7767    8760.4596    6872.6602    7323.0254    697.07728   -104.36503   -315.14924   -3626.2666 
10241000    203.57334   -4941.9409    -4534.769   -4941.9409            0    7313.5731    17.830582    22.839012    19.381704    7892.8668    6491.7018     7685.462    7763.5555   -584.01391   -371.39445   -581.67411   -3692.9083 
10242000    213.16381   -4961.5774   -4535.2234   -4961.5774            0    6030.8021    18.001137    22.844957    19.298887    7936.3821    5746.8689    6111.9927    6233.5448    159.58701   -374.91365    900.67402   -3837.1943 
10243000    226.88592   -4962.0473   -4508.2475   -4962.0473            0    5405.9957    18.010747    23.047196     19.23879    7985.9679    4561.8181    4657.4209     6998.748   -582.56887    647.88194    -1243.507   -3878.6266 
10244000    217.83341   -4938.5956   -4502.9019   -4938.5956            0    7488.9756    17.938323    22.964999    19.131575    7881.3208    7457.8843    6676.8839    8332.1586   -1510.9191    232.07913    499.65851   -3642.1117 
10245000    220.97959   -4934.6062   -4492.6197   -4934.6062            0    8746.4233    17.943437     22.74395    19.346939    7895.5753    9399.8024    8470.3202    8369.1473   -268.67117    578.97176    302.31605    -3485.479 
10246000    203.10664    -4931.703   -4525.4646    -4931.703            0    5538.4119    18.094395    22.732256    19.330305    7951.0654    3898.4583    6396.5238    6320.2535    -1616.708    466.33177   -187.61403   -3883.2407 
10247000    204.86143   -4926.0272    -4516.279   -4926.0272            0    8252.8625     18.11369    22.540698    19.382752    7913.8854     7089.022    9501.1985    8168.3671     68.11873     399.7485    1173.6212   -3563.7675 
10248000    216.50969   -4930.9893   -4497.9431   -4930.9893            0    6846.0664    17.905518    22.743901    19.452308    7921.7838    7427.4388     5787.846    7322.9145    1211.4775   -2344.2357    562.29735   -3707.0096 
10249000    212.32535   -4949.9987   -4525.3218   -4949.9987            0    7535.8084    17.910283    22.826822    19.286423    7884.9615    8747.3094    7018.6636    6841.4521     10.38449   -781.51016    243.32538   -3658.7485 
10250000    219.41998   -4930.2061   -4491.3391   -4930.2061            0    6701.8358    18.019004    23.030743    19.057834    7908.8301    6179.5287    6143.2752    7782.7035    379.71655   -213.36902   -473.19023   -3718.3347 
Loop time of 457.843 on 64 procs for 250000 steps with 1008 atoms

Performance: 94.355 ns/day, 0.254 hours/ns, 546.038 timesteps/s
194.9% CPU use with 32 MPI tasks x 2 OpenMP threads

MPI task timing breakdown:
Section |  min time  |  avg time  |  max time  |%varavg| %total
---------------------------------------------------------------
Pair    | 35.575     | 39.82      | 44.492     |  33.8 |  8.70
Bond    | 0.99002    | 1.216      | 1.6198     |  12.9 |  0.27
Kspace  | 225.01     | 232.15     | 244.01     |  30.6 | 50.71
Neigh   | 2.5755     | 2.8275     | 3.2655     |  13.1 |  0.62
Comm    | 66.137     | 76.859     | 82.046     |  46.7 | 16.79
Output  | 0.52465    | 0.52495    | 0.52666    |   0.0 |  0.11
Modify  | 86.027     | 91.524     | 94.313     |  17.6 | 19.99
Other   |            | 12.92      |            |       |  2.82

Nlocal:        31.5000 ave          35 max          26 min
Histogram: 1 1 4 3 0 3 3 13 2 2
Nghost:        2911.62 ave        2929 max        2896 min
Histogram: 3 3 3 4 5 5 1 3 2 3
Neighs:        10577.1 ave       11885 max        8702 min
Histogram: 1 3 4 1 0 3 3 13 1 3

Total # of neighbors = 338466
Ave neighs/atom = 335.77976
Ave special neighs/atom = 2.0000000
Neighbor list builds = 6304
Dangerous builds = 0

unfix		3
unfix		2
unfix		1

write_data	data.final.${pid}
write_data	data.final.0
System init for write_data ...
PPPM initialization ...
  extracting TIP4P info from pair style
  using 12-bit tables for long-range coulomb (../kspace.cpp:340)
  G vector (1/distance) = 0.38387204
  grid = 24 30 32
  stencil order = 5
  estimated absolute RMS force accuracy = 0.0019026637
  estimated relative force accuracy = 5.7298153e-06
  using double precision FFTW3
  3d grid and FFT values/proc = 5712 768
Last active /omp style is kspace_style pppm/tip4p/omp
WARNING: Not all mixed pair coeffs generated from mixing. Use write_data with 'pair ij' option to store all pair coeffs. (../write_data.cpp:312)

write_restart   restart.lmp.${pid}
write_restart   restart.lmp.0
System init for write_restart ...
PPPM initialization ...
  extracting TIP4P info from pair style
  using 12-bit tables for long-range coulomb (../kspace.cpp:340)
  G vector (1/distance) = 0.38387204
  grid = 24 30 32
  stencil order = 5
  estimated absolute RMS force accuracy = 0.0019026637
  estimated relative force accuracy = 5.7298153e-06
  using double precision FFTW3
  3d grid and FFT values/proc = 5712 768
Last active /omp style is kspace_style pppm/tip4p/omp
Total wall time: 0:07:38
