LAMMPS (30 Jul 2021)
  using 1 OpenMP thread(s) per MPI task
package omp 0
using multi-threaded neighbor list subroutines
echo both

include		in.partitions
variable        pid world 0
include		in.temp
variable        temperature equal 262.90
variable	tempDamp equal 100.0
include		in.pressure
variable        pressure equal 8250.0
variable        pressureDamp equal 1000.0 # This is 1 ps
include		in.seed
variable        seed world 745823

units		real
atom_style	full
read_restart	restart.lmp.${pid}
read_restart	restart.lmp.0
Reading restart file ...
  restart file = 30 Jul 2021, LAMMPS = 30 Jul 2021
  restoring atom style full from restart
  orthogonal box = (0.56375637 1.7555618 0.68778146) to (17.643816 21.873616 21.525414)
  4 by 4 by 4 MPI processor grid
  restoring pair style lj/cut/tip4p/long/omp from restart
  restoring bond style harmonic/omp from restart
  restoring angle style harmonic/omp from restart
  864 atoms
  576 bonds
  288 angles
Finding 1-2 1-3 1-4 neighbors ...
  special bond factors lj:    0        0        0       
  special bond factors coul:  0        0        0       
     2 = max # of 1-2 neighbors
     1 = max # of 1-3 neighbors
     1 = max # of 1-4 neighbors
     2 = max # of special neighbors
  special bonds CPU = 1.906 seconds
  read_restart CPU = 2.284 seconds
include 	in.setup
variable	out_freq equal 1000
variable	out_freq2 equal 10000
variable	out_freq3 equal 1000

timestep	2.0

neigh_modify    delay 7 every 1

include		in.tip4p
# This is TIP4P/Ice

# create groups ###
group ox type 2
288 atoms in group ox
group hy type 1
576 atoms in group hy

# set charges - beside manually ###
set group ox charge -1.1794
Setting atom values ...
  288 settings made for charge
set group hy charge 0.5897
Setting atom values ...
  576 settings made for charge

# ### TIP3P Potential Parameters ###
pair_style lj/cut/tip4p/long/omp 2 1 1 1 0.1577 8.5
pair_coeff 1 1*2 0.000 0.000
pair_coeff 2 2 0.21084 3.1668
bond_style  harmonic
bond_coeff  1 450 0.9572
angle_style harmonic
angle_coeff 1 55 104.52
kspace_style pppm/tip4p/omp 1.0e-5
pair_modify tail yes

thermo          ${out_freq}
thermo          1000
thermo_style    custom step temp pe etotal epair emol press lx ly lz vol pxx pyy pzz pxy pxz pyz enthalpy

restart 	${out_freq3} restart.lmp.${pid} restart2.lmp.${pid}
restart 	1000 restart.lmp.${pid} restart2.lmp.${pid}
restart 	1000 restart.lmp.0 restart2.lmp.${pid}
restart 	1000 restart.lmp.0 restart2.lmp.0


include         in.dump
dump            myDump all atom ${out_freq2} dump.water.${pid}
dump            myDump all atom 10000 dump.water.${pid}
dump            myDump all atom 10000 dump.water.0
dump            myDump2 all dcd ${out_freq2} dump.dcd
dump            myDump2 all dcd 10000 dump.dcd
dump_modify     myDump append yes
dump_modify     myDump2 append yes


variable natoms 	equal  "count(all)"                        # NUMBER ATOMS
variable H      	equal  "enthalpy/v_natoms"                 # ENTHALPY-per-atom
variable Vol      	equal  "vol/v_natoms"                 # volume-per-atom
fix AVG all 		ave/time ${out_freq} 1 ${out_freq} v_Vol v_H file vol_enthalpy.dat
fix AVG all 		ave/time 1000 1 ${out_freq} v_Vol v_H file vol_enthalpy.dat
fix AVG all 		ave/time 1000 1 1000 v_Vol v_H file vol_enthalpy.dat


timer           timeout 23:50:00 every 1000
New timer settings: style=normal  mode=nosync  timeout=23:50:00

fix 		1 all shake 1e-6 200 0 b 1 a 1
       0 = # of size 2 clusters
       0 = # of size 3 clusters
       0 = # of size 4 clusters
     288 = # of frozen angles
  find clusters CPU = 0.002 seconds
fix             2 all nph iso ${pressure} ${pressure} ${pressureDamp}
fix             2 all nph iso 8250 ${pressure} ${pressureDamp}
fix             2 all nph iso 8250 8250 ${pressureDamp}
fix             2 all nph iso 8250 8250 1000
fix             3 all temp/csvr ${temperature} ${temperature} ${tempDamp} ${seed}
fix             3 all temp/csvr 262.9 ${temperature} ${tempDamp} ${seed}
fix             3 all temp/csvr 262.9 262.9 ${tempDamp} ${seed}
fix             3 all temp/csvr 262.9 262.9 100 ${seed}
fix             3 all temp/csvr 262.9 262.9 100 745823

run             250000
PPPM initialization ...
  extracting TIP4P info from pair style
  using 12-bit tables for long-range coulomb (../kspace.cpp:340)
  G vector (1/distance) = 0.37375203
  grid = 24 24 24
  stencil order = 5
  estimated absolute RMS force accuracy = 0.0032196338
  estimated relative force accuracy = 9.6958315e-06
  using double precision FFTW3
  3d grid and FFT values/proc = 2535 216
Last active /omp style is kspace_style pppm/tip4p/omp
Neighbor list info ...
  update every 1 steps, delay 7 steps, check yes
  max neighbors/atom: 2000, page size: 100000
  master list distance cutoff = 10.8154
  ghost atom cutoff = 10.8154
  binsize = 5.4077, bins = 4 4 4
  1 neighbor lists, perpetual/occasional/extra = 1 0 0
  (1) pair lj/cut/tip4p/long/omp, perpetual
      attributes: half, newton on, omp
      pair build: half/bin/newton/omp
      stencil: half/bin/3d
      bin: standard
Per MPI rank memory allocation (min/avg/max) = 9.235 | 9.238 | 9.241 Mbytes
Step Temp PotEng TotEng E_pair E_mol Press Lx Ly Lz Volume Pxx Pyy Pzz Pxy Pxz Pyz Enthalpy 
 5250000    267.55702   -3864.5473   -3405.9637   -3864.5473            0    6126.3274     17.08006    20.118054    20.837633    7160.1767    4524.4446    6240.5696     7613.968   -1346.5757   -2102.5447   -675.93554   -2766.2292 
 5251000    274.11069   -3889.8235   -3420.0072   -3889.8235            0    7155.0912    17.013455    20.039603    20.756375    7076.7382    6560.9981    6949.6462    7954.6295    1039.4362   -771.44612    601.31774   -2681.5519 
 5252000    271.00547   -3875.5428   -3411.0487   -3875.5428            0    8313.4529     17.00037     20.02419    20.740412    7060.4228    7779.8304    8208.4611    8952.0671    378.44306    -816.7291    1355.6956   -2555.0205 
 5253000    259.12448   -3867.0034   -3422.8729   -3867.0034            0    8732.9512    17.005497    20.030229    20.746667    7066.8128    8834.1821    8371.8882    8992.7834    301.02089   -316.47487   -852.35027   -2522.8356 
 5254000    257.11455   -3907.0035   -3466.3179   -3907.0035            0    6009.4162    17.099784    20.141287    20.861697    7185.0114    6234.3557    6127.4335    5666.4595   -148.20146    487.62464   -926.09237   -2836.6151 
 5255000    266.24485   -3867.2023   -3410.8677   -3867.2023            0    9361.7699    16.995925    20.018955    20.734989    7054.8862    10082.615    9454.0229    8548.6719   -969.17535   -148.42609   -1099.1939   -2447.6513 
 5256000    266.96565   -3848.0839   -3390.5139   -3848.0839            0    9334.0353    16.984358     20.00533    20.720877    7040.4918    9014.9755    9666.0163     9321.114   -1122.8673    1098.9435    448.31816   -2432.1106 
 5257000    275.57811   -3875.6195   -3403.2881   -3875.6195            0    9793.0801    16.969945    19.988354    20.703293    7022.5833    9421.4497      10527.3    9430.4901   -1003.8414    227.82165    568.05533   -2400.3085 
 5258000    270.57418   -3870.1683   -3406.4134   -3870.1683            0    8040.3413     17.05619    20.089939    20.808512    7130.1993    7750.9229     7916.545    8453.5561    447.03036    952.16355   -599.90336   -2570.3253 
 5259000    275.02738   -3853.5119   -3382.1244   -3853.5119            0     9327.704    16.996784    20.019966    20.736037    7055.9558    8855.0659    7725.2228    11402.823   -1013.2949    1425.3556    240.73261   -2422.2675 
 5260000    258.60095   -3830.0712    -3386.838   -3830.0712            0    8187.7418    17.075587    20.112786    20.832176    7154.5531    7486.1089    9468.7831    7608.3335    400.79679    369.95132    163.67129   -2532.5141 
 5261000    264.69446   -3841.2122   -3387.5349   -3841.2122            0     10316.05    16.965368    19.982963     20.69771    7016.9028    10837.616    10833.543    9276.9909     277.5149    752.59066    520.63919   -2331.8489 
 5262000    274.43201   -3844.3749   -3374.0078   -3844.3749            0    7485.0754    17.015245    20.041711    20.758559    7078.9725    7628.1315    6575.3068    8251.7881    62.336487    140.84128    1588.7068    -2601.252 
 5263000    279.26371   -3873.7159   -3395.0674   -3873.7159            0    7810.3621    17.044911    20.076654    20.794752    7116.0633    7602.8982    8333.2737    7494.9145   -77.181137   -402.15267    2016.1714   -2584.5043 
 5264000    244.89237    -3860.741   -3441.0039    -3860.741            0    11354.403    16.977125    19.996811    20.712053    7031.5006    10307.866    12741.179    11014.164    -318.4834   -1515.5379    1148.9906   -2276.6414 
 5265000    259.26147   -3879.6842   -3435.3189   -3879.6842            0    7347.3345    17.057697    20.091714    20.810351    7132.0899    9478.3185    7259.5956    5304.0893    92.427406    2151.8056    527.48558   -2671.0916 
 5266000    269.13298   -3871.9622   -3410.6775   -3871.9622            0    7223.8756    17.030213    20.059341     20.77682    7097.6702    7596.4925    7693.0948    6382.0395    969.65512    633.59223     352.0951   -2662.9179 
 5267000    259.84272   -3862.7767   -3417.4152   -3862.7767            0    6904.1262    16.970187    19.988638    20.703588    7022.8834    8114.5927    6527.1803    6070.6055   -1444.6662   -19.730665   -591.11247   -2710.2839 
 5268000    262.75985   -3903.3969   -3453.0355   -3903.3969            0    10309.568    16.922783    19.932803    20.645756    6964.1957    10870.023    10007.023    10051.658    956.95971    215.10452   -1001.6374   -2405.9376 
 5269000    253.11052   -3864.9125   -3431.0897   -3864.9125            0    8458.8458    16.965565    19.983194    20.697949    7017.1467    9365.7118    9269.7529    6741.0726    569.18049   -640.88289    898.48762   -2565.4293 
 5270000    252.06826   -3851.6893   -3419.6529   -3851.6893            0    8890.5018    16.964655    19.982123     20.69684    7016.0182    9176.7618     7643.135    9851.6087     235.0348   -634.51162    533.13825   -2509.9641 
 5271000     262.2953    -3866.691   -3417.1258    -3866.691            0    10003.744    16.990877    20.013009    20.728831    7048.6021    11877.967    9397.4267    8735.8392   -91.846846    813.18434    -343.8303   -2388.7746 
 5272000    265.08954   -3841.8292   -3387.4748   -3841.8292            0    8492.7487     16.99636    20.019467     20.73552    7055.4281     8353.392    10245.111    6879.7432    1941.3548   -1716.3424   -1061.8222   -2513.6034 
 5273000     254.3844   -3883.2579   -3447.2517   -3883.2579            0    8985.6832    16.985136    20.006247    20.721826    7041.4595     9108.083    8536.8171    9312.1495   -92.296531   -285.58016   -623.75397   -2524.4898 
 5274000    269.20952   -3827.1826   -3365.7667   -3827.1826            0    7026.1912    17.063993     20.09913    20.818031    7139.9894    6211.2744    8004.2836    6863.0156    916.87682   -406.16461    425.77175   -2634.1335 
 5275000     256.4055   -3850.9455   -3411.4753   -3850.9455            0    7396.1535    17.034977    20.064953    20.782632    7103.6285    7228.5802    8138.0575    6821.8228   -64.598285    1195.7547   -1619.0497   -2645.2402 
 5276000    264.23653   -3846.2318   -3393.3395   -3846.2318            0    9124.1771    17.008168    20.033375    20.749925    7070.1431    8563.8949    10277.347    8531.2892   -733.87911    415.21847   -1453.9578   -2452.5384 
 5277000    262.83698   -3849.8325   -3399.3389   -3849.8325            0    9223.5427    17.028488    20.057309    20.774715    7095.5136    9522.2649    9842.2795    8306.0838   -989.97394    861.28026   -545.45882   -2444.8794 
 5278000    255.66411    -3846.353   -3408.1535    -3846.353            0     9061.189    16.962257    19.979299    20.693914    7013.0435    8324.0418    9405.6929    9453.8322    75.120192    1472.0559   -927.57777   -2481.3928 
 5279000    243.12995   -3846.2891   -3429.5727   -3846.2891            0    7204.2584    17.010995    20.036705    20.753374    7073.6687    7257.6505    8269.8764    6085.2484    -720.2774    636.05076   -1177.1134   -2686.3655 
 5280000    265.28243   -3825.9566   -3371.2716   -3825.9566            0    8014.7949    17.051809    20.084778    20.803167    7124.7059    6514.9524    7588.1675    9941.2647   -1518.3626    -565.9308     872.0488   -2538.4821 
 5281000    266.33134   -3822.8332   -3366.3504   -3822.8332            0    6780.7926    17.021359    20.048912    20.766018    7086.6058    6356.4822    6333.4564    7652.4393   -674.48856    645.33558     109.9967   -2665.5496 
 5282000    262.48597   -3833.2593   -3383.3673   -3833.2593            0    9888.7516    16.910617    19.918473    20.630913    6949.1865    8788.4783    5813.6063     15064.17    359.24926   -1247.7283    -356.6045   -2381.1744 
 5283000    272.42807   -3859.6827   -3392.7503   -3859.6827            0    8719.7631     16.99374    20.016381    20.732323    7052.1655     7300.097    10201.939    8657.2532    559.32495    547.46925   -1660.3068   -2495.9349 
 5284000    254.84712   -3894.7208   -3457.9215   -3894.7208            0    8430.7561    17.000899    20.024813    20.741057     7061.082    9089.4305    8154.1231    8048.7147   -464.71554    723.59208   -968.35141   -2589.7338 
 5285000     253.8952   -3913.4769   -3478.3092   -3913.4769            0    10726.099    16.980711    20.001035    20.716428    7035.9579    10279.887    11314.156    10584.255    428.83872    363.04782    125.29002   -2377.6803 
 5286000    256.16161    -3898.263   -3459.2108    -3898.263            0    9311.7896    17.002676    20.026906    20.743225    7063.2963    10474.677    8953.1141    8507.5773    509.05689    1658.1594   -1821.5723   -2499.9947 
 5287000    260.29951   -3879.5152   -3433.3708   -3879.5152            0    6604.1436    17.014103    20.040365    20.757165    7077.5465    5969.5031    6694.1067    7148.8209     553.2937   -599.65924     1262.944   -2751.6993 
 5288000     264.1781   -3888.5113    -3435.719   -3888.5113            0    7713.7759    17.006553    20.031473    20.747955    7068.1293    7004.6922     8745.345    7391.2906   -1211.5941   -99.501718    295.65607   -2640.5721 
 5289000    270.84501   -3870.3313   -3406.1123   -3870.3313            0    8617.8031     17.05201    20.085015    20.803412    7124.9579    10746.654    6200.7934    8905.9622   -575.55997    -387.2355    680.99114   -2510.6346 
 5290000    259.02222   -3902.1011   -3458.1459   -3902.1011            0    8465.0966    17.029545    20.058555    20.776005    7096.8356    7279.7594    9789.7478    8325.7827    52.883377    443.13468   -748.45474   -2582.0078 
 5291000    256.75261   -3869.1487   -3429.0835   -3869.1487            0    6802.0166    17.038332    20.068905    20.786725    7107.8267    6963.6522    6148.4198    7293.9777    1196.4131   -1175.5157   -778.63629   -2723.9841 
 5292000    267.09471   -3881.9236   -3424.1324   -3881.9236            0    11496.737    16.929499    19.940714    20.653949    6972.4904    11493.951    11631.704    11364.556   -1414.6875    608.41081    1417.4551    -2255.068 
 5293000    253.58216   -3846.2702   -3411.6391   -3846.2702            0    8474.4765    17.066081    20.101589    20.820579    7142.6107    6967.6885     7989.274    10466.467   -523.61616   -117.61412   -3079.1853   -2528.8728 
 5294000    270.28946   -3869.8561   -3406.5892   -3869.8561            0    9148.3673    17.010832    20.036513    20.753176    7073.4661    9307.6497    10351.704    7785.7481   -786.72395   -617.14732   -1680.6726   -2462.8505 
 5295000    260.57614   -3895.3246   -3448.7061   -3895.3246            0    9356.6946     17.04771     20.07995    20.798166    7119.5695    9030.8168    8515.8034    10523.464   -912.03887   -357.66158    129.06537   -2477.1853 
 5296000    267.40476   -3863.1615   -3404.8389   -3863.1615            0     5867.605    17.094094    20.134585    20.854755    7177.8419     7880.435    4029.8628    5692.5173     123.3395    268.99523   -660.76091   -2790.6094 
 5297000    260.77871   -3865.2242   -3418.2584   -3865.2242            0    11318.729    16.842717    19.838496    20.548076    6865.8147    12157.378    10572.184    11226.625   -346.69612    751.27685   -397.40648   -2284.9043 
 5298000    269.83864   -3881.7916   -3419.2974   -3881.7916            0    8035.4455    16.953716    19.969238    20.683493     7002.454    6350.6294    7971.4732    9784.2341     1165.142   -320.17109   -1059.5763   -2598.6887 
 5299000    258.67889   -3850.8969   -3407.5301   -3850.8969            0    5879.0051    17.057939    20.091999    20.810646    7132.3931    5176.3132    6934.8002     5525.902    -649.9519    138.95583    908.60853    -2796.004 
 5300000    264.86411   -3905.4632   -3451.4951   -3905.4632            0     7900.617    17.024566     20.05269    20.769931    7090.6127    6333.0483    7494.5648    9874.2379   -363.04788   -799.96744    1069.7951   -2634.4978 
 5301000    262.45266    -3864.444   -3414.6091    -3864.444            0    6532.8981    17.020177    20.047521    20.764576    7085.1299    5813.2034    7557.1606    6228.3303   -324.71802    401.56674     487.9617   -2739.5689 
 5302000    263.19429   -3884.0389   -3432.9329   -3884.0389            0    8732.5918    16.946671    19.960941      20.6749    6993.7293    9578.5498    7705.6642    8913.5615    -959.3447    536.14786   -321.33503   -2542.2403 
 5303000    253.56672   -3877.7291   -3443.1245   -3877.7291            0    8573.7073    16.956701    19.972754    20.687136    7006.1541    7938.3237    9111.5679    8671.2303   -100.73966    21.370083    -1541.279   -2567.0839 
 5304000    270.63115   -3877.9056   -3414.0531   -3877.9056            0    7153.9775    17.041646    20.072807    20.790768    7111.9742    5484.4138    7643.1036    8334.4152   -18.672155    1264.6538   -1676.7738   -2672.0365 
 5305000    261.84002    -3884.148   -3435.3631    -3884.148            0    8145.7934    17.013888    20.040112    20.756903    7077.2781    7934.3358    7178.2635    9324.7809    465.43473    1009.6895   -1267.4295   -2594.5963 
 5306000     266.8099   -3830.8353   -3373.5323   -3830.8353            0    7844.0816    16.981346    20.001783    20.717203    7036.7469    8839.8775    8177.6335    6514.7339   -774.83478   -84.761037   -287.32627   -2568.5433 
 5307000    265.48717   -3874.5844   -3419.5485   -3874.5844            0    7958.0329    16.985305    20.006446    20.722033    7041.6696    6639.9107    6675.8741    10558.314   -987.76662   -416.87173    735.51454   -2602.2941 
 5308000    273.30925    -3875.791   -3407.3483    -3875.791            0     10633.99      16.9036    19.910209    20.622353    6940.5397     9982.393    10637.714    11281.864    611.85586    1403.8134     343.2275   -2330.9689 
 5309000    258.12267   -3861.1514    -3418.738   -3861.1514            0    7533.4145    17.012196    20.038119    20.754839     7075.167    8386.8177    6161.7205    8051.7052    -1188.397    1402.7295    368.23977   -2641.4097 
 5310000    255.95825   -3894.6348   -3455.9311   -3894.6348            0    7168.9243    16.948444    19.963028    20.677062    6995.9236     8147.782     6265.525    7093.4657   -184.36264   -1319.7976    -6.373836   -2724.4975 
 5311000    270.93035   -3873.6574    -3409.292   -3873.6574            0    7610.1533    16.972583    19.991461    20.706512    7025.8589    8219.6918     8574.476    6036.2922   -629.79451    682.97727    46.115767   -2629.5181 
 5312000     260.4291   -3867.0752   -3420.7086   -3867.0752            0    8772.8332    17.047479    20.079678    20.797884    7119.2799    9003.4411    7152.8694    10162.189   -340.59923    1482.9392    414.25468   -2509.8482 
 5313000    282.46756   -3871.6649   -3387.5252   -3871.6649            0     8863.479    17.046012    20.077951    20.796095    7117.4428    7369.2845    9302.8356    9918.3168    1077.1331   -1698.5269   -1337.5689   -2467.4907 
 5314000    263.95182   -3904.9811   -3452.5767   -3904.9811            0    8779.1128    16.988353    20.010036    20.725751    7045.4612    8930.3581    7951.6297    9455.3505     818.7512    1171.3614   -606.99391   -2550.5157 
 5315000    244.61093    -3889.549   -3470.2942    -3889.549            0    8925.1285    16.965655      19.9833    20.698059    7017.2585    8636.2619     9570.529    8568.5945    -1091.672   -1585.5796   -138.22871   -2556.9009 
 5316000    287.97463   -3897.6918   -3404.1132   -3897.6918            0    7401.5214    17.004423    20.028964    20.745356    7065.4738    6847.3393    7563.7218    7793.5031    912.87435   -47.875238    134.68062   -2641.4405 
 5317000    259.59496   -3905.1436   -3460.2067   -3905.1436            0    9043.8674    17.048261    20.080599    20.798838    7120.2594    10774.236    8840.9733    7516.3933    2232.3426   -885.69945    -1319.126   -2521.0763 
 5318000    256.83273   -3871.8915    -3431.689   -3871.8915            0    8139.8154    16.995781    20.018785    20.734813    7054.7062     6378.457    8226.0091      9814.98    998.99396    -213.1364    -1038.356   -2594.2187 
 5319000    249.13336   -3897.6879   -3470.6819   -3897.6879            0    7128.1566    16.983819    20.004695    20.720219    7039.8214    9025.7324    5924.1906    6434.5469    406.95842    -1581.207    449.02384   -2738.8442 
 5320000    253.23428   -3849.1561   -3415.1212   -3849.1561            0    6407.7874     17.00469    20.029278    20.745682     7065.806    6548.6469    5444.8035    7229.9116   -730.07083   -1903.0067   -1.6596795   -2754.8146 
 5321000     263.8988   -3895.8843   -3443.5708   -3895.8843            0    7989.4428     17.01513    20.041576    20.758419    7078.8287    7928.6105    7999.8213    8039.8967    923.51516   -1275.4142    -945.3783    -2618.761 
 5322000    285.91143   -3873.0501   -3383.0077   -3873.0501            0    7564.4135    17.059747    20.094128    20.812851    7134.6609    8059.5491     6420.308    8213.3834   -815.25353    178.17727   -806.59341   -2595.9175 
 5323000     247.5199    -3887.116   -3462.8753    -3887.116            0    8141.6779    17.023002    20.050848    20.768023    7088.6581    8040.5019    9179.5015    7205.0303   -486.18109     1473.892    168.56101   -2621.1821 
 5324000    258.96236   -3857.8169   -3413.9643   -3857.8169            0    9359.3216    16.956132    19.972084    20.686442    7005.4489    10167.147    8372.3162    9538.5014    93.188336   -1150.3989    -1187.701   -2457.7478 
 5325000    261.17321   -3858.9648   -3411.3229   -3858.9648            0     8909.433    17.003382    20.027738    20.744086    7064.1763    8289.0981    10330.895    8108.3059    573.99547    -3787.066   -1837.1527   -2493.4396 
 5326000    266.23115   -3874.4392   -3418.1282   -3874.4392            0    6389.2933    16.993518    20.016119    20.732052    7051.8888    6127.1152    6298.4195     6742.345      -423.78    1213.0352    188.22936   -2761.0241 
 5327000    249.16579    -3862.864   -3435.8023    -3862.864            0    10327.567    16.912424    19.920602    20.633118    6951.4142    10553.635    8809.0476    11620.019    991.55924     594.4159    1091.2191   -2388.8013 
 5328000    273.83502   -3834.1259   -3364.7821   -3834.1259            0     8063.784    17.012604      20.0386    20.755337    7075.6761    8260.2799    8352.8216    7578.2506   -1297.4719   -800.18483   -1111.3387   -2532.6683 
 5329000    257.89109   -3863.0024   -3420.9859   -3863.0024            0    9596.6116    16.937594    19.950248    20.663825    6982.4965    9105.5308    9635.6585    10048.646   -832.46289     251.6134    1275.7188   -2443.7385 
 5330000    270.26903   -3844.2054   -3380.9735   -3844.2054            0    8877.5136    16.962235    19.979273    20.693888    7013.0163    8803.8443    8423.5723    9405.1243   -601.75241    -727.7604   -1404.9894   -2473.0023 
 5331000    255.81219   -3840.5059   -3402.0526   -3840.5059            0    6313.8708    17.000726    20.024609    20.740846    7060.8659    6027.2266    6570.5881    6343.7978     379.1627   -209.79294    175.80712   -2751.8786 
 5332000    260.38292   -3911.1995   -3464.9121   -3911.1995            0    7626.3106     17.01016    20.035722    20.752356    7072.6276    8427.6294     8296.402    6154.9006    470.31552   -370.94834   -1027.8569   -2678.2809 
 5333000    263.51652   -3893.3117   -3441.6534   -3893.3117            0    7879.0111    16.950362    19.965288    20.679402    6998.2995    7934.9632     9424.838    6277.2321   -1086.0722    627.12461    606.50031   -2637.4978 
 5334000    267.11184   -3852.6648   -3394.8442   -3852.6648            0    6177.6349    17.011912    20.037785    20.754493    7074.8127    5708.8296    8864.5315    3959.5436   -887.46812    798.26225   -939.76962   -2757.4428 
 5335000    273.50336   -3902.0308   -3433.2554   -3902.0308            0     8788.661    16.952743    19.968092    20.682306    7001.2486    8016.8049      7422.92    10926.258     -278.793    669.27333   -167.71955   -2535.8801 
 5336000    259.38265   -3858.2363   -3413.6633   -3858.2363            0    8173.3727    16.969091    19.987348    20.702251     7021.523    9614.4461    7459.7466    7445.9253    396.61495   -76.481916   -231.64112   -2576.6959 
 5337000    260.00073   -3866.7698   -3421.1374   -3866.7698            0    9042.0249    16.934182    19.946229    20.659662    6978.2778    8476.3809    9223.0812    9426.6127   -1602.5046    809.93988   -176.61444   -2500.9213 
 5338000    267.47433   -3815.3169   -3356.8751   -3815.3169            0     10858.41    16.925287    19.935753    20.648811    6967.2874    12411.514    11292.017     8871.698   -638.18149    1023.3917   -854.05794    -2253.544 
 5339000    251.91997   -3889.2435   -3457.4613   -3889.2435            0    6903.0201    17.025031    20.053237    20.770497    7091.1927    6366.9534    5369.5865    8972.5204   -877.29268   -831.21604    1446.6522   -2743.5663 
 5340000    261.37443   -3863.7287   -3415.7419   -3863.7287            0    8444.2529    17.047613    20.079836    20.798048     7119.448    8479.2492    7457.5409    9395.9687   -968.07213    1408.7516    181.03327   -2538.9764 
 5341000    245.84005    -3864.163   -3442.8016    -3864.163            0    8191.7283    16.989663    20.011579     20.72735    7047.0915    7898.6926    8503.0281    8173.4641   -941.15302    391.33784   -1068.2406      -2600.9 
 5342000    254.72881   -3821.1228   -3384.5263   -3821.1228            0     7287.592    16.999044    20.022628    20.738794    7058.7705    7298.2345    6758.9925    7805.5491    584.42186    618.42573    621.41054   -2634.3057 
 5343000    269.89158   -3871.3185   -3408.7335   -3871.3185            0    8254.3422    16.985663    20.006867    20.722469    7042.1145    8868.1828    6826.9731    9067.8706   -600.24658    -307.3689   -281.16887    -2560.996 
 5344000     262.9214   -3849.9786   -3399.3403   -3849.9786            0     6870.208    16.994266       20.017    20.732964    7052.8198    7939.8972    6356.8989    6313.8279   -896.53079   -229.01755   -147.72518   -2692.6834 
 5345000    267.74361    -3865.372   -3406.4686    -3865.372            0    8518.2585    16.960547    19.977284    20.691828    7010.9225     7433.517    9878.8616     8242.397   -1331.9615   -1520.9544    160.69584   -2535.5012 
 5346000     263.1407   -3830.3382   -3379.3241   -3830.3382            0     8533.306    16.999041    20.022625    20.738791    7058.7676    8612.4934    6767.6062    10219.818    557.65021    231.22644    1842.8189   -2500.8639 
 5347000    258.66619   -3877.5147   -3434.1697   -3877.5147            0    7537.8697    16.970464    19.988965    20.703927    7023.2281    9087.8445    4393.4501    9132.3147    1699.7349    669.03041     2963.513   -2662.0915 
 5348000     256.6344   -3906.2033   -3466.3407   -3906.2033            0    6325.3263    16.997463    20.020766    20.736865     7056.801    7459.4779    5090.0193    6426.4816    111.10711    1364.3485   -949.22924   -2815.3621 
 5349000    257.88116   -3879.9526   -3437.9531   -3879.9526            0    7981.4057     16.96331    19.980538    20.695198    7014.3487    9065.9766    6841.9138    8036.3266    919.44619    641.38601     374.6861   -2621.4786 
 5350000    251.74649   -3870.3868    -3438.902   -3870.3868            0    9583.9113    16.883173    19.886148    20.597431    6915.4078    9128.2704    9690.5034      9932.96    1221.8262    1206.9296   -127.94198   -2472.3249 
 5351000    266.52342   -3903.8301    -3447.018   -3903.8301            0    8285.9392    16.938463    19.951272    20.664885    6983.5712    8172.4113    7475.2707    9210.1357     1649.422    80.278539    281.39027   -2603.1098 
 5352000    275.12563    -3862.716   -3391.1601    -3862.716            0    8282.8813    16.993734    20.016374    20.732316    7052.1586    7981.2756     8195.172    8672.1963   -946.24385    1389.4161    396.31186   -2539.2782 
 5353000    252.94828   -3818.1892   -3384.6445   -3818.1892            0    7496.7074    17.021842    20.049482    20.766608    7087.2094    5156.7467    7022.5489    10310.827   -189.26987    1640.3334    254.62831   -2609.7873 
 5354000    268.27205   -3853.9193   -3394.1102   -3853.9193            0    8050.4484     16.94551    19.959573    20.673483    6992.2918    10394.889    6625.5032    7130.9531   -582.18677    1547.1315    1237.4487   -2573.1625 
 5355000    274.54203   -3850.7882   -3380.2326   -3850.7882            0    7539.5996    17.018464    20.045503    20.762487    7082.9909     8096.551    7655.6626    6866.5853    28.622009   -395.01586   -559.31484   -2601.4058 
 5356000    252.35543   -3854.6004   -3422.0718   -3854.6004            0    6395.7455    17.081827    20.120136    20.839789    7162.3992     5500.938    7103.6959    6582.6026   -353.51548   -1030.8642    516.06718   -2753.9962 
 5357000    264.89817   -3878.6464     -3424.62   -3878.6464            0    6648.7382    16.972806    19.991724    20.706784    7026.1356    7082.9724    5252.9372    7610.3049   -469.43608   -1444.0256   -261.56763   -2743.3306 
 5358000    261.24736   -3827.4261   -3379.6571   -3827.4261            0    7589.7348    17.013839    20.040055    20.756844    7077.2176    6484.0882    7378.4828    8906.6333   -72.060425   -291.00098    2095.4037   -2596.2905 
 5359000    250.07769    -3830.487   -3401.8624    -3830.487            0       7105.5    17.032451    20.061977     20.77955    7100.4688    7667.3017    6300.5213    7348.6769    68.693719    1207.2545   -76.260586   -2666.0662 
 5360000     260.9898   -3829.2436    -3381.916   -3829.2436            0    9259.2921    16.939265    19.952217    20.665864    6984.5634    9482.8226     8648.486    9646.5677   -1279.5485   -783.01336   -53.100761   -2438.7396 
 5361000    273.76518   -3851.7021   -3382.4779   -3851.7021            0    9305.8612    17.001295     20.02528    20.741541    7061.5759    9274.6009    10028.691    8614.2917   -934.54441    217.51134    551.44489    -2424.106 
 5362000    244.25897   -3816.0064   -3397.3549   -3816.0064            0    6729.1381    16.993438    20.016025    20.731955    7051.7894    7355.6443    5936.9337    6894.8363    1705.2803    643.21982     186.6262   -2705.3093 
 5363000    262.97855   -3869.9507   -3419.2145   -3869.9507            0    6932.3236    16.934031    19.946051    20.659478    6978.0909    7670.5147    7820.4395    5306.0166   -2480.4562    947.96685    1219.3646   -2713.7237 
 5364000    271.52637   -3819.4142   -3354.0273   -3819.4142            0    8421.6406    17.004789    20.029396    20.745803    7065.9303    6334.9812    9475.3049    9454.6357   -314.98468   -519.68237   -641.45944   -2486.1827 
 5365000    263.92806   -3848.0022   -3395.6385   -3848.0022            0    9540.9619    17.028225       20.057    20.774395    7095.1854      8198.21    9440.8794    10983.796    189.81865   -1130.1766    -509.7029   -2408.3779 
 5366000    246.67361    -3862.924   -3440.1339    -3862.924            0    6808.8845    17.094383    20.134925    20.855107    7178.2053    4769.1625    9217.1731     6440.318    2007.9077   -434.00929   -367.48432   -2727.3338 
 5367000    242.03766   -3860.3863   -3445.5421   -3860.3863            0    8072.3785    16.989735    20.011664    20.727437    7047.1806    7780.0277    9931.8833    6505.2244     803.7586    1576.4429    525.63807   -2615.8961 
 5368000    248.82061   -3847.7262   -3421.2562   -3847.7262            0    8747.1898    16.971115    19.989731     20.70472    7024.0353    6410.4225    10927.059    8904.0881    3054.0932    1772.7776     1631.504   -2525.2085 
 5369000    262.19284   -3835.8886    -3386.499   -3835.8886            0     7671.106    17.033521    20.063238    20.780856     7101.807    8153.1909    7345.5138    7514.6132    793.53571    686.09373    -1362.944   -2591.9828 
 5370000    261.51145   -3867.0013   -3418.7796   -3867.0013            0    8246.4142    17.010232    20.035807    20.752444    7072.7176    6421.9962    8603.0898    9714.1567    1511.2731     819.6408   -2022.8639   -2568.1757 
 5371000    253.27967   -3846.5734   -3412.4607   -3846.5734            0    8632.3602    17.007476     20.03256    20.749081    7069.2801    8505.8828    8188.0713    9203.1264    1340.0149    425.89357    107.18246   -2522.4799 
 5372000    279.84771   -3851.9389   -3372.2895   -3851.9389            0    8229.8811    16.961428    19.978322    20.692903    7012.0153    8131.6892     9292.436    7265.5182    208.61633    219.87665    1377.5424   -2530.6767 
 5373000    256.52703   -3864.6078   -3424.9292   -3864.6078            0    7124.7523    16.985623    20.006821    20.722421    7042.0653    8435.1102    6236.0238    6703.1228    1375.3737    478.40797     100.1694   -2693.2079 
 5374000    270.02954   -3817.3064    -3354.485   -3817.3064            0    9882.7891    16.897192     19.90266    20.614535     6932.649    10116.696    10192.897     9338.775   -494.77157    561.46166    1902.6203   -2355.2799 
 5375000    284.25357    -3861.073   -3373.8721    -3861.073            0    8494.0808     16.93313    19.944991    20.658379    6976.9775      9244.57    7414.0899    8823.5825    636.09049    93.687139     224.7686   -2509.5819 
 5376000    253.41538   -3841.3807   -3407.0354   -3841.3807            0     10653.23    16.936462    19.948915    20.662444    6981.0968     10683.74    9848.6073    11427.343    705.74173   -2466.2758   -97.686143   -2322.4073 
 5377000    260.02651   -3848.8434   -3403.1669   -3848.8434            0    7587.4081    16.929983    19.941284     20.65454    6973.0887    6173.3269    7376.9511    9211.9464   -238.28778   -771.04254   -147.41343   -2631.5628 
 5378000    256.06394   -3873.5798   -3434.6949   -3873.5798            0    8122.3399    16.990445      20.0125    20.728303    7048.0639    9458.8403    8736.8338    6171.3456    197.46962   -519.46223     -336.823   -2599.8095 
 5379000    273.12967   -3888.8811   -3420.7462   -3888.8811            0     8051.451    16.998466    20.021947    20.738089    7058.0506    8954.6396    5225.2404    9974.4729      97.9149    137.45296   -227.60039   -2591.9747 
 5380000    259.79458   -3918.6587   -3473.3797   -3918.6587            0    9500.6388    16.941769    19.955166    20.668919    6987.6616    10741.424    8934.2503    8826.2419   -17.018211   -2042.0722   -1014.1902   -2505.1898 
 5381000     256.6242   -3904.2714   -3464.4263   -3904.2714            0    9717.6984    16.920112    19.929656    20.642497    6960.8978     10618.37    10049.032    8485.6927   -894.12989    2150.6186    594.07867   -2477.9093 
 5382000    257.76142   -3859.2584   -3417.4642   -3859.2584            0    7739.4194    17.002842    20.027102    20.743427    7063.5027    9559.9403    6808.0732    6850.2446    -90.24546    115.57131    883.01055   -2620.1961 
 5383000      259.233   -3878.1248   -3433.8083   -3878.1248            0    6122.3462    17.019958    20.047262    20.764309    7084.8563    4684.6237    7119.6094    6562.8054   -1968.0157   -10.232028   -458.41632   -2801.2147 
 5384000     252.3219   -3882.7176   -3450.2465   -3882.7176            0    7300.7047    17.018522    20.045571    20.762557     7083.063     7227.334    7478.1339    7196.6461   -1442.1966    950.43977   -296.77751   -2696.0895 
 5385000    252.08288   -3901.7224   -3469.6609   -3901.7224            0    6626.9016    17.073986      20.1109    20.830223    7152.5412    5523.5011    6610.2149    7746.9888   -905.92266   -626.25742   -958.26943   -2778.3924 
 5386000    241.62663     -3849.41   -3435.2703     -3849.41            0    8307.8962    17.003835    20.028272    20.744639    7064.7412    7788.4359    9639.6437    7495.6089    2336.4047   -481.41159    121.48268   -2579.2911 
 5387000    265.22391   -3900.1918   -3445.6071   -3900.1918            0    8667.1825     16.93706     19.94962    20.663174    6981.8365     7757.113    8972.7768    9271.6577   -352.54157   -1262.0943    858.34091   -2563.0892 
 5388000    268.31864   -3864.2891   -3404.4001   -3864.2891            0    9317.1785    16.979963    20.000153    20.715515    7035.0274    10466.392    8681.5695    8803.5742   -97.190411    368.57314    -2084.183   -2448.4701 
 5389000    249.80561   -3893.0481   -3464.8898   -3893.0481            0    6770.8119    16.962464    19.979542    20.694166    7013.2996    5647.5746    6669.1246    7995.7366    148.42153   -639.72517   -609.19026   -2772.3591 
 5390000    266.74674   -3893.5175   -3436.3228   -3893.5175            0    7981.0663     17.00932    20.034732    20.751331      7071.58    6741.7349    9680.5364    7520.9277    -504.8537     888.6348      -369.54   -2613.2215 
 5391000    252.58693   -3883.6851   -3450.7598   -3883.6851            0    7885.3017    16.986128    20.007415    20.723037    7042.6935    6442.1702    10784.059    6429.6753    1148.9969    918.38897   -697.78965   -2640.8568 
 5392000    253.73263   -3872.6583   -3437.7692   -3872.6583            0    9099.8984     16.95402    19.969596    20.683864    7002.8307    8174.3922    8437.6058    10687.697   -615.20304     -140.354    1382.4346   -2508.4048 
 5393000    265.68879   -3891.6968   -3436.3153   -3891.6968            0    9225.2131    16.920414    19.930013    20.642866    6961.2711    9905.2731    9403.8854    8366.4809    129.76144   -41.876237    -1289.978    -2499.744 
 5394000     255.5494   -3857.8922   -3419.8893   -3857.8922            0    7908.7167    16.976258     19.99579    20.710995    7030.4239    9312.4989    7991.3921    6422.2591    4.3443237    278.24587    125.76158   -2608.9966 
 5395000    269.57833   -3835.9141    -3373.866   -3835.9141            0    8003.6778    16.982617     20.00328    20.718753    7038.3273    8196.9619     5647.605    10166.466    1170.8815    522.92449    48.869251   -2552.3142 
 5396000     266.2969   -3874.1455   -3417.7217   -3874.1455            0    7092.3546    16.944067    19.957873    20.671722    6990.5055    8062.4374    5469.5478    7745.0785    210.14664    704.35432    686.28029   -2694.6607 
 5397000    247.59352   -3869.8176   -3445.4508   -3869.8176            0    8285.4237    16.939976    19.953054    20.666731    6985.4429    7976.8226    8218.8729    8660.5756   -1095.9808   -794.67099    501.50597    -2601.369 
 5398000    244.28193    -3881.265   -3462.5741    -3881.265            0    9716.6764    16.887558    19.891312    20.602781    6920.7974    10103.943    9764.8627    9281.2229    609.46317     274.0721   -231.67808   -2481.8434 
 5399000    273.01917   -3841.5569   -3373.6113   -3841.5569            0    10113.164    16.924898    19.935294    20.648336    6966.8069    11102.131    8312.1289    10925.232   -826.01197    2617.1982   -981.91128   -2346.0762 
 5400000    263.80309   -3896.0109   -3443.8614   -3896.0109            0    7557.5659    16.986093    20.007374    20.722994    7042.6499    8254.3483    8260.4544     6157.895   -377.25819     1162.231    333.81857   -2667.6252 
 5401000    263.53216     -3858.21   -3406.5249     -3858.21            0    8506.9148     17.03816    20.068702    20.786515    7107.6108    10092.809    8621.1215    6806.8141   -485.05063    774.74392   -506.21899   -2524.7218 
 5402000    238.55023   -3852.5646   -3443.6977   -3852.5646            0    6726.5121    17.035798     20.06592    20.783634    7104.6557    8179.9448    6539.1561    5460.4353    202.43467   -1433.6195    114.17994   -2746.7361 
 5403000    263.62557   -3872.8631   -3421.0179   -3872.8631            0    7115.6688    17.014759    20.041139    20.757966    7078.3658    9406.6012     7205.504    4734.9013   -874.19932    -1399.215   -2.3065227   -2686.4624 
 5404000    263.90991   -3902.8769   -3450.5443   -3902.8769            0    8925.3693    16.926863    19.937608    20.650733    6969.2334    7595.7376    10202.622    8977.7483    -1725.718     1014.039   -2808.4722   -2543.3777 
 5405000    266.52295   -3880.0135   -3423.2023   -3880.0135            0     7463.095    16.895904    19.901143    20.612964    6931.0639      9897.76    6885.5549    5605.9701    915.12067    982.19292    925.87285   -2668.8143 
 5406000    255.53786    -3920.775   -3482.7918    -3920.775            0    8799.4554    16.898783    19.904534    20.616475     6934.607    7950.7422    11774.203    6673.4206    1653.7653   -1449.7495    1415.4198   -2592.8666 
 5407000    252.68693   -3888.0327   -3454.9359   -3888.0327            0    7408.9925    16.972108    19.990901    20.705932    7025.2687    7629.8906    7167.2157    7429.8711    303.87597   -175.10095   -771.81636   -2695.8377 
 5408000     251.9549   -3860.4701    -3428.628   -3860.4701            0    8758.6155    16.919916    19.929426    20.642258    6960.6561    9120.9877    8287.2509    8867.6078   -1481.1837   -431.58728   -875.00081   -2539.5056 
 5409000    257.90236   -3886.2211   -3444.1853   -3886.2211            0     7582.526    16.980391    20.000658    20.716037    7035.5598    7743.5289    7698.7522    7305.2969   -587.80314    -2475.745    947.70105   -2666.1694 
 5410000    270.92505   -3858.8435   -3394.4872   -3858.8435            0    8949.9114    16.932065    19.943736    20.657079    6975.6607    8536.4098     8544.649    9768.6754   -345.13451    -760.8467   -105.28427   -2483.9872 
 5411000    251.10085   -3886.9288   -3456.5505   -3886.9288            0    8052.7578    16.963643    19.980931    20.695605    7014.7622     7312.522    8699.4425    8146.3091   -349.98865   -1505.5776   -1748.8855   -2632.7284 
 5412000    257.29822   -3866.6795   -3425.6792   -3866.6795            0    8010.9222    17.007652    20.032768    20.749296    7069.4996    10761.243    6038.5176    7233.0058   -118.42211   -44.597206    695.77621   -2599.7419 
 5413000    260.39154   -3863.4062    -3417.104   -3863.4062            0    7459.1491    16.987739    20.009313    20.725002    7044.6972    8685.0523    5881.6575    7810.7374   -344.74673    514.45341   -24.692284   -2650.7534 
 5414000    252.19358    -3873.801   -3441.5498    -3873.801            0    10042.986    17.016282    20.042932    20.759824    7080.2661    9407.8381    10210.929    10510.192   -704.31157   -1967.7377    1658.8419   -2404.5269 
 5415000    273.67495   -3906.8788   -3437.8093   -3906.8788            0    8068.8099    17.016959     20.04373     20.76065    7081.1115    8404.6017    7065.3601    8736.4679    880.95332   -195.39076    2799.3839   -2604.5372 
 5416000     268.9235   -3865.1757     -3404.25   -3865.1757            0    7695.3439    17.073075    20.109827    20.829111    7151.3956    7062.3841    7993.8436    8029.8041    154.20334   -266.50481    1202.8732   -2601.6582 
 5417000    248.91956   -3906.5668   -3479.9271   -3906.5668            0    7252.8125    17.034177    20.064011    20.781657    7102.6282    7635.0056    7099.6436    7023.7884     321.5589    478.71477    983.50564   -2728.6478 
 5418000     275.5282   -3858.2115   -3385.9656   -3858.2115            0    10386.121    16.956592    19.972625    20.687002    7006.0185    10985.967    9822.5925    10349.804    1271.6412    133.54587   -154.79523   -2324.7575 
 5419000    269.54423   -3829.6833   -3367.6937   -3829.6833            0    9501.1087     16.95708      19.9732    20.687598    7006.6233    9952.7182     7942.527    10608.081    1204.9427     681.2946    1208.1859   -2396.8285 
 5420000    262.03101   -3836.4618   -3387.3496   -3836.4618            0    6176.7463    17.103199    20.145309    20.865863     7189.317    5933.0517    5206.9136    7390.2736    740.62041    -882.2096    1194.1303   -2739.7251 
 5421000    260.79658   -3862.0235    -3415.027   -3862.0235            0    7412.4547    17.053408    20.086662    20.805117    7126.7103    6482.3025    8930.7867    6824.2749    2117.9369   -656.81706   -2167.7312   -2644.6079 
 5422000    267.44353   -3870.6062   -3412.2172   -3870.6062            0    10033.044    16.962416    19.979486    20.694108    7013.2409    11718.529    8959.6709     9420.932    466.55193   -1185.5975    -1592.529   -2386.0282 
 5423000    253.97253   -3846.1666   -3410.8664   -3846.1666            0     9212.099    16.997776    20.021135    20.737247    7057.1913      9436.96    6857.4646    11341.873   -1448.7255   -617.59514   -97.867295   -2462.7397 
 5424000    245.78521   -3843.6323   -3422.3649   -3843.6323            0    10902.064     16.98683    20.008242    20.723893    7043.5664    10599.401    11306.726    10800.066    1520.6298    26.599734   -232.37981   -2302.4701 
 5425000    266.32723   -3867.9994   -3411.5237   -3867.9994            0    9414.8762    17.024096    20.052137    20.769358    7090.0255    11181.746     8589.874    8473.0082   -159.90917     361.8249    612.02579   -2438.0184 
 5426000    265.16876   -3882.0028   -3427.5126   -3882.0028            0    7812.2173    17.054785    20.088284    20.806798    7128.4378    7859.8591    8722.6729    6854.1197    1320.9217    44.431879    310.96726    -2615.347 
 5427000    263.36509   -3831.0417   -3379.6429   -3831.0417            0    7842.0768    17.053029    20.086216    20.804656    7126.2359    7601.0905    8611.9943    7313.1455   -320.76962    682.45458   -427.43538    -2564.625 
 5428000    257.27733   -3834.8611   -3393.8966   -3834.8611            0    10295.092    16.967184    19.985102    20.699925    7019.1564      10241.6    11029.383    9614.2943    -530.7247   -157.66356    1266.5028   -2340.0169 
 5429000    266.14133   -3891.1943   -3435.0372   -3891.1943            0    6021.7869    16.994748    20.017568    20.733552    7053.4201    6359.4178    5675.4089     6030.534    404.80566   -1556.5873   -426.43241   -2815.5946 
 5430000    257.20264   -3864.1951   -3423.3585   -3864.1951            0    7455.5116    17.021038    20.048534    20.765626    7086.2046    5613.6971    6795.8083    9957.0294    -1596.617    1243.9934    298.07474   -2652.8685 
 5431000    262.74975   -3836.4602   -3386.1162   -3836.4602            0     10611.38    16.956988    19.973092    20.687486    7006.5098    11305.001    9719.3658    10809.772    -434.5666    1145.2779    272.48235   -2301.8161 
 5432000    269.24829   -3844.9948   -3383.5124   -3844.9948            0    7268.2475    17.001372     20.02537    20.741634     7061.671    8325.7774    9393.2085    4085.7565   -1541.9135    752.32024   -667.71864   -2634.9757 
 5433000    260.94264   -3857.8217   -3410.5749   -3857.8217            0    8530.9616     16.93821    19.950974    20.664576    6983.2583    7650.0619    7903.4153    10039.408    1219.9406    1207.6895    505.66225   -2541.7506 
 5434000    244.50374   -3854.3773   -3435.3063   -3854.3773            0    8112.7479    16.969639    19.987993    20.702919    7022.2028    8306.6502    6815.1758    9216.4176    685.47727   -990.12564    189.01748   -2604.4666 
 5435000    262.39734   -3836.5479   -3386.8078   -3836.5479            0    7907.2601    17.021018     20.04851    20.765602    7086.1796    8150.5377    7604.6711    7966.5717    817.56672    1157.1191   -869.45462   -2569.6347 
 5436000    272.29259   -3838.8641    -3372.164   -3838.8641            0    10827.466    17.000339    20.024154    20.740374    7060.3845    10173.633    10456.389    11852.375    894.55754   -1622.1934    -2349.988   -2257.2764 
 5437000    264.63737    -3871.242   -3417.6626    -3871.242            0    7047.1459    16.993258    20.015813    20.731735    7051.5657    6024.0063    7312.8581    7804.5732   -997.53658    59.290124   -1120.4268   -2692.9352 
 5438000     272.3338   -3859.9357   -3393.1649   -3859.9357            0    9041.8953    16.937585    19.950238    20.663814    6982.4854    8262.6004    8710.8956     10152.19   -1014.6779    618.62595   -1203.9016   -2472.4071 
 5439000    260.51772   -3910.6765    -3464.158   -3910.6765            0    9614.7472    16.924215     19.93449    20.647503    6965.9637    10802.335    8864.5699     9177.337    516.71403   -1678.6745    1052.7299    -2487.382 
 5440000    271.00054   -3836.9666    -3372.481   -3836.9666            0    8767.5168    17.005215    20.029897    20.746323    7066.4614    6890.2725    10478.497    8933.7807    1491.5239    -1489.587   -1523.1905   -2468.9262 
 5441000    259.73437    -3853.735   -3408.5592    -3853.735            0    7209.7701    17.035108    20.065107    20.782792    7103.7928    6821.8326     8031.378    6776.0995    198.75597   -1300.6292   -364.12103    -2661.616 
 5442000    259.10746   -3858.3114     -3414.21   -3858.3114            0    8823.3766    16.982014    20.002569    20.718018    7037.5773    9355.8494    9245.4202    7868.8602     313.1036   -881.97431    314.83397   -2508.6153 
 5443000    265.51362   -3851.1039   -3396.0227   -3851.1039            0    8763.5929    16.927024    19.937798     20.65093    6969.4324    8606.7393    9559.7128    8124.3266   -598.28982     1256.162    678.14499   -2505.2734 
 5444000    255.78574   -3823.9444   -3385.5364   -3823.9444            0    9185.3966    16.951283    19.966373    20.680526    6999.4406    8985.6077     9556.542      9014.04    520.92724   -624.22298    493.23632   -2447.8943 
 5445000       269.16   -3875.4279   -3414.0969   -3875.4279            0    7309.2926    17.046658    20.078711    20.796883    7118.2513    8566.8157    7464.6737    5896.3884   -561.96215    400.19622   -1179.3063   -2655.3017 
 5446000    268.13608   -3872.9163   -3413.3402   -3872.9163            0    5908.4689    17.084659    20.123472    20.843244    7165.9624    6837.7174    5724.8605    5162.8289    -691.0227     1060.227    1696.6134   -2795.8567 
 5447000    255.96855   -3844.2044    -3405.483   -3844.2044            0    8114.7111    17.025191    20.053426    20.770693    7091.3927    8922.3426    7738.3738    7683.4168   -843.78952    1456.1817    1917.1281    -2566.254 
 5448000    265.57586   -3870.7984   -3415.6105   -3870.7984            0    7294.2552    17.052955    20.086128    20.804565    7126.1426    7019.3562    5728.2783     9135.131   -1211.0213     387.0464    1012.8155   -2657.5369 
 5449000    264.95628   -3828.5053   -3374.3793   -3828.5053            0    7462.0474    17.041808    20.072999    20.790966    7112.1777    8389.5836    6639.7022    7356.8565      -580.36    673.36775    110.51778   -2600.3872 
 5450000    255.32812   -3825.0475   -3387.4238   -3825.0475            0    8755.0009    16.936989    19.949536    20.663087    6981.7486    8768.2849    7343.4553    10153.263    1519.8209   -1311.7747    240.41813   -2495.9753 
 5451000    270.99409   -3874.5651   -3410.0905   -3874.5651            0     8934.697      16.9866    20.007971    20.723613    7043.2807    7879.6883    10406.293    8518.1097    1532.5288   -896.80366    933.20281   -2492.3272 
 5452000    269.27537   -3846.7762   -3385.2474   -3846.7762            0    7962.7177    17.000138    20.023917    20.740128    7060.1335     7482.858    7304.5828    9100.7122   -1950.4255   -647.00292   -134.01373   -2565.3677 
 5453000    258.04284   -3865.9629   -3423.6864   -3865.9629            0    6886.2606    16.979606    19.999733    20.715079    7034.5834    6313.3199    7391.0708    6954.3912    473.07372    1913.3236     1228.885   -2717.2098 
 5454000     262.9451   -3880.4434   -3429.7645   -3880.4434            0    9115.1217    16.936489    19.948946    20.662476    6981.1297    11181.553    6157.7341    10006.078    634.51059   -174.24764    695.87698   -2501.7301 
 5455000    251.61995   -3885.6796   -3454.4116   -3885.6796            0    7054.2885    17.042791    20.074157    20.792165    7113.4084    7764.6304    5451.3958    7946.8393    949.79274   -1170.7913    1564.3704   -2722.5873 
 5456000    255.61011   -3868.5935   -3430.4865   -3868.5935            0    7775.4724    16.988662      20.0104    20.726128    7045.8456    6976.9147    9325.4909    7024.0116    406.47795    878.21988   -1196.1921   -2631.5067 
 5457000    270.72537   -3858.6433   -3394.6292   -3858.6433            0     8974.948    16.939834    19.952886    20.666557     6985.267     10078.59     9422.604    7423.6494    1047.2957    1028.2406     238.6658   -2480.3248 
 5458000    264.46931   -3853.6206   -3400.3292   -3853.6206            0    9265.2259    17.015648    20.042185     20.75905    7079.4746    9623.7245    8195.2007    9976.7524    940.72446    995.33781    968.00083   -2443.7236 
 5459000     249.5839   -3837.3941   -3409.6158   -3837.3941            0    9463.5611    16.963963    19.981308    20.695996    7015.1598    10038.454    6823.4612    11528.768    302.18391   -61.254406    208.67853   -2441.4092 
 5460000    271.32643   -3854.2415   -3389.1972   -3854.2415            0    9322.0898    17.006543    20.031462    20.747943    7068.1173    9199.2733    9370.9244    9396.0719    1153.4129    718.01182    771.67912   -2428.2647 
 5461000    255.99339   -3863.8076   -3425.0436   -3863.8076            0    8940.7877    16.986838    20.008251    20.723903    7043.5762    7388.3866    9675.1097    9758.8669     970.5966    350.43944     735.7884   -2506.6161 
 5462000    261.62188   -3852.3612   -3403.9502   -3852.3612            0    10330.799    17.006856     20.03183    20.748325    7068.5073    10759.997    11014.136    9218.2655    594.23724    1352.5653   -1188.3103   -2338.9798 
 5463000    266.08364   -3874.6655   -3418.6073   -3874.6655            0    8431.7943    17.018344    20.045361     20.76234    7082.8408    6087.6475    10380.686    8827.0497    180.04885    253.98737    1171.0436   -2547.6369 
 5464000    262.34105   -3878.6097   -3428.9661   -3878.6097            0    7969.4431    17.022217    20.049923    20.767064    7087.6771    6609.3813    8583.6569     8715.291   -21.558505   -1484.6515   -197.91726   -2605.1927 
 5465000    250.89694   -3920.9018    -3490.873   -3920.9018            0    7872.8695    16.988555    20.010274    20.725998    7045.7127    9615.7997    5940.7234    8062.0853    432.70862   -359.35056    1911.3186   -2681.9003 
 5466000    248.97946   -3863.1062   -3436.3639   -3863.1062            0    7346.8711    16.988183    20.009836    20.725544    7045.2501    8171.2286    7783.2092    6086.1756    -435.1817   -874.53861    150.59197   -2681.4895 
 5467000    253.03619   -3880.4736   -3446.7783   -3880.4736            0    10396.546    16.909112    19.916701    20.629077    6947.3312    10401.693    10947.469    9840.4747   -295.61694    1084.0352    556.16544   -2393.4034 
 5468000    260.20315   -3856.5385   -3410.5592   -3856.5385            0    6755.2951    17.014341    20.040646    20.757456    7077.8442    5368.3375     8306.775    6590.7728    -1016.291    1243.6581    846.05675   -2713.2567 
 5469000    268.42419   -3866.5052   -3406.4353   -3866.5052            0    9360.7308    16.981776    20.002289    20.717727    7037.2812    9188.8845    9674.9722    9218.3357   -347.28128   -1307.3283    1048.0676   -2445.7292 
 5470000    252.60859   -3891.7146   -3458.7521   -3891.7146            0    8254.7914    16.930987    19.942467    20.655765    6974.3292     9385.861     8057.995    7320.5182    637.23956    442.28213   -1268.6338   -2619.1289 
 5471000    251.89302   -3873.8501   -3442.1141   -3873.8501            0     7792.757    16.970972    19.989564    20.704547    7023.8587    6835.9919    7612.8609    8929.4181   -2039.7537   -511.61626   -969.27932    -2643.857 
 5472000    268.55763   -3919.3098   -3459.0112   -3919.3098            0    6981.8526     16.98948    20.011364    20.727126    7046.8637    8583.1846    5262.4941    7099.8792    143.57579   -1048.8151   -1285.4457   -2741.4773 
 5473000    266.41284   -3922.2836   -3465.6611   -3922.2836            0    7701.8276    17.042406    20.073703    20.791696    7112.9266    8611.0468    7551.6152     6942.821   -130.40932    59.323664    193.33357   -2666.7141 
 5474000    259.23667   -3884.5871   -3440.2643   -3884.5871            0    9939.3736    16.998601    20.022106    20.738253    7058.2186    7300.0155    10700.644    11817.461   -1329.4944    -485.3906   -263.90136   -2417.1362 
 5475000    261.01115    -3895.064   -3447.6998    -3895.064            0    9068.3856    16.938538    19.951361    20.664977    6983.6646    9453.8772    7830.0934    9921.1861    803.48914   -702.42321    -1755.381   -2524.0885 
 5476000    266.50222   -3889.8237    -3433.048   -3889.8237            0    7979.6289    16.999656    20.023349     20.73954    7059.5327    9506.1481    6396.9868    8035.7518   -151.74515    302.67096    277.22687    -2611.497 
 5477000    267.27418   -3791.1661   -3333.0673   -3791.1661            0    9105.8738    17.006687    20.031631    20.748118     7068.296    10821.958    8913.0808    7582.5828    1045.2354    309.70643   -559.93204   -2394.3988 
 5478000    270.77037   -3830.4366   -3366.3454   -3830.4366            0    7342.0013    17.003415    20.027777    20.744127    7064.2178     7030.857    6980.5316    8014.6154   -1733.0336    243.43939    1870.9014   -2609.9404 
 5479000    264.39564    -3847.784    -3394.619    -3847.784            0    7915.7421    17.038834    20.069495    20.787337    7108.4542    6535.0111    7674.4066    9537.8086    182.43356    21.579051    373.74007   -2573.9978 
 5480000    256.47926   -3838.9031   -3399.3065   -3838.9031            0    5774.6227    17.110921    20.154405    20.875284    7199.0597    7495.1296    4144.3803    5684.3581   -207.52672    921.41166    1242.6902   -2793.0236 
 5481000    270.68049   -3866.2648   -3402.3277   -3866.2648            0    8512.9625    16.998368    20.021833     20.73797    7057.9292    8899.2806     6946.666    9692.9407   -21.545126    1178.3569   -330.80385   -2526.0659 
 5482000    251.03554   -3848.2966   -3418.0303   -3848.2966            0    5035.6876    17.110437    20.153834    20.874693     7198.448    5633.1523    3857.9439    5615.9666   -891.87066   -416.43848    906.68303   -2889.3738 
 5483000      246.796   -3827.4065   -3404.4066   -3827.4065            0    8561.2949    17.004622    20.029199    20.745599     7065.722    9436.9801    6193.3399    10053.565    298.03574   -1140.6908    581.01832   -2522.1968 
 5484000     268.0281    -3823.639    -3364.248    -3823.639            0    8605.4226    17.009119    20.034495    20.751085    7071.3288    8581.1103    9835.4659    7399.6915    795.14469    570.38366    992.83709   -2476.7874 
 5485000     242.7391   -3859.9633   -3443.9168   -3859.9633            0    6245.7744    17.119123    20.164065     20.88529    7209.4162    6897.1682    5906.5436    5933.6113    1553.0171    3.7322952    -1012.564   -2787.2239 
 5486000     259.0317   -3852.9419   -3408.9704   -3852.9419            0    7785.3553    17.026307    20.054741    20.772055    7092.7884     7426.618    8784.9175    7144.5304    120.94583    314.64833    1223.0216   -2603.6451 
 5487000    262.84689   -3851.4496    -3400.939   -3851.4496            0    9176.7487    16.972098    19.990889     20.70592    7025.2563    8389.0186    10255.637    8885.5907   -737.57061    -561.4676    892.39228   -2460.7246 
 5488000    257.04326   -3843.3134     -3402.75   -3843.3134            0    9085.5512    17.097233    20.138282    20.858584     7181.796    8227.3276    8756.5415    10272.785   -824.44657    980.31418     1067.335   -2451.1373 
 5489000    270.17364   -3885.3642   -3422.2958   -3885.3642            0    7735.5657    17.060014    20.094443    20.813178    7134.9965     7114.521    7099.0596    8993.1165    156.77827   -196.58224   -338.28195   -2617.3591 
 5490000    252.70857   -3831.5917   -3398.4578   -3831.5917            0    8926.1529    17.037903    20.068399    20.786202    7107.2895    8561.9947    9091.2628    9125.2011     1048.656    2535.5369   -339.69198   -2473.2395 
 5491000    251.79928   -3880.2651   -3448.6898   -3880.2651            0    10226.002    16.967795    19.985821     20.70067    7019.9139    10210.379    10487.152     9980.476    17.707275   -91.548655    319.07336   -2401.7696 
 5492000      246.651   -3843.2785   -3420.5271   -3843.2785            0    7876.2451    16.966233    19.983981    20.698764    7017.9757    7677.6121     5954.044    9997.0793    95.319934    153.39053    544.25963   -2614.3936 
 5493000    256.69193   -3846.1072    -3406.146   -3846.1072            0    6763.7977    17.102849    20.144898    20.865436    7188.8762    8302.2761    7012.4506    4976.6664    774.07637   -988.82871    1371.3717   -2697.0133 
 5494000    265.15292   -3867.2218   -3412.7587   -3867.2218            0     7235.149     17.04175    20.072931    20.790896    7112.1056    7031.6154    7587.7738    7086.0578    2904.9501    1179.2521   -1196.6992   -2662.3091 
 5495000    270.85941   -3843.0707   -3378.8269   -3843.0707            0    10081.369    16.962498    19.979583    20.694208    7013.3425    8171.8683    10446.116    11626.124    1242.5117   -281.64891   -447.39338   -2347.6802 
 5496000    251.18193   -3854.3416   -3423.8243   -3854.3416            0    7303.7074     17.07079    20.107136    20.826324    7148.5257    7165.9559    7901.7034    6843.4629    2274.7717   -78.255336   -1216.7412   -2662.3842 
 5497000    273.49633   -3898.4403   -3429.6769   -3898.4403            0     8263.152    17.020053    20.047374    20.764424    7084.9742    8736.2864    9164.4286    6888.7411    505.87447   -233.50926    686.29785   -2575.8696 
 5498000    274.79821   -3867.8939   -3396.8992   -3867.8939            0    8317.3178    16.991529    20.013777    20.729626    7049.4133    8703.7164    8839.0958    7409.1413    160.04888   -417.98792   -872.78742   -2541.8085 
 5499000    264.48981   -3900.8019   -3447.4754   -3900.8019            0    9430.7571    16.906013     19.91305    20.625296    6943.5118    9555.2047    9552.3946    9184.6719    1038.4182   -1531.7546   -1717.9042   -2492.4793 
 5500000    276.36599   -3854.2153   -3380.5335   -3854.2153            0    7323.2594    16.993226    20.015776    20.731697    7051.5262    6187.5532    8546.7005    7235.5245    1224.4628   -621.45137    446.26888   -2627.4148 
Loop time of 563.218 on 64 procs for 250000 steps with 864 atoms

Performance: 76.702 ns/day, 0.313 hours/ns, 443.878 timesteps/s
99.0% CPU use with 64 MPI tasks x 1 OpenMP threads

MPI task timing breakdown:
Section |  min time  |  avg time  |  max time  |%varavg| %total
---------------------------------------------------------------
Pair    | 21.762     | 26.857     | 31.373     |  47.1 |  4.77
Bond    | 0.28644    | 0.29952    | 0.31915    |   1.2 |  0.05
Kspace  | 239.95     | 254.74     | 281.2      |  59.0 | 45.23
Neigh   | 5.3507     | 7.1525     | 10.34      |  44.0 |  1.27
Comm    | 107.49     | 134.06     | 151.37     |  86.2 | 23.80
Output  | 0.9122     | 0.91334    | 0.91982    |   0.1 |  0.16
Modify  | 130.89     | 134.01     | 136.88     |  14.3 | 23.79
Other   |            | 5.194      |            |       |  0.92

Nlocal:        13.5000 ave          19 max           7 min
Histogram: 1 1 1 11 12 18 5 5 7 3
Nghost:        2244.81 ave        2302 max        2195 min
Histogram: 4 3 10 8 10 11 5 10 2 1
Neighs:        4374.33 ave        6399 max        2472 min
Histogram: 2 3 7 18 7 8 7 4 4 4

Total # of neighbors = 279957
Ave neighs/atom = 324.02431
Ave special neighs/atom = 2.0000000
Neighbor list builds = 14144
Dangerous builds = 0

unfix		3
unfix		2
unfix		1

write_data	data.final.${pid}
write_data	data.final.0
System init for write_data ...
PPPM initialization ...
  extracting TIP4P info from pair style
  using 12-bit tables for long-range coulomb (../kspace.cpp:340)
  G vector (1/distance) = 0.37417299
  grid = 24 24 24
  stencil order = 5
  estimated absolute RMS force accuracy = 0.0031711272
  estimated relative force accuracy = 9.5497554e-06
  using double precision FFTW3
  3d grid and FFT values/proc = 2535 216
Last active /omp style is kspace_style pppm/tip4p/omp
WARNING: Not all mixed pair coeffs generated from mixing. Use write_data with 'pair ij' option to store all pair coeffs. (../write_data.cpp:312)

write_restart   restart.lmp.${pid}
write_restart   restart.lmp.0
System init for write_restart ...
PPPM initialization ...
  extracting TIP4P info from pair style
  using 12-bit tables for long-range coulomb (../kspace.cpp:340)
  G vector (1/distance) = 0.37417299
  grid = 24 24 24
  stencil order = 5
  estimated absolute RMS force accuracy = 0.0031711272
  estimated relative force accuracy = 9.5497554e-06
  using double precision FFTW3
  3d grid and FFT values/proc = 2535 216
Last active /omp style is kspace_style pppm/tip4p/omp
Total wall time: 0:09:27
