LAMMPS (30 Jul 2021)
  using 1 OpenMP thread(s) per MPI task
package omp 0
using multi-threaded neighbor list subroutines
echo both

include		in.partitions
variable        pid world 0
include		in.temp
variable        temperature equal 249.84
variable	tempDamp equal 100.0
include		in.pressure
variable        pressure equal 6500.0
variable        pressureDamp equal 1000.0 # This is 1 ps
include		in.seed
variable        seed world 745823

units		real
atom_style	full
box tilt large
read_restart	restart.lmp.${pid}
read_restart	restart.lmp.0
Reading restart file ...
  restart file = 30 Jul 2021, LAMMPS = 30 Jul 2021
  restoring atom style full from restart
  triclinic box = (-10.880411 -9.0651525 0.086207281) to (12.860411 12.055151 21.773792) with tilt (-9.6025135 2.1904144 2.8957241)
  4 by 4 by 4 MPI processor grid
  restoring pair style lj/cut/tip4p/long/omp from restart
  restoring bond style harmonic/omp from restart
  restoring angle style harmonic/omp from restart
  1296 atoms
  864 bonds
  432 angles
Finding 1-2 1-3 1-4 neighbors ...
  special bond factors lj:    0        0        0       
  special bond factors coul:  0        0        0       
     2 = max # of 1-2 neighbors
     1 = max # of 1-3 neighbors
     1 = max # of 1-4 neighbors
     2 = max # of special neighbors
  special bonds CPU = 0.159 seconds
  read_restart CPU = 0.454 seconds
include 	in.setup
variable	out_freq equal 1000
variable	out_freq2 equal 10000
variable	out_freq3 equal 1000

timestep	2.0

neigh_modify    delay 7 every 1

include		in.tip4p
# This is TIP4P/Ice

# create groups ###
group ox type 2
432 atoms in group ox
group hy type 1
864 atoms in group hy

# set charges - beside manually ###
set group ox charge -1.1794
Setting atom values ...
  432 settings made for charge
set group hy charge 0.5897
Setting atom values ...
  864 settings made for charge

# ### TIP3P Potential Parameters ###
pair_style lj/cut/tip4p/long/omp 2 1 1 1 0.1577 8.5
pair_coeff 1 1*2 0.000 0.000
pair_coeff 2 2 0.21084 3.1668
bond_style  harmonic
bond_coeff  1 450 0.9572
angle_style harmonic
angle_coeff 1 55 104.52
kspace_style pppm/tip4p/omp 1.0e-5
pair_modify tail yes

thermo          ${out_freq}
thermo          1000
thermo_style    custom step temp pe etotal epair emol press lx ly lz vol pxx pyy pzz pxy pxz pyz enthalpy

restart 	${out_freq3} restart.lmp.${pid} restart2.lmp.${pid}
restart 	1000 restart.lmp.${pid} restart2.lmp.${pid}
restart 	1000 restart.lmp.0 restart2.lmp.${pid}
restart 	1000 restart.lmp.0 restart2.lmp.0


include         in.dump
dump            myDump all atom ${out_freq2} dump.water.${pid}
dump            myDump all atom 10000 dump.water.${pid}
dump            myDump all atom 10000 dump.water.0
dump            myDump2 all dcd ${out_freq2} dump.dcd
dump            myDump2 all dcd 10000 dump.dcd
dump_modify     myDump append yes
dump_modify     myDump2 append yes


variable natoms 	equal  "count(all)"                        # NUMBER ATOMS
variable H      	equal  "enthalpy/v_natoms"                 # ENTHALPY-per-atom
variable Vol      	equal  "vol/v_natoms"                 # volume-per-atom
fix AVG all 		ave/time ${out_freq} 1 ${out_freq} v_Vol v_H file vol_enthalpy.dat
fix AVG all 		ave/time 1000 1 ${out_freq} v_Vol v_H file vol_enthalpy.dat
fix AVG all 		ave/time 1000 1 1000 v_Vol v_H file vol_enthalpy.dat


timer           timeout 10:00:00 every 1000
New timer settings: style=normal  mode=nosync  timeout=10:00:00

fix 		1 all shake 1e-6 200 0 b 1 a 1
       0 = # of size 2 clusters
       0 = # of size 3 clusters
       0 = # of size 4 clusters
     432 = # of frozen angles
  find clusters CPU = 0.479 seconds
fix             2 all nph tri ${pressure} ${pressure} ${pressureDamp}
fix             2 all nph tri 6500 ${pressure} ${pressureDamp}
fix             2 all nph tri 6500 6500 ${pressureDamp}
fix             2 all nph tri 6500 6500 1000
fix             3 all temp/csvr ${temperature} ${temperature} ${tempDamp} ${seed}
fix             3 all temp/csvr 249.84 ${temperature} ${tempDamp} ${seed}
fix             3 all temp/csvr 249.84 249.84 ${tempDamp} ${seed}
fix             3 all temp/csvr 249.84 249.84 100 ${seed}
fix             3 all temp/csvr 249.84 249.84 100 745823


run             250000
PPPM initialization ...
  extracting TIP4P info from pair style
  using 12-bit tables for long-range coulomb (../kspace.cpp:340)
  G vector (1/distance) = 0.37725158
  grid = 30 40 36
  stencil order = 5
  estimated absolute RMS force accuracy = 0.0026408582
  estimated relative force accuracy = 7.952866e-06
  using double precision FFTW3
  3d grid and FFT values/proc = 5472 750
Last active /omp style is kspace_style pppm/tip4p/omp
Neighbor list info ...
  update every 1 steps, delay 7 steps, check yes
  max neighbors/atom: 2000, page size: 100000
  master list distance cutoff = 10.8154
  ghost atom cutoff = 10.8154
  binsize = 5.4077, bins = 7 5 5
  1 neighbor lists, perpetual/occasional/extra = 1 0 0
  (1) pair lj/cut/tip4p/long/omp, perpetual
      attributes: half, newton on, omp
      pair build: half/bin/newton/tri/omp
      stencil: half/bin/3d/tri
      bin: standard
Per MPI rank memory allocation (min/avg/max) = 9.449 | 9.461 | 9.468 Mbytes
Step Temp PotEng TotEng E_pair E_mol Press Lx Ly Lz Volume Pxx Pyy Pzz Pxy Pxz Pyz Enthalpy 
22000000    251.15173    -6283.491   -5637.4185    -6283.491            0    6473.0207    23.740823    21.120303    21.687584    10874.445    6239.1701    7251.9061     5927.986    909.88321   -1402.0813   -321.61398   -4610.8451 
22001000    249.39383   -6330.3372   -5688.7867   -6330.3372            0    5945.7433    23.113637    21.652406    21.702543    10861.381    7002.9446    4242.3208    6591.9644    835.39577    105.73544    771.86186   -4746.9685 
22002000    247.03995   -6317.7996   -5682.3043   -6317.7996            0    6839.8548    23.457074    21.381258     21.66192    10864.357    6208.3839    6611.8088    7699.3716    73.707487    178.24856     1338.836   -4598.5601 
22003000     255.3297   -6339.5009   -5682.6808   -6339.5009            0    5576.9615    23.485551    21.346206    21.725811    10891.745    6116.3124    5718.5507    4896.0213    58.751508   -989.00164    154.02628   -4796.8087 
22004000    242.21876   -6343.7812   -5720.6882   -6343.7812            0    6116.9968    23.226741    21.705073    21.580859    10879.733     6660.973    3321.7122    8368.3051   -633.08497    738.75485    1074.4098   -4750.1059 
22005000    253.21869   -6341.5405   -5690.1508   -6341.5405            0    5031.4441    23.612058    21.291365    21.688884    10903.716    3707.2058    6677.1207    4710.0058   -75.713156   -1006.8268   -794.90474    -4890.053 
22006000    239.94278   -6292.0623   -5674.8242   -6292.0623            0     5454.542    23.275841    21.611116    21.722096    10926.582    6687.1401    3996.0228    5680.4631   -24.724262   -564.57283   -402.61932   -4805.6266 
22007000    251.78165   -6350.8501   -5703.1571   -6350.8501            0    6566.2021    23.336507     21.41465    21.704482    10846.666    6148.8182    6773.8535    6775.9345     881.9819   -1156.9499    194.13028    -4664.466 
22008000    264.71061   -6358.0696   -5677.1177   -6358.0696            0    6808.3356    23.419132    21.369449    21.700338     10860.02    7104.8953    5920.7178    7399.3936    576.33152   -827.07517    1025.5906   -4598.7982 
22009000    264.66115    -6331.663   -5650.8383    -6331.663            0    6654.6772    23.289651    21.502338     21.74797     10890.99    7297.9948    5812.7222    6853.3146     501.1971   -231.46294   -147.70517   -4593.8498 
22010000    246.79343   -6308.9944   -5674.1333   -6308.9944            0    6223.9273    23.527931    21.264549    21.745678    10879.598    4776.9238    8788.7591     5106.099    769.53725    394.81885   -1168.9423   -4686.5966 
22011000    243.46122   -6309.9028   -5683.6137   -6309.9028            0    6679.8519    23.246701    21.494974     21.67987    10833.154    6394.1474    7489.9166    6155.4917   -110.03834    806.74254    575.26501   -4628.2609 
22012000    248.74312   -6286.7101   -5646.8335   -6286.7101            0    6576.7148    23.386559    21.384203    21.778004    10891.244    6342.2927    7593.6437     5794.208   -306.16784   -1744.5077   -79.657062   -4602.2038 
22013000    257.60219   -6325.5246   -5662.8587   -6325.5246            0    5752.1377    23.485271    21.607854    21.411466    10865.598    5570.0995    5323.7388    6362.5746    240.89557   -434.87801   -1135.0401   -4751.3542 
22014000    238.86243   -6328.0246   -5713.5656   -6328.0246            0    6666.7227    23.273499     21.48212    21.684243    10841.343    6805.5705    6661.5547    6533.0429    20.279234   -378.21231   -199.37643    -4659.491 
22015000    249.38823   -6322.2198   -5680.6838   -6322.2198            0    6122.9255    23.400481    21.256639    21.795244    10841.294    6767.6516    6677.9765    4923.1485   -284.76718    131.98726    282.66682   -4712.5932 
22016000    255.00803   -6335.3436    -5679.351   -6335.3436            0    7335.8048    23.176324    21.544497     21.57045    10770.606    7264.7054     7141.251    7601.4581    49.649193    198.19815    371.97901   -4527.0557 
22017000     264.8085    -6368.758   -5687.5542    -6368.758            0    6880.6755    23.390977    21.364433    21.617252    10802.896    7219.0544    6799.6567    6623.3155   -1144.2103   -852.29414   -166.26694   -4603.5096 
22018000    242.91085   -6339.4276   -5714.5542   -6339.4276            0    5606.9988    23.248769    21.437596    21.812352    10871.227    6165.8953    5838.3502    4816.7509   -366.51174    -783.1854   -592.12078   -4825.5887 
22019000     249.5311   -6332.4791   -5690.5756   -6332.4791            0    5881.9709    23.254648    21.542898    21.628728    10835.398    6851.4163    5364.7545    5429.7417    434.64469   -310.91611    -368.0685   -4761.0879 
22020000    243.34989   -6321.5282   -5695.5254   -6321.5282            0     7052.126    23.564253    21.151616    21.680415    10805.996    6870.9678    7022.7558    7262.6543    511.58858   -1368.5621    572.22258     -4584.15 
22021000    248.18792    -6355.689   -5717.2407    -6355.689            0    7779.4794    23.035482    21.595136    21.730986    10810.174    8501.5489    7954.8522    6882.0373    385.94108   -709.22235    5.6593002   -4490.7646 
22022000    252.37407   -6322.0114   -5672.7945   -6322.0114            0    6694.3107    23.463214    21.417476    21.537486    10823.078     5934.057    6967.3819    7181.4932    571.32456     150.8439    476.55409   -4616.1411 
22023000     244.0024   -6320.6435   -5692.9621   -6320.6435            0    7485.0314    23.341943    21.342014    21.729523    10824.868     6846.887    8896.6266    6711.5805    1127.5927   -415.87896   -1205.2415   -4511.3033 
22024000    268.84143   -6308.9552    -5617.377   -6308.9552            0    6611.5201    23.127226     21.51404    21.864009    10878.658    7620.9818    5945.2896    6268.2891    653.64692    770.82447    -765.9677   -4568.4325 
22025000    255.98848   -6309.1666   -5650.6518   -6309.1666            0    6832.4221    23.534614     21.37014    21.571501    10849.128    5764.1184    6570.1049    8163.0431   -263.67659    257.91685    548.07737   -4569.6027 
22026000    251.92005   -6302.4336   -5654.3846   -6302.4336            0    6510.0223    23.247359    21.608567    21.615102    10858.176    6732.7596    5545.9555    7251.3518    823.12624   -661.95318   -474.95084   -4623.4877 
22027000    254.78774   -6327.1399   -5671.7139   -6327.1399            0    6656.2577      23.3589    21.343754    21.828001    10882.713    6566.1372    7804.7847    5597.8511   -918.22609   -939.76844   -796.57501    -4615.278 
22028000    241.72632   -6348.9899   -5727.1637   -6348.9899            0    5796.7883    23.251711    21.452917    21.782262    10865.364    5571.5519    7559.3685    4259.4445    318.69289    269.08429    535.74459   -4808.6036 
22029000    244.10741   -6339.1162   -5711.1647   -6339.1162            0    6113.8849    23.322971     21.58225    21.571928    10858.493    6685.3054    5166.2283    6490.1209    -249.9894   -379.59688    109.71941     -4742.97 
22030000    264.87883   -6324.0352   -5642.6506   -6324.0352            0    6668.1423    23.470866    21.232646    21.779891    10853.978     5463.836    8467.4938     6073.097    820.09538   -813.05505   -640.99351   -4587.1228 
22031000     260.7378   -6335.1508   -5664.4187   -6335.1508            0    5064.8381    23.218158    21.583983    21.796817    10923.264    4443.9129    5890.6082    4859.9932    416.74456    532.92607   -159.06743   -4857.5667 
22032000    247.23175   -6297.0243   -5661.0357   -6297.0243            0    8067.2547    23.544383    21.320567    21.493404     10789.25    6704.1428    9152.3341    8345.2873    826.58817    1114.0917   -714.06274    -4391.652 
22033000    250.35656   -6328.0775   -5684.0505   -6328.0775            0    6528.5464    23.377585     21.35453    21.708341     10837.18    6401.3808    7293.7999    5890.4586     556.0988   -231.11713   -473.21146   -4652.2192 
22034000    244.98355   -6337.7301   -5707.5249   -6337.7301            0    5589.8185    23.207272    21.489392    21.837334      10890.5    6409.6348    5514.9539     4844.867    436.05453    5.3991839   -146.69327    -4819.712 
22035000     243.7377   -6343.5616   -5716.5612   -6343.5616            0     5373.559    23.437487     21.47688    21.529038    10836.945    5093.0693    5053.1353    5974.4725    338.82989    308.21852   -492.20476   -4867.2931 
22036000    241.75498   -6328.5668   -5706.6668   -6328.5668            0    6693.3306    23.458674    21.473321    21.443791    10802.001    6374.0651    7283.2231    6422.7037   -453.23292    334.09016   -626.46389   -4652.2255 
22037000     255.1502   -6336.6339   -5680.2756   -6336.6339            0    6036.5756    23.270526    21.444089    21.671145    10814.231    6080.4939     7579.854     4449.379     380.3112     209.5401   -806.34309   -4728.2202 
22038000    260.17248   -6352.4506   -5683.1727   -6352.4506            0    7349.3707    23.296616    21.189085    21.902709    10811.921    7575.1239    8523.8372    5949.1508       253.44   -630.07572   -381.66043   -4524.3182 
22039000    240.10138    -6307.595   -5689.9488    -6307.595            0    6264.3378    23.192188    21.626264    21.637444    10852.485    7135.0969    6209.7778    5448.1387     689.3461    -1078.237    112.13953   -4698.4773 
22040000    242.88816   -6322.1666   -5697.3516   -6322.1666            0    6516.0489    23.390192    21.571768    21.497292    10846.841    6784.0132    4814.8657    7949.2677   -1009.6377   -117.40506    709.04007   -4666.5775 
22041000    248.16848   -6351.0236   -5712.6253   -6351.0236            0    5816.7611    23.479452    21.356847    21.708089    10885.457     5846.495    6776.8638    4826.9245   -1232.8006    -308.6217   -1137.5938   -4789.1957 
22042000     257.1286   -6357.9285   -5696.4808   -6357.9285            0    6169.0432    22.988873    21.615354    21.886683    10875.769    7603.3334    6687.1599    4216.6362    336.17276   -1036.0254   -1338.9461   -4717.9969 
22043000    256.25914   -6336.4962   -5677.2852   -6336.4962            0    6213.4123    23.405485    21.293449    21.837497    10883.449    6725.6914    6509.3074    5405.2381   -643.03246   -12.451468   -178.41147   -4691.0679 
22044000    242.00422   -6302.2846   -5679.7435   -6302.2846            0    7404.5311    23.354721    21.512176    21.554342    10829.136     8196.173    6055.1831    7962.2374   -667.48003    2083.3226     160.7111   -4510.3323 
22045000    242.86812   -6379.8879   -5755.1245   -6379.8879            0    5395.8765    23.278417    21.428087    21.758679    10853.489    5277.3204    4905.5761     6004.733   -481.59616     1450.332    315.88322   -4901.0274 
22046000    247.99914   -6315.2388   -5677.2761   -6315.2388            0    7586.7609    23.226739     21.33969    21.825814    10817.995     7532.873    7935.8469    7291.5628    824.90905    149.61631    651.48398   -4480.3177 
22047000    252.52469   -6355.4658   -5705.8614   -6355.4658            0    7196.8149    23.349643     21.36006    21.628171    10787.045    7811.1352    6515.4508    7263.8587   -875.40942     231.2209   -722.43073    -4573.673 
22048000     247.4515   -6298.4254   -5661.8714   -6298.4254            0    7145.5184    23.487905    21.464371    21.485739    10832.102    6679.4446     6689.905    8067.2055   -308.27285    964.74486   -958.67975   -4533.0574 
22049000    251.21221   -6312.9132   -5666.6851   -6312.9132            0    6324.1677    23.161928    21.545811     21.79278    10875.524    7410.9162    6848.8375    4712.7494   -1453.3666     1006.512   -856.25358   -4663.6192 
22050000    252.26135   -6324.4946   -5675.5676   -6324.4946            0    7309.1278    23.186702     21.46968     21.67304    10789.079    6748.0729    8403.3396    6775.9709    1294.5404   -360.35582    823.27389   -4525.4935 
22051000    261.08576   -6325.5009   -5653.8737   -6325.5009            0    6519.1063    23.385517    21.430478    21.625159    10837.725    5585.0636    7519.1002    6453.1552   -373.78975   -121.40003   -161.11728   -4623.4826 
22052000    253.86774   -6362.1584   -5709.0991   -6362.1584            0    5911.5135    23.196206    21.646252    21.592819     10841.99    6893.6198    5523.1848    5317.7358    47.043268   -584.69174    -389.7398   -4774.3747 
22053000    244.77114   -6333.6602   -5704.0014   -6333.6602            0    7474.8672    23.325911    21.333882    21.719631    10808.389    8387.7118    6772.6127    7264.2771   -1235.8409    118.74324    318.15272   -4525.7436 
22054000    255.04011   -6321.8894   -5665.8142   -6321.8894            0    5749.5672    23.383344      21.3853    21.744685    10873.643    5495.9348    5585.6126    6167.1541    1266.9476   -233.47005    91.650627   -4754.0425 
22055000    260.99891   -6344.6319   -5673.2281   -6344.6319            0    6701.5026     23.49181    21.335321    21.557947    10804.958    5503.8667    7745.9876    6854.6536    469.57815    230.37963   -541.35573   -4617.2105 
22056000    260.92902   -6323.3492   -5652.1252   -6323.3492            0    5475.2324    23.430646    21.424696    21.680923    10883.703     6592.375    4496.7498    5336.5725    1629.4706    -1250.769    -496.9183   -4783.0544 
22057000    255.79031    -6347.366    -5689.361    -6347.366            0    6314.2898    23.346858     21.40152    21.711608    10848.384    5806.6726    6562.1653    6574.0315   -509.27253   -318.30371   -297.21381   -4690.3611 
22058000    247.10744   -6329.7562   -5694.0874   -6329.7562            0    6154.1514    23.502755    21.360598    21.584188    10835.973    5656.9901    5160.3699    7645.0942    1473.1605   -957.28483    1470.3261   -4721.5373 
22059000    257.47769   -6345.1161   -5682.7704   -6345.1161            0    7680.8141    23.278575    21.432669    21.660524    10806.912    7470.4658    7309.9611    8262.0154    689.08701      340.345    995.17049   -4472.2148 
22060000    236.82822   -6334.9435   -5725.7174   -6334.9435            0    5886.8521    23.057569    21.599192      21.7908     10852.36    6303.1497    5512.1397     5845.267    532.39609   -83.439217    627.92169   -4794.0021 
22061000    250.54917   -6333.9853   -5689.4628   -6333.9853            0    5708.2168    23.513109    21.389623    21.669182    10898.224    4397.6636    6485.3464    6241.6405    -528.1382   -634.31729   -206.00042   -4782.2022 
22062000    256.24742   -6317.6347   -5658.4538   -6317.6347            0    6991.5394    23.214509     21.74936    21.408588    10809.212      8181.78    5383.2263     7409.612   -862.66484   -102.98781   -152.63232   -4556.2987 
22063000    253.41284   -6293.1384   -5641.2494   -6293.1384            0    5189.8095    23.449951     21.38783    21.783018    10925.132    4682.0518    5747.9755    5139.4012    975.70564   -232.02779    226.33782   -4814.3474 
22064000    250.10882   -6341.2465   -5697.8568   -6341.2465            0    5258.0332    23.356928    21.487128    21.697878    10889.586    5590.8425    4809.1453    5374.1118   -120.12952   -197.29075    211.78728   -4862.8104 
22065000    238.09775   -6352.7351   -5740.2432   -6352.7351            0    6291.8552    23.261206    21.459699     21.72758     10845.94    5897.5199    6911.2145    6066.8311    1593.2731    653.51783   -120.32502    -4745.017 
22066000    256.66708   -6319.2723   -5659.0118   -6319.2723            0    5762.8093    23.428845    21.325968     21.80226    10893.342     6314.101    5738.5075    5235.8192   -27.441788   -488.39459   -249.50615   -4743.4846 
22067000    255.49779   -6387.0734    -5729.821   -6387.0734            0    6988.9486    23.171858    21.593633    21.573252    10794.491    7383.9655    7103.7705    6479.1096    399.17193   -405.01373   -1793.6545   -4629.5747 
22068000    244.52671   -6336.6368   -5707.6067   -6336.6368            0    8088.5199    23.543752    21.069412    21.661359    10745.183    7624.6421    9251.0707    7389.8469   -108.51562    58.278509    669.48401   -4440.0753 
22069000    244.77103   -6371.4371   -5741.7785   -6371.4371            0    7250.7784    23.133351    21.506089    21.676384    10784.172    6709.2333    8587.6199    6455.4821    189.29438    358.40062   -1197.2509   -4601.4044 
22070000     255.0213   -6347.3146   -5691.2879   -6347.3146            0    7090.6543    23.324282    21.323906    21.730138    10807.806     6829.022    7434.6021    7008.3389    740.89709   -339.46325   -204.45599   -4573.6535 
22071000    244.69352   -6307.6111   -5678.1519   -6307.6111            0     7350.582    23.463427    21.359192    21.587556    10818.816    7302.9566    8919.3345    5829.4551    129.42244   -836.45038   -1522.2067   -4518.3673 
22072000    267.20527   -6315.1039   -5627.7346   -6315.1039            0    6482.2618    23.214635    21.705993    21.551533    10859.746    6516.9389    6427.7895    6502.0571   -53.211385    935.03437   -486.56101   -4601.0853 
22073000    236.15239   -6327.2289   -5719.7413   -6327.2289            0    6213.2068    23.566527    21.136875    21.808778    10863.448    5578.7752    7955.4502    5105.3951   -469.99709    201.18161    518.85317    -4735.369 
22074000    253.67755   -6344.6655   -5692.0954   -6344.6655            0    7121.2829    23.154588     21.53362    21.739825    10839.522      8815.56    5323.0896     7225.199    19.027524    82.652607    699.17465   -4566.3394 
22075000    249.21955   -6327.5197   -5686.4176   -6327.5197            0    7628.4692    23.323354    21.473357    21.536087    10785.934    7299.3856    7623.3942    7962.6278   -316.84951   -107.13596     675.6708   -4486.4458 
22076000     250.4174   -6331.6475    -5687.464   -6331.6475            0    7661.2888    23.366851    21.393379    21.532113    10763.815    6733.4775    7831.4612    8418.9278    -157.5361    -692.8595    1005.1796    -4484.801 
22077000    254.73608   -6360.7945   -5705.5015   -6360.7945            0    7515.3169    23.073262    21.484508    21.682777    10748.536    8397.0919    7554.8228    6594.0361    273.22217   -43.400507     517.3284   -4527.4276 
22078000    261.45171    -6320.658   -5648.0894    -6320.658            0    6837.4243    23.455285    21.189845     21.79764    10833.729    5629.2391    8783.1552    6099.8785    510.87107      231.758    239.42583   -4567.7844 
22079000    246.27609   -6347.6003     -5714.07   -6347.6003            0    7591.2466    23.326711    21.420159    21.569622    10777.518    6975.2213     7691.323    8107.1956    342.19748   -543.18526   -17.660192   -4520.8852 
22080000    257.54342    -6309.775   -5647.2603    -6309.775            0    7685.4252    23.181103    21.503382    21.643284    10788.574    9175.6765    7171.6986    6708.9004    733.28041   -544.48852   -1411.4331   -4438.0333 
22081000    234.81369   -6307.0728   -5703.0289   -6307.0728            0    7504.9229    23.477296    21.157146    21.761713    10809.316     7299.538     8043.548    7171.6828   -794.52325   -468.40469    448.52169   -4519.9319 
22082000    250.38678   -6348.8863   -5704.7816   -6348.8863            0    6345.4119    23.125793     21.64484    21.624212    10824.088     6826.936     6591.098    5618.2017    -1160.163   -265.51277   -311.51634   -4703.1062 
22083000    242.37711   -6311.2452   -5687.7449   -6311.2452            0    6973.8905    23.488236    21.293311     21.66845    10837.309    6546.5199     7574.142    6801.0098   -763.50485    508.21012   -156.63996   -4585.5143 
22084000    263.27404   -6308.5057   -5631.2492   -6308.5057            0    6589.1026    23.387295    21.448695    21.656957    10863.714    6445.4446    7017.0966    6304.7667    207.08726    123.69561    426.78888   -4587.2974 
22085000    252.46587   -6354.5074   -5705.0544   -6354.5074            0    5817.7239    23.211323    21.466343    21.768216     10846.28    4455.6699    7229.5587    5767.9431    1254.3167    190.22793    552.74545   -4784.7959 
22086000    251.03061   -6354.5067   -5708.7458   -6354.5067            0    6903.8779    23.500671    21.188306    21.736765    10823.592    6794.2542    7308.8371    6608.5423    1894.3612   -548.68364    525.39528   -4618.9619 
22087000    240.96974   -6335.0854   -5715.2055   -6335.0854            0    7517.4996    23.305003    21.593621    21.451902    10795.443    7129.6973    6472.2003    8950.6012   -168.00316    693.25506   -74.444999   -4531.6469 
22088000    248.91823   -6309.1677   -5668.8408   -6309.1677            0    7186.8214    23.539708    21.311153    21.527894    10799.647     5896.655    7624.8006    8039.0087    967.49952    97.313792    567.98455   -4536.9036 
22089000    240.71107   -6354.2535   -5735.0389   -6354.2535            0    7632.4235    23.239021    21.439906    21.641554    10782.741    8216.5063    8161.6851    6519.0791     400.2959   -311.91837   -548.11052   -4534.8005 
22090000    253.66793   -6360.6476   -5708.1023   -6360.6476            0    7569.4131    23.184443    21.417229     21.71819    10784.092    8775.7436     6300.336    7632.1597    605.32862   -296.62711    9.4869857   -4517.6235 
22091000    247.63191   -6357.1671   -5720.1491   -6357.1671            0    7030.0075    23.427965    21.276583    21.608766    10771.258    6386.1039    7379.3385    7324.5803    651.43153    679.16756    1227.8068    -4615.821 
22092000    252.94174   -6339.6844   -5689.0072   -6339.6844            0    6533.9071     23.21844    21.621341    21.580765    10833.842    6289.8486    6240.7844    7071.0882   -350.13575    697.23065   -699.47146   -4656.6467 
22093000    258.74318   -6355.7381   -5690.1371   -6355.7381            0    6554.1953    23.418786    21.407213    21.571471    10814.445    6248.2359     6241.142    7173.2079     -37.5101   -345.32052   -568.05986   -4656.4252 
22094000    252.35566   -6320.6402   -5671.4706   -6320.6402            0    7650.7049     23.28292    21.334875    21.705034    10781.719    7328.3723    7259.3579    8364.3845    354.22565    -1995.061    446.57342   -4468.4714 
22095000    247.88139   -6372.9025   -5735.2428   -6372.9025            0    6628.4392    23.051569     21.43427    21.897516    10819.422    7086.1195    8504.7584    4294.4397    184.65156    439.67495   -457.20386   -4689.3402 
22096000    256.81248   -6319.5906   -5658.9562   -6319.5906            0    7599.1391    23.619129    21.164421    21.620355    10807.695    6037.2346    9370.4521    7389.7304   -430.47668    691.46837    619.52025   -4461.1863 
22097000    252.91596   -6343.5146   -5692.9037   -6343.5146            0    6105.1795    23.202225    21.620697    21.577157    10824.144     6629.332     6645.049    5041.1576    482.35465   -673.74049   -631.06458    -4729.146 
22098000    240.50612   -6351.3854   -5732.6981   -6351.3854            0     5775.188    23.361726    21.395287    21.698413    10845.536    4758.9374    7128.5135    5438.1129     979.5058    192.96899   -465.26528   -4819.2307 
22099000    247.69393   -6330.3624   -5693.1849   -6330.3624            0    5797.6938     23.30656    21.395392    21.843102    10892.128     5475.937    5655.9564    6261.1879    341.24356    35.926457    162.53435   -4772.2182 
22100000    242.86249   -6327.7169   -5702.9679   -6327.7169            0    7479.4239    23.109986    21.587745    21.568507    10760.366    9019.6118    5742.7665    7675.8934    481.83795   -382.42207   -681.61197   -4529.2301 
22101000     246.5084   -6359.5601   -5725.4323   -6359.5601            0    5720.5561    23.587716    21.188864    21.643985    10817.597    5450.5216    6336.3981    5374.7486    362.21707    414.91558    149.82447    -4822.937 
22102000     248.2994   -6332.2414   -5693.5064   -6332.2414            0    7562.7441    23.101835    21.602861    21.696658    10828.058    9002.3279     7089.734    6596.1705   -526.94347     828.4975   -636.51126   -4499.2271 
22103000    255.81499   -6323.9263   -5665.8579   -6323.9263            0    5970.1418    23.441791    21.388811    21.649301    10854.787    6212.2999    8110.7809    3587.3448    23.095823   -1172.1716   -1876.8457    -4720.749 
22104000    249.61251   -6325.0358   -5682.9229   -6325.0358            0    6036.1882    23.497854    21.464316    21.482228    10834.892    4592.4779    5178.0792    8338.0077     56.42678    100.65939    1424.8858   -4729.1099 
22105000    258.24957   -6333.1052   -5668.7739   -6333.1052            0    6152.6463    23.223927    21.578986    21.648157    10848.948     6048.004    5117.4052    7292.5297   -82.155014   -792.53853    712.01807   -4695.2974 
22106000     249.0538   -6353.6333   -5712.9576   -6353.6333            0    6221.9849    23.429892    21.224407    21.852406    10866.886    6010.5766    6978.2021    5677.1759    38.561263   -1100.2107   -376.03446   -4726.8825 
22107000    240.94305   -6324.4806   -5704.6693   -6324.4806            0    6560.3523    23.270953    21.553325    21.621931    10844.834    6314.5026    5810.1493     7556.405    1044.3104    -512.8244    197.43418   -4667.0788 
22108000    248.34465   -6329.6082   -5690.7567   -6329.6082            0    6543.3489    23.346617    21.528369    21.523223    10817.885    5802.1539    6538.1778    7289.7149   -260.52903    143.13143    794.25928   -4658.4272 
22109000    242.70641   -6344.9372   -5720.5898   -6344.9372            0    6506.1091    23.414235    21.286487    21.735227    10832.986    6158.7356    6175.2098    7184.3819   -73.297793    -413.2977     1234.749   -4692.7027 
22110000    247.03591    -6346.452   -5710.9672    -6346.452            0    6687.2132    23.164223    21.454308    21.818741    10843.311     6464.871     7012.483    6584.2855    1292.2288    175.90859    435.23625   -4653.4609 
22111000    258.62348   -6353.0602   -5687.7671   -6353.0602            0    5955.6272     23.34498    21.489844    21.612121    10842.368    6030.9311    5718.7877    6117.1629    11.745967   -996.49438   -621.28348   -4746.0346 
22112000    251.40704   -6335.3404   -5688.6111   -6335.3404            0    6529.7171    23.409079    21.441218      21.6157    10849.334    7069.8676    5191.3041    7327.9795   -1020.9348    -1129.233   -470.59813   -4655.4375 
22113000    256.20496   -6344.0974   -5685.0258   -6344.0974            0    6211.3231     23.25148    21.463405    21.718476    10838.734    7243.6997    5247.4899    6142.7797    11.028479   -498.52189   -481.63227   -4703.1906 
22114000    256.17199   -6329.8031   -5670.8163   -6329.8031            0    6767.6285    23.249865    21.369049    21.749571    10805.785      6951.16     7549.853    5801.8725   -970.33467    1355.1137    910.73798   -4604.2969 
22115000    256.87574   -6337.3752    -5676.578   -6337.3752            0    6416.5309    23.526248    21.268001    21.665642     10840.54    5956.7239    7991.6758    5301.1932   -2026.6848    3.5895792   -1879.7353   -4662.1363 
22116000    240.97079   -6350.4554   -5730.5727   -6350.4554            0    7552.7283    23.354003    21.467468    21.542051    10800.135    7085.6062    8214.7717    7357.8069   -997.04299    20.936378   -1591.2901   -4540.9509 
22117000    244.82396   -6381.9955   -5752.2008   -6381.9955            0    6519.1098    23.319491    21.479546    21.575544    10807.019    5973.9789     6490.757    7092.5936    -913.3797     661.6998    753.93856   -4724.7285 
22118000    235.77171   -6321.7105   -5715.2021   -6321.7105            0     6559.438    23.302801    21.233149    21.888989    10830.493    7002.9672    6533.9539     6141.393    867.85089     40.41982    586.89009   -4679.1281 
22119000    248.94265   -6338.9104   -5698.5206   -6338.9104            0    6597.3529    23.086001    21.524356    21.822034    10843.616    7556.9073    6554.3624    5680.7891   -336.03937   -1276.4006   -808.47599   -4655.1953 
22120000    253.03115   -6347.4515   -5696.5443   -6347.4515            0    6316.7273    23.485804    21.363715    21.616943    10846.172    5120.5743    6569.1641    7260.4435    341.14895    540.19051   -342.83015   -4697.3625 
22121000    246.35151    -6327.035   -5693.3108    -6327.035            0    6357.4584    23.257637    21.706012    21.524053    10865.999    7105.7906    4546.8847    7419.6998     1267.582   -579.71358   -703.52869   -4685.8478 
22122000     253.8944    -6310.121   -5656.9931    -6310.121            0    4986.9712    23.345117    21.446621     21.87579    10952.637     3753.155    6115.2125    5092.5461    772.27244   -160.30689    10.441289   -4860.4094 
22123000    247.38264   -6343.1339   -5706.7572   -6343.1339            0    6002.4817    23.438961    21.310828    21.741591    10860.004    5170.2409    7032.2763    5804.9278     50.19885   -116.37614   -506.27421    -4756.072 
22124000    246.03564   -6315.8956   -5682.9839   -6315.8956            0    5543.8097    23.326767    21.597907    21.710452    10937.929    4858.1518    4630.1869    7143.0905    1060.0087    1040.6406      1233.48   -4798.6439 
22125000    256.04597   -6324.5903   -5665.9276   -6324.5903            0     5062.816    23.487736    21.437137    21.666688     10909.39    5731.0979    3924.1319    5533.2181   -346.08884   -37.700527    767.48433   -4860.4222 
22126000    247.67003   -6335.0396   -5697.9236   -6335.0396            0    6117.7733    23.444263    21.373292    21.644732    10845.766    7282.1568    5049.7922     6021.371   -1373.4394    -712.3553   -191.33333   -4730.2487 
22127000    248.25335    -6336.174   -5697.5574    -6336.174            0     6294.022    23.051158     21.61665    21.819271    10872.298    8330.6039    5794.8844    4756.5777    566.55205    45.746955   -795.70709    -4699.569 
22128000     254.9559   -6350.0176   -5694.1591   -6350.0176            0    5691.7551    23.303151    21.303338    21.885304    10864.629    6268.5197    5385.3728    5421.3728    931.90651   -372.05258    800.99853   -4792.3036 
22129000    254.24722   -6298.9084   -5644.8729   -6298.9084            0    5677.1372    23.417557    21.455094    21.695058    10900.159    5564.8817    5213.3813    6253.1485   -61.151733   -248.66667    531.54764   -4742.3918 
22130000    239.27105   -6360.2315   -5744.7213   -6360.2315            0    4466.5994    23.424638    21.626448    21.468495    10875.762    3742.1945    4579.8865    5077.7172    1004.5304   -848.11401   -80.662092   -5036.2658 
22131000    242.09394   -6356.4682   -5733.6963   -6356.4682            0    6676.8334    23.256367    21.444688    21.737817    10841.205    6842.2063    7476.5063    5711.7874    446.19901   -1112.1805   -146.02079   -4678.0365 
22132000    252.14014   -6308.7263   -5660.1112   -6308.7263            0    5990.1999    23.302617    21.472534    21.824651    10920.318    7037.3788    5852.3987    5080.8222    582.22475   -647.55771   -1008.8793   -4706.1021 
22133000    251.10779   -6327.4923   -5681.5328   -6327.4923            0    4147.2836    23.503047    21.577336    21.607005    10957.628    4649.6812     3379.232    4412.9375   -536.67292   -209.19979    102.30445   -5018.7729 
22134000    234.60164   -6343.6477   -5740.1492   -6343.6477            0    4656.3916    23.408786     21.53755    21.661851     10921.21    4454.1832    4663.5317    4851.4599   -573.70479   -187.38625   -34.127296   -4998.5041 
22135000    240.85424   -6351.6943   -5732.1114   -6351.6943            0    5335.0361    23.408525    21.334051    21.755682    10864.759    4786.2097    6862.9903    4355.9081    338.96216     303.1703   -464.41813   -4886.7677 
22136000    247.08088   -6313.3221   -5677.7216   -6313.3221            0    6407.7203    23.277944     21.52625    21.753333    10900.309    6684.6872    5270.9488    7267.5249   -237.42383    1164.6751   -1017.3388   -4659.0874 
22137000    252.62519   -6354.2436   -5704.3806   -6354.2436            0    6978.5567    23.518395     21.24956    21.620523    10804.976    6942.0051    7530.5856    6463.0793    299.57421   -185.81208   -859.12237   -4604.7032 
22138000    245.97494   -6362.8516    -5730.096   -6362.8516            0    5756.4959    23.297384    21.489899    21.627529    10828.004    5045.1228    5474.3912    6749.9735   -71.964314   -109.28458    111.44599    -4821.057 
22139000    249.77511   -6348.9335   -5706.4023   -6348.9335            0    7287.6066    23.220369    21.449327     21.64294    10779.511    8873.1859     5957.086    7032.5478   -478.75231   -269.60793    1048.1928   -4560.7315 
22140000     247.3145   -6324.1072   -5687.9057   -6324.1072            0    6723.5876    23.563097    21.379895    21.501051    10831.725    4897.6437    7505.5333    7767.5857      355.887    -278.4607    872.74031   -4625.7833 
22141000    255.65357   -6374.7613   -5717.1081   -6374.7613            0    4936.3175    23.313465    21.620664    21.613196    10894.188    4699.2448    4599.1277    5510.5802    304.47139   -117.03641    383.08641   -4932.8232 
22142000    252.30381   -6347.9706   -5698.9344   -6347.9706            0    6106.7494    23.342835    21.383513     21.80039    10881.704    5348.6637    7041.4128    5930.1717    321.97064   -548.88547    408.26834   -4729.8024 
22143000    251.71322   -6339.0143   -5691.4974   -6339.0143            0    6166.8543    23.262056    21.541512    21.680965    10864.329    6256.7573    6004.1202    6239.6855    1762.9343   -764.31412    718.60372   -4714.3896 
22144000     237.5289   -6314.3609   -5703.3322   -6314.3609            0    5682.3316    23.548237    21.342711    21.643209    10877.514    5105.1719    7752.5521    4189.2707    537.27724    -549.9858   -590.73641    -4801.902 
22145000    259.58902   -6323.9927   -5656.2158   -6323.9927            0    6584.3206    23.352201    21.485549    21.654089    10864.611    6886.0113    6725.4373    6141.5131    657.35303    74.783795   -618.21961   -4612.9353 
22146000    245.27969   -6339.6135   -5708.6465   -6339.6135            0    6441.9813    23.332981    21.524508    21.572368    10834.311    6148.0519    6450.7446    6727.1475    679.37771    266.71242   -15.797966   -4690.7663 
22147000    248.38649   -6356.6722    -5717.713   -6356.6722            0    7106.4923    23.332325    21.347152     21.74387    10830.158    6888.5899    7086.7207    7344.1663    1788.6376    156.42093    1307.7701   -4595.2657 
22148000    239.69458   -6336.4341   -5719.8344   -6336.4341            0    6914.2849    23.343326    21.311762    21.720846    10805.847    6497.0661    7879.0385    6366.7502    1276.5652   -214.10687     456.4839   -4630.1971 
22149000    259.23309   -6331.7292   -5664.8679   -6331.7292            0    5760.6505    23.400676    21.488446     21.64233    10882.719    4866.2794    6779.0337    5636.6384    233.75945   -579.56573   -293.78149    -4750.576 
22150000     243.8569   -6339.7854   -5712.4784   -6339.7854            0    5967.4777      23.3037    21.493396    21.764321    10901.219    5404.6673    6318.6107     6179.155    799.36252   -566.42531   -1638.3432   -4763.7503 
22151000    252.03959   -6311.6199   -5663.2634   -6311.6199            0    6157.4063    23.400459    21.444152    21.656247     10867.17    4934.9011    7183.5076    6353.8101    1164.6365   -818.25641   -948.06528   -4687.3975 
22152000    247.99494   -6355.3954   -5717.4435   -6355.3954            0    6576.5178    23.407992    21.559277    21.478528    10839.341     6276.129    6150.7091    7302.7154    619.28427   -578.16503    40.694501   -4677.8232 
22153000    259.71083   -6329.4904   -5661.4001   -6329.4904            0    6093.4531    23.463455    21.454645    21.545614    10846.064    5176.2197    6466.8743    6637.2653    171.29014   -24.826373   -376.34769   -4697.5455 
22154000    247.69563   -6332.4296   -5695.2477   -6332.4296            0    7240.3497    23.241909    21.529076    21.701167    10858.761    6645.2871    6983.2405    8092.5215    -350.6346    145.52494   -325.97579   -4548.6377 
22155000       237.68   -6335.8333    -5724.416   -6335.8333            0    6185.1206    23.575337    21.361913    21.555944    10855.882    4916.6155    6584.6365    7054.1098    524.23177    192.02092    539.69642    -4745.176 
22156000    238.26529   -6360.6592   -5747.7363   -6360.6592            0    5128.7822    23.452493    21.396976    21.639598    10859.019    3921.4648    5774.1988    5690.6831    1214.0691     405.0339    172.06709   -4935.5031 
22157000    245.78114   -6343.9599   -5711.7028   -6343.9599            0    5923.2643    23.280572    21.548988    21.698871    10885.733    6470.9724    5102.3724    6196.4481   -705.47228     355.5902   -979.82379   -4771.3417 
22158000    247.25718   -6349.7186   -5713.6646   -6349.7186            0    6328.1025    23.363039    21.397157     21.76453    10880.146    5673.2371    6624.0897    6686.9807   -454.22706   -635.54447    111.90013   -4709.5481 
22159000    256.59296   -6349.3691   -5689.2994   -6349.3691            0     7997.357    23.245227    21.450143    21.703485     10821.65    8693.2099    6741.7276    8557.1337   -832.46462   -229.81682   -39.492575   -4427.1352 
22160000    251.14927   -6346.0733   -5700.0071   -6346.0733            0    6858.6065    23.169238    21.576301    21.638439    10817.195    6511.4606    6161.8033    7902.5557   -993.51236    -395.7166    937.18035   -4618.0091 
22161000    240.64435   -6336.0986   -5717.0557   -6336.0986            0    6688.3135    23.440415    21.361286    21.570969    10800.959    6952.6534    5544.4821    7567.8049    984.01014   -448.65314    348.25064   -4663.5064 
22162000    244.88888   -6323.2935   -5693.3318   -6323.2935            0    5853.0451    23.248949    21.512175    21.798587    10902.246    5929.0332    5662.4391     5967.663    391.70527    808.17212   -862.83793   -4762.7088 
22163000      242.993    -6320.467   -5695.3823    -6320.467            0    7098.2667    23.408112    21.204185    21.790936     10815.93    7254.2598    8293.2006    5747.3397    1103.7358      449.844   -856.87546   -4575.7071 
22164000    239.79011   -6338.3417   -5721.4963   -6338.3417            0    6640.4945    23.281755    21.440592    21.748184    10856.141    7435.4888    6353.7303    6132.2645    -1288.681   -300.06009   -639.35679   -4670.1355 
22165000    256.82565   -6355.9073    -5695.239   -6355.9073            0    5823.3916    23.308284    21.394376    21.784542    10863.215    5711.9882    5639.3143    6118.8722   -598.98831    -156.3401    18.800858   -4772.6458 
22166000    256.95894   -6324.2601   -5663.2489   -6324.2601            0    4578.2969     23.52883    21.302437    21.813326    10933.306    3937.0821    5861.1565    3936.6521   -497.02371    388.65861    536.89939   -4933.2346 
22167000    253.81452   -6360.3397   -5707.4173   -6360.3397            0    6283.6254    23.196831    21.507213    21.730247    10841.203    6358.5845    6352.8059    6139.4857   -45.159526    69.352734    638.18655    -4713.927 
22168000    249.26632   -6303.9294    -5662.707   -6303.9294            0    5866.8546     23.38518     21.52176    21.625061    10883.682    5691.0548     6113.387    5796.1219   -1061.5973   -54.193226   -966.97705   -4731.4768 
22169000    253.03631   -6294.2478   -5643.3273   -6294.2478            0    5757.8528    23.428805    21.449028    21.666659     10888.04    4850.5692     6409.677    6013.3121    248.35482    764.94053    428.43349   -4729.0327 
22170000    253.16304   -6348.7905    -5697.544   -6348.7905            0    7565.4992    23.136311    21.418317    21.806081    10805.804    9105.9764    6673.0527    6917.4686   -372.66029    161.61775    294.63181   -4505.2852 
22171000     248.0728   -6332.7305   -5694.5783   -6332.7305            0    7222.7363    23.434232    21.360193    21.563441     10793.79    6735.8932    6863.5488    8068.7668    152.79002    -271.8274    -406.4673   -4557.6015 
22172000    258.45197   -6343.7103   -5678.8583   -6343.7103            0    8173.5736    23.321123    21.534586    21.411072     10752.87    7329.2614    7723.0072    9468.4521    98.783891    179.95945    665.81073   -4397.0819 
22173000    238.17617    -6320.783   -5708.0893    -6320.783            0    7910.9034    23.272969    21.367004    21.667233    10774.543     8186.465    8354.5318    7191.7133   -1691.5119   -223.24688     505.5338   -4465.0042 
22174000    250.17684   -6365.2636   -5721.6989   -6365.2636            0    6234.8912    23.185913    21.413976    21.861129    10854.107    8260.9568    5485.3555    4958.3612   -1246.4229   -225.90106    882.56394   -4734.7404 
22175000    247.85397   -6330.6568   -5693.0675   -6330.6568            0    7592.7165    23.236809    21.450378    21.672705    10802.507    7915.2803    7669.7952    7193.0741   -1181.7454   -1112.5727    181.89968   -4496.8845 
22176000    242.05268   -6343.1428    -5720.477   -6343.1428            0     7116.579    23.478395    21.411817    21.491153    10803.927    7392.5562    6852.0829    7105.0979   -342.31856   -401.34506   -230.06083    -4599.159 
22177000    260.26871   -6317.5862   -5648.0609   -6317.5862            0    6959.9493    23.210521    21.465275    21.751452    10837.013    7336.5717    6989.5894    6553.6868    377.00631    921.34152   -156.60167   -4548.0637 
22178000    255.95644   -6342.8759   -5684.4436   -6342.8759            0    5823.4439    23.396345    21.322839    21.822228    10886.596    5212.8602    6586.8621    5670.6095   -163.49067    619.17444    329.52567   -4759.8563 
22179000    236.99855   -6304.7929   -5695.1286   -6304.7929            0    5324.2661    23.445842    21.578905    21.606359    10931.426    4463.2335    5898.3088    5611.2561   -920.05295    489.48293    -732.2439   -4846.3148 
22180000    237.49604   -6300.2087   -5689.2646   -6300.2087            0    4737.5058    23.535851      21.5736    21.585552     10960.13    5623.4035    4221.2242    4367.8898    427.28143   -1140.3852    -82.91967    -4932.011 
22181000    248.36041   -6341.6379   -5702.7458   -6341.6379            0    6658.1488    23.309559    21.438479    21.695279    10841.597    5684.9413    8272.0996    6017.4055    380.87123      1544.36    598.45971   -4650.0021 
22182000    247.53225    -6308.332   -5671.5704    -6308.332            0    6524.4183    23.282311    21.326154    21.878519     10863.17    6070.4837    7712.6217    5790.1497    2127.0385   -7.6183555    503.55785   -4637.9186 
22183000    240.22204   -6336.3753   -5718.4187   -6336.3753            0    5993.4146    23.521008     21.41142     21.50879    10832.218    5791.8238    5936.0077    6252.4124    -441.7844    524.92054    159.49258   -4771.5983 
22184000    240.00743   -6332.0287   -5714.6242   -6332.0287            0    6704.2485    23.357739    21.581664    21.521215     10848.82    6087.1632    6663.3619    7362.2204   -525.88179    413.87689   -970.71557   -4653.8853 
22185000    250.91377   -6316.3565   -5670.8961   -6316.3565            0    7434.8943    23.338923    21.344206    21.747973     10833.77    7973.5716     8138.098    6193.0135    512.04394   -607.56816   -691.78927   -4496.1871 
22186000    261.37649   -6334.1969   -5661.8218   -6334.1969            0    5334.4708    23.200315    21.361347    21.959328    10882.823    6614.1084    5848.2495    3541.0545   -373.03618   -1116.6188    1245.3877   -4815.1623 
22187000    249.89849   -6376.6297   -5733.7811   -6376.6297            0    5814.6013    23.296988    21.557642    21.611718    10854.013    4868.0783    7746.6066    4829.1191   -162.01807    999.14643   -1032.1111   -4813.3608 
22188000    252.52974   -6313.2562   -5663.6389   -6313.2562            0    7066.2637    23.352274     21.37749    21.672041    10818.965    6044.2892    7674.5588    7479.9431   -1053.8655    840.21025   -360.87286    -4548.699 
22189000    243.28738   -6369.2985   -5743.4565   -6369.2985            0    6476.5593    23.307871    21.320115     21.71568    10791.097    6144.0332    7727.6926    5557.9521    156.36591    907.77891    285.87463   -4724.1946 
22190000    256.88847   -6296.8801   -5636.0501   -6296.8801            0    7637.0541     23.18467    21.398188    21.801628    10816.004    7685.9248    7636.5365     7588.701    375.92495    837.96806    1756.7476   -4431.3787 
22191000    263.29887   -6342.4819   -5665.1616   -6342.4819            0    6192.0699    23.448145    21.336593     21.66461    10838.881    5876.9039    6661.3625    6037.9433    334.68375    442.96346   -557.10138   -4686.3566 
22192000    245.23431   -6311.6815   -5680.8312   -6311.6815            0      6149.36     23.26869    21.516286    21.657294     10842.85    7229.0377    5024.9319    6194.1104   -308.08887   -399.07096    298.38377   -4708.4215 
22193000    254.64397    -6358.155    -5703.099    -6358.155            0    7428.7361    23.066532    21.461241    21.813596    10798.524    8783.5543    7549.9432    5952.7108    328.10783   -204.83415   -799.41097   -4533.1815 
22194000    255.99247   -6353.6869   -5695.1618   -6353.6869            0     5442.256    23.343381    21.392668    21.800461    10886.653    5365.4842    4857.4343    6103.8495    599.25503    146.38459    500.76215   -4831.0912 
22195000    250.35006   -6324.3509   -5680.3406   -6324.3509            0    5542.4231    23.311674    21.573847    21.585467    10855.817    7104.6771    4993.6501    4528.9419   -1031.6345   -312.65224   -182.43196   -4802.8589 
22196000    257.46014   -6365.4709   -5703.1704   -6365.4709            0    6804.3566    23.314306    21.526576    21.598668    10839.879    6092.9878    7806.9326    6513.1493   -726.76881    1971.6654   -931.68814   -4627.4798 
22197000     250.5373   -6332.3257   -5687.8338   -6332.3257            0    6505.3835    23.439055    21.370844    21.656963    10848.241    6450.9825    6947.9566    6117.2113   -709.46356    224.60016   -1746.5534   -4658.6141 
22198000    258.58422    -6338.259   -5673.0668    -6338.259            0    7376.0014     23.26118     21.43854    21.700923    10821.941    8381.3007    7014.4969    6732.2067    963.25906   -594.16902    291.51535   -4508.9353 
22199000    247.43007   -6309.6722   -5673.1734   -6309.6722            0    6426.6756    23.404309    21.302407    21.805147    10871.351     7358.948    5074.5976    6846.4811   -890.39074    1697.0042    649.25675     -4654.24 
22200000    245.55136   -6352.3777   -5720.7118   -6352.3777            0    6522.4951    23.259518    21.553679     21.69599    10876.811    7880.8942    5732.9459    5953.6453   -1422.3227   -244.73962   -27.108931    -4686.067 
22201000    261.96002   -6360.3664   -5686.4902   -6360.3664            0    5920.4248     23.38705    21.514764     21.56137    10848.967    5704.6011    5714.7659    6341.9073   -188.89342    660.19644    355.79215   -4749.7543 
22202000    253.66806   -6348.7677   -5696.2221   -6348.7677            0    5972.2973    23.455554    21.263164    21.726917    10836.067    7103.5939    5983.1322    4830.1658   -2320.6409    186.10553    629.31771   -4752.4025 
22203000    243.69439   -6363.5834   -5736.6944   -6363.5834            0    7110.5132    23.074822    21.424754    21.821823    10788.106    7583.9049    7667.6706    6079.9641    321.43048   -156.81766    222.02008   -4617.9728 
22204000    243.84098   -6337.3449   -5710.0789   -6337.3449            0     6488.562    23.400592     21.40606    21.604833    10822.173    6679.4704    5400.4009    7385.8147    133.51296      611.161    620.08742   -4685.9872 
22205000    247.23507   -6343.3432    -5707.346   -6343.3432            0    6889.1041    23.439666    21.587616    21.363836     10810.24    6164.9479    5539.7518    8962.6127   -1101.2723   -1394.9657     412.0197   -4621.2356 
22206000    246.29201   -6366.0747   -5732.5036   -6366.0747            0    6602.2358    23.225421    21.572434    21.587221    10815.821    7815.5021    5356.5908    6634.6144   -470.98064   -150.84669    1255.2347   -4691.0824 
22207000    249.20124   -6356.7348   -5715.6798   -6356.7348            0    7480.2697    23.355292    21.210692    21.790597    10794.668    7047.1557      8050.42    7343.2333    1577.6596   -285.27837    881.63751   -4538.0673 
22208000    241.98883   -6313.5792   -5691.0777   -6313.5792            0    5740.3357    23.137309    21.616678    21.736946    10871.772    5702.5025    6067.8698    5450.6348    920.09998    279.57977    467.11641   -4780.9265 
22209000    258.32689   -6343.9043   -5679.3741   -6343.9043            0    5332.1308     23.55941    21.388995    21.592405    10880.674    5127.9324    5015.8632    5852.5968    715.88102   -224.77504   -433.18039   -4833.2531 
22210000    251.75021   -6354.4121   -5706.8001   -6354.4121            0    5444.6717    23.407704    21.528646    21.614936    10892.548    4775.0099    6267.5258    5291.4793    -165.4865   -100.56165    147.89953   -4841.8778 
22211000    254.40982   -6337.7029   -5683.2491   -6337.7029            0    5415.8714    23.360026    21.425482     21.74254    10882.137    5809.1995    4107.5085    6330.9061   -634.65658    416.49409    1525.2984   -4823.7243 
22212000    238.97182   -6326.9568   -5712.2163   -6326.9568            0    6558.6345    23.278419    21.374193     21.83678    10865.052    7244.9521    6091.7003    6339.2511    588.34059   -693.75538    919.06546   -4672.9637 
22213000    249.02009    -6346.887   -5706.2979    -6346.887            0    7227.2626    23.223099    21.559448    21.617335    10823.307    7002.9895    8919.6135    5759.1847    437.46285   -297.88266   -745.92272   -4565.4975 
22214000    252.28865   -6347.5056   -5698.5084   -6347.5056            0    7258.4666    23.417357    21.411939    21.563059    10811.955    6743.8048    7100.8506    7930.7443    509.18661    645.04154    177.53551   -4553.9841 
22215000    239.54293   -6350.7047   -5734.4951   -6350.7047            0    7189.6876    23.329736    21.398157    21.643449    10804.699    7328.9301    6423.9589    7816.1737     279.8738   -972.70467    1008.8176   -4601.5769 
22216000    251.28192   -6339.0773   -5692.6699   -6339.0773            0    6948.3782    22.978198    21.514674    21.883168    10818.348    8193.9457    7939.1949     4711.994    1639.3787   -802.11068   -96.240191    -4596.393 
22217000    250.47495   -6342.6728   -5698.3412   -6342.6728            0    5707.0211    23.479978    21.218275     21.81744    10869.549    5404.0064    6932.4632    4784.5938   -133.36788   -276.84063    637.20309   -4793.6572 
22218000    255.89902   -6322.9748   -5664.6901   -6322.9748            0    6364.0543    23.215342    21.663018    21.622586    10874.309    7195.3921     4752.722    7144.0489   -446.95819     588.3565    1042.5892   -4655.4106 
22219000    250.70159   -6344.9486   -5700.0341   -6344.9486            0     7107.204    23.431526    21.342206    21.673303    10838.395    6844.4405    6590.2651    7886.9063    967.66715   -1075.1335    928.22129   -4576.6205 
22220000    245.58317    -6376.353   -5744.6053    -6376.353            0    5731.5222     23.22633     21.49964    21.711681    10841.896    5078.2072    7570.3692    4545.9901    1082.7686   -801.46936   -501.31325   -4838.3489 
22221000    244.52859   -6340.5623   -5711.5274   -6340.5623            0    7044.6628    23.261916     21.49755    21.601579    10802.393     6899.875    8130.3454     6103.768    255.62015   -341.61311   -193.24735   -4601.6984 
22222000    244.14818   -6336.4846   -5708.4283   -6336.4846            0    7379.8291    23.324536    21.283728    21.752885    10798.852    7794.2334    7632.9049    6712.3489   -524.14173   -1276.3269    29.237638   -4546.1777 
22223000    242.72047   -6334.5087   -5710.1251   -6334.5087            0    6469.8425    23.239231    21.501601    21.714226    10850.179    7940.0585     6423.332     5046.137   -993.32933    653.02183   -1413.2292   -4686.3454 
22224000     259.2071    -6322.571   -5655.7765    -6322.571            0    7624.5023    23.316302    21.345232    21.696569    10798.206    7141.6172    8372.9897    7358.8999   -799.90106     931.9917   -182.13883   -4455.0642 
22225000    238.57357   -6313.2255   -5699.5095   -6313.2255            0     7627.534    23.277882    21.405888    21.674497    10800.049    8259.4425    6434.7229    8188.4368    103.13625    362.62244     302.8851   -4498.1147 
22226000    246.22584   -6325.4175   -5692.0165   -6325.4175            0    7208.3104    23.326556    21.389777    21.675303    10814.889    7993.5185    6512.0649    7119.3478   -91.918126    245.85715    1489.5384   -4555.0925 
22227000     261.9967   -6315.4037   -5641.4332   -6315.4037            0    5298.2566    23.275751    21.420996    21.879823    10909.056    6133.4661    5269.7571    4491.5465    -319.5378   -91.814344    978.17412   -4798.4944 
22228000    262.48879   -6331.5654   -5656.3289   -6331.5654            0    5106.8012    23.293973    21.535548    21.723131    10897.376    4898.1289    4836.1192    5586.1554   -90.620352   -311.86584     531.5597   -4844.7201 
22229000    250.67184   -6322.6227   -5677.7846   -6322.6227            0    5670.4781    23.481832    21.432265    21.664897    10903.268    5337.7321    6484.5511    5189.1511   -1375.2553   -285.16083   -270.27889    -4776.105 
22230000    254.55361   -6310.8128   -5655.9892   -6310.8128            0    6228.3764     23.30783    21.483207    21.668409    10849.956    5580.4821    6305.7341    6798.9131    449.04588   -230.80321    458.35725    -4670.439 
22231000    252.35285   -6310.8631   -5661.7008   -6310.8631            0    6316.7905    23.392524    21.354798    21.696667     10838.41    6334.6976    6685.2085    5930.4653    967.82453    265.78478    676.84006   -4663.2241 
22232000    256.39082   -6349.7845   -5690.2348   -6349.7845            0    5561.1156    23.298302    21.416368    21.773999    10864.464    6004.6327    4540.3569    6138.3574    1009.2843    136.38677   -246.61696   -4809.0924 
22233000    243.57693   -6331.5127   -5704.9259   -6331.5127            0    8043.3123     23.47932    21.264739    21.571036    10770.022    6894.4818     8854.282    8381.1732    1041.1451    -47.83944   -1900.5942   -4441.5651 
22234000    240.12221   -6309.8067   -5692.1069   -6309.8067            0    7417.5334    23.190614    21.574823    21.618273    10816.343    9530.6411    5417.3524    7304.6066    -727.7066   -517.62615   -689.26858   -4522.0261 
22235000    245.53159    -6332.109   -5700.4939    -6332.109            0    7239.0587    23.221854    21.360595    21.783213    10805.184    9569.6736    6704.2635    5443.2391   -336.19663    40.321525    725.62937   -4559.7447 
22236000    236.52521   -6303.0195   -5694.5728   -6303.0195            0    7832.4222    23.434031    21.269385    21.656121    10794.005    8203.9908    7771.8468    7521.4288   -729.79766    453.03469    600.05503    -4461.597 
22237000    238.22728    -6319.409   -5706.5838    -6319.409            0    7448.2486    23.191687    21.597187     21.52754     10782.61    6600.2707    7303.8452    8440.6298    418.76214   -314.87351   -914.82804   -4535.3221 
22238000    251.16389   -6299.3245   -5653.2207   -6299.3245            0    7281.5364    23.469863    21.197697    21.736192    10813.909     6480.024    9219.1259    6145.4592   -99.088686   -1404.0878   -188.51605   -4504.8514 
22239000    252.84635   -6349.5288    -5699.097   -6349.5288            0     6582.261     23.19445    21.530957    21.695378    10834.643     8233.479    5641.3018    5872.0023    338.35635   -596.22062    1549.8456   -4659.0197 
22240000     252.3069   -6333.1343   -5684.0902   -6333.1343            0    6430.1798     23.38442    21.470234    21.631174    10860.342    6694.8971    5868.5317    6727.1106    115.08628   -270.31916    1214.2874   -4665.6337 
22241000    247.60011   -6347.4946   -5710.5584   -6347.4946            0    6430.8718    23.403722    21.388708    21.639786    10832.344    4257.7843    7340.3884    7694.4428     697.5036   -194.77361   -238.38011   -4694.6182 
22242000    245.76917   -6338.4203   -5706.1941   -6338.4203            0    5787.0122    23.136519    21.625036    21.687708    10850.969    6239.2781    4373.9948    6747.7639    969.82891    -1032.647    346.07121    -4790.398 
22243000    248.91829   -6310.9336   -5670.6065   -6310.9336            0    7677.8591     23.51764    21.221116    21.689374    10824.528    6799.0335    8947.3695    7287.1742    354.25616     476.4432    745.57891    -4458.544 
22244000    246.24014   -6328.4814   -5695.0436   -6328.4814            0    6221.6774    23.193582    21.598735    21.642662    10841.935    6610.9549    5240.5757    6813.5016    915.09903   -84.659623    478.84294   -4711.2813 
22245000    255.93665   -6311.7291   -5653.3477   -6311.7291            0    6051.0428    23.395889    21.285359    21.920142    10916.009    5539.0994    7887.1244    4726.9045    667.89137    674.53186   -1018.8682    -4690.029 
22246000    244.75468   -6348.0279   -5718.4114   -6348.0279            0     4572.299    23.466954    21.339436    21.843302    10938.505    5555.7595    5366.3761    2794.7613    404.12756   -34.908232   -961.34078   -4989.0069 
22247000    242.78945   -6316.2086   -5691.6475   -6316.2086            0    6884.4773    23.248581     21.53542    21.624026    10826.457    5291.9005    7665.1784     7696.353    45.613717    1199.6822    58.454567   -4604.6383 
22248000    251.55081   -6330.2204   -5683.1212   -6330.2204            0    4885.6771    23.424507    21.560824    21.532651    10875.101    4859.7577    4333.1583    5464.1153   -830.87847    43.277884    447.64626   -4908.2421 
22249000    256.60264   -6365.3373   -5705.2426   -6365.3373            0    5598.5266     23.21744    21.400883    21.858724    10861.026    5082.7602    6746.9861    4965.8335    348.42155   -1709.8157   -134.51228   -4818.4532 
22250000    258.20478   -6304.6533   -5640.4373   -6304.6533            0     6106.033    23.371115    21.453165    21.779338     10919.82    5764.7878    6992.8229    5560.4884    456.89241   -197.12588   -1340.1953   -4668.0248 
Loop time of 653.693 on 64 procs for 250000 steps with 1296 atoms

Performance: 66.086 ns/day, 0.363 hours/ns, 382.443 timesteps/s
99.2% CPU use with 64 MPI tasks x 1 OpenMP threads

MPI task timing breakdown:
Section |  min time  |  avg time  |  max time  |%varavg| %total
---------------------------------------------------------------
Pair    | 30.153     | 39.647     | 48.679     |  95.6 |  6.07
Bond    | 0.27124    | 0.28305    | 0.2932     |   0.8 |  0.04
Kspace  | 346.19     | 356.83     | 369.88     |  34.9 | 54.59
Neigh   | 4.7946     | 5.3111     | 5.9178     |  10.9 |  0.81
Comm    | 104.7      | 111.68     | 121.04     |  32.9 | 17.08
Output  | 1.2073     | 1.2092     | 1.2143     |   0.1 |  0.18
Modify  | 122.72     | 128.01     | 132.51     |  28.3 | 19.58
Other   |            | 10.72      |            |       |  1.64

Nlocal:        20.2500 ave          26 max          12 min
Histogram: 1 2 8 7 7 6 6 12 7 8
Nghost:        2546.69 ave        2581 max        2511 min
Histogram: 1 5 7 9 9 6 11 11 3 2
Neighs:        6387.89 ave        8298 max        3743 min
Histogram: 1 2 8 7 10 3 9 9 8 7

Total # of neighbors = 408825
Ave neighs/atom = 315.45139
Ave special neighs/atom = 2.0000000
Neighbor list builds = 9024
Dangerous builds = 0

unfix		3
unfix		2
unfix		1

write_data	data.final.${pid}
write_data	data.final.0
System init for write_data ...
PPPM initialization ...
  extracting TIP4P info from pair style
  using 12-bit tables for long-range coulomb (../kspace.cpp:340)
  G vector (1/distance) = 0.36798111
  grid = 30 40 32
  stencil order = 5
  estimated absolute RMS force accuracy = 0.0043464817
  estimated relative force accuracy = 1.3089301e-05
  using double precision FFTW3
  3d grid and FFT values/proc = 5168 640
Last active /omp style is kspace_style pppm/tip4p/omp
WARNING: Not all mixed pair coeffs generated from mixing. Use write_data with 'pair ij' option to store all pair coeffs. (../write_data.cpp:312)

write_restart   restart.lmp.${pid}
write_restart   restart.lmp.0
System init for write_restart ...
PPPM initialization ...
  extracting TIP4P info from pair style
  using 12-bit tables for long-range coulomb (../kspace.cpp:340)
  G vector (1/distance) = 0.36798111
  grid = 30 40 32
  stencil order = 5
  estimated absolute RMS force accuracy = 0.0043464817
  estimated relative force accuracy = 1.3089301e-05
  using double precision FFTW3
  3d grid and FFT values/proc = 5168 640
Last active /omp style is kspace_style pppm/tip4p/omp
Total wall time: 0:10:55
