LAMMPS (30 Jul 2021)
Processor partition = 0
  using 2 OpenMP thread(s) per MPI task
using multi-threaded neighbor list subroutines
variable        pid world 0 1
variable        phase world IceIh IceIII

shell cd ${phase}
shell cd IceIh
include Restart.lmp
echo both
log log.lammps
#include		in.partitions
include		in.temp
variable        temperature equal 122.72
variable	tempDamp equal 100.0
include		in.pressure
variable        pressure equal 1968.5
variable        pressureDamp equal 1000.0 # This is 1 ps
include		in.seed
variable        seed equal 745823

units		real
atom_style	full
#include		in.box
read_restart	restart.lmp.${pid}
read_restart	restart.lmp.0
Reading restart file ...
  restart file = 30 Jul 2021, LAMMPS = 30 Jul 2021
  restoring atom style full from restart
  orthogonal box = (0.10605218 0.16201518 0.15830505) to (18.101520 23.467163 22.054891)
  2 by 4 by 4 MPI processor grid
  restoring pair style lj/cut/tip4p/long/omp from restart
  restoring bond style harmonic/omp from restart
  restoring angle style harmonic/omp from restart
  864 atoms
  576 bonds
  288 angles
Finding 1-2 1-3 1-4 neighbors ...
  special bond factors lj:    0        0        0       
  special bond factors coul:  0        0        0       
     2 = max # of 1-2 neighbors
     1 = max # of 1-3 neighbors
     1 = max # of 1-4 neighbors
     2 = max # of special neighbors
  special bonds CPU = 0.002 seconds
  read_restart CPU = 0.009 seconds
include 	in.setup
variable	out_freq equal 1000
variable	out_freq2 equal 10000
variable	out_freq3 equal 1000

timestep	2.0

neigh_modify    delay 7 every 1

include		in.tip4p
# This is TIP4P/Ice

# create groups ###
group ox type 2
288 atoms in group ox
group hy type 1
576 atoms in group hy

# set charges - beside manually ###
set group ox charge -1.1794
Setting atom values ...
  288 settings made for charge
set group hy charge 0.5897
Setting atom values ...
  576 settings made for charge

# ### TIP3P Potential Parameters ###
pair_style lj/cut/tip4p/long/omp 2 1 1 1 0.1577 8.5
pair_coeff 1 1*2 0.000 0.000
pair_coeff 2 2 0.21084 3.1668
bond_style  harmonic
bond_coeff  1 450 0.9572
angle_style harmonic
angle_coeff 1 55 104.52
kspace_style pppm/tip4p/omp 1.0e-5
pair_modify tail yes

thermo          ${out_freq}
thermo          1000
thermo_style    custom step temp pe etotal epair emol press lx ly lz vol pxx pyy pzz pxy pxz pyz enthalpy

restart 	${out_freq3} restart.lmp.${pid} restart2.lmp.${pid}
restart 	1000 restart.lmp.${pid} restart2.lmp.${pid}
restart 	1000 restart.lmp.0 restart2.lmp.${pid}
restart 	1000 restart.lmp.0 restart2.lmp.0


include         in.dump
dump            myDump all atom ${out_freq2} dump.water.${pid}
dump            myDump all atom 10000 dump.water.${pid}
dump            myDump all atom 10000 dump.water.0
dump            myDump2 all dcd ${out_freq2} dump.dcd
dump            myDump2 all dcd 10000 dump.dcd
dump_modify     myDump append yes
dump_modify     myDump2 append yes


variable natoms 	equal  "count(all)"                        # NUMBER ATOMS
variable H      	equal  "enthalpy/v_natoms"                 # ENTHALPY-per-atom
variable Vol      	equal  "vol/v_natoms"                 # volume-per-atom
fix AVG all 		ave/time ${out_freq} 1 ${out_freq} v_Vol v_H file vol_enthalpy.dat
fix AVG all 		ave/time 1000 1 ${out_freq} v_Vol v_H file vol_enthalpy.dat
fix AVG all 		ave/time 1000 1 1000 v_Vol v_H file vol_enthalpy.dat


timer           timeout 23:50:00 every 1000
New timer settings: style=normal  mode=nosync  timeout=23:50:00

fix 		1 all shake 1e-6 200 0 b 1 a 1
Finding SHAKE clusters ...
       0 = # of size 2 clusters
       0 = # of size 3 clusters
       0 = # of size 4 clusters
     288 = # of frozen angles
  find clusters CPU = 0.000 seconds
fix             2 all nph aniso ${pressure} ${pressure} ${pressureDamp}
fix             2 all nph aniso 1968.5 ${pressure} ${pressureDamp}
fix             2 all nph aniso 1968.5 1968.5 ${pressureDamp}
fix             2 all nph aniso 1968.5 1968.5 1000
fix             3 all temp/csvr ${temperature} ${temperature} ${tempDamp} ${seed}
fix             3 all temp/csvr 122.72 ${temperature} ${tempDamp} ${seed}
fix             3 all temp/csvr 122.72 122.72 ${tempDamp} ${seed}
fix             3 all temp/csvr 122.72 122.72 100 ${seed}
fix             3 all temp/csvr 122.72 122.72 100 745823


run             250000
PPPM initialization ...
  extracting TIP4P info from pair style
  using 12-bit tables for long-range coulomb (../kspace.cpp:340)
  G vector (1/distance) = 0.37203327
  grid = 24 27 25
  stencil order = 5
  estimated absolute RMS force accuracy = 0.003118233
  estimated relative force accuracy = 9.390466e-06
  using double precision FFTW3
  3d grid and FFT values/proc = 4410 672
Last active /omp style is kspace_style pppm/tip4p/omp
Neighbor list info ...
  update every 1 steps, delay 7 steps, check yes
  max neighbors/atom: 2000, page size: 100000
  master list distance cutoff = 10.8154
  ghost atom cutoff = 10.8154
  binsize = 5.4077, bins = 4 5 5
  1 neighbor lists, perpetual/occasional/extra = 1 0 0
  (1) pair lj/cut/tip4p/long/omp, perpetual
      attributes: half, newton on, omp
      pair build: half/bin/newton/omp
      stencil: half/bin/3d
      bin: standard
Setting up Verlet run ...
  Unit style    : real
  Current step  : 26250000
  Time step     : 2
  Walltime left : 23:49:59.93
Per MPI rank memory allocation (min/avg/max) = 10.20 | 10.22 | 10.23 Mbytes
Step Temp PotEng TotEng E_pair E_mol Press Lx Ly Lz Volume Pxx Pyy Pzz Pxy Pxz Pyz Enthalpy 
26250000    123.09758   -4501.3068   -4290.3217   -4501.3068            0    2388.2299    17.995468    23.305147    21.896586    9183.1442    2269.9822    1706.0011    3188.7062    243.89418   -291.89788    478.07708   -3970.4739 
26251000    121.42768   -4512.2195   -4304.0966   -4512.2195            0    2342.9273    18.120964    23.358545    21.661606     9168.911    2768.4963    1640.0868    2620.1989    23.412816   -532.65167    286.51614   -3990.8023 
26252000    120.32815   -4512.5783   -4306.3399   -4512.5783            0     2067.484    18.077297    23.354425    21.767282    9189.8173    1055.0648    2198.4885    2948.8987   -615.75723   -329.76787    433.36546   -4029.2473 
26253000    127.50141   -4528.9659   -4310.4329   -4528.9659            0    1951.3844    18.001471    23.408822    21.792738    9183.3122    1944.2789    1094.2008    2815.6734   -812.82414   -212.89625    574.58988   -4049.0855 
26254000    119.88404   -4530.7839   -4325.3067   -4530.7839            0    2195.0463     18.20119    23.164638    21.764842    9176.5793    2039.3336    2080.8534    2464.9518   -110.51219    165.25726    649.03966   -4031.5415 
26255000    129.80542   -4526.2109   -4303.7288   -4526.2109            0    1450.2192     17.97183    23.470719    21.831052     9208.595    1733.1212    2125.3042    492.23229   -231.39986   -123.52751    146.31986   -4108.9674 
26256000    121.79469   -4505.8513   -4297.0994   -4505.8513            0    2178.7599     17.99212     23.35513    21.852724    9182.6961    1439.7835    1833.4564    3263.0398    642.88535   -509.52052   -311.08452   -4005.3194 
26257000    126.53886   -4523.1444   -4306.2611   -4523.1444            0    1001.9546    18.030389    23.333413    21.970273     9243.125    180.23121    1130.5401    1695.0926    65.824381   -343.34762    669.10576   -4171.1961 
26258000    124.72708   -4513.0342   -4299.2562   -4513.0342            0    2273.8932    17.925198     23.27879    21.997892    9179.2125    2709.0537    2262.5328     1850.093   -1032.4054   -86.140734    52.023226   -3994.8515 
26259000    128.95561   -4515.2926   -4294.2671   -4515.2926            0    1402.3729    17.801851    23.616948    21.958787    9232.0317    2398.6435    470.81717     1337.658   -384.79735   -1275.2876   -260.71506    -4105.452 
26260000    123.38108   -4512.5386   -4301.0676   -4512.5386            0    2391.1476    18.087026    23.181045    21.909215    9186.0113    2083.7248    2311.9526    2777.7653    447.18914    601.53928    304.17287    -3980.729 
26261000    123.72529   -4520.0545   -4307.9936   -4520.0545            0    1770.9047    18.011367    23.270899     21.98396    9214.3723    2151.6118    1867.4134    1293.6889   -172.64526    346.04919   -297.64166   -4070.0156 
26262000     128.6017   -4506.8568   -4286.4379   -4506.8568            0    1254.4801    17.876089    23.444499    22.102116    9262.9075    1932.8718    1587.4581    243.11028   -89.328796   -320.56948    85.495427   -4116.9702 
26263000     124.8846   -4508.6439    -4294.596   -4508.6439            0    782.86378    17.965008    23.407035    22.044146    9269.7302    509.52152    546.70851    1292.3613    432.55897   -139.35366   -85.442262    -4188.761 
26264000    115.09024   -4513.2758    -4316.015   -4513.2758            0    2749.8536    17.953552    23.203495    22.000392    9165.0368    3297.7623    2258.5547    2693.2438   -392.34019   -78.228659    246.93132   -3948.4623 
26265000    124.16485   -4521.6816   -4308.8673   -4521.6816            0     1086.944    17.964867    23.331654     22.04307     9239.354    908.24696    670.96559    1681.6194    647.49108   -629.31948   -131.17305   -4162.4054 
26266000    123.52025   -4517.9272   -4306.2178   -4517.9272            0    1362.5794    17.987075    23.438005    21.915827    9239.2996     1135.878    2103.2468    848.61342    300.04474   -86.076444    338.75883    -4122.616 
26267000    128.08439   -4522.6796   -4303.1474   -4522.6796            0    2351.3079    18.071995    23.362704    21.796268     9202.617     1956.143    3842.1066    1255.6741   -880.77297   -103.01703    225.97967   -3987.5766 
26268000    117.49694   -4522.0636   -4320.6778   -4522.0636            0    1697.6097    18.029198    23.332471    21.905634    9214.9498    1513.4474    413.16324    3166.2184   -31.152807    138.58382    361.60528   -4092.5351 
26269000    120.58073   -4512.8498   -4306.1785   -4512.8498            0    2124.9547     18.06169    23.276719    21.912095    9212.2151    2270.2529    3036.9162     1067.695    87.503852   -311.91361    1096.6398   -4020.6893 
26270000    124.14634   -4528.6828   -4315.9003   -4528.6828            0    2056.4318    17.935389     23.52491    21.799576    9197.8604    2039.7757    775.77656    3353.7433   -37.373173    236.87717   -33.792526   -4040.0477 
26271000    119.20847    -4521.861   -4317.5418    -4521.861            0    1929.6633    18.054989    23.243901    21.936568    9206.0839    1781.1729    1653.0212    2354.7957     60.03878   -136.07695    511.62822   -4058.4627 
26272000    123.53002   -4508.4008   -4296.6746   -4508.4008            0    1145.0719    18.069394    23.279741    21.991235    9250.6303    474.45593    1247.6688    1713.0911    127.52638   -301.62607    1054.3847   -4142.1918 
26273000    117.39235   -4521.0505   -4319.8441   -4521.0505            0    2362.1337    17.968144     23.40686    21.809228    9172.4776    1850.1122    1901.8527    3334.4364   -298.25989   -442.78788    157.07322   -4003.8587 
26274000    125.19258   -4497.4869   -4282.9111   -4497.4869            0    2190.3516    17.865127    23.600378    21.817308    9198.6956    2514.2352    2393.3672    1663.4522   -271.90416   -92.530753    333.69553   -3989.0677 
26275000    128.10644    -4524.337    -4304.767    -4524.337            0    2334.1546    17.964751    23.271947    21.990797    9193.7968    2261.5684    2226.1539    2514.7415   -216.04498    483.61763   -388.17754   -3991.7986 
26276000    125.35093   -4507.8196   -4292.9724   -4507.8196            0    2106.2817    17.895537    23.317057    22.061612    9205.6765    1893.1757    2652.4661    1773.2033    117.40323   -584.26328     99.54324   -4010.1928 
26277000    123.26899   -4508.1381   -4296.8593   -4508.1381            0    1993.9436    17.853303    23.465841    21.949968    9195.7806    2389.6409    2042.7428     1549.447   -439.49737   -108.76243   -176.12705   -4029.4495 
26278000    122.98065   -4524.7365   -4313.9519   -4524.7365            0    1748.3149    18.019243    23.248342    21.993107    9213.2984    1970.9066    1532.5596    1741.4785   -59.478754   -185.48835   -58.076087   -4079.0369 
26279000    124.49811   -4535.1729   -4321.7874   -4535.1729            0    2044.2895    17.983598    23.249803    21.931002    9169.6834    2580.5237    1755.6619     1796.683    524.85229    233.53076    -620.6114   -4048.4037 
26280000    128.82328   -4519.0129   -4298.2142   -4519.0129            0    1890.1246    17.990923    23.206491    22.080145    9218.5971    1906.0914    2367.0443     1397.238   -604.92646   -521.94231   -348.12612   -4044.0987 
26281000     127.2579   -4511.7948   -4293.6791   -4511.7948            0    1675.7029     17.87261    23.380236    22.082855    9227.6709    2189.9795     2787.516    49.613206    523.10581   -478.17666   -60.362032   -4068.1695 
26282000    121.67569   -4505.9281   -4297.3801   -4505.9281            0    2463.2175    17.872615    23.401595    21.914622    9165.7402    3374.8559    1206.3376    2808.4589   -496.67788    484.39822   -38.607837   -3968.1147 
26283000    124.56025   -4517.1212   -4303.6292   -4517.1212            0     3092.494     17.96189    23.346862    21.851972    9163.7069    2637.6752    3776.8516    2862.9551     87.75281   -768.34412    33.839262   -3890.3382 
26284000    122.69353   -4530.2355    -4319.943   -4530.2355            0    2126.4748    17.898744    23.409657    21.953552    9198.6142     1863.996    2435.6132    2079.8153    27.137871   -683.98577   -270.14272   -4034.6714 
26285000    118.74378   -4529.2576   -4325.7348   -4529.2576            0    1643.9086    17.887497    23.424457    21.978483    9209.0919    2062.9823    1259.6077    1609.1359   -712.05057    39.543318   -240.17737   -4104.9494 
26286000    122.69943   -4527.6636    -4317.361   -4527.6636            0    1823.3159     18.06418    23.132747    21.993602    9190.5565    1323.1885    2139.9931     2006.766    417.96343    87.291474   -3.7550402   -4072.9732 
26287000    121.05705   -4511.9475   -4304.4598   -4511.9475            0    1470.8954    17.948924    23.486054      21.8854     9225.777    1530.4838    892.32182    1989.8805    520.52517    3.2951033    -208.6956   -4106.5531 
26288000    119.31542   -4511.0193   -4306.5167   -4511.0193            0    1185.9395    18.104738    23.406784     21.76392    9222.9768    1748.1271     930.9463    878.74505   -66.605223   -95.568368    566.77013   -4146.9988 
26289000    121.21512   -4512.0836   -4304.3251   -4512.0836            0    2356.1156    18.000669    23.290756    21.875788    9171.4064    1909.4577    2366.4286    2792.4603   -631.06172   -471.60261    708.58918   -3989.1815 
26290000    122.80749   -4521.1407   -4310.6528   -4521.1407            0     1716.227     17.97586    23.387659    21.895976    9205.3592    1256.8456    2283.6421    1608.1932    191.21312    283.98087    205.07657   -4080.2481 
26291000    124.01665   -4521.3716   -4308.8113   -4521.3716            0    2044.1443    17.957588    23.551157    21.749821    9198.4776    924.91971    1283.1459    3924.3674    181.90177   -360.59071   -100.76975   -4034.5886 
26292000    120.41073   -4518.3259    -4311.946   -4518.3259            0    2011.5092    18.098799    23.298809    21.810001    9196.8514    929.86983    2592.6949    2511.9628    1129.6775   -572.48773   -762.30891    -4042.149 
26293000    126.60229   -4517.9255   -4300.9336   -4517.9255            0    1428.8081    17.950325    23.432347    21.948281    9231.8476    1824.3642    1358.4906    1103.5695    499.91679    322.05452   -6.6426336   -4108.5631 
26294000    123.67541   -4516.4594   -4304.4839   -4516.4594            0    803.02579    17.931864    23.373487    22.034417    9235.2897    958.17784    684.39735    766.50218    533.41016   -372.11532   -252.11087   -4196.3266 
26295000     117.8983    -4531.836   -4329.7623    -4531.836            0    1778.8018    18.046182     23.13944    22.002259    9187.6716    2287.3403    1427.2592    1621.8058    299.79347   -528.93136    451.37065   -4091.4158 
26296000    132.29185   -4526.0344   -4299.2907   -4526.0344            0     2065.238    17.944056    23.347153    21.948873    9195.3184    2287.5458     1813.544    2094.6241    300.72392    35.876709    114.99506   -4022.3334 
26297000    120.72441   -4523.2691   -4316.3516   -4523.2691            0    1599.8073    17.911651    23.414699    21.956851    9208.6137    1091.7355    2020.9787    1686.7078   -614.26938    3.0131845    45.206387   -4101.5004 
26298000    123.56178   -4516.5998   -4304.8192   -4516.5998            0     2156.363    17.960918     23.22537    22.040896     9194.337    1639.9746    3198.5617    1630.5527    879.03111    343.02147     112.7094   -4015.6725 
26299000    132.26486   -4528.2862   -4301.5887   -4528.2862            0     1840.025    18.048217    23.219523    21.984731    9213.1633    1206.2314     3217.557    1096.2867   -401.10905     80.07093   -327.71342   -4054.3546 
26300000    121.22016   -4521.0295   -4313.2623   -4521.0295            0    2742.9685    17.941056    23.360501    21.871298    9166.5248    2796.4289     2560.212    2872.2646   -394.10871   -171.53282    724.83472   -3946.5703 
26301000    123.73293    -4507.193    -4295.119    -4507.193            0    2341.7512    17.940057    23.438929    21.835806    9181.8631    2251.1643    2714.4693    2059.6201   -80.741884    267.51009    619.65174   -3981.5396 
26302000    122.86598   -4518.7004   -4308.1123   -4518.7004            0    1817.1132    17.857953    23.442675    21.980217    9201.7581    1556.1402     2128.584    1766.6153    186.72006    113.71992   -338.18368    -4064.259 
26303000    121.49689   -4524.5225    -4316.281   -4524.5225            0    2264.3447    17.892296    23.321869    22.029472    9192.4975    2247.1257     2743.752    1802.1565    611.31056   -110.95782    226.29698   -4012.7158 
26304000    130.16728   -4519.1928   -4296.0906   -4519.1928            0    2595.8389    17.975131    23.136476    22.052816    9171.3518    2540.9047    3628.7171    1617.8948   -128.34561   -251.85858     -164.769   -3948.8848 
26305000    121.79169   -4517.0619   -4308.3151   -4517.0619            0    640.20002    17.922714    23.507405    22.052375    9291.0296    778.35714    -272.6512    1414.8941    58.199311   -154.97923   -292.32891   -4221.5679 
26306000    124.16484   -4503.1837   -4290.3694   -4503.1837            0    2010.4097    17.895946    23.422353    21.958185    9204.1064    2624.6382    2666.9586     739.6323    -229.8315   -209.30535   -86.592992   -4020.5072 
26307000     126.7496   -4523.7837   -4306.5392   -4523.7837            0    2403.7736    18.153388    23.124058    21.919689     9201.447    1433.0997    2395.2294    3382.9917    443.18799    190.07484    451.96502    -3983.968 
26308000    124.37351   -4519.4656   -4306.2936   -4519.4656            0    2505.4153    17.935461    23.237088     21.98863    9164.1551    2692.0607    2318.9263    2505.2591   -55.226427   -330.53345    19.384636   -3971.4453 
26309000    123.98341   -4513.7265   -4301.2232   -4513.7265            0    2361.9504    17.808678      23.4928     21.98146    9196.5096    1571.3171    2604.8064    2909.7276    91.048793   -83.387577   -131.00346   -3984.4345 
26310000    117.68862   -4526.4906   -4324.7763   -4526.4906            0    1697.6166     17.88112    23.445051    21.948982    9201.5349    1976.4941    1740.0582    1376.2973   -117.12207   -388.48823     21.08428   -4096.9648 
26311000    125.32794    -4523.344   -4308.5362    -4523.344            0    2349.1032    18.025548    23.189752    21.967684    9182.6675    2816.7471    1727.4594    2503.1031   -96.350317    66.459903   -88.219246   -3993.9448 
26312000     120.4392   -4504.1071   -4297.6785   -4504.1071            0    2248.9544    18.017301    23.102678    22.091827    9195.6768    2078.8684    2801.1721    1866.8226    66.222231   -947.74085    413.24268   -3996.0723 
26313000    123.62594   -4500.0112   -4288.1205   -4500.0112            0    1781.2974    17.876761    23.460738    21.985105    9220.5976    1360.8633    1428.4022    2554.6267    139.23072    99.420926    777.67389   -4048.5842 
26314000    123.66652   -4518.8437   -4306.8836   -4518.8437            0    2841.5805     17.86132    23.431948    21.853011    9146.0425    2827.6882    2800.6251    2896.4282   -274.67654    22.293199    78.272313   -3927.8575 
26315000    118.45486   -4523.8907   -4320.8631   -4523.8907            0    2235.4331    17.953178     23.32947    21.907146     9175.548    1377.4797    1956.5592    3372.2602   -477.53772    129.74898    564.84083   -4021.7265 
26316000    125.93059    -4512.819   -4296.9783    -4512.819            0      1579.14    17.954821    23.358394    21.966832    9212.7968    2493.3279    1637.3752    606.71689   -348.12124   -45.883355    46.225755   -4084.8063 
26317000    121.90463   -4535.2738   -4326.3335   -4535.2738            0    2650.0464    17.754961     23.51934    21.923862    9155.0749    2291.4263    2107.2882    3551.4248   -49.896442    386.33034    470.89684   -3972.5062 
26318000    121.85873   -4521.3126   -4312.4509   -4521.3126            0     1854.691    17.953868    23.192113    22.095531    9200.3167    1276.2086     3414.455    873.40948   -369.23492    73.770217     285.5113   -4063.5937 
26319000    116.43551   -4526.0449   -4326.4784   -4526.0449            0    2136.6496    17.984652    23.168963    22.019308    9175.1317    3008.6853    2639.7759    761.48753    381.27177    363.62664    453.86942   -4040.5736 
26320000    123.56183   -4521.1906   -4309.4098   -4521.1906            0    1490.3111    17.955817    23.458409    21.926322    9235.6934      1267.23    467.92909    2735.7742    15.090589   -83.781809    255.20282   -4108.6752 
26321000    124.22319   -4523.2744   -4310.3601   -4523.2744            0    1472.0371    17.826593    23.484511    22.040929    9227.4087     2447.056     694.6975    1274.3578    388.38481    442.52935    77.391734   -4112.2647 
26322000    133.36187    -4506.635   -4278.0573    -4506.635            0    2208.0173    18.024043    23.212751     21.99832    9203.8247    2018.1577    3257.1488    1348.7455   -168.46112    39.871436    53.048303   -3981.6788 
26323000    115.96002   -4524.4125    -4325.661   -4524.4125            0    2160.7819    18.011473    23.285741    21.920222    9193.5711    2826.7412    1493.4621    2162.1425   -76.358151    2.9653155   -144.46528   -4035.9459 
26324000    126.51678    -4528.632   -4311.7866    -4528.632            0    1719.8136    17.917386    23.493394    21.915231    9225.0018    1934.1946    1531.9447    1693.3014     205.6249   -237.13374    272.09243   -4080.4077 
26325000    123.87449   -4518.7592   -4306.4426   -4518.7592            0    2811.6418    17.905899    23.337717    21.928904     9163.712    4139.8527    2780.1753    1514.8974    103.05118   -189.05879   -932.79371   -3930.6854 
26326000    118.90856   -4516.7407   -4312.9355   -4516.7407            0    1724.1716    18.055144     23.15718     22.03961    9214.8979    1314.9081    2237.4697    1620.1369   -582.40701   -331.60444   -330.92071   -4081.2244 
26327000    122.38277   -4525.3091   -4315.5493   -4525.3091            0    1554.5397    17.966736    23.390357    21.935558    9218.3826    1264.0444    2183.7045    1215.8701   -356.12668   -41.450983    117.48401   -4106.5559 
26328000     126.9717   -4504.5832    -4286.958   -4504.5832            0    2342.8216    17.915159    23.546276    21.807566     9199.201    1505.9036    2836.3823    2686.1789    962.01865     -506.485   -261.14418    -3972.643 
26329000    126.04958   -4529.4273   -4313.3826   -4529.4273            0    2225.2265    17.993744    23.391571    21.807953    9179.0097    2224.9986    2039.9176    2410.7631     188.2692    251.10771    92.193991   -4015.4994 
26330000    125.82944   -4503.1799   -4287.5126   -4503.1799            0     2941.738    18.093741    23.191898    21.814177    9153.8438    2845.5726      3098.78    2880.8614   -1594.9625   -601.43157   -1.4385665   -3894.7923 
26331000    121.19362   -4516.0028   -4308.2811   -4516.0028            0    2246.4902    17.874134    23.406288    21.985939    9198.1942    3047.4276    1705.4037    1986.6393    86.692719    333.89906    398.90862   -4006.9229 
26332000    116.64554   -4520.7963   -4320.8698   -4520.7963            0    1999.5276    17.889661    23.442315    21.934881    9198.9424    1938.3705    1576.0039    2484.2084    480.79354   -209.45493   -488.93616   -4052.6189 
26333000    115.01501   -4519.4527   -4322.3209   -4519.4527            0    1987.2054    18.084027    23.335657    21.826049    9210.6507    1872.1556     2664.319    1425.1415   -6.8822024   -85.946051    248.33894   -4055.3838 
26334000    130.68681    -4510.857   -4286.8643    -4510.857            0    1816.1814    18.142645    23.252932    21.832427    9210.4395    1303.7063     917.7711    3227.0668   -457.18234    826.37814    44.410187   -4042.9061 
26335000    125.82346   -4522.9421    -4307.285   -4522.9421            0    1486.3806    17.932928    23.416832    21.955978    9220.0254    1441.0202    1255.4224    1762.6991    108.74708   -596.94247    361.44269   -4107.4194 
26336000    122.51322   -4521.1559   -4311.1724   -4521.1559            0    1976.9351    17.853568    23.467783    21.983375    9210.6749    2025.6182    2239.4206    1665.7665   -411.30789    185.80051   -8.7770032   -4045.6142 
26337000    127.21192    -4535.021   -4316.9841    -4535.021            0    1934.7087    18.066943    23.247916    21.915342     9204.855    1383.8217    2603.2202    1817.0843   -944.70162     -239.829    155.74684   -4057.2623 
26338000    127.38429   -4510.1659   -4291.8336   -4510.1659            0    1620.8009    18.092637    23.167284    22.030005     9234.037    909.76146    2301.5175    1651.1238     -15.6482    293.62829   -468.92759    -4073.562 
26339000    121.02009   -4531.7412    -4324.317   -4531.7412            0    2739.1309     17.81958    23.386651    21.983564    9161.4369    3415.2579    2840.7791    1961.3557   -745.64766    152.12137   -103.30587   -3958.3412 
26340000    119.46106   -4509.9264   -4305.1742   -4509.9264            0    2712.8926    17.869663    23.425058    21.914003    9173.1556    1911.9091    3533.8667     2692.902    382.33813    74.529115    208.26175   -3942.2406 
26341000    115.49971   -4523.6864   -4325.7239   -4523.6864            0    2479.5694    18.032835    23.211232    21.942136    9184.1953    1732.9849    2512.4196    3193.3039    209.85404   -222.78832   -103.44961   -3993.6052 
26342000    129.47402   -4521.9113   -4299.9972   -4521.9113            0    1401.2977     18.02927    23.220449    22.083262    9245.1073    745.54607    1690.2752     1768.072    441.01066   -196.52608     313.7902   -4111.0597 
26343000    121.84314   -4527.6787   -4318.8437   -4527.6787            0    2509.2816    17.792485    23.419212    22.011812    9172.0132    3662.2772    2060.2616    1805.3059    2.0452165   -148.37987    -35.53204   -3983.1911 
26344000    120.27468   -4516.6086   -4310.4619   -4516.6086            0       1859.3    17.877211     23.45896    21.937388     9200.119    3022.0461    1231.7946    1324.0593    605.14231   -181.93382    511.37488   -4060.9916 
26345000    122.63183   -4529.2503   -4319.0636   -4529.2503            0    1735.2442    18.030822     23.34289    21.856551    9199.2364    1711.9589    1245.1578     2248.616   -570.82914    297.97516    431.57099   -4086.2607 
26346000    123.57299   -4513.0996   -4301.2997   -4513.0996            0    1129.0592    18.083563    23.307038    21.921516    9239.3557    922.68528    1129.3505    1335.1417    1108.6798     478.8538    284.52407   -4149.1629 
26347000    125.22958   -4517.7496   -4303.1104   -4517.7496            0    2184.6321    17.840635    23.470834    21.891238    9166.6184    2310.4032    1597.6083    2645.8848    470.62178     200.1253    266.82899   -4011.0563 
26348000     121.2238   -4529.0756   -4321.3021   -4529.0756            0    2173.4787    17.798974     23.43982    21.955095    9159.7696    3246.5377    2509.1908    764.70773    574.73249   -73.284918    35.260411   -4030.9562 
26349000    117.99246   -4509.0844   -4306.8494   -4509.0844            0    2231.0105     18.10561    23.185852    21.946057    9212.8227    2228.0662     1695.989    2768.9762   -1.8860259   -298.94146    476.63892   -4007.0918 
26350000    119.35805   -4525.7482   -4321.1726   -4525.7482            0    1658.6108    18.005921    23.317875    21.986033    9231.0522    1877.4985    2066.4004    1031.9336    187.76261   -146.57916    770.72504   -4097.8814 
26351000    119.57014    -4530.816   -4325.8768    -4530.816            0    1646.4621    17.817359     23.50324    21.972796    9201.4526     2088.937     1311.628    1538.8213   -724.56882    778.57977    13.886231   -4104.9319 
26352000    123.45768   -4510.4111   -4298.8089   -4510.4111            0    2473.9223     17.92104    23.272452    22.050504     9196.527    2044.6208    3219.4901    2157.6561    126.05507    433.09282   -362.66463   -3967.0017 
26353000    117.17083   -4503.8036   -4302.9768   -4503.8036            0    1235.2345    18.003171    23.309473    22.067774    9260.6184    490.83601     2334.813     880.0546   -70.854212    660.30252    546.81251   -4136.1502 
26354000     121.1179   -4516.8496   -4309.2577   -4516.8496            0    1897.1132    17.792993    23.404376    22.111986    9208.1804    2884.3915    1240.6818    1566.2663   -681.56691   -311.57173    143.39381   -4054.4908 
26355000    123.69162   -4511.2969   -4299.2937   -4511.2969            0    1080.6171    17.881991    23.390293    22.108463    9247.1964    2963.3085   -90.258451    368.80133   -312.93288   -136.98365    244.01602   -4153.5608 
26356000    118.82177   -4522.6788   -4319.0224   -4522.6788            0    2450.8178    17.885447    23.263811    22.039245    9170.1692    2589.0407    3283.2324    1480.1803   -587.79117   -637.73078   -179.76317   -3991.2561 
26357000    121.69016   -4526.4146   -4317.8418   -4526.4146            0    1532.9411    17.966002    23.235848    22.066708    9211.8642    1593.2555    2065.7431    939.82485    20.311731    398.57533     459.1033   -4111.8979 
26358000    119.71792   -4512.9065   -4307.7141   -4512.9065            0    2807.8175    17.909616    23.234603    22.029325    9166.9045     3636.159    3360.5913    1426.7023   -209.89688   -432.10876    268.69731   -3932.3372 
26359000    115.94144   -4509.8199   -4311.1003   -4509.8199            0    1843.1392    17.785062    23.450891    22.095915    9215.6664    1783.9207    1239.4687    2506.0283   -295.93659   -380.92606    774.75226   -4063.3804 
26360000    120.40544   -4517.9435   -4311.5727   -4517.9435            0    589.93231    17.981012    23.382169    22.000473    9249.7702      1008.41    16.038567    745.34831    248.59014   -90.087644   -430.25908   -4231.9917 
26361000    125.95692   -4518.0722   -4302.1864   -4518.0722            0    2502.5987    17.978869    23.345756    21.860796     9175.638    3389.9062    1255.3702    2862.5196    125.16435   -156.57106    730.22711   -3967.2954 
26362000    125.65263    -4521.923   -4306.5587    -4521.923            0    1995.9306    17.781979    23.561997    21.862565    9159.9542    3041.5928    1208.9645    1737.2346    66.659124    647.18948    546.47815   -4039.9252 
26363000    121.96296   -4521.8109   -4312.7705   -4521.8109            0    1729.0764    17.956037    23.348593    21.945362     9200.554    1457.0363    1705.3983    2024.7945   -971.87995    6.9327109    80.826797   -4080.7619 
26364000    127.03498   -4507.5322   -4289.7986   -4507.5322            0    1765.2583    17.980371    23.298441    21.905572    9176.5639    2001.0809    1461.5996    1833.0944   -127.83086    194.93104   -550.45799   -4053.5527 
26365000    126.99185   -4517.1523   -4299.4926   -4517.1523            0    1514.4861    17.859694    23.595802    21.833907    9201.1099    937.16735    1090.4284    2515.8624    922.56197    -626.7431   -56.742918   -4096.2656 
26366000    123.31563   -4527.3745   -4316.0157   -4527.3745            0      1493.04    17.973357    23.399847    21.906553    9213.3225    1390.8265    2367.3467    720.94676   -240.94757    101.16882    8.0888519   -4115.4006 
26367000     117.3751   -4525.7996   -4324.6227   -4525.7996            0    2459.2522    18.038926    23.201347    21.943887    9184.1176    2243.9752    2225.8266    2907.9548   -330.35465   -48.662948    301.60613   -3995.2282 
26368000    122.19538   -4531.0657    -4321.627   -4531.0657            0    591.84142    17.938489    23.386807    22.072705    9260.0293    1109.1668     1632.187   -965.82955   -910.77885    271.56414    282.31903      -4241.7 
26369000    125.53094   -4519.0956   -4303.9399   -4519.0956            0    955.63581    17.880357    23.495306    22.001549    9242.9489    1485.3353    1154.7723    226.79984   -663.95488    70.112419   -153.02357   -4175.1212 
26370000    123.51739   -4528.1599   -4316.4553   -4528.1599            0    2659.2398    17.949495    23.279315    21.996044    9191.0895     1822.407    3579.0503    2576.2622    142.91614   -61.138331   -268.12575   -3960.0038 
26371000    121.10202    -4524.405   -4316.8403    -4524.405            0    1203.3845     17.97706    23.271577    22.154823    9268.5705    1856.8929    1404.4232    348.83733   -999.05831    149.00606    33.312364   -4154.1757 
26372000    121.10356   -4503.1807   -4295.6133   -4503.1807            0    1155.4722    18.042919     23.33649    22.004409    9265.1412    588.49533    886.45034    1991.4711     117.1424    108.93128     767.5968   -4139.4829 
26373000    119.13252   -4531.0256   -4326.8365   -4531.0256            0    1232.6124    18.091151    23.336731    21.938554    9262.2012    1559.3133    1194.7349    943.78893   -1010.3813     657.3749   -308.06325   -4160.3356 
26374000     121.8669   -4506.6134   -4297.7377   -4506.6134            0    1841.1804    17.968925    23.511852    21.802931    9211.3618    2081.3635     1155.001    2287.1768    231.78005     480.6049   -156.23547   -4050.3967 
26375000    124.85748   -4504.5495    -4290.548   -4504.5495            0    2292.1347    18.033523     23.35527    21.827854     9193.408    1781.9653    1807.5306    3286.9082   -481.93863    23.105024    93.428015   -3983.2268 
26376000    119.14101   -4512.2988   -4308.0952   -4512.2988            0    2047.9919    18.028062    23.375703    21.838567     9203.179    2077.0386    3008.0599    1058.8772    93.260358    152.70406    189.77502   -4033.2159 
26377000    127.03177   -4520.2321    -4302.504   -4520.2321            0    1849.4822    18.051326    23.309337    21.899777    9214.6476    1164.0913    2832.8791    1551.4761    1121.3144   -8.2830967   -341.46575   -4053.9591 
26378000    123.61142   -4516.1968    -4304.331   -4516.1968            0    3192.0191     18.03523     23.26125    21.759065    9128.4065    2937.5082    2655.9875    3982.5615    848.24695    93.121056    141.25403   -3879.3825 
26379000    130.38556   -4521.6702   -4298.1938   -4521.6702            0    1847.3488    17.970659    23.410446    21.902131    9214.2516    1663.4971    1745.0703     2133.479    230.77192    3.1864277    80.861509   -4049.9463 
26380000    124.89793    -4534.406   -4320.3352    -4534.406            0    1870.6245     17.93116    23.373274    21.920487    9187.0933    2311.5976    984.98355    2315.2923   -483.65527    -303.9554    430.45061   -4069.7008 
26381000    119.71753   -4530.2845   -4325.0927   -4530.2845            0    2005.3354    17.993487    23.375261    21.839834    9185.8878    2183.6915    2002.1409    1830.1738     408.8571    223.98422    120.64817   -4056.4445 
26382000    121.92206   -4503.3456   -4294.3754   -4503.3456            0    1092.0758    18.072986    23.459598     21.80251    9243.9373    736.70908    745.78071    1793.7375    345.76238   -70.422048   -55.518133    -4147.149 
26383000    125.04475   -4528.1823   -4313.8599   -4528.1823            0    2309.0256    17.961785    23.379269    21.779261    9145.8394    2238.5759    1401.9425    3286.5582   -327.89422   -27.321628    123.56877   -4005.8759 
26384000    114.12383   -4519.8105   -4324.2061   -4519.8105            0    1494.1845    18.032504    23.306992    21.937426    9219.9364     561.1026    2377.1367    1544.3143   -497.28538   -219.31163    300.30434   -4123.2931 
26385000    118.59423   -4531.2374    -4327.971   -4531.2374            0    1160.5398    17.991233    23.298142    22.038957    9237.9002     1576.799    756.68893    1148.1316   -407.38776    -412.5923   -165.10217   -4171.6169 
26386000    116.25864   -4509.3629   -4310.0996   -4509.3629            0     1009.019    17.952209    23.319888    22.146335    9271.4195    934.02052    1775.0891    317.94743   -56.905714   -317.81087    306.28931    -4173.666 
26387000     122.1957   -4529.5416   -4320.1024   -4529.5416            0    1541.2002    17.976915    23.291012     22.03164    9224.6596    26.927103    1797.5616    2799.1119   -674.00951   -410.85434    -212.1275   -4112.7613 
26388000    120.88353   -4513.6087   -4306.4184   -4513.6087            0    838.13705    17.806442    23.596634    21.937203    9217.4004    1865.2547   -280.35635    929.51276    36.945235   -25.043257    -300.3233   -4193.7508 
26389000    115.29442   -4530.5061   -4332.8954   -4530.5061            0    1695.0058    17.969873    23.352709    21.861486    9174.0683    1098.5634    1725.3507    2261.1035   -787.81126    501.50463   -108.51818   -4106.1132 
26390000    122.52791   -4522.8248   -4312.8161   -4522.8248            0    1635.5287    18.019651    23.229707     22.00313    9210.3171    1063.6924    1532.9858    2309.9079    65.708795    520.67188    159.84499   -4093.1269 
26391000    121.17039   -4530.9073   -4323.2254   -4530.9073            0     2604.509    17.959479    23.248257    21.950087    9164.7447    3016.6042    3429.9037     1367.019   -1081.2723    114.01746    510.37028   -3975.1109 
26392000    117.06115   -4519.2251   -4318.5863   -4519.2251            0    1906.8091    18.021693    23.375531    21.862197    9209.8141    2165.4616    1683.4642    1871.5015   -414.55289    149.00987   -192.59249   -4062.4719 
26393000    122.72347   -4526.9689   -4316.6251   -4526.9689            0    1812.2855    17.902429    23.559653    21.818698    9202.5816    1574.0779    2896.1416    966.63717    353.47278    135.61227    515.31955   -4073.3979 
26394000    124.18163    -4522.894    -4310.051    -4522.894            0    3436.7196    17.882382    23.410018    21.782159    9118.5971    3028.7112    2525.0407    4756.4069    496.40366    262.01112    277.46168   -3853.0175 
26395000    125.92068   -4512.9643   -4297.1405   -4512.9643            0    1251.3603    18.068017    23.280362    21.931643    9225.1062    1313.5728    994.30144    1446.2068   -407.84647    105.36084    244.36051   -4128.7841 
26396000    119.29593   -4518.4585   -4313.9893   -4518.4585            0    2736.2163    17.878788     23.47899    21.821419    9160.1055    3166.5549    2376.5835    2665.5105    304.19588    -226.4481    88.254932   -3948.4562 
26397000    115.48299   -4521.5534   -4323.6195   -4521.5534            0    1768.4346    17.950775    23.434265     21.89847     9211.881    898.46528    1927.9919    2478.8466   -590.89887   -398.28643    172.83421   -4086.0377 
26398000    117.93563    -4526.968   -4324.8304    -4526.968            0    1974.7691    18.026565     23.17429    22.013409    9196.1643    2580.5512    1314.3359    2029.4203   -173.17473   -238.76891   -53.841101    -4059.981 
26399000    124.74853   -4503.9109   -4290.0962   -4503.9109            0    2370.9866    17.780308    23.342461    22.104469    9174.1534    3215.1887    2111.2932    1786.4778     275.2161   -448.75572    180.91509   -3972.8686 
26400000    123.77382   -4526.8367   -4314.6926   -4526.8367            0    2091.3493    17.826834    23.473444    21.932292    9177.7251     2100.509    1063.2151    3110.3238   -392.28151   -280.49819    105.04733   -4034.7703 
26401000     123.0634    -4510.533   -4299.6066    -4510.533            0    2041.5446    18.007055    23.260817    21.952463    9194.9826    944.29107    1994.1596    3186.1831   -281.57546   -597.25399    -337.8711   -4025.8367 
26402000    120.12658   -4529.8914   -4323.9985   -4529.8914            0    2451.6853    18.077753    23.284812    21.777957    9167.1498    2238.0151    2960.7404    2156.3003   -479.29617   -62.013258    243.10465   -3996.2242 
26403000    124.86489    -4519.774   -4305.7598    -4519.774            0    1723.3196    18.077181    23.343529    21.837048    9214.9111    1198.5563    2000.6382    1970.7642   -587.60501    330.80521    293.81606   -4074.1628 
26404000    121.39455   -4525.3897   -4317.3236   -4525.3897            0    1811.4825    17.990174    23.379294    21.862076    9195.1357    2545.6477    2034.8947    853.90497    341.44547   -121.89349    404.55575   -4074.4009 
26405000    118.71866   -4515.5128   -4312.0331   -4515.5128            0    2400.3965    17.970713    23.288615    21.954648     9188.306    2878.7867    1702.5388    2619.8641   -764.83712    798.57679   -336.55732   -3990.3751 
26406000    115.62223   -4531.3288   -4333.1562   -4531.3288            0    2288.6548    17.981834    23.219178    21.951836    9165.4053    1636.1325    2334.6322    2895.1998   -490.40288    124.94336   -368.39964   -4027.2362 
26407000    126.12299   -4533.0951   -4316.9246   -4533.0951            0    1515.9962    18.086303    23.211625    21.933307    9207.8763    1167.7326     2054.746      1325.51   -418.68984    495.03692    633.64866   -4113.3454 
26408000    124.00266   -4526.4387   -4313.9024   -4526.4387            0    2171.2399    17.827378    23.566493    21.831411    9172.0039    2868.9587    1671.2353    1973.5257    38.494863   -577.05018    106.22865   -4023.4681 
26409000    127.59954   -4531.3517   -4312.6505   -4531.3517            0    2711.1364     18.05267    23.266517    21.807252     9159.542    1526.8245    3387.8738     3218.711    9.2539799    672.54586   -425.26574     -3950.49 
26410000      129.576   -4517.5588     -4295.47   -4517.5588            0    2419.7901    18.071511    23.168545    21.910912    9173.8931    2405.9536    2966.1299    1887.2868     416.2855   -17.780146     -27.7554   -3971.7218 
26411000    115.37979   -4524.6448   -4326.8878   -4524.6448            0    1581.4693    17.890953    23.507056    21.904645    9212.2974    1738.5199    1210.7138    1795.1741   -313.10656    476.10849   -428.75814   -4114.4144 
26412000    118.43834   -4518.4953    -4315.496   -4518.4953            0     1891.182    17.893105    23.503629    21.817657     9175.479    2585.1176    2001.9715    1086.4569   -504.79261   -391.21063   -177.48884   -4062.4276 
26413000    124.82792   -4522.2233   -4308.2725   -4522.2233            0    1242.2267    18.003121    23.409253    21.893651    9226.8519    850.82947    1064.4657    1811.3849   -353.52103    -378.4255   -94.796556   -4141.1133 
26414000    118.49558   -4518.9878   -4315.8904   -4518.9878            0    2357.5847    17.999295    23.396812    21.834965     9195.274    932.57288    2119.8132     4020.368    59.083039   -119.70562   -72.703147   -3999.7297 
26415000    120.24381   -4517.9273   -4311.8335   -4517.9273            0    1756.4048     18.02106    23.431689    21.790897    9201.5082     850.2254    697.78812    3721.2009    285.84085   -228.97357   -638.90966   -4076.1336 
26416000    125.97682   -4519.1236   -4303.2036   -4519.1236            0    2678.3608    18.029771    23.296272    21.818864    9164.4999    2151.0293    2316.1695    3567.8837   -101.80894   -276.84324   -87.300917   -3945.2277 
26417000    118.13139   -4527.5206   -4325.0474   -4527.5206            0    2275.0919    17.984384    23.240261     21.91592     9160.017    2223.0482    2515.7424    2086.4852    317.87363   -342.64319    403.15141   -4021.1191 
26418000    129.52195   -4512.4932    -4290.497   -4512.4932            0    3105.0848    17.954355     23.19335    21.980863    9153.3069    3606.1886    3422.2122    2286.8537    221.99545    257.81313    15.893178   -3875.9943 
26419000    122.99551   -4505.6417   -4294.8316   -4505.6417            0    2136.5189    17.917992    23.301915    22.030624    9198.3037    2465.1334    1286.8532    2657.5702     -123.972   -175.63411   -183.25149   -4008.2223 
26420000     126.9025    -4529.266   -4311.7595    -4529.266            0    1860.8126    17.861802    23.340898    22.089747    9209.4475    1791.0366    1802.5484    1988.8528    655.77151   -253.59865   -21.010436   -4061.8331 
26421000     121.4065   -4518.7367   -4310.6501   -4518.7367            0    2155.0599    17.934287     23.27729     21.98805    9179.1666    2688.0175    455.71214    3321.4501   -355.86962   -108.73158   -314.58037   -4022.1549 
26422000    121.55638   -4519.8722   -4311.5288   -4519.8722            0     1157.141    17.952396    23.362143    22.026894    9238.2211      448.809    1050.4132    1972.2007   -708.63381   -140.10713   -593.08787   -4155.6272 
26423000    120.38588   -4522.5834   -4316.2461   -4522.5834            0    2164.7753    17.903104    23.426488    21.911313    9189.7549    2444.1431    2227.5703    1822.6125    33.765319   -640.06541    492.68825   -4026.1161 
26424000    116.73166   -4522.8319   -4322.7579   -4522.8319            0    1545.4752    17.969743    23.544787     21.80576    9225.8813    2446.0488    1062.1854    1128.1916   -282.42234    259.59468   -636.85299   -4114.8141 
26425000    125.89725   -4516.3111   -4300.5275   -4516.3111            0    2005.0872    18.014571    23.328235    21.831937     9174.831    1741.1651     2587.467    1686.6294    136.17588   -241.39465    670.88138   -4032.2358 
26426000    119.07276   -4518.8817    -4314.795   -4518.8817            0    2289.1805    17.791749     23.54059     21.89989    9172.2931    1736.0601    1911.0663    3220.4151   -447.75048    831.35036   -507.78036   -4008.5748 
26427000    124.22945    -4508.995   -4296.0699    -4508.995            0    1673.8008    17.989113    23.381932    21.890742    9207.6886    862.09783      1886.28    2273.0244    802.73792    449.33399    329.97315   -4071.3041 
26428000    126.42994   -4520.4504   -4303.7538   -4520.4504            0    1832.4327    18.063506    23.360235    21.839025    9215.3641    2216.4011    1637.7767    1643.1204    424.85272   -32.362472    224.54239    -4057.481 
26429000     119.4754   -4516.8985   -4312.1217   -4516.8985            0    1670.2914    17.993736    23.274398    21.997179    9212.2731       1021.7    2430.8181    1558.3563    257.73768    117.95702   -91.241745   -4087.7155 
26430000    122.32548   -4527.4222   -4317.7606   -4527.4222            0    1188.1264    18.002577    23.253927    22.069166    9238.8285    705.43122    2485.9488    372.99914    1060.7456    180.90097     130.0882   -4157.6738 
26431000    124.72391   -4520.2877   -4306.5152   -4520.2877            0     1718.075    17.980088    23.400963    21.902302    9215.4239    1454.4332    1665.7502    2034.0417   -818.48046   -307.61975   -217.78379   -4075.6102 
26432000    128.70445   -4513.6129   -4293.0179   -4513.6129            0    2080.1263    17.909207    23.372618    21.916914    9174.0926    2150.6328    2801.5606    1288.1855   -266.51179   -437.44523    599.94149   -4014.7079 
26433000    117.43935   -4515.0255   -4313.7385   -4515.0255            0    1917.7829    18.015608    23.253475     21.93188    9187.8238    1782.5305    2368.2821     1602.536    130.25155   -105.93875    681.13795   -4056.7652 
26434000    121.64961   -4528.5189   -4320.0156   -4528.5189            0    2649.3167    17.933373    23.215395    21.939227     9133.966    2072.9405    2959.5835     2915.426    2.5066514   -289.64262   -83.150418   -3967.1014 
26435000    124.22436   -4508.7694   -4295.8531   -4508.7694            0    3643.0229      17.8624    23.349541    21.843883    9110.6216    3772.6559    4208.1643    2948.2486   -299.55244   -398.86579   -164.36606    -3811.808 
26436000    130.11084   -4523.4793   -4300.4737   -4523.4793            0     1871.816    17.906868    23.470566    21.960391    9229.6084    2001.8209    728.00154    2885.6255     -267.281    243.83259   -54.233619   -4048.5191 
26437000    117.44152   -4515.4107   -4314.1199   -4515.4107            0    1848.2019    18.082322    23.149446    21.954309    9189.9801    1556.0641    1965.4192    2023.1224      -287.59    246.28442    -309.9904    -4066.412 
26438000    128.38786   -4512.7568   -4292.7044   -4512.7568            0    2573.5586     17.93811    23.284404    21.933275    9161.0507    2529.1298    2252.2053    2939.3407   -388.54793   -77.774568    629.85933   -3948.8653 
26439000    115.77393   -4521.5774   -4323.1449   -4521.5774            0    1354.8067    17.840442    23.630208    21.862384    9216.5981    2001.8724    871.07901    1191.4687   -1010.3579   -490.39933   -115.47682    -4141.039 
26440000    129.32185   -4509.0861   -4287.4329   -4509.0861            0    2023.8985    17.999234    23.337465    21.902563    9200.3139    1456.0971    1477.2325    3138.3659    242.53155   -752.43285    161.59596    -4015.872 
26441000    123.48672   -4516.4611    -4304.809   -4516.4611            0    1832.8711    18.068109     23.22366    21.885376    9183.2707    1136.3659    2078.0887    2284.1586   -37.484081    304.84236    440.41158   -4059.3352 
26442000     122.0778   -4515.2192    -4305.982   -4515.2192            0    1464.5248    17.934747    23.552175    21.840575    9225.5092    851.99597    944.36262    2597.2159    110.61473    367.24938   -113.54815   -4108.9382 
26443000    127.12717    -4525.685   -4307.7933    -4525.685            0    1408.6511    17.955599     23.48522    21.856083    9216.5175    1880.4155    1006.4576    1339.0803   -121.66796   -503.04603    369.50019   -4118.4517 
26444000    122.59384   -4504.0253   -4293.9037   -4504.0253            0    2394.2679    18.085874    23.239014     21.78053    9154.3103    1778.1725    1982.7211    3421.9101   -391.46568    322.98551   -192.78586    -3974.254 
26445000    121.49108   -4520.5488   -4312.3172   -4520.5488            0    1626.2042    17.999444    23.281232     21.96896    9206.0758    1772.3639    2228.3822    877.86658    -213.6807    373.86486   -231.92529   -4093.9811 
26446000    117.39437   -4507.2468   -4306.0369   -4507.2468            0    1852.0596    17.949225    23.369804    21.929612    9198.8116    2397.6866     1449.458    1709.0342   -1010.9963   -90.341304   -178.22917   -4057.5734 
26447000    115.83549   -4505.9662   -4307.4281   -4505.9662            0    1414.5186    17.870102    23.490496    21.999891    9235.0604    1305.5077    890.82093    2047.2271   -608.76471    160.30023    482.39401   -4116.9153 
26448000    121.21376   -4509.2496   -4301.4934   -4509.2496            0    3785.3965    17.902509    23.129443     21.95142    9089.5351     2787.991    3921.6753    4646.5233   -785.07004   -4.7723289   -361.86539   -3799.6954 
26449000    129.54976   -4519.2238     -4297.18   -4519.2238            0     2558.478    17.800862    23.461479    21.926113    9157.1024    3338.1544    1691.8224    2645.4573   -324.74843    304.54309   -97.968234    -3955.503 
26450000    120.12264    -4518.882   -4312.9959    -4518.882            0    1985.5544    17.951865    23.351723    21.876093    9170.6112     2686.548    2016.3028    1253.8124   -203.77332    -303.2195    176.65425     -4047.44 
26451000    124.48649   -4522.3047   -4308.9391   -4522.3047            0    2010.5948    17.936497    23.419342     21.91512    9205.6859    2281.1188     2186.452    1564.2136   -317.15696    -336.2166    54.141753   -4039.0057 
26452000    122.07324   -4516.1818   -4306.9525   -4516.1818            0    1804.4428    17.944347    23.457408    21.863655    9203.0215    1430.0471    1086.5958    2896.6856   -355.54921    374.04815   -263.46134   -4064.7663 
26453000    123.15491   -4532.1928   -4321.1095   -4532.1928            0    2354.7551    17.949141    23.276791    21.932098    9163.1955    2133.1378    2373.3598    2557.7678   -755.42918   -219.01639     376.7135   -4006.4299 
26454000     120.4341   -4524.7706   -4318.3507   -4524.7706            0    1778.4809     18.04601    23.222571    21.898186     9176.977    1702.3453    2008.1849    1624.9126   -370.17112   -473.29614   -4.0895131   -4080.3245 
26455000    116.26279   -4524.6686   -4325.3981   -4524.6686            0    2792.0087    17.888475     23.32538    21.936604    9153.1681    2262.8768    3732.5573     2380.592   -734.18782    109.02064   -60.313736   -3952.6941 
26456000    124.19751    -4531.915   -4319.0447    -4531.915            0    1749.1067    17.866043    23.412339    21.976753    9192.5649    2257.6889    1538.0862     1451.545    463.04835   -285.57934   -440.52301   -4084.5523 
26457000    118.19799   -4518.3408   -4315.7534   -4518.3408            0    1800.7728    17.866149    23.262682     22.13272    9198.6799      2168.94     1579.293    1654.0855     55.89745    -203.3991   -272.36986   -4074.1738 
26458000    119.32044   -4504.7751   -4300.2639   -4504.7751            0    2260.1943    17.885993    23.381927    21.960953    9184.2675    2231.5228    2415.5616    2133.4983    613.38463    235.75306    191.40593   -3997.5265 
26459000    119.45929   -4515.4145   -4310.6654   -4515.4145            0     1443.943    18.075862    23.323058    21.878085    9223.4592    1448.1222    1429.1847     1454.522    8.1167814   -124.98907   -457.67472   -4116.4338 
26460000    125.30193   -4509.1771   -4294.4139   -4509.1771            0    2434.0704    17.968606    23.282265    21.900373    9162.0178    2555.6843    2043.6397     2702.887    305.07775   -151.24698    763.15666   -3969.1768 
26461000    116.60712   -4514.3668   -4314.5062   -4514.3668            0    1516.8261    17.957921    23.349338    21.980249    9216.4409    1719.5835    1772.6049      1058.29   -182.20237   -174.52385    420.99769    -4110.626 
26462000    121.65959   -4513.8823   -4305.3619   -4513.8823            0    2477.8311    17.850788    23.303816    21.966797    9138.0004    3906.3004    1595.3104    1931.8825    855.36648     538.5462    141.32742   -3975.1454 
26463000    125.24006   -4518.6842    -4304.027   -4518.6842            0     175.7135    17.848747    23.501631    22.131698    9283.6871   -347.33087   -437.53881    1312.0102    -604.6412   -70.259876   -400.58703   -4280.2366 
26464000    122.13903   -4523.8116   -4314.4695   -4523.8116            0    2404.2706    18.019244    23.170304    21.998844    9184.7674    2028.2183    2201.0603    2983.5331   -26.398666    241.98733    31.206522   -3992.4164 
26465000    121.86095   -4545.2328   -4336.3673   -4545.2328            0    1480.7398    18.119272    23.182869    21.921962    9208.4668   -117.45767    1278.4237    3281.2532    -3.444888   -498.43621    907.71344   -4137.5098 
26466000    123.52158   -4526.7023   -4314.9906   -4526.7023            0    1671.9273    17.882352    23.442027    21.953726     9202.971    2014.3949    1947.5855    1053.8014   -748.85398    515.86721     266.7149   -4090.5913 
26467000    119.95865   -4530.3248   -4324.7198   -4530.3248            0    1607.9387     17.94977    23.349272    22.012845     9225.893     1549.355    1604.8753    1669.5859   -616.31633    464.25475    681.46121   -4108.3713 
26468000    123.78447   -4518.4195   -4306.2572   -4518.4195            0    2348.4457    17.854916    23.340783    22.024188    9178.5301    3707.1065    1817.9178    1520.3128    289.50195    645.36324    99.790189   -3991.8955 
26469000    132.47238   -4528.3059   -4301.2528   -4528.3059            0    1809.6309    17.856696    23.305125     22.06953    9184.2907    1969.9825    2087.2952    1371.6152    81.816439    543.94338    27.361427   -4058.8646 
26470000    115.45509   -4516.6057   -4318.7196   -4516.6057            0    1347.7824    17.869549    23.409136    22.079706    9236.1776     2238.609     1272.032    532.70612    210.63183   -134.82874    593.58417   -4137.1731 
26471000    122.96772   -4522.4295   -4311.6671   -4522.4295            0    2150.9435    17.988828    23.244825    22.012321    9204.3893    1587.1343    1774.0001    3091.6961   -152.64752    110.31348    289.83812   -4022.9318 
26472000    119.80877   -4522.3477   -4316.9996   -4522.3477            0    1640.1233    18.056331    23.085039     22.03722    9185.7985    2098.1843    2133.4489    688.73689    246.07078   -405.71523    114.61738   -4097.2797 
26473000    117.64164   -4517.4102   -4315.7764   -4517.4102            0    1652.5591    17.887335    23.328177    22.043911     9198.459     2511.358    1826.1804    620.13869   -620.38275   -241.16693   -271.65759   -4094.0855 
26474000    127.05389    -4526.173    -4308.407    -4526.173            0    2557.0001    17.796529    23.513327    21.895467     9162.281    3701.4178    2144.0968    1825.4856    358.14787   -102.15359    357.46658   -3966.7343 
26475000    120.75361   -4525.2548   -4318.2872   -4525.2548            0    1953.6823    18.142374    23.200003     21.84983    9196.6614    2234.4085    1171.2717    2455.3666    46.127755    151.60335   -160.48739   -4056.2518 
26476000    123.34055   -4518.9431   -4307.5417   -4518.9431            0    2497.4691    18.021287    23.244738    21.926934    9185.1949    3446.4205    2196.1924    1849.7944   -20.849326    -593.8558   -796.02757   -3972.9891 
26477000    129.09521   -4501.9817   -4280.7169   -4501.9817            0    1921.0792    17.895045    23.507592    21.855674    9194.0135    2557.5442    2138.8865    1066.8069   -71.662412   -636.01196    461.62177   -4023.1286 
26478000    128.00273   -4520.0013    -4300.609   -4520.0013            0    2062.5618    17.962223    23.317059    21.963253     9198.786    2211.6849     1772.482    2203.5185     31.04147   -631.65812    235.76144   -4023.9063 
26479000    122.19597   -4511.4831   -4302.0434   -4511.4831            0    2507.1849    18.130264    23.181122    21.875177    9193.6964    2475.5324    3867.1769    1178.8455    728.01675   -545.62016    284.52316   -3965.8784 
26480000    128.98621   -4516.4514   -4295.3735   -4516.4514            0    1618.0118    18.030912    23.301931    21.929917     9213.966    1226.9838    1614.0692    2012.9824   -490.70876    43.655148   -134.19044   -4077.9512 
26481000    126.26413   -4519.3138   -4302.9014   -4519.3138            0    2084.8273    17.906621    23.413837    21.935787    9196.8575    1002.8234    1848.8763     3402.782    1012.2034    193.94143    149.40578   -4023.2703 
26482000    122.17127   -4515.5767   -4306.1793   -4515.5767            0    1435.5626    17.945381    23.288626    22.079759    9227.6449    1276.0096    1756.1054    1274.5728   -540.41834   -228.05042   -40.834626   -4112.9874 
26483000    121.75671   -4524.2292   -4315.5424   -4524.2292            0    2752.9459     17.88998    23.218053    22.069911    9167.1901    3704.9976    2604.2225    1949.6177   -1095.0423    359.55227   -305.50625   -3947.4898 
26484000    126.44224   -4517.9669   -4301.2493   -4517.9669            0    1036.9559    17.923913     23.36083    22.074372    9242.9254    1170.3803    2720.5196   -780.03224    915.37933   -166.65761    402.07239   -4161.4691 
26485000    117.99332   -4522.2684   -4320.0319   -4522.2684            0    1847.7407    17.826689    23.380151    22.031571    9182.5536    1869.9248    878.02097    2795.2762    -130.1636   -552.60088   -260.78064    -4072.586 
26486000    124.22953   -4527.5054   -4314.5802   -4527.5054            0    1738.4575    17.905814    23.276854    22.115696    9217.6229    2069.3165    1740.5539    1405.5021   -600.41329   -675.04342    302.16545   -4080.8801 
26487000    123.21722    -4523.932   -4312.7419    -4523.932            0     1705.417     17.97067    23.264144    22.040073    9214.3428    1830.6833    1861.3598    1424.2081   -500.52272   -25.875455    223.90962    -4083.565 
26488000    126.96032   -4517.9987    -4300.393   -4517.9987            0     1540.915       17.887    23.312988    22.135507    9230.4936    1721.6119    937.03693    1964.0963    137.94654   -197.48465    247.51114   -4092.9592 
26489000     123.7752   -4516.0933   -4303.9469   -4516.0933            0    2542.7193     17.84561    23.374321     21.99335    9174.0644    3006.6907    1722.6282    2898.8392    409.69338    169.36796   -183.09236   -3963.7454 
26490000    123.67263   -4520.1839   -4308.2132   -4520.1839            0    1110.1583     17.99278    23.294662    22.026664    9232.1619    860.56087    1136.8367    1333.0773   -736.44296    202.39875    328.80962   -4158.7397 
26491000    118.59079   -4524.8514   -4321.5909   -4524.8514            0    2037.0869    17.903088    23.408576    21.900812    9178.3193     2983.493    1120.5286    2007.2392   -134.96443    52.826233    474.69291   -4048.9138 
26492000    121.31923   -4520.2436   -4312.3066   -4520.2436            0    2407.6938    17.922414     23.51696    21.764568    9173.3452    2995.1632     1907.741    2320.1774   -463.16965    291.28293   -41.702727   -3990.1961 
26493000    126.09158   -4515.7316   -4299.6149   -4515.7316            0    2112.9762    18.109438    23.262306     21.87609    9215.6813    1768.7252    1848.1747    2722.0287   -281.32594    165.31128    48.579105   -4015.6283 
26494000     126.0073   -4520.7932    -4304.821   -4520.7932            0    1602.8231    18.026369    23.288148    21.961757    9219.5617     1264.884    1070.6802    2472.9052    282.68124   -260.58815    332.73706   -4089.3089 
26495000    123.78709    -4510.612   -4298.4452    -4510.612            0    1418.3613    17.877247    23.450955      21.9969    9221.9477     3030.877    618.08381     606.1231    197.08854   -257.15477     153.1206    -4107.686 
26496000     126.4613   -4525.5576   -4308.8073   -4525.5576            0    1118.2401    18.001889    23.260224    21.968236    9198.7154    501.78711    2418.1762    434.75712    234.37683   -96.694169   -337.10968   -4158.7911 
26497000    119.52957   -4519.4936    -4314.624   -4519.4936            0    1810.5075    17.996798     23.31019    21.977971    9219.9519    2561.4135    1080.0827    1790.0264   -1114.2306   -106.78942   -99.648433   -4071.1768 
26498000    127.08308   -4516.0424   -4298.2263   -4516.0424            0    1746.5084    17.925938    23.453461     21.96426    9234.3302    3220.5838    494.66034     1524.281    431.98376   -165.97749     -431.057   -4063.0184 
26499000    120.58566   -4527.5972   -4320.9175   -4527.5972            0    2027.7173    17.906383    23.564549    21.760359    9181.9106    2903.8875    681.84293    2497.4216   -1009.6948    22.999627    314.62066   -4049.3884 
26500000    124.91594    -4502.446   -4288.3444    -4502.446            0    2251.6079    18.081285    23.319346    21.791685     9188.328    2089.0597    2490.0528    2175.7114   -265.35694   -70.576546    77.946459   -3986.6236 
Loop time of 354.612 on 64 procs for 250000 steps with 864 atoms

Performance: 121.823 ns/day, 0.197 hours/ns, 704.995 timesteps/s
194.4% CPU use with 32 MPI tasks x 2 OpenMP threads

MPI task timing breakdown:
Section |  min time  |  avg time  |  max time  |%varavg| %total
---------------------------------------------------------------
Pair    | 17.542     | 25.185     | 37.352     | 110.6 |  7.10
Bond    | 1.0414     | 1.2148     | 1.9314     |  18.5 |  0.34
Kspace  | 174.81     | 189.8      | 200.33     |  49.3 | 53.52
Neigh   | 0.65212    | 0.72749    | 0.81231    |   6.1 |  0.21
Comm    | 48.425     | 54.64      | 59.139     |  34.9 | 15.41
Output  | 0.54885    | 0.54912    | 0.551      |   0.0 |  0.15
Modify  | 63.311     | 65.335     | 70.57      |  20.1 | 18.42
Other   |            | 17.16      |            |       |  4.84

Nlocal:        27.0000 ave          40 max          17 min
Histogram: 2 6 7 2 2 2 4 3 0 4
Nghost:        2152.56 ave        2267 max        2039 min
Histogram: 8 6 2 0 0 0 0 3 7 6
Neighs:        6616.06 ave        9775 max        4034 min
Histogram: 1 5 8 3 2 2 2 4 3 2

Total # of neighbors = 211714
Ave neighs/atom = 245.03935
Ave special neighs/atom = 2.0000000
Neighbor list builds = 2626
Dangerous builds = 0

unfix		3
unfix		2
unfix		1

write_data	data.final.${pid} nocoeff
write_data	data.final.0 nocoeff
System init for write_data ...
PPPM initialization ...
  extracting TIP4P info from pair style
  using 12-bit tables for long-range coulomb (../kspace.cpp:340)
  G vector (1/distance) = 0.37212132
  grid = 24 27 25
  stencil order = 5
  estimated absolute RMS force accuracy = 0.0031025283
  estimated relative force accuracy = 9.3431719e-06
  using double precision FFTW3
  3d grid and FFT values/proc = 4410 672
Last active /omp style is kspace_style pppm/tip4p/omp

write_restart   restart.lmp.${pid}
write_restart   restart.lmp.0
System init for write_restart ...
PPPM initialization ...
  extracting TIP4P info from pair style
  using 12-bit tables for long-range coulomb (../kspace.cpp:340)
  G vector (1/distance) = 0.37212132
  grid = 24 27 25
  stencil order = 5
  estimated absolute RMS force accuracy = 0.0031025283
  estimated relative force accuracy = 9.3431719e-06
  using double precision FFTW3
  3d grid and FFT values/proc = 4410 672
Last active /omp style is kspace_style pppm/tip4p/omp
Total wall time: 0:05:54
