LAMMPS (30 Jul 2021)
Processor partition = 1
  using 2 OpenMP thread(s) per MPI task
using multi-threaded neighbor list subroutines
variable        pid world 0 1
variable        phase world IceVI Liquid

shell cd ${phase}
shell cd Liquid
include Restart.lmp
echo both
log log.lammps
#include		in.partitions
include		in.temp
variable        temperature equal 278.91
variable	tempDamp equal 100.0
include		in.pressure
variable        pressure equal 10625.0
variable        pressureDamp equal 1000.0 # This is 1 ps
include		in.seed
variable        seed equal 745823

units		real
atom_style	full
read_restart	restart.lmp.${pid}
read_restart	restart.lmp.1
Reading restart file ...
  restart file = 30 Jul 2021, LAMMPS = 30 Jul 2021
  restoring atom style full from restart
  orthogonal box = (0.64540878 1.8517376 0.78739721) to (17.562164 21.777440 21.425799)
  2 by 4 by 4 MPI processor grid
  restoring pair style lj/cut/tip4p/long/omp from restart
  restoring bond style harmonic/omp from restart
  restoring angle style harmonic/omp from restart
  864 atoms
  576 bonds
  288 angles
Finding 1-2 1-3 1-4 neighbors ...
  special bond factors lj:    0        0        0       
  special bond factors coul:  0        0        0       
     2 = max # of 1-2 neighbors
     1 = max # of 1-3 neighbors
     1 = max # of 1-4 neighbors
     2 = max # of special neighbors
  special bonds CPU = 0.002 seconds
  read_restart CPU = 0.012 seconds
include 	in.setup
variable	out_freq equal 1000
variable	out_freq2 equal 10000
variable	out_freq3 equal 1000

timestep	2.0

neigh_modify    delay 7 every 1

include		in.tip4p
# This is TIP4P/Ice

# create groups ###
group ox type 2
288 atoms in group ox
group hy type 1
576 atoms in group hy

# set charges - beside manually ###
set group ox charge -1.1794
Setting atom values ...
  288 settings made for charge
set group hy charge 0.5897
Setting atom values ...
  576 settings made for charge

# ### TIP3P Potential Parameters ###
pair_style lj/cut/tip4p/long/omp 2 1 1 1 0.1577 8.5
pair_coeff 1 1*2 0.000 0.000
pair_coeff 2 2 0.21084 3.1668
bond_style  harmonic
bond_coeff  1 450 0.9572
angle_style harmonic
angle_coeff 1 55 104.52
kspace_style pppm/tip4p/omp 1.0e-5
pair_modify tail yes

thermo          ${out_freq}
thermo          1000
thermo_style    custom step temp pe etotal epair emol press lx ly lz vol pxx pyy pzz pxy pxz pyz enthalpy

restart 	${out_freq3} restart.lmp.${pid} restart2.lmp.${pid}
restart 	1000 restart.lmp.${pid} restart2.lmp.${pid}
restart 	1000 restart.lmp.1 restart2.lmp.${pid}
restart 	1000 restart.lmp.1 restart2.lmp.1


include         in.dump
dump            myDump all atom ${out_freq2} dump.water.${pid}
dump            myDump all atom 10000 dump.water.${pid}
dump            myDump all atom 10000 dump.water.1
dump            myDump2 all dcd ${out_freq2} dump.dcd
dump            myDump2 all dcd 10000 dump.dcd
dump_modify     myDump append yes
dump_modify     myDump2 append yes


variable natoms 	equal  "count(all)"                        # NUMBER ATOMS
variable H      	equal  "enthalpy/v_natoms"                 # ENTHALPY-per-atom
variable Vol      	equal  "vol/v_natoms"                 # volume-per-atom
fix AVG all 		ave/time ${out_freq} 1 ${out_freq} v_Vol v_H file vol_enthalpy.dat
fix AVG all 		ave/time 1000 1 ${out_freq} v_Vol v_H file vol_enthalpy.dat
fix AVG all 		ave/time 1000 1 1000 v_Vol v_H file vol_enthalpy.dat


timer           timeout 23:50:00 every 1000
New timer settings: style=normal  mode=nosync  timeout=23:50:00

fix 		1 all shake 1e-6 200 0 b 1 a 1
Finding SHAKE clusters ...
       0 = # of size 2 clusters
       0 = # of size 3 clusters
       0 = # of size 4 clusters
     288 = # of frozen angles
  find clusters CPU = 0.001 seconds
fix             2 all nph iso ${pressure} ${pressure} ${pressureDamp}
fix             2 all nph iso 10625 ${pressure} ${pressureDamp}
fix             2 all nph iso 10625 10625 ${pressureDamp}
fix             2 all nph iso 10625 10625 1000
fix             3 all temp/csvr ${temperature} ${temperature} ${tempDamp} ${seed}
fix             3 all temp/csvr 278.91 ${temperature} ${tempDamp} ${seed}
fix             3 all temp/csvr 278.91 278.91 ${tempDamp} ${seed}
fix             3 all temp/csvr 278.91 278.91 100 ${seed}
fix             3 all temp/csvr 278.91 278.91 100 745823

run             250000
PPPM initialization ...
  extracting TIP4P info from pair style
  using 12-bit tables for long-range coulomb (../kspace.cpp:340)
  G vector (1/distance) = 0.3745448
  grid = 24 24 24
  stencil order = 5
  estimated absolute RMS force accuracy = 0.0031288405
  estimated relative force accuracy = 9.4224102e-06
  using double precision FFTW3
  3d grid and FFT values/proc = 3549 432
Last active /omp style is kspace_style pppm/tip4p/omp
Neighbor list info ...
  update every 1 steps, delay 7 steps, check yes
  max neighbors/atom: 2000, page size: 100000
  master list distance cutoff = 10.8154
  ghost atom cutoff = 10.8154
  binsize = 5.4077, bins = 4 4 4
  1 neighbor lists, perpetual/occasional/extra = 1 0 0
  (1) pair lj/cut/tip4p/long/omp, perpetual
      attributes: half, newton on, omp
      pair build: half/bin/newton/omp
      stencil: half/bin/3d
      bin: standard
Setting up Verlet run ...
  Unit style    : real
  Current step  : 2500000
  Time step     : 2
  Walltime left : 23:49:59.94
Per MPI rank memory allocation (min/avg/max) = 10.20 | 10.20 | 10.20 Mbytes
Step Temp PotEng TotEng E_pair E_mol Press Lx Ly Lz Volume Pxx Pyy Pzz Pxy Pxz Pyz Enthalpy 
 2500000     274.2169    -3758.533   -3288.5346    -3758.533            0    9932.8311    16.916755    19.925703    20.638401    6956.7557    10575.572    8374.1196    10848.802   -1264.4193   -396.32407    735.39767   -2280.7779 
 2501000    285.65095    -3810.505   -3320.9091    -3810.505            0    9986.8199    16.874914     19.87642    20.587356    6905.2643    11764.286    8435.6736    9760.4999    98.840013    -35.03048   -178.18025   -2315.1744 
 2502000    281.32503   -3794.3965    -3312.215   -3794.3965            0     7074.126    16.990051    20.012036    20.727822    7047.5738    6404.7004    7565.9389    7251.7388    870.41521      166.487   -1236.3922   -2585.1247 
 2503000    284.39818   -3790.0295   -3302.5807   -3790.0295            0    10975.248    16.909506    19.917165    20.629558     6947.817    12066.431    9254.8508    11604.462      554.548   -1270.1263    834.12527   -2190.4941 
 2504000    258.96624   -3795.5668   -3351.7075   -3795.5668            0    11126.427    16.841615    19.837198    20.546731     6864.467    11132.122    13490.917    8756.2427   -315.64921    839.73657   -1343.1218   -2237.8275 
 2505000    267.87135   -3758.2443    -3299.122   -3758.2443            0    10940.405    16.888352    19.892248     20.60375    6921.7735    10423.015    11583.561    10814.638   -403.86324    536.83769    876.54677   -2194.7213 
 2506000    279.85217   -3793.8974   -3314.2404   -3793.8974            0    9795.9519    16.896161    19.901446    20.613277    6931.3804    6752.4546    12545.155    10090.246    484.57943   -176.67961   -1416.9738   -2323.9963 
 2507000    283.76376   -3792.6789   -3306.3175   -3792.6789            0    13378.166    16.809849    19.799782    20.507977    6825.6975    13759.959    14412.388    11962.152   -266.62069   -607.70919    385.43211   -1974.5773 
 2508000    274.45992   -3792.3382   -3321.9233   -3792.3382            0    10560.558    16.855226    19.853229    20.563336    6881.1226    11402.926    10513.492    9765.2579    -2063.176    293.36815   -1628.6524   -2262.1278 
 2509000    296.20434   -3809.4587   -3301.7746   -3809.4587            0    9593.8551    16.869263    19.869764    20.580462    6898.3297    9597.0304    10024.183    9160.3517    122.15908    1701.3777    1630.6848   -2336.5843 
 2510000    285.37843   -3805.8008   -3316.6719   -3805.8008            0    10197.019    16.856275    19.854466    20.564617    6882.4085    9723.0669    11255.928    9612.0612   -669.64598   -1062.5178   -1857.9528   -2293.1679 
 2511000    277.70571   -3791.7019   -3315.7238   -3791.7019            0    14068.675    16.776638    19.760664    20.467459    6785.3208    13529.878    14875.187     13800.96   -197.87606   -1568.0776    456.21016   -1923.5307 
 2512000     287.7227   -3779.1117   -3285.9649   -3779.1117            0    10290.957    16.925138    19.935577    20.648628    6967.1028    11038.745    10064.039    9770.0881   -1084.6036     648.4526      141.128   -2240.3208 
 2513000    281.54541   -3765.8038   -3283.2446   -3765.8038            0    11654.264    16.856471    19.854696    20.564855    6882.6476    13604.133    9643.8941    11714.765    427.21979    434.33298   -473.26234   -2113.4321 
 2514000    275.60419    -3793.475   -3321.0989    -3793.475            0    11115.738    16.865028    19.864775    20.575294    6893.1348    9396.5916    12650.156    11300.466   -305.19037   -1272.6965    210.29501   -2203.6415 
 2515000    267.18792   -3775.4783   -3317.5273   -3775.4783            0    11869.162    16.862356    19.861628    20.572035    6889.8591     13066.68    11376.251    11164.556   -698.98722    167.26472    887.92939   -2124.8957 
 2516000    281.90775   -3777.9263   -3294.7461   -3777.9263            0    10347.147    16.890593    19.894888    20.606484    6924.5297    11311.222    9791.8905    9938.3298    568.37049     2183.404   -291.93256    -2249.817 
 2517000    286.30863   -3795.1017   -3304.3785   -3795.1017            0    8453.1751    16.932757    19.944552    20.657925     6976.517    9024.1166    7547.0198    8788.3888    96.080916    220.23944   -1249.7147   -2444.3073 
 2518000    265.11634   -3791.7363    -3337.336   -3791.7363            0    10632.727    16.870083     19.87073    20.581462    6899.3355    12058.759    11352.293    8487.1278    923.72334   -1203.3107    -199.0856   -2267.4739 
 2519000     271.3293   -3781.0389   -3315.9897   -3781.0389            0    11339.911    16.867735    19.867964    20.578598    6896.4553    14867.169    9789.4062     9363.157   -904.69537      295.993   -559.65601   -2175.4473 
 2520000    259.89465   -3772.9998   -3327.5493   -3772.9998            0    11678.434    16.837847    19.832759    20.542134    6859.8598     10815.85    10650.848    13568.604    70.794593   -628.66188   -1971.4972   -2159.1918 
 2521000    285.79572   -3822.5577   -3332.7137   -3822.5577            0    10367.903    16.832017    19.825893    20.535022    6852.7377    9923.2044    9052.7648     12127.74   -308.31888   -1091.0667   -660.47522   -2296.5439 
 2522000    279.44297   -3800.0013   -3321.0456   -3800.0013            0    10106.733    16.831232    19.824968    20.534064    6851.7785    10565.846    8585.0702    11169.282    2145.6288    2017.9941    -289.4858   -2311.1186 
 2523000    262.63797   -3836.0888   -3385.9363   -3836.0888            0    9367.1504      16.8121    19.802433    20.510723    6828.4398     9152.644    8889.9892    10058.818    2161.2659    588.53473    586.99229   -2453.1012 
 2524000    294.94453   -3801.5358    -3296.011   -3801.5358            0    10463.718    16.861692    19.860846    20.571225    6889.0452    8021.1917    13390.098    9979.8652    116.51349   -208.26142    -448.9681   -2244.7248 
 2525000    273.29098   -3789.8616   -3321.4502   -3789.8616            0    10963.786     16.80875    19.798487    20.506636    6824.3587     10024.82    11335.467     11531.07    -1043.278   -701.36079    2419.3313   -2230.2655 
 2526000    291.35528   -3792.0291   -3292.6561   -3792.0291            0    10529.797    16.904419    19.911173    20.623352    6941.5487    12074.377    9103.2426    10411.771    1047.6506    146.61706   -331.55216   -2226.6683 
 2527000     295.9806    -3815.783   -3308.4824    -3815.783            0    11658.622    16.882326     19.88515    20.596399    6914.3676    11774.292    10495.664     12705.91     985.6174   -1332.6932    772.09206   -2132.8391 
 2528000     280.9606   -3819.7859   -3338.2291   -3819.7859            0    8979.5016    16.842262     19.83796     20.54752    6865.2578    9999.8176    11562.833    5375.8545    2236.6292   -442.98497   -15.158229   -2439.1767 
 2529000    265.74205    -3828.679   -3373.2063    -3828.679            0    10154.305    16.884601     19.88783    20.599174    6917.1631    9524.5543    10452.666    10485.696   -335.71263   -89.364678    1253.3876   -2348.8427 
 2530000    289.31922   -3801.0897   -3305.2064   -3801.0897            0    7906.8323     16.93773    19.950409    20.663991    6982.6653    7945.9381    7438.0475    8336.5113    1509.7804    204.55737   -178.31227   -2500.0141 
 2531000    286.82114   -3787.5227   -3295.9211   -3787.5227            0    9488.0671    16.895702    19.900906    20.612718    6930.8157    8107.1621    9587.0438    10769.996   -258.56761     107.4245   -855.00692   -2336.8783 
 2532000    270.00201   -3779.7096   -3316.9354   -3779.7096            0    12361.131    16.861469    19.860583    20.570952    6888.7716    11916.678    12867.109    12299.606   -690.86335    581.43861    151.32518   -2075.0661 
 2533000    286.18249   -3808.9656   -3318.4586   -3808.9656            0    9726.7916     16.88469    19.887935    20.599283    6917.2724    9174.2114    11216.522    8789.6415    1604.0706    1664.1954    281.88609    -2337.207 
 2534000    265.77854   -3812.1317   -3356.5964   -3812.1317            0    9281.2209    16.852601    19.850138    20.560134    6877.9089    9659.2885    8675.9912    9508.3831   -702.93128   -439.78403   -630.16875   -2425.6227 
 2535000    280.92994   -3842.2788   -3360.7745   -3842.2788            0    10981.141    16.791772    19.778489    20.485923    6803.7003    12458.246    8821.8264    11663.352    1616.2939   -93.366972   -510.67537   -2271.1709 
 2536000    274.88996   -3822.8105   -3351.6585   -3822.8105            0    13100.506    16.826834    19.819788    20.528699    6846.4092    14812.456    13147.862      11341.2    1382.0892   -44.569571    618.16341   -2043.6011 
 2537000    277.09813   -3785.5328   -3310.5961   -3785.5328            0    10638.339    16.834143    19.828397    20.537616    6855.3346    8591.2636    12061.892    11261.862   -349.15525    460.04323   -34.795706   -2246.9959 
 2538000    289.77661   -3816.5492    -3319.882   -3816.5492            0    12444.461    16.777446    19.761615    20.468445    6786.3009    10962.908    14923.088    11447.387   -1329.9661   -398.73888    21.645823   -2088.2382 
 2539000    277.30128   -3806.3032   -3331.0183   -3806.3032            0    9728.4959    16.903467    19.910051     20.62219    6940.3753    10635.176    7494.7514    11055.561   -1215.8047   -639.89746    1295.6307   -2346.3169 
 2540000    288.75094   -3793.9393   -3299.0301   -3793.9393            0    13026.511    16.815855    19.806855    20.515303    6833.0156    11944.956     14353.45    12781.128   -722.32702    -1500.117    98.513849   -2000.9054 
 2541000    269.55517   -3795.3306   -3333.3223   -3795.3306            0    10840.613    16.894233    19.899175    20.610924    6929.0071    10968.444    12568.247    8985.1482   -45.842033    1583.0045     1311.998   -2237.8517 
 2542000    283.33399   -3822.8006   -3337.1759   -3822.8006            0    10593.596    16.874881     19.87638    20.587315    6905.2232      11370.3    10485.563    9924.9235    341.56402   -1658.8782   -470.64139   -2270.3415 
 2543000     284.4233   -3804.6002   -3317.1084   -3804.6002            0    11187.817    16.834004    19.828233    20.537445    6855.1639    11669.917    12211.934    9681.5986    308.75513     644.8647   -1428.5562   -2198.6005 
 2544000    275.99664   -3770.6826   -3297.6338   -3770.6826            0    11060.886    16.806743    19.796123    20.504187    6821.9143    9993.5382    9070.0471    14119.072    502.28492    1234.0256    2708.7752   -2197.1794 
 2545000    272.28159   -3841.1711   -3374.4897   -3841.1711            0    8677.2434    16.869315    19.869825    20.580525    6898.3936    7505.1725    10427.089    8099.4691   -90.578567     2350.498    -827.4443    -2501.507 
 2546000    278.77518   -3770.7946   -3292.9835   -3770.7946            0    10990.164    16.851073    19.848338     20.55827    6876.0382    12305.091    10096.468    10568.932   -1010.2803    751.88802   -960.91217   -2190.8903 
 2547000    270.26257   -3770.5229   -3307.3021   -3770.5229            0    11037.495    16.811753    19.802025      20.5103    6828.0171    11960.799    7554.0215    13597.665   -785.56167    1541.3393    -956.6827   -2208.1924 
 2548000    277.78801   -3800.3925   -3324.2733   -3800.3925            0    10127.559    16.836866    19.831604    20.540937     6858.661    10274.157    8841.0405    11267.479   -215.93563   -857.96168    2272.1151   -2311.2487 
 2549000    286.77566   -3803.4891   -3311.9655   -3803.4891            0    10507.427     16.83062    19.824247    20.533316    6851.0304    11509.161    11468.455    8544.6649    557.30095     1003.666   -803.28082   -2262.1133 
 2550000    258.35424    -3797.669   -3354.8587    -3797.669            0    10973.584    16.879143    19.881401    20.592516    6910.4576    12754.412    10387.404    9778.9367   -2334.2581    786.89025    198.34025   -2248.9196 
 2551000    284.22154   -3789.4801   -3302.3341   -3789.4801            0    8874.6097    16.938461     19.95127    20.664883    6983.5692    7854.9807    9236.8246    9532.0237   -851.72148   -190.58344   -759.84483   -2398.4712 
 2552000    283.54172   -3796.5839   -3310.6031   -3796.5839            0    11659.418    16.861144      19.8602    20.570556    6888.3731    13193.036    10208.106    11577.113    125.90127    1327.3691    571.14392   -2139.2996 
 2553000    282.43146   -3819.9363   -3335.8585   -3819.9363            0     11495.04    16.854658    19.852561    20.562644    6880.4278    11483.761     11332.96    11668.401   -1470.9656   -290.88629   -275.94587   -2182.4003 
 2554000    279.60504   -3779.9527   -3300.7192   -3779.9527            0    10588.112    16.830081    19.823612    20.532659    6850.3727     10841.79    10977.458    9945.0886   -974.23058    639.99664   -1629.6799   -2242.9069 
 2555000    280.53593   -3818.9946   -3338.1656   -3818.9946            0    10086.408    16.857472    19.855875    20.566077    6883.8743     10878.72    9256.7806    10123.723   -530.78355    478.49471    2063.0215   -2325.5483 
 2556000    271.01747    -3786.276   -3321.7613    -3786.276            0    12754.296    16.846779     19.84328    20.553031    6870.7827    11706.638    14607.609    11948.642   -1219.6513     858.8537   -4.4123756   -2043.7385 
 2557000    276.43268   -3830.0719   -3356.2757   -3830.0719            0    10608.498    16.844853    19.841012    20.550682    6868.4272    12648.274    8929.1727    10248.048     183.3197   -385.56403   -1394.3597   -2293.6334 
 2558000    267.47493   -3819.0727   -3360.6299   -3819.0727            0    8490.6436    16.931097    19.942596    20.655899    6974.4648    8461.0052    7206.5703    9804.3552   -439.65142   -51.071519    2536.0299   -2497.0005 
 2559000    287.62618   -3829.0568   -3336.0754   -3829.0568            0    10608.722    16.836332    19.830975    20.540285    6858.0084    13840.858    9348.0578    8637.2489    675.53187    394.44276    950.31292   -2275.0227 
 2560000    268.71679   -3834.2526   -3373.6812   -3834.2526            0    10284.834    16.875036    19.876564    20.587505     6905.414    11885.161    9358.3075     9611.033   -1476.1371   -952.02483   -1056.2931   -2337.9122 
 2561000    276.97917    -3806.086   -3331.3532    -3806.086            0    10562.754     16.79617    19.783669    20.491288    6809.0471    11278.478    11473.079    8936.7056   -232.67355    595.06508    58.439117   -2282.4403 
 2562000    277.99975   -3798.6627   -3322.1806   -3798.6627            0    8599.1893    16.911412    19.919409    20.631883    6950.1663    9346.3458    7617.6743    8833.5477   -618.63363    868.60806   -1066.6516   -2450.5578 
 2563000    286.37618   -3763.4806   -3272.6416   -3763.4806            0    11564.355     16.84232    19.838028    20.547591    6865.3285    10886.842    12035.137    11771.087   -524.02177    1191.2441   -697.28724   -2114.7747 
 2564000    288.74572   -3794.0641   -3299.1638   -3794.0641            0    11758.871    16.799108    19.787131    20.494873    6812.6218    13061.946    11612.203    10602.464    466.06776   -1180.3068   -548.84942     -2130.86 
 2565000     262.4431   -3817.4688   -3367.6503   -3817.4688            0    11239.236    16.846288    19.842703    20.552433    6870.1828    13051.749    11939.933     8726.027    1472.1159    2383.6047   -1807.0666   -2241.5399 
 2566000    278.33557   -3751.9049   -3274.8472   -3751.9049            0    10834.785    16.846968    19.843503    20.553261     6871.014    9326.3456    10433.586    12744.423   -1017.2983    101.20694    1011.2313   -2189.1293 
 2567000    270.87763   -3840.2622   -3375.9872   -3840.2622            0    9311.9623    16.955469    19.971303    20.685633    7004.6269    8897.6628    9463.6519    9574.5724   -440.68198   -949.18569   -1754.3893   -2424.7209 
 2568000    271.69733   -3807.2868   -3341.6068   -3807.2868            0    7811.1096    16.960172    19.976843     20.69137    7010.4575     6726.807    7803.4895    8903.0323   -622.01969    2192.0786   -66.724278   -2542.9964 
 2569000    279.74971   -3855.1754    -3375.694   -3855.1754            0    10121.927    16.824183    19.816665    20.525464     6843.173     9750.567    10020.663    10594.552    431.42135    1029.3958    738.93164    -2365.519 
 2570000    289.66655   -3836.6531   -3340.1745   -3836.6531            0    10658.944    16.871555    19.872464    20.583258    6901.1418    10855.833    9911.0082    11209.991    -304.3389   -747.43808   -1443.2712   -2267.3936 
 2571000     279.2572   -3829.7311   -3351.0938   -3829.7311            0    10284.114    16.843574    19.839506    20.549121    6866.8628    9410.0475    9695.3272    11746.967   -60.128876   -2125.1524   -365.13402   -2321.1794 
 2572000    302.58726   -3787.2269   -3268.6027   -3787.2269            0    8842.0305    16.951922    19.967125    20.681305    7000.2319    8702.8408     8607.947    9215.3037   -384.13163    -328.8869    762.74446   -2365.9092 
 2573000    266.46619   -3793.2416   -3336.5277   -3793.2416            0    10623.353    16.884406    19.887601    20.598936    6916.9236    13229.613    10507.756     8132.689   -184.47526     1364.566    -121.8542   -2264.8839 
 2574000    284.40761   -3821.4253   -3333.9604   -3821.4253            0    9165.7685     16.93103    19.942517    20.655817     6974.382    7342.8718    10187.752    9966.6814   -901.93996    615.39538    1504.1484   -2401.6715 
 2575000    291.11585    -3821.871   -3322.9084    -3821.871            0    10313.666     16.88351    19.886545    20.597843    6915.8226    10265.466    11972.801    8702.7313   -1334.3254    1327.7794   -159.02154   -2282.6702 
 2576000    272.92305   -3788.9952   -3321.2144   -3788.9952            0    9973.0966    16.860579    19.859535    20.569867    6887.6817    8737.6312    12364.039    8817.6196    834.01224   -938.75341   -998.66753   -2319.4192 
 2577000    276.72244   -3855.0633   -3380.7705   -3855.0633            0    10403.463    16.890735    19.895055    20.606657    6924.7044    11088.915     11457.58    8663.8941    1232.3362    1539.9776    1431.0532   -2330.1278 
 2578000    286.51069   -3786.5024   -3295.4329   -3786.5024            0    10072.477     16.89135     19.89578    20.607408    6925.4612    10475.375    8082.9126    11659.145     425.8635    516.15263   -224.41203   -2278.1051 
 2579000    274.34301   -3827.4762   -3357.2617   -3827.4762            0    10002.228    16.856477    19.854703    20.564862    6882.6551     9931.127    10280.153     9795.405    476.17564     708.6462     697.6407   -2353.2734 
 2580000    285.85716   -3786.9294     -3296.98   -3786.9294            0    11080.778    16.856721    19.854991     20.56516    6882.9544     11183.58    11854.374     10204.38    526.28376   -809.56717    318.25584   -2184.6823 
 2581000    282.87443   -3812.7248   -3327.8877   -3812.7248            0    13197.758    16.857914    19.856396    20.566616    6884.4158    13333.564    12301.498    13958.211    2339.8546    347.57024    83.318236   -2002.8045 
 2582000    268.61736   -3818.2055   -3357.8046   -3818.2055            0    10054.317    16.861004    19.860035    20.570385    6888.2017    10247.741    12748.083    7167.1269    765.65545    1101.6865   -1714.9158   -2347.7744 
 2583000    259.71969   -3808.6762   -3363.5255   -3808.6762            0    10033.792    16.890798    19.895129    20.606734    6924.7815    9283.4667    10053.505    10764.404    118.30196   -1730.7748   -645.65038   -2350.2045 
 2584000    295.33015    -3801.325   -3295.1392    -3801.325            0     11320.75    16.894504    19.899494    20.611255    6929.3407    12145.838    9415.6627    12400.749   -2563.3605   -965.98606    629.61766   -2151.0945 
 2585000    279.22475   -3812.5128   -3333.9312   -3812.5128            0    11020.209    16.862541    19.861846    20.572261    6890.0863    11091.567    11844.356    10124.705   -657.15896   -164.76804    922.12142   -2226.5672 
 2586000     272.9426    -3823.208   -3355.3937    -3823.208            0    7410.1586    16.959616    19.976187    20.690691    7009.7674      7456.26     7120.589    7653.6269   -440.40672   -2024.5271    39.969387   -2597.8513 
 2587000    264.02936   -3831.0616   -3378.5243   -3831.0616            0    10577.919    16.925413      19.9359    20.648964    6967.4424    10027.397    11554.941    10151.418   -78.433232    156.60697   -1226.4135   -2303.6703 
 2588000    267.96445   -3741.4219     -3282.14   -3741.4219            0    11426.109    16.894647    19.899663     20.61143    6929.5169    12241.968    11362.682    10673.678    129.63816   -1652.0714    1103.3418   -2127.4186 
 2589000    266.98286   -3822.8709   -3365.2715   -3822.8709            0    11542.252     16.87849    19.880632    20.591718    6909.6548     10275.19    10871.622    13479.944   -114.05621    -1461.815   -1614.4372   -2202.1561 
 2590000    292.73937    -3851.556   -3349.8107    -3851.556            0    12079.783    16.882803    19.885712    20.596981    6914.9537    10863.998    12289.428    13085.922   -661.85162   -621.76614   -893.73402   -2131.5947 
 2591000    272.72782   -3847.9389   -3380.4927   -3847.9389            0    9806.0396    16.902645    19.909084    20.621188    6939.3634    9861.8152    8620.9941     10935.31    914.10307    232.87811    442.28811   -2388.0872 
 2592000    292.75503   -3849.2562   -3347.4841   -3849.2562            0    8658.3156    16.896626    19.901994    20.613844    6931.9522     6914.852    10456.643    8603.4518     961.1525    975.27859   -1081.8003   -2472.1681 
 2593000    264.55107   -3808.9478   -3355.5163   -3808.9478            0    10836.047    16.872752    19.873873    20.584718      6902.61    11981.661    8510.4384    12016.041    1694.9072    1128.3362    430.63025   -2264.6788 
 2594000    287.05587   -3813.6432   -3321.6393   -3813.6432            0     11653.13    16.885394    19.888763    20.600141    6918.1371    12538.932     11691.77    10728.689    889.50763   -702.30821   -682.25204   -2145.9091 
 2595000    271.35182   -3816.1407   -3351.0529   -3816.1407            0    8171.0363    16.880476    19.882971    20.594141    6912.0941     7722.545    8151.7226    8638.8414   -204.93957    899.32991   -750.10161    -2527.365 
 2596000    283.15577   -3787.7678   -3302.4485   -3787.7678            0    11530.435     16.91459    19.923153    20.635761    6954.0859     11647.87    10517.077    12426.359    38.695522    719.90755     436.2657   -2133.0524 
 2597000    300.87532   -3835.7641   -3320.0741   -3835.7641            0    12528.128    16.804552    19.793542    20.501514    6819.2465    13422.377    14038.014    10123.994   -76.535629    140.44882    881.93639   -2074.1303 
 2598000     266.8747    -3820.698   -3363.2839    -3820.698            0    10444.801    16.904114    19.910813    20.622979    6941.1718    10313.433    9986.6209    11034.349    505.58269    1672.7229    326.91482    -2305.958 
 2599000    281.24384   -3811.4902   -3329.4479   -3811.4902            0    10749.209    16.888122    19.891977     20.60347    6921.4912    10987.594    10923.371    10336.663   -678.50462   -520.47052   -183.05647   -2244.3921 
 2600000    281.94467   -3829.5081   -3346.2646   -3829.5081            0    10339.724    16.894193    19.899128    20.610876    6928.9585    10643.269    10947.446    9428.4573   -297.76721    954.40585   -672.64488   -2301.4174 
 2601000    282.58723   -3849.8983   -3365.5535   -3849.8983            0     10920.63    16.883881    19.886981    20.598295    6916.2778    9981.7618    11740.212    11039.917    97.673001    477.16109    365.40859   -2264.0243 
 2602000    281.98563   -3786.2662   -3302.9525   -3786.2662            0    11145.864    16.845562    19.841847    20.551546    6869.2942    11445.208    11385.124    10607.259   -271.98069   -492.28928    780.58456   -2186.3419 
 2603000    292.80911   -3788.6572   -3286.7924   -3788.6572            0    9196.6217    16.933968    19.945977    20.659401    6978.0132    9193.2531    8605.7295    9790.8823   -2470.4651    653.51471    911.82759   -2350.8783 
 2604000     269.4128    -3778.454   -3316.6897    -3778.454            0    12017.499    16.835142    19.829574    20.538834    6856.5548    11308.317    11561.324    13182.857    649.85736    650.91301   -1694.5525     -2114.99 
 2605000    284.05836   -3780.8773    -3294.011   -3780.8773            0    12028.664    16.858772    19.857407    20.567663    6885.4671    13393.565    11174.307    11518.122   -1400.0851    1445.7376    1739.5919   -2086.1229 
 2606000    262.47044    -3797.992   -3348.1266    -3797.992            0    10906.008    16.854894    19.852839    20.562931    6880.7166    12145.079     11884.53    8688.4147    944.21753    926.47562    529.88181   -2253.7284 
 2607000    268.39926   -3787.3367   -3327.3096   -3787.3367            0    10470.095    16.875548    19.877166    20.588129    6906.0422    11812.335    12274.014    7323.9355    2037.7138    985.85853    661.41717   -2272.7874 
 2608000    277.76761   -3775.3086   -3299.2244   -3775.3086            0    11831.314    16.856448    19.854669    20.564827    6882.6201    13875.823    9576.3404    12041.778     2098.136   -778.48611    586.52269    -2111.645 
 2609000    266.71723    -3799.803   -3342.6588    -3799.803            0    10473.824    16.909919    19.917651    20.630061    6948.3256    11408.283    10109.214    9903.9751   -656.23076    1039.8365   -214.08087   -2281.3023 
 2610000    273.05369   -3829.7989   -3361.7942   -3829.7989            0    10462.659    16.913921    19.922365    20.634944    6953.2602    10821.792    11692.386    8873.7986    547.18157   -335.23958    444.95844   -2300.8161 
 2611000    269.40516   -3763.8891   -3302.1379   -3763.8891            0    9097.4739    16.910939    19.918852    20.631306    6949.5831    9297.7898    8663.3468    9331.2852    2209.4041    240.07018   -332.15686   -2380.0858 
 2612000    285.77062   -3800.6062   -3310.8051   -3800.6062            0    12764.436     16.85651    19.854742    20.564903    6882.6961    14441.629    10932.053    12919.625   -1419.0263   -1394.5177    1051.6404   -2029.5485 
 2613000    281.00669   -3819.7851   -3338.1493   -3819.7851            0    10465.075    16.907005    19.914219    20.626507    6944.7346    9155.6008    13064.135    9175.4882   -726.64349    723.54979    102.11554   -2278.2273 
 2614000    292.73642   -3801.8276   -3300.0874   -3801.8276            0    10566.506     16.94645     19.96068    20.674629     6993.455    9117.4915    11828.504    10753.524    475.28959    572.64555   -685.13283   -2222.3844 
 2615000    297.40076   -3824.3868   -3314.6521   -3824.3868            0    10732.539    16.968674    19.986857    20.701743    7021.0056    11050.005    9478.9306     11668.68    472.64501     160.8414    309.76695   -2215.7028 
 2616000    270.37993   -3805.0509   -3341.6289   -3805.0509            0     9838.171    16.921534    19.931332    20.644232    6962.6535    9300.8137    10703.661    9510.0382    1093.5587   -223.12842     337.6394     -2342.63 
 2617000    266.79743   -3813.5842   -3356.3026   -3813.5842            0    9474.8662    16.941361    19.954685    20.668421    6987.1566    9547.5509    9585.4959    9291.5517     212.3908   -1722.0693    -1035.212   -2390.8088 
 2618000    274.03906   -3812.6286    -3342.935   -3812.6286            0    10981.648    16.881828    19.884563     20.59579    6913.7549    11610.961    9072.4876    12261.495   -405.66954   -1120.6959   -1852.5857   -2235.6552 
 2619000    285.23432   -3789.3553   -3300.4734   -3789.3553            0    11659.806    16.871103    19.871931    20.582707    6900.5872    11850.608    11742.635    11386.175    393.26021    961.52802    369.74588   -2127.0541 
 2620000    281.74797   -3792.2644    -3309.358   -3792.2644            0    11017.867    16.831459    19.825236    20.534341    6852.0559    9294.9811    11066.087    12692.532   -272.31499     480.9476   -2136.6146   -2208.3403 
 2621000    268.47008   -3798.1348   -3337.9863   -3798.1348            0      10830.5    16.894471    19.899456    20.611215    6929.3006    9035.8977     11609.37    11846.232   -1461.1676    476.53064    667.47049   -2243.4913 
 2622000    305.71997   -3832.9468   -3308.9532   -3832.9468            0    10084.662    16.899168    19.904987    20.616945    6935.0807    7569.3776    11500.547    11184.061    657.12261   -674.22174   -125.74591   -2288.9801 
 2623000    273.83367   -3836.2881   -3366.9465   -3836.2881            0    10295.066    16.891099    19.895484    20.607102    6925.1526    8366.9859      11251.7    11266.512   -1532.2298    441.14338   -1209.6511   -2327.1835 
 2624000    292.76168   -3818.7608   -3316.9773   -3818.7608            0    9589.5885    16.877763    19.879775    20.590831    6908.7619    10040.452    10324.451    8403.8629    2095.0237    -306.1523    254.38555   -2350.7572 
 2625000    285.16345   -3781.8305   -3293.0701   -3781.8305            0    12420.076    16.825735    19.818493    20.527357    6845.0673    13738.506    12343.888    11177.833   -640.65139    600.13595    1030.1693   -2053.1952 
 2626000    291.62115   -3838.0776   -3338.2489   -3838.0776            0    11173.728    16.876348    19.878109    20.589105    6907.0247    10872.426    11105.859    11542.898   -855.31338   -627.76883    1606.8158   -2212.6985 
 2627000    272.87185   -3766.3072   -3298.6142   -3766.3072            0     10798.61    16.810871    19.800986    20.509224    6826.9427     10855.66    9876.0754    11664.096   -579.53054   -188.14979   -1865.4923   -2223.4618 
 2628000     292.5819   -3831.7293   -3330.2539   -3831.7293            0    11984.561    16.795171    19.782493    20.490069    6807.8328    13934.517    9974.5396    12044.627   -61.649108    -246.3623    1330.6858   -2140.3636 
 2629000    278.65316   -3754.3131   -3276.7111   -3754.3131            0     9224.818    16.881363    19.884015    20.595223    6913.1836    9577.4494    8357.0441    9739.9604    149.51192    998.07872    -590.9506   -2346.6494 
 2630000    265.93848   -3802.3593   -3346.5498   -3802.3593            0    10951.004    16.896322    19.901635    20.613473     6931.578    11189.035    10901.275    10762.702    460.20994     351.6767    -749.0111   -2239.5134 
 2631000    275.88001    -3801.543   -3328.6941    -3801.543            0    11501.047    16.844993    19.841177    20.550853    6868.5983    11568.031    11451.174    11483.937   -400.64155   -1081.8648    1463.4768   -2176.6174 
 2632000    297.56028   -3803.9658   -3293.9577   -3803.9658            0     11415.92    16.860131    19.859008    20.569321    6887.1325    11779.552    10943.945    11524.264   -826.96827   -1216.8206   -1225.5195   -2147.3225 
 2633000    279.73861   -3810.6102   -3331.1478   -3810.6102            0     10332.34     16.87872    19.880903    20.591999    6909.9374    9704.6752    10655.035    10637.308   -652.77068    304.40255   -1373.7048    -2289.913 
 2634000    259.35662   -3808.7836   -3364.2552   -3808.7836            0    9669.2316    16.889753    19.893898    20.605459    6923.4964    7448.0297    12174.616    9385.0491    -152.8905    2172.5297      2426.87   -2387.9327 
 2635000    274.02579   -3811.5013   -3341.8305   -3811.5013            0    11455.372    16.810088    19.800064    20.508269    6825.9889    13103.145    10476.313    10786.656   -276.61043    116.15758    1932.7243   -2201.4477 
 2636000    281.05408   -3795.5956   -3313.8785   -3795.5956            0    9905.1013    16.878215    19.880307    20.591382    6909.3167     9752.189    10252.838    9710.2766     527.3646   -913.38541    -647.7702    -2315.788 
 2637000    273.97877   -3826.4691   -3356.8789   -3826.4691            0    11683.507    16.818695    19.810201    20.518769    6836.4788    12154.018    11604.432    11292.069   -1440.9199    839.64048    309.28554   -2191.9979 
 2638000    275.73861   -3775.5754   -3302.9688   -3775.5754            0    11737.839    16.845686    19.841994    20.551698    6869.4462    10582.164    11692.301    12939.052   -31.428854   -127.36243   -377.28403   -2127.0272 
 2639000    264.82718   -3836.8476   -3382.9428   -3836.8476            0    8735.2928    16.887528    19.891278    20.602745    6920.7612    11214.296    5975.4273    9016.1554    488.75113   -719.60928   -571.94186   -2501.2705 
 2640000     274.9794   -3789.6732    -3318.368   -3789.6732            0     10483.52    16.908151    19.915569    20.627905    6946.1466    11890.256    8715.1785    10845.125   -436.16277    199.37404   -399.91338    -2256.362 
 2641000    279.72554   -3837.3259   -3357.8859   -3837.3259            0    9439.3008    16.867728    19.867955    20.578589     6896.446      8880.18    10013.132    9424.5904   -320.66485   -601.05098    95.166869   -2408.5037 
 2642000    281.12817   -3814.9314   -3333.0873   -3814.9314            0    10518.997    16.816598    19.807731     20.51621    6833.9217    10749.227    11448.834    9358.9296   -350.52613    1427.5045   -175.56784   -2284.7038 
 2643000    278.93136   -3820.4826   -3342.4038   -3820.4826            0    11260.268    16.809492    19.799361    20.507541    6825.2624    11433.013    10843.411     11504.38    1309.9749   -1422.6511   -547.79259   -2221.5629 
 2644000     267.7374   -3809.5817    -3350.689   -3809.5817            0    10040.954    16.889038    19.893056    20.604587    6922.6171    8269.4411    9873.4335    11979.987    981.02989     1519.258    844.63722   -2336.9616 
 2645000    281.83689   -3792.2748    -3309.216   -3792.2748            0    11179.133    16.909771    19.917477    20.629881    6948.1436    9898.4219    11441.631    12197.346   -667.30781    403.44768   -737.49435   -2176.4172 
 2646000    272.42325    -3830.003   -3363.0789    -3830.003            0    8915.5405    16.954095    19.969685    20.683956    7002.9243    8919.8348    9710.2551    8116.5318   -1142.4683    1453.6371   -54.939664   -2452.5306 
 2647000     269.9289   -3853.6601   -3391.0112   -3853.6601            0    10772.878     16.90723    19.914483    20.626781    6945.0114    10733.586    10435.904    11149.144   -576.78433    369.02276    1599.1963   -2299.8709 
 2648000    259.61942   -3833.1561   -3388.1773   -3833.1561            0    10281.675    16.934536    19.946646    20.660094    6978.7154    10943.794    9055.9044    10845.327    588.56512    29.685599   -400.01217   -2341.7351 
 2649000    293.55061   -3795.6938   -3292.5581   -3795.6938            0    11542.192    16.924277    19.934563    20.647579    6966.0403    11825.373    10961.198    11840.004   -261.43253   -1301.3774   -225.45728   -2119.9574 
 2650000    280.97732   -3815.1895   -3333.6039   -3815.1895            0    10863.617    16.872995    19.874159    20.585014    6902.9083    12238.705    8757.9062    11594.239    430.56115   -109.03645    335.00858   -2239.9437 
 2651000    278.11203   -3769.3092   -3292.6347   -3769.3092            0    11262.111    16.881529    19.884212    20.595426    6913.3884    11483.178    11419.279    10883.876    323.02092    136.35973    1295.7257    -2157.136 
 2652000    276.93184   -3800.9558   -3326.3041   -3800.9558            0    10753.646    16.798173    19.786029    20.493732    6811.4844     8163.085     11423.69    12674.162    1383.1281    711.94346   -1541.1936   -2258.0529 
 2653000    274.46984   -3798.4163   -3327.9844   -3798.4163            0    9818.4395    16.858373    19.856937    20.567176    6884.9786    9864.3973    10758.195    8832.7259   -1307.3691   -1371.7792   -781.45999   -2342.1114 
 2654000    268.95511   -3829.3201   -3368.3402   -3829.3201            0    8286.8629    16.880793    19.883344    20.594528    6912.4833    6374.7747     7632.319    10853.495    -137.2322    1815.3893   -1456.5737   -2532.9294 
 2655000    276.27312   -3805.6523   -3332.1297   -3805.6523            0    7657.2996    16.844067    19.840086    20.549722    6867.4651    7159.6873    7534.4342    8277.7772   -667.04051   -670.11551   -733.63354   -2565.2133 
 2656000    279.07903   -3861.9758   -3383.6439   -3861.9758            0    11868.831    16.795897    19.783348    20.490955    6808.7152     13463.89     10141.72    12000.885   -805.37327   -2172.8066     1473.566   -2205.0912 
 2657000    268.83048   -3815.1154   -3354.3492   -3815.1154            0    8342.3079    16.937075    19.949637    20.663192    6981.8551    8561.0003    8652.5359    7813.3874   -1385.3878    1629.5338   -515.31888   -2504.9088 
 2658000    280.64759   -3861.3632   -3380.3428   -3861.3632            0    11382.608    16.875534     19.87715    20.588112    6906.0249     9715.397    10108.602    14323.825   -199.32488     209.3977   -535.80885   -2233.9174 
 2659000    276.26136   -3823.8285    -3350.326   -3823.8285            0     8683.937    16.888256    19.892135    20.603633    6921.6563    7337.3658    9943.1957    8771.2496     586.6247   -366.40604   -416.01453   -2473.7237 
 2660000    292.25959   -3810.6907   -3309.7678   -3810.6907            0    12350.228    16.877484    19.879446    20.590491    6908.4191     13698.76    10555.765    12796.159     401.9083    477.07791   -1179.3452    -2065.455 
 2661000    277.49236   -3828.0673   -3352.4549   -3828.0673            0    11175.929    16.813841    19.804484    20.512847    6830.5612    9161.9462    12720.912    11644.929    296.67223    1141.4942    430.77101   -2239.1454 
 2662000    258.09049   -3771.0114   -3328.6532   -3771.0114            0    11522.935    16.837719    19.832608    20.541977    6859.7033    9562.1348    12083.344    12923.325    777.02708   -635.10188   -928.38997   -2175.8788 
 2663000    278.04267   -3790.2422   -3313.6865   -3790.2422            0    9553.7821    16.869796    19.870392    20.581112    6898.9835    10419.168    9124.2254    9117.9527    364.12045    1589.5863   -234.84443   -2352.4366 
 2664000    281.48365    -3820.993   -3338.5396    -3820.993            0     11053.41    16.823911    19.816345    20.525133     6842.842    10874.531    10638.626    11647.073   -470.81507   -971.89055    275.22012   -2235.4554 
 2665000    272.02729   -3783.3004   -3317.0549   -3783.3004            0    11660.773    16.830292     19.82386    20.532916      6850.63    11686.599    12797.636    10498.084    -1397.829    1150.2385   -1052.5026   -2152.0339 
 2666000    284.22461   -3791.3471   -3304.1958   -3791.3471            0    7781.9598    16.938857    19.951736    20.665365    6984.0583    6897.0615     7705.597    8743.2208   -1480.2391     1447.938    -1747.626   -2511.5618 
 2667000    253.71902   -3806.7873   -3371.9216   -3806.7873            0    9162.1161    16.952107    19.967343    20.681531     7000.461    9733.7314    9909.1117    7843.5052   -844.00766    31.170936    800.80696   -2436.5196 
 2668000    282.96093    -3786.022   -3301.0367    -3786.022            0    9639.4463    16.952217    19.967473    20.681665    7000.5976    8911.2587    7695.2814    12311.799    284.08806    18.955336    -1345.396   -2316.8826 
 2669000     279.8761   -3766.7389   -3287.0409   -3766.7389            0    10116.573     16.98321    20.003978    20.719477    7039.0645    10032.383    9695.1135    10622.224    743.03661   -250.97052   -361.49861   -2248.4984 
 2670000    280.93544   -3797.4724   -3315.9587   -3797.4724            0    9405.0657    16.899769    19.905695    20.617678    6935.8209    10754.838      11452.3    6008.0592    985.24527   -271.42087   -501.73423   -2364.6191 
 2671000     278.3187   -3808.9396   -3331.9108   -3808.9396            0    9752.2976    16.873619    19.874894    20.585775     6903.674    10448.928    8724.1649      10083.8    495.34941   -2045.6112   -594.39955   -2350.0202 
 2672000    289.00324   -3806.8276   -3311.4859   -3806.8276            0    8272.4074    16.912321    19.920481    20.632993    6951.2876    8750.5119    9594.5552     6472.155   -943.39013   -630.87154    39.930339   -2472.8507 
 2673000    277.80876    -3794.023   -3317.8683    -3794.023            0    13086.566    16.819034    19.810601    20.519183    6836.8926    13937.055    15076.387    10246.257    2916.2074   -163.61982    -99.88448    -2013.019 
 2674000    276.83442   -3835.9266   -3361.4419   -3835.9266            0    10167.995    16.917597    19.926695    20.639429    6957.7947    8938.4661     8803.209    12762.311   -1210.1131   -234.26316   -205.31645    -2329.672 
 2675000    276.79392   -3783.4905   -3309.0752   -3783.4905            0    12181.154    16.862691    19.862023    20.572444      6890.27    11796.666    11716.572    13030.225    1144.0374   -1632.8845   -1865.3853   -2085.0212 
 2676000    275.93617   -3837.7988   -3364.8536   -3837.7988            0    11373.935    16.846113    19.842496    20.552218     6869.968    10599.876     11985.26     11536.67    -1059.612   -477.22854    1902.5917   -2225.2827 
 2677000    287.73446   -3835.3533   -3342.1863   -3835.3533            0    7369.0454    16.958507    19.974881    20.689339    7008.3929     5973.666    8987.8403      7145.63   -1599.3183   -2153.4447    985.45441   -2588.9945 
 2678000    278.66865   -3804.3187   -3326.6902   -3804.3187            0    9114.2385    16.895759    19.900972    20.612787    6930.8853     8078.456    10176.016    9088.2441   -411.88276    123.31623   -1086.2674   -2405.4243 
 2679000    267.49913   -3801.9578   -3343.4735   -3801.9578            0    9917.9315    16.885159    19.888487    20.599854    6917.8482    9893.1104    9559.0642     10301.62   -545.50639    2164.3596    -857.3012   -2342.8561 
 2680000    278.25253   -3812.2594    -3335.344   -3812.2594            0    10014.872    16.913492     19.92186    20.634421    6952.7316    9432.6098    10362.767    10249.239   -498.82687    35.111695    -889.1092   -2319.8515 
 2681000    289.11494   -3787.3951    -3291.862   -3787.3951            0    11202.815    16.884001    19.887123    20.598441    6916.4251    9316.9827    10447.122    13844.341    889.76657    256.19735    49.221248   -2161.8456 
 2682000    292.83974   -3781.9457   -3280.0284   -3781.9457            0    11833.267    16.870896    19.871687    20.582454    6900.3332    11340.925    12260.112    11898.765    386.45966    1321.7034    842.33524   -2089.1961 
 2683000    273.80734   -3785.0133   -3315.7169   -3785.0133            0    10625.959     16.88278    19.885685    20.596952    6914.9247    10049.102    10850.134    10978.642    335.00768   -1379.8643      413.343   -2244.1199 
 2684000    271.52861   -3810.9577   -3345.5669   -3810.9577            0    10837.292    16.863837    19.863372    20.573842    6891.6746    9405.4661    12337.156    10769.255    317.60548    1166.8492    -81.43186   -2256.3323 
 2685000    287.59031   -3785.5651   -3292.6451   -3785.5651            0    9738.5977    16.840902    19.836358    20.545861    6863.5947    10319.208    8024.0422    10872.543   -688.47167    -344.3593    605.10843   -2317.8262 
 2686000    279.89191   -3750.5137   -3270.7885   -3750.5137            0    11232.231    16.796815     19.78443    20.492076    6809.8327    9863.7212    12850.995    10981.977    598.57157    498.32963    1474.1018    -2155.266 
 2687000    269.04958   -3789.7463   -3328.6045   -3789.7463            0    11069.189    16.897681    19.903237    20.615132    6933.2512    11353.575    10850.154    11003.838    529.54266    1.3157075    825.18943   -2209.3506 
 2688000     303.5822   -3823.8366   -3303.5071   -3823.8366            0    11386.785    16.906202    19.913272    20.625527    6943.7444     9309.006    11976.133    12875.217   -352.33245     1112.871    461.00491    -2150.397 
 2689000    268.16022   -3822.8112   -3363.1937   -3822.8112            0    10281.629    16.901572    19.907819    20.619878    6938.0409    10701.812    11653.531    8489.5422   -179.61844   -839.77592   -1234.8058   -2322.8553 
 2690000    279.76753   -3767.6571   -3288.1451   -3767.6571            0    11281.181    16.900994    19.907138    20.619173    6937.3293    9099.0515    13775.111    10969.382    -527.3703    214.88459    185.75391   -2146.7848 
 2691000    289.57376   -3824.4164   -3328.0969   -3824.4164            0    7795.5827    17.001072    20.025017    20.741268     7061.297    8740.7548    7727.5874    6918.4059   -423.04272   -1308.6696    174.22724   -2525.2939 
 2692000    279.93253    -3807.413   -3327.6182    -3807.413            0    9134.9169    16.922215    19.932135    20.645063    6963.4946    8480.9661    9054.4574    9869.3271   -1002.2218   -379.38222    40.630654   -2399.9179 
 2693000    283.04491   -3789.6209   -3304.4916   -3789.6209            0    9805.9002    16.875354    19.876938    20.587893    6905.8044    7943.7481    8905.3495    12568.603   -599.62822    -650.6171   -371.58168   -2316.8995 
 2694000    297.14655   -3792.4722   -3283.1732   -3792.4722            0    13163.138    16.765191     19.74718    20.453494     6771.441    12555.633    13813.429    13120.353   -1016.9725   -591.58174    173.08422   -1983.2538 
 2695000    281.71537   -3833.0608   -3350.2103   -3833.0608            0    8730.5847    16.917882     19.92703    20.639777    6958.1466    9552.2201    8537.1904    8102.3437   -181.05998     618.8857   -558.96129    -2464.253 
 2696000    284.40054   -3805.8851   -3318.4323   -3805.8851            0    10334.293    16.865648    19.865506    20.576051    6893.8954    10664.627    8896.3205    11441.931   -257.74287    84.805548    880.43164   -2279.4185 
 2697000    276.00687   -3798.4816   -3325.4152   -3798.4816            0    10102.806    16.875866    19.877541    20.588517    6906.4324    8605.5829    11331.282    10371.553   -532.07425     295.5147    290.07037    -2307.828 
 2698000    275.32704   -3792.4428   -3320.5416   -3792.4428            0    10174.644    16.908883    19.916431    20.628798     6947.049    10261.457    10669.354    9593.1213    57.508395    680.22884   -326.48574   -2289.6917 
 2699000    285.37702   -3794.9844   -3305.8579   -3794.9844            0    9988.6895     16.87712    19.879018    20.590047    6907.9726    9958.3511    9936.9163    10070.801   -464.40906    1230.1361   -1616.4029   -2299.5405 
 2700000    277.19467    -3803.881   -3328.7789    -3803.881            0    11507.123    16.778658    19.763043    20.469924    6787.7724    11059.416    13670.731    9791.2211    1293.2343   -248.57538   -1230.2737   -2189.6577 
 2701000    269.04991   -3793.5532   -3332.4109   -3793.5532            0    10310.205    16.833272    19.827371    20.536553    6854.2704    10562.866     9916.473    10451.275     133.7672   -1419.2357   -1199.2482    -2301.777 
 2702000    279.48607   -3791.8648   -3312.8353   -3791.8648            0    11079.215    16.879019    19.881254    20.592363    6910.3043    11045.191    10525.432    11667.021   -1039.2732   -653.97004   -975.43882   -2196.2753 
 2703000    270.23139   -3813.6081   -3350.4407   -3813.6081            0    9304.1211    16.806504    19.795842    20.503896    6821.6236    10448.081    8950.2982    8513.9838   -355.33868   -133.02852   -1791.4516   -2424.8073 
 2704000     275.1413   -3827.9551   -3356.3724   -3827.9551            0    10526.335    16.838133    19.833097    20.542483    6860.2099    9608.1953    11268.204    10702.606    1465.5769   -2.9355681   -117.96137   -2303.2217 
 2705000    267.43313   -3823.8161   -3365.4449   -3823.8161            0    11724.814    16.854498    19.852372    20.562448    6880.2314     11986.33    11756.063    11432.048   -337.39246   -6.6311622   -336.01166   -2188.9639 
 2706000    272.78853   -3860.1849   -3392.6347   -3860.1849            0     10788.95    16.879403    19.881707    20.592832    6910.7765    8871.1163    12684.542    10811.192    -624.8202    612.84718   -1861.6117   -2305.2533 
 2707000    276.44097   -3819.5646   -3345.7542   -3819.5646            0    10092.843    16.884818    19.888085    20.599438    6917.4291    11177.113     8253.835    10847.581   -34.303097   -1213.2298     507.0327   -2327.5518 
 2708000    288.50974   -3822.5973   -3328.1015   -3822.5973            0    9269.5476    16.929479     19.94069    20.653925    6972.4657    9772.2748     9882.277    8154.0909   -498.15754   -269.08087    1434.3875   -2385.5159 
 2709000    280.17147   -3806.9217   -3326.7174   -3806.9217            0    13324.507    16.799053    19.787065    20.494805    6812.5545    12863.718    16023.447    11086.357    -92.82758    1014.0017    6.4475028   -2002.8727 
 2710000    285.46769   -3795.8482   -3306.5664   -3795.8482            0     11190.07    16.890429    19.894694    20.606284    6924.3278    10890.188    11523.707    11156.314   -1341.7609    928.35409    343.78928   -2176.5459 
 2711000    279.25184   -3803.5668   -3324.9387   -3803.5668            0    9301.6121    16.835062    19.829479    20.538736    6856.4564    8350.3597    8738.8929    10815.584    -272.0419    292.40075    384.24419   -2394.8297 
 2712000    279.24942   -3812.1322   -3333.5083   -3812.1322            0    12038.907    16.870049    19.870689     20.58142    6899.2931    11621.705    11273.867     13221.15    567.19318   -462.72138    3692.8303   -2122.1641 
 2713000    284.87148   -3807.8731   -3319.6131   -3807.8731            0    10633.629    16.922631    19.932625    20.645571    6964.0083    9945.0718    11382.163    10573.652   -997.62429   -329.32706     1557.772   -2239.6307 
 2714000    278.72964   -3825.7773   -3348.0443   -3825.7773            0    11381.317    16.872027    19.873019    20.583833    6901.7204    12634.834      10207.5    11301.617    492.65453   -1095.7657    1158.4498   -2202.4634 
 2715000    260.60701   -3849.3138   -3402.6423   -3849.3138            0    8749.9298    16.908892    19.916441    20.628808    6947.0593    9599.9129    8295.8777    8353.9987    336.24118    788.31667    1017.4723   -2516.1368 
 2716000    266.41675   -3821.1082   -3364.4791   -3821.1082            0    10112.409    16.912435    19.920614    20.633131    6951.4273     9882.801    11210.671    9243.7546    13.541245    47.103213    789.02456   -2339.2888 
 2717000    275.77874   -3842.6839   -3370.0086   -3842.6839            0    9363.4749    16.881897    19.884645    20.595875    6913.8399    10310.947    9817.8043    7961.6734    1930.5531    1086.9969   -834.57376   -2425.8776 
 2718000    276.24005   -3808.3513   -3334.8853   -3808.3513            0    11842.573    16.940538    19.953716    20.667417    6986.1386    11835.933    11923.132    11768.652    790.26639   -386.28333   -320.00508   -2128.2969 
 2719000    293.30447   -3818.6674   -3315.9536   -3818.6674            0    6605.3952    16.993562    20.016172    20.732106    7051.9443    7557.0401    6079.8287    6179.3168    1614.5255    979.95731   -329.66633   -2636.6193 
 2720000    271.19992   -3845.3163   -3380.4889   -3845.3163            0    9360.0264    16.891461     19.89591    20.607543    6925.5975    9567.1717    8804.5254     9708.382   -239.39482    954.30506   -732.20359   -2435.1007 
 2721000    276.97714   -3831.8788   -3357.1494   -3831.8788            0    10191.979    16.908243    19.915676    20.628017    6946.2595    8853.5635    10998.297    10724.075    576.47092   -957.03287    630.87673   -2324.6605 
 2722000    270.57923   -3828.4101   -3364.6466   -3828.4101            0    11171.436    16.912381    19.920551    20.633065     6951.361    11111.202    13744.448    8658.6582    -325.9542   -662.20329    1043.7898   -2232.1035 
 2723000    273.04811   -3831.8985   -3363.9033   -3831.8985            0    8787.8438     16.94049     19.95366    20.667358    6986.0791     8615.199    8765.7324    8982.6001    484.91785    1231.8886   -369.08352   -2468.5556 
 2724000     285.1553   -3818.6677   -3329.9213   -3818.6677            0    12635.881    16.836905     19.83165    20.540985    6858.7091    12988.339    12376.395    12542.909    7.4605525    770.89509   -196.31005    -2065.989 
 2725000    274.08293   -3812.0441   -3342.2753   -3812.0441            0    10747.703     16.89403    19.898936    20.610678    6928.7581    9904.6273    10818.064    11520.416   -82.408868   -2092.6249    1456.4094   -2256.2325 
 2726000    275.78633   -3774.6885   -3302.0001   -3774.6885            0     10432.02    16.949628    19.964423    20.678507    6997.3909    10854.494     9020.332    11421.234    2367.3358    1738.3595    389.88926   -2237.4149 
 2727000    304.10397   -3813.4515   -3292.2277   -3813.4515            0    9736.0222    17.024134    20.052181    20.769404    7090.0724    12199.851    10050.563    6957.6531    1713.8775   -1189.4468   -1264.3767    -2285.509 
 2728000     279.1223   -3777.7271    -3299.321   -3777.7271            0    10898.464    16.911916    19.920003    20.632498    6950.7876    13626.594    9612.2788    9456.5193    859.83054    2018.1716   -171.49957   -2194.5425 
 2729000    278.02069   -3798.6376   -3322.1197   -3798.6376            0    11302.871    16.877288    19.879216    20.590252    6908.1794    10191.893    11483.057    12233.663    755.20099   -564.34305   -777.85409     -2183.37 
 2730000    282.05634    -3763.296   -3279.8611    -3763.296            0    11309.637    16.871075    19.871898    20.582672    6900.5525    9921.5786    11568.411    12438.922   -1811.8938    284.73707    595.39589   -2141.6877 
 2731000    283.60458   -3813.5409   -3327.4524   -3813.5409            0    11358.115      16.8652    19.864978    20.575505    6893.3465    12780.426    11295.818    9998.1003    306.73178    199.70188   -502.16852   -2185.5939 
 2732000     276.3811   -3817.6336   -3343.9259   -3817.6336            0    10127.411    16.865725    19.865597    20.576146    6893.9902     10167.14    10625.335    9589.7584   -1081.3186    1239.5741   -563.42926    -2325.698 
 2733000    278.35762   -3825.2683   -3348.1729   -3825.2683            0    13403.256    16.753557    19.733477      20.4393    6757.3539    12666.063    15710.984    11832.722    28.956303   -10.879464   -104.94858   -2027.2944 
 2734000    281.42256   -3789.6683   -3307.3196   -3789.6683            0    11493.163    16.812782    19.803236    20.511554    6829.2705    12732.281     10589.47    11157.737    689.73239    49.307515   -672.28253   -2162.6247 
 2735000    271.73799   -3841.8508   -3376.1012   -3841.8508            0    8223.5158    17.000189    20.023977     20.74019    7060.1968    6503.6923    9620.7181     8546.137    641.79794    -588.8439   -1437.4729   -2529.3609 
 2736000    263.02016    -3753.263   -3302.4554    -3753.263            0    9472.7099    16.905272    19.912177    20.624392    6942.5986    8491.9504    7530.4827    12395.697   -1052.7984   -979.61659    770.44136   -2343.3371 
 2737000    283.80327   -3772.2679   -3285.8388   -3772.2679            0    9364.5286    16.892529    19.897167    20.608846    6926.9106    8061.3749    8362.1646    11670.046    17.612621    92.243349   -401.35976   -2339.8164 
 2738000    291.05729   -3802.4429   -3303.5807   -3802.4429            0    10584.119    16.916126    19.924962    20.637634    6955.9797    10998.279    9996.8703    10757.207    587.23827     421.7246    925.47354    -2229.866 
 2739000    282.64131   -3811.4053   -3326.9677   -3811.4053            0    9638.2155    16.883639    19.886697    20.598001    6915.9811    8941.3626     10680.75    9292.5337   -2303.2434   -1030.8849    142.59777   -2354.8333 
 2740000    282.21983    -3819.799   -3336.0839    -3819.799            0    10524.286     16.86639     19.86638    20.576957    6894.8055    9553.5475    11223.712      10795.6    335.61849    387.52357    2599.5395   -2277.8284 
 2741000    267.16268   -3815.7053   -3357.7976   -3815.7053            0     9452.599    16.901239    19.907427    20.619472    6937.6309    7751.1543    9776.3469    10830.296    622.25903   -674.90106   -1677.8682   -2401.4003 
 2742000    274.41233   -3798.2262   -3327.8928   -3798.2262            0    11818.084    16.826677    19.819603    20.528507    6846.2174    12303.272    12959.198    10191.782   -116.58296   -733.26442    178.95453   -2147.9155 
 2743000    275.09181    -3779.701   -3308.2031    -3779.701            0    10330.119    16.824895    19.817504    20.526332     6844.042    9406.0349    10723.357    10860.966    1793.2503   -809.24602   -2589.7168   -2277.1195 
 2744000    286.30538   -3818.2751   -3327.5575   -3818.2751            0    12151.147    16.754646    19.734759    20.440628    6758.6712    10181.398    11834.265    14437.778    242.72744   -1468.9702   -524.12331   -2129.8398 
 2745000    279.52488   -3773.5803   -3294.4842   -3773.5803            0    10081.326    16.913466    19.921829    20.634389    6952.6992    9195.0717     9088.249    11960.656   -1040.8328   -1652.1471    758.89837   -2272.2581 
 2746000    270.08616   -3782.5928   -3319.6743   -3782.5928            0    10305.959    16.843149    19.839005    20.548603    6866.3428    11009.139    8968.2252    10940.513     391.8198    382.32521   -1367.4493   -2287.6504 
 2747000    276.09802   -3792.4431   -3319.2206   -3792.4431            0    11112.724    16.860824    19.859823    20.570165     6887.981    9742.0857    11041.276     12554.81   -117.66401    1441.9299    -1530.487   -2202.9015 
 2748000    292.72682   -3805.2158    -3303.492   -3805.2158            0    11647.062     16.90061    19.906686    20.618705     6936.857    11870.812    10206.458    12863.916    145.32422   -601.65192   -752.02116   -2125.1943 
 2749000     271.2144   -3799.6445   -3334.7923   -3799.6445            0    11563.571    16.790483    19.776971     20.48435    6802.1338    11557.264    11315.587    11817.861     352.6475    739.84418    246.35799   -2187.6613 
 2750000    289.37706    -3788.615   -3292.6326    -3788.615            0    10978.686    16.894464    19.899447    20.611206    6929.2913    11147.554    10992.396    10796.107    284.64241   -533.03122    326.25045   -2183.1639 
Loop time of 360.122 on 64 procs for 250000 steps with 864 atoms

Performance: 119.959 ns/day, 0.200 hours/ns, 694.210 timesteps/s
192.2% CPU use with 32 MPI tasks x 2 OpenMP threads

MPI task timing breakdown:
Section |  min time  |  avg time  |  max time  |%varavg| %total
---------------------------------------------------------------
Pair    | 27.714     | 34.13      | 39.796     |  53.7 |  9.48
Bond    | 0.84072    | 1.1478     | 1.4798     |  15.9 |  0.32
Kspace  | 157.69     | 164.73     | 171.98     |  27.2 | 45.74
Neigh   | 4.3053     | 4.5735     | 4.9424     |   7.9 |  1.27
Comm    | 69.58      | 75.205     | 79.004     |  21.0 | 20.88
Output  | 0.49539    | 0.49576    | 0.49744    |   0.0 |  0.14
Modify  | 66.91      | 68.687     | 71.654     |  11.2 | 19.07
Other   |            | 11.16      |            |       |  3.10

Nlocal:        27.0000 ave          33 max          21 min
Histogram: 2 2 4 2 4 7 3 5 1 2
Nghost:        2665.66 ave        2723 max        2611 min
Histogram: 2 3 3 6 4 4 2 2 3 3
Neighs:        8893.91 ave       11895 max        6831 min
Histogram: 2 7 3 5 4 5 2 2 1 1

Total # of neighbors = 284605
Ave neighs/atom = 329.40394
Ave special neighs/atom = 2.0000000
Neighbor list builds = 15707
Dangerous builds = 3

unfix		3
unfix		2
unfix		1

write_data	data.final.${pid}
write_data	data.final.1
System init for write_data ...
PPPM initialization ...
  extracting TIP4P info from pair style
  using 12-bit tables for long-range coulomb (../kspace.cpp:340)
  G vector (1/distance) = 0.37465337
  grid = 24 24 24
  stencil order = 5
  estimated absolute RMS force accuracy = 0.00311659
  estimated relative force accuracy = 9.3855182e-06
  using double precision FFTW3
  3d grid and FFT values/proc = 3549 432
Last active /omp style is kspace_style pppm/tip4p/omp
WARNING: Not all mixed pair coeffs generated from mixing. Use write_data with 'pair ij' option to store all pair coeffs. (../write_data.cpp:312)

write_restart   restart.lmp.${pid}
write_restart   restart.lmp.1
System init for write_restart ...
PPPM initialization ...
  extracting TIP4P info from pair style
  using 12-bit tables for long-range coulomb (../kspace.cpp:340)
  G vector (1/distance) = 0.37465337
  grid = 24 24 24
  stencil order = 5
  estimated absolute RMS force accuracy = 0.00311659
  estimated relative force accuracy = 9.3855182e-06
  using double precision FFTW3
  3d grid and FFT values/proc = 3549 432
Last active /omp style is kspace_style pppm/tip4p/omp
Total wall time: 0:06:00
