#include		in.partitions
include		in.temp
variable        temperature equal 225.22
variable	tempDamp equal 100.0
include		in.pressure
variable        pressure equal 1577.1
variable        pressureDamp equal 1000.0 # This is 1 ps
include		in.seed
variable        seed equal 745823

units		real
atom_style	full

read_restart	restart.lmp.${pid}
read_restart	restart.lmp.1
Reading restart file ...
  restart file = 30 Jul 2021, LAMMPS = 30 Jul 2021
  restoring atom style full from restart
  orthogonal box = (-0.10937842 -0.0038429092 -0.098601823) to (20.109379 20.003844 20.798600)
  4 by 2 by 4 MPI processor grid
  restoring pair style lj/cut/tip4p/long/omp from restart
  restoring bond style harmonic/omp from restart
  restoring angle style harmonic/omp from restart
  972 atoms
  648 bonds
  324 angles
Finding 1-2 1-3 1-4 neighbors ...
  special bond factors lj:    0        0        0       
  special bond factors coul:  0        0        0       
     2 = max # of 1-2 neighbors
     1 = max # of 1-3 neighbors
     1 = max # of 1-4 neighbors
     2 = max # of special neighbors
  special bonds CPU = 0.003 seconds
  read_restart CPU = 0.011 seconds
include 	in.setup
variable	out_freq equal 1000
variable	out_freq2 equal 10000
variable	out_freq3 equal 1000

timestep	2.0

neigh_modify    delay 7 every 1

include		in.tip4p
# This is TIP4P/Ice

# create groups ###
group ox type 2
324 atoms in group ox
group hy type 1
648 atoms in group hy

# set charges - beside manually ###
set group ox charge -1.1794
Setting atom values ...
  324 settings made for charge
set group hy charge 0.5897
Setting atom values ...
  648 settings made for charge

# ### TIP3P Potential Parameters ###
pair_style lj/cut/tip4p/long/omp 2 1 1 1 0.1577 8.5
pair_coeff 1 1*2 0.000 0.000
pair_coeff 2 2 0.21084 3.1668
bond_style  harmonic
bond_coeff  1 450 0.9572
angle_style harmonic
angle_coeff 1 55 104.52
kspace_style pppm/tip4p/omp 1.0e-5
pair_modify tail yes

thermo          ${out_freq}
thermo          1000
thermo_style    custom step temp pe etotal epair emol press lx ly lz vol pxx pyy pzz pxy pxz pyz enthalpy

restart 	${out_freq3} restart.lmp.${pid} restart2.lmp.${pid}
restart 	1000 restart.lmp.${pid} restart2.lmp.${pid}
restart 	1000 restart.lmp.1 restart2.lmp.${pid}
restart 	1000 restart.lmp.1 restart2.lmp.1


include         in.dump
dump            myDump all atom ${out_freq2} dump.water.${pid}
dump            myDump all atom 10000 dump.water.${pid}
dump            myDump all atom 10000 dump.water.1
dump            myDump2 all dcd ${out_freq2} dump.dcd
dump            myDump2 all dcd 10000 dump.dcd
dump_modify     myDump append yes
dump_modify     myDump2 append yes


variable natoms 	equal  "count(all)"                        # NUMBER ATOMS
variable H      	equal  "enthalpy/v_natoms"                 # ENTHALPY-per-atom
variable Vol      	equal  "vol/v_natoms"                 # volume-per-atom
fix AVG all 		ave/time ${out_freq} 1 ${out_freq} v_Vol v_H file vol_enthalpy.dat
fix AVG all 		ave/time 1000 1 ${out_freq} v_Vol v_H file vol_enthalpy.dat
fix AVG all 		ave/time 1000 1 1000 v_Vol v_H file vol_enthalpy.dat


timer           timeout 02:55:00 every 1000
New timer settings: style=normal  mode=nosync  timeout=02:55:00

fix 		1 all shake 1e-6 200 0 b 1 a 1
       0 = # of size 2 clusters
       0 = # of size 3 clusters
       0 = # of size 4 clusters
     324 = # of frozen angles
  find clusters CPU = 0.001 seconds
fix             2 all nph aniso ${pressure} ${pressure} ${pressureDamp}
fix             2 all nph aniso 1577.1 ${pressure} ${pressureDamp}
fix             2 all nph aniso 1577.1 1577.1 ${pressureDamp}
fix             2 all nph aniso 1577.1 1577.1 1000
fix             3 all temp/csvr ${temperature} ${temperature} ${tempDamp} ${seed}
fix             3 all temp/csvr 225.22 ${temperature} ${tempDamp} ${seed}
fix             3 all temp/csvr 225.22 225.22 ${tempDamp} ${seed}
fix             3 all temp/csvr 225.22 225.22 100 ${seed}
fix             3 all temp/csvr 225.22 225.22 100 745823


run             250000
PPPM initialization ...
  extracting TIP4P info from pair style
  using 12-bit tables for long-range coulomb (../kspace.cpp:340)
  G vector (1/distance) = 0.3719466
  grid = 24 24 25
  stencil order = 5
  estimated absolute RMS force accuracy = 0.0034648214
  estimated relative force accuracy = 1.0434207e-05
  using double precision FFTW3
  3d grid and FFT values/proc = 3458 576
Last active /omp style is kspace_style pppm/tip4p/omp
Neighbor list info ...
  update every 1 steps, delay 7 steps, check yes
  max neighbors/atom: 2000, page size: 100000
  master list distance cutoff = 10.8154
  ghost atom cutoff = 10.8154
  binsize = 5.4077, bins = 4 4 4
  1 neighbor lists, perpetual/occasional/extra = 1 0 0
  (1) pair lj/cut/tip4p/long/omp, perpetual
      attributes: half, newton on, omp
      pair build: half/bin/newton/omp
      stencil: half/bin/3d
      bin: standard
Per MPI rank memory allocation (min/avg/max) = 10.19 | 10.19 | 10.20 Mbytes
Step Temp PotEng TotEng E_pair E_mol Press Lx Ly Lz Volume Pxx Pyy Pzz Pxy Pxz Pyz Enthalpy 
 5750000    228.00811   -4739.7977   -4300.0649   -4739.7977            0    2133.0469    20.218758    20.007687    20.897202     8453.557    524.02462    2791.6249    3083.4911   -99.435083    11.201162    1698.8872   -4037.0891 
 5751000    214.81125   -4760.6249   -4346.3434   -4760.6249            0    724.30585    20.027502    20.157658    21.125258    8528.4259    718.70831    1837.3373   -383.12806    577.38539    394.27019    62.267673   -4256.2554 
 5752000     223.5684   -4766.3691   -4335.1987   -4766.3691            0    2832.0834    20.245496    20.164653    20.871061    8520.4732    2199.3569    3354.9387    2941.9546    417.36246    977.87128    1391.9211   -3983.2773 
 5753000    223.41416   -4777.0563   -4346.1833   -4777.0563            0    460.36846    20.098751    19.985992    21.309547     8559.906    1625.6744     146.3621   -390.93111   -244.71998   -478.97247   -389.33882    -4288.712 
 5754000    215.80967   -4782.7774   -4366.5703   -4782.7774            0    1573.1028    20.128441    20.138733    21.070383     8541.118     1880.788    1046.3005    1792.2199   -60.357303    -341.8967     -895.726   -4170.6192 
 5755000    223.90143   -4763.6231   -4331.8104   -4763.6231            0    1046.3991    19.999981    20.319577    20.845155    8471.2866      2240.25   -676.06974     1575.017    38.564118    1232.2327   -319.70358    -4202.533 
 5756000    232.36208   -4766.2526   -4318.1228   -4766.2526            0     2836.502     20.08966    20.048211    21.040316    8474.2344    2413.3965    2867.9282    3228.1813   -125.94164    313.91462   -34.954705   -3967.5651 
 5757000    229.85093   -4773.6169   -4330.3301   -4773.6169            0    -366.5873    20.015401    20.158563    21.293444    8591.5154    751.04448   -786.25997   -1064.5464    137.47099    74.784031   -40.676967   -4376.2629 
 5758000    221.94459   -4755.4694   -4327.4306   -4755.4694            0    2434.0823    20.121657    20.196056    20.806311    8455.2294    3165.0195    1231.7628    2905.4647   -105.57279   -440.75749    424.11071   -4027.2818 
 5759000    237.03945   -4768.0989   -4310.9484   -4768.0989            0    458.84818    20.055611    20.273031    21.187437    8614.5578    468.28372    11.161856    897.09897    80.113165    928.86569    602.98133   -4253.3012 
 5760000      229.915   -4758.9654    -4315.555   -4758.9654            0    1673.3058    20.011023    20.113015     21.07468    8482.1799    2005.3217    1878.3029    1136.2928    209.10482     88.27622    1261.6106   -4108.5606 
 5761000    223.24541   -4769.7145   -4339.1669   -4769.7145            0    2094.5468    20.263532    20.020848    20.769785    8426.1585    2322.9481     2766.974    1193.7183   -579.89229      130.079   -805.32213   -4081.7746 
 5762000    233.56629   -4741.1784   -4290.7262   -4741.1784            0     1781.727    19.968142    20.185674    21.123991    8514.4551    1888.8732     2360.787    1095.5207    569.63172    542.26984    107.90772   -4069.4809 
 5763000    241.69928   -4763.5427   -4297.4053   -4763.5427            0    2875.0552    19.915811    20.140315    20.934835    8397.1865    4262.2234    1461.0907    2901.8516    78.412232    628.91533    7.6847202   -3945.3135 
 5764000      227.692   -4784.8021   -4345.6789   -4784.8021            0    945.04501    20.273599    20.138283    20.858145    8515.8695    -553.8679    1709.3853    1679.6176    206.18378   -375.11575   -39.345021   -4228.3089 
 5765000    223.95939   -4768.1262   -4336.2016   -4768.1262            0    2289.2748    20.045792    20.202947     20.94164    8481.0305    4234.4611    450.80025    2182.5632    518.13168    704.05388   -1074.8579   -4053.0478 
 5766000    218.38305   -4755.9479   -4334.7778   -4755.9479            0    32.553074    19.997579    20.291496    21.174583     8592.239    633.59607   -680.07996    144.14311    145.05079    340.30085    628.88545   -4330.6986 
 5767000    231.20921   -4785.7797   -4339.8733   -4785.7797            0     3047.883    20.107371    19.978928    21.070083    8464.3523    2537.0419    3647.5429    2959.0643   -474.81406    1523.1382   -827.79277   -3963.6307 
 5768000    212.82699   -4768.6652   -4358.2104   -4768.6652            0   -319.62342    20.165566    20.068733    20.927156     8469.165    52.335627   -372.70862   -638.49728    149.54192    374.00632    385.34665   -4397.6884 
 5769000    220.77729   -4765.6095   -4339.8219   -4765.6095            0    976.13931    20.175736    20.125786    21.135321    8582.0507    1259.1657    287.21404    1382.0382   -1013.7222   -604.79453     663.5602   -4217.6479 
 5770000    221.10532   -4762.6519   -4336.2317   -4762.6519            0    -264.2535    20.209735    20.206997     21.11816    8624.1931   -2411.4143    886.17758    732.47624   -224.61356    33.258179   -62.084871   -4369.4681 
 5771000    219.02361   -4781.6714    -4359.266   -4781.6714            0   -710.05892    20.208375    20.179863     21.13218    8617.7502   -1571.5767   -534.61037   -23.989683   -185.54145    475.47011    1681.0554   -4448.5069 
 5772000    232.43544   -4780.8008   -4332.5295   -4780.8008            0    1297.4316    20.143207    20.073285    21.033948     8504.874    1460.1697     1169.176    1262.9491   -246.19049    1452.2964   -852.92476   -4171.6027 
 5773000    224.94066   -4795.2024   -4361.3854   -4795.2024            0    2967.1961    20.247527    19.868522    20.866406    8394.3136    1899.3201    3652.8986    3349.3698   -687.18096   -690.58538   -556.33387    -3998.134 
 5774000     234.9929   -4740.1319   -4286.9284   -4740.1319            0    583.69117    20.166218    20.298494    21.086061    8631.4496   -582.35332      1649.89    683.53684   -740.40406   -458.24008   -1010.2368   -4213.4528 
 5775000    240.45734   -4773.0327   -4309.2905   -4773.0327            0    1648.7689    20.351348     20.08658    20.833383    8516.4572   -1065.6379    2909.1038    3102.8409   -129.87727    98.368242   -795.71681   -4104.5072 
 5776000    236.23014   -4759.3297     -4303.74   -4759.3297            0    1612.0261    20.234543    19.941918    21.229372    8566.3825   -206.29695    4289.3737    753.00161    607.05445   -581.54213   -63.425137   -4102.3465 
 5777000    240.88483   -4770.1795   -4305.6128   -4770.1795            0    712.87766    20.010414    20.156279    21.098467    8509.7602    584.66312   -283.74625    1837.7161    35.269478   -812.43724   -606.94051   -4217.1404 
 5778000    218.97559   -4769.2054   -4346.8925   -4769.2054            0    437.85434     20.24819    20.032626    20.981499    8510.6083    1259.9228    -125.7018    179.34202    78.899005    1082.9889   -1485.8563   -4292.5467 
 5779000    222.57857   -4755.3502   -4326.0887   -4755.3502            0    595.35908    20.303414    19.995649    21.085764    8560.3973   -589.60264    1065.5364    1310.1435   -214.12287   -934.45107   -521.84812   -4251.7613 
 5780000     219.9397   -4735.9836   -4311.8114   -4735.9836            0    1937.9247     20.05287    19.895462    21.409056    8541.3807    3052.9697    2651.9137    108.89065   -26.924385    1487.9848    1816.2742   -4070.4094 
 5781000    237.97272    -4767.649   -4308.6986    -4767.649            0    1655.5946    20.009563     20.27086    21.017392    8524.8864    2059.0014     1136.608    1771.1743   -171.17797    362.21254   -696.93751    -4102.864 
 5782000    227.00553   -4759.4397   -4321.6404   -4759.4397            0    939.74437    20.298091    20.034088    20.864168    8484.4918    436.31742    2087.2531     295.6626    163.12428   -1323.8827   -19.186623   -4205.3587 
 5783000    226.19824   -4768.8078   -4332.5654   -4768.8078            0     1182.917    20.097212    20.135939    21.045507    8516.6164    1811.0709    790.51258    947.16764   -454.53521    936.62156   -339.01923   -4185.6399 
 5784000    217.98461   -4772.4378   -4352.0361   -4772.4378            0    3161.9382    19.933574    20.107285    21.221281    8505.7026    3781.6294    3140.6966    2563.4888    79.268879   -877.06982    215.35993   -3959.8073 
 5785000    233.94823   -4821.8249    -4370.636   -4821.8249            0    1578.7162    20.205748    20.070403    20.824643    8445.1738   -619.81425    3169.7817    2186.1812    228.60148    782.89775   -950.35286   -4176.1947 
 5786000    211.42403   -4764.8578   -4357.1088   -4764.8578            0    3236.8327    20.179806    19.942292      20.9855     8445.228    4360.0242    3339.4592    2011.0148    263.90434    319.61742    404.31545   -3958.4443 
 5787000    222.54832   -4765.6577   -4336.4546   -4765.6577            0    1070.3762    20.120732    20.003546    21.174586    8522.4745    117.92624    819.66802    2273.5345   -499.53963    675.08811   -576.15417   -4203.4158 
 5788000    224.08111   -4752.3755   -4320.2162   -4752.3755            0      419.134    20.294203    20.163517    21.109501    8638.0611    324.48334    912.74834    20.170334    655.31156   -1481.5916   -117.91136   -4267.4149 
 5789000    225.63604   -4794.1767   -4359.0187   -4794.1767            0    -253.6141    20.221045    20.150405    20.956253    8538.8816    638.35481    -909.6486   -489.54852    223.50389    1565.0414   -181.87463   -4390.6014 
 5790000    220.15181   -4763.9256   -4339.3444   -4763.9256            0     2981.951    20.090892    20.063467     21.10515    8507.3372    3110.5348    3000.3009    2835.0172    -119.9949   -1193.0258    -747.0117   -3969.3714 
 5791000    228.05075   -4769.5958   -4329.7807   -4769.5958            0    1198.5635    20.154189    19.984835     21.18969    8534.7439    1268.1468     731.7267    1595.8169   -365.93992    229.24147   -508.62809   -4180.5949 
 5792000    222.13331   -4764.3567   -4335.9539   -4764.3567            0    1964.0425    20.151423    20.182664     20.76996    8447.3381      2080.04       785.22    3026.8676   -75.922684      554.725    38.842788   -4093.9922 
 5793000    234.26637   -4769.2879   -4317.4855   -4769.2879            0    2919.2096    20.206475    20.077447     20.83336    8451.9778     1694.506     3628.435    3434.6879    269.56914    -1317.608   -426.83189   -3957.6537 
 5794000    220.55243   -4789.0455   -4363.6916   -4789.0455            0    2828.1011    20.054875    19.906243    21.197732    8462.4995    2259.7831    3612.9483    2611.5717    34.732448    950.53159    1210.4815   -4014.6562 
 5795000    213.82412   -4770.9244   -4358.5466   -4770.9244            0     3338.754    20.254687    20.006922    20.870311    8457.3586    1135.9693    5467.1421    3413.1505    -300.2695    19.862885    1190.9724   -3946.7384 
 5796000    212.52606   -4756.6908   -4346.8164   -4756.6908            0    2820.5758    20.123203    20.008974    20.983893    8449.0516    1870.9655    3135.6616    3455.1003   -645.24539   -389.52123    711.01692   -3999.2629 
 5797000    218.83982   -4759.0419   -4336.9909   -4759.0419            0    2532.7529    20.133264    20.167878    20.894471    8484.0999    715.23977    3573.6608     3309.358    232.66542    68.085322    621.30552   -4023.6085 
 5798000    214.98309   -4775.3827   -4360.7697   -4775.3827            0    2766.4363    20.148463    20.015106    21.117153    8515.9908     4218.753    3132.3748    948.18102   -974.03401    2003.1467   -235.76362   -4017.1867 
 5799000    240.95576   -4785.5129   -4320.8095   -4785.5129            0    1767.9503    20.054939    20.178245    20.959286    8481.6669    724.22587    1829.7993    2749.8257    69.782644   -96.420692    705.88564   -4102.1204 
 5800000    217.53161   -4774.4315   -4354.9035   -4774.4315            0    2267.5361       20.103    20.263851    20.915408     8520.188    2488.8697    2187.0652    2126.6735     15.40352    445.37808   -948.62464   -4073.1435 
 5801000    231.49755   -4724.0454   -4277.5829   -4724.0454            0    1730.0489    20.176863    20.213052     20.92381    8533.4826    1845.6581    1697.6515    1646.8371    258.33311    654.81094    461.84174   -4062.2747 
 5802000    226.45613    -4786.171   -4349.4313    -4786.171            0    1119.5698    20.062017    20.115761    20.985338    8468.9007   -76.169848     2586.897    847.98223   -28.721268   -1520.7495   -290.75204   -4211.1529 
 5803000    225.29674   -4801.2497    -4366.746   -4801.2497            0    513.45741    20.282907    20.089632     21.08395    8591.2067    -39.22915    949.03751    630.56387   -397.12881    934.11568    951.56404   -4302.4129 
 5804000    231.52222   -4754.1591   -4307.6491   -4754.1591            0    2460.3105    20.267699    20.013355    20.976189    8508.4593    2771.8719    1725.6674    2883.3922   -389.33294    534.60621    314.76515   -4002.3561 
 5805000    230.44015   -4770.5741   -4326.1509   -4770.5741            0    2312.5226    20.081109    20.131651     20.98132    8482.0318    3636.7103     2045.802    1255.0556   -206.08373   -331.14351   -443.67182   -4040.0878 
 5806000     223.3861   -4729.9349   -4299.1161   -4729.9349            0    2396.0072       20.197    20.248563    20.787302    8501.1801    3924.0008    660.96341    2603.0574    342.90983   -180.02364    1303.5572   -4002.0567 
 5807000    222.35357   -4792.6361   -4363.8085   -4792.6361            0    561.12906    20.268739    20.084225    21.067095    8576.0334   -1727.9047    2705.3307    705.96115   -546.95712    987.50617    526.25736   -4293.6266 
 5808000    222.34486   -4760.3912   -4331.5805   -4760.3912            0    1059.7552     20.22923    19.945797    21.221662    8562.6884      2688.69   -293.36252    783.93813    277.14007   -1107.5669    1280.3385   -4199.2403 
 5809000    231.66718   -4795.9752   -4349.1855   -4795.9752            0    1704.9199    20.109703     20.18133    20.943273    8499.6294    1262.1708    2023.6975    1828.8914   -216.71329   -845.86074    630.38632   -4137.8464 
 5810000    221.84073   -4768.4789   -4340.6404   -4768.4789            0       1709.5    20.243722    20.140466     20.84129    8497.3694    563.95957    1972.7064     2591.834   -1078.6841    254.83501   -470.34436   -4128.7899 
 5811000    223.00861   -4757.9013   -4327.8104   -4757.9013            0    1189.0434    20.134965    19.972185    21.159548     8509.085    739.89544    1108.7282    1718.5065    35.199025   -886.42393    101.69299   -4180.2546 
 5812000    237.52298   -4753.5908   -4295.5078   -4753.5908            0    1533.3919    19.973709    20.145151    21.259157    8554.1189    2100.4847    745.07909    1754.6118    112.25209     1834.602    243.65232   -4104.2125 
 5813000    238.03087   -4769.7135   -4310.6509   -4769.7135            0    411.38294    20.155818    20.369898     20.93485    8595.2623    1141.3605   -1318.7237     1411.512    302.86191   -788.96454   -749.04836   -4259.0828 
 5814000    216.76213   -4750.7726   -4332.7286   -4750.7726            0    1727.8036    20.218982    19.919256    21.150606    8518.3448    322.82443    3876.5104    984.07592   -66.549511   -382.09857   -255.30386   -4118.0813 
 5815000     228.4516   -4780.8357   -4340.2476   -4780.8357            0    3913.3363    20.167367    20.001251    20.907032     8433.323    4089.4161    2682.4206    4968.1722    330.65108   -1421.5054    1360.9264    -3858.941 
 5816000    235.04723   -4746.7285   -4293.4202   -4746.7285            0    1053.7531    20.123208    20.273194    20.939092    8542.3476     1948.479    856.64912    356.13118    342.15256    677.00264    -311.4234   -4162.1422 
 5817000     228.8217   -4789.5931   -4348.2912   -4789.5931            0    1585.1326    20.109566    20.078748    20.903329    8440.2394    1324.7284    2199.9837    1230.6856    121.32855   -446.94428   -1334.6789   -4153.1737 
 5818000    228.58933   -4775.8766   -4335.0228   -4775.8766            0    1477.0595    20.158484    19.911303    21.246096    8527.7939    236.95656    3068.2629    1125.9592    186.43576   -475.64789     -477.447   -4151.3222 
 5819000    224.25977   -4793.2789    -4360.775   -4793.2789            0    1283.8979    20.219926    20.053112    20.780647    8425.9798    1707.3045    1151.8094    992.57979   -384.60966   -357.03237    264.47618   -4203.0042 
 5820000    226.98663   -4757.6341   -4319.8713   -4757.6341            0    1360.6251    20.077159    20.326414      20.8667    8515.6304    1247.4606    615.35359    2219.0612   -665.79279    666.29474    136.81985   -4150.8929 
 5821000    222.76059   -4756.9609   -4327.3483   -4756.9609            0    2845.7212     20.16129    20.161516    21.031714    8549.0168     3578.485    2046.6973    2911.9814   -83.751038   -258.00936   -719.92107   -3972.5477 
 5822000    237.21308   -4748.4117   -4290.9263   -4748.4117            0    789.14203    20.251975    19.961476    21.198796    8569.8105   -994.08898    2377.6966    983.81846   -35.953801    943.07118   -539.55892   -4192.2978 
 5823000    226.73089    -4810.104   -4372.8344    -4810.104            0    1581.1837    20.284302    19.850251    21.048266    8475.0523    496.50249    3113.9643    1133.0843   -412.16803    -250.5754    1078.7464   -4177.4002 
 5824000    213.57777   -4761.6663   -4349.7636   -4761.6663            0    3403.0292     20.08057    20.164066    20.821785    8430.8646    5606.5932    1744.1189    2858.3756   -218.58825   -794.26903    217.29864   -3931.3424 
 5825000    230.95285    -4792.136    -4346.724    -4792.136            0    1751.1704    20.193109    20.052421    20.862266    8447.5635    2355.1864    2235.8603    662.46444    -280.1379     700.9959    388.99053   -4130.9814 
 5826000    224.71684   -4771.0235   -4337.6382   -4771.0235            0   -994.43927    20.079702    20.333083    21.017133    8580.9224    945.15328   -2983.7083   -944.76278    301.23079   -551.13685   -440.11869   -4462.0862 
 5827000    223.30712   -4805.3774   -4374.7108   -4805.3774            0    1927.3667     20.06796    20.087993    21.095455    8504.1061    1936.5332    1752.1995    2093.3673    527.42265    -125.5738    440.46273   -4135.6717 
 5828000    228.29792   -4740.0769   -4299.7852   -4740.0769            0    838.05812    20.187834    20.204428    21.034371    8579.5759    598.43604    194.46544    1721.2729   -116.74123    1615.0904    1111.7924   -4194.9238 
 5829000    232.23211   -4803.8885   -4356.0093   -4803.8885            0    1124.3427    20.309023    20.078789    20.847721    8501.2959   -1167.6302    2060.3437    2480.3146   -273.33271     -724.762    1531.3093   -4216.6103 
 5830000    224.74656   -4750.2968   -4316.8542   -4750.2968            0    338.31952    20.106268    20.135164      21.0099     8505.711    116.59789   -64.421245    962.78191    306.23205   -1699.6299    67.581013   -4274.8866 
 5831000    223.25064   -4753.6966    -4323.139   -4753.6966            0    717.94165    20.108469    20.063973    21.164255    8538.8413    1442.2917    9.0096565    702.52357    59.937783    150.03665   -708.50057   -4233.7336 
 5832000    224.09128   -4787.9308   -4355.7519   -4787.9308            0    1585.5088    20.200433      20.2906     20.65278    8465.1389    471.95746    1252.8799    3031.6889   -648.68939   -208.03547   -1584.7855   -4160.0123 
 5833000    222.53469   -4756.3542   -4327.1774   -4756.3542            0     1067.451    20.181257    20.115359    21.104176    8567.3084    1999.9747    306.07021    896.30799   -255.37598   -824.06788    721.64432   -4193.8043 
 5834000    234.15687   -4744.8486   -4293.2574   -4744.8486            0    2264.2035    19.824091    20.117391    21.247203    8473.5752    3253.2683    1712.9486    1826.3935    664.35207    378.01562    146.91197   -4013.4507 
 5835000     218.9523   -4777.3203   -4355.0524   -4777.3203            0    2536.3855    20.012314     20.17423    21.077948    8509.8638    3443.7568    2398.3724    1767.0274    9.7863835    1193.0298   -87.508559   -4040.2676 
 5836000    224.40194   -4780.5049   -4347.7269   -4780.5049            0    152.55816    20.237928      20.1444    20.802836    8480.9194   -555.35043    267.34528    745.67962   -346.62224   -178.48099    45.322632   -4328.8577 
 5837000     217.3038   -4766.7542   -4347.6655   -4766.7542            0    2412.7131     20.13281    19.947952    21.075207    8463.9785    1728.5148    3334.9284    2174.6962   -67.054759    637.81637    690.89246   -4049.8439 
 5838000    228.61906    -4774.011   -4333.0999    -4774.011            0   -145.88701    19.971447    20.206352    21.270543    8583.7298    1255.5592   -1294.5626   -398.65765   -360.62216    389.93121   -264.11353   -4351.3628 
 5839000    213.88188   -4793.3327   -4380.8435   -4793.3327            0    1089.9485    20.277839    20.062849    20.925765     8513.255    1396.7087   -670.69972    2543.8364   -59.876026    339.00877    1225.0168   -4245.5187 
 5840000    225.50408   -4779.3974   -4344.4938   -4779.3974            0     3234.744     20.08824     20.03598    21.075783    8482.7405    3036.1197    4523.2407    2144.8715    556.11731    -282.8373    299.37121   -3944.3169 
 5841000      215.316   -4763.5736   -4348.3185   -4763.5736            0    3347.8831    20.171937    19.801502    20.984057     8381.759    3753.7564     4117.579    2172.3138   -307.34178   -1301.3278    101.19934   -3939.0755 
 5842000     234.2016   -4793.5495    -4341.872   -4793.5495            0    1828.2949    20.391109    20.085648    20.699173     8477.732   -995.29322    2331.9267    4148.2514   -100.40874    715.31455    1062.5965   -4115.8234 
 5843000    232.59115   -4761.3041   -4312.7326   -4761.3041            0    1594.4963    20.231012    20.015603     21.03725    8518.7381    859.30241     2374.715    1549.4715    449.10614    700.98315   -1354.0385    -4114.637 
 5844000    224.07817   -4766.6901   -4334.5365   -4766.6901            0    1477.9687    20.052135    19.997964    21.249552    8521.1103    3682.3833    722.51778    29.004871     7.232604    328.00863    53.903353   -4150.8669 
 5845000    223.71972   -4801.3021   -4369.8398   -4801.3021            0     765.2417    20.290664    19.973233    20.897937    8469.3102   -302.65712    1261.5838    1336.7984    54.141894   -624.53726    1151.2037   -4275.3201 
 5846000    237.56641   -4783.7542   -4325.5874   -4783.7542            0    2143.3374    20.081081    20.170631    20.914608    8471.4217    2135.9973     1673.199    2620.8159    117.17577    847.01019    276.99715   -4060.7845 
 5847000    231.23338   -4782.4933   -4336.5403   -4782.4933            0    678.26264    20.255026    20.012561    20.963493    8497.6557   -316.20996    1374.3349      976.663   -82.527946    192.19415   -593.34014   -4252.4835 
 5848000    218.19039   -4764.6556    -4343.857   -4764.6556            0    1270.0816    20.206182    20.071867    21.105262    8559.7834    605.63872    1739.3463    1465.2599   -615.68737    766.31894    234.43084   -4185.3056 
 5849000    224.41817   -4772.7498   -4339.9405   -4772.7498            0    2759.4303    20.026635    20.225373    20.865913    8451.6578     3795.836    1083.2257    3399.2291    282.08101    -659.5021   -26.926079   -3999.8166 
 5850000    227.83473   -4770.4239   -4331.0254   -4770.4239            0    3086.9124    20.101599    20.144781     20.97705    8494.4951    3808.7057    3792.6562    1659.3755    36.474114   -209.63675    818.12487   -3948.6079 
 5851000    217.13478   -4791.2607    -4372.498   -4791.2607            0    582.31576    20.238856    19.998915    21.153177    8561.8574    1405.0322    682.35328   -340.43825    499.39817   -445.33757   -191.18754   -4299.7867 
 5852000    226.39117   -4775.5615   -4338.9471   -4775.5615            0     1185.839    20.097382    20.171605    21.005252    8515.4551    555.97968     2103.414    898.12347   -812.89678    261.12544   -1842.5966   -4191.6787 
 5853000    227.08471   -4758.3153   -4320.3634   -4758.3153            0    2215.6412    20.245713    19.951099    20.992854    8479.5219    3110.3231    2765.1458    771.45461    356.78497    1486.4912   -374.31093   -4046.3658 
 5854000     227.5216   -4756.0566   -4317.2621   -4756.0566            0    2208.4336    20.104085    19.941863    21.027808    8430.3202    1498.5384    2596.4322    2530.3301   -162.20538   -559.90343    993.92723   -4045.7406 
 5855000    241.92339   -4765.0205   -4298.4509   -4765.0205            0    350.15496     20.02758    20.264542    21.105616    8565.7083     1442.529   -466.35892    74.294781   -411.63998    636.48883   -1217.8658   -4254.7088 
 5856000    215.90154   -4779.3321   -4362.9479   -4779.3321            0    1069.3315    20.321276    20.108654    21.021163    8589.9515    765.33772    506.00396    1936.6528    471.59819   -318.20615    -533.3304   -4228.9867 
 5857000     232.3509   -4780.9072   -4332.7989   -4780.9072            0    437.34291    19.945105    20.065466    21.363168    8549.7068    2549.9298   -408.47639   -829.42468   -391.75558    861.13671    1074.6374   -4278.2672 
 5858000    218.26547   -4731.4274   -4310.4841   -4731.4274            0    3317.6611    20.091239    20.186367    20.799392    8435.5911    3634.3031    3979.9609    2338.7193   -56.570837    969.98404    356.40003   -3902.3307 
 5859000    225.49632   -4774.0979   -4339.2093   -4774.0979            0    1571.9651     20.23915    20.092934    21.089972    8576.5308    2338.8691     1568.727     808.2992   -973.00413    309.94705    1245.8799    -4142.588 
 5860000     234.8804   -4768.9598   -4315.9732   -4768.9598            0    3311.7858    20.127023    20.031935    21.059434    8490.8103    2810.9339    4218.4903    2905.9333    314.97735    964.49449    73.858085   -3905.8755 
 5861000    236.90827   -4767.8126   -4310.9151   -4767.8126            0    1827.6994    20.103807    19.994626    21.001164    8441.7981    2935.0774     1117.302    1430.7188    54.582091    1251.5969   -126.68389   -4085.8979 
 5862000    225.38982   -4762.7735   -4328.0903   -4762.7735            0    3071.8687    20.017838    20.155483    21.012816    8478.0239    3670.4606    2353.3344    3191.8111     249.6499   -169.89507    -1276.168   -3948.2744 
 5863000    210.93144   -4768.9087   -4362.1096   -4768.9087            0    2278.9836    20.004094    20.218196     21.02703    8504.3131    2738.3487    2433.0544    1665.5478     707.6517    432.59082    -38.30344   -4079.4548 
 5864000    227.06784   -4761.5794     -4323.66   -4761.5794            0    3802.7657     20.08151    20.000842    20.769394     8341.967    2353.7655    5785.0673    3269.4642   -491.27881   -603.24729   -166.84808   -3861.0192 
 5865000    226.94035    -4769.412   -4331.7385    -4769.412            0    3128.0395    19.962553    20.181036    21.056477    8482.9177    4206.0161    2932.0549    2246.0473    161.75991   -229.05521    -1007.141   -3944.7542 
 5866000    217.96308   -4782.3782   -4362.0181   -4782.3782            0    2822.1808    20.015455    20.165661    20.881961    8428.4785    1942.8172    3945.4585    2578.2667    -40.19144    859.31102   -124.89376   -4015.1136 
 5867000    218.33453   -4780.4873   -4359.4108   -4780.4873            0    2309.9316    19.927396    20.160059    21.190593    8513.0556    2855.5287    1680.8463    2393.4198   -1065.9429   -149.83172   -1033.5653   -4072.6231 
 5868000    213.80794    -4761.545   -4349.1984    -4761.545            0    3068.0589    20.025396    19.921075    21.049085    8397.0568    2655.6241    4541.6778    2006.8749   -1331.9313    206.43337   -308.40446   -3973.4764 
 5869000     217.0286   -4773.3343   -4354.7764   -4773.3343            0    1960.2472    20.019468    20.186587    20.918885    8453.8385    1209.3548    2793.8686    1877.5182    791.46537   -264.20125    441.28274   -4113.0964 
 5870000    230.92513   -4771.4141   -4326.0555   -4771.4141            0    2009.6268    20.108628    20.317819    20.665099    8443.0049    1480.0142    2483.1663    2065.6997       -208.8    486.44292    296.73967    -4078.605 
 5871000    218.19593   -4785.4494   -4364.6402   -4785.4494            0    2285.0822    19.895757    20.009354    21.255773    8461.9499    2370.8216    2848.9378    1635.4872   -754.13184    519.98866    771.63761   -4082.6408 
 5872000    229.56996   -4743.8527   -4301.1078   -4743.8527            0    324.51597    20.247467    20.234776    20.955829    8585.6651    1647.4548   -989.77227     315.8654    382.26082    1146.5963   -108.10428   -4260.4741 
 5873000    229.73808   -4777.8989   -4334.8297   -4777.8989            0    2603.1729    20.103889    20.119627    20.991733     8490.794    680.65589    3827.1433    3301.7195   -290.76805    885.49115   -973.20399   -4012.4801 
 5874000    226.51045   -4765.3459   -4328.5015   -4765.3459            0       3040.7    19.941581    20.064581    21.013454    8407.8924    4179.3966    1914.4104    3028.2929    895.88907    774.89739    504.53395   -3955.6494 
 5875000    226.46078   -4744.2565   -4307.5078   -4744.2565            0    1785.1299    20.196143    20.093751    21.107508      8565.77     1380.508     2477.488    1497.3937    482.36499    1015.7494     219.0454   -4084.5041 
 5876000    212.70464   -4776.6517   -4366.4329   -4776.6517            0     1203.796    20.152377     20.06794     21.07057    8521.2901     2201.564   -297.52972    1707.3536    359.46789   -60.256814    691.43785   -4216.8321 
 5877000    227.14608   -4775.7901   -4337.7198   -4775.7901            0    2984.3157    20.187373    20.048807    20.839978    8434.6218    3490.9313    2175.3758    3286.6399    88.769318    310.44423   -628.65324   -3970.6182 
 5878000    214.59396   -4763.8206   -4349.9581   -4763.8206            0    1835.4638    20.169775    20.363481    20.759935    8526.6623    1752.7677    1613.9304    2139.6934   -423.81788   -574.31628    590.10528   -4121.7134 
 5879000    236.24371   -4757.7861   -4302.1703   -4757.7861            0    1500.0113    19.988125    20.166777    21.252669    8566.8674    2937.9116    181.73483    1380.3875   -361.94688   -1365.8518   -1170.7928   -4114.7604 
 5880000    220.93656   -4797.7321   -4371.6374   -4797.7321            0    1226.9149    20.215871    19.920633    20.988286    8452.2543    1698.5604    1060.2201    921.96406    -299.3288   -510.87446    1137.3836   -4220.3987 
 5881000    224.59282   -4802.7792    -4369.633   -4802.7792            0    799.60253    20.016857    20.317474    20.942889     8517.305     1218.589   -10.099369     1190.318   -811.29033   -434.40601     429.5567   -4270.3095 
 5882000    227.78962   -4746.3693   -4307.0579   -4746.3693            0    717.51767    20.218017    19.888283    21.419966    8613.0031    160.78524    1222.8398    768.92801    464.75505   -459.25048    755.71704   -4216.9292 
 5883000    231.17944   -4751.4338   -4305.5848   -4751.4338            0    1563.9199    20.053875    20.246086    20.902737    8486.7721    1071.4606    1312.0813    2308.2177   -571.93005    364.49567   -370.96878   -4112.0171 
 5884000    220.40288   -4776.0643   -4350.9988   -4776.0643            0     1797.567    20.155068    20.122318     20.96585    8503.0505    1514.5126    1989.4959    1888.6924   -230.75383    32.909618    845.43864   -4128.0856 
 5885000    224.74416   -4777.7379   -4344.2998   -4777.7379            0    3037.7002    20.102335    19.930894    21.079717    8445.7469    1204.0716    4890.0857    3018.9435   -180.07989    104.88539    174.02259   -3970.1385 
 5886000    240.96462   -4796.5353   -4331.8148   -4796.5353            0    2125.4749    20.215418    20.125594    20.749458    8441.8606   -413.41789     3711.503    3078.3396    84.483769    1248.6644   -346.94107   -4070.1351 
 5887000    219.61109   -4774.3755   -4350.8371   -4774.3755            0    166.35397    20.291845    20.106026    20.934902    8541.1965   -1371.3359    1079.1624    791.23537   -399.70926   -281.64695     408.0996   -4330.1153 
 5888000    213.74196   -4758.3925   -4346.1731   -4758.3925            0    1404.4799    20.103769    20.085849    21.106659    8522.8956    1438.4038    1019.4066    1755.6292    101.78163    1066.8353   -1071.9755   -4171.5995 
 5889000    217.31574   -4795.9325   -4376.8208   -4795.9325            0    1445.5613    20.015204    20.215965    21.234363     8591.989    4146.6016   -1090.7306    1280.8129    305.48844    644.75386   -120.74316   -4195.6843 
 5890000    233.80148   -4778.3763   -4327.4704   -4778.3763            0    2157.8493     20.25081    20.074915    20.802192    8456.7837    765.39743    2949.6474    2758.5032     828.1722    1031.5985   -421.97894   -4061.3353 
 5891000    219.49255    -4765.849   -4342.5391    -4765.849            0    573.36221    20.273675    20.072988    21.011474    8550.6871    233.82756    881.97899    604.28007   -1283.0058    1174.6585     502.2581   -4271.0391 
 5892000    219.28392    -4758.977   -4336.0695    -4758.977            0     2615.717     19.89479    20.158516    21.020556    8430.2826    3131.7188     1843.461    2871.9712   -27.645886    531.18628   -65.992204   -4014.4749 
 5893000     219.6234   -4766.2945   -4342.7322   -4766.2945            0    1714.0566    19.986749    20.265964    20.958727     8489.348    1402.0434    2158.8381    1581.2884    910.17857    1349.8796    1310.0163   -4130.5176 
 5894000    231.77934   -4790.0765   -4343.0705   -4790.0765            0     253.2994    20.239629    20.008988    21.172086    8574.1547   -790.67494    2281.4629   -730.88976    158.53309    1682.3989    94.016617   -4311.3966 
 5895000    229.21351   -4776.8819   -4334.8244   -4776.8819            0    1855.7145     20.04056     19.96822    21.158774     8467.198    1930.9582    2667.8032    968.38205   -759.65227   -775.93157    204.82856   -4105.6708 
 5896000    222.43937   -4790.8065   -4361.8135   -4790.8065            0    676.12711    20.143575    20.275314    20.907487    8538.9793     2509.071   -893.20137    412.51172   -296.70609   -525.27314   -148.30501   -4277.6138 
 5897000    211.86022   -4772.6753   -4364.0851   -4772.6753            0     1506.005    19.898011    20.111016     21.18962    8479.4337    87.376681    2875.6173    1555.0212   -402.82066    741.50179   -380.07928   -4177.8467 
 5898000    225.85779   -4793.2631   -4357.6773   -4793.2631            0    1246.3969    20.174142    20.092344    21.094514    8550.5727   -814.70969    2654.1309    1899.7695   -307.88512   -1847.0533   -280.02166     -4202.25 
 5899000     221.0963   -4744.4224   -4318.0196   -4744.4224            0    1468.8597    20.058193    20.299496    20.982494    8543.4676    645.09426    1962.2006    1799.2842   -688.98621   -1480.5581   -753.08092    -4135.003 
 5900000    214.27895   -4754.1669   -4340.9119   -4754.1669            0    2177.0834    20.118394    20.200229    20.822334    8462.1167     2276.154    2144.4702     2110.626   -210.81152    777.61258   -685.04301   -4072.2352 
 5901000    234.48418   -4750.9639   -4298.7414   -4750.9639            0    2413.4498    20.032324    20.098758    21.101898    8496.1482    3912.2434     914.7907    2413.3153   -176.05387   -235.40847    1039.7474   -3999.6967 
 5902000    233.81878   -4775.9081   -4324.9689   -4775.9081            0    1652.5337    19.954436    20.240988    21.093123    8519.4598    3964.5198   -615.50639    1608.5877    467.51038   -258.76257    15.414243   -4119.6456 
 5903000    219.50444    -4767.984   -4344.6512    -4767.984            0    3621.0838    20.175792    20.102107    20.834586    8450.0066    4179.7144    3340.9108    3342.6262   -625.22222    148.41142    1748.0323   -3898.4081 
 5904000    230.68987   -4784.7196   -4339.8148   -4784.7196            0    1225.8005    20.179356    20.133201    20.860516    8475.1066    1968.5432    321.85928     1386.999   -317.06216    346.00987   -33.582687    -4188.305 
 5905000    219.40659   -4771.1627   -4348.0187   -4771.1627            0    1312.4889    20.017583    20.092762    21.235113    8540.9436    2508.0759     1654.424   -225.03334   -575.73236    282.53646   -358.08569   -4184.5339 
 5906000    221.19395   -4787.3351    -4360.744   -4787.3351            0    2713.3082    20.153281    20.007586    20.886449    8421.8026    3021.6016    3286.8012    1831.5216   -688.80411   -783.12126    208.79594   -4027.4864 
 5907000    228.12274   -4770.5489    -4330.595   -4770.5489            0    1601.7485    20.163871    20.125408    20.948269    8500.9357    420.31903    2801.2691    1583.6572    94.115837     452.8846    525.71627   -4132.0143 
 5908000    210.09513   -4776.8058   -4371.6196   -4776.8058            0    507.15168    19.999968     20.27427    21.223759    8605.9108    1505.5003    803.12544   -787.17067    197.44262    34.511171   -260.90025   -4307.9679 
 5909000    217.59035   -4781.1315   -4361.4902   -4781.1315            0    2196.8806    20.085002     20.00682    21.128293    8490.1303    3584.3906    1435.6804    1570.5708   -95.319707    822.11787   -785.97993   -4089.4728 
 5910000    229.01284   -4774.3588   -4332.6882   -4774.3588            0     1963.458     20.12452     20.20309    20.878079    8488.5568    3469.7839    41.685072    2378.9051    305.00538   -533.33339   -292.76614   -4089.6182 
 5911000    216.33616    -4772.305   -4355.0825    -4772.305            0    101.50665    20.184632    20.193846    21.026884    8570.6708    819.17341   -669.45904    154.80558    -575.8169    1454.7027    54.934761   -4342.3947 
 5912000    232.98369   -4781.7345   -4332.4058   -4781.7345            0    1429.7136     20.33152    19.703081    21.199911    8492.5485    328.69655    3025.7106     934.7336    559.79111   -19.016781   -595.99311   -4155.3285 
 5913000    230.98554   -4779.1979   -4333.7229   -4779.1979            0    519.60191    20.218038    20.057611    21.054863    8538.2845   -673.38934    1359.0928    873.10227    552.26176    930.16727   -272.08451   -4269.0209 
 5914000    219.55327   -4776.2644   -4352.8375   -4776.2644            0    2674.9684     20.17268    19.987449     20.87643    8417.3849    3488.4628    2668.4095    1868.0328    311.85506   -23.131451   -51.477686   -4024.4613 
 5915000    226.03116   -4775.7467   -4339.8266   -4775.7467            0    1903.3418     20.00775    20.087999    20.991974    8437.0031     3322.649    1483.4895    903.88705    606.44842    223.36177   -576.65976   -4105.6298 
 5916000    231.26126   -4773.4156   -4327.4088   -4773.4156            0    501.84416    20.084978    20.179782    21.156544    8574.9692   -176.79203    650.44697    1031.8775    167.16584    829.01537   -325.26942   -4264.6496 
 5917000    231.80393   -4781.7969   -4334.7435   -4781.7969            0    1507.2638     20.13824    19.890236    21.161637    8476.3855     2887.076    707.78688    926.92854   -197.11723    190.93486   -417.43292   -4148.4165 
 5918000    237.11694   -4762.6913   -4305.3913   -4762.6913            0     1283.503    20.510189    19.914451    20.785772     8489.931    686.29212    1957.4176    1206.7994    93.966735    1143.4834   -765.87711   -4146.4719 
 5919000    232.38083   -4756.1971   -4308.0311   -4756.1971            0    2559.4772     20.28624    19.897929    21.040691    8493.1628    1823.8312    3079.1171    2775.4834   -931.36484     1008.197   -330.41905   -3991.0039 
 5920000    232.11611   -4772.7451   -4325.0896   -4772.7451            0    1102.3521    20.177988    19.898799    21.327048    8563.1876     992.4711     2204.234    110.35125   -540.81059   -273.11529    -664.2083   -4187.4221 
 5921000    232.49446    -4772.965   -4324.5799    -4772.965            0    1003.8181    20.172216    20.114872    20.999968     8520.979   -387.67215    2527.1228    872.00354   -338.80607    802.45833    849.29372   -4199.8357 
 5922000    229.97668   -4795.9047   -4352.3754   -4795.9047            0    1087.4643    20.267806    20.028016    20.887595    8478.7749     2857.833    277.09878    127.46107   -200.61273    193.86028   -67.525556   -4217.9058 
 5923000    210.88886   -4768.5342   -4361.8173   -4768.5342            0    2829.1913    20.110298    19.906527    21.180904    8479.2709    1608.1974    4135.0562    2744.3203    209.47955   -1107.8289    22.239073   -4011.9553 
 5924000    224.33342   -4766.7584   -4334.1125   -4766.7584            0    1126.3145    20.286891    20.223188    20.978856    8606.9034    1139.8505    633.40734    1605.6858   -174.14337   -1124.0635    380.68047   -4192.7343 
 5925000    223.36577   -4781.2952   -4350.5155   -4781.2952            0    1151.0452    20.206917    20.148296    20.877899    8500.1222    841.48473    1060.0622    1551.5888   -474.36266    1188.2459    77.494308   -4207.8255 
 5926000    214.41997   -4777.5122   -4363.9853   -4777.5122            0     2027.824    20.088523    19.952147    21.079018     8448.663    1088.6664    3313.8122    1680.9934   -3.0208062    413.35626    211.49282   -4114.1268 
 5927000     220.5961   -4756.4122   -4330.9741   -4756.4122            0      2040.38    20.168208    19.977601    20.979922     8453.071    2258.2421    2558.6714    1304.2266   -458.64676    87.144896    549.65152   -4079.4374 
 5928000    227.68792   -4779.5683    -4340.453   -4779.5683            0    3050.5606    20.072225    20.147527    20.960087    8476.3787    4214.7521     2028.284    2908.6458    505.54445   -598.15746   -767.33102   -3963.3448 
 5929000    239.50039   -4775.8269   -4313.9302   -4775.8269            0    4258.3896    20.074389    19.908318    21.157778    8455.6496    2587.5837    6084.3489    4103.2363   -644.00513    109.13898    264.01901   -3788.7985 
 5930000    230.41718    -4771.212   -4326.8331    -4771.212            0   -301.64969    20.158609    20.059475    21.056543    8514.6576   -225.37192    -180.6116   -498.96557    50.195203   -414.98765    665.84622   -4364.2912 
 5931000    229.82676   -4792.7642   -4349.5239   -4792.7642            0    2640.9448     20.17076    20.171539    20.771407    8451.3716    2450.8889     2258.007    3213.9384    396.43889   -1071.3997   -38.468325   -4024.0154 
 5932000      223.287   -4766.8686   -4336.2408   -4766.8686            0    1460.1461    19.889433    20.235995    21.118526    8499.8365    1845.3309    1359.8338    1175.2736    304.24918    -89.47589    51.352515    -4155.239 
 5933000    226.18483   -4798.7494   -4362.5329   -4798.7494            0    375.73801    20.347586    20.049399    21.039615    8583.2555    -1350.141     1814.033    663.32206   -496.75615    78.232186    1035.6663   -4315.4988 
 5934000    215.90217    -4774.749   -4358.3635    -4774.749            0    423.01026    20.026677    20.248538    20.994497    8513.4983    1078.0024   -80.333271    271.36164   -533.16494   -214.92203   -481.94865   -4305.8422 
 5935000    225.04867   -4749.3029   -4315.2776   -4749.3029            0    2544.2724    20.115138    20.102516     21.10491    8534.0841    3779.8976    1144.0433    2708.8764    161.20684    -584.7736   -721.44067   -3998.6153 
 5936000    238.34659   -4770.8625   -4311.1911   -4770.8625            0    2533.0853    20.237578    20.170559    20.699492    8449.6001    1952.9969    2254.0372    3392.2218   -201.84157    815.91866    632.40164   -3999.0421 
 5937000    216.41228   -4767.9191   -4350.5498   -4767.9191            0    1899.0165    20.131695    20.128628    20.985366    8503.7615       990.21    2312.3887    2394.4507    181.84836    564.51227    305.55255   -4115.0364 
 5938000    222.03011   -4750.4449   -4322.2412   -4750.4449            0    2163.7313    20.095253    19.959469    21.093405     8460.366    3252.7719    867.31686    2371.1051     175.2824    5.3061063   -1108.3755   -4055.2675 
 5939000    216.04406   -4776.4154   -4359.7562   -4776.4154            0    2554.2682    19.995418    19.924221    21.217566    8452.9324    3643.8402    2557.1166    1461.8479   -146.02029   -206.12959    -2075.845   -4044.8728 
 5940000     224.0639   -4732.0531   -4299.9271   -4732.0531            0    1657.1897    20.283192     20.17731    20.905256    8555.6902    72.438722    1744.5319    3154.5985    -141.9576   -21.414803   -72.662567   -4093.1496 
 5941000    225.11067    -4768.665   -4334.5201    -4768.665            0    875.95251    20.376022    20.197311    20.619672    8485.8374    776.49175    -459.1098    2310.4756    31.923304   -819.88964    421.86465   -4226.1147 
 5942000    227.35303   -4768.9712   -4330.5017   -4768.9712            0    11.987915     20.08668     20.19935     21.15476    8583.2873    1532.4657   -1428.4519   -68.049984   -303.40796     1049.466    -305.7594   -4329.0011 
 5943000    228.15271   -4771.7422   -4331.7306   -4771.7422            0    1025.9703    19.951606    20.138354    21.149568     8497.738    310.91632    2098.2466    668.74799   -193.42556    1363.6809   -764.69878   -4204.5812 
 5944000    232.08381   -4764.8204   -4317.2273   -4764.8204            0    3250.3664    20.088609    20.212666    20.913315    8491.7333     6329.866    898.27047    2522.9628    253.44812   -1183.8736   -687.32335   -3914.6914 
 5945000    221.14563   -4761.4706   -4334.9726   -4761.4706            0    1847.1265      19.8219    20.143585    21.239132    8480.4481    2639.3762    1586.4877    1315.5157    186.69129    906.45311   -359.13318   -4106.5226 
 5946000    233.10096   -4792.0107   -4342.4559   -4792.0107            0    641.08583    19.985819    20.191118     21.03524    8488.4774    822.16167    984.13332    116.96249   -62.307764    579.72982   -844.92846   -4263.0922 
 5947000    218.64488   -4760.9628   -4339.2878   -4760.9628            0   -164.77648    20.209233     20.18176    21.042327    8582.2789    174.97675   -450.15018   -219.15601    116.75604    309.33127   -131.26377   -4359.9118 
 5948000     223.0804   -4758.3025   -4328.0732   -4758.3025            0     1144.625    20.300088    19.993738    21.299011    8644.7286    1134.2211    1858.2009    441.45296   -467.35846    527.54174    -714.3127   -4183.7651 
 5949000    227.49165   -4750.7687   -4312.0319   -4750.7687            0    705.25917    20.113795    20.221227    21.091758    8578.5583    2335.6654   -926.04056    706.15268    997.71363    -739.9407    39.095104   -4223.7973 
 5950000    224.99291    -4785.648   -4351.7303    -4785.648            0    1536.3238    20.150511    20.010449    20.875767    8417.5427    964.79444    2239.8749    1404.3021   -648.27045   -157.65173    413.08112   -4163.1293 
 5951000    220.73381   -4768.3904   -4342.6867   -4768.3904            0    1793.3695    20.041434    20.356337    20.953075    8548.2298    3350.0155   -1439.1604    3469.2533    246.49418    876.04718   -1619.7405   -4119.1124 
 5952000    221.77231    -4760.768   -4333.0615    -4760.768            0    995.71927    20.111537    20.204405    21.041297    8549.9552    346.07454    1417.8052    1223.2781   -446.11621    663.90139   -345.39052   -4208.9029 
 5953000    225.30967   -4796.3741   -4361.8455   -4796.3741            0    1363.2349    20.264721    20.068611     20.96995    8528.1601    850.50123    2208.8165     1030.387   -337.52346   -247.48716    667.40787   -4192.2939 
 5954000    218.71178   -4780.2126   -4358.4086   -4780.2126            0    2169.3283    20.127079    20.034975    21.014376    8473.9529    1365.9683    2958.3213    2183.6952    487.72563   -25.028375   -30.696792   -4090.3145 
 5955000    212.69878   -4772.8889   -4362.6814   -4772.8889            0    1305.7737    19.860676     20.15063    21.314349    8530.1116    2968.4185   -232.24637    1181.1491    125.13686    -1333.472    1425.0776   -4200.2393 
 5956000    216.07669   -4780.1655   -4363.4434   -4780.1655            0    484.49122    20.196093    20.164378    21.090486    8588.9244   -1327.4294     1659.832    1121.0711   -14.896215    867.59037   -881.45856   -4302.7557 
 5957000    223.55763   -4774.5006   -4343.3509   -4774.5006            0    1138.1148    20.138324    20.108806    20.895452    8461.7731   -418.43955    1769.8546    2062.9294   -1011.8971   -699.13727    383.85513   -4202.9004 
 5958000     223.1682   -4755.9103   -4325.5116   -4755.9103            0    2005.0988     20.13809    19.965379     21.34047    8580.2475   -380.44483    5420.1787    975.56246   -157.40483   -117.40258   -1196.7192   -4074.6054 
 5959000    222.81804   -4769.9591   -4340.2358   -4769.9591            0    1453.2429    20.072548    20.073931    21.131069    8514.4458     991.6018    1983.4874    1384.6394   -512.25155   -396.58912    530.25316   -4159.7801 
 5960000    226.56617   -4738.7292   -4301.7773   -4738.7292            0    3582.1594    20.135483    20.179631    20.806391    8454.1902    4446.6886    3403.4096      2896.38   -672.85255    34.264248    425.08055   -3860.1125 
 5961000    232.44751   -4783.8491   -4335.5545   -4783.8491            0    2124.8715     20.07775    20.144167    20.887457    8447.9228     1912.378    1794.4392    2667.7973    110.28671   -1051.8684   -27.198406   -4073.7613 
 5962000    229.53202   -4781.3556   -4338.6838   -4781.3556            0    2953.7532    19.942673     20.12833    21.055472    8451.9342    2222.9576    3728.6506    2909.6513   -738.30205   -77.117632    329.61974    -3974.596 
 5963000     245.8258   -4790.4576   -4316.3619   -4790.4576            0    1243.5281    20.220117    20.119758    20.943291    8520.2305     928.1208     1253.741    1548.7224   -448.62029   -885.91605   -1033.5688   -4161.8425 
 5964000    222.54267   -4760.6924   -4331.5001   -4760.6924            0    1357.6722    20.210364    20.151062    20.849205    8491.0533    973.39671    701.91864    2397.7013   -737.36234   -419.41533    1914.2682   -4163.3751 
 5965000    211.15898   -4788.1925   -4380.9547   -4788.1925            0     702.4718    20.102895    20.061212     21.26873    8577.4327    1796.0601    -440.8422    752.19747   -102.92654    665.54293   -437.73905   -4293.0803 
 5966000    224.09606   -4788.4828   -4356.2947   -4788.4828            0    273.01166    20.033558    20.046468     21.18001    8505.9361    958.12956   -45.579915   -93.514682    -215.6717    390.58185   -718.44097   -4322.4276 
 5967000    218.22123   -4794.7736   -4373.9156   -4794.7736            0    3134.7336    20.262905    20.100608    20.741723    8448.0352    2179.8695    2321.6579    4902.6733   -259.37456   -1563.6355    967.87295   -3987.6978 
 5968000    228.72511    -4763.309   -4322.1934    -4763.309            0    1678.8278    20.019557    20.185945    20.896646    8444.6201    1980.8252    920.28711     2135.371    844.83046    -586.1566   -803.84149   -4115.4354 
 5969000    221.96307   -4751.6246   -4323.5502   -4751.6246            0    1171.2449    20.123439    20.166919    21.047422    8541.6282    3301.1785    33.213712    179.34244   -649.64594    784.01354    181.99465   -4177.6472 
 5970000    222.84441   -4800.3461   -4370.5719   -4800.3461            0    2235.8343    19.949501    20.190081    21.154006    8520.4537    4115.0483    1337.9411    1254.5137    374.26098   -482.54051    293.34528   -4092.7425 
 5971000    234.08194   -4796.8426   -4345.3959   -4796.8426            0     3083.904    20.141833    19.963179    20.984366    8437.7089    3076.1805    3261.6438    2913.8876     407.7643    1107.8741    529.94214   -3965.9051 
 5972000    223.82087   -4787.2575   -4355.6001   -4787.2575            0    1376.4487    20.225816    20.157019    20.866149    8506.9654    1251.2151    848.09737    2030.0335   -96.803714   -571.18308    34.516724   -4184.8305 
 5973000    219.73226   -4770.2488   -4346.4767   -4770.2488            0    1857.8712      20.1425    20.147366    21.039811    8538.3406    1274.3529    3678.2589    621.00168   -2.0890601    396.20163   -478.70455   -4115.1291 
 5974000    223.36861   -4768.5383   -4337.7532   -4768.5383            0    1880.2978    20.106025    20.209729    20.979529    8524.7651    3688.1401    654.11781    1298.6354   -425.59658    263.38887    677.74488   -4103.9852 
 5975000    220.06169   -4778.0965    -4353.689   -4778.0965            0    2957.1123    20.093543    20.262073    20.718794    8435.3843    3098.8407    1830.6986    3941.7977   -124.68285    1094.1309    468.61698   -3989.9009 
 5976000    221.17653   -4768.6842   -4342.1267   -4768.6842            0    3187.4427    20.109293    19.947943    21.005675    8426.1962     2509.941    4194.8703    2857.5169   -273.97551    -855.5964   -414.85357   -3950.4301 
 5977000    238.26887   -4742.5729   -4283.0513   -4742.5729            0    921.35348    20.120444    20.070071    21.123674    8530.1353    1899.0843   -149.25196     1014.228    189.01631   -1174.5893    1166.8546   -4168.4319 
 5978000    228.55497   -4752.8018   -4312.0144   -4752.8018            0    1099.1528     20.04065    20.210179    21.100977    8546.4259    2653.9637   -75.569849     719.0644    110.18755    99.379718    407.34032    -4175.015 
 5979000    227.72588   -4765.3008   -4326.1123   -4765.3008            0    1607.8157    20.229391    20.065648    21.027457    8535.3776    2428.3567    1145.0815    1250.0089   -161.03462    1537.6975   -865.88378   -4125.9718 
 5980000    241.26446    -4777.813   -4312.5142    -4777.813            0    623.30775    20.195367     20.13384    21.084315    8573.0996    1498.2373   -672.79046    1044.4765    249.65038   -381.86622   -734.67292   -4234.5821 
 5981000    238.27515    -4779.058   -4319.5243    -4779.058            0    1192.3502    19.980476    20.134113    21.160345    8512.5776    1414.7171    1156.1233    1006.2101    141.58562   -681.48424   -575.23579   -4171.4974 
 5982000    223.70522    -4766.182   -4334.7477    -4766.182            0    2279.4978     20.11177    20.144489    20.932532     8480.634    3754.2799     381.8185    2702.3949    565.01968   -125.65295    711.99745   -4052.8163 
 5983000    224.39749   -4780.6342   -4347.8647   -4780.6342            0    454.14203    20.348329    19.930448    21.107797    8560.2949   -489.30245    638.86502    1212.8635   -689.35399   -696.37204    55.744865   -4291.1682 
 5984000     227.4044   -4761.4719   -4322.9034   -4761.4719            0    1717.0153     20.25399    19.907843    21.107444    8510.8013    1723.7928    2330.0145    1097.2387    266.53814    72.996686    224.85021   -4109.7852 
 5985000    216.83563   -4777.5942   -4359.4084   -4777.5942            0    1003.0705    20.143684    20.127602    21.010174    8518.4501    1655.3957   -482.05466    1835.8704   -149.94186   -203.42022   -958.20854   -4234.7941 
 5986000    216.42645    -4769.242   -4351.8454    -4769.242            0    451.63309     20.09744    20.147581    20.972828     8492.208    1550.7897   -910.65952     714.7691   -146.83187    49.006846    1048.3212   -4295.9106 
 5987000    223.72636   -4768.4429   -4336.9678   -4768.4429            0    3670.4067    20.292379    20.063069    20.784348    8461.8772     2631.387    3482.4243    4897.4089   -361.23644   -1002.4888    1159.5687   -3884.0109 
 5988000    227.29307   -4766.3289   -4327.9751   -4766.3289            0    980.58074    20.156033    20.139527    21.085052     8559.118    702.71335    128.52871    2110.5002   -409.31619    936.17456   -493.82649   -4205.5732 
 5989000    218.03668   -4759.3297   -4338.8276   -4759.3297            0    3678.0833    19.915188    20.000793    21.159154    8428.1052    4017.4794    3788.1954    3228.5751   -83.330863    1142.4013   -1330.3077    -3886.735 
 5990000    222.19278   -4757.1559   -4328.6384   -4757.1559            0    1932.2386    20.068575    20.149782    21.052557    8513.1786    2450.7454    1445.5352    1900.4353    199.58772    1077.7434   -667.83768   -4088.7394 
 5991000    215.73541   -4777.2831   -4361.2192   -4777.2831            0     1055.736    20.020571    20.083421    21.084838    8477.8244    888.86445    1014.7549    1263.5885   -68.679279    822.96012    534.99951   -4230.6876 
 5992000    224.02176   -4766.1356   -4334.0908   -4766.1356            0    1256.2774    20.219756    20.200061    20.862548    8521.1054    1321.0405    2188.0211    259.77047   -16.986301    580.74106    670.68422   -4177.9712 
 5993000    230.20587   -4763.8079   -4319.8365   -4763.8079            0    1184.7563    20.239572    20.019077    21.074729    8539.0072    1076.3948    896.77955    1581.0945    395.26476    1252.9358    823.69942   -4172.2956 
 5994000    241.32583    -4788.204   -4322.7868    -4788.204            0    910.57997    20.278313     20.00651    21.026987    8530.6123   -1778.1791    2843.8569    1666.0621   -136.16221    487.71773    976.93986   -4209.5014 
 5995000    236.69373   -4756.9039   -4300.4201   -4756.9039            0    1598.1551    20.237052     20.13316    20.893335    8512.6929    1748.9675    1455.0091    1590.4887   -368.99006    321.93661   -1194.7043    -4102.011 
 5996000    227.72422   -4759.6518   -4320.4665   -4759.6518            0     1215.286    20.013246    20.176696    21.089475    8515.9554    1743.0718    1069.6058    833.18035   -176.69459   -367.65213   -663.54188   -4169.5323 
 5997000    219.48421   -4766.0072   -4342.7134   -4766.0072            0     377.3927     20.22605    20.035618    21.182643    8584.0839   -612.25367    835.49281    908.93898   -37.092754   -421.77028    1232.9064   -4295.4676 
 5998000    227.91689   -4750.5013   -4310.9444   -4750.5013            0    2158.3245     20.15287    20.264603     20.70877    8457.2525    3683.7781    249.60696    2541.5884    543.14253    215.49954    769.21427   -4044.7359 
 5999000     219.2562   -4778.8165   -4355.9625   -4778.8165            0    1807.1779     20.12555     20.14834    20.878168    8466.0226    2337.2926    1035.4988    2048.7421     264.3461    -856.7562    175.66555   -4132.8334 
 6000000    235.76342   -4747.5716   -4292.8821   -4747.5716            0    2369.6284    20.096314     20.01874    21.162997    8513.9346    2973.7102    2344.3324    1790.8426     323.4158   -1138.3082      1000.22   -3998.6524 
Loop time of 422.154 on 64 procs for 250000 steps with 972 atoms

Performance: 102.332 ns/day, 0.235 hours/ns, 592.201 timesteps/s
193.6% CPU use with 32 MPI tasks x 2 OpenMP threads

MPI task timing breakdown:
Section |  min time  |  avg time  |  max time  |%varavg| %total
---------------------------------------------------------------
Pair    | 27.511     | 35.018     | 44.545     |  67.0 |  8.30
Bond    | 1.0109     | 1.228      | 1.4923     |  10.7 |  0.29
Kspace  | 189.93     | 198.43     | 209.91     |  32.7 | 47.00
Neigh   | 2.0754     | 2.3138     | 2.5909     |  12.0 |  0.55
Comm    | 77.109     | 82.628     | 88.894     |  35.9 | 19.57
Output  | 0.65374    | 0.65466    | 0.65618    |   0.0 |  0.16
Modify  | 81.542     | 83.919     | 87.342     |  16.1 | 19.88
Other   |            | 17.96      |            |       |  4.25

Nlocal:        30.3750 ave          37 max          23 min
Histogram: 1 2 4 3 3 5 3 8 2 1
Nghost:        2555.59 ave        2601 max        2501 min
Histogram: 1 0 2 3 8 4 9 2 1 2
Neighs:        9263.16 ave       11856 max        6595 min
Histogram: 3 2 2 4 4 5 4 4 1 3

Total # of neighbors = 296421
Ave neighs/atom = 304.95988
Ave special neighs/atom = 2.0000000
Neighbor list builds = 6265
Dangerous builds = 0

unfix		3
unfix		2
unfix		1

write_data	data.final.${pid}
write_data	data.final.1
System init for write_data ...
PPPM initialization ...
  extracting TIP4P info from pair style
  using 12-bit tables for long-range coulomb (../kspace.cpp:340)
  G vector (1/distance) = 0.37177025
  grid = 24 24 25
  stencil order = 5
  estimated absolute RMS force accuracy = 0.0034854324
  estimated relative force accuracy = 1.0496276e-05
  using double precision FFTW3
  3d grid and FFT values/proc = 3458 576
Last active /omp style is kspace_style pppm/tip4p/omp
WARNING: Not all mixed pair coeffs generated from mixing. Use write_data with 'pair ij' option to store all pair coeffs. (../write_data.cpp:312)

write_restart   restart.lmp.${pid}
write_restart   restart.lmp.1
System init for write_restart ...
PPPM initialization ...
  extracting TIP4P info from pair style
  using 12-bit tables for long-range coulomb (../kspace.cpp:340)
  G vector (1/distance) = 0.37177025
  grid = 24 24 25
  stencil order = 5
  estimated absolute RMS force accuracy = 0.0034854324
  estimated relative force accuracy = 1.0496276e-05
  using double precision FFTW3
  3d grid and FFT values/proc = 3458 576
Last active /omp style is kspace_style pppm/tip4p/omp
Total wall time: 0:07:02
