LAMMPS (30 Jul 2021)
Processor partition = 1
  using 2 OpenMP thread(s) per MPI task
using multi-threaded neighbor list subroutines
variable        pid world 0 1
variable        phase world IceII IceIh

shell cd ${phase}
shell cd IceIh
include Restart.lmp
echo both
log log.lammps
#include		in.partitions
include		in.temp
variable        temperature equal 172.60
variable	tempDamp equal 100.0
include		in.pressure
variable        pressure equal 2085.2
variable        pressureDamp equal 1000.0 # This is 1 ps
include		in.seed
variable        seed equal 745823

units		real
atom_style	full
#include		in.box
read_restart	restart.lmp.${pid}
read_restart	restart.lmp.1
Reading restart file ...
  restart file = 30 Jul 2021, LAMMPS = 30 Jul 2021
  restoring atom style full from restart
  orthogonal box = (-0.016911057 0.26941372 0.10719047) to (18.224483 23.359764 22.106005)
  2 by 4 by 4 MPI processor grid
  restoring pair style lj/cut/tip4p/long/omp from restart
  restoring bond style harmonic/omp from restart
  restoring angle style harmonic/omp from restart
  864 atoms
  576 bonds
  288 angles
Finding 1-2 1-3 1-4 neighbors ...
  special bond factors lj:    0        0        0       
  special bond factors coul:  0        0        0       
     2 = max # of 1-2 neighbors
     1 = max # of 1-3 neighbors
     1 = max # of 1-4 neighbors
     2 = max # of special neighbors
  special bonds CPU = 0.002 seconds
  read_restart CPU = 0.008 seconds
include 	in.setup
variable	out_freq equal 1000
variable	out_freq2 equal 10000
variable	out_freq3 equal 1000

timestep	2.0

neigh_modify    delay 7 every 1

include		in.tip4p
# This is TIP4P/Ice

# create groups ###
group ox type 2
288 atoms in group ox
group hy type 1
576 atoms in group hy

# set charges - beside manually ###
set group ox charge -1.1794
Setting atom values ...
  288 settings made for charge
set group hy charge 0.5897
Setting atom values ...
  576 settings made for charge

# ### TIP3P Potential Parameters ###
pair_style lj/cut/tip4p/long/omp 2 1 1 1 0.1577 8.5
pair_coeff 1 1*2 0.000 0.000
pair_coeff 2 2 0.21084 3.1668
bond_style  harmonic
bond_coeff  1 450 0.9572
angle_style harmonic
angle_coeff 1 55 104.52
kspace_style pppm/tip4p/omp 1.0e-5
pair_modify tail yes

thermo          ${out_freq}
thermo          1000
thermo_style    custom step temp pe etotal epair emol press lx ly lz vol pxx pyy pzz pxy pxz pyz enthalpy

restart 	${out_freq3} restart.lmp.${pid} restart2.lmp.${pid}
restart 	1000 restart.lmp.${pid} restart2.lmp.${pid}
restart 	1000 restart.lmp.1 restart2.lmp.${pid}
restart 	1000 restart.lmp.1 restart2.lmp.1


include         in.dump
dump            myDump all atom ${out_freq2} dump.water.${pid}
dump            myDump all atom 10000 dump.water.${pid}
dump            myDump all atom 10000 dump.water.1
dump            myDump2 all dcd ${out_freq2} dump.dcd
dump            myDump2 all dcd 10000 dump.dcd
dump_modify     myDump append yes
dump_modify     myDump2 append yes


variable natoms 	equal  "count(all)"                        # NUMBER ATOMS
variable H      	equal  "enthalpy/v_natoms"                 # ENTHALPY-per-atom
variable Vol      	equal  "vol/v_natoms"                 # volume-per-atom
fix AVG all 		ave/time ${out_freq} 1 ${out_freq} v_Vol v_H file vol_enthalpy.dat
fix AVG all 		ave/time 1000 1 ${out_freq} v_Vol v_H file vol_enthalpy.dat
fix AVG all 		ave/time 1000 1 1000 v_Vol v_H file vol_enthalpy.dat


timer           timeout 23:50:00 every 1000
New timer settings: style=normal  mode=nosync  timeout=23:50:00

fix 		1 all shake 1e-6 200 0 b 1 a 1
Finding SHAKE clusters ...
       0 = # of size 2 clusters
       0 = # of size 3 clusters
       0 = # of size 4 clusters
     288 = # of frozen angles
  find clusters CPU = 0.001 seconds
fix             2 all nph aniso ${pressure} ${pressure} ${pressureDamp}
fix             2 all nph aniso 2085.2 ${pressure} ${pressureDamp}
fix             2 all nph aniso 2085.2 2085.2 ${pressureDamp}
fix             2 all nph aniso 2085.2 2085.2 1000
fix             3 all temp/csvr ${temperature} ${temperature} ${tempDamp} ${seed}
fix             3 all temp/csvr 172.6 ${temperature} ${tempDamp} ${seed}
fix             3 all temp/csvr 172.6 172.6 ${tempDamp} ${seed}
fix             3 all temp/csvr 172.6 172.6 100 ${seed}
fix             3 all temp/csvr 172.6 172.6 100 745823


run             250000
PPPM initialization ...
  extracting TIP4P info from pair style
  using 12-bit tables for long-range coulomb (../kspace.cpp:340)
  G vector (1/distance) = 0.37188852
  grid = 24 27 25
  stencil order = 5
  estimated absolute RMS force accuracy = 0.0031285825
  estimated relative force accuracy = 9.4216334e-06
  using double precision FFTW3
  3d grid and FFT values/proc = 4410 672
Last active /omp style is kspace_style pppm/tip4p/omp
Neighbor list info ...
  update every 1 steps, delay 7 steps, check yes
  max neighbors/atom: 2000, page size: 100000
  master list distance cutoff = 10.8154
  ghost atom cutoff = 10.8154
  binsize = 5.4077, bins = 4 5 5
  1 neighbor lists, perpetual/occasional/extra = 1 0 0
  (1) pair lj/cut/tip4p/long/omp, perpetual
      attributes: half, newton on, omp
      pair build: half/bin/newton/omp
      stencil: half/bin/3d
      bin: standard
Setting up Verlet run ...
  Unit style    : real
  Current step  : 13500000
  Time step     : 2
  Walltime left : 23:49:59.93
Per MPI rank memory allocation (min/avg/max) = 10.19 | 10.21 | 10.23 Mbytes
Step Temp PotEng TotEng E_pair E_mol Press Lx Ly Lz Volume Pxx Pyy Pzz Pxy Pxz Pyz Enthalpy 
13500000    182.69238   -4408.8441   -4095.7156   -4408.8441            0    1335.5816    18.241395     23.09035    21.998815     9265.905    120.82526    2031.4754    1854.4442   -219.08686   -252.26841   -258.22171   -3915.2335 
13501000    173.90955   -4423.3341   -4125.2591   -4423.3341            0    1833.2419    17.896357    23.467934    21.976962    9230.1158    1895.8601    1460.6566     2143.209    103.15437    52.813895      340.368   -3878.4831 
13502000    169.77049   -4415.4639   -4124.4831   -4415.4639            0     2543.184    18.023371    23.056594    22.118284    9191.4196    2613.9342    3526.9195    1488.6983   -1547.5672   -138.73436   -15.959643   -3783.5758 
13503000    177.10675   -4431.4298   -4127.8748   -4431.4298            0     2609.168    17.936604     23.41102    21.908532    9199.7037    2621.0247    2318.2285    2888.2508   -670.04336    492.64506     247.0485   -3777.8074 
13504000    164.22813   -4432.6669   -4151.1855   -4432.6669            0    2180.1313    17.952669    23.497258     21.95199    9260.1945    2642.9434    1977.0914     1920.359    35.755778   -393.54524   -240.68844   -3856.7578 
13505000    171.44445   -4409.1995   -4115.3496   -4409.1995            0    1918.4396    18.073111     23.26742    21.995986    9249.6346    645.40678    2466.8825    2643.0295    -627.6524   -232.60128   -51.713117   -3856.5589 
13506000    174.10238   -4411.0042   -4112.5987   -4411.0042            0    1700.6196    17.969114    23.581531    21.981007    9314.2148    2111.5414    1252.1024     1738.215    235.33086   -529.65257   -186.85089   -3881.5894 
13507000     167.4057   -4414.6957   -4127.7681   -4414.6957            0    1999.3643    18.072928     23.23298    22.098515    9278.9009      975.773    2992.0352    2030.2846    -340.8348   -320.22804   -220.76532   -3857.2076 
13508000    170.15481   -4402.8682   -4111.2287   -4402.8682            0    1843.1461    17.922563    23.514733    21.956022      9253.24    1567.2163    1435.7442    2526.4778   -317.48936   -73.121519   -753.13068    -3862.498 
13509000    178.20541   -4405.3838   -4099.9458   -4405.3838            0    2997.2141    18.116394    23.247454    21.867816    9209.8502     3265.462    2047.5618    3678.6185    532.05239    254.92354    443.94994   -3697.3713 
13510000    180.68056   -4423.5857   -4113.9054   -4423.5857            0    3128.5999    17.775347    23.338634    22.138043    9184.0185    3703.5894    4050.4643    1631.7459     533.5565    295.49349   -19.171372   -3694.8624 
13511000    172.63882   -4422.9111    -4127.014   -4422.9111            0    2450.3634    18.047203    23.467427    21.854318    9255.7718     2552.186    1824.5776    2974.3267    287.37081     165.5829    475.49445   -3796.2494 
13512000    169.50019    -4388.781   -4098.2635    -4388.781            0    1653.5082    17.966233    23.381986    22.036289    9257.1408     825.7358    1994.9862    2139.8026    114.45651    137.31713    646.20682   -3875.0301 
13513000    179.76682   -4414.9019   -4106.7877   -4414.9019            0    1883.6426    17.947733    23.249072    22.128264    9233.4193    2118.4901    813.14908    2719.2886   -592.12202   -129.84986   -41.214801   -3853.1365 
13514000    174.54409   -4436.2766    -4137.114   -4436.2766            0    1715.8079    18.107272    23.427683    21.829837    9260.4664    2251.2657    2007.1279    889.03004    172.68104   -92.318396    504.43834   -3905.3866 
13515000    178.10046   -4428.6708   -4123.4127   -4428.6708            0    1790.0572    17.904612    23.319233    22.078544    9218.2741    2319.2363    1810.7098    1240.2254   -61.307952    243.59939    424.50556    -3882.759 
13516000    176.53513   -4423.9202    -4121.345   -4423.9202            0    1041.4741    18.087516    23.402018    21.913512    9275.6472    518.99342    1007.5097    1597.9192    1374.0003     298.0072   -719.50421   -3980.4588 
13517000    175.22339    -4420.079   -4119.7521    -4420.079            0    2583.4854    17.984568     23.37851    21.901188    9208.4069    2503.7254    3100.2183    2146.5125    173.48378    540.81169    8.8603083   -3772.8025 
13518000    167.46663   -4433.2074   -4146.1754   -4433.2074            0    2083.7252    17.945248    23.303303    22.072456    9230.3376     1848.656    1593.2245    2809.2951   -2.8844193    655.99886    -119.0009   -3865.6747 
13519000    166.57463   -4408.9198   -4123.4166   -4408.9198            0    1573.1504    17.960071    23.628034    21.849986    9272.2856    1854.1375    1380.4466    1484.8672   -320.27372    624.81211    225.62606   -3910.6846 
13520000    173.73629   -4437.0392   -4139.2611   -4437.0392            0    1244.9393    18.011729     23.19292    22.148579    9252.4491    1227.4401    2500.9369    6.4409642   -346.33621   -654.34647    376.15281   -3971.2722 
13521000     172.6647   -4436.2609   -4140.3195   -4436.2609            0    1542.0258    18.018675    23.379008    21.970018    9255.0623    973.17645    2449.8866    1203.0145   -380.96165    593.62368   -411.99006   -3932.1837 
13522000    178.06682   -4414.3205     -4109.12   -4414.3205            0    2404.5044    17.874406    23.414619    21.939653    9182.2365    2487.9576    2034.8999    2690.6556    392.83954   -89.609489   -425.58825   -3787.1244 
13523000    164.60917   -4419.5779   -4137.4434   -4419.5779            0    2391.1356    18.189538     23.00262    22.016309    9211.7787    1534.6704    4106.9133    1531.8232    24.269957   -40.600757    -375.6287   -3816.2079 
13524000    183.28103   -4403.6589   -4089.5215   -4403.6589            0    2133.1268    17.879381    23.486397    22.048957    9258.8477    3145.9222    1950.4467    1303.0117    145.84098    944.50376    425.21545   -3801.4837 
13525000     172.6594   -4419.2443    -4123.312   -4419.2443            0    1856.0471     18.14817    23.191256     21.96834    9246.0096    2333.2136    2242.6214    992.30634    1154.7254    508.46625    469.48172   -3873.0359 
13526000    175.22353   -4406.4536   -4106.1265   -4406.4536            0    1145.5311    18.007424    23.457618    21.962836    9277.3493    749.52342    773.41387     1913.656    161.88407   -16.534421    747.98103   -3951.1354 
13527000    169.71141   -4399.2128   -4108.3333   -4399.2128            0    2808.4195     17.80612    23.475426    21.986925     9190.672    2396.1055    1939.6436    4089.5095    272.70846    173.81814    559.21226   -3731.9025 
13528000    166.65122   -4419.3102   -4133.6758   -4419.3102            0    2605.5274    18.112877    23.183641    21.951199     9217.801       1249.4    3390.1595    3177.0226   -844.07556    -436.9099   -34.980392    -3783.409 
13529000    172.01907   -4440.0499   -4145.2151   -4440.0499            0     2388.793    17.768055    23.539641    21.987178    9196.2171    3642.7058    2001.4583    1522.2148   -76.807032    75.182195     1199.245   -3824.8364 
13530000     172.0769   -4404.8831   -4109.9492   -4404.8831            0    1262.8843    18.110121    23.260331    22.039807    9284.2113    2213.9543    1121.8878    452.81072    74.291336    389.85452    650.42719   -3938.9537 
13531000      175.267   -4404.8743   -4104.4727   -4404.8743            0    1565.5877    17.918706    23.636279    21.845822    9252.3942    1979.9916    1410.8949    1305.8765   -353.79476   -663.81521    73.854375   -3893.2175 
13532000      178.319   -4417.5129   -4111.8802   -4417.5129            0     1804.383    18.035896    23.315501    22.002169    9252.2629    1617.0145    2455.9094    1340.2249    42.132185   -136.58208    604.21075   -3868.4062 
13533000    173.54681   -4415.3296   -4117.8763   -4415.3296            0     1775.879    17.859577    23.487816    21.991389    9225.0021    3244.3409    1859.6122    223.68402   -107.32196    130.49937   -110.46746   -3878.9545 
13534000    168.07533    -4427.491   -4139.4156    -4427.491            0    1763.5419    18.322781    22.945212     21.90674    9210.0334    1371.5948    3746.8157     172.2153     20.53809    34.285069    269.28597   -3902.5387 
13535000     169.3843    -4437.675   -4147.3561    -4437.675            0     2387.059    17.824582    23.519182    21.929425    9193.2446    2279.6371    1763.2801    3118.2597   -77.189594    419.24364    759.35281   -3827.3134 
13536000    167.05782   -4424.6905   -4138.3591   -4424.6905            0    1126.9536    18.062976    23.319421    22.002185    9267.7197    834.28988    2019.4738    527.09709     701.6089   -487.87307   -281.01229   -3986.0398 
13537000    173.54008   -4413.5682   -4116.1265   -4413.5682            0    2594.9049    17.998757    23.348017    21.900618    9203.4121    2392.3035    2350.7008    3041.7103    130.20651    553.81417    564.06717   -3767.8323 
13538000     178.9669   -4426.1517   -4119.4086   -4426.1517            0     2766.169    17.980347    23.296401    21.911094    9178.0612    2315.3168    3111.7137    2871.4764    313.45467    -11.33068   -279.14926   -3749.1497 
13539000    179.14985   -4429.2807    -4122.224   -4429.2807            0    1885.5433     17.99877    23.367687    22.016432    9259.8831    2914.6401    1607.3362    1134.6535     733.6778    114.76799    344.43405   -3867.5891 
13540000    174.28866    -4430.372   -4131.6472    -4430.372            0    1001.2591    18.047227    23.552888    21.794183    9263.9298    1328.1994   -77.323528    1752.9015   -824.11791   -46.242797    226.27475   -3996.3721 
13541000    168.38796   -4412.4574   -4123.8462   -4412.4574            0    755.44813    17.949879    23.146333    22.401742     9307.339    1597.9475     1278.896   -610.49905    471.02055   -270.91752    997.95683   -4021.3032 
13542000    184.18249   -4448.5734    -4132.891   -4448.5734            0    2043.8645    17.963534    23.449626    21.949797    9246.0925    3043.1145    1338.8635    1749.6156   -117.97518   -482.92501    51.758266   -3857.2865 
13543000    178.89208   -4422.8226   -4116.2077   -4422.8226            0    2129.8269    18.019601     23.38011     21.99429    9266.1997    1933.4676    2033.3696    2422.6436   -151.52716   -524.34177    138.72536   -3828.3871 
13544000    177.86624   -4423.8003   -4118.9437   -4423.8003            0    2047.0691    17.919457    23.366167    22.059007    9236.3051     2577.553    1314.4018    2249.2525    536.81958   -789.56937    45.569786   -3843.1993 
13545000    165.47794   -4437.8328   -4154.2093   -4437.8328            0    3036.2141    18.015783    23.273373    21.824551    9150.7734    3284.8854    2905.0423    2918.7146   -587.34126      505.772   -21.940783   -3749.0124 
13546000    174.46436   -4412.3697   -4113.3437   -4412.3697            0    2614.6681      17.8167    23.324211    22.218022    9232.9315    2794.8169    2637.4533    2411.7342   -592.93087    -445.6224    265.33334   -3761.2713 
13547000       164.58   -4420.0161   -4137.9316   -4420.0161            0    1134.2407    18.028199    23.487441    21.955257    9296.6517    69.726075    1108.6224    2224.3735    229.87589    481.92609   -68.115826   -3984.1489 
13548000    177.11004   -4423.8509   -4120.2904   -4423.8509            0    1401.1898    18.130999    23.233406    21.958082    9249.7287    1058.9143    2278.7745     865.8806   -748.14276   -206.76288   -281.57162   -3931.2729 
13549000    168.53154   -4403.0922   -4114.2349   -4403.0922            0    2191.0335    17.855251     23.44967    21.983928    9204.6652    2553.2832    2351.4654    1668.3521   -568.73372    169.26417   -10.209257   -3820.1093 
13550000    168.33328   -4417.3267   -4128.8092   -4417.3267            0    2948.9309    18.345967    23.087506    21.764862    9218.7825    2265.4402     2111.668    4469.6846    217.55775    262.61254    618.08097   -3732.3358 
13551000    172.73567   -4399.1275   -4103.0645   -4399.1275            0    2439.2845    17.871917    23.460289    21.967924    9210.7184    3032.4928    2033.7679    2251.5927    666.81115   -287.26328    91.608621   -3775.3981 
13552000     180.4154    -4436.368   -4127.1422    -4436.368            0     2474.903    18.000544    23.374078    21.858079    9196.7016    2141.8588    2987.4566    2295.3937   -203.00218    501.35846    498.80397   -3795.1972 
13553000    165.01513   -4417.3463    -4134.516   -4417.3463            0    2702.8986    17.986418    23.266639    21.988649    9201.8865    2542.9273    3255.9589    2309.8096   -672.59585   -555.02331    501.48147   -3771.7868 
13554000    177.48725   -4420.2151   -4116.0081   -4420.2151            0    1359.7959     17.92058    23.595526    22.030469    9315.4853    738.59425    1694.4966    1646.2969     1408.833    318.42728   -885.20371   -3931.2705 
13555000    165.21043   -4408.6373   -4125.4723   -4408.6373            0    1428.1751    18.159281    23.320327    21.950126    9295.4472    475.69029   -53.631296    3862.4662    218.51884    217.95391    106.52988   -3931.8623 
13556000    178.91085   -4407.5225   -4100.8754   -4407.5225            0    2199.8722    17.821302    23.511852    22.118125    9267.7556    2040.6113    1915.0911    2643.9142   -240.50718    172.37523    542.75934   -3803.5391 
13557000    169.02727   -4409.2336   -4119.5266   -4409.2336            0    2966.9147    18.075451    23.244062    21.953029    9223.4972    1565.0794    4845.8911    2489.7735   -1074.5784    219.14389    -815.3071   -3720.4314 
13558000    181.87252   -4437.4161   -4125.6928   -4437.4161            0     1962.134     17.86703    23.425282    22.123674    9259.6475    2811.4936    2187.1244    887.78397   -829.28267    233.85809    321.11486   -3860.7214 
13559000    175.25852    -4422.094   -4121.7068    -4422.094            0     1582.121    18.254334    23.270179    21.890824    9298.8199    1543.0636    2938.7206    264.57868   -37.912606    241.49321    -317.3308   -3907.1495 
13560000    173.53879   -4443.7784   -4146.3388   -4443.7784            0    2171.7665    17.878154    23.499831    21.975842    9232.7893    2663.3541    1216.7062    2635.2393     124.0796     16.04573    384.07364   -3853.9088 
13561000    166.71285   -4410.7295   -4124.9894   -4410.7295            0    2265.3471    18.081391    23.215768    22.037861    9250.9074    1579.1492    3282.1551    1934.7369   -989.56468    573.49177    311.00209   -3819.3601 
13562000    180.76322   -4422.1495   -4112.3276   -4422.1495            0    2059.8484    18.031601    23.285173    21.959145    9219.9634    684.54738    3344.3833    2150.6144   -188.11226     96.46147   -810.12329   -3835.3527 
13563000    177.26385   -4402.8634   -4099.0392   -4402.8634            0    2047.9802    17.870843    23.455456    22.043293    9239.8605    2774.5803    878.09729     2491.263   -1001.8027   -102.92826   -606.40913   -3823.0659 
13564000    171.91414   -4417.8057   -4123.1507   -4417.8057            0    2172.6588    18.051706    23.332156    21.953807     9246.619     2328.523    2641.0997    1548.3538    550.89604   -335.78597   -114.16644   -3830.1624 
13565000    166.58155   -4424.4312   -4138.9161   -4424.4312            0    3025.3307    17.985809    23.281938    21.941702    9187.9672    2146.0661    3193.1868    3736.7391    -690.4594   -129.29158    624.37917   -3733.5307 
13566000    182.58687   -4409.9419   -4096.9943   -4409.9419            0     2811.517    18.121669    23.149378    21.863701    9171.9396    2087.9328    3589.4303    2757.1878   -886.85899   -285.19841    213.33784   -3720.9164 
13567000    160.45745   -4424.7637   -4149.7452   -4424.7637            0    1772.2452    17.766607    23.582179    21.962668    9201.8156    2436.9204    504.57568    2375.2395   -313.24954   -556.88502   -304.18672   -3911.9116 
13568000    173.32834   -4426.0601   -4128.9812   -4426.0601            0    2676.9437    18.036509    23.153807    21.993882    9184.9497    3363.6299    3020.1861    1647.0151   -3.8441473   -238.05248   -392.53856   -3770.3964 
13569000     167.8873   -4440.9983   -4153.2452   -4440.9983            0    2131.3318    17.918905    23.652526    21.722822    9206.7265    2466.1098     1353.669    2574.2167      406.021   -481.20723     205.8463   -3867.0699 
13570000    172.38779   -4416.2979   -4120.8311   -4416.2979            0    1325.1281    18.116826     23.27486    21.925825    9245.3878    714.14842    1827.0569    1434.1789     809.8665    -50.77443   -106.66757   -3942.1582 
13571000    170.97675   -4420.7273    -4127.679   -4420.7273            0    2367.8485    17.905167    23.385758    22.042623    9229.8174    2825.9335    1793.8427    2483.7692   -891.07554    325.54574    797.14896    -3808.949 
13572000    179.10892   -4387.9834   -4080.9969   -4387.9834            0    3818.2042     18.07286    23.156542    21.863341    9149.9164    3729.0171    4402.7137    3322.8818    176.64939    170.06804   -1246.2302   -3571.4875 
13573000    156.76316   -4414.8791   -4146.1924   -4414.8791            0    1266.9451    18.010199    23.421039     21.96847    9266.6865    2662.0062    1490.1348    -351.3057    -694.2772    196.42482    204.64467    -3974.971 
13574000    174.97682   -4432.5838   -4132.6795   -4432.5838            0    2087.2668    17.955473     23.45667    21.954683    9246.7771    1386.0532    2294.7354    2581.0118    343.48158    114.12813   -98.858284   -3851.2016 
13575000    168.31849   -4417.5975   -4129.1054   -4417.5975            0    1467.2847    18.184994    23.110252    22.097234    9286.5792    943.82465    2368.5719    1089.4574   -597.91853   -182.33687    158.37543   -3930.3833 
13576000    169.67575    -4424.553   -4133.7345    -4424.553            0    1016.8999     17.99616     23.52343    21.946848    9290.7904    532.18334    1196.5062    1322.0101    637.44583    356.73168   -113.08065    -3995.948 
13577000    166.29006   -4419.0532   -4134.0378   -4419.0532            0    2135.2593      18.1318    23.160437    21.985792    9232.7225    908.07571    1694.8595    3802.8428    50.707274   -56.406304    154.52402   -3846.5255 
13578000    179.74154   -4404.4321   -4096.3612   -4404.4321            0    1471.7376    17.932557    23.499774    22.011002    9275.6792    984.13253    1598.6515    1832.4288    140.75864   -114.56655   -87.124002   -3897.2701 
13579000    168.34905   -4417.9887   -4129.4442   -4417.9887            0    1669.0929    18.123208    23.285649    21.907776    9245.3149    1634.6722    1214.0055     2158.601    358.18864   -62.600543   -85.160367   -3904.3947 
13580000    187.11002   -4417.9964   -4097.2962   -4417.9964            0    2979.7972    17.808255    23.378707    22.014487    9165.3788    3640.6872    2890.3444      2408.36    906.13456   -723.11623    739.87577   -3698.9938 
13581000     174.9479   -4424.1525   -4124.2978   -4424.1525            0    2288.0321    17.960817    23.375924    21.982709    9229.4557    2810.8224    2219.2036    1834.0702   -65.753452   -115.21164    403.79849   -3816.3238 
13582000    166.58638   -4424.6647   -4139.1413   -4424.6647            0    2730.0753    17.945586    23.222994    22.051886    9190.1289    3137.9935    3866.8831    1185.3492    353.77293    192.71398    659.00373   -3773.2332 
13583000    166.55081   -4424.9755   -4139.5131   -4424.9755            0    2938.2225    17.869921    23.422167    21.945341    9185.2724    2992.8337    2335.8127     3486.021    491.88941    59.781481    -524.2031   -3745.9154 
13584000    187.48753    -4415.311   -4093.9638    -4415.311            0    2589.4785    18.145201    23.110546    21.941663    9201.1375    2376.0834    3157.1228    2235.2291    439.47446    311.43997    93.361574   -3746.4839 
13585000    171.34059   -4420.2638   -4126.5919   -4420.2638            0    1158.9138    17.860777    23.526526    22.121654     9295.564    2160.8971    70.035808    1245.8085   -273.56329    208.71272    -33.07626   -3969.4823 
13586000    174.56109   -4423.6889   -4124.4972   -4423.6889            0    2155.5386    18.213777    23.166556     21.90296    9241.9642    1951.3337    3431.6907    1083.5914    26.177832    -634.2332    306.48088   -3833.9638 
13587000    171.78868   -4429.4477   -4135.0078   -4429.4477            0    2525.8689     17.86431     23.47095    21.996502    9222.9645    4247.6774    930.58058    2399.3486   -59.733147   -65.838245    929.13412   -3795.2595 
13588000    181.28156   -4414.0141   -4103.3037   -4414.0141            0    2551.4324    18.070657    23.247275    21.950119    9221.1032     2109.351    2567.5926    2977.3537    545.26271   -294.81185    255.98658   -3760.1862 
13589000    169.96172   -4439.2562   -4147.9476   -4439.2562            0    1683.7234     17.98261    23.501803    21.922725    9265.0645    1754.9918    2107.1122    1189.0663    7.5246327    63.727698    180.99131   -3920.4405 
13590000    172.60158   -4418.4468   -4122.6136   -4418.4468            0    2232.9569    17.912883    23.446404    22.076167    9271.8293     2282.694    537.26862    3878.9082   -344.05229   -607.30717    32.143748   -3820.6729 
13591000    169.71174   -4437.5545   -4146.6744   -4437.5545            0    1465.6496    18.057176    23.278981    22.030793    9260.7023    111.93616    1878.3265    2406.6863    459.63226   -266.50078    271.25994    -3948.727 
13592000    175.30689   -4412.6167   -4112.1467   -4412.6167            0    2221.7739    17.887075    23.467947    22.037848    9250.8919    2779.2352    2421.5336    1464.5529     442.9734   -54.576402   -358.14786   -3812.3966 
13593000    170.18724   -4430.4765   -4138.7814   -4430.4765            0    3008.3084     18.04991     23.20727    21.929921    9186.2054    3386.4109    4244.7243    1393.7902   -139.89893    -64.62425    30.524234   -3735.7541 
13594000    172.62182   -4424.3174   -4128.4495   -4424.3174            0    1957.7588    17.875112    23.681835     21.84597    9247.7363    3427.6315   -44.373829    2490.0186   -207.77718    494.07199   -165.69457    -3864.409 
13595000     170.4315    -4428.811   -4136.6972    -4428.811            0    1572.2882    18.080165    23.101972    22.082217    9223.4653    2108.7817    2754.9728   -146.88991    522.00084    300.92136    57.362409   -3925.2012 
13596000    182.22025   -4428.7548   -4116.4355   -4428.7548            0    2442.0113    17.810274    23.651318    21.874741    9214.4384    3290.5472    566.86926    3468.6175    79.556578    211.06399   -76.819863   -3788.2704 
13597000    173.31967   -4417.4242   -4120.3602   -4417.4242            0    3371.2133    18.006071    23.254936    21.878439    9161.1597    3976.4045    3563.4669    2573.7683    -268.3196    517.17664    350.73846   -3669.9455 
13598000    162.47533   -4427.4515   -4148.9743   -4427.4515            0    1725.7152    18.093297    23.353908    21.825406    9222.3077    1306.3086    1804.5589    2066.2782    853.55866    240.14266   -728.49437   -3916.8692 
13599000    172.15237   -4413.1878   -4118.1245   -4413.1878            0    3091.6173    17.837445    23.222498    22.162527    9180.3844    4400.6692    2300.4246    2573.7582    1046.1902   -253.40845   -125.34197   -3704.1987 
13600000    177.50587    -4442.399   -4138.1601    -4442.399            0    2088.9091    17.985111    23.373304    21.975249    9237.7682    2769.5146    2191.3785    1305.8342   -127.81309   -244.79224    245.36675   -3856.7352 
13601000    173.99557   -4444.0477   -4145.8252   -4444.0477            0    2318.6551    18.015515    23.363679    21.842934    9193.8812    1896.9125    2148.2907     2910.762    442.36825   -151.44739    5.1845299   -3834.9322 
13602000    174.68508   -4415.3258   -4115.9215   -4415.3258            0     2285.631    17.894158    23.322469     22.11805    9230.6571     2155.999    1772.4211     2928.473   -520.43582    351.34092    444.08452   -3808.2306 
13603000     178.6947   -4421.6565   -4115.3799   -4421.6565            0    2057.6398    18.138894    23.443851    21.736823    9243.4865    1665.5166    1595.6721    2911.7309    -708.9873   -375.86531   -15.595935   -3837.9961 
13604000    178.42002    -4432.993   -4127.1872    -4432.993            0    1456.8656    17.946169    23.413972    22.050743    9265.5258    2281.3895    146.46974    1942.7374   -349.75701    629.71343   -565.49627   -3930.3236 
13605000    182.34824   -4420.1621   -4107.6235   -4420.1621            0    2331.2835    17.890594    23.197557    22.206343    9216.0338     1698.285    2195.8251    3099.7404   -1154.2512    60.962446   -667.41071    -3794.284 
13606000     164.8853   -4427.8598   -4145.2521   -4427.8598            0    1947.4957    18.062514    23.505787    21.773195    9244.3237     1993.064     1137.285    2712.1381   -203.32114    443.75057     319.0925   -3882.6927 
13607000    175.10037    -4440.962   -4140.8459    -4440.962            0    2856.3326    17.816892    23.314678    22.161668    9205.8479    3450.4896     3292.803    1825.7052     612.6553    166.24291   -2.8747694   -3757.3608 
13608000       168.36   -4417.1624   -4128.5991   -4417.1624            0     266.6848    18.027708    23.400875     22.13249    9336.9037    214.76566   -240.99724      826.286     509.3744    644.12334    255.79427   -4092.2848 
13609000    164.06503   -4411.7974   -4130.5956   -4411.7974            0    4406.9747    18.230801    23.161903    21.704857    9165.0941     3140.835    4660.1828    5419.9063   -984.15299   -691.03199      303.588   -3541.5439 
13610000    169.52993   -4424.7697   -4134.2012   -4424.7697            0    1782.5091    17.832471    23.523656    22.092488    9267.4658    2158.8306    1907.9568      1280.74    386.49884   -70.767239    377.38801   -3893.2835 
13611000    178.92414   -4425.1564   -4118.4866   -4425.1564            0    2254.5936     18.13889    23.146829    21.970889    9224.6486    395.89523    4557.1009    1810.7846   -247.52758   -504.60946     177.1893   -3815.1715 
13612000    174.59846   -4419.8259   -4120.5701   -4419.8259            0      3266.55    17.956621     23.43743    21.759697    9157.7217    1471.1546    3032.7484    5295.7471   -165.14821   -242.88642    233.60757   -3684.3028 
13613000    169.52086   -4420.4227   -4129.8698   -4420.4227            0    1379.1821    17.889599    23.417747    22.132758    9272.1675    1280.5948    2528.3164    328.63528    1417.1717   -587.83222   -599.76321   -3943.3698 
13614000    182.09329   -4413.3594   -4101.2577   -4413.3594            0     1335.071    18.054361    23.518887    21.944564    9318.0671    711.76516    1131.7499    2161.6979   -1115.7347    198.82854    231.00074    -3919.829 
13615000    180.98348   -4417.8654   -4107.6659   -4417.8654            0    3052.8508     18.04666    23.331062     21.85602    9202.4281    2030.3175    4573.8056    2554.4294    -310.0091   -184.12539    725.72828    -3697.949 
13616000    174.86136   -4435.3666   -4135.6602   -4435.3666            0    2471.1254    17.927765    23.352483    22.009871    9214.6044    1852.7177    2119.7877    3440.8708   -300.37827    -60.63552    -399.5961   -3803.5767 
13617000    166.12291   -4434.4123   -4149.6834   -4434.4123            0    1378.2455    18.201096    23.398517      21.7914    9280.4918   -351.70037    2196.7303    2289.7064   -381.15609    -666.7872    897.09016   -3963.1427 
13618000    171.13592    -4433.136   -4139.8149    -4433.136            0    2271.2936    17.900734    23.298113     22.09652    9215.4271     3514.676    1741.8079     1557.397    679.25063    151.05191    313.35974   -3834.5586 
13619000     182.9954   -4432.3407   -4118.6928   -4432.3407            0    1415.1843    18.015062    23.382977     22.00231      9268.38    866.26046    1927.4175     1451.875    653.31323   -268.49486    47.326858   -3927.4026 
13620000    170.71177   -4425.9104   -4133.3163   -4425.9104            0    3054.0554    17.967975    23.381989    21.893047    9197.8603    2237.3679    3751.2637    3173.5347    16.320328    337.33069    287.07276   -3723.6411 
13621000    177.73237    -4444.916   -4140.2888    -4444.916            0    1095.5577    18.064283    23.426703    21.968373     9296.721    849.79944    18.188183    2418.6855   -98.668242   -169.53639   -23.862655   -3991.7497 
13622000    179.00636   -4414.9051   -4108.0944   -4414.9051            0    2022.4278    17.894948    23.349747    22.005947    9195.0197    2288.5028    2078.5053    1700.2753    -768.6677    47.733755    206.41172   -3836.8869 
13623000    160.71706   -4429.0599   -4153.5964   -4429.0599            0    1029.6602    18.268198     23.12947    22.069951    9325.2989    102.50815    1366.1683    1620.3042    328.56548    -254.5429    515.65655   -4013.5626 
13624000    173.54072   -4412.0986   -4114.6558   -4412.0986            0     1052.231    17.946677    23.610715    22.001416    9322.7455    905.50532    1365.1552    886.03251    244.73082      473.095    74.426974   -3971.5916 
13625000    192.73427   -4432.1219    -4101.782   -4432.1219            0    859.71118    18.236209    23.102119    22.033775    9282.7212   -181.17896    1314.9961    1445.3163      140.366   -879.02687    210.59035   -3985.3952 
13626000    178.40897   -4431.5179   -4125.7311   -4431.5179            0    2753.8882    17.874123    23.538301    21.921743     9223.058    2292.9331    2671.9814    3296.7501    339.12685    297.60519    351.42874   -3755.3088 
13627000    176.93729   -4422.3198   -4119.0553   -4422.3198            0    2474.4597    18.064547    23.135858    22.048942    9215.1081    2277.5108    3368.2727    1777.5955    -612.6746    386.67313   -340.12479   -3786.5055 
13628000    166.11141    -4407.196   -4122.4867    -4407.196            0    1730.3174    17.985816    23.386609    22.060576    9279.2793    1935.2355    1492.2927     1763.424   -1072.4482   -253.40808   -13.429999    -3888.325 
13629000    179.40263   -4411.3569   -4103.8669   -4411.3569            0    2380.3157    17.982404    23.388911     21.90977    9215.0047    2875.9316    2055.1864    2209.8292   -150.64877    425.03541    510.86779    -3783.973 
13630000    177.93839   -4452.7689   -4147.7886   -4452.7689            0     900.1649    18.062368    23.300539     22.14927     9321.806    713.64406    1093.7735    893.07719   -594.92517    65.720117     -139.846   -4025.4121 
13631000    167.54232   -4434.3695   -4147.2077   -4434.3695            0    1419.1662    18.017403    23.463351    21.923706    9268.2174    488.11761    630.26624    3139.1148    577.87679   -126.73222    34.474972   -3955.3827 
13632000    178.56372   -4408.6286   -4102.5764   -4408.6286            0     3054.767    18.014521    23.094138    22.082079    9186.8037    3233.7626    3240.4802     2690.058     318.9866    82.589374   -115.90941   -3693.2984 
13633000     164.2281   -4422.0672   -4140.5858   -4422.0672            0     1345.253    17.975878    23.382671    22.022274    9256.4911    1351.7696    437.44808    2246.5413   -293.94658   -884.63857    607.99088   -3958.9815 
13634000     168.4475   -4432.2491   -4143.5359   -4432.2491            0    922.76459     18.11939    23.376601     21.95806    9300.7703    2260.9583    143.68744    363.64804   -141.05953   -118.72672   -108.61393     -4018.37 
13635000    168.44716    -4441.639   -4152.9263    -4441.639            0    1204.4771    17.987184    23.456743    21.976651    9272.4049    1441.7178    1277.8836    893.83002   -238.33551    141.22534   -397.51831   -3990.0467 
13636000    164.79762   -4407.2605   -4124.8031   -4407.2605            0    1307.8212    17.952257    23.480018    22.030752    9286.3878    1953.4766    1068.3974    901.58965    147.01836    304.31662   -489.84987   -3947.6816 
13637000    164.30208   -4416.2816   -4134.6734   -4416.2816            0    3286.0921    17.924616    23.281817    22.020713    9189.6317    2940.3871    2900.0707    4017.8186   -254.78418   -383.27292   -362.47934   -3694.2669 
13638000    169.50923   -4415.7373   -4125.2042   -4415.7373            0    2516.7981    18.026236    23.465876    21.862027    9247.6682    2462.2704    3215.5255    1872.5985    279.94836    338.65367    219.22396   -3785.7693 
13639000    162.17492   -4436.6622   -4158.6999   -4436.6622            0      2722.49    18.000583    23.234257      22.0064    9203.7407    3739.9617    3618.2937    809.21459    595.11267    209.74788    299.01528   -3793.2679 
13640000    175.78291   -4426.6902   -4125.4044   -4426.6902            0    1463.6797    17.783896    23.646585    22.082862    9286.4706    2329.0626    2255.9472   -193.97065   -252.65917    64.511011    306.89396   -3927.1729 
13641000    166.25448   -4433.2049   -4148.2504   -4433.2049            0    1830.8053    18.060582     23.40497    21.963992    9284.3417    2798.8602    789.36954    1904.1861   -7.4638732   -143.21335     597.4008   -3900.3546 
13642000    166.78519   -4424.5556   -4138.6915   -4424.5556            0    2070.1535    17.904474    23.311166     22.16316    9250.3307     3178.214    2350.2793    681.96712    2001.0092   -145.12467   -346.89587   -3859.4141 
13643000    167.36925   -4424.3114   -4137.4462   -4424.3114            0    2308.6814    17.973126    23.532356    21.787762    9215.1343    1554.9593    2251.4007    3119.6842    -224.1029   -287.38875    -666.9424   -3827.1749 
13644000    165.06432   -4412.1262   -4129.2116   -4412.1262            0    2834.9798    18.050763    23.117236    21.920796     9147.192    2410.9706    2990.6754    3103.2933    747.12659    402.58798   -563.20046   -3751.0185 
13645000    180.00715    -4419.672   -4111.1459    -4419.672            0    2041.2072    17.806121    23.466901    22.111784    9239.5081    2316.8278    2252.9636    1553.8301    569.20688    303.32319    91.856593   -3836.0958 
13646000    167.93194   -4424.5806    -4136.751   -4424.5806            0    2643.8802    17.988284     23.34391    21.854214    9176.9532    3308.6299    3085.6774    1537.3334   -774.26687   -372.26828    121.80429   -3782.9035 
13647000    168.92766   -4433.3514   -4143.8151   -4433.3514            0    3247.1324    17.698415    23.269967    22.250897    9163.8433    3580.6497     3727.413    2433.3346    482.23634    141.62393   -724.05043   -3709.8513 
13648000    165.36403   -4436.2882   -4152.8599   -4436.2882            0    1758.7572     18.08291    23.311666     21.86836    9218.4489    1499.2953    2779.5346    997.44171     382.2137   -161.89133    287.26487   -3916.4097 
13649000    184.86704   -4420.1284   -4103.2726   -4420.1284            0    1010.0606    17.943803    23.467116    22.043147    9282.1332    92.984255    1793.5955    1143.6021     304.9394   -74.855086     771.9977   -3966.5403 
13650000    166.51626   -4416.1547   -4130.7515   -4416.1547            0    1527.0102    17.915491    23.219249    22.272427    9264.9787     3032.297    1204.7285     344.0051    482.83086     131.8881   -455.71395   -3924.4216 
13651000    184.28334   -4425.8132   -4109.9579   -4425.8132            0    2580.1572    18.087812    23.360703    21.764599    9196.5006    1570.3102    3742.3995    2427.7621    269.54402   -271.64842   -395.03522   -3763.9033 
13652000    165.48919   -4430.6456   -4147.0028   -4430.6456            0    1031.0355    17.973633    23.468972    22.056492    9303.9289    148.47104    1173.8963     1770.739    228.74994     159.9641    69.884569   -4007.1033 
13653000    179.24465    -4427.364   -4120.1448    -4427.364            0     3525.679    17.877971    23.495002    21.753651    9137.4682    3737.9776    2778.8222     4060.237   -698.96641   -198.21246    684.75101   -3650.3107 
13654000    170.94985   -4433.6613   -4140.6592   -4433.6613            0    2067.1046    17.994291    23.358031    21.971975    9235.0679      1730.09     1865.918    2605.3057   -142.64709    113.24919   -352.25037   -3862.2533 
13655000    177.72705   -4438.0045   -4133.3864   -4438.0045            0    1282.1181    17.871414    23.336016    22.174767    9247.9332     2740.647    698.20611    407.50121   -287.27567    686.82901   -203.02296   -3960.4651 
13656000    155.48651   -4427.5274   -4161.0288   -4427.5274            0    2047.9307    18.078007    23.446459    21.779321    9231.4968    3272.0955    1457.7462    1413.9505    338.20313   -241.30098    316.15084    -3885.312 
13657000    173.61023    -4440.277    -4142.715    -4440.277            0    578.17789    17.877904    23.476206    22.239611    9334.0835    299.63925    1138.5171    296.37735   -224.04026   -118.08964    299.82632   -4064.0088 
13658000    164.81218   -4419.9177   -4137.4353   -4419.9177            0    2537.5691    18.075714    23.296423    21.861727    9205.9617    1969.0616    3318.7024    2324.9434    308.61932   -374.72257   -612.41694   -3796.7425 
13659000    164.73644   -4411.0082   -4128.6556   -4411.0082            0    2957.2022    17.806391    23.423034    22.072178    9205.8571    4138.1308    3503.8628    1229.6131   -989.65941   -198.77632    698.51858   -3731.6275 
13660000    174.84837   -4407.4158   -4107.7317   -4407.4158            0    905.42916    18.068443    23.371683    22.048158    9310.7147    271.57904    1890.1764    554.53201   -647.21771      571.234   -38.255769    -3984.786 
13661000    164.81586   -4430.4861   -4147.9973   -4430.4861            0    1263.0263    18.049308    23.478642    21.835091    9253.1272    1726.6649   -272.96346    2335.3774   -514.85906   -256.74092    715.55755   -3977.5552 
13662000    167.90677   -4423.2882   -4135.5018   -4423.2882            0    2629.8939      17.8496    23.317551    22.078862    9189.4204    2000.2533    2574.5227    3314.9055    585.19129    604.35375   -152.62124    -3783.048 
13663000    172.42302   -4419.1269   -4123.5998   -4419.1269            0    919.96757    18.087061    23.362596    22.014628    9302.5167   -62.095909      1269.24    1552.7586     830.9528   -444.88921    399.81587   -3998.7899 
13664000    176.04776   -4439.3718    -4137.632   -4439.3718            0     1615.779    18.031594    23.413069    21.931466    9258.9158    600.84019    2170.7383    2075.7585   -384.62573   -336.96576   -157.02941   -3919.4504 
13665000    169.89383   -4422.3726   -4131.1804   -4422.3726            0    2053.3073    18.058199    23.287724    21.993291    9248.9342    1175.9745    3118.3739    1865.5736   -740.10681     277.4342   -539.12524   -3854.2176 
13666000    184.32267   -4433.4784   -4117.5557   -4433.4784            0    2111.2563    17.775228    23.448502    22.137083    9226.7904    3051.2717    1870.9982     1411.499    871.59819    -917.2693    258.99776   -3833.4581 
13667000    169.36729   -4437.7287    -4147.439   -4437.7287            0    1733.6836    18.156931    23.354329    21.814426    9250.2534     220.5882    1119.4377    3861.0248    236.61767   -232.62275   -235.60525   -3913.5556 
13668000    181.29955   -4410.5498   -4099.8086   -4410.5498            0    1741.2094    17.748619    23.496058    22.161309    9241.7666     1980.741    944.85838    2298.0288    553.10249   -311.63563    340.79088   -3865.1255 
13669000    176.56586   -4409.7166   -4107.0888   -4409.7166            0    1334.0817    18.019369    23.389626    22.056433    9296.0431    1267.4402     1490.741    1244.0638   -31.626977    688.34322   -766.82479    -3926.223 
13670000    179.73843    -4438.309   -4130.2435    -4438.309            0    1546.7152    18.139576    23.329575    21.932707    9281.6716    554.32113    2408.1432    1677.6811   -591.26823    450.33188    321.37944   -3920.8745 
13671000    166.85122   -4415.8417   -4129.8644   -4415.8417            0    2168.4632    17.830277    23.443459    22.065891    9223.6165    2468.4325    3346.8329    690.12418   -385.05996   -82.958341    701.28164   -3838.1692 
13672000    177.50831   -4440.5532     -4136.31   -4440.5532            0    1772.2636    18.189612    23.204884    21.917883    9251.2718    365.34642     1174.982    3776.4623   -594.90551    445.21609    480.24063   -3897.1957 
13673000    165.29664   -4420.9782   -4137.6654   -4420.9782            0    2318.4873    17.944008    23.472731     21.91031    9228.5104     2152.467      2239.45    2563.5448    94.589242    351.11344   -969.39112    -3825.624 
13674000    170.26785   -4433.5233     -4141.69   -4433.5233            0     2024.116    18.098863    23.205018    22.035417    9254.5324    1737.5131    2357.4149    1977.4202   -64.877054   -238.12509    150.01736   -3868.4994 
13675000    172.91293   -4415.6851   -4119.3183   -4415.6851            0    3122.4137    17.939855    23.425564    21.905238     9205.703    3310.6805    2061.6223    3994.9383     1010.473    926.39737    245.65763   -3700.1163 
13676000    164.46349   -4424.7337   -4142.8489   -4424.7337            0    2030.8448    17.838559    23.590887    22.017931    9265.7489    3373.3116    1184.2033    1535.0195    105.55556    633.88956    286.96147   -3868.4179 
13677000    179.85247   -4416.2639    -4108.003   -4416.2639            0    2094.7747    18.030171    23.328479    21.955108      9234.68    2725.0545    2205.3853    1353.8842   -781.74463   -472.70949   -244.64546   -3825.8822 
13678000    172.57586    -4411.197   -4115.4079    -4411.197            0    2952.7621    17.986962    23.469783    21.848444     9223.323    2258.4695    3194.7167    3405.1001   -1344.4207    305.32088   -436.71777   -3718.2239 
13679000    163.91483   -4408.7554    -4127.811   -4408.7554            0    891.17917    17.843082    23.367592    22.216287    9263.0778    1687.9743   -65.634732    1051.1979   -1235.1374   -309.08262    145.43052   -4007.4194 
13680000    172.19883   -4431.4352   -4136.2923   -4431.4352            0    1488.9065    18.048972    23.379157    21.931952    9254.6205    1058.1636      1794.43    1614.1258   -106.87343    201.03866    215.57346   -3935.3359 
13681000    176.93269   -4427.5984   -4124.3418   -4427.5984            0    970.55803    18.002867    23.333458     22.16967    9312.7943    699.44625    825.48504    1386.7428   -242.34911     190.2073    131.71951    -3992.523 
13682000    185.16665   -4419.1719   -4101.8026   -4419.1719            0    2607.2425    17.896465     23.56478    21.795659    9191.8017    4206.7678    2840.7596    774.20025    847.03338   -500.15244   -751.74468   -3752.2939 
13683000    167.46445   -4426.8018   -4139.7735   -4426.8018            0    2306.7755    18.038763    23.276804    21.876815     9185.741    2010.3206    2298.9443    2611.0615   -92.667992    313.46825    576.60757   -3830.7472 
13684000    169.72729   -4430.5472   -4139.6405   -4430.5472            0    2628.9034    17.931677    23.301953    22.033695    9206.6273     1691.367    3104.8301    3090.5132   -335.48979   -750.79223    57.340977   -3786.6597 
13685000    178.16088   -4416.4002   -4111.0385   -4416.4002            0    2668.4142    18.045788    23.426954    21.795917    9214.3947    2979.2167    2442.8754    2583.1506   -690.58219    344.36842   -201.66441   -3752.4504 
13686000    173.33588   -4407.3007    -4110.209   -4407.3007            0    2409.3212    17.857237    23.233886    22.191135     9206.947     2601.543    2338.7022    2287.7183   -569.73147    652.95792    507.58326   -3786.7001 
13687000    170.08182   -4431.5979   -4140.0835   -4431.5979            0     1905.989    17.986519    23.494339    21.811404    9217.0926    2649.0493    1031.9186     2036.999    104.93754   -432.77733   -214.49746   -3883.8769 
13688000    181.29461   -4417.8956   -4107.1629   -4417.8956            0    2157.5811    18.026375    23.124143    22.140853    9229.2921    2726.7425    2819.5762    926.42453    429.55891   -346.10572    251.01736    -3816.753 
13689000       165.87   -4430.2166   -4145.9211   -4430.2166            0    2650.7186    17.888356    23.536316    21.863714    9205.1926    2847.6251    1886.5519    3217.9788    10.495692    751.91049    711.47378   -3790.0667 
13690000    176.01009   -4402.0912   -4100.4159   -4402.0912            0    2885.1752    18.087388    23.189191    21.962444    9211.7491    3311.0917    3240.7566    2103.6774     -1481.77   -14.694883     1004.752   -3712.8102 
13691000    179.55904   -4429.6484   -4121.8904   -4429.6484            0    1326.4372    17.837058    23.375139    22.256988    9279.9107    3552.8829    779.09752   -352.66893   -314.88185    205.61826    530.98077    -3942.373 
13692000    178.15889   -4423.4426   -4118.0843   -4423.4426            0    2368.9171    18.034423    23.349736    21.859675    9205.0876    1050.2754    2416.6328    3639.8429   -1208.6828   -816.24756   -54.129486   -3800.0649 
13693000    172.58909   -4418.7746   -4122.9628   -4418.7746            0     1512.886    17.875843    23.361441    22.148315     9249.257    3553.8689    1570.0935   -585.30447   -461.46914   -98.520442    569.05249   -3918.8882 
13694000    176.21452   -4409.0801   -4107.0544   -4409.0801            0    966.13447    18.174543    23.260057    21.984776    9293.8638   -184.63267    1521.8413    1561.1948     467.9631    45.711324    75.358081   -3976.1032 
13695000    175.21382   -4433.5714   -4133.2609   -4433.5714            0    2955.9767    17.894644    23.294377    22.032506    9184.1306    3923.8403    2045.7864    2898.3034   -143.38078    132.82118   -202.76614   -3737.3341 
13696000    173.83062   -4423.8073   -4125.8675   -4423.8073            0     2360.439    17.932167    23.532339     21.80759    9202.4941    2098.8273    2262.1398      2720.35    502.43342   -417.79644    359.20338   -3809.0755 
13697000    171.22898   -4425.0747   -4131.5941   -4425.0747            0    1092.9997     18.09071    23.364469    21.968337    9285.5731    592.13244     1081.805    1605.0616     417.8202    299.54601    131.82889   -3983.5795 
13698000    170.64185   -4413.2877   -4120.8134   -4413.2877            0    1870.3146    17.912974    23.405383    21.994195    9221.2864    1604.6673    1580.2521    2426.0245    380.45252    189.26201   -565.54697   -3869.2879 
13699000    175.71772   -4414.5078   -4113.3337   -4414.5078            0     2145.971    18.025366    23.329842    21.892613    9206.4776    1757.2679    2007.8437    2672.8014    -504.0869    288.76981    485.54934   -3825.2005 
13700000    165.86088   -4410.9101   -4126.6303   -4410.9101            0    1251.5854    17.920533    23.261169     22.15886     9236.977    2119.0882    2914.7346   -1279.0665      179.783    135.64475    829.89958   -3958.0269 
13701000    174.24061    -4421.293   -4122.6505    -4421.293            0    2125.6227    17.923646    23.441408     21.89974    9201.2963    2042.1636    1749.4696     2585.235    203.94933   -436.79268    423.72394   -3837.4101 
13702000    177.88802   -4426.2196   -4121.3256   -4426.2196            0    2816.2907    18.113711     23.17428    21.922724    9202.5504    2083.0014    4198.9281    2166.9427   -273.72043    101.47591    237.66445   -3743.3519 
13703000    168.39732   -4427.3902    -4138.763   -4427.3902            0    3048.8116    17.781153    23.558216    21.909386    9177.6722    3999.5929    2472.0438    2674.7981   -159.87266    -61.84082   -245.58303   -3730.6889 
13704000    161.67798   -4414.1949   -4137.0844   -4414.1949            0    2591.1019    18.131742    23.064771    21.909177    9162.5158    1567.5773    2987.2474     3218.481      1334.86   -539.99918   -880.40278   -3790.8461 
13705000    165.58365   -4430.5829   -4146.7781   -4430.5829            0    2943.8802    17.941625    23.378623    21.933475    9200.0065    2405.2552     3300.181    3126.2044    879.53453   -45.841451    305.52841   -3751.7899 
13706000    167.16498   -4428.8175   -4142.3024   -4428.8175            0    1497.3564    18.045822     23.32246    21.964975    9244.4641    497.30645    1532.9408    2461.8221   -827.37897   -739.97773     641.5581   -3940.4273 
13707000     173.2675   -4427.1258   -4130.1512   -4427.1258            0    2308.2905    17.933188     23.46029     21.95328    9236.1354    2439.6513    1921.9447    2563.2757   -538.32734     86.24496    604.28342   -3819.2255 
13708000    177.46983   -4424.5012    -4120.324   -4424.5012            0    1153.8442    17.926272    23.530746    22.005699    9282.4121    1309.1116    1310.4031    842.01805    -862.0459   -498.37367    788.36084   -3964.1229 
13709000    171.60631   -4426.7197   -4132.5924   -4426.7197            0    2030.1971    18.112712    23.290218    21.950596    9259.8371    1878.9348     1561.469    2650.1876    494.20397   -108.82584    67.945093    -3858.424 
13710000    178.31792   -4413.2424   -4107.6116   -4413.2424            0    2025.7642    17.819554    23.592665    22.001293    9249.5805    2583.1799    596.66724    2897.4454   -587.62321    374.58099   -479.74368   -3834.3448 
13711000    165.50461   -4415.9211   -4132.2519   -4415.9211            0    2309.0512    18.098219    23.188813    21.979337    9224.2046    2021.4366    2189.3843    2716.3328    466.82322    344.39405    191.00191   -3821.6255 
13712000    176.90987   -4427.6762   -4124.4587   -4427.6762            0    2139.8876    17.827223    23.498444    22.008935    9219.8073    3366.5623    1523.4442    1529.6564   -933.01006     85.43689    140.41193   -3836.7264 
13713000    179.02253   -4423.2709   -4116.4324   -4423.2709            0    1773.3049    18.247663     23.03931    21.993527    9246.3771    701.31371    2580.0487    2038.5522   -237.54804   -562.56416    213.37583   -3877.3041 
13714000    172.83265   -4428.0084   -4131.7792   -4428.0084            0    2144.9034    17.917831      23.4902     21.90055    9217.7975    2155.5562    1499.3205    2779.8336    146.31386     175.0526   -222.41541   -3843.4353 
13715000    163.78761    -4445.706   -4164.9797    -4445.706            0    1135.6689    17.938217    23.327594    22.146429    9267.2935    1554.4725    1394.0595    458.47469    -246.2331   -144.80798    501.38709   -4011.4895 
13716000    172.67086   -4432.6288   -4136.6769   -4432.6288            0    1951.2027     18.13937    23.357765    21.830368    9249.4212    2122.8918   -246.11158    3976.8279   -222.30768    312.37481   -38.956626   -3873.4727 
13717000     160.8562     -4425.03    -4149.328     -4425.03            0    1876.2951    17.974681    23.526201    21.906419    9263.6981    2605.4078    1127.0089    1896.4687   -299.01891   -469.34802   -331.56717   -3895.8376 
13718000    171.01403   -4414.4491   -4121.3369   -4414.4491            0     1756.446    18.190003    23.014338    22.057136    9233.7983    857.47425    2023.6395    2388.2242    604.15369    81.235213   -74.630538   -3884.8043 
13719000    173.11282   -4413.0797   -4116.3702   -4413.0797            0    1219.2901    17.919318    23.588831    21.948764    9277.6496    1932.9577   -750.29096    2475.2037   -538.72014   -127.62451    485.45693   -3951.3942 
13720000    164.49148   -4428.2246   -4146.2918   -4428.2246            0    1457.0642    18.172141    23.119561    22.086284    9279.1527    516.92643    3255.0821    599.18405    -58.17959    253.96376   -1012.0261   -3949.1118 
13721000    171.05581   -4422.5882   -4129.4044   -4422.5882            0    2310.2745    17.867802    23.512608    21.978042    9233.3847    3541.2133    1866.8914    1522.7189   -765.44537   -433.96664    175.66331   -3818.3041 
13722000    171.79785   -4434.6846    -4140.229   -4434.6846            0    2084.5333    18.126382    23.223534    21.939231    9235.5087    1458.3398      1845.84      2949.42   -970.86259    922.19659   -147.31226   -3859.4623 
13723000    167.11076   -4421.3932   -4134.9711   -4421.3932            0    2361.3169    17.979289    23.425972    21.935704    9238.9307      1383.28    2991.7098    2708.9609   -367.14487   -79.569535   -96.238008   -3816.8065 
13724000    171.16854   -4422.9032   -4129.5262   -4422.9032            0    1181.7686     18.00404    23.368409    22.018711    9263.8394    753.40252    2653.1948    138.70832    1153.5165    360.69677    635.59645    -3969.865 
13725000    172.09016   -4431.1583   -4136.2016   -4431.1583            0    2551.0211    18.028207    23.228413    21.972462    9201.3338    2930.6401    3454.4411    1267.9821    -236.4747   -419.68052   -10.237783    -3793.875 
13726000    169.88514   -4409.7578   -4118.5805   -4409.7578            0    3429.5234    17.876822    23.171323    22.136434    9169.5671    4189.3208    3493.0286    2606.2208    854.89935    424.32228    511.83938   -3659.9547 
13727000    180.67172   -4392.6982   -4083.0331   -4392.6982            0    3221.5661    18.057553    23.432058    21.713196    9187.4096     3733.735     2434.126    3496.8372    22.294154   -347.54229   -726.24151   -3651.3788 
13728000    183.45426   -4420.4787   -4106.0443   -4420.4787            0    2512.9325    17.868275    23.377737    22.103608    9233.1159    2933.3894    4099.4952    505.91274   -203.51771   -631.74887   -847.58695   -3767.6641 
13729000    182.25249   -4433.8163   -4121.4417   -4433.8163            0    1881.3693      18.0942    23.375939    21.880319    9254.6948     1568.788    2434.1542    1641.1658    131.26488     27.78695    556.72169   -3867.5129 
13730000    174.84787   -4398.9493    -4099.266   -4398.9493            0    3126.1197    17.943369    23.299335    21.938771    9171.9109    2520.7415    3085.1939    3772.4236     424.9263   -435.69055    498.21999   -3681.1071 
13731000    176.44047   -4416.7286   -4114.3157   -4416.7286            0    1718.9333    17.904744    23.409792    22.074584    9252.4809    2917.7013    1990.5694    248.52923    370.00126    107.06601    444.54574   -3882.3664 
13732000    170.35771   -4417.7388   -4125.7516   -4417.7388            0    874.58102    18.064596    23.535806    21.846238    9288.2517    2074.1075    -301.7403    851.37583   -1357.3739    2.3921966   -49.472057   -4007.2812 
13733000    174.33602   -4436.1532   -4137.3472   -4436.1532            0     1135.224    17.928406    23.136652    22.328572    9261.9649    1424.9683    1869.5593    111.14448    149.83952   -474.58262   -122.64597   -3984.0054 
13734000    171.61923   -4409.3207   -4115.1712   -4409.3207            0    1630.8412    18.031907     23.45172    21.936476    9276.4802    2144.4299    1801.4906    946.60308   -646.30889    408.26922   -139.82031   -3894.5381 
13735000    168.14115   -4429.3355   -4141.1473   -4429.3355            0    2047.1888    17.958664    23.408161    21.940405    9223.2918    1472.6735    2713.6208     1955.272     543.1861   -204.82053    561.05763   -3865.7753 
13736000     168.8937   -4420.7832   -4131.3052   -4420.7832            0    3312.2363    17.942363    23.263188    22.038701    9198.8783    4311.7587    2828.3797    2796.5705    679.77736    249.36507    302.34555   -3686.9481 
13737000    172.80558   -4427.3588   -4131.1759   -4427.3588            0    1816.2841    18.024791    23.572516    21.765005    9247.7257    461.12957    1963.5989    3024.1239   -95.453088   -175.92254   -826.37587   -3886.2162 
13738000    173.84656   -4415.2396   -4117.2725   -4415.2396            0    2972.0661     18.03408    23.224757    22.031568    9227.6386    4121.1074    3125.1055    1669.9853   -65.089772   -197.23214    315.58516   -3717.3048 
13739000    168.78851   -4413.0902   -4123.7925   -4413.0902            0    1710.6898    17.887939    23.476453    22.039108     9255.221    2663.5571    1606.8595    861.65278   -511.54265   -644.58295   -19.474676   -3892.8872 
13740000    167.39083   -4409.2364   -4122.3342   -4409.2364            0    1508.0423    18.263034    23.146803    21.947793    9278.0089    879.27026    2018.3128    1626.5438   -451.44622    98.207652    170.95213   -3918.2806 
13741000    176.38313   -4444.1449   -4141.8303   -4444.1449            0    2489.2108    17.926394    23.552237     21.80806    9207.5085    2751.1555    2542.2961    2174.1809    814.88929   -183.42539    251.58951   -3807.5739 
13742000    172.02381   -4424.8462   -4130.0033   -4424.8462            0    1222.8795    18.194279    23.108128    22.009639    9253.6385    724.95511    1986.9913    956.69205   -481.93431   -98.684292     123.4454   -3964.9698 
13743000    179.68872   -4415.9705   -4107.9902   -4415.9705            0    1888.0741    17.920957    23.516583    21.951966    9251.4295    1919.9275    2175.7919    1568.5027    172.27554   -579.72096    431.15295   -3853.2463 
13744000    178.23078   -4424.3064    -4118.825   -4424.3064            0    1530.0401    18.100508    23.171638      22.1012    9269.6503    847.23635    2714.9047    1027.9794    727.27848     281.9786    309.62947   -3911.9814 
13745000    179.22234   -4415.0093   -4107.8283   -4415.0093            0    1644.0727    17.998285    23.490789    21.979632    9292.8547    2853.6061    1123.8686    954.74333    445.15903    117.32901   -302.12236   -3885.0125 
13746000    177.88823   -4434.6329   -4129.7385   -4434.6329            0    1361.0405    17.880008    23.333956    22.189017     9257.509    1726.1142    1645.0175    711.98974    22.230019    349.03378   -205.51912   -3945.9827 
13747000    167.81132   -4420.4449   -4132.8221   -4420.4449            0    2273.6631    18.102192    23.273218     21.89333    9223.5782    2675.8934    3115.6004    1029.4955   -576.13609   -355.11305    690.57208    -3826.977 
13748000    181.83725   -4419.3207   -4107.6579   -4419.3207            0    2363.5189     17.87894    23.379257     22.04619    9215.2267    1975.8584    2416.1338    2698.5644   -757.05926    150.15908     1436.592   -3790.0136 
13749000    169.02615   -4432.2887   -4142.5837   -4432.2887            0    2390.7367    18.139842    23.104547    21.991214    9216.8001    854.71973    4154.8659    2162.6245    127.45177   -97.497246   -341.64614   -3821.2267 
13750000    184.44982   -4419.6614   -4103.5208   -4419.6614            0    2545.5591    17.987186    23.422239    21.880494    9218.2554    495.00981    4226.8003    2914.8673     476.5774   -324.71639   -108.92153   -3761.2989 
Loop time of 385.343 on 64 procs for 250000 steps with 864 atoms

Performance: 112.108 ns/day, 0.214 hours/ns, 648.772 timesteps/s
192.2% CPU use with 32 MPI tasks x 2 OpenMP threads

MPI task timing breakdown:
Section |  min time  |  avg time  |  max time  |%varavg| %total
---------------------------------------------------------------
Pair    | 17.392     | 25.09      | 33.486     | 107.6 |  6.51
Bond    | 0.81878    | 1.0365     | 1.3757     |  12.3 |  0.27
Kspace  | 191.45     | 201.06     | 209.45     |  39.8 | 52.18
Neigh   | 1.0674     | 1.109      | 1.1584     |   2.2 |  0.29
Comm    | 59.876     | 62.533     | 65.093     |  16.0 | 16.23
Output  | 0.50145    | 0.50188    | 0.50349    |   0.0 |  0.13
Modify  | 70.34      | 72.497     | 76.619     |  16.6 | 18.81
Other   |            | 21.52      |            |       |  5.58

Nlocal:        27.0000 ave          38 max          18 min
Histogram: 4 5 3 4 0 3 6 0 1 6
Nghost:        2139.88 ave        2247 max        2037 min
Histogram: 11 5 0 0 0 0 0 0 8 8
Neighs:        6594.09 ave        9401 max        4178 min
Histogram: 3 7 2 4 0 4 5 0 5 2

Total # of neighbors = 211011
Ave neighs/atom = 244.22569
Ave special neighs/atom = 2.0000000
Neighbor list builds = 3641
Dangerous builds = 0

unfix		3
unfix		2
unfix		1

write_data	data.final.${pid} nocoeff
write_data	data.final.1 nocoeff
System init for write_data ...
PPPM initialization ...
  extracting TIP4P info from pair style
  using 12-bit tables for long-range coulomb (../kspace.cpp:340)
  G vector (1/distance) = 0.37192242
  grid = 24 27 25
  stencil order = 5
  estimated absolute RMS force accuracy = 0.0031309658
  estimated relative force accuracy = 9.4288107e-06
  using double precision FFTW3
  3d grid and FFT values/proc = 4410 672
Last active /omp style is kspace_style pppm/tip4p/omp

write_restart   restart.lmp.${pid}
write_restart   restart.lmp.1
System init for write_restart ...
PPPM initialization ...
  extracting TIP4P info from pair style
  using 12-bit tables for long-range coulomb (../kspace.cpp:340)
  G vector (1/distance) = 0.37192242
  grid = 24 27 25
  stencil order = 5
  estimated absolute RMS force accuracy = 0.0031309658
  estimated relative force accuracy = 9.4288107e-06
  using double precision FFTW3
  3d grid and FFT values/proc = 4410 672
Last active /omp style is kspace_style pppm/tip4p/omp
Total wall time: 0:06:25
