#include		in.partitions
include		in.temp
variable        temperature equal 260.77
variable	tempDamp equal 100.0
include		in.pressure
variable        pressure equal 8378.8
variable        pressureDamp equal 1000.0 # This is 1 ps
include		in.seed
variable        seed equal 745823

units		real
atom_style	full
read_restart	restart.lmp.${pid}
read_restart	restart.lmp.0
Reading restart file ...
  restart file = 30 Jul 2021, LAMMPS = 30 Jul 2021
  restoring atom style full from restart
  orthogonal box = (-0.11840191 -0.17175790 -0.062868019) to (24.848403 24.901759 22.872868)
  4 by 4 by 2 MPI processor grid
  restoring pair style lj/cut/tip4p/long/omp from restart
  restoring bond style harmonic/omp from restart
  restoring angle style harmonic/omp from restart
  1920 atoms
  1280 bonds
  640 angles
Finding 1-2 1-3 1-4 neighbors ...
  special bond factors lj:    0        0        0       
  special bond factors coul:  0        0        0       
     2 = max # of 1-2 neighbors
     1 = max # of 1-3 neighbors
     1 = max # of 1-4 neighbors
     2 = max # of special neighbors
  special bonds CPU = 0.002 seconds
  read_restart CPU = 0.008 seconds
include 	in.setup
variable	out_freq equal 1000
variable	out_freq2 equal 10000
variable	out_freq3 equal 1000

timestep	2.0

neigh_modify    delay 7 every 1

include		in.tip4p
# This is TIP4P/Ice

# create groups ###
group ox type 2
640 atoms in group ox
group hy type 1
1280 atoms in group hy

# set charges - beside manually ###
set group ox charge -1.1794
Setting atom values ...
  640 settings made for charge
set group hy charge 0.5897
Setting atom values ...
  1280 settings made for charge

# ### TIP3P Potential Parameters ###
pair_style lj/cut/tip4p/long/omp 2 1 1 1 0.1577 8.5
pair_coeff 1 1*2 0.000 0.000
pair_coeff 2 2 0.21084 3.1668
bond_style  harmonic
bond_coeff  1 450 0.9572
angle_style harmonic
angle_coeff 1 55 104.52
kspace_style pppm/tip4p/omp 1.0e-5
pair_modify tail yes

thermo          ${out_freq}
thermo          1000
thermo_style    custom step temp pe etotal epair emol press lx ly lz vol pxx pyy pzz pxy pxz pyz enthalpy

restart 	${out_freq3} restart.lmp.${pid} restart2.lmp.${pid}
restart 	1000 restart.lmp.${pid} restart2.lmp.${pid}
restart 	1000 restart.lmp.0 restart2.lmp.${pid}
restart 	1000 restart.lmp.0 restart2.lmp.0


include         in.dump
dump            myDump all atom ${out_freq2} dump.water.${pid}
dump            myDump all atom 10000 dump.water.${pid}
dump            myDump all atom 10000 dump.water.0
dump            myDump2 all dcd ${out_freq2} dump.dcd
dump            myDump2 all dcd 10000 dump.dcd
dump_modify     myDump append yes
dump_modify     myDump2 append yes


variable natoms 	equal  "count(all)"                        # NUMBER ATOMS
variable H      	equal  "enthalpy/v_natoms"                 # ENTHALPY-per-atom
variable Vol      	equal  "vol/v_natoms"                 # volume-per-atom
fix AVG all 		ave/time ${out_freq} 1 ${out_freq} v_Vol v_H file vol_enthalpy.dat
fix AVG all 		ave/time 1000 1 ${out_freq} v_Vol v_H file vol_enthalpy.dat
fix AVG all 		ave/time 1000 1 1000 v_Vol v_H file vol_enthalpy.dat




fix 		1 all shake 1e-6 200 0 b 1 a 1
       0 = # of size 2 clusters
       0 = # of size 3 clusters
       0 = # of size 4 clusters
     640 = # of frozen angles
  find clusters CPU = 0.001 seconds
fix             2 all nph aniso ${pressure} ${pressure} ${pressureDamp}
fix             2 all nph aniso 8378.8 ${pressure} ${pressureDamp}
fix             2 all nph aniso 8378.8 8378.8 ${pressureDamp}
fix             2 all nph aniso 8378.8 8378.8 1000
fix             3 all temp/csvr ${temperature} ${temperature} ${tempDamp} ${seed}
fix             3 all temp/csvr 260.77 ${temperature} ${tempDamp} ${seed}
fix             3 all temp/csvr 260.77 260.77 ${tempDamp} ${seed}
fix             3 all temp/csvr 260.77 260.77 100 ${seed}
fix             3 all temp/csvr 260.77 260.77 100 745823


run             250000
PPPM initialization ...
  extracting TIP4P info from pair style
  using 12-bit tables for long-range coulomb (../kspace.cpp:340)
  G vector (1/distance) = 0.37427225
  grid = 30 30 30
  stencil order = 5
  estimated absolute RMS force accuracy = 0.0032957533
  estimated relative force accuracy = 9.9250631e-06
  using double precision FFTW3
  3d grid and FFT values/proc = 5400 960
Last active /omp style is kspace_style pppm/tip4p/omp
Neighbor list info ...
  update every 1 steps, delay 7 steps, check yes
  max neighbors/atom: 2000, page size: 100000
  master list distance cutoff = 10.8154
  ghost atom cutoff = 10.8154
  binsize = 5.4077, bins = 5 5 5
  1 neighbor lists, perpetual/occasional/extra = 1 0 0
  (1) pair lj/cut/tip4p/long/omp, perpetual
      attributes: half, newton on, omp
      pair build: half/bin/newton/omp
      stencil: half/bin/3d
      bin: standard
Per MPI rank memory allocation (min/avg/max) = 10.54 | 10.55 | 10.55 Mbytes
Step Temp PotEng TotEng E_pair E_mol Press Lx Ly Lz Volume Pxx Pyy Pzz Pxy Pxz Pyz Enthalpy 
  750000    266.43117   -9094.4573   -8078.7001   -9094.4573            0    8670.8409    24.966805    25.073517    22.935736    14357.899    8872.1862    7634.6265      9505.71   -417.10595   -50.289136   -323.50877   -6263.0674 
  751000    255.62807    -9087.365   -8112.7943    -9087.365            0    8563.8659    24.710542    25.087935    23.135961    14342.826    9976.7216    7793.6574    7921.2188    390.16706   -957.26327    -218.6902   -6321.4441 
  752000     262.2474   -9100.7351   -8100.9285   -9100.7351            0    7747.7769    24.915807    25.086359    22.968673    14356.498    7889.5774     7388.626    7965.1273    276.76421    316.62334    672.24126   -6478.7393 
  753000    263.09962   -9107.5217   -8104.4659   -9107.5217            0    8388.0593    24.862673    25.042527    23.016901    14330.879    9139.0231    7406.3786    8618.7762   -698.06684   -403.62688      386.613   -6351.3517 
  754000    253.87133    -9110.388   -8142.5147    -9110.388            0    7986.3182    24.876155    24.978921     23.13174    14373.589    7834.4574     8654.486    7470.0111   -226.45756   -691.33696    154.06569   -6468.3903 
  755000    252.80734   -9053.2519    -8089.435   -9053.2519            0    7873.2572    25.021339    25.110857    22.908419    14393.526    8248.3393    7124.3351    8247.0972   -340.76464   -399.23095    717.23105   -6436.7217 
  756000    264.09762   -9076.4444   -8069.5838   -9076.4444            0    7840.1078    24.947158    25.041154    23.087864    14423.118     8421.324     8046.443    7052.5564   -221.10014   -598.77797    343.77272   -6420.4455 
  757000    256.98799   -9125.5629   -8145.8075   -9125.5629            0    7380.8082     24.95176    25.016112    23.093058    14414.595    6892.9771     7390.489    7858.9585    293.84154   -722.27985    328.56748   -6594.1987 
  758000     255.8845   -9107.6833   -8132.1349   -9107.6833            0    7658.9497    25.002283    25.003721    22.990963    14372.804    7089.3499    7545.5958    8341.9033    -472.7591    67.444991    52.149786   -6526.7226 
  759000    267.54789   -9085.6422   -8065.6277   -9085.6422            0    6433.3025    25.059702    24.904065    23.151005    14448.274    6216.7456    8143.4606    4939.7014    120.61407   -201.86467   -486.46507   -6710.0455 
  760000     258.7323   -9080.6509   -8094.2454   -9080.6509            0     8035.566    25.060175    24.881594    23.094369    14400.196    6585.0909    9934.6987    7586.9083    110.73405    557.95991    322.18941   -6406.6794 
  761000    261.39773   -9116.7096   -8120.1423   -9116.7096            0    8484.6105    25.115914    24.964136    22.890142    14352.052    7549.7223    8487.5874    9416.5218    669.11202    997.94249     597.3579   -6344.2288 
  762000    260.29612    -9063.581   -8071.2135    -9063.581            0    6563.3387    25.108308    24.883901    23.188873    14488.238    7073.5055    6596.1208    6020.3899    1192.6682    989.54124   -287.63248   -6684.4056 
  763000    266.07531   -9099.2998   -8084.8994   -9099.2998            0    6948.9622    24.971626    25.011699    23.120088    14440.409    7127.8444    6491.5811    7227.4612    113.90153   -850.49449   -924.94524   -6621.4579 
  764000    253.35598   -9126.7455   -8160.8369   -9126.7455            0    6797.6911     25.07913    25.103037    22.884547    14407.249    6887.8175    6479.7737    7025.4822    411.75732   -514.09846   -233.99754   -6732.5404 
  765000    260.41498   -9101.8171   -8108.9964   -9101.8171            0     7319.474    24.975604     24.97489    23.112603    14416.786    7122.9922    8189.1663    6646.2633   -383.16307   -791.57671    1242.5216   -6570.0475 
  766000    267.61901   -9110.0999   -8089.8142   -9110.0999            0    8450.4119    24.914201    25.059935    23.012515    14367.824    8545.2114    7961.1876    8844.8366    392.43108   -796.48542    129.02904   -6319.1151 
  767000    266.66033   -9104.5968    -8087.966   -9104.5968            0    8900.3099    24.849592    25.124876    22.944336    14325.134    8965.7012    8449.8407    9285.3878   -990.23187   -612.10043    1126.5253   -6228.5366 
  768000    256.16881   -9117.9998   -8141.3674   -9117.9998            0    7885.6966    24.804187    25.009416    23.163871    14369.435     8189.645    8295.0343    7172.4106    951.89524    -656.7984    190.13164   -6488.8135 
  769000    263.45169   -9117.6725   -8113.2745   -9117.6725            0    8535.6799    24.903027    25.042141    22.963272    14320.473    9077.1564    8793.2454    7736.6379     154.7734   -1212.0035    788.86479   -6330.6027 
  770000    260.64116    -9129.879    -8136.196    -9129.879            0    8329.3147    24.917817    25.143414    22.892985     14342.89    7823.6654    8133.5039    9030.7747    531.91167    600.31109   -701.44058   -6393.9005 
  771000    254.98416   -9099.0399   -8126.9239   -9099.0399            0    8087.7481    24.893631    25.025641    23.099153    14390.289    8998.0704    7509.0639    7756.1101    665.89404    330.84697   -470.10778   -6429.5676 
  772000    255.17907    -9047.186    -8074.327    -9047.186            0    8257.2101    24.874594    25.122218     23.03986    14397.723    9994.3441    6376.9016    8400.3846    343.62966    110.73503    831.79216   -6340.5109 
  773000     262.1671   -9155.7765    -8156.276   -9155.7765            0    7270.8121    24.895429    24.983022    23.106262    14371.241    8416.8956    7361.7415    6033.7993    58.585003   -93.738633     484.0926   -6632.3879 
  774000    267.53158    -9058.873   -8038.9206    -9058.873            0    8428.9695    24.908932    25.091877    22.968801    14355.773    9712.3103    7020.2378    8554.3604    -249.8007   -1363.2529    880.29905    -6274.196 
  775000    256.37627   -9075.2686   -8097.8453   -9075.2686            0     7752.627    25.016339    25.088076    22.948245     14402.59    7950.3887    7555.8887    7751.6036    469.99161   -145.34963     -616.296   -6469.4293 
  776000    261.76303   -9068.9377   -8070.9776   -9068.9377            0    6662.7072    25.010625    24.990403    23.113168    14446.322    7510.3366     5993.416    6484.3689    -45.45294   -146.03486    143.10821   -6667.2466 
  777000    266.03593   -9114.5401   -8100.2899   -9114.5401            0    7632.8919    24.859081    25.079963    23.079131    14389.026    8335.6525    7414.2864    7148.7368    20.731126    342.88662    -140.2854   -6498.5337 
  778000    257.56468   -9113.7074   -8131.7533   -9113.7074            0    7200.5167    24.986393    25.075059    23.006636    14414.469    8056.1494    6866.1614    6679.2393   -314.72486   -365.09297    150.11123   -6618.0589 
  779000    254.56949   -9107.4583   -8136.9233   -9107.4583            0      6722.74    25.050894    24.995843    23.063016    14441.327    6818.9554    7475.1767    5874.0879    -980.1646    -889.6604    362.41535    -6721.034 
  780000    259.63269   -9063.5209   -8073.6827   -9063.5209            0    7937.7658     24.99305    24.944561    23.097257    14399.769     7295.958    8673.6124     7843.727    334.39938   -753.98056    -812.7382   -6406.7054 
  781000    267.54737   -9072.1862   -8052.1736   -9072.1862            0    6852.9788    25.099238    25.014812    23.012957    14448.747    5573.1543    7356.4585    7629.3236   -259.93359   -1219.1586   -619.24479   -6608.1128 
  782000    261.81886   -9075.0098   -8076.8369   -9075.0098            0    7975.0721    25.061095    24.949933    23.008035    14386.295    6995.1021    9134.9697    7795.1444   -15.354182   -240.80992    -37.54947   -6403.5922 
  783000    258.13099   -9080.0346   -8095.9216   -9080.0346            0    7670.7403    25.100836    24.827962    23.104853    14399.004    7136.9068    9370.5326    6504.7813   -45.742064    604.93545   -444.90979   -6485.1068 
  784000    256.36303   -9134.9339   -8157.5612   -9134.9339            0    7321.5267    25.146677    24.947821    22.924337    14381.693     7465.442    6830.6999    7668.4381   -736.32516   -489.42796    1059.5709   -6621.9278 
  785000    253.84441   -9143.4314   -8175.6607   -9143.4314            0    8501.0624    24.959255    24.890992    23.070352    14332.701     8208.989    9222.2416    8071.9565   -473.25238   -644.06088    -956.4805   -6398.7029 
  786000    255.83163    -9093.545   -8118.1982    -9093.545            0    8324.0516    25.030044    24.976377    22.985182    14369.412    7693.4517    9130.6217    8148.0815   -386.32149   -313.92127     947.7843   -6373.7838 
  787000    256.54188   -9101.7261   -8123.6715   -9101.7261            0     7440.368    24.978538    25.058585    23.069218    14439.642     7517.226    7538.1288    7265.7491     59.47934   -358.57702    326.94149   -6556.8239 
  788000    259.90125   -9077.1833   -8086.3212   -9077.1833            0    8112.3373    25.026998    24.979655    23.025606    14394.821    7767.2285    7834.4324    8735.3512    885.13197    602.95095    281.58167   -6383.2682 
  789000    255.93921   -9116.4375   -8140.6805   -9116.4375            0    6179.0672    25.088262    24.909978    23.169897    14479.982    5433.1656    7152.2637    5951.7722     279.2154   -1053.6969   -610.25639   -6835.8118 
  790000    259.94574   -9115.9269   -8124.8952   -9115.9269            0    8484.8072     25.01669    24.971606    22.916995    14316.406    7420.9445    8878.5187    9154.9585   -918.71335    722.97367   -178.29277   -6353.3515 
  791000    264.91289   -9172.2393   -8162.2705   -9172.2393            0    8302.1428    24.897879    24.912686    23.073659    14311.969    7932.9578    9497.4184    7476.0522    1469.5153   -909.45162    306.76105   -6429.4025 
  792000     261.7866   -9113.3326   -8115.2827   -9113.3326            0    8829.1874    24.902523      24.9112    23.074113    14314.065    8992.3646    9028.4184    8466.7793    -109.9194   -471.69404    2.0769185   -6272.1372 
  793000    265.00152   -9100.3694   -8090.0628   -9100.3694            0    8890.3228    24.974423    25.019207    22.939049    14333.242    8288.9974     8822.074    9559.8969   -771.67381    -652.1077    446.00835   -6231.6686 
  794000    268.04522   -9144.6989   -8122.7883   -9144.6989            0    7320.4052           25    25.044362    22.981505    14388.929    6610.2429    8074.3662    7276.6066   -593.17416   -502.05743   -704.25977   -6586.6176 
  795000    252.12478   -9140.3995   -8179.1848   -9140.3995            0    7779.9554    24.868498    25.071144     23.02691    14356.857    8553.0721    7387.2488    7399.5454    562.65366    55.878004    145.67614   -6550.2175 
  796000     268.8472   -9087.2524   -8062.2842   -9087.2524            0     8350.823     24.90504    24.987677    23.094291    14372.018    9258.8055    8392.8971    7400.7664   -832.26551   -579.91395   -1206.0453   -6311.9421 
  797000    255.01646   -9101.7468   -8129.5078   -9101.7468            0    8948.1626    25.040049    24.920991    22.887949    14282.602     7360.898     9439.246    10044.344   -113.09169   -654.46912    171.74149   -6265.6314 
  798000    256.66715   -9106.5341   -8128.0019   -9106.5341            0    7723.9543    25.024086    24.919585    23.030019    14361.286    6932.3514    8082.0379    8157.4737    25.327891   -818.32752   -377.51207   -6510.2612 
  799000    264.28132   -9083.4122   -8075.8513   -9083.4122            0     7989.793    24.990469     24.94189    23.060852    14374.049    8738.1654    8300.7244    6930.4892    221.72771   -203.69949    701.58778   -6400.9449 
  800000    267.02138   -9095.0222   -8077.0149   -9095.0222            0    9069.9339    24.922429    24.983191    22.989553    14314.257     8351.845    9052.7302    9805.2265   -361.77355   -1383.5698    286.05338   -6183.5868 
  801000    263.22985   -9111.5648   -8108.0125   -9111.5648            0    7727.9938    24.829021    25.211754    22.964223    14375.217     8011.521    6743.0405    8429.4199    139.24827    834.89947    534.91156   -6487.8557 
  802000    254.26767   -9089.9136   -8120.5293   -9089.9136            0    7964.5357    24.831891    25.044177    23.115116    14375.158    7509.3882    8393.3199     7990.899    106.59623   -956.92976   -661.18355   -6450.7888 
  803000    263.80844   -9125.8665   -8120.1084   -9125.8665            0     7966.352    24.855416    25.147432    22.968889    14356.702     8617.051    7131.1611    8150.8437   -132.02399   -1421.8851    287.49146   -6452.1314 
  804000     267.4345    -9106.331   -8086.7487    -9106.331            0    8086.2598     24.89436    25.032055    23.053018    14365.649    8575.5631    9077.7396    6605.4767   -940.63763   -640.41618    220.01343   -6392.6105 
  805000    271.33638   -9102.2763   -8067.8183   -9102.2763            0    9305.3682    24.850983    24.994975    23.030105    14305.143    9270.7242    8183.0264    10462.354    -623.0668   -249.01636   -136.23152   -6126.4781 
  806000    266.50608    -9089.532   -8073.4893    -9089.532            0    8502.0147    25.063217    25.025507    22.862457    14339.784    7298.8951    9443.5584    8763.5904    467.13697    -1155.682   -362.46007   -6295.4541 
  807000    259.80791   -9090.1834   -8099.6772   -9090.1834            0    8962.1817    24.957164    24.848097    23.071866    14307.742     9417.468    8801.1382    8667.9389   -174.29447   -638.31811    689.90836   -6229.5949 
  808000    253.03593   -9084.2131   -8119.5248   -9084.2131            0    8721.2523    24.918824     24.89828    23.093083    14327.776    9006.5721    9830.2802    7326.9047   -642.82892   -58.785382    183.49197   -6297.1674 
  809000    268.68468    -9133.673   -8109.3245    -9133.673            0    8295.6376    25.064086    24.939933    22.913966    14323.443     7590.106    8933.5288    8363.2781    -283.4104   -281.00752    640.87091   -6376.4261 
  810000    265.86001   -9171.2893   -8157.7097   -9171.2893            0    8194.3926    24.980406    25.024293     22.90608    14318.979    8440.7298    7504.5733    8637.8747    604.54245    102.01845    660.89099   -6446.4941 
  811000    258.88574   -9109.5329   -8122.5424   -9109.5329            0       7267.6    24.830901    24.971662    23.224361    14400.703    8478.7147    7296.9919    6027.0933    676.00427   -843.98834   -1606.0762   -6596.2048 
  812000    258.97823   -9087.6077   -8100.2646   -9087.6077            0    8373.8422    24.965189    24.948833    23.070257    14369.363    8483.4749    8803.6129     7834.439    152.22986   -1162.4511   -254.07489    -6345.422 
  813000    277.29698   -9106.9799   -8049.7974   -9106.9799            0    8440.0993    25.042431    25.018261    22.885766    14338.346    6679.4827    9164.9084    9475.9067   -390.75798    148.00033    821.49951   -6284.8876 
  814000    257.37872   -9074.3238   -8093.0787   -9074.3238            0    9151.8427    24.944983    24.946461    22.985703    14303.752    8971.4903    9722.8606    8761.1772   -416.21489   -1270.2123   -739.97064   -6183.9536 
  815000    257.93273   -9135.5239   -8152.1667   -9135.5239            0    8669.6336    24.942794    24.890128    23.028143    14296.547    8842.1082    8244.3475     8922.445    287.47744     662.7213    334.30481    -6344.544 
  816000    279.80744   -9095.8189   -8029.0653   -9095.8189            0    9155.8532    24.999673     24.99098    22.960103      14344.7    8457.7719    9700.3312    9309.4565   -934.43758   -993.52354    693.09129   -6113.6359 
  817000    256.54344   -9128.6913   -8150.6308   -9128.6913            0     8456.199    25.090065    24.864438    22.981071    14336.749    7424.8311    9351.9626    8591.8033   -15.394491    32.839143   -997.33154   -6382.5513 
  818000    260.30074   -9125.8068   -8133.4217   -9125.8068            0    9045.8117    24.962121    24.878228    23.016316     14293.44    9246.5806    9519.6204     8371.234    533.92057    159.92968    289.49557   -6247.7756 
  819000    268.10026   -9167.5067   -8145.3863   -9167.5067            0     8845.549    24.956302    24.858978    23.022371    14282.806     8071.303    10627.245    7838.0986    -689.5621   -258.15361    403.97475   -6302.8577 
  820000    255.79002   -9101.5779   -8126.3897   -9101.5779            0    9922.2306    24.980503    24.932281    22.909685     14268.63    9410.2726    9715.7534    10640.666   -305.02848   -1512.2077   -622.35306   -6061.6396 
  821000    264.78595   -9111.4614   -8101.9766   -9111.4614            0    7901.5575    24.918734    24.913147    23.094017     14336.86    7546.7921    9123.6841    7034.1962    44.655822   -486.96252   -148.03907   -6449.8526 
  822000      258.603   -9058.7297   -8072.8171   -9058.7297            0    8606.6386      25.0709    25.002128    22.901315    14355.136    8869.6865    7565.8549    9384.3744   -79.556689   -1228.4947     778.4661   -6270.9748 
  823000    247.90183   -9128.1193   -8183.0045   -9128.1193            0    8610.2279      24.9243    24.929496    23.068977    14333.914    8227.9342    9048.7243    8554.0253   -890.16904   -262.21358    356.17985   -6383.0756 
  824000    262.17187    -9081.946   -8082.4273    -9081.946            0    9409.7684    24.985121      25.0322    22.860026    14297.404    8553.1046    9914.6972    9761.5034   -1365.2385    645.45344   -524.64804   -6120.3685 
  825000    267.28343    -9075.551   -8056.5447    -9075.551            0    9311.5154    24.980973    24.956846    22.991795    14334.149     9366.403    8296.6595    10271.484    406.27689    712.55563   -668.97935   -6109.9829 
  826000    268.27734   -9118.3261   -8095.5305   -9118.3261            0    10195.043    24.794502    24.853108    23.133216    14255.161    10801.517    10701.066    9082.5454    -482.2202   -1042.7258    1084.7925   -5976.0127 
  827000    261.56334   -9148.6849   -8151.4862   -9148.6849            0    8861.0032    24.940338    24.995846    22.888499    14268.801    9940.2071    7972.5526      8670.25    680.29568    595.00653   -687.10035   -6307.5484 
  828000    256.53218   -9044.6251   -8066.6074   -9044.6251            0    8078.2935    24.904018    24.995782    23.131461    14399.228    7731.6797    7900.1898    8603.0109   -758.35611    347.73536    746.73712   -6370.1822 
  829000    261.32678   -9128.2911   -8131.9943   -9128.2911            0    7728.0798    24.937439    25.039265    22.980362    14349.286    7030.6663    7482.4375    8671.1357    140.18479     -62.1399    207.91102    -6514.742 
  830000    257.80506   -9100.6217   -8117.7512   -9100.6217            0    7382.3072    24.984708    25.066968    22.982335    14393.626    6348.1105    8032.0581     7766.753   -539.41761   -117.11083   -932.67462   -6568.0848 
  831000    267.52715   -9098.6372   -8078.7017   -9098.6372            0    7665.8255    24.874264    25.118674    23.027678     14387.89    8573.1064    6362.1837    8062.1862    444.24307   -916.35929   -331.29653   -6470.1615 
  832000    257.14508   -9111.9217   -8131.5674   -9111.9217            0    7477.2045     24.93388    25.105249    23.016946    14407.947    8235.2407    7118.3328    7078.0402   -91.889679    216.44554    597.10442   -6560.4189 
  833000    255.47928   -9134.7572   -8160.7537   -9134.7572            0    8141.8165    24.925391    25.071964    22.979061    14360.271    8761.7761    6771.7269    8891.9464    203.72696    486.32555    31.953327   -6455.6145 
  834000    262.41204   -9058.6242   -8058.1898   -9058.6242            0      7700.45     24.89896    25.025538    23.134959    14415.621    8864.0241    7229.9785    7007.3475    827.22517    360.34269   -89.744593     -6439.27 
  835000    249.88732   -9073.8428   -8121.1584   -9073.8428            0     7665.011    24.895505    25.037531    23.088525    14391.585    8589.1505    7109.4455    7296.4369   -456.10984   -432.23474    374.63075    -6512.376 
  836000     261.7508   -9090.7932   -8092.8798   -9090.7932            0    8744.2888    24.892671    25.070292    22.999318    14353.105     8548.823    8783.9749    8900.0684   -808.40022   -1063.6169    214.37732   -6262.4789 
  837000    265.48568   -9111.8654   -8099.7129   -9111.8654            0    9838.0287    24.765718    25.092585    22.929436    14249.174    10060.923     9801.761    9651.4025     -524.057    -347.2318    1362.9231   -6055.2761 
  838000    261.98305   -9064.0586   -8065.2597   -9064.0586            0    8978.0868     24.85236    24.997889    23.050242    14320.114    10672.441    8265.6698    7996.1501   -597.81126   -1024.2857   -885.93198   -6190.2386 
  839000    250.29134   -9120.2921   -8166.0674   -9120.2921            0    9166.3191    24.870717    25.018617    22.937497     14272.42    10506.981    7255.0048    9736.9715   -811.69693   -294.23676    654.40307   -6258.1109 
  840000    264.15914   -9106.1229   -8099.0278   -9106.1229            0    8104.7362    24.926901    25.021018    23.032884    14365.528    9070.1968    7445.6236    7798.3883    396.88924    865.46657   -145.96349    -6401.033 
  841000    254.62951   -9109.8669   -8139.1031   -9109.8669            0    8826.9881    24.913956    24.973829    23.012405    14318.247    8689.5678    8422.6405    9368.7561   -57.991636    224.63774    -519.4141   -6295.8784 
  842000    267.06084   -9112.5118   -8094.3541   -9112.5118            0    9009.7409    24.948141    25.072132    22.878387    14310.502    8863.9048    8184.9687     9980.349   -451.44197    842.54238    222.42846   -6213.9853 
  843000    267.69357   -9109.7419   -8089.1719   -9109.7419            0    9380.0241    24.908117    25.007158    22.950649    14295.529    10251.863    8616.7028    9271.5063    -644.8038    247.98091    338.75702   -6133.5718 
  844000    258.22196   -9101.9668   -8117.5069   -9101.9668            0    8817.7462    24.881845    25.053173      23.0126    14345.345    8851.0725    7955.1931    9646.9729    532.50401     638.8485    72.588144   -6272.7273 
  845000    255.01596   -9142.5608   -8170.3236   -9142.5608            0    8484.9206    24.837037    25.100438    22.952559    14309.096    9019.1108    8636.5511    7799.0999    26.187183    653.73187   -479.86013   -6399.6608 
  846000    258.25435    -9099.581   -8114.9976    -9099.581            0    7912.2022    24.899873    25.057007    23.057758    14386.111    8851.1241     7032.775    7852.7075   -568.25188   -267.36247    939.73909   -6454.9649 
  847000    258.36434   -9084.7466   -8099.7439   -9084.7466            0    8145.1978    24.899959    24.995708    23.092588    14372.645    8397.7564    8514.6373    7523.1998    845.56334   -611.06784    670.39023   -6392.4267 
  848000    255.24557   -9142.1814   -8169.0689   -9142.1814            0    7515.7976    24.944363    24.992812    23.018078    14350.155    8066.5189     7316.882    7163.9919    148.22587    427.31048   -622.55765   -6596.1455 
  849000    263.91146   -9097.3846   -8091.2338   -9097.3846            0    7166.8571    25.000588    25.155033    22.942864    14428.552    6933.5258    6787.7977    7779.2477   -1.0628593    267.18715   -524.09235   -6583.1434 
  850000    260.94268   -9145.2511   -8150.4186   -9145.2511            0     7517.963    24.975064    25.007858     22.98585    14356.338    8262.0387    7796.5403    6495.3099   -111.88174    235.57974    358.16689   -6576.3641 
  851000      263.485   -9126.8215   -8122.2966   -9126.8215            0    8430.1802    24.874065    24.945156     23.04808    14301.044    9020.8082    8384.9473    7884.7851    287.48215    521.93642   -1294.2908   -6364.0471 
  852000    260.90578   -9074.3798   -8079.6879   -9074.3798            0      8453.36    24.990598    24.994391    23.027666    14383.651    8842.0688     8502.296    8015.7151   -360.56818    482.56273   -353.78442   -6306.4199 
  853000    260.41856   -9083.7902   -8090.9559   -9083.7902            0    9080.6539    25.118169    24.877593    22.939959    14334.712    6896.9839    10459.423    9885.5551    -699.5964   -1590.7536    1179.5237    -6192.581 
  854000    263.62221   -9119.7085   -8114.6604   -9119.7085            0    7896.4229    24.998794    24.897611    23.082476     14366.77    8068.0348    7693.7614    7927.4723   -193.93291    -1004.535    505.03757   -6460.1655 
  855000    263.13242    -9089.167   -8085.9862    -9089.167            0    7921.2465    24.941357    24.953507    23.096312    14374.552     6246.523    9842.4582    7674.7585   -877.88071   -936.14468   -923.41044   -6425.3912 
  856000    260.04855   -9129.3195   -8137.8959   -9129.3195            0    9417.8171    24.928924    25.036958    22.893868     14289.08    9261.7007    9013.4792    9978.2714    604.78552   -1127.1429    622.08828   -6175.3021 
  857000    260.34174   -9101.4468   -8108.9054   -9101.4468            0    9108.4423    24.919983    25.079851    22.870293    14293.692    9994.0222    8096.4528     9234.852   -287.52779   -435.32064    179.38742   -6210.1701 
  858000    271.73773   -9143.8295   -8107.8413   -9143.8295            0    8208.1944    24.926278    24.936062    23.058323    14332.205    8419.5418    8178.6382    8026.4032   -250.06572     21.10523   -112.35671   -6392.1604 
  859000    254.66082   -9099.9905   -8129.1073   -9099.9905            0    7567.3668    25.087792    24.912332    23.051494    14407.078    7081.4822     8110.749    7509.8693   -391.86442    152.03383   -375.83898   -6539.1092 
  860000    264.51405   -9145.8975   -8137.4493   -9145.8975            0    7427.2562    25.095224    25.003305    22.926172    14385.337    6706.9617    7232.8957    8341.9112   -401.52409    204.03689    945.56704   -6579.2452 
  861000    261.14404   -9101.8043   -8106.2041   -9101.8043            0    7315.6654    25.006182    25.021246    23.020922    14403.865    8215.1842    5717.9928    8013.8192    663.15073    603.47397   -91.983302   -6569.4346 
  862000    260.10325   -9095.2958   -8103.6636   -9095.2958            0    7398.8555    24.945789    25.013208    23.134024    14435.035    7745.3757    6976.4223    7474.7687    1533.0522    282.50753   -728.66642   -6546.0553 
  863000    250.74741    -9075.298   -8119.3346    -9075.298            0    7314.3366    25.023426    25.085891    22.972243     14420.48    7663.6079     6108.109    8171.2928   -891.99888   -286.96746     1138.364   -6581.0718 
  864000     270.6441   -9080.8927    -8049.074   -9080.8927            0     9293.271    25.000753     24.92225    22.968954    14311.381    9157.2638    8859.8497    9862.6993   -69.123232    -1134.202    -32.70408   -6109.4121 
  865000    267.58811   -9077.0372   -8056.8693   -9077.0372            0    9016.5781    24.864016    24.941064    23.131101    14344.406    9453.8749    10081.512    7514.3474   -225.53198   -344.17876   -719.74629   -6170.6151 
  866000    260.87676    -9117.933   -8123.3518    -9117.933            0    9306.9748    24.942918    24.989307      22.9075    14278.388    9771.3426    8659.0276    9490.5541   -374.96463     531.8295    204.65051    -6185.308 
  867000    258.91314   -9149.9169    -8162.822   -9149.9169            0    8201.8147    24.968408    25.023244    22.935114    14329.643    7760.2794    8275.7593    8569.4053     177.3726    343.62337    467.76315    -6448.781 
  868000    251.93409   -9131.4558   -8170.9682   -9131.4558            0    8935.9283    24.833249    24.935281     23.09796    14302.812    10054.065     8996.155     7757.565    229.30302    248.63223   -533.06581   -6307.0064 
  869000    259.41199   -9095.8785   -8106.8817   -9095.8785            0    8518.2295    24.883779    25.084398    22.982305    14345.431    9225.2432    8039.7853    8289.6602      1.67603    667.06322    524.23682   -6324.7539 
  870000    262.07202   -9117.6821    -8118.544   -9117.6821            0    8149.4031    24.963512    25.059504     22.92437    14340.873    7841.3881    8322.4618    8284.3593   -254.66919    142.08677   -238.56155   -6414.1215 
  871000    264.48858   -9123.1317   -8114.7806   -9123.1317            0    8514.9454    24.840693    24.908278    23.136114    14315.213    9456.4879    8456.8836    7631.4647   -226.93443    16.972287   -193.03523   -6337.0924 
  872000    255.18539     -9054.98   -8082.0969     -9054.98            0    8181.7574    24.963439    24.977555    23.039353    14365.628    7895.0499    8679.1575    7971.0647     166.6731    1180.7768    245.48068   -6367.9536 
  873000    253.09744   -9105.1548   -8140.2319   -9105.1548            0    8330.8341    25.041719    24.897732    23.039522    14364.728    6928.5795    9579.1661    8484.7565    360.01685    693.27516    865.76172   -6394.9653 
  874000    270.03212   -9095.4047   -8065.9191   -9095.4047            0    9082.1377    25.029754    24.863255    23.013692    14321.907    7769.3246    10327.551    9149.5375   -834.73325   -79.763417    829.41257   -6168.9301 
  875000    265.73595   -9073.1476    -8060.041   -9073.1476            0     9341.609     24.92689    24.936478    23.059253    14333.374    9480.2601    8986.0659    9558.5011    11.144079   -201.96024   -18.436509   -6107.2938 
  876000    267.50644   -9132.2229   -8112.3664   -9132.2229            0    8349.4748    25.015151    24.912393    22.988737    14326.289    9541.5735    7340.3368    8166.5141   -847.06564   -1256.8396   -1066.4299   -6367.8753 
  877000    266.05842   -9104.7764   -8090.4403   -9104.7764            0    8834.1452    24.908428    24.890002    23.113028    14329.403    9446.6945    8776.4191    8279.3218    127.59073   -723.21134   -277.51184   -6244.2838 
  878000     257.3145    -9110.075   -8129.0748    -9110.075            0    8553.3918    24.997305    25.019305    22.869627    14303.013    8115.3748    8646.6388    8898.1618   -1020.8808    -499.3864    335.16037    -6344.882 
  879000    265.41069   -9097.0585   -8085.1919   -9097.0585            0    8556.5268    24.977015    24.985334     22.94205    14317.195    7763.9651    8945.6266    8959.9886     646.8384    1163.5301    214.73627   -6298.5754 
  880000    260.84077   -9146.1236   -8151.6797   -9146.1236            0    8746.0976    24.894268     24.93711    23.024219     14293.23    8579.2908    8731.5124    8927.4896    23.368742   -1069.9895    276.48982   -6328.5373 
  881000    263.66517   -9145.1326   -8139.9208   -9145.1326            0    9264.7725    24.934272     25.04993    22.873893    14287.074    8704.8371    9073.2493    10016.231    -1106.867    636.55969   -260.65529   -6209.4913 
  882000    259.44598   -9106.6454    -8117.519   -9106.6454            0    7201.2701    24.958096    25.123943    23.002908    14423.877    6749.2035    6448.1449     8406.462   -162.51008    159.07787   -125.89713   -6602.6782 
  883000    259.47626   -9117.7867   -8128.5449   -9117.7867            0    7434.0109    24.919919    25.006927    23.108083    14400.278    7448.7917    7424.8102     7428.431   -313.66338    248.42762   -91.560285   -6567.3039 
  884000    255.92086    -9144.386   -8168.6989    -9144.386            0    5991.1496    25.032806    25.083275       23.049    14472.577    5267.9992      6236.43    6469.0195   -683.83568   -97.617797    415.32797   -6904.1608 
  885000    261.21298   -9164.1641   -8168.3011   -9164.1641            0     7693.648    25.028901    24.985959    22.933779    14342.122     8640.081     7230.807    7210.0559   -672.72533   -139.89547    -97.29366   -6559.0582 
  886000    257.72098    -9085.462    -8102.912    -9085.462            0     8256.511    24.963402    24.898038    23.077273    14343.442    7917.6324    9424.9392    7426.9613    218.63918    42.467041    107.75156   -6375.7789 
  887000    262.62533   -9145.9859   -8144.7384   -9145.9859            0     7996.597    24.994946    24.929126    23.031547    14351.007    7425.8805    9075.8259    7488.0846   -123.88363    -108.1044    375.62813   -6471.0929 
  888000    259.59949   -9102.2833   -8112.5717   -9102.2833            0    7538.5824    25.128422    25.074318     22.82091    14378.954    6651.3539    7200.3927    8764.0005   -466.89284   -351.10577   -17.478551   -6531.7136 
  889000    260.39358    -9150.233   -8157.4939    -9150.233            0    7910.4879    24.899508    24.927737    23.120081    14350.366    9380.6516    6911.9567    7438.8553   -411.30934    2093.3683   -749.02487   -6501.9445 
  890000    257.43086   -9090.0779    -8108.634   -9090.0779            0    8447.9394     24.95571    25.031677    22.957115    14340.925    8223.9563    8015.7194    9104.1424   -525.59243   -173.45379     614.2764    -6341.767 
  891000    249.83454   -9100.8421   -8148.3589   -9100.8421            0    8736.5679    24.982288    25.002589    22.928569    14321.686    7186.9927    8198.8192    10823.892     44.59006   -231.75613   -330.84419   -6323.5772 
  892000    249.44121   -9100.3342   -8149.3506   -9100.3342            0    8779.3226    24.909445    24.823115    23.170674    14327.123    8904.7881    9670.3594    7762.8201   -144.80371   -727.40187   -271.19459   -6314.9427 
  893000    262.79629    -9109.665   -8107.7657    -9109.665            0    8215.7838    25.011058    24.959078    22.948619    14325.743    8365.6776     7994.162    8287.5118   -307.78835     287.2405   -211.92343   -6391.2726 
  894000    264.76705    -9122.236   -8112.8233    -9122.236            0    8212.0232    25.015539    24.925744    22.988146    14333.821    7187.3925    8861.0722    8587.6049    475.22057   -1077.4078   -344.61488   -6396.1485 
  895000    271.47554   -9084.2359   -8049.2473   -9084.2359            0    8529.5526    24.968998    24.925396    23.079328      14363.7    8860.8528    9042.7611    7685.0441    228.74716   -686.96303   -362.56373    -6262.478 
  896000    252.68198   -9096.6794   -8133.3405   -9096.6794            0     7552.498     25.05515    24.903224    23.059963    14388.356    7409.7634     7061.151    8186.5796    41.773936    773.14796    396.65552   -6548.5287 
  897000    256.13833   -9100.7252    -8124.209   -9100.7252            0    8558.4766    25.106026    24.909465    22.948409    14351.423    7942.9725    8957.7442     8774.713   -185.33803   -631.95033    566.84042   -6332.9132 
  898000    250.00688   -9112.7895   -8159.6493   -9112.7895            0    8229.7739    24.996374    24.860162    23.098198    14353.542    8431.6822    8429.4484    7828.1911    -390.8526   -113.26836   -209.19389   -6436.8969 
  899000    264.63724   -9100.4593   -8091.5414   -9100.4593            0    8932.4248    24.958545    25.020721    22.931638    14320.367    8768.0342    9275.7187    8753.5215    539.18118   -793.66067   -1136.8942   -6226.0236 
  900000    262.16845   -9120.8906   -8121.3849   -9120.8906            0    8883.1268    24.794337    25.000187    23.058543     14293.14    8929.7276     9241.808    8477.8448   -51.728031    -264.5687    38.473534   -6269.6902 
  901000    262.14829   -9084.9453   -8085.5164   -9084.9453            0    10115.144    24.891438    24.996977     22.96045    14286.238    10987.689    9273.4012    10084.342    240.64277   -863.31911   -49.647494   -5978.0249 
  902000    268.45907   -9164.6382   -8141.1498   -9164.6382            0    8741.0185    24.908448    25.019569    22.922765    14285.435     8857.186    8364.6662    9001.2033    562.40979   -392.50994    5.7161073   -6320.0598 
  903000    263.52521   -9103.1714   -8098.4931   -9103.1714            0    8171.1475    24.878288    25.069308     23.01702    14355.289     9199.636    7728.7892    7585.0172   -240.62226   -272.88393   -1407.9494   -6387.8048 
  904000    253.25365   -9114.4114    -8148.893   -9114.4114            0    8261.2982    24.858086    25.083354    22.985449    14331.983    9384.7596    7203.3479    8195.7869   -820.16903    2.9893911   -884.74657    -6422.139 
  905000    257.66786   -9099.3571   -8117.0097   -9099.3571            0    8193.5147    24.875408    25.048639    23.042931    14357.938    8697.1618    7093.5361    8789.8461   -772.33606    532.88534    828.90104   -6401.3223 
  906000    250.33122   -9166.4938    -8212.117   -9166.4938            0    8817.4447    24.916097    24.988065     22.98192    14308.659    10547.397    7922.4161    7982.5209   -79.955434   -993.35252   -369.50823   -6372.1181 
  907000     262.8264    -9134.974   -8132.9599    -9134.974            0    8244.4106     25.00759    25.076762    22.897851    14359.458    7710.4387    8492.4882     8530.305   -994.55882   -769.89185    208.23049   -6406.4322 
  908000     257.0821   -9102.9392    -8122.825   -9102.9392            0    8174.1439    24.858947    25.080276    23.086947    14394.002    9363.3975    7743.0128    7416.0214    297.59437   -77.872894   -112.23697   -6406.8944 
  909000    259.56268   -9073.3527   -8083.7814   -9073.3527            0    8918.3718    24.847215    25.012037    23.115291    14365.678    9974.0674    7811.2741    8969.7738   -760.50734   -1395.7515    14.894444   -6215.3051 
  910000    260.78472   -9115.5855   -8121.3552   -9115.5855            0    9393.3256    24.952071    25.033257    22.893065    14299.732     8842.947    8990.3585    10346.671   -139.57279   -354.61986   -72.065646    -6162.406 
  911000    262.34811   -9170.7967   -8170.6061   -9170.7967            0    8729.1874    24.985482    24.952583     22.89872     14276.26    8090.3634    9888.5317    8208.6671    -743.5565    550.92916   -1248.6884    -6353.149 
  912000    268.68956   -9136.8962   -8112.5291   -9136.8962            0    8863.1703    25.045527    24.858981    22.972885    14303.063    6770.0022    10735.743    9083.7655    -855.2985   -851.17146    303.15836   -6263.7117 
  913000    270.39063   -9124.8616   -8094.0092   -9124.8616            0    9527.1756    24.967196     24.95302    22.924456    14282.095    8699.1679    10028.635    9853.7242   -26.796504    -292.9296   -422.59046   -6109.5967 
  914000    254.02707   -9123.6182   -8155.1512   -9123.6182            0    7873.8661    25.039541    24.864421    23.110503    14388.453    7342.1152    8152.7456    8126.7373   -556.52438    116.39453    433.85045   -6502.8926 
  915000    257.77263   -9097.6508    -8114.904   -9097.6508            0    8324.8047    25.002445    24.863488    23.035768    14320.139    8132.0891    9155.5546    7686.7703   -587.19481   -3.2607984    -816.9185    -6376.314 
  916000    262.28998   -9082.1816   -8082.2125   -9082.1816            0    9009.1191    25.086678    24.996819    22.858583    14334.324    8398.6003    9279.0593    9349.6977    229.26847    565.64987    404.97199   -6198.8435 
  917000    247.91763   -9127.1625   -8181.9874   -9127.1625            0    7276.6352    24.928181    24.940249    23.110942     14368.42     6501.596    8108.5533    7219.7562     190.6919   -160.56169   -204.46905   -6657.1782 
  918000    265.44563   -9078.6449   -8066.6451   -9078.6449            0    7973.4573    25.051174    25.009539      22.9824    14398.894    7393.4329    7339.8932    9187.0457    971.51441    475.81813    660.16244   -6392.2742 
  919000    263.54634   -9116.8739    -8112.115   -9116.8739            0    7627.4354    24.971538     25.03809    23.013148    14388.732    7903.8433    8063.0158     6915.447   -849.76842   -968.63287    560.25474   -6511.5367 
  920000    252.93653   -9082.9613   -8118.6518   -9082.9613            0    8924.2816    24.929473     24.94428    23.031587    14322.141    9469.5121    8231.1847     9072.148   -389.10719    713.09797   -167.70982   -6254.6038 
  921000    264.21454   -9132.3016   -8124.9953   -9132.3016            0    9540.5893    24.953878    24.989338    22.888942    14273.107    9668.8403    9007.8557     9945.072    31.483266   -66.198425    644.25838   -6139.0393 
  922000    268.84915   -9128.1798   -8103.2042   -9128.1798            0    9962.4228    24.790619    24.895662    23.088003    14249.427    10474.161    10032.517    9380.5906   -1123.8562   -37.114765   -453.02249   -6032.8805 
  923000    254.29854    -9077.258    -8107.756    -9077.258            0    9743.8278    24.897804    25.011746     22.91947    14272.815    10130.602    9895.0801    9205.8013   -778.40968    1645.8276    142.39729   -6079.5356 
  924000    267.94276   -9153.8015   -8132.2814   -9153.8015            0    9434.0609    24.849177    24.970542    22.985706    14262.572    9391.2943    8856.9245    10053.964    931.38159   -92.406213    822.97036   -6169.9498 
  925000    251.94712   -9078.6424    -8118.105   -9078.6424            0    8949.9463    24.903692    25.000492    23.037639    14343.339    8218.8437    9191.5694     9439.426    4.3515146   -856.52777   -739.47758   -6245.9294 
  926000     252.0319   -9103.6662   -8142.8057   -9103.6662            0    9392.7451    24.999425    25.050716    22.774925    14262.876     9912.674    8613.7375    9651.8237    -281.5748    -869.0868    545.67719   -6189.0262 
  927000    266.27645   -9113.5784   -8098.4112   -9113.5784            0    7074.0074     24.99435    25.021714    23.033508     14405.19    6949.5219    6394.3035    7878.1968   -271.52648   -19.219692   -904.29901   -6612.2689 
  928000    256.73645   -9108.7044   -8129.9079   -9108.7044            0    6775.2687    24.962102    25.010482    23.108004    14426.655    6896.5459    7727.6753    5701.5848   -840.60411   -133.08556    527.34175   -6704.4052 
  929000    259.41324   -9121.9878   -8132.9862   -9121.9878            0    6365.6565    24.967118    25.060559    23.116976    14464.059    6377.5386    7015.9461    5703.4847    -91.60527    264.68742   -545.58123   -6790.1926 
  930000    257.30628   -9131.1656   -8150.1967   -9131.1656            0    6924.6437    25.009806    25.158763    22.879686     14396.26    6416.7865     6154.234    8202.9106   -95.180246   -1191.9196    157.38397   -6696.3354 
  931000    268.66483   -9150.4327   -8126.1599   -9150.4327            0    7791.3712    24.885309    24.987226     23.09797     14362.66     8256.526    8074.3415    7043.2461    -337.9349   -153.19102      379.227   -6494.1429 
  932000    267.25198   -9094.3471   -8075.4607   -9094.3471            0    8193.8531    24.873078    24.988382    23.136532    14380.233     9884.345    7668.7956    7028.4186   -44.475739   -443.63437   -194.95638    -6357.038 
  933000    256.63436   -9094.3765   -8115.9693   -9094.3765            0    7482.0715    25.059889    25.063693    22.872663    14366.168    7553.0422    7034.3494    7858.8229    604.66004    1061.0931    1311.3238   -6548.3569 
  934000    259.47709   -9088.9098   -8099.6648   -9088.9098            0    8398.4474     24.91841    24.990877    23.023083    14337.231    8086.7808    8482.5788    8625.9825     781.8935    496.48015    226.37848   -6343.6014 
  935000    274.93087   -9095.5884   -8047.4266   -9095.5884            0    10043.514    24.770978    24.961561     23.09592    14280.722     9824.816    10453.828    9851.8974   -1780.8147   -976.82716    484.54181   -5955.6672 
  936000    280.31856   -9139.3087   -8070.6065   -9139.3087            0    8079.8294    25.009289    25.001335    22.925575    14334.574    7408.4151    8285.3433    8545.7299   -209.71828   -185.86312    29.088314   -6381.4773 
  937000    249.50638   -9123.5944   -8172.3623   -9123.5944            0    8351.7816    25.047039    25.000952    22.868405    14320.191     8375.484    8773.1707    7906.6902   -55.053948   -1003.5082    316.70552   -6428.1319 
  938000    259.68862   -9071.6476   -8081.5961   -9071.6476            0     9135.842    25.000152    24.886128    23.050259     14340.88    9502.1969    8121.4864    9783.8428    708.96404   -125.60252   -37.805997   -6170.8619 
  939000    253.51029   -9144.7843   -8178.2874   -9144.7843            0    8768.7097    25.052091    24.920891    22.912368    14304.659    8769.1435    8741.7117    8795.2739   -1145.8739    526.51037   -576.33912   -6348.9699 
  940000    266.62269   -9080.6624   -8064.1751   -9080.6624            0     8944.502    24.956288    24.892857    23.107202    14354.964    8654.9357    9392.6979    8785.8724   -92.341715   -543.03949     687.7904   -6191.6219 
  941000    253.67664   -9082.9979   -8115.8668   -9082.9979            0    7743.6129    25.078845    25.012217    22.947738      14394.6    6616.9586    8443.5823     8170.298   -337.60968    118.54347   -66.994161   -6490.2465 
  942000    262.52403   -9094.7673   -8093.9059   -9094.7673            0     7213.254    25.102775    25.002425    22.939707    14397.654    5642.6532    7679.8636    8317.2453   -1.7031356   -76.254735   -1344.3362   -6579.3028 
  943000    264.41261   -9128.0167   -8119.9552   -9128.0167            0    7849.7554    24.980676    24.903468    23.088685    14363.597    8085.7971    8543.2633    6920.2059   -69.935357    95.263168    1346.9168   -6475.6016 
  944000    259.37957   -9111.6169   -8122.7437   -9111.6169            0     7044.291    25.128432     24.97787    22.940209    14398.531    5896.9383    7461.1636    7774.7712   -222.17634    24.277319   -689.25834   -6643.5285 
  945000    258.52739   -9100.6748   -8115.0505   -9100.6748            0      8331.34    25.099851    24.962145    22.922152    14361.785     5895.354    8651.4011    10447.265    396.47317    1752.0113    630.13038   -6370.0354 
  946000    270.17166   -9115.5485   -8085.5309   -9115.5485            0    9017.5461    24.937257    24.888429    23.045134    14302.943      8695.37    9761.1088    8596.1594    -208.7571   -648.06111    -839.5225   -6204.5272 
  947000    262.02255   -9124.5182   -8125.5687   -9124.5182            0    6651.5994    25.092324    25.014227    23.008368    14441.549    6046.7247    6942.1943    6965.8791   -353.31885   -899.61769    601.97985    -6724.641 
  948000    263.04576   -9097.3535   -8094.5031   -9097.3535            0     7425.693    25.042517     24.91566    23.068621    14393.686    7362.5619    7743.7142    7170.8029   -414.94013     60.10438    261.36797   -6535.7229 
  949000    261.06366   -9076.2217    -8080.928   -9076.2217            0    8796.1586    25.015795    24.947298    23.003051    14355.664    8237.8987    8818.9839    9331.5933   -299.24427    383.26286    95.609801   -6239.3411 
  950000    264.22095   -9125.2602   -8117.9294   -9125.2602            0    7781.6206    24.901193    24.999198    23.046874    14346.906      9078.11    7090.9003    7175.8515    -489.4153   -550.79786   -148.62451   -6489.7427 
  951000    265.72715   -9081.5008   -8068.4278   -9081.5008            0    9441.8457    24.953891    24.921997    22.942895    14268.205    8033.5985    10558.784    9733.1548   -758.40363   -239.00875    -656.3545   -6103.7011 
  952000    260.77154    -9115.541    -8121.361    -9115.541            0    9269.2676     25.02891    24.820753    22.991722    14283.294    8882.8988    8880.8775    10044.026   -33.549304    -526.0433    392.71815   -6190.5058 
  953000    258.38527   -9150.5412   -8165.4587   -9150.5412            0    7820.0686    25.028835    24.978114    22.952939     14349.56    6930.5653    7485.4983    9044.1422   -1053.1878   -809.18004    497.84835   -6528.9246 
  954000    260.93072   -9086.1529    -8091.366   -9086.1529            0    7982.3105      24.9635    24.952908    23.085894    14380.478    7272.2327    8425.1886      8249.51     579.0605   -6.6831439    468.65924   -6417.2797 
  955000    261.47033   -9146.3617   -8149.5175   -9146.3617            0    7852.6192    24.946886     25.01791    22.996447    14352.519     6985.724    8984.4816    7587.6519    247.39861   -154.47844   -1011.7745   -6505.8327 
  956000    249.55486   -9150.7405   -8199.3236   -9150.7405            0    7591.4524    24.956636    25.009741    22.999456    14355.318     7709.466    6490.0384    8574.8528    382.46614    845.99097   -1367.5305   -6609.9954 
  957000    265.12004   -9126.7633   -8116.0048   -9126.7633            0    9651.9146    24.959227    24.933569    22.964634    14291.411    9466.4349    9581.6937    9907.6153   -104.98646    816.30003   -737.55158    -6104.299 
  958000    264.31654   -9120.3393   -8112.6441   -9120.3393            0     7960.267    24.855868    24.964171    23.109512    14339.594    7956.8522    7760.4465    8163.5024    288.91214   -1290.9071    348.15211   -6447.9272 
  959000    258.45371   -9068.8937   -8083.5503   -9068.8937            0    8852.8238    24.982624    25.073374    22.937815    14368.217    8975.6465    7607.5919     9975.233    136.54439   -94.577609    944.31178   -6228.4791 
  960000    258.60078   -9080.1512    -8094.247   -9080.1512            0    9443.0437    24.940231     25.06346    22.896545    14312.367    8636.2071    9301.6093    10391.315   -896.01335   -360.85181   -255.54705   -6123.1893 
  961000    270.03572   -9112.9543    -8083.455   -9112.9543            0     8383.656    24.863795    24.996207    23.081229    14344.997    8637.8574    7999.6956    8513.4151    230.65775   -283.10192    1043.2309   -6329.5349 
  962000     261.6585   -9121.1637   -8123.6021   -9121.1637            0    8354.4969    24.902933    25.010654    23.032136    14345.304    8601.8275    7513.3644    8948.2988    610.19974    592.38495    148.89619   -6375.7449 
  963000    257.73823   -9113.5699   -8130.9542   -9113.5699            0    8151.7603    24.948439     25.05856    22.934467    14337.986    8210.4662    7422.5077     8822.307   -209.72179    1033.7125    60.321529   -6426.3819 
  964000    266.05176   -9095.8147   -8081.5041   -9095.8147            0    10123.942    24.787212    24.977754    23.053483    14273.077    10695.599    10421.895    9254.3334    -262.8689   -424.58405   -289.16993   -5974.1226 
  965000    255.24542   -9113.2099    -8140.098   -9113.2099            0    8628.9994    24.920222    25.013127    22.985869    14327.844    9121.5758    6987.0954     9778.327   -232.05538   -400.16484    1531.7982    -6337.009 
  966000    249.30809   -9103.3292   -8152.8531   -9103.3292            0    8366.0569     24.98993    25.095134     22.89519    14358.161    7750.0443    7936.5153    9411.6111   -923.50796   -136.56135   -456.17493   -6401.0087 
  967000    265.19234   -9093.8473   -8082.8132   -9093.8473            0    8979.3698    24.870201    25.023313    22.985552     14304.71    9147.2216    9363.2497    8427.6382   -384.17344   -225.41194    9.5728144   -6209.5413 
  968000    251.30866   -9057.4081   -8099.3049   -9057.4081            0    9630.7476     24.89403    24.942417    23.033492    14301.893    10182.365    8816.2329    9893.6453   -446.91202   -1256.9819    898.97192   -6090.5385 
  969000    261.49949   -9136.5165   -8139.5612   -9136.5165            0    8867.9504    25.101083    24.997344    22.774396    14290.031    7382.0204    8935.6413     10286.19   -268.72806    431.48546   -449.44009    -6291.432 
  970000    259.74569   -9114.1207   -8123.8517   -9114.1207            0      7728.44    25.051898    24.872268    23.059599    14368.379    6120.3093    9178.5397    7886.4711   -705.98045    53.873582   -498.47977    -6504.372 
  971000    259.00839   -9101.5453   -8114.0872   -9101.5453            0    9044.2679    24.940573    24.897356    23.091519    14338.779    8667.5907    10122.402    8342.8111    153.07055   -192.63511    1462.4155   -6222.7827 
  972000    252.51419   -9097.2095   -8134.5103   -9097.2095            0    10232.443     25.02094    24.895162    22.900594    14264.788    9518.0782    10978.914    10200.336      9.63008   -776.97623   -52.892844   -6005.7805 
  973000    250.68562   -9072.0087   -8116.2808   -9072.0087            0    9187.7734    25.112602     24.94642    22.841278    14309.364    7790.2402    8753.9262    11019.154   -301.06572    246.94877     1326.235   -6198.9082 
  974000    270.78131   -9074.4089   -8042.0671   -9074.4089            0    9477.1772    24.998993    24.846853    23.084049    14338.572    8901.2932    10213.984    9316.2547   -9.2864445    460.18557   -513.14492   -6060.2627 
  975000    255.34275   -9111.4905   -8138.0075   -9111.4905            0    7932.0592    24.908884    25.076703    22.982097    14355.369    9022.2711    7328.8258    7445.0807    456.88625   -120.07099    113.81603   -6477.3648 
  976000    258.92898   -9097.2989   -8110.1436   -9097.2989            0    8901.7119    24.974367    25.050081    22.900684    14326.895     8199.356    8768.0583    9737.7213    -105.9609   -599.70015    214.84131   -6250.1926 
  977000    266.72044   -9114.4264   -8097.5664   -9114.4264            0    6357.5531     24.97059    25.042924    23.105909    14448.971    6738.7095    6785.4021    5548.5477   -176.52593    -27.76844    458.72761   -6757.8811 
  978000    264.54572   -9105.1865   -8096.6176   -9105.1865            0    6313.6173    25.026875    25.054971     23.07294    14467.832    7203.1035    5067.9667    6669.7817   -533.95674    15.005259    118.54098   -6764.4538 
  979000    251.12209   -9087.7201   -8130.3281   -9087.7201            0    6858.8404    25.011513    25.086608    22.977318    14417.211    7079.5069    7046.1997    6450.8146    444.64234    -370.6528    53.943024   -6688.1868 
  980000    257.93394   -9088.0428    -8104.681   -9088.0428            0    7392.5301    24.963327    25.005814    23.107221    14424.182    7051.4282    7186.2802    7939.8818   -85.419146   -1234.0276   -539.32531   -6549.5743 
  981000    261.63035    -9075.707   -8078.2528    -9075.707            0    7191.2159    24.979285    25.059157    23.009826    14403.226     7577.026    6144.2797     7852.342    122.49113     1781.743   -332.13055   -6567.6927 
  982000     258.1735   -9091.9558   -8107.6807   -9091.9558            0    7359.4038    24.951461    25.093631    23.007183     14405.32    7601.1283     7344.432    7132.6511   -366.58937    -696.0271    789.10454    -6561.567 
  983000    269.64476   -9120.1506   -8092.1418   -9120.1506            0    8021.3546    24.890184    24.989147     23.03893    14329.857    8620.3925    7776.9094     7666.762    137.01677    761.04978   -325.99876   -6415.7889 
  984000     262.1961   -9095.3624   -8095.7513   -9095.3624            0    8046.8736     25.00881    24.965015    23.018112     14371.25    7834.5817    7407.0535    8898.9856   -369.57431   -1424.0201   -1294.6146   -6409.2075 
  985000    257.45809   -9129.6401   -8148.0925   -9129.6401            0     7811.292    25.062462    24.932989    22.987103    14364.229    8135.5274    7730.7555    7567.5932   -277.97746   -889.40876    403.86798   -6511.7241 
  986000    268.68453   -9117.8734   -8093.5254   -9117.8734            0    8760.2163    24.967089    24.938244    23.018104    14331.886    8877.3543    9159.5598    8243.7348    -954.4576   -1043.7529   -707.26764   -6262.5014 
  987000    250.45425   -9082.7976   -8127.9518   -9082.7976            0     7519.735    25.028212    24.965211     23.05023    14402.581    6985.9067    7071.9198    8501.3784   -1048.6725   -816.92622   -417.01607    -6548.455 
  988000    266.70817   -9073.1912    -8056.378   -9073.1912            0    8031.8958    25.096668     24.97127    22.998821    14413.262    7916.6041    8415.6776    7763.4056    -14.96614   -455.82932    277.71243   -6368.0523 
  989000    257.43577   -9090.7853   -8109.3227   -9090.7853            0    6749.5682    25.108103    24.930215    23.091198    14453.944    7114.2792    6716.0406    6418.3846    277.53356    36.465488   -193.66983   -6686.5411 
  990000    271.10828   -9109.3245   -8075.7361   -9109.3245            0    7728.5664    25.007989    24.960972    23.038212    14380.998    7555.8973    8458.9096    7170.8923   -412.04549    -894.8771   -73.605055   -6454.8077 
  991000    258.78644   -9091.2587   -8104.6468   -9091.2587            0    7063.6994    25.098445    25.076719    22.916586    14423.394    6590.7851     7158.685    7441.6282    180.12529   -800.95017   -317.12875   -6618.7948 
  992000    273.77076   -9114.7256   -8070.9866   -9114.7256            0    8616.6055     24.94084    24.910674    23.090089    14345.714    9422.4518    7868.8296    8558.5352    344.92565    1392.2239    28.501486   -6268.2418 
  993000    259.03988   -9100.7857   -8113.2076   -9100.7857            0    9552.1131    24.977551     24.95403    22.964416    14313.504    6787.2556    11080.876    10788.208    622.21716   -866.15151   -496.67817   -6119.2252 
  994000    262.37895   -9138.1307   -8137.8225   -9138.1307            0    7852.9503    25.081138    24.916192    22.983692    14363.117    7323.1192    7722.5156    8513.2161   -415.52046     134.9536   -120.60526   -6492.8546 
  995000    263.25649   -9097.7027   -8094.0489   -9097.7027            0    8393.4397    24.973449     24.91322    23.076065    14357.213    8636.8705    8223.6824    8319.7661     43.71941   -851.98903    210.87077   -6336.5866 
  996000    267.41445   -9147.3323   -8127.8264   -9147.3323            0    8343.9412     24.99345    24.964599     22.98948    14344.319    8748.4438    7912.4892    8370.8905   -652.64178    347.68434       300.69   -6382.2974 
  997000    270.79125   -9085.9865   -8053.6067   -9085.9865            0    9404.3283    24.954134    24.897249    23.033777    14310.639    9681.6987    9882.0969    8649.1893    67.851486   -1065.6239    529.19089    -6090.867 
  998000    255.46469   -9115.0506   -8141.1027   -9115.0506            0    9152.4333    25.014551     24.88788    22.990858    14313.168    9043.9094    9793.5659    8619.8246   -437.74862   -716.23997    828.96806   -6230.5974 
  999000    240.36623   -9080.4412   -8164.0555   -9080.4412            0    8339.4396    25.036863    24.966143    22.977688    14362.753    7579.5079    9540.4639    7898.3469   -173.97514    35.952667   -259.78904   -6417.2262 
 1000000    274.04213   -9120.5351   -8075.7615   -9120.5351            0    8874.6692    25.036564    24.892587    22.993635    14330.204     7704.221     9916.734    9003.0524    817.89154    491.23405    613.35545   -6221.0326 
Loop time of 536.166 on 64 procs for 250000 steps with 1920 atoms

Performance: 80.572 ns/day, 0.298 hours/ns, 466.274 timesteps/s
196.4% CPU use with 32 MPI tasks x 2 OpenMP threads

MPI task timing breakdown:
Section |  min time  |  avg time  |  max time  |%varavg| %total
---------------------------------------------------------------
Pair    | 72.369     | 75.198     | 87.022     |  31.3 | 14.03
Bond    | 0.77099    | 1.0092     | 1.7143     |  17.2 |  0.19
Kspace  | 248.65     | 260.71     | 271.54     |  27.4 | 48.63
Neigh   | 5.1295     | 5.6987     | 6.684      |  15.4 |  1.06
Comm    | 75.221     | 85.397     | 91.966     |  43.2 | 15.93
Output  | 0.68645    | 0.68681    | 0.68875    |   0.0 |  0.13
Modify  | 86.707     | 92.183     | 98.663     |  26.9 | 17.19
Other   |            | 15.28      |            |       |  2.85

Nlocal:        60.0000 ave          64 max          55 min
Histogram: 1 1 1 3 5 8 8 1 3 1
Nghost:        3376.12 ave        3406 max        3343 min
Histogram: 3 2 3 3 3 4 6 1 3 4
Neighs:        21196.3 ave       22606 max       19406 min
Histogram: 2 1 2 2 2 7 8 5 1 2

Total # of neighbors = 678283
Ave neighs/atom = 353.27240
Ave special neighs/atom = 2.0000000
Neighbor list builds = 11056
Dangerous builds = 0

unfix		3
unfix		2
unfix		1

write_data	data.final.${pid}
write_data	data.final.0
System init for write_data ...
PPPM initialization ...
  extracting TIP4P info from pair style
  using 12-bit tables for long-range coulomb (../kspace.cpp:340)
  G vector (1/distance) = 0.37436616
  grid = 30 30 30
  stencil order = 5
  estimated absolute RMS force accuracy = 0.0032821663
  estimated relative force accuracy = 9.8841463e-06
  using double precision FFTW3
  3d grid and FFT values/proc = 5400 960
Last active /omp style is kspace_style pppm/tip4p/omp
WARNING: Not all mixed pair coeffs generated from mixing. Use write_data with 'pair ij' option to store all pair coeffs. (../write_data.cpp:312)

write_restart   restart.lmp.${pid}
write_restart   restart.lmp.0
System init for write_restart ...
PPPM initialization ...
  extracting TIP4P info from pair style
  using 12-bit tables for long-range coulomb (../kspace.cpp:340)
  G vector (1/distance) = 0.37436616
  grid = 30 30 30
  stencil order = 5
  estimated absolute RMS force accuracy = 0.0032821663
  estimated relative force accuracy = 9.8841463e-06
  using double precision FFTW3
  3d grid and FFT values/proc = 5400 960
Last active /omp style is kspace_style pppm/tip4p/omp
Total wall time: 0:08:56
