#include		in.partitions
include		in.temp
variable        temperature equal 122.41
variable	tempDamp equal 100.0
include		in.pressure
variable        pressure equal 5043.8
variable        pressureDamp equal 1000.0 # This is 1 ps
include		in.seed
variable        seed equal 745823

units		real
atom_style	full

read_restart	restart.lmp.${pid}
read_restart	restart.lmp.1
Reading restart file ...
  restart file = 30 Jul 2021, LAMMPS = 30 Jul 2021
  restoring atom style full from restart
  orthogonal box = (0.11936917 0.070547115 0.066766706) to (19.880632 19.929454 20.633231)
  4 by 4 by 4 MPI processor grid
  restoring pair style lj/cut/tip4p/long/omp from restart
  restoring bond style harmonic/omp from restart
  restoring angle style harmonic/omp from restart
  972 atoms
  648 bonds
  324 angles
Finding 1-2 1-3 1-4 neighbors ...
  special bond factors lj:    0        0        0       
  special bond factors coul:  0        0        0       
     2 = max # of 1-2 neighbors
     1 = max # of 1-3 neighbors
     1 = max # of 1-4 neighbors
     2 = max # of special neighbors
  special bonds CPU = 0.009 seconds
  read_restart CPU = 0.021 seconds
include 	in.setup
variable	out_freq equal 1000
variable	out_freq2 equal 10000
variable	out_freq3 equal 1000

timestep	2.0

neigh_modify    delay 7 every 1

include		in.tip4p
# This is TIP4P/Ice

# create groups ###
group ox type 2
324 atoms in group ox
group hy type 1
648 atoms in group hy

# set charges - beside manually ###
set group ox charge -1.1794
Setting atom values ...
  324 settings made for charge
set group hy charge 0.5897
Setting atom values ...
  648 settings made for charge

# ### TIP3P Potential Parameters ###
pair_style lj/cut/tip4p/long/omp 2 1 1 1 0.1577 8.5
pair_coeff 1 1*2 0.000 0.000
pair_coeff 2 2 0.21084 3.1668
bond_style  harmonic
bond_coeff  1 450 0.9572
angle_style harmonic
angle_coeff 1 55 104.52
kspace_style pppm/tip4p/omp 1.0e-5
pair_modify tail yes

thermo          ${out_freq}
thermo          1000
thermo_style    custom step temp pe etotal epair emol press lx ly lz vol pxx pyy pzz pxy pxz pyz enthalpy

restart 	${out_freq3} restart.lmp.${pid} restart2.lmp.${pid}
restart 	1000 restart.lmp.${pid} restart2.lmp.${pid}
restart 	1000 restart.lmp.1 restart2.lmp.${pid}
restart 	1000 restart.lmp.1 restart2.lmp.1


include         in.dump
dump            myDump all atom ${out_freq2} dump.water.${pid}
dump            myDump all atom 10000 dump.water.${pid}
dump            myDump all atom 10000 dump.water.1
dump            myDump2 all dcd ${out_freq2} dump.dcd
dump            myDump2 all dcd 10000 dump.dcd
dump_modify     myDump append yes
dump_modify     myDump2 append yes


variable natoms 	equal  "count(all)"                        # NUMBER ATOMS
variable H      	equal  "enthalpy/v_natoms"                 # ENTHALPY-per-atom
variable Vol      	equal  "vol/v_natoms"                 # volume-per-atom
fix AVG all 		ave/time ${out_freq} 1 ${out_freq} v_Vol v_H file vol_enthalpy.dat
fix AVG all 		ave/time 1000 1 ${out_freq} v_Vol v_H file vol_enthalpy.dat
fix AVG all 		ave/time 1000 1 1000 v_Vol v_H file vol_enthalpy.dat


timer           timeout 02:55:00 every 1000
New timer settings: style=normal  mode=nosync  timeout=02:55:00

fix 		1 all shake 1e-6 200 0 b 1 a 1
       0 = # of size 2 clusters
       0 = # of size 3 clusters
       0 = # of size 4 clusters
     324 = # of frozen angles
  find clusters CPU = 0.001 seconds
fix             2 all nph aniso ${pressure} ${pressure} ${pressureDamp}
fix             2 all nph aniso 5043.8 ${pressure} ${pressureDamp}
fix             2 all nph aniso 5043.8 5043.8 ${pressureDamp}
fix             2 all nph aniso 5043.8 5043.8 1000
fix             3 all temp/csvr ${temperature} ${temperature} ${tempDamp} ${seed}
fix             3 all temp/csvr 122.41 ${temperature} ${tempDamp} ${seed}
fix             3 all temp/csvr 122.41 122.41 ${tempDamp} ${seed}
fix             3 all temp/csvr 122.41 122.41 100 ${seed}
fix             3 all temp/csvr 122.41 122.41 100 745823


run             250000
PPPM initialization ...
  extracting TIP4P info from pair style
  using 12-bit tables for long-range coulomb (../kspace.cpp:340)
  G vector (1/distance) = 0.37202909
  grid = 24 24 24
  stencil order = 5
  estimated absolute RMS force accuracy = 0.0035304487
  estimated relative force accuracy = 1.0631842e-05
  using double precision FFTW3
  3d grid and FFT values/proc = 2197 216
Last active /omp style is kspace_style pppm/tip4p/omp
Neighbor list info ...
  update every 1 steps, delay 7 steps, check yes
  max neighbors/atom: 2000, page size: 100000
  master list distance cutoff = 10.8154
  ghost atom cutoff = 10.8154
  binsize = 5.4077, bins = 4 4 4
  1 neighbor lists, perpetual/occasional/extra = 1 0 0
  (1) pair lj/cut/tip4p/long/omp, perpetual
      attributes: half, newton on, omp
      pair build: half/bin/newton/omp
      stencil: half/bin/3d
      bin: standard
Per MPI rank memory allocation (min/avg/max) = 9.225 | 9.227 | 9.229 Mbytes
Step Temp PotEng TotEng E_pair E_mol Press Lx Ly Lz Volume Pxx Pyy Pzz Pxy Pxz Pyz Enthalpy 
12250000    134.58139    -5006.109   -4746.5575    -5006.109            0    5165.9096    19.761263    19.858907    20.566465    8071.0432    5329.6252    6369.8491    3798.2547    327.81603    429.54975    18.163037   -4138.4892 
12251000    122.75368   -5007.7383   -4770.9975   -5007.7383            0    4147.4855    19.952537    19.802186    20.622924    8148.1969    4679.9583    3696.9123    4065.5859    242.85736    317.02861   -561.90109   -4278.1389 
12252000    124.83351   -5002.1192   -4761.3672   -5002.1192            0     5933.068    19.970891    19.739967    20.479008    8073.3313     6225.421    5404.2642    6169.5189   -681.34808    68.998249    573.17753   -4062.8004 
12253000    123.32509   -5005.4603   -4767.6175   -5005.4603            0    6091.9555    19.853361    19.853899    20.452895    8061.8486    6375.7667    4699.6122    7200.4877   -461.32742    765.93217   -1496.6879   -4051.3632 
12254000    120.46744   -5013.8974   -4781.5658   -5013.8974            0    4624.7192    19.942667    19.815911    20.546073    8119.4405     4035.349    4097.1969    5741.6116   -54.691615     219.2879   -277.39158   -4233.9357 
12255000    122.33619   -5001.0792   -4765.1435   -5001.0792            0    5716.8738    19.682174    19.940082     20.60212    8085.5939    7141.0204    4484.8119    5524.7889   -338.58804    915.16209   -45.474529   -4091.0092 
12256000    123.41002   -4998.0215   -4760.0149   -4998.0215            0    4337.9373    19.750233    20.013616     20.63333      8155.81     5919.447    2620.6738     4473.691   -241.85494    566.76592   -424.13841   -4244.0428 
12257000    121.93376   -4996.7652   -4761.6057   -4996.7652            0    4970.9746    19.779253    19.961593     20.47698    8084.8318    5863.8348    3783.8833    5265.2058   -60.417602   -90.810573   -1127.7437   -4175.4831 
12258000    126.43276   -5005.3778   -4761.5416   -5005.3778            0    5132.3491    19.841996    19.989312    20.404095    8092.8325    5180.9135     4672.937    5543.1969   -583.70692    287.00299    352.36631   -4155.7927 
12259000    126.61559   -4994.7998    -4750.611   -4994.7998            0    4480.9577    19.815352    20.097067    20.415372    8130.0234    3033.9788     4742.856    5666.0382   -427.69904    660.10143    -1228.013   -4219.3126 
12260000    124.00872   -4998.5355   -4759.3743   -4998.5355            0    4711.3007    19.917041    19.936433    20.466318    8126.6583    4610.1035    4577.4464    4946.3523   -31.750566    1173.6283    484.77495   -4200.9957 
12261000    118.87678   -4998.7989   -4769.5351   -4998.7989            0    4730.3233     20.01739    19.764325    20.541049    8126.6593    4035.6228    4783.0833    5372.2639   -478.82998    177.41006    395.15599   -4208.9019 
12262000     128.2903   -4990.5677    -4743.149   -4990.5677            0    5512.0387    19.929632    19.913157    20.400287    8096.0963    5125.3742    5717.7796    5692.9622    16.007382    57.669816    914.70636   -4092.3247 
12263000    122.58487   -4982.0033    -4745.588   -4982.0033            0    5280.8107    19.798233    19.918955    20.564765    8109.9229    5757.9779     5025.173    5059.2812    213.87601    361.55049    1591.8168   -4121.0006 
12264000       120.95   -5008.9214   -4775.6591   -5008.9214            0     5261.001    19.709832    19.988431    20.683689    8148.7241    5875.1719    5060.0481     4847.783   -616.52801    41.588594    68.831215   -4150.4376 
12265000     119.5122    -4998.689   -4768.1997    -4998.689            0    4976.1579    19.824304    19.875447    20.624904    8126.5605    5916.0729    4667.3198    4345.0809   -127.17231   -281.42635    197.01509   -4178.4376 
12266000    120.52102   -4998.4142   -4765.9793   -4998.4142            0    5509.0898    19.903995    19.839983     20.55203     8115.892    4851.8066    5604.6645    6070.7982   -557.50235    996.58498   -536.27297   -4113.9126 
12267000      122.786   -5006.8994   -4770.0963   -5006.8994            0    4780.4633    19.839914    19.823366    20.741503    8157.5062    4670.4055    4425.4312    5245.5533   -395.88567    468.78214   -91.911542     -4201.37 
12268000    114.59031    -4999.117   -4778.1199    -4999.117            0    4496.9911    19.899596    19.824898    20.624748    8136.6168    5674.5584    4799.2903    3017.1246    403.11316   -987.43269    297.88001    -4244.488 
12269000    121.88589   -5001.0238   -4765.9566   -5001.0238            0    5243.6767    19.850306    19.756813    20.569632    8066.9733    4832.9706    5525.2493    5372.8103    248.25605    654.46404    734.13383   -4149.0458 
12270000    119.96617   -5002.0707   -4770.7059   -5002.0707            0    4166.6792    19.914556    19.897054    20.580779    8154.9482    4292.6687    3736.9494    4470.4195    66.379858    13.861859    92.288939   -4275.1562 
12271000    119.45068   -5010.2373   -4779.8666   -5010.2373            0    5229.3115    19.899112    19.846893    20.528512    8107.4388    4952.7578    5526.2655    5208.9111   -794.65574    810.36985    1236.3931   -4161.5597 
12272000    123.50352   -4999.8268   -4761.6399   -4999.8268            0    5473.5573    19.981566    19.818814    20.435396    8092.6402    4309.3356    5725.9882     6385.348   -185.63271   -947.97962   -119.97045    -4115.635 
12273000    119.73826   -5005.7925   -4774.8672   -5005.7925            0    5009.9317     19.96899    19.765452    20.491481    8087.9081    4408.7203    5263.6095    5357.4651   -255.25596    401.58464    1224.8085   -4183.9265 
12274000    122.31765    -4975.061   -4739.1612    -4975.061            0    5258.1758    19.786435    19.849005    20.668744     8117.464    5485.7663     6231.133    4057.6281   -171.21028     721.0018    384.13073   -4116.6726 
12275000    128.53117   -5000.5082    -4752.625   -5000.5082            0    4743.6385    19.776316    19.872364    20.586212    8090.4256    5299.6266    3871.3187    5059.9702   -630.35112   -184.69506    223.68285   -4192.9205 
12276000    126.45727    -4994.247   -4750.3635    -4994.247            0    6294.1488     19.97789    19.834321    20.357817     8066.742    6101.7613    6042.6265    6738.0588    110.03035    1743.7928   -108.18035   -4009.8874 
12277000    128.83497    -4997.571   -4749.1019    -4997.571            0     5460.377    19.855777    19.868138    20.577184    8117.6437    6475.7236     4430.238    5475.1694   -177.28908    315.90432    -272.5451   -4102.6615 
12278000    121.80839   -5008.7937    -4773.876   -5008.7937            0    5241.3524    19.905101    19.679563    20.707898    8111.7744    5701.3104      5484.12    4538.6268   -468.17019   -346.15037     391.6357    -4153.814 
12279000    126.13683   -5004.4808   -4761.2153   -5004.4808            0    5415.3206    19.886334    19.887386    20.459108    8091.3153    5590.3921    5170.4278    5485.1418    596.47543     845.2122    100.99968   -4122.1883 
12280000    123.05261    -4992.122   -4754.8047    -4992.122            0    4449.7559     19.85058    19.980888    20.499646    8130.8201    4582.9907    3743.6012    5022.6759   -317.21488   -14.331462   -497.93587   -4227.1541 
12281000    129.17093   -4997.5973   -4748.4803   -4997.5973            0    5235.7445     19.81134    19.970887    20.434157     8084.775     6277.463    3757.6786     5672.092   -174.44413    357.89466    328.53856   -4131.1433 
12282000    123.43989   -4996.5905   -4758.5263   -4996.5905            0    4911.7598    19.806443    20.021991    20.459514    8113.5151    5674.9645    3158.5177    5901.7972   -102.52782     702.3858    531.54465    -4177.331 
12283000    128.71637   -5008.0994    -4759.859   -5008.0994            0    4723.1785    19.813997    19.867655    20.514964    8075.8727    4798.3099    4569.4135    4801.8121   -428.90018    296.52407    173.10432    -4203.571 
12284000    119.63844   -5003.2512   -4772.5184   -5003.2512            0    5647.1287    19.708426    19.866283    20.631699    8077.9943     6591.853    4379.2999    5970.2332    24.893434     40.97569    637.31056   -4107.2344 
12285000    117.01586    -5016.569   -4790.8941    -5016.569            0    4953.9046     19.85309    19.867877    20.566045    8112.0453    4633.3448     4939.053    5289.3159   -156.81008    956.54355    189.99131   -4204.8181 
12286000    119.44887   -5010.2515   -4779.8843   -5010.2515            0    5351.4206    19.782119    19.888208    20.634582    8118.2821    6131.8407    4222.6014    5699.8198   -415.23189    650.79685   -102.14699   -4146.2931 
12287000    122.35131   -5001.2703   -4765.3055   -5001.2703            0    5433.4295    19.840182     19.76994    20.637891    8094.9902    5518.3193    5859.4584    4922.5108    -502.7511    583.92535    208.35657   -4123.8505 
12288000    128.14619   -5005.4412   -4758.3005   -5005.4412            0    4241.0641    19.953196    19.856036    20.580515    8153.8229     3759.433    4633.4943    4330.2651   -700.03339    461.01497    111.34414   -4253.9737 
12289000     121.8261   -5013.5419   -4778.5901   -5013.5419            0    4226.2156    19.979437    19.879018    20.508118     8145.242    4410.6514    3764.4556    4503.5398    55.673489     101.4144    86.150348   -4276.5579 
12290000    121.23226   -5003.8848   -4770.0782   -5003.8848            0    5304.6292    19.987891     19.85001    20.495921    8131.9586    5828.0446    4046.1712    6039.6717   -154.88303   -426.40642    990.56966   -4140.9689 
12291000    123.60093   -5005.8714   -4767.4966   -5005.8714            0     3399.608    19.894378    19.935755    20.614491    8175.9017    4043.6135    2657.9217    3497.2889   -19.648572    1054.0719    30.106157   -4362.1371 
12292000    121.75497   -5007.8281   -4773.0135   -5007.8281            0    4696.0577    19.791315    19.977969    20.561415    8129.7835    4004.2235    6107.0595    3976.8902    478.21107    789.19461    -557.1174   -4216.2275 
12293000    127.13693   -5002.1633    -4756.969   -5002.1633            0    4684.0283    19.899468    19.845053    20.608859     8138.562     4583.895    5844.4591    3623.7309    52.078553    546.33262    532.84789   -4201.0096 
12294000    123.49094   -5018.9885   -4780.8259   -5018.9885            0     5340.877    19.963879    19.742861    20.577286    8110.4154    6179.2972    3987.9844    5855.3494   -419.45421    240.16751    87.596973   -4149.0958 
12295000    120.78259   -5013.9075   -4780.9681   -5013.9075            0    5855.1858    19.880946    19.750573    20.537614    8064.3012    5593.9358    5931.2178    6040.4039   -180.91119    267.51922    1027.8737   -4092.3422 
12296000    121.73492   -5008.3487   -4773.5727   -5008.3487            0    3967.0075    19.941621    19.718881    20.640004    8116.1957    3488.5308    4809.3966    3603.0951     -169.663    678.67236    677.69972   -4304.0124 
12297000     121.8323   -4998.0504   -4763.0865   -4998.0504            0    5598.1747    19.857222    19.738313    20.583831    8067.7927    6808.6468    5389.8676    4596.0096    94.642973    288.64694    627.28581   -4104.4026 
12298000    119.45251   -5014.5562    -4784.182   -5014.5562            0    4082.4643    19.895711    19.888831    20.538395    8127.0929    4439.5877    3880.2536    3927.5518   -26.864281    986.44033     428.3379   -4300.3066 
12299000     125.7347   -5004.2333   -4761.7433   -5004.2333            0    5136.5014    20.027429    19.871869    20.397225    8117.7375    3761.7574     5363.169    6284.5778  -0.16402456   -618.67328    539.03563   -4153.6387 
12300000    121.38833   -5009.4133   -4775.3057   -5009.4133            0    5578.9556    19.852739    19.955844    20.324161    8051.9886    4216.5718    6004.8503    6515.4447   -23.103991    847.29924    461.48547    -4120.169 
12301000    134.11017   -4990.8588    -4732.216   -4990.8588            0    5827.8467    19.860183    19.890064    20.564296    8123.3146    6387.6117    5821.6339    5274.2944    12.908193    919.28267    838.11408   -4041.7898 
12302000    121.14582   -5009.3923   -4775.7524   -5009.3923            0    5372.3346     19.74662    19.835562    20.703892    8109.4102    6054.9795    5169.4788    4892.5456   -333.09009     736.1323    81.659936   -4140.3802 
12303000    117.44202   -5010.1594   -4783.6626   -5010.1594            0    5266.5438    19.827165    19.884826    20.598907    8121.3198    5078.6709    5491.9029    5229.0575    192.86617   -276.89053   -655.63202   -4159.8872 
12304000    120.19194    -4982.851   -4751.0507    -4982.851            0    5103.7824    19.986362    19.775363    20.553599    8123.5543    4009.9123    5535.9026    5765.5322   -67.181806     591.8308   -60.655227   -4146.3867 
12305000     124.5713   -5003.7742    -4763.528   -5003.7742            0    5817.7669    19.850734    19.917743    20.463284    8090.8108    5969.0709    6026.4265    5457.8034    257.49449    57.567519   -466.20617   -4077.0537 
12306000      124.937   -4982.3804   -4741.4289   -4982.3804            0    5755.3108    19.842716    19.890934    20.477069    8082.0979    5947.9323    6297.0683    5020.9317    92.366862    155.43483    82.972275   -4063.0556 
12307000    118.21823   -5014.5229   -4786.5291   -5014.5229            0    4499.4025    19.817255    19.917707    20.681859     8163.425    4334.4366    4749.1707    4414.6003   -345.89014   -364.75053    67.207385   -4250.8519 
12308000     122.5957   -4997.9419   -4761.5058   -4997.9419            0    5853.7829    19.704309    19.932036    20.555535    8073.1249    6384.6533    5811.9795     5364.716   -150.66666       301.51    38.095563   -4072.2917 
12309000    122.98489   -5008.1673   -4770.9806   -5008.1673            0    4741.5248    19.948793    19.978157    20.380229     8122.339    4699.1203    4025.1346    5500.3194    407.93372     452.4265   -360.87543   -4209.3186 
12310000    126.24892   -5015.2497    -4771.768   -5015.2497            0    4120.5095    19.891347    19.925184    20.533423    8138.1911     4880.166     2988.779    4492.5835    503.39381   -407.20798    44.371943   -4282.7164 
12311000    117.58719   -4986.3849   -4759.6082   -4986.3849            0    5363.5106    19.831823    19.954242    20.479747    8104.4299    4766.0965    5284.1661    6040.2693   -576.08598    954.12179   -367.63234   -4125.6691 
12312000    127.66698   -4995.3118   -4749.0953   -4995.3118            0    4309.5292    19.907494     19.85148    20.672748    8169.7296    4622.1914    4480.7439    3825.6523   -90.349669    1026.5287    312.49999   -4235.6273 
12313000    121.70991   -4981.8265   -4747.0986   -4981.8265            0    6885.0255    19.797828    19.845394    20.451467    8035.2932    7190.8141    6486.5943    6977.6681   -382.37051    525.15544    49.135592   -3940.2665 
12314000    125.87934   -5010.4845   -4767.7156   -5010.4845            0    3992.3635    19.675695    19.945576    20.755696     8145.429    4446.1448    3987.7238    3543.2221   -383.17942    464.87328   -359.88017   -4293.4519 
12315000     123.2673   -5009.7836   -4772.0523   -5009.7836            0    5604.7321    19.883242    19.841709    20.603681    8128.5128    6747.8299    4955.2291    5111.1372    72.662867    1012.4434   -796.08974   -4107.6336 
12316000    123.81791   -4988.3476   -4749.5543   -4988.3476            0    5038.6446    19.930252    19.705733    20.760004    8153.2888    5778.3778    5221.3119     4116.244    176.20617   -16.316372    690.54525   -4150.4225 
12317000    119.71565   -5002.3899   -4771.5082   -5002.3899            0     5364.345    19.861943    19.886122    20.524163    8106.5728      4726.39    6185.7646    5180.8804    37.753867   -472.99354   -369.31207   -4137.3028 
12318000    117.26268    -4997.993   -4771.8421    -4997.993            0    5427.0306    19.982256    19.842889    20.544472    8145.9998    5670.2793    5147.6578    5463.1548   -433.32185    1808.5071   -95.550613   -4127.1051 
12319000    116.36836   -5007.0171   -4782.5909   -5007.0171            0    5643.0272    19.953089    19.771508     20.61207    8131.5164    4473.0979      6459.92    5996.0638   -285.34026     1063.663    186.97843   -4113.3853 
12320000    116.63596   -4992.6297   -4767.6874   -4992.6297            0    4560.2539    19.781015    19.935359    20.676221     8153.495     6057.021    4088.0711    3535.6697   -85.903978    465.15798    431.29057    -4225.426 
12321000    124.91302   -5003.2378   -4762.3325   -5003.2378            0    5126.3294    19.926013    19.826101    20.567642    8125.3529    4646.7782    5748.9992    4983.2109   -335.24301   -1032.7688    1131.1051   -4154.8628 
12322000    130.38837   -4983.8689    -4732.404   -4983.8689            0    5940.1558    19.908581    19.905948     20.36725    8071.5243    5666.9419    5698.5753    6454.9502   -360.60467   -826.86204   -646.41487   -4033.1591 
12323000    118.42907   -5014.0993   -4785.6989   -5014.0993            0    3250.5065    19.919673    19.980109    20.427663    8130.1531    3618.3022    2442.9958    3690.2216    528.47634    518.86344   -194.50942   -4400.2865 
12324000    123.25386    -5013.711   -4776.0056    -5013.711            0    5866.6095    19.775794    19.792876     20.59892     8062.826    4596.5463    6950.9636    6052.3187    220.44594   -232.14887   -171.31614   -4086.1624 
12325000    121.50494   -5001.6462   -4767.3137   -5001.6462            0    6565.3266    19.763606    19.747137    20.644002    8056.8302    5301.0364    8740.3595    5654.5837    94.654749    87.578774   -1258.6808   -3995.8838 
12326000    122.92519     -5004.05   -4766.9784     -5004.05            0    4822.1925    19.674418    19.975552    20.610462    8100.0632    5831.8555    4108.6974    4526.0247   -282.23823     857.1411    321.56743   -4197.3274 
12327000    114.77646   -5009.1611    -4787.805   -5009.1611            0    4708.1078    19.899253    19.831552    20.568812    8117.1335    4818.8089    4610.7265     4694.788     155.5456    412.17943   -703.32818   -4230.4589 
12328000    124.48786    -4989.438   -4749.3527    -4989.438            0    5983.4233    19.895697    19.775133    20.577628    8096.0633    6874.3279      4918.93    6157.0121   -570.94751   -1016.2549    1318.5826   -4042.8733 
12329000    123.78174   -5011.8045    -4773.081   -5011.8045            0    5469.4296    19.856205    19.781816    20.551369    8072.4087    4288.1527     6605.402    5514.7341    217.97933    -345.2895   -158.31027   -4129.1771 
12330000    124.82836   -4995.9234   -4755.1814   -4995.9234            0    4261.8793    19.872805    19.859176    20.566231    8116.6181    4126.6173    4697.9347    3961.0859   -208.85462     57.58072   -913.62786   -4250.6918 
12331000    120.76877   -4997.8718    -4764.959   -4997.8718            0    5008.0166    19.780765    19.810074    20.732917     8124.368    5663.4345    3563.9016    5796.7138   -245.00639   -93.760072   -158.48096   -4171.5813 
12332000    116.71951   -5002.2101   -4777.1067   -5002.2101            0    5322.5981    19.854014     19.89407    20.454747    8079.1576    5760.4075    5071.9616    5135.4253    387.36773    796.78728    425.88888    -4149.965 
12333000    125.82322   -5004.8069   -4762.1462   -5004.8069            0    4726.5667    19.869865    20.021689    20.396772    8114.4122    3009.0407    5615.0352    5555.6241     -59.5265    754.39063   -284.50288   -4202.8025 
12334000    127.67511   -4995.4046   -4749.1724   -4995.4046            0    4494.9904    20.038716    19.877295    20.440604    8141.8086    3500.1194    4349.4859    5635.3658    78.271643    131.94963   -1266.7306   -4215.4376 
12335000    117.79639   -5004.2217   -4777.0414   -5004.2217            0    4980.7087    19.804272    19.784809    20.679387    8102.6745      5453.42    4224.2111    5264.4949   -343.59484   -368.34836   -631.11884   -4188.4751 
12336000    124.19617   -5012.2751   -4772.7523   -5012.2751            0     5133.747    19.818771    19.821865    20.635467    8106.5402    3987.9801     6624.907    4788.3539   -376.96372    82.597375    260.90418   -4165.8121 
12337000    120.96106   -5008.1543   -4774.8707   -5008.1543            0    5194.9541    19.788276     19.78846    20.683781    8099.3449    5964.2099    4260.4182    5360.2342   -177.28392    1328.0573    918.40795   -4161.2395 
12338000    124.11575   -5004.8687    -4765.501   -5004.8687            0    5297.5252    19.817993    19.945475    20.562591    8127.9663    6170.6124    4734.5307    4987.4325    184.62327    267.87898   -346.18244   -4137.5427 
12339000    115.74713   -5016.0222   -4792.7941   -5016.0222            0    4031.9343    19.882817    19.835643    20.607127    8127.2129    3905.7074    3715.9809    4474.1148   -1.6807228    1028.0656    195.03558   -4314.9008 
12340000     118.9941   -5001.4029   -4771.9128   -5001.4029            0    4782.2478    19.854253    19.842098    20.640051    8131.1488    4964.2921     5358.656    4023.7953    1125.0799     494.2807   -837.02335   -4204.8125 
12341000    115.93535    -4997.383    -4773.792    -4997.383            0    4877.5715    19.977948    19.769346    20.524048    8105.9928    4581.4624    5669.0596    4382.1925    60.644855    223.80678   -98.558625   -4197.1772 
12342000    123.55452   -5008.9743   -4770.6891   -5008.9743            0    5083.4888    19.861555    20.033319    20.404834    8118.9379    5542.2166    3658.5891    6049.6608    -20.29711    772.88828   -104.84315   -4168.7715 
12343000    131.51983   -5009.8953   -4756.2482   -5009.8953            0    3617.2349    20.000089    20.004097     20.36986    8149.6494    2162.2302    4360.4374    4329.0372   -542.20604    764.55637    373.78074   -4326.3244 
12344000    122.30182   -5008.2945   -4772.4252   -5008.2945            0    5306.7958    19.796724    19.938595    20.602071    8132.0259    4615.5411    5041.1753     6263.671    135.37515     798.5048    1165.4227   -4143.0538 
12345000    115.78165   -5010.2478   -4786.9531   -5010.2478            0    4858.9132    19.768726    19.890704    20.641917    8116.6883    3297.5626    6894.4079    4384.7692   -38.546828   -90.934774    -405.4852   -4211.7862 
12346000    119.58975   -4994.0171   -4763.3782   -4994.0171            0    5080.0018    19.935569    19.908497    20.540012     8152.068    4800.2552    5644.4641    4795.2861  -0.48399102   -286.96508    1205.0934   -4159.4191 
12347000    120.88275   -5002.9793   -4769.8468   -5002.9793            0    4411.4635    20.000863     19.73219    20.635846    8144.1601    5427.1225    4426.0783    3381.1896     -41.0225    306.73187   -954.25483   -4245.8786 
12348000    125.21465   -5008.2923   -4766.8054   -5008.2923            0    6082.0146    19.848633    19.822571     20.55608    8087.8086     4923.103     7812.235    5510.7057   -455.99259   -36.962764   -595.24076   -4049.4172 
12349000    120.98887   -5004.0204   -4770.6832   -5004.0204            0    4791.2075    19.777392    19.918897    20.587774    8110.4264    5915.0772    3959.6597    4498.8857   -682.03285   -80.817738   -962.21761   -4203.9684 
12350000    118.62461   -4994.7033   -4765.9258   -4994.7033            0    5943.4684    19.850511    19.962424    20.421414     8092.278    6583.1687    4345.3342    6901.9023   -160.19142    307.27861     82.60395    -4064.492 
12351000    114.49458    -5004.836   -4784.0236    -5004.836            0    4924.5893     20.01763    19.861194    20.370382    8098.7351    3769.2212    4873.7875    6130.7593   -680.06037    418.64253    182.00733   -4202.3718 
12352000    117.96794   -4991.9955   -4764.4844   -4991.9955            0    5109.4513    19.868946    19.927985    20.452695    8098.2045    3349.7014     6052.284    5926.3684    58.466397   -525.35888    1410.3453   -4161.0377 
12353000    125.65676   -5005.1689   -4762.8292   -5005.1689            0    3726.9774    19.870547    19.907472    20.638759    8164.1225    3394.6263    4385.6476    3400.6584    296.12678   -155.61239   -574.55551   -4319.0753 
12354000    126.65848    -5007.535   -4763.2635    -5007.535            0    4220.6865    19.756877    19.895015    20.732701    8149.2648    4396.4048     4393.143    3872.5117    494.37913   -195.50136    87.502382   -4261.6405 
12355000     127.9831   -4995.4525   -4748.6263   -4995.4525            0    5264.7678    19.734379    19.951161    20.714928    8155.9596    4830.2063    5084.7437    5879.3534      72.6451   -610.93735    74.160621   -4122.4016 
12356000    117.28869   -5008.5832   -4782.3821   -5008.5832            0    5052.8993    19.847048    19.972539    20.526701    8136.7013    5724.0112    3595.2185    5839.4682    321.91395    -751.1955   -52.230006   -4182.7775 
12357000    119.93471   -4998.4228   -4767.1187   -4998.4228            0    3556.2684    19.832795     19.99254    20.627625    8179.0173    3695.0277    3222.7877    3750.9898    86.648814    120.17904   -886.38242   -4342.9178 
12358000    126.57851   -4997.1513    -4753.034   -4997.1513            0    6471.2768    19.902235    19.869243    20.339017    8042.9083    6354.7323    5893.7507    7165.3476   -734.31224    407.96247    962.33012    -3993.969 
12359000    125.97299   -5008.0846   -4765.1351   -5008.0846            0    4511.9236    19.844728    19.951501    20.458623    8100.2257    4463.7569    3814.9702    5257.0437   -228.89555   -608.54698    267.03323   -4232.1259 
12360000    126.04439   -4997.3906   -4754.3034   -4997.3906            0    5656.5182    19.887234     19.91382    20.465658    8105.0307    6225.8546    4047.5066    6696.1933    431.74119   -1122.6329    -492.2295   -4085.6828 
12361000    122.74334   -4983.8619   -4747.1411   -4983.8619            0    5719.6551     19.83554    19.815754    20.568435    8084.5505    6244.8028     5981.736    4932.4264   -572.41279    690.11387    533.31755   -4072.7658 
12362000    125.16784   -5001.1176   -4759.7209   -5001.1176            0    5821.8815    19.888918    19.913216    20.402561    8080.4816    6945.8307    4927.6922    5592.1217   -806.02769     1335.879   -113.37745   -4073.6382 
12363000     121.0913   -5011.5327    -4777.998   -5011.5327            0    4284.0077    19.867478    19.971143     20.43029    8106.2537    4637.1495    3402.6642    4812.2095   -242.35825    412.40812   -390.70003   -4271.5366 
12364000    126.75248   -5005.6023   -4761.1495   -5005.6023            0    5616.2412    20.054769    19.850092    20.367358    8108.0211    4563.2194    5920.1525    6365.3516    155.32739    787.70733    290.69895   -4097.0448 
12365000    121.30177   -5001.3698   -4767.4291   -5001.3698            0    4288.3705    19.875217    19.787734    20.625365    8111.6574    5355.8481     3730.966    3778.2975    163.45251    661.66653   -349.06847    -4260.114 
12366000    117.31809   -5010.2696   -4784.0118   -5010.2696            0    3648.7481    19.791557    19.989156     20.63888    8165.0821    4671.4183    2083.1294    4191.6965    471.28388    672.24143   -775.93346   -4349.5212 
12367000     120.2253     -5013.72   -4781.8554     -5013.72            0    4276.5101     19.71046     19.89705     20.68748     8113.216    5563.8543    2859.2729    4406.4033    7.4050207    28.763129   -243.68827   -4275.8462 
12368000    118.13012   -5005.4248   -4777.6009   -5005.4248            0    4744.2075    20.001548    19.647379    20.666083     8121.316    4970.5844    6085.0421     3176.996   -127.78603    105.40891   -19.568668   -4215.6919 
12369000    119.51495   -5010.3741   -4779.8795   -5010.3741            0    6336.7372    19.912101    19.790565     20.52278    8087.4476    5649.7646    6657.5084    6702.9385    186.37837    471.86293   -215.11973   -4032.4796 
12370000    121.82403   -4992.6716   -4757.7237   -4992.6716            0    6889.8974    19.980504    19.894521    20.194959     8027.548    6295.6789    7159.8268    7214.1864   -27.916288    2.4341666    750.91826    -3951.099 
12371000    120.45707   -5016.8627   -4784.5511   -5016.8627            0    4686.5782    19.993025     19.84849    20.430488    8107.4584    2484.5898    6455.2457    5119.8992   -392.46321   -935.42495     180.1866    -4230.415 
12372000       122.73   -4988.6591    -4751.964   -4988.6591            0    4668.2844    19.964456    19.748171    20.649416    8141.2696    3376.7302    6434.8973    4193.2257   -91.695475    -1020.831   -673.70687   -4197.6889 
12373000    123.93046   -5000.0273    -4761.017   -5000.0273            0    6774.4491    19.745644    19.804214    20.579904    8047.7087    8154.9354    6214.5509    5953.8611   -321.66512   -671.22101   -130.07006   -3965.9163 
12374000    123.92426   -5004.1537   -4765.1553   -5004.1537            0    4025.9678    19.856649    19.752026     20.75219    8139.1965    3693.2951    4149.2442    4235.3641   -722.65807   -502.66523    282.75001   -4287.2655 
12375000    126.32945   -5002.0418   -4758.4049   -5002.0418            0    3852.4908    19.812841     19.98658    20.646789     8175.941    5031.7195    2359.9944    4165.7585   -84.137863    1441.2159   -376.07142   -4299.0427 
12376000    113.86264   -5005.5385   -4785.9448   -5005.5385            0    5905.6104    19.776115    19.931506    20.596348    8118.4163    7558.0308    4762.9188    5395.8815   -46.054817    988.45674    475.61057   -4086.7278 
12377000    120.17233   -5004.0881   -4772.3256   -5004.0881            0     4726.107    19.876303    19.965376    20.478392    8126.6013    5518.8334    3048.6104    5610.8773   -373.18248    404.80388    1264.2967   -4212.1962 
12378000    119.84341   -5006.8275   -4775.6994   -5006.8275            0    5559.6884    19.879384    19.902179    20.490724    8107.0129    5971.3331    4528.3335    6179.3987   -291.07925    240.26725   -267.61751   -4118.3637 
12379000    127.86165   -4996.5687   -4749.9768   -4996.5687            0    4717.9018    19.962966    19.767021    20.604523    8130.7173    5437.6277    3743.4866    4972.5911    477.73867    60.006286   -709.56281   -4190.5366 
12380000    117.14031   -5012.0646   -4786.1497   -5012.0646            0    5346.7233    19.853722    19.803182      20.5893    8095.0306    3498.9668    6769.7802    5771.4228     496.9249   -341.59883   -461.73175   -4154.9278 
12381000    118.09611   -5012.3412    -4784.583   -5012.3412            0    5685.4967    19.732765    19.738999    20.745174    8080.3493    6529.0316    4449.4666    6077.9919    17.042676   -357.30678   -308.95486   -4114.5835 
12382000    120.11949   -4980.7632   -4749.1027   -4980.7632            0    5693.6667    19.783428    19.859144    20.625906    8103.5463    5058.9944    6442.0901    5579.9154   -202.11046   -90.671361    457.56397   -4076.2143 
12383000    128.08025   -4995.9908   -4748.9773   -4995.9908            0    6475.6832    19.953956     19.60097    20.689413    8091.9786    8311.1666    5406.9594    5708.9236    66.670446    672.19031   -585.05935   -3984.7611 
12384000    117.59576    -5001.309   -4774.5157    -5001.309            0     5307.232    19.943981    19.780034    20.552674    8107.8783    4499.9977    6149.7814    5271.9169     -325.011    97.778196   -174.89862   -4146.9616 
12385000    123.82827   -5006.5015   -4767.6883   -5006.5015            0    4907.8049     19.70871    20.012107    20.510144    8089.4639    6404.2085    3442.3802    4876.8261   -284.58073    685.39574     1142.989   -4188.6825 
12386000    128.26104   -5014.1047   -4766.7425   -5014.1047            0    4537.4075    19.973053    19.839391    20.533959    8136.6472    5345.4502    4071.6078    4195.1646   -319.85524   -31.143363    1022.6522   -4228.3126 
12387000    122.57041   -5013.7803   -4777.3929   -5013.7803            0    5113.2013    19.946343    19.705237    20.649701    8116.3116     3883.766    6569.5353    4886.3027   -32.591827    821.96662   -534.31798   -4172.1531 
12388000     121.9605    -5003.831     -4768.62    -5003.831            0    6064.3563    19.850727    19.871035    20.507735    8089.3685    5205.6574    6825.6507    6161.7609   -187.28482   -110.00181    311.63091   -4053.1767 
12389000    121.14977   -5027.4305    -4793.783   -5027.4305            0    4151.4443     19.93878    19.779273    20.616288    8130.5394    3475.5002    5259.4973    3719.3352   -175.82153    1311.7286    547.44828   -4301.5231 
12390000    125.20379    -4996.447    -4754.981    -4996.447            0    6215.6228    19.753523    19.902142    20.575986    8089.1897    6418.5786    6462.9918    5765.2981    214.00008    446.66995    125.70684   -4021.7082 
12391000    123.57208   -5008.9815   -4770.6624   -5008.9815            0    4508.7873    20.098548    19.719469    20.475605    8115.1516    3200.4115    5313.8182    5012.1322    591.87993    976.25688    456.12212   -4237.0422 
12392000    121.97292   -5003.4241    -4768.189   -5003.4241            0    4251.0622    19.954455     19.88764    20.442127    8112.3974    3807.2543    3935.1018    5010.8307     306.5589   -19.110629    452.35642   -4265.2416 
12393000    119.31089   -5003.5311     -4773.43   -5003.5311            0    4778.2387    19.928395    19.987971    20.347577    8105.0133    5253.3835    3212.9608    5868.3717   -156.47796   -584.75533    56.825602   -4208.6264 
12394000    123.38312   -5004.9926   -4767.0379   -5004.9926            0    5621.3961    19.872666    19.936203    20.504143    8123.4443    5392.3374    5242.0263    6229.8246   -293.35319    -1021.627    1156.0175   -4101.0593 
12395000    118.88217   -4995.6359   -4766.3616   -4995.6359            0    5959.4958    19.851892    19.849826    20.540286    8094.0354    6146.7494    6882.6576    4849.0804     85.66317     966.6602    612.44113   -4062.8836 
12396000    121.25827    -5011.384   -4777.5273    -5011.384            0    4765.7899    19.801722    19.729533    20.795187    8124.2373    4156.7904    7174.1849    2966.3944   -426.68088    1075.3601   -162.58164    -4212.859 
12397000    116.62542   -5010.0418   -4785.1198   -5010.0418            0    4561.0951    19.827466    19.923277    20.635436    8151.5769    5005.4314    4138.2323    4539.6216    276.09277   -63.127366   -819.11176    -4242.886 
12398000     120.4774   -5014.4667   -4782.1159   -5014.4667            0    4315.5835    19.789797    19.883692    20.710756    8149.5632     4990.688     3742.734    4213.3285    164.67169     1828.559    286.88498   -4269.1958 
12399000    124.88289   -4993.5783   -4752.7312   -4993.5783            0    6023.8237    19.686857    19.869572    20.597157     8056.978    7403.5404    5473.2137     5194.717   -591.16241   -261.16515   -266.61379   -4044.9152 
12400000    122.40475   -5006.8794   -4770.8115   -5006.8794            0    5186.3535    19.795851     19.99856    20.432263    8088.8982    5797.0804    4904.2553    4857.7247    3.2589193    178.97319     -500.125   -4158.9863 
12401000     127.2627   -4996.4865   -4751.0497   -4996.4865            0    4887.6551     19.82108    19.896485     20.57362     8113.615    5971.0294    4150.7746    4541.1612    551.25532    690.71695   -726.33142   -4172.6995 
12402000    126.31992   -4996.7947   -4753.1762   -4996.7947            0    5168.4787    19.988006    19.710237    20.551265    8096.5479    5518.5461    4980.9963    5005.8936    47.851738   -551.31507    117.27552    -4142.883 
12403000    121.45082   -5005.7408   -4771.5127   -5005.7408            0    4742.4263    19.823425    20.008676    20.464848     8117.187    4373.8621    4785.0543    5068.3623    283.52033    19.554887   -636.63471   -4210.1002 
12404000    123.63368   -5008.2777   -4769.8397   -5008.2777            0     4789.334    19.979638    19.827378    20.472067    8109.8826    3070.6327     5929.179    5368.1903     428.7812    144.01676   -123.71697   -4203.3845 
12405000    120.59572    -5005.699     -4773.12    -5005.699            0     4049.989    19.974387    19.798739    20.520247    8115.0944    4016.5064    2496.0928    5637.3677   -382.87019     178.7277   -190.67608   -4293.8025 
12406000    116.99048   -5008.5404   -4782.9145   -5008.5404            0    3750.8802    19.845111     19.81352     20.76695    8165.5962    2223.0183    4897.6209    4132.0015    381.56483    1249.6822    -792.0985    -4336.234 
12407000    123.73385   -5001.6206   -4762.9895   -5001.6206            0    5009.6976    19.860246    19.870071     20.62065    8137.4136    4872.6388    4026.1839    6130.2703   -326.09943    558.75392    -985.4018   -4168.4594 
12408000    121.58172   -5014.8186    -4780.338   -5014.8186            0    5675.8992    19.795435    19.786641    20.609228     8072.329    5367.5747    6322.2081    5337.9147    144.89228   -1118.4325    173.36301   -4112.1335 
12409000    120.43542   -5007.8507   -4775.5808   -5007.8507            0    4738.3605    19.896511    19.706773    20.723016    8125.4119    3880.9855    6816.1529    3517.9431   -475.82422    987.18214    378.38963   -4214.0813 
12410000    123.43672    -5004.004   -4765.9459    -5004.004            0    4537.1109    19.871428    19.747465    20.698732    8122.3966    5731.1494    3751.0355    4129.1479    55.342293   -808.69223    777.78717   -4228.4942 
12411000    116.50604   -5001.3297    -4776.638   -5001.3297            0    4685.4506    19.953227     19.88144    20.463332    8117.7809     3138.767    5600.6173    5316.9676   -67.515113   -348.16319    725.02131   -4221.9298 
12412000    121.04907   -4995.5572   -4762.1039   -4995.5572            0    6310.2178    19.952612    19.715268    20.598385    8102.8094     5567.561    7809.7624      5553.33   -1068.1738    61.181154   -304.30942   -4016.4181 
12413000    131.87349   -5017.0981    -4762.769   -5017.0981            0    4918.0206    19.753524    19.862128    20.653306     8103.263    5823.4143    4749.8732    4180.7743   -271.22737    153.18433    312.46553   -4181.5682 
12414000    121.59692    -5010.357   -4775.8472    -5010.357            0     5246.904    19.930824    19.817831    20.521398    8105.6588    3844.7272    6528.4801    5367.5048   -257.81632    561.08922    509.17435   -4155.5964 
12415000     129.0521   -5017.6178   -4768.7299   -5017.6178            0    4492.5698    19.959627    19.901806    20.487142    8138.1609    3805.1419    5366.1842    4306.3833    -538.4663    12.085442   -105.87182   -4235.5215 
12416000    122.07555    -4997.527    -4762.094    -4997.527            0    3896.1381    19.930769     19.83606    20.567916     8131.483    3336.1148    3489.0603    4863.2391   -276.55149    297.34245   -71.346689   -4300.0536 
12417000    120.94421   -5003.3891    -4770.138   -5003.3891            0    4133.3853    19.937457    19.900691    20.568879    8161.0972    4944.3983    3270.6649    4185.0926   -117.82779    558.33502    326.54415   -4278.1774 
12418000    125.91468   -4995.0744   -4752.2373   -4995.0744            0     4552.375    19.908738    19.712256    20.730949    8135.7809    4706.8567    4369.5977    4580.6706   -53.195866    -234.5209   -23.817113   -4212.0888 
12419000     125.9689   -4992.3137   -4749.3721   -4992.3137            0    6641.2747    19.755936    19.768399    20.691332    8080.8596    6934.5158     6650.776    6338.5322   -181.09467    1293.5633   -24.383799   -3966.6909 
12420000    123.70049   -4999.1832   -4760.6164   -4999.1832            0     5649.795    19.899384    19.701797    20.622285    8085.0416    3985.8344    7814.1968    5149.3539   -69.476965     1391.181    155.67586   -4094.4375 
12421000    129.60677   -5005.5073   -4755.5497   -5005.5073            0    6565.6126    19.759795    19.855255     20.53683    8057.3329    7806.0801    5226.9679    6663.7898   -753.58778     468.9191   -475.51593   -3984.0381 
12422000    122.96546   -5008.9826   -4771.8333   -5008.9826            0    5192.8441    19.812952    19.849751     20.53852    8077.4333    4393.3826    5123.2272    6061.9224     39.94065    823.47556   -107.90065   -4160.1107 
12423000    113.56363   -4998.3999   -4779.3829   -4998.3999            0    4776.5023    19.965957    19.791018    20.491708    8097.2291    4106.0577    5418.4343    4805.0148     200.9573     134.5463   -400.15023   -4215.3268 
12424000    123.99819   -5004.1316   -4764.9907   -5004.1316            0    5305.7417    19.977728    19.825578    20.493561    8116.8847    4960.6603    5874.7152    5081.8495    114.11261    481.34513   -1124.9484   -4136.9159 
12425000    126.70156   -5014.3381   -4769.9835   -5014.3381            0    4837.7862    19.973261    19.972271    20.336247    8112.3602    4891.8452    3600.6174     6020.896   -56.072404   -742.57226   -30.917928   -4197.6228 
12426000    116.52255   -5008.0602   -4783.3366   -5008.0602            0    4671.8589    19.935464    19.842286    20.559691    8132.6976    3812.6456    5391.3152    4811.6157    269.31201    1233.9251   -273.22139   -4229.2212 
12427000    118.58293    -4991.946   -4763.2488    -4991.946            0    5404.7136    19.871645     19.70751    20.688757    8102.1446     5878.341     5370.575    4965.2248   -268.70882    344.31471   -242.25744   -4124.6199 
12428000    118.92831   -4996.9188   -4767.5555   -4996.9188            0     5957.311    19.842831    19.793526    20.682843     8123.385     6631.176     5764.193    5476.5639    4.7640993    828.97911    915.60599   -4061.7855 
12429000    123.70009   -4995.3546   -4756.7885   -4995.3546            0    4474.3839    19.746218    19.904356    20.684036    8129.5658    4756.8206    4253.8364    4412.4948   -235.32268    99.301615   -1032.0438   -4226.2994 
12430000    125.67659   -5004.0127   -4761.6348   -5004.0127            0    4383.9891    19.931407    19.858237    20.590594    8149.8105    4396.7315    4098.5817    4656.6541    484.44897    114.78827    195.69409   -4240.5687 
12431000     119.7506   -5001.1288   -4770.1797   -5001.1288            0    6220.1592    19.850516    19.970052     20.38216    8079.8109    6238.1683    6650.4979    5771.8114   -312.67693    256.53601    673.58057   -4037.2225 
12432000    119.18707   -4998.6766   -4768.8143   -4998.6766            0    4262.4011    19.964033    19.931288    20.399075    8116.9732    4419.5374    3477.5008    4890.1651   -441.25771    1266.3997   -500.66338    -4264.241 
12433000    117.63777   -5008.5142   -4781.6399   -5008.5142            0     5056.579    20.031008    19.752351    20.620934    8158.8687    3530.5647    6782.4456    4856.7266    106.53526    249.38044    551.00591    -4179.964 
12434000    120.95828   -5013.9063   -4780.6281   -5013.9063            0    6147.9367    19.754147     19.98216    20.533956    8105.3794      6815.42    5787.3447    5841.0456   -435.89694   -248.04304   -262.83978   -4053.8888 
12435000     122.7065   -4997.7818    -4761.132   -4997.7818            0    4821.9447    19.895208    19.868714    20.612634    8148.0132     6467.257    2912.1857    5086.3913   -242.76729    885.20615   -690.72155   -4188.1383 
12436000    122.29748   -4996.8491   -4760.9881   -4996.8491            0     5475.986    19.891064    19.839824    20.646402    8147.7971    7475.1857    4028.0946    4924.6779    51.627563   -72.044228    1173.1048   -4110.2917 
12437000    116.06179   -4994.8403   -4771.0054   -4994.8403            0    5151.1414    19.843322    19.862952    20.528801    8091.3644    5729.7449    4790.2905    4933.3888    426.28057    144.96688    -568.7702   -4163.1488 
12438000    118.76452   -4988.0751   -4759.0278   -4988.0751            0     3969.023    19.865146     19.98306    20.449032     8117.579    4051.3546    3525.2844      4330.43   -131.51198    229.25054   -1116.2698   -4289.1488 
12439000    115.15118   -4998.8527   -4776.7739   -4998.8527            0    5887.4783    19.731644     20.04519     20.44955    8088.2993    5267.2809    6007.1097    6388.0443    259.38438    199.12542    698.91854   -4082.2897 
12440000    125.90438   -4987.0907   -4744.2735   -4987.0907            0    6514.2955    19.694992    19.857657    20.574934    8046.7825    7460.5325    6050.7858    6031.5681     177.0476    497.04002    623.34327   -3979.7944 
12441000    117.20426   -4985.5811   -4759.5428   -4985.5811            0    6917.0421    19.887607    19.722776    20.566803    8067.0986    7001.3515    7409.6409     6340.134   -216.29986    697.06417   -1401.8415   -3945.7503 
12442000    125.47545   -5002.8846   -4760.8947   -5002.8846            0    4918.5818    19.863999     19.93207    20.482865    8109.7936    6214.6906    4015.7884    4525.2663   -94.492658    577.99421   -193.29028   -4179.1591 
12443000    126.79974   -5008.9166   -4764.3726   -5008.9166            0    4627.8734    19.849078     20.03611    20.373042    8102.3246    5682.2641     2897.173     5304.183   -64.110218   -269.01964    98.569416   -4217.5242 
12444000    123.76646   -4996.1267   -4757.4327   -4996.1267            0    5017.2158    19.826357     19.92271    20.574244    8126.7186    4396.7002    4775.2706    5879.6768    24.038517    210.28864    575.04318    -4162.793 
12445000    123.07944    -5005.124   -4767.7549    -5005.124            0    4109.5045    19.871575    19.941711    20.560266    8147.4827    4194.0976    3600.1192    4534.2968   -156.22462    927.33654    257.53743   -4279.4526 
12446000    124.36904   -5011.0246   -4771.1685   -5011.0246            0    4356.8999    19.892062    19.953711    20.468508    8124.3694    5997.4693    2878.4591    4194.7714   -413.39456    160.42331   -21.382831   -4254.9386 
12447000    120.65913    -4998.679   -4765.9777    -4998.679            0    5559.7114    19.836245    19.761177    20.658045    8097.6961    4972.5547     6952.825    4753.7545   -237.69763   -205.30996    153.61849   -4109.3947 
12448000    123.17753   -4995.1344   -4757.5761   -4995.1344            0     6114.146    19.770486    19.790205    20.586914    8054.8768    7506.9262    5075.0636    5760.4483    316.51345    567.15455    1026.1744   -4039.3345 
12449000    124.74083   -4995.2545   -4754.6813   -4995.2545            0    5244.1123    19.733592    19.908429     20.65275    8113.7389    6441.6021     4662.273    4628.4619   -58.802704    1106.6708   -965.22398   -4134.1426 
12450000    121.53665    -5008.081   -4773.6873    -5008.081            0    5038.1026    19.799358    19.924367    20.613594    8131.8496    5831.9452    4863.9163    4418.4461    262.61453   -682.43435   -1575.6827   -4176.1951 
12451000    118.56897   -4997.7096   -4769.0393   -4997.7096            0    6171.9182    19.859139    19.757872    20.537708    8058.4696    5377.7022    7517.1174    5620.9349   -76.404817    1578.3352    164.60283   -4043.6877 
12452000    121.04791   -4997.5255   -4764.0744   -4997.5255            0    4426.1615    19.839058    19.719807    20.779342    8129.3441    3567.4425    5640.3036    4070.7383    204.96747   -516.75022   -700.73622   -4239.3169 
12453000    116.99811   -5004.9687    -4779.328   -5004.9687            0    3759.0146    19.757036    19.927098    20.623084    8119.3166    2605.0149    5200.1576    3471.8714   -315.41421    530.64126    1076.4177    -4334.216 
12454000     118.8303   -5008.0137   -4778.8394   -5008.0137            0    5420.8549    19.884386    19.871496    20.506185      8102.66    5836.4624    5002.3938    5423.7085   -81.887089    1446.2261    551.83171   -4138.2625 
12455000    115.61963   -5007.0615   -4784.0793   -5007.0615            0    4614.4566    19.954343      19.8823    20.408138    8096.6889    2966.8852    4152.9599    6723.5248   -344.09679    593.33549    542.88904   -4239.1955 
12456000    116.68993   -5003.4162   -4778.3698   -5003.4162            0    5229.5746    19.915018    19.989393    20.348701    8100.5965    5390.7114    5006.2628    5291.7497   -4.6226118    95.272958   -801.97405   -4160.5537 
12457000    121.72294   -5002.3766   -4767.6236   -5002.3766            0    4261.0399    19.939435    19.815008    20.569296    8126.9301    3617.6054    5181.9019    3983.6124   -78.356554     64.92274    52.021926   -4262.5927 
12458000     123.7905   -5002.3861   -4763.6457   -5002.3861            0    4857.9928    19.904462     19.82121    20.625071    8137.2199    4795.7651    4292.2066    5486.0067   -49.955399    618.96068   -316.32745   -4187.1331 
12459000    122.06588   -5003.0779   -4767.6636   -5003.0779            0    5423.9435    19.977023    19.792005    20.422279      8074.67    4697.7789    5775.0261    5799.0253   -299.63574    276.56334   -357.20208   -4128.9358 
12460000    119.35358   -4982.9144    -4752.731   -4982.9144            0    5402.7554    20.032185    19.729086    20.620532    8149.5788    4007.0187    7636.7928    4564.4546   -388.57744    83.704179    1087.8767    -4110.596 
12461000    121.74364   -4998.4748   -4763.6819   -4998.4748            0    5869.6259    19.848394    19.646039    20.725864    8081.8916    6836.0428     7023.273     3749.562    469.18003   -198.81077    399.68689    -4071.852 
12462000    120.79681   -4997.1922   -4764.2254   -4997.1922            0    5295.1011      19.9209    19.768917    20.618733    8119.9586    5572.8248    4571.8527    5740.6259   -236.09446   -31.643735   -424.18039   -4137.1728 
12463000     124.9937   -4999.0919    -4758.031   -4999.0919            0    4994.6788    19.896369    19.946334    20.478554    8127.1109    6201.8646    3774.1205    5008.0513    439.50932    29.403158    220.23441   -4166.0338 
12464000    126.38938   -5005.0302   -4761.2776   -5005.0302            0     5755.841    19.760766    19.911857     20.52148    8074.6595    6551.7032    4526.7836    6189.0362     16.49045    94.209035     564.0804   -4083.4662 
12465000    115.29342   -5008.7879   -4786.4348   -5008.7879            0     5482.122    19.929188     19.75615    20.562121    8095.8013    5152.0727    5815.8536    5478.4397   -264.23663   -257.65046    -242.6252   -4139.1664 
12466000     122.3046   -5011.4387    -4775.564   -5011.4387            0    5716.3483    19.811712    19.911322    20.492195    8083.7074    5427.1798    5667.6404    6054.2247   -59.109845   -11.916165   -1220.2407   -4101.6489 
12467000    120.07769   -5010.0894   -4778.5095   -5010.0894            0    6276.4523    19.893354    19.754689    20.431626    8029.3635    6580.9782    4987.6861    7260.6926   -236.99471    413.75474    352.85584   -4043.5367 
12468000    127.15134   -4998.2104   -4752.9884   -4998.2104            0    5834.4634    19.982628    19.792302    20.412066    8073.0171    5858.9803    5487.5566    6156.8532    308.20131    558.12706   -823.15091   -4066.0581 
12469000    120.54204   -4996.1126   -4763.6371   -4996.1126            0    5339.2741    20.002575    19.796464    20.507309    8120.4893    4206.4351    6228.6989    5582.6884   -212.28944    983.68948    -455.3997   -4131.3122 
12470000    117.92808   -5005.1479   -4777.7137   -5005.1479            0    4800.4463    19.794919    19.818354    20.672319    8109.8067    3756.7516    6730.2007    3914.3865   -155.00269   -446.60325   -279.07828   -4209.9495 
12471000    122.56546    -5009.929   -4773.5512    -5009.929            0    5703.7844    19.834352    19.771391    20.690924    8114.0024    6495.9724    5105.0719     5510.309   -77.222668    367.88971    210.24608   -4098.5973 
12472000    120.15535   -5013.0127    -4781.283   -5013.0127            0    5282.1436    19.945891    19.763737    20.589616    8116.5368    5058.0566     5846.567    4941.8072   -254.43663   -907.19151    429.35194   -4156.0285 
12473000    123.53428   -5014.9533   -4776.7071   -5014.9533            0    5124.1665     20.02139    19.837483     20.46116    8126.6404    3167.4249    6214.9189    5990.1559   -89.805093   -947.53888    275.60145   -4169.3974 
12474000    118.59655   -4997.5976   -4768.8742   -4997.5976            0    3794.1083    19.952654    19.917703     20.49588    8145.2888    3566.3223    4803.2274    3012.7753   -121.15829    390.87189    407.57201   -4318.1695 
12475000    121.93671   -5011.7628   -4776.5976   -5011.7628            0      6882.78     19.77809     19.93527    20.422209    8052.1004    6308.8175    6953.9078    7385.6148    231.15069   -1109.9385   -1251.2725   -3968.3416 
12476000    121.47757   -5003.9904   -4769.7107   -5003.9904            0    4570.1994    20.063756    19.679241    20.653729    8154.9076    3335.9484    5650.6567    4723.9931    228.78136    804.42675   -744.12328   -4226.1725 
12477000    127.22416   -4984.9851   -4739.6226   -4984.9851            0    4928.6527    19.979415     19.89374    20.470113    8136.1598    3985.4307    5525.7706    5274.7569   -442.77353    396.93464   -237.73979   -4154.8008 
12478000    123.14149   -4991.8897   -4754.4009   -4991.8897            0    4332.7949    19.856037    19.903492    20.586502    8135.8778    4760.2443    4350.1296    3888.0109    109.75715    725.08781    161.21392   -4240.2999 
12479000    130.68035   -5013.2499   -4761.2219   -5013.2499            0    5485.3442    19.839946    19.764786    20.672524    8106.3642    4851.8072    6235.1639    5369.0616    150.67207    1453.5412   -415.18719    -4112.728 
12480000    126.90623   -4995.4589   -4750.7096   -4995.4589            0    5602.2524    19.894688     19.82917    20.540377     8103.079    6275.6687    4825.5352    5705.5532     -402.432     430.0418   -662.72857   -4088.6628 
12481000    128.52414   -5005.7135   -4757.8439   -5005.7135            0    5126.5304    20.040322    19.726202    20.529387    8115.6658    5531.5013    5586.2328    4261.8569     159.0967    907.96571   -499.38178   -4151.0747 
12482000    121.12829   -4998.9554   -4765.3493   -4998.9554            0    5710.3531    19.911649    19.907641    20.443223    8103.5704    5366.1862    5051.2341     6713.639   -308.19117   -12.554274   -864.83081   -4090.4869 
12483000    119.75685   -5004.2823   -4773.3212   -5004.2823            0    5226.6499    19.880629    19.979532    20.342378    8080.1079    4340.4342    4179.2783    7160.2373   -657.60746    911.22583    1085.9741   -4157.4123 
12484000     125.0934   -4996.1399   -4754.8868   -4996.1399            0    6932.1011    19.963162    19.809073    20.365663    8053.6372     6215.074    8039.0531    6542.1762   -214.45882    1524.0783   -816.54611   -3940.6836 
12485000    122.90124    -5020.344   -4783.3187    -5020.344            0    4134.4603    20.073448    19.813921    20.491784    8150.2734    3345.2132    4224.7297     4833.438   -237.86462   -118.36859   -557.86215   -4291.8827 
12486000    114.69806   -4996.7923   -4775.5875   -4996.7923            0    5097.4049    19.737441    19.911001    20.594654    8093.5383    5101.1004     4159.376    6031.7383    -187.5665      1127.91   -278.25417   -4173.9104 
12487000    124.36516   -5005.7942   -4765.9455   -5005.7942            0    5954.3442    19.724934    19.922445    20.591303    8091.7423    5872.9854    5401.3083    6588.7388    114.27034   -2.5018634   -576.25676   -4063.2748 
12488000    123.20732   -4998.2529   -4760.6372   -4998.2529            0    5593.6264    19.779855     19.86069    20.709107    8135.3984    5498.9094    6536.0012    4745.9686   -462.84138    609.14425   -1114.8328   -4096.9734 
12489000     121.7685   -5005.3631   -4770.5223   -5005.3631            0    4420.4783    19.939497    19.795097    20.641612    8147.3328    3613.8215    5533.9581    4113.6551   -204.05065   -142.82343   -60.410049   -4245.2789 
12490000    122.86412   -4995.4347   -4758.4809   -4995.4347            0    5669.4386    19.869728    19.637423    20.697126    8075.8164    3986.6047    7574.9604    5446.7506    65.643866    62.734898    225.95871   -4090.7486 
12491000    114.27609   -4999.1768   -4778.7857   -4999.1768            0    4975.9528    19.903777    19.777686    20.591381    8105.8107    3757.3015    6108.6813    5061.8756   -388.30923    770.06308   -382.25554   -4190.5538 
12492000    124.71668   -5007.0274   -4766.5008   -5007.0274            0    5507.7479    19.866617    19.842626     20.51613    8087.5784    4599.0272    6458.8899    5465.3265    97.571818    106.60114    1148.5669   -4116.8673 
12493000     122.8117   -4992.0383   -4755.1856   -4992.0383            0    5683.6889    19.862322    19.840901    20.467997    8066.1586    5278.0924    6238.0887    5534.8856    112.53007   -1603.7591    -70.36064   -4086.5755 
12494000    123.32119   -4996.6149   -4758.7796   -4996.6149            0    4871.7697    19.972929    19.782428    20.433033    8073.3578    4486.6217    4775.2595    5353.4278   -234.48342    -190.4841     119.8502   -4185.1694 
12495000    132.72909   -4996.9713   -4740.9921   -4996.9713            0    6642.3933    19.788794    19.903765    20.469634    8062.4055    7044.9741    5964.1039    6918.1021    203.77516   -145.95669    522.35007   -3959.9668 
12496000    123.19088   -4999.3338   -4761.7499   -4999.3338            0    3807.4065    19.806461    19.968684    20.627591     8158.397    4157.3453    3483.3058    3781.5684   -125.36108   -950.73819   -217.48594   -4308.7376 
12497000    115.77456   -4995.1843   -4771.9034   -4995.1843            0    4914.4081    19.814706    19.947573    20.545278    8120.6299    4487.7804    5592.2883    4663.1556   -301.28757    565.78077   -706.79328   -4189.8848 
12498000    122.05567   -4993.5301   -4758.1355   -4993.5301            0    5084.0235    19.937495    19.896869    20.506629     8134.851    4593.9006    5226.2769     5431.893   -727.76796    28.241118   -395.00197   -4154.9748 
12499000    119.77382   -5008.2659    -4777.272   -5008.2659            0    5256.8858    19.944419    19.916016    20.431211      8115.55    4994.6809    5166.3559    5609.6208   -159.03684   -228.88194   -500.67457   -4155.0829 
12500000    125.76971   -4984.7759   -4742.2184   -4984.7759            0    6798.3548    19.989763    19.793721    20.450705    8091.7671    5859.7184    7692.0025    6843.3435    -254.4613    10.674338   -145.47347   -3939.9437 
Loop time of 361.173 on 64 procs for 250000 steps with 972 atoms

Performance: 119.610 ns/day, 0.201 hours/ns, 692.189 timesteps/s
99.1% CPU use with 64 MPI tasks x 1 OpenMP threads

MPI task timing breakdown:
Section |  min time  |  avg time  |  max time  |%varavg| %total
---------------------------------------------------------------
Pair    | 19.105     | 28.239     | 38.417     |  87.4 |  7.82
Bond    | 0.25996    | 0.276      | 0.29047    |   1.0 |  0.08
Kspace  | 143.43     | 153.24     | 162.41     |  37.4 | 42.43
Neigh   | 0.94875    | 0.95919    | 0.97045    |   0.5 |  0.27
Comm    | 83.605     | 84.649     | 85.33      |   5.1 | 23.44
Output  | 0.6807     | 0.68271    | 0.68463    |   0.1 |  0.19
Modify  | 86.229     | 87.324     | 88.151     |   5.0 | 24.18
Other   |            | 5.806      |            |       |  1.61

Nlocal:        15.1875 ave          20 max          11 min
Histogram: 1 6 11 7 7 14 11 2 4 1
Nghost:        2287.92 ave        2323 max        2240 min
Histogram: 4 2 2 8 7 8 8 13 6 6
Neighs:        4860.11 ave        7001 max        3542 min
Histogram: 8 8 7 13 7 11 4 5 0 1

Total # of neighbors = 311047
Ave neighs/atom = 320.00720
Ave special neighs/atom = 2.0000000
Neighbor list builds = 2607
Dangerous builds = 0

unfix		3
unfix		2
unfix		1

write_data	data.final.${pid}
write_data	data.final.1
System init for write_data ...
PPPM initialization ...
  extracting TIP4P info from pair style
  using 12-bit tables for long-range coulomb (../kspace.cpp:340)
  G vector (1/distance) = 0.37199665
  grid = 24 24 24
  stencil order = 5
  estimated absolute RMS force accuracy = 0.0035320801
  estimated relative force accuracy = 1.0636754e-05
  using double precision FFTW3
  3d grid and FFT values/proc = 2197 216
Last active /omp style is kspace_style pppm/tip4p/omp
WARNING: Not all mixed pair coeffs generated from mixing. Use write_data with 'pair ij' option to store all pair coeffs. (../write_data.cpp:312)

write_restart   restart.lmp.${pid}
write_restart   restart.lmp.1
System init for write_restart ...
PPPM initialization ...
  extracting TIP4P info from pair style
  using 12-bit tables for long-range coulomb (../kspace.cpp:340)
  G vector (1/distance) = 0.37199665
  grid = 24 24 24
  stencil order = 5
  estimated absolute RMS force accuracy = 0.0035320801
  estimated relative force accuracy = 1.0636754e-05
  using double precision FFTW3
  3d grid and FFT values/proc = 2197 216
Last active /omp style is kspace_style pppm/tip4p/omp
Total wall time: 0:06:01
