LAMMPS (30 Jul 2021)
Processor partition = 1
  using 4 OpenMP thread(s) per MPI task
using multi-threaded neighbor list subroutines
variable        pid world 0 1
variable        phase world IceVI IceV

shell cd ${phase}
shell cd IceV
include Restart.lmp
echo both
log log.lammps
#include		in.partitions
include		in.temp
variable        temperature equal 85.77
variable	tempDamp equal 100.0
include		in.pressure
variable        pressure equal 8236.7
variable        pressureDamp equal 1000.0 # This is 1 ps
include		in.seed
variable        seed equal 745823

units		real
atom_style	full
read_restart    restart.lmp.${pid}
read_restart    restart.lmp.1
Reading restart file ...
  restart file = 30 Jul 2021, LAMMPS = 30 Jul 2021
  restoring atom style full from restart
  triclinic box = (-3.1367440 0.021952548 0.040330580) to (14.746743 22.558046 19.189667) with tilt (-0.058964402 -6.7212924 0.074759672)
  2 by 4 by 2 MPI processor grid
  restoring pair style lj/cut/tip4p/long/omp from restart
  restoring bond style harmonic/omp from restart
  restoring angle style harmonic/omp from restart
  1008 atoms
  672 bonds
  336 angles
Finding 1-2 1-3 1-4 neighbors ...
  special bond factors lj:    0        0        0       
  special bond factors coul:  0        0        0       
     2 = max # of 1-2 neighbors
     1 = max # of 1-3 neighbors
     1 = max # of 1-4 neighbors
     2 = max # of special neighbors
  special bonds CPU = 0.001 seconds
  read_restart CPU = 0.005 seconds

include 	in.setup
variable	out_freq equal 1000
variable	out_freq2 equal 10000
variable	out_freq3 equal 1000

timestep	2.0

neigh_modify    delay 7 every 1

include		in.tip4p
# This is TIP4P/Ice

# create groups ###
group ox type 2
336 atoms in group ox
group hy type 1
672 atoms in group hy

# set charges - beside manually ###
set group ox charge -1.1794
Setting atom values ...
  336 settings made for charge
set group hy charge 0.5897
Setting atom values ...
  672 settings made for charge

# ### TIP3P Potential Parameters ###
pair_style lj/cut/tip4p/long/omp 2 1 1 1 0.1577 8.5
pair_coeff 1 1*2 0.000 0.000
pair_coeff 2 2 0.21084 3.1668
bond_style  harmonic
bond_coeff  1 450 0.9572
angle_style harmonic
angle_coeff 1 55 104.52
kspace_style pppm/tip4p/omp 1.0e-5
pair_modify tail yes

thermo          ${out_freq}
thermo          1000
thermo_style    custom step temp pe etotal epair emol press lx ly lz vol pxx pyy pzz pxy pxz pyz enthalpy

restart 	${out_freq3} restart.lmp.${pid} restart2.lmp.${pid}
restart 	1000 restart.lmp.${pid} restart2.lmp.${pid}
restart 	1000 restart.lmp.1 restart2.lmp.${pid}
restart 	1000 restart.lmp.1 restart2.lmp.1


include         in.dump
dump            myDump all atom ${out_freq2} dump.water.${pid}
dump            myDump all atom 10000 dump.water.${pid}
dump            myDump all atom 10000 dump.water.1
dump            myDump2 all dcd ${out_freq2} dump.dcd
dump            myDump2 all dcd 10000 dump.dcd
dump_modify     myDump append yes
dump_modify     myDump2 append yes


variable natoms 	equal  "count(all)"                        # NUMBER ATOMS
variable H      	equal  "enthalpy/v_natoms"                 # ENTHALPY-per-atom
variable Vol      	equal  "vol/v_natoms"                 # volume-per-atom
fix AVG all 		ave/time ${out_freq} 1 ${out_freq} v_Vol v_H file vol_enthalpy.dat
fix AVG all 		ave/time 1000 1 ${out_freq} v_Vol v_H file vol_enthalpy.dat
fix AVG all 		ave/time 1000 1 1000 v_Vol v_H file vol_enthalpy.dat



fix 		1 all shake 1e-6 200 0 b 1 a 1
Finding SHAKE clusters ...
       0 = # of size 2 clusters
       0 = # of size 3 clusters
       0 = # of size 4 clusters
     336 = # of frozen angles
  find clusters CPU = 0.000 seconds
fix             2 all nph tri ${pressure} ${pressure} ${pressureDamp}
fix             2 all nph tri 8236.7 ${pressure} ${pressureDamp}
fix             2 all nph tri 8236.7 8236.7 ${pressureDamp}
fix             2 all nph tri 8236.7 8236.7 1000
fix             3 all temp/csvr ${temperature} ${temperature} ${tempDamp} ${seed}
fix             3 all temp/csvr 85.77 ${temperature} ${tempDamp} ${seed}
fix             3 all temp/csvr 85.77 85.77 ${tempDamp} ${seed}
fix             3 all temp/csvr 85.77 85.77 100 ${seed}
fix             3 all temp/csvr 85.77 85.77 100 745823


run             250000
PPPM initialization ...
  extracting TIP4P info from pair style
  using 12-bit tables for long-range coulomb (../kspace.cpp:340)
  G vector (1/distance) = 0.37985497
  grid = 24 27 32
  stencil order = 5
  estimated absolute RMS force accuracy = 0.0024040013
  estimated relative force accuracy = 7.2395786e-06
  using double precision FFTW3
  3d grid and FFT values/proc = 7875 1344
Last active /omp style is kspace_style pppm/tip4p/omp
Neighbor list info ...
  update every 1 steps, delay 7 steps, check yes
  max neighbors/atom: 2000, page size: 100000
  master list distance cutoff = 10.8154
  ghost atom cutoff = 10.8154
  binsize = 5.4077, bins = 5 5 4
  1 neighbor lists, perpetual/occasional/extra = 1 0 0
  (1) pair lj/cut/tip4p/long/omp, perpetual
      attributes: half, newton on, omp
      pair build: half/bin/newton/tri/omp
      stencil: half/bin/3d/tri
      bin: standard
Setting up Verlet run ...
  Unit style    : real
  Current step  : 35750000
  Time step     : 2
Per MPI rank memory allocation (min/avg/max) = 12.46 | 12.47 | 12.48 Mbytes
Step Temp PotEng TotEng E_pair E_mol Press Lx Ly Lz Volume Pxx Pyy Pzz Pxy Pxz Pyz Enthalpy 
35750000    89.667032   -5209.0844   -5029.7393   -5209.0844            0    8172.6191    17.883487    22.536094    19.149337    7717.6412    8041.2775    8599.0491    7877.5305    397.36697    415.44717    113.46296   -4109.8793 
35751000    83.963358   -5209.9313   -5041.9942   -5209.9313            0    8038.9412    17.730997    22.792985    19.070704    7707.2794    7543.4199     8137.288    8436.1157   -177.99364   -366.39462   -737.64479    -4138.395 
35752000    85.784418   -5211.7625   -5040.1831   -5211.7625            0    8110.7105    17.784719    22.732871    19.088931    7717.6114    9229.7238    7289.8337    7812.5741    76.121792   -387.22653   -960.74812   -4127.2947 
35753000    88.137162   -5217.7802    -5041.495   -5217.7802            0    8266.1394    17.822054    22.705846    19.031948    7701.5596    7596.8289     8136.128    9065.4613   -262.57895   -351.27518   -735.39198   -4113.0476 
35754000    80.611574   -5215.7337   -5054.5006   -5215.7337            0    7018.9193    17.911904    22.637703     19.07932    7736.3656    6471.5485     7650.525    6934.6845    310.62361    479.26118    124.88662   -4262.5773 
35755000    80.607115    -5199.426   -5038.2018    -5199.426            0    8685.1742    17.823862    22.575981    19.149314     7705.515    8732.0957    8740.9446    8582.4824    150.56701   -60.917431    716.43024   -4062.1877 
35756000    86.706431    -5206.958   -5033.5344    -5206.958            0    8128.5094    17.683014    22.863126    19.041103    7698.1078    8499.8126    7389.2259    8496.4896     34.94652   -179.19643    678.43476   -4120.9547 
35757000    84.860009   -5207.6386   -5037.9081   -5207.6386            0    9163.9275     17.79118    22.669858    19.050082    7683.3465    9282.6083    8889.3186    9319.8557     939.7762   -382.64026    -264.1711   -4011.0558 
35758000    84.375924   -5206.0173    -5037.255   -5206.0173            0    8288.2558    17.833059    22.647797    19.090042    7710.0769    8598.4622    8068.0188    8198.2864    375.23284    197.64348    51.364872    -4105.294 
35759000    88.625781    -5205.683   -5028.4205    -5205.683            0    8716.0519    17.746745    22.807393    19.031263    7703.0364    8754.5002    8391.6913    9001.9643    419.93202    441.84319    1104.6676   -4049.2515 
35760000    84.825831   -5204.7203   -5035.0581   -5204.7203            0    8387.2875    17.787623    22.648541    19.104045    7696.3262    7853.2712    8946.8062     8361.785   -1327.4414   -270.53127   -564.78509   -4093.6436 
35761000    82.675245   -5203.8226   -5038.4619   -5203.8226            0    8789.1448    17.833178    22.470012    19.214598    7699.5144    7718.8565    10265.105    8383.4724    357.68139    1355.0544    733.77352   -4051.5331 
35762000    87.878543   -5202.0269    -5026.259   -5202.0269            0    8104.3764    17.851645    22.648667    19.068654    7709.7611    7776.8238     8056.939    8479.3664    449.30504   -198.46078   -818.71414   -4115.0114 
35763000    88.618049   -5205.7538   -5028.5067   -5205.7538            0    7791.1517     17.81158    22.634102    19.176096    7730.8262    6736.7253    8875.2993    7761.4304    384.44732    881.30952    106.83419   -4150.0842 
35764000    86.435574   -5212.8306   -5039.9487   -5212.8306            0    8624.6043     17.73605    22.733616     19.08003     7693.155    8721.5327    8464.9468    8687.3334   -210.15036   -151.99181   -643.15824    -4072.296 
35765000    85.697059   -5213.8833   -5042.4786   -5213.8833            0    7579.8477    17.812037    22.739083    19.078223    7727.2409    6250.3403    7670.2814    8818.9214    701.01303   -589.46713    1413.7169   -4188.2762 
35766000    87.218368   -5209.4719   -5035.0244   -5209.4719            0    8529.5962    17.835155    22.732812    18.975699    7693.5684    9188.3693    7535.8118    8864.6076    314.21218   -418.46489    215.63699   -4077.9798 
35767000    88.627212   -5216.7125   -5039.4471   -5216.7125            0    7468.1232    17.799022    22.738421     19.05512    7712.0195    7076.4225    7730.4772    7597.4699     590.0496   -536.60339    -794.9641   -4199.4932 
35768000    86.373773   -5218.7891   -5046.0308   -5218.7891            0    8279.3198    17.924084    22.672674    18.956895     7703.834    7279.0109    8240.0646    9318.8838   -465.36144    210.03336   -661.14899   -4115.8284 
35769000    85.582303   -5209.0854   -5037.9102   -5209.0854            0    8493.0107    17.818215    22.677216    19.068488    7704.9568    9198.9596    7811.6609    8468.4116    505.01936    -408.5185    110.12159     -4083.56 
35770000    84.422162   -5207.3689   -5038.5142   -5207.3689            0    8076.9544    17.885569    22.619882    19.028446    7698.3282     6181.615    8532.9112    9516.3369   -2.9829244     312.0123   -281.53931   -4131.6966 
35771000    85.494695   -5221.4164   -5050.4164   -5221.4164            0    6922.9789    17.770564    22.708496    19.165625    7734.1495    7661.3385    6626.6177    6480.9803    221.09774    94.203109    698.11492   -4269.5415 
35772000    85.809861   -5210.9804   -5039.3501   -5210.9804            0    8066.8269    17.841102    22.690315    19.087435    7726.9796    6623.7131    9309.4627    8267.3047   -870.82205    1140.2427    859.20273   -4130.2988 
35773000    82.323666   -5213.8233   -5049.1658   -5213.8233            0    8032.0268    17.802466    22.652864    19.119605    7710.4939    7615.6417    8074.3056     8406.133    1087.3136    311.22278    596.11005   -4145.9672 
35774000    89.044689   -5201.2811   -5023.1807   -5201.2811            0    8011.6347    17.792201    22.749588    19.045256    7708.8577    7716.7429    8110.4009    8207.7603    -942.1912   -9.0674951   -816.56211   -4122.4664 
35775000    89.850858   -5212.0841   -5032.3713   -5212.0841            0    7699.5661    17.823299    22.694297    19.092967     7722.862    7690.8614    7559.0248    7848.8121    73.741897    -377.2262   -691.49619    -4165.169 
35776000    87.087708    -5207.596   -5033.4098    -5207.596            0    7486.8395    17.859529     22.53202    19.216626    7732.9869    8416.2859    8011.8427      6032.39   -443.34559   -155.71539    460.43545   -4189.0614 
35777000    89.758769   -5204.1454   -5024.6167   -5204.1454            0    9305.3436    17.750347    22.698044    19.071832     7684.006    9552.5134    9058.5552    9304.9621    1240.2298    129.36951    676.40889   -3981.8288 
35778000    83.469071   -5212.0492   -5045.1007   -5212.0492            0    8149.5912    17.808445    22.688305    19.097867    7716.3682    8961.4816    7737.8127    7749.4793   -230.91992   -385.83254   -786.97329   -4127.9839 
35779000    86.150488   -5209.9532   -5037.6416   -5209.9532            0    8372.8628    17.841281    22.593443     19.10109    7699.5725    8237.2359    8305.1965    8576.1559   -98.588699   -137.35929   -368.56962   -4097.4497 
35780000    88.331789   -5207.6663   -5030.9918   -5207.6663            0    8343.9695    17.775782     22.52805    19.236474    7703.3176    8974.6382    8640.5124    7416.7581    391.63305   -308.60038    1476.1602   -4093.5886 
35781000    88.085993   -5202.9876   -5026.8047   -5202.9876            0    7787.4802    17.889588    22.665401    19.006848    7706.7955    8454.1249    6606.6745    8301.6411   -539.13843   -636.69006   -756.67412   -4151.5254 
35782000    87.118506   -5207.9476   -5033.6998   -5207.9476            0    8762.9865    17.774354    22.680211    19.119544    7707.5871    8820.4781    8919.2671    8549.2142   -471.02612    211.05318     -678.571   -4048.6766 
35783000    85.905204   -5212.2996   -5040.4786   -5212.2996            0    7503.4913    17.855606    22.673137     19.10623     7735.016     6799.614    7520.0134    8190.8463    479.65055    393.79052    1503.6768   -4194.0302 
35784000    82.051305   -5210.2081   -5046.0954   -5210.2081            0    8017.8125    17.784102    22.666458    19.110475     7703.482    7416.7129    7862.3064    8774.4181    961.50428   -440.10287   -494.36662   -4145.3151 
35785000    82.325001   -5208.8394   -5044.1792   -5208.8394            0    9439.1253    17.756573    22.675424    19.035513    7664.4176    9117.7844    9437.8658    9761.7257   -313.97359   -83.546855     221.1418   -3989.0958 
35786000    83.748262   -5216.4805   -5048.9737   -5216.4805            0    7656.1697     17.95103    22.491831    19.110822    7716.0235    6400.6085    8171.4586     8396.442    758.14363   -201.35707     330.4408   -4187.4227 
35787000      85.3847   -5204.6781   -5033.8981   -5204.6781            0      8681.52    17.712457    22.642077    19.142451     7677.019    7947.3333    8682.3967    9414.8299    191.57749   -264.12464    160.73468   -4061.9026 
35788000    87.064867   -5219.4067   -5045.2662   -5219.4067            0    6600.5361    17.860182      22.6549    19.161878    7753.2912    5871.8396    7363.3283    6566.4403    119.60648    625.20436    340.11589   -4298.9185 
35789000    90.781622   -5218.8655    -5037.291   -5218.8655            0    8796.8777    17.829872    22.634373    19.049819    7687.8969    7862.6167    9131.2543    9396.7619   -847.68998    964.92062   -837.77379   -4050.9843 
35790000    85.169974   -5203.2621   -5032.9116   -5203.2621            0    9289.7739    17.741067     22.85415     18.95203    7684.2334    8589.9789      8982.03    10297.313   -1097.5328    149.54038     368.4779   -3991.8377 
35791000    83.817124   -5203.0761   -5035.4315   -5203.0761            0    8262.5535    17.714985    22.732977    19.129869    7703.8727    8781.0872    8159.4489    7847.1244   -211.81017    -6.067361    756.57413   -4107.1081 
35792000     87.03294   -5208.8264   -5034.7498   -5208.8264            0    9203.5567    17.877209    22.475876    19.140291    7690.6825    8074.7881    9399.1103    10136.772   -71.706915    260.15826   -148.94639   -4002.4723 
35793000    84.255621   -5204.5016     -5035.98   -5204.5016            0    8116.0784    17.803461     22.64802    19.179393    7733.3837    8319.7588    8182.7189    7845.7576    312.37452    235.78556    443.03107   -4120.6205 
35794000    81.233538   -5213.6434   -5051.1663   -5213.6434            0      7684.03     17.75069    22.801441    19.086975    7725.2873    8687.5946    7617.3471    6747.1483    1431.2145   -213.60388    908.05648   -4185.4421 
35795000    82.588094   -5214.4827   -5049.2964   -5214.4827            0    7933.0608    17.836951    22.594029    19.125148    7707.5985    7615.5882    8078.8996    8104.6945   -334.21993    532.42804   -529.39347   -4157.5615 
35796000    84.016235   -5210.8311   -5042.7883   -5210.8311            0     8554.636    17.709155    22.744385    19.097718    7692.2521    7652.8097    8995.3403    9015.7579    140.86775   -72.619053    793.77143   -4083.0984 
35797000    85.558093   -5213.0642   -5041.9374   -5213.0642            0    8003.1331    17.870102    22.533973    19.154632    7713.2714     8506.549    7903.6881    7599.1622   -400.47916   -490.67701   -1510.0558   -4141.6638 
35798000    85.747359   -5217.4368   -5045.9314   -5217.4368            0    8441.5055     17.76482    22.666264    19.123883    7700.4628     8597.407    8532.1631    8194.9463    1650.3661    540.47345    1035.9289   -4097.9221 
35799000    88.782841   -5206.5332   -5028.9566   -5206.5332            0    8765.2191    17.699003    22.846464    18.997212    7681.7055    9264.1127    8056.2022    8975.3425    284.72706   -74.562358   -212.68243   -4046.9909 
35800000     83.63112   -5214.5031   -5047.2306   -5214.5031            0    8776.7265    17.867437    22.493522    19.152167    7697.2864    9600.3513    8267.1489    8462.6794   -133.84391   -908.04427   -658.75478   -4061.9814 
35801000    90.042576   -5199.2461   -5019.1499   -5199.2461            0    7920.1848    17.809746    22.653486    19.138141    7721.3372    7543.6711    8567.8185    7649.0648    371.57978    135.71715    -287.1065   -4127.2754 
35802000    83.942092    -5216.558   -5048.6635    -5216.558            0    7909.5821    17.729125    22.806377    19.100475    7723.0308    8005.8829    7744.5223     7978.341    468.04152    288.00817   -46.083655   -4157.7876 
35803000    85.635104   -5223.7365   -5052.4557   -5223.7365            0    7542.6243    17.880583    22.629528    19.066824    7714.9925    6139.1095    8167.7353     8321.028    133.10401     451.0981   -500.01893   -4203.7955 
35804000    89.322858   -5202.4506   -5023.7938   -5202.4506            0    9119.1361    17.929017    22.543255    18.996929    7678.1483    7496.7197     9755.412    10105.277    428.39483    147.51657   -93.218112    -4002.652 
35805000    88.125815   -5207.3353   -5031.0728   -5207.3353            0    8623.8461     17.74837    22.799206    19.001113    7688.7763    8719.4742    8597.7936    8554.2704    554.37955    455.86157   -106.94868   -4064.0558 
35806000    88.128543   -5199.5287   -5023.2607   -5199.5287            0    8066.3161    17.796349    22.690039    19.084381    7706.2703    9331.5783    7659.7162    7207.6536    177.89664    -525.8122    1153.9616   -4116.7032 
35807000    78.096699   -5209.4849   -5053.2819   -5209.4849            0    7908.4984    17.945146     22.48752    19.155257    7729.9476    7393.8339    8324.1801    8007.4813   -221.47606    209.42894    425.64056   -4161.7303 
35808000    86.054687   -5213.4278   -5041.3078   -5213.4278            0    7435.8271    17.764086    22.718116    19.148411    7727.6586    9042.3674    7354.2875    5910.8266   -729.15401   -227.05937   -590.47901   -4203.2903 
35809000    82.116589   -5203.8351   -5039.5918   -5203.8351            0    8725.3469    17.825644    22.705034    19.014072    7695.6007    8249.2374    9093.8032    8833.0002    9.7036518    17.221855    627.87393   -4060.3248 
35810000    86.982213   -5216.1564   -5042.1812   -5216.1564            0    7401.7504    17.863914    22.595264    19.118898    7717.1489    7085.0991    7550.6774    7569.4746   0.51889926   -22.928428   -557.47431   -4209.1387 
35811000    87.991498   -5206.7995   -5030.8056   -5206.7995            0    8206.3203    17.738993     22.61886    19.208649    7707.1978    9544.4595    8558.5799    6515.9215   -305.69368   -92.059969    748.91366   -4108.4023 
35812000    94.131603   -5211.4049   -5023.1301   -5211.4049            0    7621.7039    17.834014    22.673924    19.105021    7725.4419    7279.5066    7949.7238    7635.8813   -75.190313   -229.02498   -220.59843   -4164.4106 
35813000    89.017649   -5204.7997   -5026.7534   -5204.7997            0    8627.0076     17.71071    22.748903    19.101796    7696.0985    8421.7512    8524.3485    8934.9231    475.47452    58.510536    483.14959   -4058.4607 
35814000    88.499954   -5216.5898   -5039.5789   -5216.5898            0    8750.0676    17.887819    22.540566    19.073483    7690.4583    8463.3708    8428.7755    9358.0566   -893.42601    -379.1366   -457.20106   -4058.1937 
35815000    87.395151   -5218.3194   -5043.5183   -5218.3194            0     9039.674    17.797694    22.515397    19.185799    7688.1744    10473.902    8914.5149    7730.6048     113.5039   -106.39361   -253.65246   -4029.9527 
35816000    90.772759   -5210.7738   -5029.2171   -5210.7738            0    7109.5438    17.674155    22.766518    19.189802    7721.5726    7633.9068    7258.5999    6436.1247    755.62864   -7.5629986   -600.52919   -4228.6027 
35817000    86.118188   -5209.5052   -5037.2582   -5209.5052            0    9145.2531    17.805604    22.616508    19.051794    7672.1688    9053.9423    9345.7133    9036.1038   -189.64934    648.15439    735.91227   -4013.9893 
35818000    86.434524   -5211.9914   -5039.1117   -5211.9914            0     8085.223    17.781804     22.68841    19.120792    7714.1083     8215.462    8043.7763    7996.4307   -903.22046   -438.22768   -248.06193    -4129.505 
35819000     82.01151   -5212.3953   -5048.3622   -5212.3953            0    9113.3498     17.81559    22.665266    19.044111    7689.9182    9061.5764    8914.5255    9363.9477   -9.1464722    523.91429   -377.06524   -4026.3039 
35820000    82.802231   -5202.7733   -5037.1586   -5202.7733            0    8169.2335    17.827345    22.537685    19.190826    7710.6259    9186.3528    7987.4644    7333.8832    580.36564   -64.116666    2204.2459   -4118.5155 
35821000    85.582744   -5206.9446   -5035.7685   -5206.9446            0    8182.9421    17.735179    22.748792    19.116237    7712.5205    8262.4362    8026.5656    8259.8246   -564.86551   -238.71471    85.896854   -4115.3578 
35822000    90.084842   -5198.2356   -5018.0548   -5198.2356            0    8797.3296    17.764336    22.809774    18.979936    7690.6791    9363.9417     8102.419    8925.6279    679.19422    183.34721   -282.14626   -4031.3405 
35823000    83.763259   -5214.2544   -5046.7175   -5214.2544            0     9961.381    17.756645    22.523066    19.129385    7650.4935    10860.408    10138.824    8884.9106   -523.96834    327.16914      77.5005   -3935.2804 
35824000    80.736898   -5210.4698   -5048.9861   -5210.4698            0    8499.3427    17.806013    22.553881    19.139748    7686.4211    8848.9281    8504.1747    8144.9252    89.754711   -269.43849    965.74545   -4096.2219 
35825000    85.253886   -5215.3719   -5044.8536   -5215.3719            0    7615.8133    17.779434    22.796631    19.028776    7712.5761     8352.701     7021.391    7473.3481    282.69409    41.111965    740.21907   -4188.2269 
35826000    86.168309   -5209.5308   -5037.1835   -5209.5308            0    8524.1263    17.824571    22.675208    19.038812    7695.0282    8160.9148     8274.945    9136.5193   -608.80134   -55.005686   -700.77082   -4080.5712 
35827000    81.066675   -5223.0807   -5060.9373   -5223.0807            0    5787.5845    17.855573    22.658445    19.189634    7763.7333    5934.9829     5941.196    5486.5745   -54.860531    12.380968   -759.41699   -4405.6318 
35828000     92.60759   -5214.9769   -5029.7503   -5214.9769            0    6849.8721    17.849874    22.700693    19.121632    7748.1715    5702.8103    7929.6114    6917.1945    -1374.583    69.241573    713.45061   -4255.7207 
35829000    83.837446    -5214.131   -5046.4457    -5214.131            0    7496.6322    17.904506    22.621499    19.064172    7721.5003    6871.4649    7685.3857    7933.0459    42.975305    89.364129    -1400.618   -4202.2488 
35830000    85.543018   -5199.4868   -5028.3902   -5199.4868            0    7579.1698    17.735997    22.837699    19.053374    7717.5569    7027.6504     8206.804     7503.055   -678.55153    452.94797    363.27269   -4175.3345 
35831000    87.073937   -5212.1585   -5037.9999   -5212.1585            0    8039.0113     17.82792    22.628542    19.141921    7722.2307    9285.4824    7711.1526    7120.3988   -514.62745    74.230406    80.142919   -4132.6399 
35832000    82.574249   -5212.6899   -5047.5312   -5212.6899            0    9069.4781    17.865881    22.557124    19.095647    7695.6009    9031.8755    9331.8099    8844.7488    637.79203    51.634444   -705.50385   -4029.6415 
35833000     85.36492   -5205.8373   -5035.0969   -5205.8373            0    7767.6713    17.742182     22.77885    19.083382    7712.4819    7393.2387    7208.1347    8701.6404    1116.7853    -1074.544    1378.2962   -4161.3998 
35834000     87.87661   -5204.5554   -5028.7913   -5204.5554            0    7884.0315    17.846305    22.704019    19.055799    7721.0829    8101.9666     6998.795    8551.3329   -120.74565   -1315.4675    7.7605228   -4141.0173 
35835000    82.747795   -5208.1097   -5042.6039   -5208.1097            0    8929.0013     17.82502    22.684464    19.003159    7683.9471    8689.0306     8350.778    9747.1952    282.04901   -897.36822   -91.685527   -4041.9978 
35836000    84.056818   -5212.7835   -5044.6595   -5212.7835            0    6804.3994    17.759458    22.662917    19.184832    7721.5328    7957.4465    6810.0722    5645.6795    68.783039   -977.32772   -586.99466   -4278.4117 
35837000    83.813051    -5211.432   -5043.7956    -5211.432            0    7927.9284    17.854655    22.589465    19.101858    7704.2967    7769.2848    7930.9085    8083.5919   -908.04506   -70.877639    220.63843   -4153.0194 
35838000    80.561927    -5196.771   -5035.6372    -5196.771            0    9246.9249    17.705863     22.69983    19.118982    7684.3029    10776.322    9293.1668    7671.2863    849.35313   -212.20808    159.37445   -3999.3558 
35839000    77.560824   -5215.0249   -5059.8936   -5215.0249            0    7437.6544    17.893855    22.562782    19.163603    7737.0201    7367.5132    7984.5425    6960.9074   -133.09004    475.06042    441.00174   -4220.6547 
35840000    87.781106   -5215.9408   -5040.3677   -5215.9408            0     8675.858    17.828293    22.728007    18.995382    7696.9587    8267.9771    8402.3276    9357.2694   -665.68784   -968.40847   -30.744667   -4066.4832 
35841000    85.844058   -5216.6136   -5044.9148   -5216.6136            0    8134.5591    17.812095    22.692152    19.063263    7705.2714    7972.2946    8129.1365    8302.2461    526.75067    142.79521    620.88773   -4130.8061 
35842000    84.825584   -5210.4128   -5040.7511   -5210.4128            0    8296.2231    17.764527    22.691126    19.076913    7689.8487    8762.4596    8066.3998      8059.81   -1052.1645   -513.54463    280.63529   -4110.3417 
35843000    87.349566   -5208.0733   -5033.3634   -5208.0733            0    7050.3477     17.76311    22.662081    19.179691    7720.7661     7148.245    7132.1649    6870.6331   -587.92618   -520.19969   -1269.1387   -4239.4981 
35844000    85.630511   -5214.1831   -5042.9115   -5214.1831            0    8005.1294    17.871106    22.594386    19.121925    7721.1784    7927.7881    7863.6283    8223.9717   -274.08064    601.07012    859.18042   -4141.4902 
35845000    81.698209   -5214.9863   -5051.5798   -5214.9863            0     8645.507    17.723743    22.831693     19.02377    7698.2168    8516.4956    7737.0563    9682.9692    352.37313   -1126.6828    224.63275   -4080.9436 
35846000     87.13776   -5205.5067   -5031.2204   -5205.5067            0    9073.1098    17.834173    22.492805    19.174485    7691.6637    8938.6581    9976.9853    8303.6858   -227.68033    184.18376   -106.69142   -4013.4441 
35847000    87.509503   -5219.6297   -5044.5998   -5219.6297            0    7477.6756    17.865614    22.564782    19.150472    7720.2003    8222.8992    6999.2793    7210.8483   -239.18424   -786.69229   -819.48368   -4202.6794 
35848000    87.792435   -5212.5606   -5036.9649   -5212.5606            0    8780.6969    17.779339    22.724785    19.027856    7687.8562    8978.4456    8004.4666    9359.1785    580.14159   -862.45313     109.4558   -4052.4776 
35849000    82.350329   -5209.9989   -5045.2881   -5209.9989            0    7396.7799    17.905326    22.667302    19.063428    7737.1865    7551.5566    7294.0854    7344.6976    596.74062    977.18815    1769.7067   -4210.6434 
35850000    87.157756    -5212.934   -5038.6077    -5212.934            0    8816.1202    17.707589    22.718454    19.143874    7701.3708    9486.8752    7999.8142    8961.6711   -216.75763   -1000.8487    1244.8536   -4048.4112 
35851000     83.65715    -5222.783   -5055.4584    -5222.783            0    8148.2287    17.838198    22.646636    19.089768    7711.7922    8299.8756    8066.6314    8078.1791    511.28368    235.09848    -422.9539   -4139.0387 
35852000    83.444588   -5206.7827   -5039.8832   -5206.7827            0    7511.0982      17.9067    22.554584    19.124004    7723.7676    6964.6643    7835.7665    7732.8638    1336.5771    -266.5862    383.33526   -4193.8089 
35853000    87.289354   -5206.3412   -5031.7517   -5206.3412            0    8605.3067    17.710131    22.750619    19.057356    7678.5221    9617.5092    8326.6931    7871.7177    849.85477   -410.09907   -173.13976   -4068.1005 
35854000    89.291373   -5215.8458   -5037.2521   -5215.8458            0    6594.4049    17.805423     22.63601    19.220601    7746.7428    6373.7499    7075.8073    6333.6576    1336.4293     390.2641    1204.4191   -4292.2274 
35855000    89.660433   -5202.3573   -5023.0254   -5202.3573            0    8606.3002    17.826407    22.575902    19.140719    7703.1288    8368.2509    8687.9766     8762.673    -138.7986   -813.76562    564.72698   -4056.1744 
35856000    78.413015   -5206.9909   -5050.1552   -5206.9909            0    7587.3134    17.821818    22.730314    19.069574    7724.9985     6841.288    8017.2881     7903.364    184.15174    244.40354    916.25876   -4195.3595 
35857000    88.945522   -5213.6403   -5035.7383   -5213.6403            0    7451.1029    17.690086    22.738202    19.150472    7703.1004    7506.2353    7666.4244     7180.649    292.05721   -593.23113    231.64225   -4198.6678 
35858000    87.721363   -5204.0446    -5028.591   -5204.0446            0    9033.8499    17.761901    22.591702    19.107741    7667.3934    10012.318    8596.0963    8493.1358     395.2129   -486.98113     -418.454   -4018.4163 
35859000    85.223032   -5210.8933   -5040.4367   -5210.8933            0    8398.4725    17.851506    22.624541    19.041847    7690.6619    8373.1542     8438.452    8383.8112    194.27823   -413.15376   -27.427342   -4098.4605 
35860000     84.33603   -5201.2851   -5032.6027   -5201.2851            0    7604.4927    17.727721    22.768255    19.128414    7720.7876    7685.3795    7709.8407    7418.2581    96.195962    605.13217    1635.2216   -4176.3385 
35861000     91.00061   -5205.4463   -5023.4338   -5205.4463            0    8845.0619    17.782686    22.684638    19.055907     7687.035    9127.9675    8378.1292    9029.0889   -43.889136    -75.50287   -369.40633   -4031.8359 
35862000    86.085069   -5208.2698   -5036.0891   -5208.2698            0    8772.2361    17.812459    22.537305    19.166734    7694.3859    8521.0237    8426.9452    9368.7393    -258.0338   -437.00579   -104.14981    -4051.715 
35863000    84.459222   -5208.2406   -5039.3117   -5208.2406            0    9229.7611    17.754519    22.652458    19.099135    7681.3569    10885.738    7979.0088    8824.5361   -1305.3067   -495.81379    805.85338   -4005.3504 
35864000    87.545535    -5206.296   -5031.1941    -5206.296            0     8670.199    17.821932    22.658438    19.038071    7687.8992    8279.2425    8181.4408    9549.9138    528.14388   -89.780999    272.37191   -4059.0904 
35865000    83.080337    -5200.641   -5034.4701    -5200.641            0    8792.3266    17.773469    22.562941    19.132148    7672.4071    8965.1172    9814.9557     7596.907   -143.29182   -193.26445   -726.92222   -4050.6598 
35866000    81.863202    -5213.605   -5049.8684    -5213.605            0    8649.2183    17.815434    22.604605    19.126671    7702.5176    9792.4306    8643.2025    7512.0218    -743.3614    196.83146    92.302344   -4078.2731 
35867000    83.729705    -5212.549   -5045.0793    -5212.549            0    8418.2896    17.614943    22.871585    19.050702    7675.1785    9268.2138    7779.9956    8206.6595   -498.43007    -660.5647    288.51402   -4102.7814 
35868000     82.62357   -5211.9944    -5046.737   -5211.9944            0    8099.3525    17.856018    22.617066    19.062668    7698.4721    7892.0551    8206.0542    8199.9482    856.47315    149.97715    -1399.461   -4137.3877 
35869000     88.69512   -5226.4548   -5049.0536   -5226.4548            0    8671.4735     17.86777    22.459059    19.170595     7693.031    7517.2113    9269.6767    9227.5327    620.07086   -204.58386    370.69929   -4076.1579 
35870000    86.261717   -5215.0678   -5042.5337   -5215.0678            0    8065.2888    17.817801    22.569986    19.150813    7701.4518    8818.4958     7736.461    7640.9095   -46.564317   -698.36582   -17.021626   -4136.6584 
35871000    83.990991   -5211.1969   -5043.2045   -5211.1969            0    8835.2346    17.762315     22.77716    18.992271    7683.7998    9374.7967    8279.0166    8851.8906    317.26082    60.962455     1338.537   -4053.1251 
35872000    87.046845   -5205.0201   -5030.9156   -5205.0201            0    7794.2855    17.860715    22.731371    19.021549    7722.7212    6949.5813    7742.6523    8690.6231    1591.0853    202.23143    1818.3747   -4153.0611 
35873000     87.21315   -5209.4508   -5035.0137   -5209.4508            0    9117.6389    17.866437    22.567636    19.028105    7672.1936    8964.4527    9469.5277    8918.9362     -402.602   -65.738496    388.96902   -4014.8313 
35874000    85.215722   -5206.4295   -5035.9875   -5206.4295            0    7583.1567    17.752864    22.697143    19.177159     7727.231    7127.5494    8239.0621    7382.8584   -146.96994    951.85548    1123.2279   -4181.4133 
35875000    88.566686   -5209.2353    -5032.091   -5209.2353            0    8068.7431    17.818028    22.659055    19.102835    7712.5722    8295.2076    7944.7202    7966.3016     150.9842   -134.82558    1815.7453   -4124.5191 
35876000    81.883235   -5208.6554   -5044.8788   -5208.6554            0    8015.4733    17.821294    22.648199    19.098015    7708.3448    7093.5718    8455.7203    8497.1279    180.29613     621.2466   -570.18379   -4143.7929 
35877000    81.802984   -5214.1265   -5050.5104   -5214.1265            0    6669.7816    17.710771    22.739455    19.232981    7745.7614    7869.2137    6802.1864    5337.9447   -272.99254    195.69455   -1223.8078   -4297.0653 
35878000    83.836973   -5212.6296   -5044.9453   -5212.6296            0    9181.1803    17.738743    22.684733    19.096559    7684.4296     9419.842    9164.2163    8959.4827    590.50631    299.77757   -99.302278   -4016.0148 
35879000    93.518895   -5213.5179   -5026.4685   -5213.5179            0    8588.5323    17.924657    22.559985    19.054622    7705.3077    7535.6449     8642.336    9587.6159   -460.60673    173.37484   -398.48537   -4061.3407 
35880000    85.359583   -5225.8696   -5055.1399   -5225.8696            0    6986.4988    17.771937    22.821644    19.074534    7736.3412    6830.6776    7476.7735    6652.0454    740.27884   -566.38568   -154.49541    -4266.877 
35881000    83.673447   -5219.3855   -5052.0282   -5219.3855            0    7772.4233    17.854143    22.702353     19.00204    7702.1169    7654.6886     7297.073    8365.5082   -113.45101    206.22779    684.28697   -4178.9716 
35882000    88.269491   -5203.8602   -5027.3103   -5203.8602            0    8944.3576    17.766178    22.718262    19.064007    7694.5514    9463.7294    8206.0418    9163.3015   -499.65518    423.14978   -625.42948   -4023.6001 
35883000    87.181321   -5211.6536   -5037.2802   -5211.6536            0    6424.5449    17.782084    22.689924    19.213238    7752.0444    7176.0758     5940.257    6157.3018   -14.060388   -540.36638    213.74667   -4310.9493 
35884000    81.664273   -5212.6116    -5049.273   -5212.6116            0    8127.0713    17.873305    22.534877    19.153288    7714.4221    7661.2425    7963.1994    8756.7721    925.32223   -4.6496349    251.46437   -4134.9211 
35885000    86.394959   -5217.6186   -5044.8181   -5217.6186            0    7147.0797     17.61728    22.831821    19.183752    7716.3685    7520.4214    6983.3977      6937.42    313.72325   -35.842296    728.76959   -4240.5192 
35886000    89.338351   -5210.1445   -5031.4567   -5210.1445            0    8141.3651    17.850487    22.648087    19.055659    7703.8098    8190.1937    8142.8962    8091.0055    235.38148    856.40674   -405.57746   -4116.7567 
35887000    85.209728   -5215.1303   -5044.7004   -5215.1303            0    7309.9918    17.818329    22.619758    19.128279    7709.5815    7242.8208    7673.9125    7013.2421    247.65082   -774.71979   -633.34209   -4222.7916 
35888000    84.031464   -5207.7293    -5039.656   -5207.7293            0    8328.1109    17.771546    22.613398    19.143011    7693.0982    9146.1297    7774.4784    8063.7246   -22.327145   -462.17077    1095.2555   -4105.2757 
35889000    81.991019   -5213.0264   -5049.0343   -5213.0264            0    8413.4899    17.760735    22.612782    19.168783    7698.5597    9198.4554    7730.2398    8311.7746     336.3374   -181.35134    134.55265   -4104.4047 
35890000    85.813036   -5205.4755   -5033.8388   -5205.4755            0    7992.5159    17.735432    22.901287     18.95371    7698.3192    7335.7241    7518.2642    9123.5594   -348.70941     50.63318     835.9763   -4136.5023 
35891000     85.22119   -5212.9218   -5042.4689   -5212.9218            0    7962.3294    17.838553    22.576611    19.149386      7712.11    7816.3893    8258.2769    7812.3219   -602.29923   -295.17182   -314.10408   -4146.9201 
35892000    82.757694    -5208.344   -5042.8184    -5208.344            0    7612.9955    17.857192    22.561379    19.171749    7723.9693    8189.4166    7653.9423    6995.6276   -495.68378    174.64159    501.39521   -4185.2436 
35893000    86.306789   -5217.5464   -5044.9222   -5217.5464            0    7900.4684    17.739319    22.856655    19.005196    7705.8751    8449.3274    7103.4178    8148.6601     188.5857   -368.41004    403.81769   -4157.0495 
35894000    88.799762   -5213.1149   -5035.5044   -5213.1149            0    8781.1781    17.746126    22.590762     19.16853    7684.6353    9349.0429    9081.0215    7913.4699    709.81266    632.47247   -329.70613   -4051.3756 
35895000    84.670597   -5210.5676   -5041.2159   -5210.5676            0    8571.6375    17.786823    22.600685     19.17178    7706.9476    8786.5858    8980.3215    7948.0052   -929.19817    698.90509    988.43507   -4077.7817 
35896000    86.999673   -5217.8619   -5043.8518   -5217.8619            0    7916.8324    17.773181    22.809763    19.039032    7718.4624    7765.7027     7695.673    8289.1215    239.89566    183.38918    835.48394   -4152.6868 
35897000    80.983995    -5209.116    -5047.138    -5209.116            0    9011.3053    17.838121     22.41462    19.193507    7674.2302    8946.3699    9132.8473    8954.6986    713.58549   -328.85366    306.80102   -4038.5858 
35898000    84.587869    -5212.004   -5042.8178    -5212.004            0    8639.3452    17.729738    22.650002    19.160459    7694.4302    9671.8991    8449.2971    7796.8393    327.45538   -378.81502    409.08156   -4073.3505 
35899000    85.739862   -5206.1171   -5034.6267   -5206.1171            0    6912.6271    17.788721     22.72606    19.195452    7760.0983    7069.0482    7065.1559    6603.6772   -1386.3417    342.69782    83.448024   -4252.3035 
35900000    86.473412   -5213.2933   -5040.3358   -5213.2933            0    8908.9788    17.823639    22.569913    19.092341    7680.4281    9811.5358    8704.2854    8211.1152    1193.4076    168.31058    584.10866   -4042.4307 
35901000     87.31872   -5196.7119   -5022.0637   -5196.7119            0    8468.3814    17.695591    22.848242    19.029724     7693.968     9250.559    8116.5392    8038.0459    1039.5189    784.74434    327.71484   -4071.8382 
35902000    83.899063   -5206.5857   -5038.7772   -5206.5857            0    7431.9249     17.81484     22.70193    19.097058    7723.4475    7450.6047    7878.3326    6966.8373   -629.07457    152.86465   -131.97979   -4201.6559 
35903000    85.986732   -5209.3004   -5037.3164   -5209.3004            0     7831.059    17.859251    22.565866    19.192647    7734.8187    8199.6859    7817.7614    7475.7297   -339.32676    195.64464   -867.11193   -4153.9385 
35904000     85.34372    -5216.702    -5046.004    -5216.702            0    7064.3533     17.80311    22.728406    19.140534    7744.9552    7563.4714    6982.5775    6647.0109    1163.6497   -316.75874   -342.89962   -4248.0695 
35905000    88.898671   -5223.8339   -5046.0255   -5223.8339            0    7558.7838    17.650853    22.853917    19.127835    7715.9989      8851.86    7261.8684    6562.6228    529.69085    186.22489    46.127535   -4195.4361 
35906000     83.77589   -5216.3831   -5048.8209   -5216.3831            0    8024.3091    17.817834    22.555205    19.152899    7697.2607    7252.7412    8493.2502     8326.936   -393.70137    217.81933    571.45946   -4148.0389 
35907000    88.378564   -5218.5624   -5041.7943   -5218.5624            0    7952.1335    17.814219    22.627155    19.155888    7721.4529    7617.3294    8226.8794    8012.1918   -387.26426   -14.032206     154.9628   -4146.3088 
35908000    84.415067   -5216.5774   -5047.7368   -5216.5774            0    8693.1185     17.75228    22.762758    19.028086    7689.0756    8278.5936    9225.1321    8575.6298    203.99357    764.39028    504.90093   -4072.9141 
35909000      83.5415   -5217.5795   -5050.4862   -5217.5795            0    6555.7253    17.779329    22.696465    19.182265    7740.5794    6630.4064    6619.6878    6417.0819   -651.69235    275.65789    78.539512   -4310.4208 
35910000    89.426379   -5211.0427   -5032.1789   -5211.0427            0    10257.913    17.702277    22.672732    19.058541    7649.3165    10655.223    10034.902    10083.614    -323.3617    492.50208     693.9128   -3887.8324 
35911000    80.882158    -5212.511   -5050.7367    -5212.511            0    8443.2405    17.860919    22.704335    18.995877    7703.2138    7704.2856    8521.4662    9103.9698    319.59358   -114.66387   -303.93282   -4102.1938 
35912000    84.950072   -5211.0826    -5041.172   -5211.0826            0    7423.0251    17.770343    22.675071    19.164588    7722.2518    6430.6293    7720.0133    8118.4326    541.08293   -518.69422    79.359529   -4205.1826 
35913000    84.826002   -5214.6614   -5044.9989   -5214.6614            0    7084.8347    17.822089     22.80753     19.02518    7733.3141     6631.856    6617.5858    8005.0623   -973.24229    656.01767    62.462291   -4245.9539 
35914000    84.903681   -5213.2217   -5043.4039   -5213.2217            0    8027.6946     17.84854    22.511435    19.173178    7703.7114     8453.993    7805.4982    7823.5928    744.68315   -1091.7817    839.20508   -4141.4865 
35915000    85.799914    -5215.983   -5044.3726    -5215.983            0    8867.5452    17.760551    22.701938    19.078377     7692.381    9437.4001    8211.7322    8953.5032    859.96561   -480.80499    157.60256   -4049.5627 
35916000    86.762575   -5197.7145   -5024.1786   -5197.7145            0    8488.0835    17.618005    22.931164     19.03734    7691.1113    9340.1124    8120.8242    8003.3139    1073.7643    388.43575    287.29442    -4072.096 
35917000    84.345522   -5216.6058   -5047.9044   -5216.6058            0    6652.4619    17.800774    22.755736    19.121256    7745.4419    6315.1099    6653.7838    6988.4921      489.115    -1000.842    356.06331   -4296.4467 
35918000     87.45571   -5210.6459   -5035.7237   -5210.6459            0    7407.7366    17.812069    22.590291    19.196634    7724.3378    7956.3814    8132.1554     6134.673   -682.93986    206.88789    209.72468   -4201.2307 
35919000    91.657028   -5207.9515   -5024.6262   -5207.9515            0    8440.4809    17.791325    22.548931    19.173797    7692.0551    8007.9663    8958.4958    8354.9806   -90.904218    24.993186    142.37973   -4077.7668 
35920000    84.661337   -5214.8654   -5045.5323   -5214.8654            0    6705.2597    17.867722    22.762659    19.059568    7751.8476     6791.345    6288.1598    7036.2743    100.71697    17.917154    1249.4261   -4287.4842 
35921000     87.67162   -5204.0564   -5028.7023   -5204.0564            0    9468.0977    17.693817    22.787993    19.016355    7667.5191    8256.1756    8922.0687    11226.049    438.53354    13.186779    389.85359   -3969.9521 
35922000    84.076338   -5211.7342   -5043.5711   -5211.7342            0    8982.6178    17.802266    22.655625    19.053745    7684.7843    9875.5604    8609.2361     8463.057    783.46817   -403.01373    72.636148    -4036.847 
35923000    86.058619    -5221.616   -5049.4881    -5221.616            0    7632.6191    17.838451    22.527606    19.185405     7709.801    7333.2919    7875.7924    7688.7729   -425.30372   -577.34578   -8.3340836   -4191.2799 
35924000    82.354069   -5209.2896   -5044.5713   -5209.2896            0    8058.4605     17.76957    22.903604    18.905932    7694.4721     7940.943    7863.8637    8370.5748   -294.09568    390.55775    54.360266   -4140.2832 
35925000    83.631411   -5213.3585   -5046.0854   -5213.3585            0    7695.0269    17.836309    22.714959    19.065226    7724.2961    7681.1245     7975.567    7428.3892   -120.60727    357.89009    -1019.089   -4179.2334 
35926000     84.85278   -5211.8817   -5042.1656   -5211.8817            0    8932.4624     17.88589    22.513696    19.116488    7697.7794    9347.4876    8945.5578    8504.3417    341.44822   -284.97556    567.70226   -4039.3697 
35927000    88.699215   -5209.9133    -5032.504   -5209.9133            0    8206.5047     17.81023    22.705232    19.058406    7706.9411    7820.8981    7647.1471    9151.4688   -185.77681   -428.24595   -1.7837879   -4110.1106 
35928000    86.397725    -5211.937   -5039.1309    -5211.937            0    7490.5025    17.756438    22.726424    19.134151    7721.4018    7725.4169    7531.9756    7214.1151   -589.49602   -155.08626    804.47267   -4195.6349 
35929000    91.091394   -5215.8914   -5033.6974   -5215.8914            0    7758.8169    17.894357    22.684796    19.034103    7726.5105    6503.9515    7669.0102    9103.4888     284.2683   -709.78488   -730.42955   -4159.4088 
35930000    85.695595   -5211.5414   -5040.1396   -5211.5414            0    7201.5884    17.816592    22.678812    19.130596    7729.8923    6006.0162    7214.8835    8383.8654    642.58741   -720.69756   -120.86853   -4228.2862 
35931000    85.085458   -5216.0623   -5045.8809   -5216.0623            0    8117.6202    17.880859    22.661488    19.027944    7710.2538    7273.9272    8006.5533    9072.3801   -804.47411   -289.03575    770.56022   -4133.0858 
35932000    88.012604   -5213.5997   -5037.5636   -5213.5997            0    8313.3569    17.752808    22.717649    19.078302    7694.3184    9280.6926     7289.833    8369.5452   -229.49285   -617.61302   -924.45632   -4104.6907 
35933000    84.286709   -5214.5754   -5045.9915   -5214.5754            0    8152.3939    17.826776    22.524278    19.179373    7701.1944    6996.1965    9198.0452    8262.9398    377.22389     1351.897   -639.43474   -4130.3634 
35934000    82.385544   -5210.5636   -5045.7823   -5210.5636            0    8770.3802     17.77146    22.666523    19.063886    7679.2613    8368.9838    8788.0076    9154.1492    491.31027   -369.20343     1128.729   -4063.5511 
35935000    92.011516   -5216.8488   -5032.8144   -5216.8488            0    8403.4882    17.839973    22.665997    19.040127    7699.0807    8954.5273    8085.8083     8170.129   -239.21175   -254.57138    739.68611   -4089.2439 
35936000    91.715273   -5213.6531   -5030.2112   -5213.6531            0    9318.1229    17.677863    22.678902    19.141188    7673.9803    8794.1294    9758.0167    9402.2224    13.635707    667.40887    437.87565   -3987.3536 
35937000    82.611621   -5211.1263   -5045.8929   -5211.1263            0    7662.9274    17.788521    22.612556    19.219913    7731.0934    9022.2974    7488.1847    6478.3001   -210.43842     509.6324    38.810912   -4181.8973 
35938000    86.468825   -5208.1637   -5035.2154   -5208.1637            0    7366.3418    17.880123    22.648025    19.094329    7732.2385    7401.6638    7229.5051    7467.8566   -13.433338   -93.696951    342.27197   -4204.5369 
35939000    85.707793   -5219.5881   -5048.1619   -5219.5881            0    8274.2057    17.675897    22.764007    19.102361    7686.2979    8020.0885    8794.7298    8007.7987    -402.5878    24.077463    21.663016   -4120.6502 
35940000    89.951618    -5208.077   -5028.1627    -5208.077            0    7803.0568    17.852337    22.632172    19.129454    7729.0103    7539.8994    8149.2606    7720.0103    386.64189     708.8056    167.59108   -4148.6046 
35941000    89.092531   -5212.9073   -5034.7113   -5212.9073            0    8110.9174    17.834718    22.557261    19.147047    7702.9026    7784.3873    8397.5103    8150.8545   -825.91941   -73.413192    594.55839   -4123.5394 
35942000    86.024333   -5208.4999   -5036.4407   -5208.4999            0    7181.6224    17.794234    22.656649    19.159276    7724.2095    7039.8217    7429.9612    7075.0843   -285.82251    341.14777   -632.25734   -4227.4332 
35943000    86.484161   -5215.6997   -5042.7207   -5215.6997            0    7929.8627    17.802754    22.747383    19.056189    7717.1097    7490.1891    7978.1423    8321.2566   -343.85187    594.76809    382.50041   -4150.2454 
35944000    87.367329   -5215.8705    -5041.125   -5215.8705            0    7470.2016    17.816116     22.67966    19.128042    7728.9425    7396.3824    7372.4932    7641.7291    845.72786   -278.37695    896.32474   -4199.0936 
35945000    85.699616    -5211.634   -5040.2242    -5211.634            0    7702.7536    17.812025    22.603091    19.185157    7724.0749    8507.7278    7751.5105    6849.0226   -149.07766    -23.22777   -530.10003   -4172.5266 
35946000    82.984966   -5208.0219   -5042.0417   -5208.0219            0    8734.3963    17.658347    22.819288    19.078492    7687.6958    8718.2411     8525.774    8959.1739   -523.76089   -500.97868   -338.88791    -4062.766 
35947000    85.185565   -5210.7005   -5040.3188   -5210.7005            0    8249.9367    17.871101    22.662583    19.048016    7714.5474    8385.6353    7816.8463    8547.3286   -829.45241   -560.34172   -133.95309   -4112.1287 
35948000     90.38507   -5218.6448   -5037.8635   -5218.6448            0    8574.2039     17.78784    22.615923    19.115566    7689.9708     8329.923    7814.3447    9578.3439    914.76074   -849.39319    383.12816   -4076.2636 
35949000    86.617698   -5204.7993   -5031.5532   -5204.7993            0    9060.4815    17.742887    22.601911    19.157164    7682.4662    10255.473    9258.4943    7667.4771   -72.809979   -571.09779   -144.41831   -4016.4088 
35950000    83.158794   -5207.8245   -5041.4967   -5207.8245            0    8196.5779    17.825691     22.65533    19.104827    7715.4254    7651.8886    8693.8881    8243.9571    1323.6922     1007.878     996.7612   -4119.2049 
35951000     80.67401   -5194.4424   -5033.0844   -5194.4424            0    9865.1467     17.69436     22.73937    19.032467     7657.877    9834.9818    10094.107    9666.3509   -852.97765   -41.463465   -507.39892   -3931.3223 
35952000    84.144727   -5212.1565   -5043.8566   -5212.1565            0    7586.8877    18.006169     22.52626     19.06748     7733.992    5477.2983    8637.9886    8645.3762    -481.2971    255.46643    306.54394   -4188.1138 
35953000    82.648632    -5216.838   -5051.5305    -5216.838            0    8188.8679    17.751097    22.562247     19.25294    7710.8915    8663.8701    8733.3889    7169.3447    443.79205    35.694925    708.35137   -4130.6477 
35954000    82.328024    -5213.975   -5049.3088    -5213.975            0     8106.954    17.699193    22.883999    19.017277    7702.5358    8446.8829    7563.9278    8310.0514    261.80517    783.97106   -766.69207   -4138.6256 
35955000    80.742961   -5210.8957   -5049.3998   -5210.8957            0    8315.1261    17.925726    22.631916    18.992773     7705.245    7384.0983    8919.1928    8642.0871   -541.87069   -422.29235   -486.87228   -4115.0033 
35956000    85.961731   -5213.7351   -5041.8011   -5213.7351            0    9126.4594    17.832687    22.502436    19.141506    7681.0824    9267.0961    9123.8387    8988.4435   -544.35043    4.9665608    956.72156   -4019.4486 
35957000    83.713825   -5209.7458   -5042.3078   -5209.7458            0    8193.5707    17.833656    22.615833    19.121958    7712.3253    7667.7023     8565.886    8347.1239   -559.56746    104.92188   -878.38121   -4120.7249 
35958000    88.513926   -5206.9305   -5029.8917   -5206.9305            0    9012.2704    17.806365    22.680908    19.030785    7685.8595    8321.0257    8917.3253    9798.4601   -378.77266    533.04513    346.15105   -4019.7029 
35959000     86.41217   -5211.9347   -5039.0996   -5211.9347            0    8017.3314    17.656931    22.918035    19.041128    7705.2239    8825.5006    6997.1161    8229.3777   -910.64827   -306.24479     813.3673   -4138.1698 
35960000    88.006336   -5212.0467   -5036.0231   -5212.0467            0     7224.039    17.899085    22.678998    19.035151     7727.002    6892.8841    7287.4675    7491.7654   -201.29945   -512.68259   -5.5629281   -4221.9433 
35961000    83.225465   -5204.4971   -5038.0359   -5204.4971            0    7919.0985     17.91975     22.48124    19.176142     7725.266    6522.4489    9013.6274    8221.2193   -21.061674   -320.03777   -328.36156     -4145.83 
35962000    83.874266   -5211.7015   -5043.9426   -5211.7015            0    7472.6799    17.849433    22.693042    19.073039    7725.6854    6238.6979    7518.1075    8661.2342   -1175.6191   -448.18687   -895.86025   -4201.9868 
35963000     84.26202   -5209.8678   -5041.3334   -5209.8678            0    8163.3752    17.739902    22.710338    19.151784    7715.8552    8357.3181    7853.9017    8278.9057   -661.12549   -259.49256    806.59048   -4122.7265 
35964000    84.592654   -5211.1823   -5041.9865   -5211.1823            0    7772.4936    17.835529    22.701634     19.06104    7717.7324    7313.8779    7551.3635    8452.2395    1222.1109   -365.00567   -831.31041   -4167.1519 
35965000    82.314299   -5218.4085   -5053.7697   -5218.4085            0    8396.0168    17.777027    22.663214    19.098029    7694.3015    7208.2536    9285.1174    8694.6794   -71.342793    353.68502    589.07975   -4111.6233 
35966000    85.707297    -5213.206   -5041.7808    -5213.206            0     8094.671    17.774396     22.58733    19.195613    7706.5803    8132.3595    8632.2648    7519.3887   -30.251212    503.06768   -74.492564        -4132 
35967000    84.629832   -5220.5695   -5051.2994   -5220.5695            0    7625.3877    17.860196    22.695434    18.998565    7700.9713    7506.6172     7818.872    7550.6739    -371.4435    540.88043   -773.76638   -4194.8863 
35968000    89.131474   -5209.5919   -5031.3179   -5209.5919            0    8244.1452    17.794546    22.670755    19.093469    7702.6068    8649.3615    7969.1186    8113.9556    154.97234   -1048.4105     149.9817    -4105.215 
35969000    86.666661   -5214.1319   -5040.7879   -5214.1319            0    8330.3717     17.95107    22.532222    19.010563    7689.3448    7603.2197     8309.755    9078.1404    845.22175    71.605754    195.82339   -4106.6099 
35970000    81.230695    -5212.662   -5050.1906    -5212.662            0    8501.7312    17.731451    22.697772    19.146024    7705.5938    8021.1197    8781.0999    8702.9741    1082.7383    69.300228    759.74514   -4094.7815 
35971000    86.466734     -5220.05   -5047.1058     -5220.05            0    6908.4663    17.852309    22.695694    19.077443    7729.6178    7660.3066    5784.5946    7280.4976    717.37917   -500.30247   -1244.3895   -4268.3245 
35972000    81.258252   -5214.9286   -5052.4021   -5214.9286            0    8862.7589    17.829649    22.649448    19.031201    7685.4023    8271.4405    8872.1715    9444.6646   -304.92761    671.99004    -1426.171   -4059.0312 
35973000     81.02196   -5213.5475   -5051.4935   -5213.5475            0    7286.3253    17.753207    22.648139    19.170812    7708.1442      7162.26    8193.1336    6503.5823   -70.292222   -207.65228   -484.25336   -4232.3985 
35974000    86.226845   -5211.8577   -5039.3933   -5211.8577            0    7839.1122     17.82673    22.684605    19.044354    7701.3909    7270.4869     8594.146    7652.7036     847.0341    343.11389    92.042228   -4158.9287 
35975000    82.266603   -5209.9717   -5045.4283   -5209.9717            0    8250.4692    17.737461     22.67199    19.142699    7698.1128    9653.7678    7950.2707    7147.3691    196.72045    -462.4175    536.43119   -4119.1557 
35976000    81.828868   -5206.7108    -5043.043   -5206.7108            0    8443.8998    17.845272    22.607725    19.084812    7699.5958    8748.2903    8455.1642    8128.2448    -528.8269    352.26982     54.91231   -4094.8715 
35977000    92.130497   -5207.0007   -5022.7284   -5207.0007            0    7629.8406    17.846817    22.702993    19.070531    7726.9249    7301.1901    7088.8084    8499.5234   -490.83762   -262.66391   -320.40389   -4162.9272 
35978000    88.219452    -5207.803   -5031.3532    -5207.803            0    8901.0085    17.755729    22.696897      19.1087    7700.8051    9650.3165    8498.0325    8554.6763    605.31304    471.64595   -347.96125   -4031.6957 
35979000    87.415027   -5209.6426   -5034.8017   -5209.6426            0    7822.7612     17.76722    22.676862    19.152487    7716.6286    8587.5476    7709.7652    7170.9709    604.40871   -222.49802    512.73316   -4154.4351 
35980000    89.388724   -5205.3645    -5026.576   -5205.3645            0    7645.1161    17.879595    22.586132    19.108928    7716.7756     5945.263    8772.4223     8217.663   -118.10077    299.61043    1280.1929    -4166.185 
35981000    84.505165   -5198.5744   -5029.5536   -5198.5744            0    9030.5982    17.757607    22.606027    19.153381    7688.7213    10105.861    8768.3945     8217.539   -159.26352   -24.728579   -866.18775   -4016.9336 
35982000    88.950284   -5217.9128   -5040.0013   -5217.9128            0    7492.8167    17.731304    22.706597    19.155971    7712.5304    7160.3636    7467.7901    7850.2963   -770.48764   -583.41366   -1002.8439   -4197.2142 
35983000    78.505598   -5206.9502   -5049.9293   -5206.9502            0    7251.0977    17.853835    22.708127    19.059329    7727.1696    6357.0934    7278.6107     8117.589      -634.57    270.10292   -744.72751   -4232.7824 
35984000    87.156992   -5205.6374   -5031.3126   -5205.6374            0    8616.6207    17.692532    22.714191    19.118857     7683.325    10007.779    8209.4168     7632.666   -632.53423   -672.19313   -871.69176   -4065.7909 
35985000    82.934712   -5216.1682   -5050.2886   -5216.1682            0    7506.2679    17.724051    22.668687    19.188186    7709.4479    9579.2802    7138.4101    5801.1134   -90.892489   -175.32408   -134.62992   -4206.3259 
35986000    83.435338   -5209.7122   -5042.8312   -5209.7122            0    8498.0633    17.828462    22.443526    19.251623      7703.22    8731.7697    9402.6961    7359.7242    55.055727    84.447471    1296.6973   -4088.1285 
35987000    85.322167   -5217.1727   -5046.5178   -5217.1727            0    8084.8357    17.779299     22.63208     19.18507    7719.7369    8252.2663    8577.2443    7424.9964   -789.33808    315.93649   -647.45684   -4136.2911 
35988000    84.884047    -5199.939   -5030.1605    -5199.939            0    9054.8892    17.760362    22.896946     18.89718    7684.6903    9232.9065    8654.2649    9277.4961    526.62151   -66.282931    994.07601   -4015.3489 
35989000    87.770838   -5214.2825     -5038.73   -5214.2825            0    7398.3159    17.741025    22.650181    19.190221    7711.3491    6864.2636    7640.0832     7690.601    47.387362   -305.62276    244.48197   -4206.6997 
35990000    87.394294   -5208.5142   -5033.7149   -5208.5142            0    8668.6581    17.837708    22.412172    19.271128    7704.2463    9446.0267    9332.9298    7227.0179   -6.2461684    975.63512   -787.66966   -4059.7172 
35991000     81.46967   -5210.9494        -5048   -5210.9494            0    8183.5232    17.822365    22.707266     19.03705    7704.2405    9119.3319    8012.0117    7419.2261    204.49733   -767.81248   -176.20775   -4128.5121 
35992000    81.462553    -5204.985   -5042.0499    -5204.985            0    8492.4911    17.758043     22.83561      18.9854    7698.8785    8306.3525    7835.9443    9335.1764   -334.78128   -83.680631   -403.44912   -4088.5109 
35993000    90.100112   -5213.3024    -5033.091   -5213.3024            0    8015.0069    17.703718     22.91244    19.052856    7728.5123    8192.2643    7564.3146    8288.4419    594.70919    455.94896    701.51137   -4129.7002 
35994000    89.651142   -5209.6459   -5030.3325   -5209.6459            0    8842.3625    17.835812    22.473671    19.193049    7693.2685    9013.0772      8416.04    9097.9703   -73.551803   -547.48361   -662.62803   -4038.2333 
35995000    88.186559   -5205.4466   -5029.0626   -5205.4466            0    8890.1459    17.892908    22.411848    19.200044    7699.4697    8896.6463    9161.5423    8612.2493    819.98121    96.173591    1708.0547   -4030.7982 
35996000    84.386539   -5214.2814   -5045.4979   -5214.2814            0    7403.6425    17.809199    22.766443    19.077102    7734.8516     7167.846    7700.0938    7342.9875   -670.15409    173.86878   -1343.0762   -4210.3309 
35997000     84.59985   -5205.3802   -5036.1701   -5205.3802            0    9585.8579    17.767559      22.7093    18.996862    7665.0216    9602.1662    9280.8549    9874.5527    -1170.964    273.15349    -65.47321   -3964.6008 
35998000    89.126601    -5208.618   -5030.3538    -5208.618            0     8316.802    17.885696    22.491416    19.134636    7697.3788    8273.9506     8298.331    8378.1243   -835.39241   -795.33499    268.62036   -4096.7231 
35999000    86.031964   -5216.4063   -5044.3318   -5216.4063            0    8407.2384    17.904039    22.499457    19.113048    7699.3314    9101.6028    8215.6628    7904.4497   -302.93883   -397.76039    170.60918   -4100.3095 
36000000    90.692076   -5210.2255   -5028.8301   -5210.2255            0    8626.8726    17.733744    22.902022    18.975453     7706.664     9032.979    8219.9779    8627.6608   -346.78993    136.17123    223.30437   -4059.2232 
Loop time of 545.66 on 64 procs for 250000 steps with 1008 atoms

Performance: 79.170 ns/day, 0.303 hours/ns, 458.160 timesteps/s
377.0% CPU use with 16 MPI tasks x 4 OpenMP threads

MPI task timing breakdown:
Section |  min time  |  avg time  |  max time  |%varavg| %total
---------------------------------------------------------------
Pair    | 41.121     | 44.262     | 48.398     |  26.8 |  8.11
Bond    | 1.6425     | 1.8811     | 2.9444     |  24.0 |  0.34
Kspace  | 262.36     | 272.88     | 286.57     |  37.5 | 50.01
Neigh   | 0.90932    | 0.99759    | 1.1267     |   6.4 |  0.18
Comm    | 66.54      | 79.043     | 85.719     |  59.3 | 14.49
Output  | 0.44665    | 0.44705    | 0.44848    |   0.1 |  0.08
Modify  | 114.01     | 117.91     | 123.26     |  27.4 | 21.61
Other   |            | 28.24      |            |       |  5.18

Nlocal:        63.0000 ave          67 max          58 min
Histogram: 1 1 2 0 3 2 1 2 3 1
Nghost:        3472.50 ave        3488 max        3458 min
Histogram: 2 1 2 2 2 1 1 1 3 1
Neighs:        21660.0 ave       23084 max       20036 min
Histogram: 2 1 1 0 3 2 1 2 3 1

Total # of neighbors = 346560
Ave neighs/atom = 343.80952
Ave special neighs/atom = 2.0000000
Neighbor list builds = 2072
Dangerous builds = 0

unfix		3
unfix		2
unfix		1

write_data	data.final.${pid}
write_data	data.final.1
System init for write_data ...
PPPM initialization ...
  extracting TIP4P info from pair style
  using 12-bit tables for long-range coulomb (../kspace.cpp:340)
  G vector (1/distance) = 0.37957609
  grid = 24 27 32
  stencil order = 5
  estimated absolute RMS force accuracy = 0.0024427964
  estimated relative force accuracy = 7.3564087e-06
  using double precision FFTW3
  3d grid and FFT values/proc = 7875 1344
Last active /omp style is kspace_style pppm/tip4p/omp
WARNING: Not all mixed pair coeffs generated from mixing. Use write_data with 'pair ij' option to store all pair coeffs. (../write_data.cpp:312)

write_restart   restart.lmp.${pid}
write_restart   restart.lmp.1
System init for write_restart ...
PPPM initialization ...
  extracting TIP4P info from pair style
  using 12-bit tables for long-range coulomb (../kspace.cpp:340)
  G vector (1/distance) = 0.37957609
  grid = 24 27 32
  stencil order = 5
  estimated absolute RMS force accuracy = 0.0024427964
  estimated relative force accuracy = 7.3564087e-06
  using double precision FFTW3
  3d grid and FFT values/proc = 7875 1344
Last active /omp style is kspace_style pppm/tip4p/omp
Total wall time: 0:09:05
