LAMMPS (30 Jul 2021)
Processor partition = 1
  using 2 OpenMP thread(s) per MPI task
using multi-threaded neighbor list subroutines
variable        pid world 0 1
variable        phase world IceII IceIh

shell cd ${phase}
shell cd IceIh
include Restart.lmp
echo both
log log.lammps
#include		in.partitions
include		in.temp
variable        temperature equal 170.10
variable	tempDamp equal 100.0
include		in.pressure
variable        pressure equal 2079.4
variable        pressureDamp equal 1000.0 # This is 1 ps
include		in.seed
variable        seed equal 745823

units		real
atom_style	full
#include		in.box
read_restart	restart.lmp.${pid}
read_restart	restart.lmp.1
Reading restart file ...
  restart file = 30 Jul 2021, LAMMPS = 30 Jul 2021
  restoring atom style full from restart
  orthogonal box = (0.086642031 0.10664977 0.16287459) to (18.120930 23.522528 22.050321)
  2 by 4 by 4 MPI processor grid
  restoring pair style lj/cut/tip4p/long/omp from restart
  restoring bond style harmonic/omp from restart
  restoring angle style harmonic/omp from restart
  864 atoms
  576 bonds
  288 angles
Finding 1-2 1-3 1-4 neighbors ...
  special bond factors lj:    0        0        0       
  special bond factors coul:  0        0        0       
     2 = max # of 1-2 neighbors
     1 = max # of 1-3 neighbors
     1 = max # of 1-4 neighbors
     2 = max # of special neighbors
  special bonds CPU = 0.002 seconds
  read_restart CPU = 0.008 seconds
include 	in.setup
variable	out_freq equal 1000
variable	out_freq2 equal 10000
variable	out_freq3 equal 1000

timestep	2.0

neigh_modify    delay 7 every 1

include		in.tip4p
# This is TIP4P/Ice

# create groups ###
group ox type 2
288 atoms in group ox
group hy type 1
576 atoms in group hy

# set charges - beside manually ###
set group ox charge -1.1794
Setting atom values ...
  288 settings made for charge
set group hy charge 0.5897
Setting atom values ...
  576 settings made for charge

# ### TIP3P Potential Parameters ###
pair_style lj/cut/tip4p/long/omp 2 1 1 1 0.1577 8.5
pair_coeff 1 1*2 0.000 0.000
pair_coeff 2 2 0.21084 3.1668
bond_style  harmonic
bond_coeff  1 450 0.9572
angle_style harmonic
angle_coeff 1 55 104.52
kspace_style pppm/tip4p/omp 1.0e-5
pair_modify tail yes

thermo          ${out_freq}
thermo          1000
thermo_style    custom step temp pe etotal epair emol press lx ly lz vol pxx pyy pzz pxy pxz pyz enthalpy

restart 	${out_freq3} restart.lmp.${pid} restart2.lmp.${pid}
restart 	1000 restart.lmp.${pid} restart2.lmp.${pid}
restart 	1000 restart.lmp.1 restart2.lmp.${pid}
restart 	1000 restart.lmp.1 restart2.lmp.1


include         in.dump
dump            myDump all atom ${out_freq2} dump.water.${pid}
dump            myDump all atom 10000 dump.water.${pid}
dump            myDump all atom 10000 dump.water.1
dump            myDump2 all dcd ${out_freq2} dump.dcd
dump            myDump2 all dcd 10000 dump.dcd
dump_modify     myDump append yes
dump_modify     myDump2 append yes


variable natoms 	equal  "count(all)"                        # NUMBER ATOMS
variable H      	equal  "enthalpy/v_natoms"                 # ENTHALPY-per-atom
variable Vol      	equal  "vol/v_natoms"                 # volume-per-atom
fix AVG all 		ave/time ${out_freq} 1 ${out_freq} v_Vol v_H file vol_enthalpy.dat
fix AVG all 		ave/time 1000 1 ${out_freq} v_Vol v_H file vol_enthalpy.dat
fix AVG all 		ave/time 1000 1 1000 v_Vol v_H file vol_enthalpy.dat


timer           timeout 23:50:00 every 1000
New timer settings: style=normal  mode=nosync  timeout=23:50:00

fix 		1 all shake 1e-6 200 0 b 1 a 1
Finding SHAKE clusters ...
       0 = # of size 2 clusters
       0 = # of size 3 clusters
       0 = # of size 4 clusters
     288 = # of frozen angles
  find clusters CPU = 0.000 seconds
fix             2 all nph aniso ${pressure} ${pressure} ${pressureDamp}
fix             2 all nph aniso 2079.4 ${pressure} ${pressureDamp}
fix             2 all nph aniso 2079.4 2079.4 ${pressureDamp}
fix             2 all nph aniso 2079.4 2079.4 1000
fix             3 all temp/csvr ${temperature} ${temperature} ${tempDamp} ${seed}
fix             3 all temp/csvr 170.1 ${temperature} ${tempDamp} ${seed}
fix             3 all temp/csvr 170.1 170.1 ${tempDamp} ${seed}
fix             3 all temp/csvr 170.1 170.1 100 ${seed}
fix             3 all temp/csvr 170.1 170.1 100 745823


run             250000
PPPM initialization ...
  extracting TIP4P info from pair style
  using 12-bit tables for long-range coulomb (../kspace.cpp:340)
  G vector (1/distance) = 0.37187732
  grid = 24 27 25
  stencil order = 5
  estimated absolute RMS force accuracy = 0.0031344096
  estimated relative force accuracy = 9.4391813e-06
  using double precision FFTW3
  3d grid and FFT values/proc = 4410 672
Last active /omp style is kspace_style pppm/tip4p/omp
Neighbor list info ...
  update every 1 steps, delay 7 steps, check yes
  max neighbors/atom: 2000, page size: 100000
  master list distance cutoff = 10.8154
  ghost atom cutoff = 10.8154
  binsize = 5.4077, bins = 4 5 5
  1 neighbor lists, perpetual/occasional/extra = 1 0 0
  (1) pair lj/cut/tip4p/long/omp, perpetual
      attributes: half, newton on, omp
      pair build: half/bin/newton/omp
      stencil: half/bin/3d
      bin: standard
Setting up Verlet run ...
  Unit style    : real
  Current step  : 14000000
  Time step     : 2
  Walltime left : 23:49:59.92
Per MPI rank memory allocation (min/avg/max) = 10.19 | 10.21 | 10.23 Mbytes
Step Temp PotEng TotEng E_pair E_mol Press Lx Ly Lz Volume Pxx Pyy Pzz Pxy Pxz Pyz Enthalpy 
14000000    186.27352   -4421.6943   -4102.4279   -4421.6943            0    1545.8545    18.034288    23.415878    21.887447    9242.8214    1678.1517     561.7046    2397.7071   -212.59779   -46.064147    279.91409   -3894.0512 
14001000     170.8411   -4419.4507   -4126.6349   -4419.4507            0    3974.7481    17.943145    23.200157    21.971544    9146.3975    4400.0344    4213.3383    3310.8716    566.21294   -205.33694   -348.60504     -3596.44 
14002000    170.87779   -4426.9902   -4134.1115   -4426.9902            0    2242.6735    17.856867    23.349873    22.118074    9222.2545    1979.2246    2701.7639     2047.032    556.48097   -613.71671   -76.427002   -3832.4784 
14003000     167.3494   -4423.5197   -4136.6886   -4423.5197            0    1938.2311    18.080922    23.494075    21.780141    9252.0853    1346.5873    1652.8564    2815.2497    530.41847    236.92813   -140.74571   -3875.1589 
14004000    156.52145   -4428.3869   -4160.1145   -4428.3869            0    1444.0872    17.965057    23.295639    22.159924    9274.0939    431.11484    1829.2435    2071.9033    440.84386    0.5382968   -502.36334   -3964.7971 
14005000      173.332   -4420.6624   -4123.5773   -4420.6624            0    992.39818    17.935649    23.432515    22.016924    9253.2147    1363.7317    36.358867     1577.104    875.82934   -553.01918    38.000676   -3989.6545 
14006000    173.02544   -4416.2853   -4119.7256   -4416.2853            0    2153.6871     18.17327    23.179918    21.949771    9246.4487    1952.4686    2442.4177    2066.1749    366.30207   -541.82291   -23.214833    -3829.301 
14007000    175.57525   -4435.2568   -4134.3268   -4435.2568            0    558.96059    17.862746    23.563786    22.152641     9324.355    1825.0219   -29.318801   -118.82135   -49.995323    328.68657     534.0096   -4058.3159 
14008000    168.41691   -4411.1601   -4122.4993   -4411.1601            0      2505.85    18.200002    23.182534    21.909107    9243.9379    1561.3465    2717.2788    3238.9246   -97.126267    344.93736   -25.678015   -3784.6773 
14009000     179.1859   -4421.5984   -4114.4799   -4421.5984            0    2249.0506    17.898928    23.460821    22.084221     9273.684    2528.8462    1829.9359    2388.3696     -439.507    1113.8584    966.32527   -3810.3022 
14010000    175.03972   -4426.6173   -4126.6052   -4426.6173            0    1652.4432    18.022289    23.370475    22.047347    9286.1103    2826.0842    1536.7131    594.53227   -306.61222    128.32998   -227.59264   -3902.8175 
14011000    170.97044   -4431.2355    -4138.198   -4431.2355            0    1780.5348    17.992717    23.428411    21.915119    9238.1162    1556.9545    2389.1817    1395.4681   -340.36419    -323.8175    164.40102   -3898.3093 
14012000    178.43755   -4410.6701   -4104.8343   -4410.6701            0    2264.3695    17.939348    23.226468    22.196011    9248.3607     3206.168    1828.6637    1758.2768    650.63356   -609.95542     442.6675    -3799.421 
14013000    171.12857   -4404.7169   -4111.4084   -4404.7169            0    2396.6438    18.015327    23.358796    21.917573    9223.2729    2451.2652    2906.9428    1831.7232   -824.81144   -463.89648   -480.15057   -3789.0311 
14014000    176.08572   -4448.0159    -4146.211   -4448.0159            0    1078.4375    17.999979    23.474158    22.075747    9327.7613    1788.6913     439.6489    1006.9724   -528.55177   -85.220157    674.85127   -3999.5049 
14015000    164.34256   -4411.4177   -4129.7402   -4411.4177            0     1846.927    18.040459    23.269674    21.976813    9225.7691    2618.4061     1689.864    1232.5108   -739.86746   -128.13535   -415.09346   -3881.2392 
14016000    167.71716   -4418.2781   -4130.8166   -4418.2781            0    1299.7648    17.835137    23.680441    21.900582    9249.5776    2062.9967    63.479986    1772.8179   -485.39436    558.27025    29.900695   -3955.4841 
14017000     170.4603    -4419.136   -4126.9728    -4419.136            0    2680.7838    17.966086    23.198407     22.05003     9190.112    1665.8708    3577.1326     2799.348   -1029.9627    259.39289    63.822288   -3767.6718 
14018000    160.31721   -4424.0533   -4149.2751   -4424.0533            0    3018.6109     17.88379    23.441493    21.925364    9191.6111    2705.5277    4266.7979    2083.5072   -124.53536   -407.34889    326.29643   -3744.6296 
14019000    169.65541   -4424.8294   -4134.0458   -4424.8294            0    1923.7862    18.009985    23.364783    21.940395     9232.505    1007.2765    2488.5748    2275.5072    787.22947   -466.13468    170.22491   -3875.0145 
14020000    166.73278   -4427.5069   -4141.7326   -4427.5069            0    3547.3057    17.820438     23.22137    22.064023    9130.4231    3253.5715    4827.1194    2561.2261     350.8111   -489.42915    399.35329    -3669.381 
14021000    171.92707   -4442.2766   -4147.5995   -4442.2766            0     2390.416    17.930486    23.439773    21.861379    9188.0429    2558.6296    2517.7769    2094.8414    603.10238    288.28654    653.38285   -3827.2881 
14022000    174.33812   -4421.2808   -4122.4712   -4421.2808            0    2309.6644    18.005757    23.075763    22.247858    9243.9088     4036.892    3238.4953   -346.39396    29.785028   -578.45377    2.4658157   -3811.0986 
14023000    171.29071   -4443.2431   -4149.6566   -4443.2431            0     1662.282    17.969455    23.444472      21.9276    9237.7557    2619.7331    762.30629    1604.8065   -884.69312   -814.24288   -485.87158   -3925.7087 
14024000    170.35486   -4385.8865   -4093.9041   -4385.8865            0    3023.8143    18.019478    23.471859    21.814883    9226.6188    3039.3263    2534.3992    3497.7174   -771.32061    62.567497    749.91493   -3687.0174 
14025000    174.01129    -4422.641   -4124.3916    -4422.641            0    3126.4659    17.950699    23.268932    21.994586    9186.9979    3764.1653    2362.2684    3252.9641   -63.529024    617.67515    505.03988   -3705.4985 
14026000      182.292   -4425.9433    -4113.501   -4425.9433            0    2534.5226    18.041203    23.396651     21.80765    9205.0905    2437.2603    2167.5367    2998.7709   -493.73937     468.4039    6.8673262   -3773.2495 
14027000    172.46402   -4411.0349   -4115.4375   -4411.0349            0    2287.0201    17.914131    23.036648    22.348317    9222.7377    2363.9744    3272.5355    1224.5505    246.47422     682.6541   -310.73105   -3807.8238 
14028000    172.56502   -4435.5151   -4139.7446   -4435.5151            0    1281.7865    17.995208    23.526615    21.845299    9248.5639    198.19765    916.17948    2730.9825    -848.6899    379.40164    26.529551   -3966.8562 
14029000    163.72994    -4438.177   -4157.5495    -4438.177            0    3173.1496    18.095269    23.258758    21.925711    9227.9502    1842.9802    3264.7098    4411.7587   -502.39186    328.21472    428.63303   -3730.5064 
14030000    178.38986   -4423.0066   -4117.2525   -4423.0066            0     2055.017    17.916728    23.280969    22.077294    9208.8542    1997.0433    1810.6883    2357.3194   -565.44084   -283.49632     166.3445   -3841.2603 
14031000    178.12533   -4415.3129   -4110.0122   -4415.3129            0    1978.8728    18.052109    23.395579    21.865574    9234.6962    1479.8553    3186.6113    1270.1516    -104.7124    920.71935   -136.33659   -3843.5005 
14032000     171.1879   -4413.9461   -4120.5359   -4413.9461            0    2948.5666    17.848762    23.430672    21.950194    9179.7571    3237.6416    2316.1168    3291.9413   -635.72856    382.60552   -545.42734   -3725.7896 
14033000    171.67149   -4426.5957   -4132.3567   -4426.5957            0     1471.107    18.184704    23.207278    22.010223    9288.6993    2274.9448    2076.2173     62.15879    409.06344    361.15333   -249.12015   -3933.0715 
14034000    163.64816   -4426.2624   -4145.7751   -4426.2624            0    2680.6842    17.879857    23.541733    21.906633    9221.0016    3080.2331    2300.5708    2661.2486   -271.67272    447.21903    85.015694   -3785.2797 
14035000    162.50756   -4431.9058   -4153.3734   -4431.9058            0    2289.6818    18.169143    22.965477    22.064814    9206.8307     2243.127    2260.0696    2365.8487    27.163658   -40.934924    -536.1173   -3845.9329 
14036000    166.52238   -4430.0172   -4144.6035   -4430.0172            0    2103.4715    17.879795    23.524148    21.913455    9216.9511    2293.0186    2108.6973    1908.6986   -862.86246   -133.92445    63.193687   -3861.8553 
14037000    176.84665   -4430.3522   -4127.2431   -4430.3522            0    1605.7103    17.992547    23.247286    22.117947    9251.4484    966.49212    1015.5177    2835.1212    703.90327    91.659931    452.56107   -3910.5961 
14038000    176.13017   -4432.4614   -4130.5804   -4432.4614            0    3481.6539    17.946482    23.365803    21.887345    9178.1073    3543.0958    2088.4767    4813.3893    267.77776    285.55889   -192.12025   -3664.5496 
14039000    173.74932   -4430.7075   -4132.9071   -4430.7075            0    2198.8976    17.987275    23.373345    22.026294    9260.3557    1675.7738    1926.0904    2994.8285   -751.70032    131.07959   -592.11447   -3835.9399 
14040000    172.64859   -4436.6176   -4140.7039   -4436.6176            0    1605.5863    18.013716    23.285216    22.101809    9270.6759    1005.6246    1577.7331    2233.4012   -72.326225   -632.59628    516.77901   -3923.6233 
14041000    169.72285   -4433.2962   -4142.3971   -4433.2962            0    751.20366    18.082389    23.623385    21.784509    9305.6286    241.39061    394.11196    1618.1084     274.7676   -530.83941    21.585612   -4040.4489 
14042000    168.99748   -4430.5917   -4140.9358   -4430.5917            0     1635.832     17.92431    23.308175    22.097418    9231.9248    428.89463    2762.4084    1716.1929    293.49734    2.4927276   -389.27241   -3920.6904 
14043000    171.91155   -4420.4354   -4125.7848   -4420.4354            0    1318.7044    18.020841    23.380276    21.941451    9244.6404    576.08848    81.829514    3298.1952   -910.65375     201.4526   -301.60971   -3947.9924 
14044000    168.70704   -4420.4575   -4131.2994   -4420.4575            0     1645.019    18.027322    23.414998    21.936754    9259.7165    460.84144    2649.9918    1824.2237    3.2512706   -509.60229   -412.00498   -3909.1503 
14045000    170.50575   -4464.1515   -4171.9104   -4464.1515            0    826.64779    17.950367    23.387837    22.154942    9301.0937    1191.6121     699.0274    589.30384    291.82929   -727.63269     306.6799   -4059.7782 
14046000    178.62065   -4427.4987    -4121.349   -4427.4987            0    2488.0659    18.069413    23.313108    21.865163    9210.7909    1760.0311    3357.8461    2346.3203    528.16145    80.728552    249.70599   -3787.1273 
14047000    163.47832   -4423.6227   -4143.4264   -4423.6227            0    2741.3796    17.781096    23.396447    22.128799    9205.9006    2409.5231    2657.5263    3157.0892   -77.797851   -157.45081    688.27042   -3775.3726 
14048000    174.31677   -4427.4051   -4128.6322   -4427.4051            0    1528.1671    18.066439    23.398686    21.915852    9264.5089    476.27361    528.14734    3580.0804   -934.64067    178.51324    989.93849   -3922.1564 
14049000    172.33853   -4418.7727   -4123.3904   -4418.7727            0    587.01732    18.094177    23.506072    21.851429    9293.9161     204.7086    349.82337      1206.52    -996.7235   -520.24633   -197.42379   -4043.8247 
14050000    177.03709   -4442.6609   -4139.2254   -4442.6609            0    2430.9917    17.871567    23.370854    22.017484    9196.1256    2977.5621     2165.703    2149.7101    736.66503   -47.027819    315.87298   -3813.1904 
14051000    183.96281   -4435.1027   -4119.7967   -4435.1027            0    2392.1665    17.933967    23.338124    21.953648    9188.5927    2733.4858    3137.4845    1305.5293    579.50557    205.26731    204.09197   -3799.2316 
14052000     164.8412   -4419.2745   -4136.7423   -4419.2745            0    1832.8049    17.974474    23.311021    22.090453    9255.9736    2393.5996    1598.8052    1506.0099    46.177731    393.44279    244.66175   -3889.3341 
14053000    172.24196   -4442.5318    -4147.315   -4442.5318            0    819.86984    18.070197    23.421344    21.942229    9286.5725    812.23176   -422.45987    2069.8376   -741.32286   -43.009435    590.43884   -4036.2758 
14054000    183.68629   -4432.5555   -4117.7235   -4432.5555            0    1365.2924    17.880936    23.478469    22.029878    9248.5174    1570.9498    1976.2918    548.63566    855.40223   -532.91979    647.60017   -3933.5726 
14055000    168.05709    -4423.744   -4135.6999    -4423.744            0    2127.3123    18.051314    23.335256    21.947753    9245.0964    1993.6662    2697.4485    1690.8222   -160.75599   -65.740469    344.86773   -3848.8739 
14056000     180.9727   -4423.3205   -4113.1395   -4423.3205            0    1084.8925    17.970183    23.559296    21.986735    9308.4113    805.02169    1232.1782    1217.4775    83.955717    101.61931   -165.49073   -3965.8614 
14057000    167.29971   -4419.0258   -4132.2798   -4419.0258            0    2740.4255    18.014038    23.235447    22.041108    9225.6192    3730.1108    3752.4822    738.68354     557.6163   -40.827965   -76.836311    -3763.566 
14058000    174.97222   -4432.4416   -4132.5452   -4432.4416            0    2574.3083    17.939746    23.405505    21.906797    9198.4194    2376.6873    2364.7308    2981.5068   -583.13771   -213.40203   -384.21308    -3787.203 
14059000    173.75964   -4431.5456   -4133.7276   -4431.5456            0    1131.7467    17.981007     23.63332    21.965228    9334.1436    1695.7453   -367.24207    2066.7369   -379.91814   -273.88352   -49.493043   -3979.6641 
14060000    166.82538    -4442.082   -4156.1491    -4442.082            0    1764.9022    18.012969     23.32629    21.996642    9242.4554    1533.2241    1554.0463    2207.4361   -780.27618   -360.53524    129.76041   -3918.2548 
14061000    168.17327   -4420.4713   -4132.2281   -4420.4713            0    2271.1627    17.839341    23.641057    21.867898    9222.5867    2274.2521    3195.0388     1344.197   -145.43475   -53.503228   -738.22744   -3826.7522 
14062000    167.71915   -4411.4952   -4124.0303   -4411.4952            0    1997.9787    18.068448    23.218594    22.115677    9278.0562      1224.51    2328.4439    2440.9821    -654.3759     20.08758    619.94217    -3853.682 
14063000    179.98388    -4416.279   -4107.7928    -4416.279            0    2492.0072    18.056327    23.506982    21.748976    9231.3473    632.27487    3849.9797    2993.7671    325.68012   -62.021132   -421.58897   -3772.2946 
14064000    176.09143   -4433.4799   -4131.6653   -4433.4799            0    3029.7736    17.870364    23.304089    22.059952    9186.9235    2689.0912    4345.9993    2054.2304    -62.32315    80.312938    304.33456   -3725.7306 
14065000    166.81472   -4438.6632   -4152.7484   -4438.6632            0    1561.4044    17.953436    23.445702    21.992075    9257.1442    1202.8821    1500.6272    1980.7037   -183.75725    47.827827    761.55433   -3941.9496 
14066000    174.12971   -4411.9619   -4113.5095   -4411.9619            0    3233.2719    18.058269    23.389612    21.773589    9196.6391    4039.7571    1646.4683    4013.5904    569.13287   -77.379822   -56.539886   -3679.8516 
14067000    166.21193   -4444.8531   -4159.9716   -4444.8531            0    1618.4141    17.992919    23.244244    22.085682    9236.9347    625.56575    528.47307    3701.2036    510.94795   -755.41497    162.18421    -3941.953 
14068000    174.52019   -4435.6067   -4136.4851   -4435.6067            0     2834.356    17.913424    23.502025    21.872211    9208.2389     2743.665    1624.3204    4135.0826   -436.63068    428.40309   -528.17122   -3755.8517 
14069000    169.93074   -4453.1379   -4161.8824   -4453.1379            0    2400.4987    18.084981    23.219586    22.016583    9245.3311    1599.0411    1711.2331     3891.222   -9.3673335   -273.94755    170.25502   -3838.2144 
14070000    169.07849   -4424.9421   -4135.1473   -4424.9421            0    1759.7859    17.964504    23.344856    22.063306    9252.8822     1850.163     1072.422    2356.7728     130.3165   -388.91993   -143.39429   -3897.6752 
14071000    170.62358   -4428.1117   -4135.6687   -4428.1117            0    2024.3888    18.032303    23.532865    21.784511    9244.2955     2696.325    548.81847    2828.0228   -72.631234    260.07471    464.95802   -3862.7435 
14072000    189.30454   -4417.2965    -4092.835   -4417.2965            0    2735.3465    17.951618    23.136187     22.22697     9231.572     3603.144    2281.9787    2320.9168   -80.231508    256.87668    800.62178    -3724.567 
14073000    167.23531   -4443.3355   -4156.6999   -4443.3355            0    3426.7956    17.912922    23.441206    21.897202    9194.6456    3198.8388    2810.7452    4270.8027   -757.42055     201.4334    321.70626   -3697.1856 
14074000    166.58685   -4428.4086   -4142.8844   -4428.4086            0    2870.7356    18.071866     23.28135    21.867429    9200.4457    2390.1381    3200.5844    3021.4843   -595.51398   -71.315034   -275.22617   -3757.6918 
14075000     163.1747   -4414.7898    -4135.114   -4414.7898            0    3463.1274    17.796764    23.472021     21.99593     9188.272    3589.8663    3333.3905    3466.1255    594.74167   -687.06246   -984.74035   -3671.0496 
14076000    165.89665   -4426.7314   -4142.3902   -4426.7314            0    1266.1213     18.34872    23.244047    21.796531    9296.1884    361.97778    1993.1112     1443.275   -510.06642   -595.73744    111.87083   -3970.7353 
14077000    164.52601   -4425.1795   -4143.1875   -4425.1795            0    2588.3684    17.878482    23.465208    21.979424    9220.8584    1746.8707    1856.3984    4161.8359    213.84525   -311.36971    599.20503   -3795.1121 
14078000    183.76149   -4421.0203   -4106.0594   -4421.0203            0    1988.8906    18.175171    23.182417    21.921712    9236.5908    1490.4996    2322.6063    2153.5658    -61.13945    70.853013    576.88231   -3838.1435 
14079000    172.93127   -4438.1838   -4141.7856   -4438.1838            0    2594.7208    17.859006     23.36548    22.081329    9214.1905    2637.8477    2903.0875    2243.2273   -261.85469   -442.97248    697.35672   -3793.1082 
14080000    177.24789   -4412.2461   -4108.4493   -4412.2461            0    1711.7212    17.973314    23.536976    21.930312    9277.3437    817.60076    2014.9819    2302.5808   -262.86897   -220.79734    935.79009   -3876.8525 
14081000    170.27476   -4425.2658   -4133.4207   -4425.2658            0    2971.0843    18.094556    23.232398    21.967664    9234.7647    2621.1497    3358.0475    2934.0556   -395.32112   -669.40119    620.64691   -3733.2764 
14082000    175.70521   -4445.7307    -4144.578   -4445.7307            0    2193.9996    17.896018    23.406573    22.003005    9216.7167    4065.1238    1027.5637    1489.3114     507.1749    351.79187     1251.838   -3849.6686 
14083000    161.17142   -4426.7523     -4150.51   -4426.7523            0    1795.2052    18.093549    23.247686    21.983189    9246.8581    1346.6273    1896.1622    2142.8263    712.75838    322.01703   -132.31812    -3908.416 
14084000    175.12403   -4407.1219   -4106.9653   -4407.1219            0      3765.27    17.627087    23.589331    22.040309    9164.6072    4611.7231    3918.8677     2765.219    546.46116    198.41845    470.40502   -3603.7128 
14085000    170.78947   -4424.1142   -4131.3869   -4424.1142            0    2595.0808    18.036583    23.228349    21.968643    9203.9839    3389.6508         2615    1780.5917     848.5263    -811.1515    299.56961   -3783.0475 
14086000    179.46147   -4443.2893   -4135.6985   -4443.2893            0    1337.4496     17.93945    23.543164    21.912608    9254.8209    178.49167    1803.6289    2030.2281   -206.13343   -416.90438    279.42744   -3955.1801 
14087000    168.98496   -4435.8793   -4146.2449   -4435.8793            0    1884.5444    17.924949    23.363318    22.022186    9222.5891    1877.1545    2259.2556    1517.2232    343.32385   -190.69838    308.82341   -3892.7699 
14088000    173.15381   -4401.9724   -4105.1927   -4401.9724            0     3304.871    17.995281     23.08761    21.981541    9132.6274    3307.8476    2423.1692    4183.5962    -553.7364   -776.11157   -606.86059   -3665.0169 
14089000    163.10885   -4438.8997   -4159.3367   -4438.8997            0    1575.6862    17.944112    23.467643    21.975686    9254.0932    1281.0661    1467.1857    1978.8067   -1564.5353    36.537337    488.01585   -3946.6798 
14090000    176.60631   -4433.1251   -4130.4279   -4433.1251            0    2473.0975    17.986323     23.36926      21.9331    9219.0752    2471.8881     1950.043    2997.3614    697.58398    343.20826    454.64344   -3797.9181 
14091000    163.59133   -4436.4163   -4156.0264   -4436.4163            0    2923.1737    17.854582    23.249579    22.062402    9158.3574    3104.8259    3557.2744    2107.4209     42.22824   -154.56995    661.30324   -3765.5919 
14092000    174.93111   -4420.7756   -4120.9496   -4420.7756            0    3134.7219    17.973468    23.308216    21.937777    9190.3813    3231.1232    2245.8739    3927.1685    4.3194251   -8.1642514    470.53323   -3700.7957 
14093000    171.24671   -4443.7248   -4150.2138   -4443.7248            0    3450.1454    17.861125    23.511727    21.865153    9182.1808    4371.9045    2144.1527    3834.3788    121.96906    37.145258   -233.09307   -3688.1955 
14094000    168.92817   -4426.5643   -4137.0272   -4426.5643            0    1632.2102    17.993045    23.163972    22.191833    9249.3429    1229.5853     1209.594    2457.4515   0.40594529   -559.23341   -401.61763   -3916.8548 
14095000    174.49196   -4445.0375   -4145.9642   -4445.0375            0    2040.3075    17.988046    23.412367    21.905596     9225.383    3205.3152    1075.2548    1840.3525     -651.774    169.79455    531.35302   -3871.4556 
14096000    175.37001   -4423.8922    -4123.314   -4423.8922            0    2727.0219    17.846439    23.360886    22.108435    9217.1974    3597.5277    2017.6459    2565.8921    160.54444    -317.2139   -544.24066   -3756.7385 
14097000    173.81446   -4426.8581   -4128.9461   -4426.8581            0    3384.2199    17.951719    23.168965    21.975572    9140.1403    2045.6385    4427.5063    3679.5148   -534.10146     507.0145   -166.06109   -3677.8311 
14098000     164.4822   -4435.7826   -4153.8657   -4435.7826            0    1347.8265    17.915097    23.717476    21.767089    9248.8552    2491.3784   -515.86789     2067.969   -611.51079    210.00946    517.50683   -3972.0641 
14099000    168.50557   -4417.9618    -4129.149   -4417.9618            0    1902.6738    18.111187    23.096928    22.103213    9246.0568    649.77012    3472.7595    1585.4917    1436.7757    441.73423    262.10954   -3872.5844 
14100000    169.85173   -4440.1974   -4149.0773   -4440.1974            0    1444.1491    17.932253    23.486605    21.987708     9260.513     1511.936    2001.0814     819.4298    409.30752   -114.87179    292.63795   -3954.0376 
14101000    165.75574   -4443.3801   -4159.2805   -4443.3801            0    1399.5987    18.165293    23.308225    21.844098    9248.8072    723.73199    1441.2222     2033.842     5.203588    158.77567    478.42646   -3970.4965 
14102000    172.96725   -4419.1241   -4122.6641   -4419.1241            0    2432.5554    17.763313    23.445166     22.13511     9218.472    2148.9906    1770.0249    3378.6505    506.84661    66.838139   -53.193811   -3795.6266 
14103000    173.79489   -4423.6065    -4125.728   -4423.6065            0    1344.3019    18.031863    23.359704    21.988339    9261.9058    1153.7317    1792.6452    1086.5288    882.34807    397.23988    140.40367   -3944.1459 
14104000    172.61314   -4427.3357   -4131.4827   -4427.3357            0    2460.7886    18.211812    23.069027    21.836126     9173.985    3224.3055    1308.5554     2849.505    240.22839   -55.244731   -293.40587    -3802.246 
14105000    176.66896   -4422.8308   -4120.0263   -4422.8308            0    1187.2382    17.862563    23.552347    21.974113    9244.6257    1108.2207    483.03948    1970.4544   -192.85992    -3.567149    95.798335   -3959.9588 
14106000    163.78087   -4433.1728    -4152.458   -4433.1728            0    2536.4815    18.019828    23.362592    21.844661    9196.3814    2829.2881    2083.1264      2697.03   -263.79789    79.878104   -1097.4284   -3812.2656 
14107000    162.92297   -4426.6083   -4147.3639   -4426.6083            0    2436.4039    17.800748    23.325951     22.14112    9193.4223    2930.4418    2698.2868    1680.4831    432.18724   -321.57182    73.324211   -3820.6991 
14108000    166.34637   -4413.6711   -4128.5591   -4413.6711            0    2374.5097    18.147306    23.282274    21.771487    9198.6832    2033.5057    2744.5287    2345.4947    157.22847    343.54449    390.26549   -3810.0107 
14109000    170.92104    -4433.505   -4140.5521    -4433.505            0    2681.7212    17.825046    23.474845    21.925331    9174.4402    2475.2674    2174.2275    3395.6689    134.46549   -133.25723   -193.65378   -3781.7384 
14110000    166.38734   -4424.7012    -4139.519   -4424.7012            0    1726.9765    18.076073    23.277452    21.892611    9211.6428    1270.8788    2224.2796    1685.7711   -9.2276407    589.06147   -451.66217   -3907.5129 
14111000    168.51524   -4419.6702   -4130.8408   -4419.6702            0    1855.2961    18.029248    23.402049    21.923093    9249.8207     1833.365    2137.1824     1595.341   -373.88856   -750.76477    104.59817    -3880.563 
14112000    173.33016   -4431.0464   -4133.9645   -4431.0464            0    1575.6194    17.827947    23.410844    22.181165    9257.6926    2158.9514    2423.4431    144.46359    528.60736    330.54827    -442.5665   -3921.2339 
14113000    171.82409   -4431.1196    -4136.619   -4431.1196            0    1982.8101    18.011962    23.446386    21.852397    9228.6038    4203.8871    1588.0976    156.44546    94.081078    684.53692   -196.58993   -3869.7531 
14114000    170.41151    -4399.232   -4107.1525    -4399.232            0    1402.6091    18.073248    23.452407    21.803716    9241.7485     1409.974    899.18573    1898.6676    756.90828    285.89921    512.25078   -3918.1069 
14115000    169.80785   -4406.0019    -4114.957   -4406.0019            0    3224.8719    17.925039    23.209486    22.017719    9160.0525    3217.6941    3975.3685    2481.5532    80.868029    85.836916    580.95195   -3684.1465 
14116000    169.06986   -4439.5743   -4149.7944   -4439.5743            0    1009.5042    18.050339    23.452911    21.891918    9267.5709    885.13005    904.55411    1238.8285    -793.4265     199.0902   -71.589456   -4013.3518 
14117000    167.07288    -4440.627   -4154.2698    -4440.627            0     3148.908    17.828865    23.432498    21.933593    9163.3032    4000.0723    3361.1364    2085.5151   -427.08284   -238.82212    290.66273    -3733.458 
14118000    170.96144   -4445.0673   -4152.0453   -4445.0673            0     1804.005    18.037216    23.220107    21.997837    9213.2679    1577.5095    986.52159    2847.9839   -234.35717   -14.668438   -104.65568   -3909.6482 
14119000    175.15503   -4427.0165   -4126.8068   -4427.0165            0    3271.1133    17.774034    23.560559    21.831297    9142.2084    3162.3777     3301.155    3349.8073   -127.83742   -58.016532   -76.865198   -3690.6702 
14120000    170.49425   -4446.9138   -4154.6925   -4446.9138            0    1788.9607    18.016174    23.272834    22.107029    9269.1991    1710.4153    2406.2233    1250.2436   -841.50358    317.24322   -500.16465   -3912.8576 
14121000    169.09797   -4430.9264   -4141.0983   -4430.9264            0    1205.6513    18.061954    23.409536    21.946756    9279.5708   -173.18152    533.98071    3256.1548   -215.98065   -456.49423    952.55589   -3977.9338 
14122000    173.48275   -4411.8213   -4114.4778   -4411.8213            0     2318.098    17.950605    23.457076    21.793077    9176.3827     2901.545    1871.9838    2180.7652    307.65232   -620.24393   -564.04436   -3804.2511 
14123000    163.40596   -4436.3628   -4156.2905   -4436.3628            0    2557.0559    17.984121    23.342497    21.963872     9220.308     2238.328    3768.7521    1664.0877   -77.534621   -581.85886    982.31374   -3812.4465 
14124000    184.10337   -4436.9678   -4121.4209   -4436.9678            0    1963.3013    17.961507    23.296979    22.096869    9246.4094    3152.8006    2466.5132    270.59012    -228.3521   -29.169805    222.07116   -3856.6709 
14125000      178.678   -4415.0189   -4108.7709   -4415.0189            0     2352.425    17.928523    23.534355     21.84392    9216.7415    2033.7186    1652.9505     3370.606    872.21391    178.05029    209.09525   -3792.5656 
14126000      172.752   -4430.5839   -4134.4929   -4430.5839            0    2005.3277    18.030404    23.327234    21.954841    9234.1944    2614.2253    2580.6164    821.14143   -617.37864    261.77623    609.31229   -3864.4329 
14127000    171.74672    -4423.071    -4128.703    -4423.071            0    1495.1393    17.919434    23.388074     22.17718     9294.479    1721.2076    1411.2257    1352.9846   -66.262193    323.70804    309.06834   -3926.0362 
14128000    179.00474   -4440.1084   -4133.3004   -4440.1084            0    2701.6924    17.990733     23.47848    21.800524    9208.4337    2931.2527    2161.6018    3012.2227    720.43729   -494.34269   -334.03423   -3770.4751 
14129000    181.49839   -4422.2077   -4111.1257   -4422.2077            0    2009.7066    17.967236     23.15365    22.225742    9246.0665    1650.5725    2299.5317    2079.0158   -789.94051    -411.5191   -118.41756    -3840.128 
14130000    167.41733   -4441.2364   -4154.2889   -4441.2364            0    2293.2381    17.856394    23.578187     21.96838     9249.158     2041.297    1995.7761    2842.6414    454.77564   -88.507127   -241.56684   -3844.9552 
14131000     162.3265   -4433.3527   -4155.1306   -4433.3527            0    1359.9977    18.167175    23.259015    21.933775    9268.1298    596.72266    1325.7554    2157.5152   -520.03824   -34.445093    1.9428793   -3971.3049 
14132000    168.74316   -4408.3475   -4119.1275   -4408.3475            0    2866.2827    17.766757    23.473614    22.112446    9221.9957      3283.17    1986.6974    3328.9807    700.56186   -248.81928    685.17641   -3733.6316 
14133000    161.38419   -4418.3456   -4141.7386   -4418.3456            0    2627.0478    18.022911    23.359353    21.870275     9207.463    2004.8408    3694.9313    2181.3714   -706.19692    509.21357    242.18772    -3788.975 
14134000    164.02218   -4433.9531   -4152.8247   -4433.9531            0    2801.6677    17.995221    23.210722    21.992213    9185.7529     3159.869    2838.6714    2406.4627    611.61855   -1110.8187    618.36985   -3777.4999 
14135000    158.59441   -4433.5432   -4161.7178   -4433.5432            0    1958.1286    17.904536    23.448898    21.929842     9207.061     2580.311    2215.6827    1078.3921   -609.53947   -101.82606    528.47184    -3898.789 
14136000    171.17357    -4425.101   -4131.7154    -4425.101            0     1963.443    18.050513    23.301066    21.946084     9230.439    1535.8554    2155.7063    2198.7673    686.70138    259.63096   -209.11135   -3867.4036 
14137000    156.39843   -4419.7975    -4151.736   -4419.7975            0    2041.7609    17.910249    23.363665    22.112488      9252.95    2166.5846    2708.7721     1249.926    352.32467    30.728906   -51.751897    -3876.211 
14138000    165.50024   -4415.1677   -4131.5059   -4415.1677            0    3589.5569    18.133899    23.309366    21.714748    9178.6003    2896.9801    3781.1875    4090.5032   -108.22353    168.12008    96.508963   -3651.0061 
14139000    160.50969     -4442.44   -4167.3319     -4442.44            0    1979.6019    17.919148    23.330888    22.016741    9204.5308    2241.0357    1095.5257    2602.2442   -320.13966   -21.495819    248.90836   -3901.5928 
14140000    166.76575   -4424.2619   -4138.4311   -4424.2619            0    2374.2493    17.956316    23.342224     21.93896    9195.5036    1908.3578    3075.5338    2138.8562   -418.48049    775.83799   -437.32465   -3820.0277 
14141000    176.21138   -4456.6936   -4154.6734   -4456.6936            0    2273.0456    18.118679    23.340583    21.755876    9200.5714    2744.2605    1597.3802    2477.4962    -319.0252    156.60557   -309.66931   -3849.6741 
14142000    164.17659   -4425.4817   -4144.0886   -4425.4817            0    2628.7761    17.735578    23.552157     22.04222    9207.2804     3012.078    2363.7074    2510.5428   -68.195157   -561.40373    578.45874   -3791.0999 
14143000    157.00002   -4415.8368   -4146.7441   -4415.8368            0    1515.0558    17.988132    23.339725    22.023553     9246.326    3042.9185     1427.086    75.162908   -485.31154   -409.74341    592.07173   -3942.4416 
14144000     166.0094   -4425.8229   -4141.2885   -4425.8229            0    2188.9665    18.073894     23.34249    21.856227    9220.9168     3257.197    1704.0998    1605.6028    703.56217      530.559   -87.830005   -3846.9215 
14145000    179.01332   -4425.2828   -4118.4601   -4425.2828            0    2300.6686    17.780153    23.393428    22.139071     9208.497    2950.8564    2840.4394    1110.7101   -646.00105    -532.3643    292.17149   -3809.4884 
14146000     169.3776   -4434.6345   -4144.3271   -4434.6345            0    2467.4228    18.264993    23.216454    21.740584    9219.0593    2275.2402    2582.5549    2544.4733   -754.12794    42.565256    175.17744   -3812.5808 
14147000    169.53356   -4446.6911   -4156.1163   -4446.6911            0    2532.7443    17.886704     23.28967    22.098857    9205.8412    2477.6669    2913.2536    2207.3124   -52.398866   -159.99652     323.8302   -3816.0758 
14148000    163.76465     -4441.44    -4160.753     -4441.44            0    920.74183    17.935031    23.418928    22.062643    9266.7334    266.07592    1426.4895    1069.6601    120.44454   -11.100398    333.91117   -4036.3186 
14149000    180.17756   -4421.6338   -4112.8157   -4421.6338            0    1348.2588    18.197198    23.313777     21.90617    9293.5923    765.97112    1183.5532    2095.2522    -214.5274    929.62362    602.17752    -3930.076 
14150000    168.19943   -4432.1857   -4143.8976   -4432.1857            0    1446.0279    17.865746    23.538292    22.018787    9259.5417    1779.3398   -16.596395    2575.3404     404.6147   -198.90829    184.53583   -3948.6247 
14151000    170.58488   -4414.3452   -4121.9686   -4414.3452            0    2038.0579    18.210649    23.194737    21.914701    9256.5769    1616.5644    1736.1007    2761.5086   -64.453576    75.698482    272.75198   -3846.8355 
14152000    159.80046   -4429.8982   -4156.0057   -4429.8982            0    1830.3418    17.891185    23.483472    21.951599    9222.9017    2107.4923    415.95847    2967.5746   -896.98132    254.80239   -484.67538   -3909.8127 
14153000     176.4779   -4428.7421    -4126.265   -4428.7421            0    3457.1704    17.920476    23.315216    21.931281    9163.3224     3914.032     3919.708    2537.7713    580.95203    303.99503     452.8445   -3664.2568 
14154000    156.52954   -4421.4384   -4153.1521   -4421.4384            0    2113.7843    18.124136    23.132843    22.037829    9239.6418    1507.0849    2962.0137    1872.2541    -692.2975   -269.20358    478.26824   -3868.3182 
14155000    168.02274   -4428.6476   -4140.6624   -4428.6476            0    914.91372    17.891047    23.649522    21.943821    9284.7534    1757.1748   -36.304889    1023.8712   -923.43711   -238.93323    582.12956   -4016.7752 
14156000    160.22015   -4440.2995   -4165.6877   -4440.2995            0    2314.8753    17.985066    23.227843    22.030293    9203.2494    1788.5302     2918.978    2237.1177     93.55207   -468.54154    481.06528   -3854.9852 
14157000    163.05536   -4423.9146   -4144.4433   -4423.9146            0    1300.2671    17.976229    23.440658     21.98286    9263.0195    613.97551    2120.0821    1166.7438   -1196.9502   -341.13677      184.902   -3968.7881 
14158000    169.25384   -4436.7184   -4146.6231   -4436.7184            0    2352.8485     18.14994    23.126026    21.975294    9223.8215    750.54029    4341.6481     1966.357    743.34276    569.10915    562.56004    -3830.118 
14159000    164.39179   -4419.0098   -4137.2479   -4419.0098            0    2039.0587    17.867443     23.45579    21.998447    9219.4393    3414.4544    1046.4393    1656.2824    985.12902    75.395683    784.04969   -3863.0841 
14160000    170.41611   -4407.1897   -4115.1024   -4407.1897            0    2510.8117    18.014464     23.37882    21.879132    9214.5475    865.49995    2280.4517    4386.4834    43.876638   -804.09248    382.73028   -3777.6876 
14161000    159.36958   -4430.1775   -4157.0234   -4430.1775            0      2187.09    18.027728    23.273188    21.985675    9224.3689    903.92683     3683.591    1973.7523   -367.04983     360.5753   -787.58678   -3862.7987 
14162000    170.47733   -4438.2087   -4146.0164   -4438.2087            0    2209.7875    17.721584     23.60113    22.053818    9223.9963    3691.5489    1720.0218    1217.7918   -525.30127   -453.01024   -653.74433   -3848.7502 
14163000    175.18213   -4436.1641   -4135.9079   -4436.1641            0    2790.7219     18.04226    23.249639    21.907448    9189.6492    3312.9765    2002.8941     3056.295    -500.1763    150.02106   -646.34664   -3761.8909 
14164000    177.88266   -4444.7265   -4139.8417   -4444.7265            0    2386.7159    18.010775    23.330709    21.844465    9179.1352    1862.5891    3172.4178    2125.1408   -89.306041    -167.0938   -220.30384   -3820.3362 
14165000     161.5412   -4418.4156   -4141.5395   -4418.4156            0    1771.1626    17.932248    23.259412     22.12921    9229.9505    1234.1199    2991.0422    1088.3256    1364.4994   -836.17939    937.87433   -3903.1244 
14166000    176.22888    -4428.044   -4125.9937    -4428.044            0    1977.7221    17.963989    23.378846    21.938732    9213.7704    2061.0926    2988.1176    883.95623   -515.55804    781.73199    171.17572   -3860.2405 
14167000    160.15435   -4429.8586   -4155.3596   -4429.8586            0    1232.3239    18.007106    23.304267    22.044875    9250.9645    1664.8565    1537.9876    494.12765    1059.6528      127.499    390.90863   -3989.0996 
14168000     175.4887    -4413.842   -4113.0603    -4413.842            0    1142.6929    17.972208    23.292252    22.172346    9281.6366     1637.912    1686.3659    103.80082   -342.22724   -95.399861    60.170015   -3958.3818 
14169000    173.86901   -4411.1542   -4113.1487   -4411.1542            0    1217.9374    18.052697    23.511958    21.894932    9293.3972     259.4992    1435.1443    1959.1688   -176.28668    280.96816    139.51573   -3948.0759 
14170000    172.28589   -4433.6468   -4138.3547   -4433.6468            0    1506.7101    17.988014    23.339696    22.159827    9303.4662    1212.2401    1572.4348    1735.4553   -200.18629   -386.96325    263.10217    -3933.922 
14171000    173.31741   -4434.8928   -4137.8327   -4434.8928            0    2955.8529    17.944015    23.274986    22.049524    9208.9105    3616.5382    2937.6414     2313.379   -146.69231   -475.26807    362.71707   -3740.8543 
14172000    166.07189   -4427.9816   -4143.3401   -4427.9816            0    1068.5318    17.889107    23.612427    21.911693    9255.6136    823.88268   -78.666629    2460.3794   -5.1966232   -199.64492    680.29695   -3999.1058 
14173000    173.33557   -4438.4564   -4141.3652   -4438.4564            0    1087.6296    17.985127    23.293601     22.18803    9295.4171    1692.6454    1954.8007   -384.55733    352.20559   -112.26449   -499.58282   -3993.9217 
14174000    167.44523   -4436.8853     -4149.89   -4436.8853            0    1216.7305    18.060076    23.498017    21.874696    9283.0954    1841.7303    1332.4829    475.97841   -234.90293   -4.8372253   -381.70962   -3985.1636 
14175000     169.3382    -4418.892   -4128.6522    -4418.892            0    1808.6321    17.991866     23.41018    22.083967    9301.6085    2747.8608    2274.4233    403.61237   -388.02154   -702.57525    447.75736   -3883.3032 
14176000     167.5468   -4434.7551   -4147.5856   -4434.7551            0    1356.5997    17.996608    23.301924    22.088758    9263.0442    1167.1445    2711.1109    191.54369    548.97692    50.401226    -559.2999   -3964.3198 
14177000    172.51689   -4412.4053   -4116.7172   -4412.4053            0     2309.708    17.925603    23.584648    21.800707    9216.6639    2401.0475    293.62471    4234.4519   -1226.7623   -358.97807   -156.71303   -3806.2565 
14178000    172.89821   -4421.1776    -4124.836   -4421.1776            0     1474.016    18.176285    23.176998    22.010827     9272.539    921.74849    2148.1773    1352.1223    189.39403    -127.5593   -791.63983   -3925.5041 
14179000    160.19073   -4410.2073   -4135.6459   -4410.2073            0    2382.7182    17.805781    23.588567    21.885514    9192.1976    3232.3112    2656.3403    1259.5031    203.62998   -131.20895   -550.27077   -3816.2216 
14180000    168.25339   -4428.7052   -4140.3247   -4428.7052            0    2153.1584    18.015941    23.168392    21.994234    9180.4017    2022.6297    3273.9699    1162.8755    382.23671    -482.1425    482.21409   -3852.0453 
14181000    172.01827   -4423.7773   -4128.9439   -4423.7773            0    3728.7288    17.865945    23.503472    21.866386    9181.9524    4295.9619    3990.5078    2899.7166   -5.5501859   -124.55592    538.22525   -3629.6322 
14182000    176.37402    -4415.911   -4113.6119    -4415.911            0    2072.2336    18.015459    23.288029    21.987524    9224.7456    1377.4283     2245.655    2593.6175   -281.78831   -222.72301   -385.38294   -3834.8272 
14183000    161.39893   -4423.6899   -4147.0577   -4423.6899            0    3103.7643     17.94127    23.283653    21.995433    9188.3349    2560.0228    3291.5236    3459.7465   -136.23416   -611.36331    738.14606   -3731.1457 
14184000    169.26089   -4441.1744   -4151.0671   -4441.1744            0    2042.2382    18.006843    23.446159    21.894028    9243.4683    1897.2217    1933.1999    2296.2931   -27.849768   -556.21228    386.91838   -3875.7601 
14185000    174.04517   -4418.1704    -4119.863   -4418.1704            0    2742.0235    17.933448    23.280587    21.995366    9183.0919    1910.5199     2731.112    3584.4388    548.07732    454.10479    303.16017   -3752.6348 
14186000    166.59384   -4408.6152    -4123.079   -4408.6152            0    2057.7007    17.826079    23.563042    21.977184    9231.2229    1978.8125    1623.2291    2571.0604     306.1126    40.993944    375.50345   -3846.0551 
14187000    164.59596   -4424.2913   -4142.1795   -4424.2913            0    2264.1814    18.168171    23.151153    21.949472    9232.2578     701.5366    3925.2284    2165.7793    387.82463   -286.70536    260.56131   -3837.3233 
14188000    163.59679   -4394.5322   -4114.1329   -4394.5322            0    1904.1462    17.991283    23.386452    22.005428    9258.8338    2299.3065    2133.9763    1279.1559   -833.97936   -168.59084    567.07522   -3857.0149 
14189000    163.31506   -4436.1281   -4156.2117   -4436.1281            0    1620.4025     18.03549    23.326882    21.999157    9255.3038    2308.6191    1091.7017    1460.8868   -226.44361   -471.52487    487.49509   -3937.4912 
14190000    180.23282   -4416.7242   -4107.8114   -4416.7242            0    952.24014    17.799606    23.560499    22.135686    9282.9894    2585.0709     277.3058   -5.6562937    140.06095   -54.487489    288.36064   -3978.8943 
14191000    171.34815   -4423.0206   -4129.3357   -4423.0206            0    1756.0581    18.137414     23.30574    21.918739    9265.1794    891.83727    2298.3594    2077.9775   -107.32539    98.091463   -72.918714   -3892.0517 
14192000     167.1813   -4417.6771   -4131.1341   -4417.6771            0    1653.4209    18.037137    23.408599    21.947716    9266.8548   -358.66008    2473.3587    2845.5639    474.09959   -169.07446    34.295916   -3907.6783 
14193000     170.2147   -4425.9195   -4134.1773   -4425.9195            0    1433.2681    17.801118    23.550455    22.100489    9265.0653    1937.9867    1930.2421    431.57543    -975.3755   -520.09327    289.64688    -3940.512 
14194000    169.78847   -4406.7066    -4115.695   -4406.7066            0    1236.5256    18.167349    23.236947    21.976919    9277.6383    1389.9579     1207.782     1111.837    330.97727   -234.74612   -16.503542   -3948.3871 
14195000    172.08648   -4435.7976   -4140.8473   -4435.7976            0    3102.1048    17.749327    23.558859    21.955289    9180.6894    3342.1683    3940.5646    2023.5814   -225.20737   -434.56027   -146.74908   -3725.5036 
14196000    165.63926   -4415.9125   -4132.0124   -4415.9125            0    2403.3024     18.15068    23.085464    21.917232    9183.6904    2944.5885    3031.2434    1234.0754    421.50367   -1215.3106    874.17704   -3810.1268 
14197000    166.52694   -4418.7982   -4133.3768   -4418.7982            0    2556.5691    17.981797    23.436361    21.921322    9238.2564    2520.1022    2352.8928    2796.7122   -249.52967   -834.78987    271.92659    -3788.929 
14198000    164.19286   -4413.0445   -4131.6236   -4413.0445            0    2017.0173    18.066623    23.284452    22.016644    9261.7726    3202.3204    800.76764     2047.964   -570.12097   -247.92837   -432.35433   -3859.1781 
14199000    172.06318   -4416.6386   -4121.7282   -4416.6386            0       1947.7    18.041794    23.308168    21.993501    9248.7323    1588.7057    1575.6344    2678.7601   -55.075502   -357.59036    -322.9958   -3859.0161 
14200000    168.78328   -4422.7195   -4133.4308   -4422.7195            0     3748.169    17.909225    23.468901     21.73659    9136.1026    3995.9823    3883.5406    3364.9841    326.78811    24.362829    128.60559   -3634.0222 
14201000    168.51955   -4423.2361   -4134.3994   -4423.2361            0    2185.3378      18.0635    23.102064    22.139589    9238.9422    1190.4328    3896.5948    1468.9858   -122.03182    334.51347    395.34777   -3839.9459 
14202000    170.32495   -4420.5667   -4128.6355   -4420.5667            0    1332.7197    17.995733     23.51447    21.875871    9256.9966    822.11839   -102.77169    3278.8124    694.46022   -366.45463   -29.453489   -3948.7133 
14203000     161.3359   -4423.5426   -4147.0184   -4423.5426            0    2334.8157    18.070915    23.061237    22.101996    9210.7338    2883.1519    1904.2718    2217.0233    -157.9017   -2.6144835  -0.28516594   -3833.3847 
14204000    166.82689   -4436.8941   -4150.9585   -4436.8941            0    953.35188    17.929899      23.6102    21.876692    9261.0273    515.56008    388.68959     1955.806    22.975342    220.93277    837.96274   -4022.1964 
14205000    161.65426   -4429.8386   -4152.7687   -4429.8386            0    1858.7811    17.990318    23.375157    21.925666    9220.3237    2172.4073    2058.2462      1345.69    746.17566   -694.57747    730.39518   -3902.8203 
14206000    162.08176   -4429.5904   -4151.7879   -4429.5904            0    710.18033    18.076649     23.41652    21.958891    9295.0279    485.41905    1175.6283    469.49367    658.19295    321.78831   -447.00734   -4055.5169 
14207000    162.09086   -4416.6718   -4138.8537   -4416.6718            0    1336.3364    18.017766    23.411727    22.008841    9283.9237    2709.3882     632.0274    667.59367    257.72697   -39.047358   -638.22562   -3957.9184 
14208000    174.59813   -4426.6888   -4127.4336   -4426.6888            0    2035.3766    17.970975    23.251528    22.111122    9239.1905    2850.8386     2434.326    820.96536    896.28969   -46.968614    153.20743   -3853.1786 
14209000    168.59657   -4428.0172   -4139.0485   -4428.0172            0    1685.2174    17.942321    23.657929    21.747657    9231.4053    2968.9032    127.55354    1959.1955    780.80667   -248.97966   -621.29638   -3912.1667 
14210000     170.3397   -4407.1869   -4115.2305   -4407.1869            0    3003.3143    18.066448    23.161091    21.997946     9204.791     3522.239    3759.2635    1728.4404   -25.023735   -1128.8117   -104.58436   -3712.0583 
14211000    167.88436   -4430.0603   -4142.3123   -4430.0603            0     2462.424    17.855329    23.560731    21.879665    9204.4385    2335.9346    2625.4088    2425.9285    356.99794    56.650258    55.883998   -3811.7632 
14212000    174.54509   -4438.9578   -4139.7935   -4438.9578            0    1458.6862    18.049002    23.444047    21.894812    9264.6072    1436.3672    406.30734     2533.384   -31.004446    -115.2125   -185.22537   -3942.7034 
14213000    179.29052   -4429.0826   -4121.7848   -4429.0826            0    2285.3899      17.8782    23.307227    22.156197    9232.2937    3205.7161    3080.2842    570.16939   -395.96534   -165.56528    476.05313   -3814.0718 
14214000    163.73617   -4422.2201   -4141.5819   -4422.2201            0    783.84087    18.171335      23.4547    21.840311    9308.4103   -183.78498    1015.4665    1519.8411    133.75657   -234.89991    233.27709   -4035.1727 
14215000    163.36768   -4451.8773   -4171.8707   -4451.8773            0    2621.6172    18.001764     23.35268     21.91802     9214.104    1014.7441    2845.5798    4004.5277   -133.23841   -409.61308   -171.27698   -3819.5824 
14216000    173.17325   -4442.9403   -4146.1273   -4442.9403            0    1123.7812    17.835069    23.436286    22.194891    9277.1932    1097.9006    670.38413     1603.059     355.6494   -41.765148   -272.40593   -3994.0816 
14217000    164.34454    -4436.781      -4155.1    -4436.781            0    2122.7459    18.028794    23.327602      21.9252    9221.0493     1449.916     1729.668    3188.6538    403.73569   -566.09318    593.85239   -3869.6341 
14218000    167.29329    -4417.876   -4131.1411    -4417.876            0    2017.7882    18.010695    23.285123    22.011506    9231.2128    4277.4408    2005.7616   -229.83768   -153.00122    476.16408   -838.04304   -3859.4907 
14219000    174.37898   -4423.7444   -4124.8648   -4423.7444            0    2487.3277    17.795788    23.506711    22.014891    9209.2789    2026.9115    2088.3881    3346.6835   -965.46761   -366.01101   -101.79693   -3790.7971 
14220000    164.41458   -4439.7945   -4157.9935   -4439.7945            0    1667.3056    18.134042    23.258103    21.967134    9264.9335    2002.3414    1283.7701    1715.8053    498.18384    437.69576   -409.15021   -3932.7079 
14221000    166.31325   -4426.6647   -4141.6095   -4426.6647            0    437.13051    18.023462    23.450393    22.092224    9337.4391    718.56822    1290.9762   -698.15291   -50.896397    494.99219    248.51103   -4082.0823 
14222000    168.88189   -4437.6978     -4148.24   -4437.6978            0    2326.2749    17.853865     23.58571    21.923332    9231.8294    2339.8118    2436.9638    2202.0492    663.56754    644.54414   -538.99088   -3835.0379 
14223000    169.65501   -4439.2967   -4148.5138   -4439.2967            0    2190.7503     18.07766    23.409925    21.846875    9245.5247    697.27446    3072.0796     2802.897    -1052.748    499.71983    327.38718   -3853.1207 
14224000    170.46767   -4426.5383   -4134.3626   -4426.5383            0    2441.1531    17.865253    23.254375    22.110036    9185.5102    2911.3381    2488.3666    1923.7547    11.720687   -614.74911    580.31578   -3807.3426 
14225000    168.44043   -4441.5589   -4152.8578   -4441.5589            0    1337.7839    17.943523    23.404978    22.098179    9280.5228    2179.7659    1191.3362    642.24964    163.12975   -152.21632    699.67797   -3971.7929 
14226000    167.57501    -4420.316   -4133.0982    -4420.316            0    1280.6158    18.064103    23.574094    21.796198     9281.799    32.499059    1571.8747    2237.4738    332.74487    182.30353    297.02565    -3959.747 
14227000    181.32593   -4407.4891   -4096.7027   -4407.4891            0     2368.426    17.895667    23.377266    22.064691    9230.8023    4074.3743     1832.635    1198.2686   -838.50005   -1031.3985   -530.75208   -3777.8609 
14228000    178.90067   -4426.7465   -4120.1169   -4426.7465            0    1897.4912    17.970587     23.29174    22.012968    9213.8849    2472.4502    1378.2342     1841.789   -249.10583   -86.538149    577.09187   -3865.1414 
14229000    167.64815   -4411.6607   -4124.3175   -4411.6607            0    2260.7964    17.993779    23.586561     21.67162    9197.6819    2093.5721    2183.2983    2505.5187   -364.13115   -47.672663   -23.674443   -3821.0571 
14230000    178.08455   -4418.5038    -4113.273   -4418.5038            0    1575.5922    17.905149    23.365166    22.110543    9250.0956    3069.9184    771.66944    885.18875    25.585167    353.63986    210.49333   -3900.7206 
14231000    172.94659   -4418.1682   -4121.7437   -4418.1682            0    2134.1061    18.290362    23.266115    21.707779    9237.6514    2377.6543    1874.3498     2150.314   -910.31276   -489.00871      439.575   -3834.2334 
14232000    171.50112   -4428.6853   -4134.7382   -4428.6853            0    1189.9666    17.870922    23.492743    22.119712    9286.6731    617.14525    1616.0231    1336.7314    -153.7297    804.07044    232.45381   -3973.5732 
14233000     162.0977   -4425.0399     -4147.21   -4425.0399            0    2039.0575    17.978453    23.383744     21.97536    9238.5193    2067.7608    1212.7126    2836.6989    175.48771    -97.70863   -361.36654    -3872.479 
14234000    172.66309   -4415.7185   -4119.7799   -4415.7185            0    955.53744    18.153193    23.450078    21.876622     9312.742    968.75318    1098.5437    799.31546   -516.37944   -2.6580775    695.13329   -3990.0019 
14235000     161.9152   -4430.6116   -4153.0944   -4430.6116            0    2334.3369    17.927694    23.415463    22.019911    9243.6335    2677.2956    2403.5446    1922.1705   -129.02113   -892.38499    222.62685    -3838.405 
14236000    171.37131   -4431.7422   -4138.0176   -4431.7422            0    2164.7491    18.040791    23.370058    21.885977    9227.4415    2321.4559    2118.8648    2053.9267   -219.52707   -562.70536    389.07416   -3846.7013 
14237000    170.56662   -4431.4941   -4139.1487   -4431.4941            0    1399.2232    17.789465    23.518256    22.220234    9296.4391    1355.1684    1996.5441    845.95721   -413.38013   -17.207684    327.76556   -3949.4434 
14238000    172.61202   -4428.4833   -4132.6322   -4428.4833            0    1301.2988    18.161874    23.199196    22.079837    9303.1378     744.4227    2484.4146    675.05908   -177.80485   -1052.2296    168.32942   -3956.0763 
14239000    183.13046   -4445.2181   -4131.3388   -4445.2181            0    928.28927    17.803597    23.647852    21.968981    9249.3105    337.26237   -86.138912    2533.7444    14.889071   -615.19777    303.64544   -4006.1203 
14240000    175.45167   -4433.7403   -4133.0222   -4433.7403            0    2084.2874    18.010041    23.265829    22.034385    9232.8155    2097.7086    2744.0344    1411.1191    253.14554   -677.42289   -293.95738   -3852.3705 
14241000    164.53089   -4432.8419   -4150.8416   -4432.8419            0    1939.1146    18.021826    23.456763    21.835671    9230.6736    2455.2864    1622.5673    1739.4902   -292.32361   -687.10993    -20.42078   -3889.7981 
14242000    166.46101   -4423.5409   -4138.2325   -4423.5409            0    1765.5923    17.947634    23.406154    22.073327    9272.6756    1545.7613    1701.8086    2049.2071   -239.00207    -390.8689    474.92228   -3899.4671 
14243000      172.136   -4410.1064   -4115.0711   -4410.1064            0    1867.4716    18.007924    23.374803    21.954898    9241.5117    1231.8057    3230.6878    1139.9215    79.199575   -664.96869   -761.99058   -3863.3771 
14244000    171.36867   -4420.3954   -4126.6754   -4420.3954            0    981.68021    17.865648    23.592073    21.986611    9267.0857    1795.4128    623.27067    526.35716   -458.25377    388.38735   -231.61033   -3994.0003 
14245000    172.72989   -4409.9544   -4113.9012   -4409.9544            0    1929.8269    18.115195    23.130614       22.052     9240.132    1200.7371    2511.7049    2077.0386    667.69595   -732.49147    29.500184   -3853.8419 
14246000     166.6722   -4422.9659   -4137.2955   -4422.9659            0    1956.6564    17.966913    23.434146    21.914658    9226.9315    1100.4531    2460.8239    2308.6921    -1389.963   -38.632077    753.91144   -3873.9974 
14247000    164.95322   -4422.7787   -4140.0545   -4422.7787            0    1562.6532    18.084427    23.184539    22.088532    9261.2603    1223.1796    2408.2499      1056.53   -666.59544   -529.75691    920.74611   -3928.9932 
14248000     181.0637   -4425.4658   -4115.1288   -4425.4658            0    1430.6737    17.982897    23.496385    21.903994    9255.1618   -34.881211    1915.7209    2411.1816    -656.0864   -106.92341   -235.36309   -3922.0207 
14249000    163.46339   -4426.1527   -4145.9821   -4426.1527            0    3679.5143    17.886739    23.224532    21.960135    9122.4843    4529.3185    4905.9884    1603.2359   -338.22204   -314.03907    9.7586762   -3656.4519 
14250000    181.73146   -4422.6611   -4111.1796   -4422.6611            0    1877.6133    18.048395    23.230306    21.997605    9222.9302    1437.5016    1648.8529    2546.4855    118.75957    75.314471    254.25706   -3858.6275 
Loop time of 425.736 on 64 procs for 250000 steps with 864 atoms

Performance: 101.471 ns/day, 0.237 hours/ns, 587.219 timesteps/s
193.9% CPU use with 32 MPI tasks x 2 OpenMP threads

MPI task timing breakdown:
Section |  min time  |  avg time  |  max time  |%varavg| %total
---------------------------------------------------------------
Pair    | 17.635     | 25.425     | 40.821     | 116.1 |  5.97
Bond    | 0.8092     | 1.0604     | 1.7563     |  17.4 |  0.25
Kspace  | 212.32     | 232.39     | 244.22     |  45.8 | 54.59
Neigh   | 1.0974     | 1.2696     | 1.3864     |   7.4 |  0.30
Comm    | 64.082     | 67.859     | 75.355     |  32.5 | 15.94
Output  | 0.52411    | 0.52552    | 0.52774    |   0.1 |  0.12
Modify  | 74.076     | 77.204     | 81.252     |  19.7 | 18.13
Other   |            | 20         |            |       |  4.70

Nlocal:        27.0000 ave          41 max          16 min
Histogram: 2 3 6 5 4 1 4 2 4 1
Nghost:        2132.81 ave        2241 max        2024 min
Histogram: 5 6 5 0 0 0 0 6 4 6
Neighs:        6583.69 ave       10108 max        3819 min
Histogram: 1 5 5 6 3 2 3 4 2 1

Total # of neighbors = 210678
Ave neighs/atom = 243.84028
Ave special neighs/atom = 2.0000000
Neighbor list builds = 3612
Dangerous builds = 0

unfix		3
unfix		2
unfix		1

write_data	data.final.${pid} nocoeff
write_data	data.final.1 nocoeff
System init for write_data ...
PPPM initialization ...
  extracting TIP4P info from pair style
  using 12-bit tables for long-range coulomb (../kspace.cpp:340)
  G vector (1/distance) = 0.37189921
  grid = 24 27 25
  stencil order = 5
  estimated absolute RMS force accuracy = 0.0031340972
  estimated relative force accuracy = 9.4382406e-06
  using double precision FFTW3
  3d grid and FFT values/proc = 4410 672
Last active /omp style is kspace_style pppm/tip4p/omp

write_restart   restart.lmp.${pid}
write_restart   restart.lmp.1
System init for write_restart ...
PPPM initialization ...
  extracting TIP4P info from pair style
  using 12-bit tables for long-range coulomb (../kspace.cpp:340)
  G vector (1/distance) = 0.37189921
  grid = 24 27 25
  stencil order = 5
  estimated absolute RMS force accuracy = 0.0031340972
  estimated relative force accuracy = 9.4382406e-06
  using double precision FFTW3
  3d grid and FFT values/proc = 4410 672
Last active /omp style is kspace_style pppm/tip4p/omp
Total wall time: 0:07:05
