LAMMPS (30 Jul 2021)
Processor partition = 0
  using 2 OpenMP thread(s) per MPI task
using multi-threaded neighbor list subroutines
variable        pid world 0 1
variable        phase world IceII IceIh

shell cd ${phase}
shell cd IceII
include Restart.lmp
echo both
log log.lammps
#include		in.partitions
include		in.temp
variable        temperature equal 170.10
variable	tempDamp equal 100.0
include		in.pressure
variable        pressure equal 2079.4
variable        pressureDamp equal 1000.0 # This is 1 ps
include		in.seed
variable        seed equal 745823

units		real
atom_style	full
box tilt large
read_restart	restart.lmp.${pid}
read_restart	restart.lmp.0
Reading restart file ...
  restart file = 30 Jul 2021, LAMMPS = 30 Jul 2021
  restoring atom style full from restart
  triclinic box = (-10.703907 -9.2579417 -0.00075220613) to (12.683907 12.247940 21.860751) with tilt (-9.4365209 1.7995700 2.9415766)
  2 by 4 by 4 MPI processor grid
  restoring pair style lj/cut/tip4p/long/omp from restart
  restoring bond style harmonic/omp from restart
  restoring angle style harmonic/omp from restart
  1296 atoms
  864 bonds
  432 angles
Finding 1-2 1-3 1-4 neighbors ...
  special bond factors lj:    0        0        0       
  special bond factors coul:  0        0        0       
     2 = max # of 1-2 neighbors
     1 = max # of 1-3 neighbors
     1 = max # of 1-4 neighbors
     2 = max # of special neighbors
  special bonds CPU = 0.002 seconds
  read_restart CPU = 0.008 seconds
include 	in.setup
variable	out_freq equal 1000
variable	out_freq2 equal 10000
variable	out_freq3 equal 1000

timestep	2.0

neigh_modify    delay 7 every 1

include		in.tip4p
# This is TIP4P/Ice

# create groups ###
group ox type 2
432 atoms in group ox
group hy type 1
864 atoms in group hy

# set charges - beside manually ###
set group ox charge -1.1794
Setting atom values ...
  432 settings made for charge
set group hy charge 0.5897
Setting atom values ...
  864 settings made for charge

# ### TIP3P Potential Parameters ###
pair_style lj/cut/tip4p/long/omp 2 1 1 1 0.1577 8.5
pair_coeff 1 1*2 0.000 0.000
pair_coeff 2 2 0.21084 3.1668
bond_style  harmonic
bond_coeff  1 450 0.9572
angle_style harmonic
angle_coeff 1 55 104.52
kspace_style pppm/tip4p/omp 1.0e-5
pair_modify tail yes

thermo          ${out_freq}
thermo          1000
thermo_style    custom step temp pe etotal epair emol press lx ly lz vol pxx pyy pzz pxy pxz pyz enthalpy

restart 	${out_freq3} restart.lmp.${pid} restart2.lmp.${pid}
restart 	1000 restart.lmp.${pid} restart2.lmp.${pid}
restart 	1000 restart.lmp.0 restart2.lmp.${pid}
restart 	1000 restart.lmp.0 restart2.lmp.0


include         in.dump
dump            myDump all atom ${out_freq2} dump.water.${pid}
dump            myDump all atom 10000 dump.water.${pid}
dump            myDump all atom 10000 dump.water.0
dump            myDump2 all dcd ${out_freq2} dump.dcd
dump            myDump2 all dcd 10000 dump.dcd
dump_modify     myDump append yes
dump_modify     myDump2 append yes


variable natoms 	equal  "count(all)"                        # NUMBER ATOMS
variable H      	equal  "enthalpy/v_natoms"                 # ENTHALPY-per-atom
variable Vol      	equal  "vol/v_natoms"                 # volume-per-atom
fix AVG all 		ave/time ${out_freq} 1 ${out_freq} v_Vol v_H file vol_enthalpy.dat
fix AVG all 		ave/time 1000 1 ${out_freq} v_Vol v_H file vol_enthalpy.dat
fix AVG all 		ave/time 1000 1 1000 v_Vol v_H file vol_enthalpy.dat


timer           timeout 10:00:00 every 1000
New timer settings: style=normal  mode=nosync  timeout=10:00:00

fix 		1 all shake 1e-6 200 0 b 1 a 1
Finding SHAKE clusters ...
       0 = # of size 2 clusters
       0 = # of size 3 clusters
       0 = # of size 4 clusters
     432 = # of frozen angles
  find clusters CPU = 0.001 seconds
fix             2 all nph tri ${pressure} ${pressure} ${pressureDamp}
fix             2 all nph tri 2079.4 ${pressure} ${pressureDamp}
fix             2 all nph tri 2079.4 2079.4 ${pressureDamp}
fix             2 all nph tri 2079.4 2079.4 1000
fix             3 all temp/csvr ${temperature} ${temperature} ${tempDamp} ${seed}
fix             3 all temp/csvr 170.1 ${temperature} ${tempDamp} ${seed}
fix             3 all temp/csvr 170.1 170.1 ${tempDamp} ${seed}
fix             3 all temp/csvr 170.1 170.1 100 ${seed}
fix             3 all temp/csvr 170.1 170.1 100 745823


run             250000
PPPM initialization ...
  extracting TIP4P info from pair style
  using 12-bit tables for long-range coulomb (../kspace.cpp:340)
  G vector (1/distance) = 0.36687187
  grid = 27 40 32
  stencil order = 5
  estimated absolute RMS force accuracy = 0.0045997157
  estimated relative force accuracy = 1.3851907e-05
  using double precision FFTW3
  3d grid and FFT values/proc = 6783 1120
Last active /omp style is kspace_style pppm/tip4p/omp
Neighbor list info ...
  update every 1 steps, delay 7 steps, check yes
  max neighbors/atom: 2000, page size: 100000
  master list distance cutoff = 10.8154
  ghost atom cutoff = 10.8154
  binsize = 5.4077, bins = 7 5 5
  1 neighbor lists, perpetual/occasional/extra = 1 0 0
  (1) pair lj/cut/tip4p/long/omp, perpetual
      attributes: half, newton on, omp
      pair build: half/bin/newton/tri/omp
      stencil: half/bin/3d/tri
      bin: standard
Setting up Verlet run ...
  Unit style    : real
  Current step  : 14000000
  Time step     : 2
  Walltime left : 9:59:59.93
Per MPI rank memory allocation (min/avg/max) = 10.59 | 10.59 | 10.60 Mbytes
Step Temp PotEng TotEng E_pair E_mol Press Lx Ly Lz Volume Pxx Pyy Pzz Pxy Pxz Pyz Enthalpy 
14000000    174.15811   -6518.3476   -6070.3365   -6518.3476            0    889.03747    23.387814    21.505881    21.861503    10995.802    1322.3122   -18.759263    1363.5595      546.709    145.58745   -611.17805   -5927.7682 
14001000    170.72673   -6556.3519   -6117.1678   -6556.3519            0    1656.1831    23.283585    21.526414    21.829603    10941.261    3011.9679    1032.5045     924.0768   -1911.2716    -1010.313   -24.595074   -5852.8955 
14002000    172.28919   -6559.6429   -6116.4395   -6559.6429            0    2071.0948     23.33052     21.39333    21.864783    10913.096    2138.4292    2096.2527    1978.6024   -146.82762    134.43211    220.11979   -5786.8116 
14003000    169.79613   -6558.0194   -6121.2292   -6558.0194            0    1937.8294    23.283666    21.581668    21.731815    10920.245    1907.5195    2179.8613    1726.1075    127.99225   -144.54979   -320.91687   -5812.6094 
14004000    164.32906   -6568.2659   -6145.5394   -6568.2659            0    1756.6403      23.3471    21.539031     21.71298    10918.892    1905.4803    550.84468     2813.596   -1026.7182    233.28351    1600.9695   -5865.8105 
14005000    168.44067   -6554.7289   -6121.4255   -6554.7289            0    2282.1773    23.588201    21.319426    21.708371    10916.856    1858.0711    2998.1716    1990.2891    971.77365   -991.28568   -1063.3583   -5758.0774 
14006000    175.80042   -6555.3057   -6103.0699   -6555.3057            0    2679.3462    23.530742    21.352899    21.695592     10900.94    1389.0575    3434.0338    3214.9473    811.81771    276.71503    880.18737     -5677.11 
14007000    171.56704   -6571.8272   -6130.4815   -6571.8272            0    2164.4751    23.314911    21.553212    21.688498    10898.713    2255.3557    2178.5815     2059.488   -42.994443   -499.54193   -690.43884   -5786.4456 
14008000    164.26917   -6535.6433   -6113.0709   -6535.6433            0    2492.8925    23.195437    21.575686    21.785508     10902.72    3637.2603    2058.0563     1783.361    313.78562   -150.63441    306.41371   -5716.6886 
14009000    176.76509   -6545.5004    -6090.783   -6545.5004            0    2186.4641    23.414467    21.387939    21.840323    10937.354    2117.4187    2640.0674     1801.906    774.96657   -111.92375   -1359.0869   -5742.0199 
14010000    171.21083   -6550.7824   -6110.3529   -6550.7824            0    2074.9201    23.441315    21.307427    21.882045    10929.515    2060.6485    1730.3389     2433.773   -796.13362   -484.87517   -322.84502   -5779.6195 
14011000    173.34096   -6562.7092   -6116.8001   -6562.7092            0    2514.7442    23.223511     21.49191    21.777046    10869.307    3883.9938    1597.0288      2063.21   -617.32501   -183.74589   -344.50373   -5718.1686 
14012000    176.80249   -6547.5685   -6092.7548   -6547.5685            0    1201.1165    23.209491    21.632286     21.83119    10960.881    2354.1556    257.32495    991.86901    633.85543    180.35059   -602.36747   -5900.7525 
14013000    178.90575   -6563.1297   -6102.9055   -6563.1297            0    1780.6066    23.322783    21.477917    21.841936    10941.167    1842.5027    1946.6363    1552.6809   -935.07711    271.23984    515.37498   -5818.7818 
14014000    172.80725   -6580.2191   -6135.6829   -6580.2191            0    3344.7545     23.39321    21.280726    21.819991    10862.526    2864.7177    3817.8508     3351.695    182.07778    206.25771    170.22827   -5605.8109 
14015000    174.88245   -6565.0079   -6115.1334   -6565.0079            0    1781.3691    23.374548    21.389833    21.870572    10934.798    2659.7558    1589.3191    1095.0324    198.82133    68.943517    39.890036   -5831.0535 
14016000    165.75961   -6550.3558   -6123.9493   -6550.3558            0      2588.97     23.21227     21.61038    21.722385    10896.512    2889.7392     2385.396    2491.7747    772.70668   -539.44035    39.251568   -5712.5246 
14017000    168.59181    -6555.669   -6121.9769    -6555.669            0    2112.2397    23.237136    21.555538     21.79216    10915.452    2798.5726    817.40652    2720.7398   -770.54336    874.67431    584.23284    -5785.728 
14018000    169.21255   -6577.3802   -6142.0912   -6577.3802            0    2570.3107    23.508248    21.282788     21.74952    10881.743    2086.9115    3641.3174    1982.7032   -543.31965    140.08494   -591.07326   -5734.1853 
14019000    167.07532   -6552.4379   -6122.6468   -6552.4379            0    2240.3152    23.490407    21.325321    21.744447    10892.674    2444.5943    1843.9578    2432.3934    -62.49055   -524.67487    153.00116   -5766.7537 
14020000    163.50194   -6553.2971   -6132.6983   -6553.2971            0    2626.5936     23.31834    21.509258    21.735938    10901.881    2459.4874    2393.1821    3027.1112   -115.29769    33.031569    99.586026    -5715.089 
14021000    166.27863    -6571.344   -6143.6024    -6571.344            0    2958.4201    23.157755    21.617324    21.670392    10848.386    4245.5906    1803.8154    2825.8543   -1140.5707    1150.2067     343.9664   -5675.5431 
14022000    165.54094   -6538.0437   -6112.1998   -6538.0437            0    2916.0439    23.385747    21.520108    21.610321    10875.692    2996.5706     2588.187    3163.3742    251.28952   -585.58868   -90.011296   -5649.6837 
14023000    168.73983   -6566.2624   -6132.1895   -6566.2624            0    1475.8145    23.518754    21.386915    21.699861    10914.891    1401.1581    1188.3268    1837.9586    13.919071   -561.31977    479.11647   -5897.2656 
14024000    178.27985   -6531.4965   -6072.8825   -6531.4965            0    1514.4426    23.463453    21.473579    21.683215    10924.965    144.10162    1567.8485    2831.3776    1266.3154    187.24731    820.00875   -5831.5873 
14025000    174.78691   -6544.8727   -6095.2441   -6544.8727            0    1054.8871    23.314127    21.611473    21.730574    10949.007    1643.6271    568.56866    952.46555    849.22425   -433.18345     152.6996   -5926.7996 
14026000    173.06225   -6540.4454   -6095.2533   -6540.4454            0    2007.2224    23.164993    21.620936    21.772047    10904.504    1790.4086    2131.7961    2099.4626   -139.11327    430.58113   -92.615183   -5776.0427 
14027000      174.103   -6556.7123   -6108.8429   -6556.7123            0    435.42317    23.388357    21.502442    21.845637    10986.319    1359.1083    776.60122   -829.44003   -759.48635   -58.392674   -745.67526   -6039.0776 
14028000     168.3841   -6572.1937   -6139.0359   -6572.1937            0    2150.8726    23.439537    21.257815    21.881186    10902.811    2434.8574    2553.8926    1463.8679   -66.484978   -65.965009    314.23195   -5797.0336 
14029000    167.69204   -6566.3595    -6134.982   -6566.3595            0    2611.9249    23.253436    21.429475    21.872577      10899.3    3216.0068    2568.2187    2051.5492    210.31966   -613.05451   -625.66578   -5719.8032 
14030000    179.68159   -6551.4964   -6089.2765   -6551.4964            0    1568.4747    23.185885    21.674179    21.796879    10953.695    3012.9534    223.09569    1469.3751    439.61402   -347.08245    208.79292   -5838.7151 
14031000    173.03145   -6546.7291   -6101.6162   -6546.7291            0    1582.5741    23.249243    21.616752     21.76841    10940.218    949.87121    2185.8373    1612.0138    423.60396   -730.49636    -899.4536   -5849.1136 
14032000    177.23776    -6561.399   -6105.4656    -6561.399            0    409.36729     23.57152    21.312486    21.841455    10972.441     325.8228     1274.227   -371.94792    143.85075    -328.7382    48.253208   -6039.9579 
14033000    169.49859   -6552.0178    -6115.993   -6552.0178            0    1821.7679     23.46807    21.364412    21.765717    10912.929    1530.1569    1687.9873    2247.1596    471.92459   -372.78421   -401.33107   -5826.0516 
14034000    167.83144   -6561.5582    -6129.822   -6561.5582            0    1081.9725    23.350767    21.600471    21.722703    10956.661    762.10477    1696.3538     787.4589    578.99155      1005.93    180.97706   -5956.9319 
14035000    165.99088   -6565.7696   -6138.7682   -6565.7696            0    1947.7125    23.237414    21.732841    21.602223    10909.447    1530.8678    1220.8345    3091.4351   -778.51993    736.12073    550.21894   -5828.8811 
14036000    164.64052   -6559.2651   -6135.7374   -6559.2651            0    1451.5854    23.438411    21.463095    21.730802    10931.916    893.95443    1533.1239    1927.6777    680.81757    421.30254    719.90763     -5904.31 
14037000    169.53751   -6552.5714   -6116.4465   -6552.5714            0    2479.8095    23.494339    21.344578    21.760489     10912.38    1536.7671    3419.2553     2483.406    36.760209    375.50516   -441.33304   -5721.7951 
14038000    172.26982   -6559.8605   -6116.7069   -6559.8605            0    2244.2293    23.418067    21.337576    21.815128    10900.687    1467.3797    3429.5283    1835.7799    145.86903    448.63172   -20.693433   -5759.9298 
14039000    172.23373   -6560.8475   -6117.7868   -6560.8475            0    2729.5362    23.223766    21.512993    21.859869    10921.468    1928.2498    3404.9986    2855.3602    594.18995    1306.2341   -661.73957   -5683.0305 
14040000    167.01989   -6556.6155    -6126.967   -6556.6155            0    3090.0413    23.227475    21.602827    21.640003    10858.502     2650.424    2933.8303    3685.8696    889.45493   -522.89766    712.99115   -5637.6277 
14041000    167.57217   -6563.3137   -6132.2445   -6563.3137            0    2369.7375    23.448243    21.418112    21.696987    10896.598    1348.8405    2587.1873    3173.1848    78.639395    314.46932    118.47024    -5755.656 
14042000     163.5931   -6542.4665   -6121.6332   -6542.4665            0    1972.9611    23.513858    21.395618    21.683008    10908.581    446.68164    2753.6027    2718.5991    643.02618    1523.6561    872.70154   -5807.7539 
14043000    172.99178   -6558.2258    -6113.215   -6558.2258            0    1616.2177    23.425426    21.574929    21.643892    10938.865    1366.9183    1104.5619     2377.173   -1001.9912    505.79001   -256.99736   -5855.3763 
14044000    167.40859   -6540.2552   -6109.6068   -6540.2552            0     3097.347    23.430603    21.542177    21.514454    10859.339    1117.9709    2802.2646    5371.8054    679.68256   -9.5571915    557.89572   -5619.0727 
14045000    163.35487   -6587.1507   -6166.9302   -6587.1507            0    1663.3137     23.43219    21.430464    21.714417    10904.171    786.13544    2007.3449    2196.4607    244.50337    1424.2084    117.31179   -5902.4199 
14046000    174.44107   -6565.4291   -6116.6901   -6565.4291            0    969.97415    23.420021    21.498723    21.787708    10970.123     866.5515   -74.010531    2117.3815   -969.61559     608.0096    229.89832   -5961.5059 
14047000    168.09078   -6566.8221   -6134.4189   -6566.8221            0    2513.1421    23.239214     21.41248    21.844799    10870.174    1942.5236    2418.0234    3178.8793    392.13544     1185.753    250.38316   -5736.0096 
14048000    172.68568   -6549.1227   -6104.8993   -6549.1227            0    1577.0194    23.239655    21.605333      21.7995     10945.54    1625.0734    1250.6243    1855.3606    228.47634    594.37076   -114.11021   -5853.1605 
14049000    175.72992   -6555.1778   -6103.1233   -6555.1778            0    2191.7084    23.360598    21.419903     21.82415    10920.406    2010.8735    2904.2575    1659.9942    939.05128   -616.38721    -127.4465   -5754.0654 
14050000    173.50423   -6562.3077   -6115.9786   -6562.3077            0     1475.437    23.460374    21.396895    21.823675     10955.03    1563.0778    1482.3826    1380.8507    127.21099    -1556.139   -252.54699   -5880.2512 
14051000    174.15331   -6549.5597   -6101.5609   -6549.5597            0    2520.6765    23.169736    21.540518    21.866124    10913.123     3348.584    1869.9502    2343.4953   -528.56407    133.32545    1672.5462   -5700.3784 
14052000    169.18631   -6578.5496   -6143.3282   -6578.5496            0    2333.5226    23.237402    21.572674    21.771659    10913.978    2907.3311     1794.631    2298.6056    807.07665   -230.19612   -265.70229   -5771.9033 
14053000    175.82728   -6586.0815   -6133.7766   -6586.0815            0    2225.5881    23.337463    21.422567    21.802696    10900.222    2472.1184     2020.884     2183.762   -143.28394    198.41829    363.03284    -5779.978 
14054000    173.00678   -6555.2414    -6110.192   -6555.2414            0    1923.6821    23.509245     21.41576    21.685686    10918.057    2404.8016     1241.956    2124.2887   -711.95803    -589.4613   -219.87194   -5803.8867 
14055000    174.20193   -6560.3332   -6112.2093   -6560.3332            0     1874.694     23.46303    21.500787    21.589772     10891.47    311.54653    2941.3385    2371.1969    276.92105    562.75929   -750.94563   -5814.4312 
14056000    175.82501   -6544.6435   -6092.3444   -6544.6435            0    2382.5169     23.23633    21.637588    21.652794    10886.551    3031.5667    2274.7475    1841.2365   -99.312476    763.57114    737.52549   -5714.0741 
14057000    166.36221   -6544.3566   -6116.3999   -6544.3566            0    2397.8477    23.358585    21.508019    21.751224    10927.747    3038.3857    2313.9282    1841.2294   -144.91277    365.98949   -425.73532    -5734.255 
14058000    166.61858   -6555.2513   -6126.6352   -6555.2513            0    1374.0375    23.401225    21.335953      21.9379    10953.318     1138.235    3085.7886   -101.91095    476.49546   -844.09829   -432.37859   -5907.1424 
14059000    172.77429   -6561.9966   -6117.5453   -6561.9966            0    2473.0726    23.395251     21.40528    21.787878    10910.975     3561.598    1930.8445    1926.7752   -240.61545   -870.76052   -1262.9502   -5724.0167 
14060000    169.63468   -6581.8087   -6145.4338   -6581.8087            0    1761.0989    23.217274    21.437718    21.899492    10899.933    2061.5422    2373.3608    848.39372    1443.8206    -67.56431    553.83717   -5865.4819 
14061000    171.91652   -6566.5444   -6124.2997   -6566.5444            0    1994.1432    23.292895    21.561894    21.782611    10940.075    1703.8733    2577.5328    1701.0237     528.1784    79.379837   -200.94303   -5806.1345 
14062000     166.2817   -6540.8192   -6113.0696   -6540.8192            0    2103.8265    23.492045    21.325608    21.790636    10916.719    1672.7152    2406.0497    2232.7147    498.97694    154.30421   -154.58377   -5778.1212 
14063000    178.57449   -6543.7918   -6084.4198   -6543.7918            0    2699.1773    23.425272    21.365463    21.772112    10896.763     2598.924     3075.171    2423.4368   -224.02304    319.29681   -186.80886   -5655.4716 
14064000    166.35885   -6555.1973   -6127.2493   -6555.1973            0    1782.5199    23.317158    21.503034    21.854714    10957.727    1274.6399     3238.979    833.94065    1568.8072    882.91847   -251.43983   -5842.3897 
14065000    164.95515   -6577.4924   -6153.1553   -6577.4924            0    2570.4118    23.194398    21.538836     21.79163     10886.67    3375.6615    2704.8341    1630.7398   -180.83076    571.72866   -1541.0346   -5745.0487 
14066000    175.61382   -6548.3065   -6096.5507   -6548.3065            0    2284.5285     23.28345    21.449859     21.79383    10884.422    3037.4091    2553.3926    1262.7837    95.283071   -186.19046    58.205368   -5733.9089 
14067000    160.68879   -6561.7703   -6148.4082   -6561.7703            0    1940.2871    23.479246    21.422239    21.694174    10911.693    2305.4882    661.84107    2853.5321    298.18506   -322.14589    234.18799    -5839.639 
14068000    165.57929   -6566.8647   -6140.9221   -6566.8647            0    1771.7827    23.444013    21.510578    21.642003    10913.938    502.67775    1822.1155    2990.5549   -616.33281   -360.64047    413.81686   -5858.9099 
14069000    162.43169   -6571.6781   -6153.8324   -6571.6781            0    1659.5888     23.31409     21.54967    21.738579      10921.7    1776.6594    1392.4955    1809.6114   -507.29065    687.49101     633.7657   -5889.4902 
14070000    170.77724   -6565.2225   -6125.9084   -6565.2225            0    2132.1758     23.36671    21.445656    21.760573    10904.537    2584.5434     1649.251     2162.733   -191.73323    -462.5484   -166.97418   -5786.8254 
14071000    168.82015   -6548.6371   -6114.3575   -6548.6371            0    2885.2402    23.351048    21.294477    21.898548    10889.017    2303.8968    3442.3228    2909.5011    920.29778   -154.03413    -31.40096   -5656.1665 
14072000    179.02937   -6540.2978   -6079.7557   -6540.2978            0    2328.4498    23.272527     21.45569    21.865423    10918.021    2304.5777    2585.5584    2095.2132     31.94227    664.60063   -584.85459    -5709.001 
14073000    166.68955   -6565.9142   -6137.1155   -6565.9142            0    2386.4595     23.20757    21.538206    21.793218    10893.327    3646.3876    1370.8393    2142.1516   -15.797106   -116.18811    8.2124362   -5757.9834 
14074000    175.58541   -6576.3471   -6124.6644   -6576.3471            0    2055.4931    23.387728    21.403439    21.782104    10903.638    2246.4357    2373.1336    1546.9099   -1490.1049    346.13723   -727.29857   -5797.8032 
14075000    169.58811   -6561.2046   -6124.9495   -6561.2046            0     2715.017    23.335339    21.332097    21.873516    10888.455    3394.4133    2982.3836    1768.2542   -70.807877   -1096.3236    394.45155   -5693.8131 
14076000    169.43471   -6558.4583   -6122.5978   -6558.4583            0    1663.5442    23.342625    21.499351    21.764558    10922.572    683.76537     2396.741    1910.1262   -1035.4525    1355.0547   -546.35466   -5857.6044 
14077000    162.53532   -6553.1459   -6135.0337   -6553.1459            0    3035.3434    23.351011    21.488346    21.673764    10875.344    3310.5922    3179.9961     2615.442    786.87529     51.55268   -746.32695   -5653.6108 
14078000    178.48564   -6549.5754    -6090.432   -6549.5754            0    2698.2527    23.434815    21.462569    21.657886    10893.296    2891.4245    2469.3951    2733.9386    687.63158   -635.44174   -872.75077   -5661.7672 
14079000    169.37353   -6574.2177   -6138.5146   -6574.2177            0    2269.8683    23.475281    21.329225    21.733342    10882.092    557.94028    3311.6856    2939.9789    102.91981    714.96887    568.93734   -5778.2771 
14080000    172.89201   -6539.6619   -6094.9077   -6539.6619            0    2565.8907    23.374706    21.480799    21.728883    10910.232    1890.2655    3712.5501    2094.8563    913.12483    768.50178   -1614.9974   -5686.6372 
14081000    164.94584   -6556.8717   -6132.5586   -6556.8717            0    2289.8971    23.272025    21.561926    21.726816    10902.292    2152.3884    1986.5881    2730.7147    676.63173   -78.855414    53.626738   -5768.4678 
14082000    173.57346   -6574.7854   -6128.2782   -6574.7854            0    3273.8629    23.305805    21.442562    21.727125     10857.83    3414.7649     3408.534      2998.29    203.18035    475.61116   -400.75526    -5609.861 
14083000    165.47234    -6548.763   -6123.0955    -6548.763            0     1958.228    23.498717    21.310033    21.815454    10924.273    1239.9302    2663.4149    1971.3388   -229.69942   -563.57326     161.6303   -5811.1119 
14084000    178.42499   -6544.5627   -6085.5753   -6544.5627            0     1737.087    23.425195    21.377439    21.850603    10942.141    1989.9497    1275.7329    1945.5785    109.62413    197.53309    81.657305   -5808.3711 
14085000    173.53102   -6577.6326   -6131.2347   -6577.6326            0    2438.3278    23.217618     21.49741    21.843193    10902.345    4127.2172    1214.3349    1973.4313    714.21684   -1430.5107   -693.57212   -5743.5417 
14086000    175.10895   -6583.8164   -6133.3593   -6583.8164            0    2529.9218    23.164212    21.476448    21.871012      10880.5    3990.0514    1173.7355    2425.9787   -636.32124    159.29925     198.9789   -5731.9089 
14087000    165.30128   -6569.9335   -6144.7061   -6569.9335            0    2327.5205      23.4044     21.39436    21.768659     10900.05     3152.215    2205.4748    1624.8716   -1102.0853   -639.22072   -143.12735   -5774.7094 
14088000    173.23147   -6560.4386   -6114.8112   -6560.4386            0    2956.5802    23.368523    21.432419    21.698606    10867.616    2860.3672    3169.3145    2840.0589    716.13111   -534.48261   -462.90396   -5646.2138 
14089000    162.16487   -6575.1712    -6158.012   -6575.1712            0    1277.9451    23.290959    21.660554    21.653461    10924.064    1776.4353    222.47546    1834.9246    827.28926   -223.88806   -252.27099   -5954.4145 
14090000    171.18344    -6575.639     -6135.28    -6575.639            0    1537.5586    23.263305    21.595536    21.754928    10929.318    1847.1313    1746.8578    1018.6867     80.56517    84.334748    187.47644   -5890.2041 
14091000    164.36884   -6567.0834   -6144.2546   -6567.0834            0    1389.0546    23.495105    21.421726    21.728915    10936.287   -758.37567    2497.9702    2427.5693    73.172887    1168.1705    338.49819   -5922.7079 
14092000    169.50404   -6555.1265   -6119.0877   -6555.1265            0    2423.5962     23.45897    21.247669    21.865473    10898.811    1974.3339    3407.2663    1889.1883   -286.98735   -784.37479   -266.62923    -5733.862 
14093000    171.08328   -6563.9126   -6123.8113   -6563.9126            0    1431.0354    23.278463    21.577764    21.762332    10931.159    1180.1417     1221.424    1891.5404   -1186.6426    713.19594    719.33312    -5895.676 
14094000    179.80838   -6576.6034   -6114.0573   -6576.6034            0    2306.4518    23.293748    21.459703    21.807154    10900.893    2768.9752    2287.9394    1862.4407    158.04203   -271.17688    5.5464186   -5747.3814 
14095000    163.06834   -6574.4615   -6154.9782   -6574.4615            0    2254.6236    23.429547    21.441137    21.716182    10909.257    1348.4466    1949.0079    3466.4164    1557.2691   -1258.7236    563.94087   -5796.2668 
14096000    172.63562   -6545.6152   -6101.5206   -6545.6152            0    1803.6847    23.291021    21.519945    21.832457    10942.896    1133.9974    2008.9038     2268.153    47.409849    704.36127     974.2255   -5813.6689 
14097000    167.12537   -6559.2891   -6129.3693   -6559.2891            0    1872.3233    23.269734    21.562966    21.770361    10923.594    2714.6714    970.47398    1931.8246   -599.41092   -170.25377   -344.58486   -5831.0905 
14098000    164.76121   -6572.4502   -6148.6121   -6572.4502            0    2280.0351    23.409938    21.387353    21.776211     10902.84    1609.6298    3117.1804     2113.295    914.92425   -43.447832    265.67455   -5786.0712 
14099000    169.17462    -6553.516   -6118.3246    -6553.516            0    1429.4023    23.494516    21.443339    21.726934    10946.048    191.66048    1933.5284    2163.0179   -236.94548    457.95783    912.37641   -5890.1393 
14100000    164.03638   -6561.4213   -6139.4477   -6561.4213            0    2626.3813    23.351419    21.438553    21.775846    10901.438    1871.9972    3722.2007    2284.9459   -605.79331    1438.8914   -204.87407   -5721.8891 
14101000    166.94412   -6572.1625   -6142.7089   -6572.1625            0    2689.5849    23.250327    21.488643     21.74206    10862.724    2427.5103    3375.9562    2265.2882     137.5699   -153.20582    -429.2313   -5716.6203 
14102000    173.74202   -6573.0823   -6126.1415   -6573.0823            0    1338.0388    23.277819    21.543547    21.831185    10948.051    1813.6169    1623.0064    577.49308    163.03254   -147.63299   -51.679442   -5912.5021 
14103000    170.45986   -6543.5631   -6105.0655   -6543.5631            0    2284.3377     23.35512    21.410958     21.81997    10911.196    2315.0587    2529.4064    2008.5479   -906.28911    910.16431    143.48611    -5741.562 
14104000    165.87158   -6543.4333   -6116.7387   -6543.4333            0    1460.6214    23.528588    21.357521    21.778803    10944.117    978.35433    1274.8373    2128.6726    572.79287     -944.012    89.441713   -5883.6108 
14105000    172.79443   -6556.1139   -6111.6107   -6556.1139            0     2094.011    23.461528    21.382748    21.715434    10894.024    1906.5875    2236.7951    2138.6505    860.08549    405.51118    35.809136   -5778.9181 
14106000    171.83408   -6580.3289   -6138.2963   -6580.3289            0    1745.6828    23.233518    21.613353    21.769597    10931.696    2365.2477    921.07062    1950.7301    345.04632    13.908379    921.77269   -5859.9863 
14107000     171.2638   -6571.3334   -6130.7677   -6571.3334            0    889.66594    23.267419    21.617938     21.74797    10939.091    495.31824    691.86694    1481.8126   -28.403968   -535.72958   -1112.7237   -5988.8345 
14108000     168.7832   -6559.0024   -6124.8179   -6559.0024            0    1823.6644    23.457114    21.502278    21.633591    10911.581    2191.3644    1183.2016    2096.4274    -351.2612   -1365.4327    200.65738   -5834.6105 
14109000    165.39448   -6558.8254   -6133.3582   -6558.8254            0    2597.3518    23.519642    21.345185      21.6782     10883.13    1060.0197    2944.2313    3787.8043   -22.550784   -404.54514    271.77391   -5721.1084 
14110000    167.73013   -6564.4852   -6133.0097   -6564.4852            0    2517.5337     23.39969     21.40204    21.737993    10886.411    1964.6916    2583.1067    3004.8028    114.39283   -392.03933   -240.05173   -5733.3081 
14111000    168.96842   -6554.9065   -6120.2456   -6554.9065            0     2486.119    23.144551    21.671869    21.756714    10912.856    3429.1736    1375.4053    2653.7781   -204.10641   -324.73622     303.1057   -5724.5727 
14112000    173.90322    -6566.394   -6119.0385    -6566.394            0    2261.9451    23.213305    21.570151    21.774641    10902.878    2641.8884    1530.8264    2613.1205    113.20106    468.32931   -2.2534135   -5759.3728 
14113000    167.16636    -6548.269   -6118.2437    -6548.269            0     2179.174    23.433243    21.229473     21.93933    10914.277    1325.5945    2725.4469    2486.4804    287.50146    -282.7775   -374.77788   -5771.3769 
14114000    174.60807   -6559.7895   -6110.6209   -6559.7895            0     1767.024    23.351653    21.380872    21.899811    10934.109    2128.6632    2185.0937    987.31505    140.14855   -925.08976    186.58053   -5828.8464 
14115000    168.36525   -6548.3647   -6115.2553   -6548.3647            0    1256.9367    23.259302    21.514193    21.917221    10967.489    2616.6819      1486.91   -332.78179   -574.10757    354.85883   -62.605511   -5914.2088 
14116000    166.52202   -6579.8218   -6151.4541   -6579.8218            0    2412.8483     23.09276    21.604019    21.784942     10868.43    2607.9678     2148.001    2482.5761    26.479284   -39.494876     514.6158   -5769.0058 
14117000    160.54024   -6584.1166   -6171.1366   -6584.1166            0     1610.467    23.312238    21.526774    21.682078    10880.875    2615.4601    49.711515    2166.2294   -418.71152   -1254.4355    513.71581   -5915.5774 
14118000    156.90789   -6546.8488   -6143.2128   -6546.8488            0    2062.6382    23.473597    21.448001    21.672634    10911.342    1542.2233    2296.0973     2349.594   -549.07917     503.2808    -174.5689   -5814.9837 
14119000    175.02289   -6575.1316   -6124.8959   -6575.1316            0    3230.5714    23.420949    21.321479     21.72369    10848.143    3454.3862    3664.4003    2572.9278   -2122.4124    891.18227   -380.12006   -5613.7903 
14120000    169.20515   -6566.9559   -6131.6859   -6566.9559            0     2099.457    23.270313    21.582476     21.68419    10890.472    2238.7606    1667.1282    2392.4823    -390.7473   -183.71213   -166.76089   -5798.2368 
14121000    166.51062   -6556.1193   -6127.7809   -6556.1193            0    3086.7234    23.298144    21.532698    21.676383    10874.432    2652.0201    3305.7493    3302.4007    1227.2395   -139.03559    510.73044   -5638.2499 
14122000    174.33788    -6543.559   -6095.0855    -6543.559            0    2664.2965    23.397519    21.483492    21.713606     10914.57    3181.1029    2336.8627     2474.924   -433.81988   -222.54453    358.44779   -5670.9886 
14123000     174.9838   -6578.2012   -6128.0661   -6578.2012            0    2409.8612    23.436994    21.392001    21.717627    10888.441     2508.289     2332.095    2389.1996    546.21419   -905.60217   -833.01955    -5745.388 
14124000    171.96333   -6559.4277   -6117.0625   -6559.4277            0    2355.9102    23.366458    21.398071    21.811773    10905.824    1581.0846    2790.8812    2695.7648   -686.89141    288.89155    404.34325   -5742.3543 
14125000    174.42213    -6552.838   -6104.1477    -6552.838            0    2405.4146    23.260641    21.564617     21.70832    10889.041    2225.0991    2048.8547    2942.2901   -416.66717   0.52437426   -410.22862   -5722.1546 
14126000    172.94385   -6568.5911   -6123.7036   -6568.5911            0    2036.9816    23.339593    21.443569    21.804917    10913.016    3165.6219    1453.7315    1491.5915    342.70415   -1208.9924    783.56615   -5799.5075 
14127000    169.56784   -6564.2489    -6128.046   -6564.2489            0     2407.993    23.446861    21.446484    21.660864    10892.224    3431.0321    1013.0933    2779.8534   -1326.8743   -1981.2753    120.10558   -5745.5317 
14128000    168.66663   -6554.0962   -6120.2116   -6554.0962            0    1899.0095    23.362502    21.295004    21.951962    10921.201    2809.7105    1981.0603    906.25781   -559.20886    1286.2284    372.54654   -5817.7478 
14129000    176.28547    -6551.643   -6098.1594    -6551.643            0    2851.8326    23.326393    21.477641     21.76761    10905.484    3072.4522    2378.1122    3104.9334     -522.819   -1020.6049   -212.46643   -5644.5888 
14130000    164.79791   -6582.9125   -6158.9799   -6582.9125            0    2251.3682    23.324785    21.456145    21.711541    10865.757    1892.4175    2250.2507    2611.4366    730.35554   -288.72292    759.39556   -5802.2147 
14131000    161.37306   -6568.8955   -6153.7732   -6568.8955            0    398.44107    23.464446    21.548697    21.731061    10987.838   -1002.0096    1342.9904    854.34242   -409.55858     136.6043   -644.07239   -6089.9244 
14132000    172.02476   -6540.0691   -6097.5459   -6540.0691            0    3327.1384     23.31803    21.387491    21.772497    10858.252    3708.0687    2514.3008    3759.0457   -119.15662   -48.892888    945.33077    -5570.672 
14133000    166.97944   -6539.5629   -6110.0185   -6539.5629            0    1537.4342    23.502289    21.544573    21.642645    10958.683    651.47777    1797.4759    2163.3489    186.40524   -332.43781   -980.46871    -5864.304 
14134000    161.44677   -6564.8003   -6149.4884   -6564.8003            0    2120.1367    23.431502    21.382358    21.742368    10893.378    1974.4135    2154.1865      2231.81    688.51658   -581.06468    376.12335   -5812.6649 
14135000    164.95547   -6572.9922   -6148.6543   -6572.9922            0    2526.9012    23.320682    21.518177    21.701325    10890.128    2662.3909    2473.1039    2445.2087   -746.46246   -485.52656   -27.934958   -5747.3285 
14136000    173.59894   -6549.7632   -6103.1905   -6549.7632            0    2759.5409    23.275669    21.449346    21.780188    10873.713    3521.2954    3232.4763    1524.8508    1281.3804    67.305493   -348.59793   -5665.5772 
14137000    167.34443    -6560.868   -6130.3847    -6560.868            0    2149.3388    23.537942    21.385937    21.672631    10909.589    1826.1906    1356.8533    3264.9725   -1036.9583    174.82845       475.06   -5788.4138 
14138000    160.98828   -6557.0439   -6142.9114   -6557.0439            0    2194.1791     23.44685    21.391406    21.716285    10892.044    1197.6037    2720.5678    2664.3658    538.93516   -143.60708    282.00701   -5794.3676 
14139000    168.21265   -6568.9697    -6136.253   -6568.9697            0    2678.9511    23.282281    21.536771    21.704711    10883.288    3515.2654    1894.2658    2627.3222    153.65642   -86.277083   -539.20043   -5711.0456 
14140000    172.63079   -6568.6591   -6124.5769   -6568.6591            0    1334.9605    23.262061    21.605701    21.720541    10916.594    841.03063    2006.5222    1157.3287    -422.5382   -1096.8439   -27.448453   -5912.0414 
14141000    166.06115   -6568.8862    -6141.704   -6568.8862            0    715.62196     23.41057    21.437558    21.835354     10958.41     810.3392    638.93156    697.59511    35.049475   -36.296843   -78.874987   -6027.3353 
14142000    169.66467   -6559.2392   -6122.7872   -6559.2392            0    2214.1923    23.389049    21.267749    21.958139     10922.69    2532.9542    3441.7594    667.86334    258.75444    114.34343   -349.30023   -5770.0747 
14143000    179.98551   -6583.1391   -6120.1374   -6583.1391            0    2832.8808    23.257856    21.378671    21.865211    10871.865    3155.6574    3209.4612    2133.5237    576.66692    431.80357   -575.54454   -5670.9699 
14144000    167.12054   -6559.5765   -6129.6691   -6559.5765            0    2062.7706    23.253047    21.595062    21.772955    10933.311     2511.376    2124.3043    1552.6316    96.978851   -163.15729   -1024.0759    -5800.758 
14145000    171.51798   -6541.1689   -6099.9493   -6541.1689            0    2150.7839    23.318262    21.564761    21.697201    10910.497    3084.1435    709.84607     2658.362     55.48974   -707.80846   -386.47365     -5757.72 
14146000    171.77159   -6570.2267   -6128.3548   -6570.2267            0    2150.7843    23.447188     21.39341    21.752055    10911.164    1497.4651    2823.6099    2131.2779    1014.7901    1021.7281    530.95988   -5786.1045 
14147000    169.66256   -6583.2953   -6146.8488   -6583.2953            0    2513.7408    23.403213    21.497855    21.637603    10886.287    2844.4773    2368.4086    2328.3365   -321.84989   -451.70833   -176.95025   -5747.7539 
14148000    164.67961   -6566.9924   -6143.3641   -6566.9924            0     3542.059    23.303461    21.463173    21.627815    10817.502     4199.562    2144.5124    4282.1024   -221.51029   -301.35773    821.01598   -5584.5612 
14149000    174.15167   -6548.5469   -6100.5524   -6548.5469            0     1295.514    23.434584    21.592808    21.660411    10960.568     617.7033    1181.9019    2086.9368    18.599662   -419.40793   -1181.7391   -5893.4662 
14150000    163.52042   -6559.5617   -6138.9154   -6559.5617            0    1584.9937    23.261778    21.510132    21.849018     10932.46    2018.6003    582.43092    2153.9498   -1232.2368    467.27212    460.43855   -5886.2061 
14151000    170.10794   -6542.2862   -6104.6939   -6542.2862            0    2355.6033    23.234039    21.546751    21.824729    10925.853    2723.5767    2747.6342     1595.599    -1018.148   -532.52948   -492.92305   -5729.3465 
14152000    168.03562   -6571.5265   -6139.2651   -6571.5265            0    2015.8857    23.424131    21.277306    21.912135    10921.061    1050.7973    2864.0028     2132.857   -814.27921    1057.8946    876.46804     -5818.19 
14153000    173.06366   -6547.8017    -6102.606   -6547.8017            0    1781.5517    23.410738    21.479516    21.747743    10935.882     2362.188    1224.9751     1757.492    81.058467   -1346.1334   -102.63481   -5818.4687 
14154000    166.24489   -6552.3538   -6124.6989   -6552.3538            0    3126.7776    23.265175    21.561251    21.662088    10866.272    3092.5914    3039.4923    3248.2492   -303.04367    1031.6153    232.43277   -5629.1877 
14155000    167.90163   -6571.8547    -6139.938   -6571.8547            0    2792.6454    23.348601    21.503909    21.628881    10859.563    3181.5726    2697.2408    2499.1229   -683.76415    1081.1976    204.74346   -5697.6512 
14156000     168.0994   -6595.7856   -6163.3601   -6595.7856            0    2439.4223    23.472882    21.418065    21.667325    10893.112    2222.6316    2345.9448    2749.6904    1335.5131   -1133.9682    887.95933   -5775.8217 
14157000     168.8764    -6572.041   -6137.6168    -6572.041            0    2416.6727    23.471324    21.458237    21.606657    10882.262    662.03169    3634.2997    2953.6868    1070.1646    510.08939    122.26304   -5754.0748 
14158000    167.17747   -6571.7558   -6141.7019   -6571.7558            0    1364.4796    23.317197    21.573205    21.749073    10940.363    1933.2363    608.33429    1551.8682    191.50733   -76.391922    950.54447   -5923.9937 
14159000    171.29193   -6565.3869   -6124.7488   -6565.3869            0     2416.633    23.401239    21.456009    21.721041    10906.074    848.34283     3103.409    3298.1471    470.42896    963.14458   -569.06348   -5740.3739 
14160000    166.56456   -6556.5293   -6128.0521   -6556.5293            0    2259.6948    23.381643    21.362533    21.826199    10901.993    1813.5271     2291.099    2674.4583    13.077619   -161.98492    557.82689   -5768.7733 
14161000    166.04074   -6577.4246   -6150.2949   -6577.4246            0    1243.3161    23.310892    21.434129    21.850693    10917.669    1398.3771    1170.3639    1161.2072   -498.42351   -565.66524   -2.9394652   -5952.3304 
14162000    170.46876   -6559.7049   -6121.1844   -6559.7049            0    1873.8362    23.329065    21.314233     21.96676    10922.777    1559.1053    3418.5078    643.89557     274.4559     962.6581   -167.39638    -5822.687 
14163000    170.03553   -6564.0322   -6126.6261   -6564.0322            0    1658.2214     23.30582    21.551785     21.75655    10927.924      2011.15    1020.0576    1943.4565    -74.10257   -702.69319    -419.7287   -5862.3512 
14164000    167.37457   -6572.2454   -6141.6845   -6572.2454            0     2587.717    23.273848    21.535433    21.702144    10877.383    3114.2918    2202.3347    2446.5245    21.777664    154.98669    544.13074   -5731.1808 
14165000    168.96629   -6560.4469   -6125.7914   -6560.4469            0    1233.7099    23.386665    21.494075    21.798446    10957.528    528.10686    1432.6955    1740.3273    2.1215945    430.33445    671.50434   -5928.6392 
14166000     179.1678   -6558.5025   -6097.6043   -6558.5025            0    3250.0679    23.376444    21.486397    21.623125    10860.767    2363.5793    3900.3189    3486.3054    283.65925    -226.8529    108.73908   -5582.8158 
14167000    168.25941   -6563.9238   -6131.0868   -6563.9238            0    1646.2938    23.499974    21.454856    21.684693    10933.174    718.68845    1225.7599    2994.4329     1206.206    215.85286     435.7256   -5868.5867 
14168000     174.7393   -6553.2501   -6103.7439   -6553.2501            0     2438.609    23.357896    21.445893    21.751806    10896.153    2573.8139     2095.384     2646.629   -646.30025   -797.12438    1282.9582   -5716.2265 
14169000    175.73665   -6537.0363   -6084.9644   -6537.0363            0    1815.7122    23.322572    21.525217    21.819636    10953.969    1214.7495    2317.8653     1914.522   -921.88999    496.19277   -769.40587   -5794.9001 
14170000    175.10487   -6580.2488   -6129.8022   -6580.2488            0    2949.1203    23.177657    21.468879    21.840319    10867.706    3439.0753    2901.5403    2506.7455   -506.47002    215.30646    28.876225   -5662.3833 
14171000    170.22941   -6564.5652   -6126.6604   -6564.5652            0    1896.9748    23.343325    21.417983    21.836281    10917.419    466.65424    3296.4986    1927.7717   -226.77904    792.42424   -467.90915   -5824.6253 
14172000    171.69061   -6563.6507    -6121.987   -6563.6507            0    1422.9037     23.45458    21.365821    21.842875    10946.041    911.71076    1679.9634    1677.0368    1162.1885   -186.93439    334.68441   -5894.8393 
14173000    175.98674   -6589.3227   -6136.6075   -6589.3227            0    2869.1595    23.372715    21.506494    21.594226    10854.665    2520.3975    2533.9122    3553.1688   -109.09701    110.18813    273.23791   -5682.4077 
14174000    165.38539   -6565.5081   -6140.0643   -6565.5081            0     1624.488     23.30925    21.597383    21.686731    10917.508    1335.5874    1567.1626     1970.714   -217.34145     518.2516    206.46728   -5881.4122 
14175000    169.51458   -6560.2346   -6124.1687   -6560.2346            0    2152.3754    23.433037    21.515797    21.670047    10925.615     2040.298    1901.2151    2515.6131     474.3437   -29.708372     396.4328   -5781.2116 
14176000    163.95286   -6561.7986   -6140.0399   -6561.7986            0    2077.9602    23.489834    21.316418    21.748441     10889.86    575.37049    3296.6126    2361.8973   -233.82406    509.36328    1022.1659   -5810.0236 
14177000    170.52607   -6534.5093   -6095.8414   -6534.5093            0    1629.6698    23.460779    21.461504    21.722686    10937.451    1050.9902    1683.2583     2154.761    -256.4899   -1042.6827   -1088.8536   -5835.8903 
14178000    170.36319   -6551.8031   -6113.5542   -6551.8031            0    2105.5573    23.284122    21.513897    21.787572    10914.096    1552.3043    2132.9901    2631.3774    605.75942     183.3175    796.09906   -5778.4108 
14179000    162.99708   -6544.7258   -6125.4258   -6544.7258            0    1889.7093    23.214576    21.595327    21.813243    10935.554    2001.3069    1884.9177    1782.9032    640.97893   -343.08936   -620.42398   -5824.0477 
14180000     169.6174   -6552.5117   -6116.1813   -6552.5117            0    2040.8607    23.326578    21.365414    21.930539    10929.786    1715.7969    2983.4676    1423.3177     233.0075     502.9908   -550.25011   -5790.8687 
14181000    175.78544   -6579.8373     -6127.64   -6579.8373            0    3203.2436    23.326396    21.279636    21.865153    10853.364    3175.3817    3906.1472     2528.202   -348.32866   -1210.7354   -887.22872    -5620.614 
14182000    169.89392   -6545.5504   -6108.5086   -6545.5504            0    1208.6667    23.299741    21.415157    22.011657    10983.104    1154.7059    2352.7096    118.58461   -69.239814    205.15775    80.504455   -5914.9077 
14183000    166.26004   -6567.5292   -6139.8353   -6567.5292            0    2482.8194    23.153058    21.573242     21.79427    10885.944    4266.9511    1129.7257    2051.7814   -226.96452    90.513502    358.17602   -5745.6621 
14184000    165.81668   -6569.0318   -6142.4785   -6569.0318            0    1847.4737    23.338364    21.497379    21.722393    10898.421    2386.3576    576.53831    2579.5251   -707.76102    1253.7187    682.32184   -5848.8368 
14185000     167.1793   -6539.5649   -6109.5064   -6539.5649            0    1672.8547    23.611243    21.318562    21.739676    10942.834   -630.76549    3664.6851    1984.6444    761.73335   -372.09294   -206.29075   -5842.5355 
14186000    173.36233   -6551.5447   -6105.5806   -6551.5447            0    2095.2005    23.570486     21.40337    21.635922    10915.059    -274.6306    3426.9841    3133.2479    678.41839    46.153526    798.96256   -5772.0563 
14187000    160.91958   -6563.4307   -6149.4749   -6563.4307            0    7.9793107    23.493624    21.528483    21.741472    10996.447    -101.0195   -1020.5979    1145.5553      733.793    772.43004    86.740366   -6148.1952 
14188000    182.58073   -6576.0404   -6106.3626   -6576.0404            0    2264.0195    23.175202    21.557783    21.787434    10885.132    3394.7198    2274.1093    1123.2295     373.9877   -502.85447   -219.08272    -5746.953 
14189000    163.97697   -6577.0644   -6155.2437   -6577.0644            0     1796.466    23.189959    21.587916     21.81734     10922.26    3742.9595    152.66181    1493.7769    98.626902   -631.45032    626.12403   -5869.0847 
14190000    180.19944   -6549.9135   -6086.3614   -6549.9135            0    1739.4605    23.349723    21.425205     21.89953    10955.735    1813.2101     1333.983    2071.1884   -60.750803    988.88895    278.39756   -5808.4336 
14191000    175.13939   -6546.1734    -6095.638   -6546.1734            0    2637.9199    23.564431     21.25342    21.772929    10904.421    1899.9896    2839.8892     3173.881   -1018.1927    18.330832    403.00252   -5676.1301 
14192000    168.08139   -6553.2323   -6120.8532   -6553.2323            0    2441.2042    23.509204    21.387367    21.700563    10911.042    972.15089    2746.6594    3604.8023   -190.08275    670.21031    190.62188   -5732.3933 
14193000    161.77658   -6549.9014    -6133.741   -6549.9014            0    2174.0941    23.262742    21.592599    21.723227    10911.643     2225.379    671.73714    3625.1662   -481.28252     6.958095    429.81303   -5787.7663 
14194000    165.38625   -6545.4379   -6119.9919   -6545.4379            0    1353.1674    23.217113    21.621284    21.772693    10929.539    1944.2619    779.37221    1335.8682   -788.88041    236.55547   -5.9439991   -5904.3022 
14195000     173.5137   -6557.5475   -6111.1941   -6557.5475            0    1558.0462    23.442705     21.31545    21.870733    10928.626    1301.6019    1638.5289    1734.0077    25.258306   -54.122382    700.90533   -5862.8683 
14196000    167.76598   -6559.2734   -6127.7056   -6559.2734            0    1716.4312    23.581036      21.2954    21.764892    10929.624   -20.219452    2918.7451    2250.7678   -364.46186     698.6445   -763.09989    -5854.111 
14197000    172.64131   -6567.0806   -6122.9714   -6567.0806            0    1912.1406    23.365313     21.53268    21.703517    10919.426    2272.9904    1327.4623     2135.969    -394.5357    391.63262   -427.21058   -5818.4656 
14198000     172.5351   -6551.3692   -6107.5332   -6551.3692            0    2830.2982    23.254812    21.591299    21.701576    10896.396    2286.6308    2556.3905    3647.8733    322.31906    743.04873   -259.74114   -5657.7627 
14199000    171.26605   -6551.1247   -6110.5532   -6551.1247            0    2724.2006    23.331392    21.536493    21.672495    10889.916    2148.1893    2645.6299    3378.7825   -243.97738    778.42221     755.5523   -5677.9004 
14200000    170.25061   -6573.5663    -6135.607   -6573.5663            0    2691.4299    23.475388    21.355593    21.729807    10893.822    3210.0377    1629.2775    3234.9745   -131.17103   -559.91129   -516.89411   -5708.0055 
14201000    171.43867   -6567.7168   -6126.7013   -6567.7168            0    2039.7989    23.410833    21.351776    21.776488    10885.258     2239.954    1462.5588    2416.8839   -88.904889    391.40005    981.65291   -5802.8826 
14202000    165.98078   -6550.0207   -6123.0452   -6550.0207            0    2263.1673    23.342369    21.455773    21.811667    10923.906    2052.2557    2155.6696    2581.5765   -235.21958    196.93484   -55.436412   -5762.4911 
14203000    163.51375    -6581.906   -6161.2769    -6581.906            0     1726.566    23.150468    21.590273    21.835557    10913.955     2700.188    1210.5052    1269.0048   -665.79659    137.62691   -675.84537   -5886.4614 
14204000     166.6516   -6562.5156   -6133.8145   -6562.5156            0    2156.6272    23.274008    21.440408    21.848725    10902.606    2656.8737    2077.7277    1735.2802    630.31792   -1132.0358   -333.40818   -5790.9036 
14205000    163.39139   -6559.4849   -6139.1705   -6559.4849            0     1199.751    23.436694    21.251069    21.987052    10950.757    794.42769     3020.084   -215.25878    639.76785   -592.28369   -1235.4726   -5947.5636 
14206000    161.43281   -6561.9689   -6146.6928   -6561.9689            0    1876.6971    23.422102     21.27866    21.913813    10921.646    2322.0887    2011.4259    1296.5768   -1355.9761   -1095.2534   -455.04557   -5847.7707 
14207000    169.68618   -6580.4146   -6143.9072   -6580.4146            0    1254.9732    23.288663    21.459514    21.833732      10911.7    1564.7621    811.16507    1388.9924    604.25229   -59.205665    124.69908   -5944.1959 
14208000    171.49755   -6564.0544   -6122.8874   -6564.0544            0    1889.2332    23.168052    21.687967    21.704712    10905.922    2349.7907    1501.4609     1816.448   -507.22496   -944.27584    35.276557   -5822.4017 
14209000    171.14188   -6555.2628   -6115.0108   -6555.2628            0    1826.4532    23.329291    21.600594    21.647076    10908.536    2281.9432    327.83426     2869.582   -355.23938    783.37466    13.765877   -5824.4407 
14210000    170.39616   -6567.7162   -6129.3825   -6567.7162            0    1600.5907    23.444564    21.407579    21.771475    10926.915    1325.2436    3047.8468    428.68181    712.33033   -209.44477   -1149.0067   -5874.3158 
14211000    165.76448   -6538.5345   -6112.1155   -6538.5345            0    2362.9545    23.503009    21.304596    21.783142    10907.301    1416.3006    3728.5606    1944.0021    381.74485    165.54142    -445.9944   -5736.2361 
14212000     162.2195   -6556.5908    -6139.291   -6556.5908            0    1398.9319    23.338772    21.508004    21.800184    10943.047    1805.7226     1721.796    669.27716    689.11744   -74.170637   -945.84703   -5916.0311 
14213000    169.55126   -6564.2202   -6128.0599   -6564.2202            0    2680.3549    23.131411    21.626409    21.740464    10875.653    2540.0642    3152.0349    2348.9656    169.62761   -149.95164   -251.13241   -5702.9281 
14214000    169.55982   -6559.1208   -6122.9385   -6559.1208            0    3079.0629    23.253051    21.426465    21.841182    10881.947    3242.6523     3530.781    2463.7553    150.32002    583.72761    162.05473    -5634.285 
14215000      162.278   -6569.5198   -6152.0695   -6569.5198            0    2109.8858     23.43213    21.335027    21.852025    10924.376    1667.6478    3281.9083    1380.1012    187.49926    170.61087   -1241.9869   -5815.9208 
14216000    165.73716   -6555.4141   -6129.0653   -6555.4141            0    1629.6334    23.576978    21.348267    21.720255    10932.404    1118.8203    2090.1866    1679.8933    778.29837   -648.55926    311.00167     -5869.24 
14217000    170.83055   -6565.3284   -6125.8773   -6565.3284            0    2933.5908    23.361293    21.480863     21.64812    10863.476    2867.6781    2401.7257    3531.3685   -762.35829    232.88729   -430.92487   -5661.1007 
14218000    179.38847   -6573.9038   -6112.4379   -6573.9038            0    1193.7404    23.279017    21.573451    21.793206    10944.739    1687.8374    97.565407    1795.8183   -363.77407    683.64216    91.702352   -5921.8957 
14219000    171.37811   -6573.7156   -6132.8559   -6573.7156            0    2510.9364    23.281747    21.483391    21.765062     10886.25    3025.8905    2615.1184    1891.8003     108.9724   -721.73817      169.948   -5734.2076 
14220000    161.19922   -6565.3762   -6150.7011   -6565.3762            0    1038.1597    23.541153    21.285017    21.849915    10948.421    415.54362    2790.9303   -91.994747    101.90418    20.619268    35.605424   -5984.9366 
14221000    160.59244    -6550.043   -6136.9287    -6550.043            0    2296.7346    23.465145    21.381999    21.720061    10897.643    1828.7703      2930.05    2131.3835   -343.56545    922.14423      121.173   -5771.9065 
14222000     166.1091   -6568.6912   -6141.3857   -6568.6912            0    2965.3562    23.244853    21.573457    21.677191    10870.501    4156.1081    1490.8151    3249.1455    -1022.486   -597.78224    261.58752   -5671.2726 
14223000    168.20786   -6571.5733   -6138.8688   -6571.5733            0    2830.7681    23.342337    21.544652    21.657117    10891.419    2628.8236    2655.9771    3207.5034    880.29152    498.94835   -213.41617   -5689.2291 
14224000    176.20055   -6556.6878   -6103.4226   -6556.6878            0     2424.633    23.438042    21.385038    21.737654    10895.421    2390.7732    1786.8159      3096.31    -1325.991    36.962964    279.62736    -5718.152 
14225000    170.50004   -6577.4293   -6138.8283   -6577.4293            0    1970.0303    23.386421    21.392476    21.757083    10884.926    1621.1896    2158.7766    2130.1247    -344.2539    798.59329   -129.95416   -5826.0949 
14226000    164.12921   -6552.0441   -6129.8317   -6552.0441            0    1295.0368    23.355592    21.572234    21.700738    10933.532    1433.0755    705.33868    1746.6962    1065.8319   -842.92881    485.40311   -5923.3325 
14227000    174.34008   -6536.2168   -6087.7375   -6536.2168            0    857.40807    23.406742    21.482338    21.818079    10970.819    -87.75718    1955.1049    704.87653    320.69807   -117.07483    853.47597   -5950.5538 
14228000    173.82748   -6538.2947   -6091.1341   -6538.2947            0    1309.4564    23.450301    21.356798    21.863133    10949.567    1209.6248    1487.7248    1231.0194   -86.471943    1410.3568    440.27881   -5882.0294 
14229000    174.50435   -6558.7876   -6109.8858   -6558.7876            0    2745.4545     23.33945    21.455697     21.76333    10898.296     2591.832    2824.6824    2819.8492   -2.0517012   -950.92473   -487.91806    -5673.522 
14230000    175.57519   -6552.0497   -6100.3932   -6552.0497            0    1604.2769    23.291131    21.525833    21.836217    10947.827     2475.292    1074.9049     1262.634    705.86497   -823.51286    448.80424   -5844.2498 
14231000    174.84738   -6549.7312    -6099.947   -6549.7312            0    2563.3211    23.318414     21.42745    21.826841    10905.872    2438.0009    3021.2887    2230.6738   -1493.6326    909.81291   -1239.7938   -5692.2483 
14232000    166.22324   -6542.5359   -6114.9368   -6542.5359            0    1895.5029     23.35468    21.434862    21.807104    10916.731    2238.0979    1169.6087    2278.8022    481.78071    40.097592    1103.9594    -5813.155 
14233000    167.86141   -6571.0629   -6139.2497   -6571.0629            0    2956.3556    23.365279    21.399274    21.707084    10853.542    1990.5109    3517.4048    3361.1512    352.90308    4.2038821     69.57459   -5671.2947 
14234000    172.60897   -6564.0079   -6119.9819   -6564.0079            0     1951.546    23.285269    21.524041    21.790661    10921.328     2619.553    1039.9254    2195.1594   -479.17156    187.01818    310.96655   -5809.1467 
14235000    161.28994   -6542.9328   -6128.0242   -6542.9328            0    2374.3628     23.33003    21.494601    21.757404    10910.678    1701.6646    2674.2022    2747.2216    357.40419    510.35115   -425.32571   -5750.2131 
14236000    170.71287   -6567.9612   -6128.8128   -6567.9612            0    2485.5156     23.46582    21.267253    21.839284    10898.972    2571.3691    3079.1301    1806.0476    492.69558   0.67568929    300.07639   -5733.7393 
14237000    170.54217   -6579.5482   -6140.8389   -6579.5482            0    1755.8572    23.432026    21.359819    21.827845     10924.92    2050.7965     2154.986    1061.7891   -1052.6862   -434.83765   -284.25301   -5861.0803 
14238000     172.9166   -6551.3351   -6106.5177   -6551.3351            0    1972.0046    23.211985    21.508022    21.859061    10913.003    2248.7146    1215.8408    2451.4584   -156.31371    526.54034    342.51384   -5792.6634 
14239000    173.26555   -6576.5816   -6130.8665   -6576.5816            0    1368.4363    23.208579    21.614789    21.758777    10915.259    1822.7425    1024.1547    1258.4117    184.98522   -528.20795    465.40911   -5913.0281 
14240000    175.45428   -6566.6945   -6115.3491   -6566.6945            0    2099.8913    23.434736    21.365408    21.754371    10892.255    1276.7547    3788.6492      1234.27    1541.2636   -725.35369   -177.71414   -5781.7764 
14241000    166.25488   -6565.6554   -6137.9749   -6565.6554            0    1386.6705    23.452214    21.347994    21.837304    10933.015    689.16951     2073.105     1397.737   -146.00917    535.67151    745.37249   -5916.8747 
14242000    168.38901   -6568.6424   -6135.4719   -6568.6424            0    1875.6671    23.264206     21.49523    21.810478    10906.754    2657.8391    1874.3651    1094.7972   -546.60812    486.05409   -541.58831   -5837.1211 
14243000    169.28772   -6548.9296   -6113.4472   -6548.9296            0    1564.6527    23.261341    21.593728    21.781539    10940.847    2127.2374    1987.2507     579.4699     962.3861   -80.395657   -1005.1711   -5863.7897 
14244000    168.92511   -6556.5124   -6121.9628   -6556.5124            0    1831.2143     23.37231    21.456934    21.742661    10903.903    1483.6693     1651.803    2358.1707     809.2323   -1039.1465    152.08828    -5830.759 
14245000     175.6541   -6544.6149   -6092.7554   -6544.6149            0    956.11529    23.487476    21.428317    21.818833    10981.355    108.09016    1363.0714    1397.1844   -66.616018    525.69444   -251.25168   -5939.6318 
14246000     171.1713   -6574.3872   -6134.0595   -6574.3872            0    2016.0754    23.393312     21.37727      21.7627    10883.203     1398.605     3314.595    1335.0261    222.35154    1045.0284   -195.44567   -5814.0673 
14247000    175.58115   -6576.1708    -6124.499   -6576.1708            0    2361.9746    23.303772    21.559701    21.662156    10883.552    2096.6213    2037.7536    2951.5489   -810.55223   -447.30233    1227.5963   -5749.5936 
14248000    170.49197   -6555.8308   -6117.2506   -6555.8308            0    1485.3646    23.361629    21.473713    21.766363    10919.334    1658.0147    1637.9562    1160.1229    907.40239   -273.97587    360.20626   -5880.7103 
14249000    166.00731   -6558.8155   -6131.7719   -6558.8155            0    2111.3881    23.404915     21.35586    21.813974    10903.324    2285.1677    1683.5254    2365.4712   -760.39138   -281.76036    642.20966    -5796.032 
14250000    176.32936   -6538.1705    -6084.574   -6538.1705            0    1059.3016    23.357706    21.510945    21.847314    10977.103    801.03638    1048.3502    1328.5183    119.16434    95.570138   -535.68001   -5914.9906 
Loop time of 539.345 on 64 procs for 250000 steps with 1296 atoms

Performance: 80.097 ns/day, 0.300 hours/ns, 463.525 timesteps/s
194.9% CPU use with 32 MPI tasks x 2 OpenMP threads

MPI task timing breakdown:
Section |  min time  |  avg time  |  max time  |%varavg| %total
---------------------------------------------------------------
Pair    | 36.566     | 47.954     | 57.371     |  74.6 |  8.89
Bond    | 0.70237    | 1.0214     | 1.7132     |  18.0 |  0.19
Kspace  | 274.82     | 287.79     | 298.22     |  34.8 | 53.36
Neigh   | 2.1617     | 2.3667     | 2.6278     |   8.3 |  0.44
Comm    | 73.242     | 77.969     | 82.919     |  30.4 | 14.46
Output  | 0.45392    | 0.45428    | 0.45558    |   0.0 |  0.08
Modify  | 101.4      | 105.84     | 109.27     |  16.5 | 19.62
Other   |            | 15.95      |            |       |  2.96

Nlocal:        40.5000 ave          49 max          29 min
Histogram: 1 1 2 1 8 3 4 3 4 5
Nghost:        3031.69 ave        3064 max        2985 min
Histogram: 1 1 2 1 3 7 9 3 3 2
Neighs:        12708.2 ave       15386 max        9119 min
Histogram: 1 2 1 4 7 3 4 3 4 3

Total # of neighbors = 406661
Ave neighs/atom = 313.78164
Ave special neighs/atom = 2.0000000
Neighbor list builds = 4877
Dangerous builds = 0

unfix		3
unfix		2
unfix		1

write_data	data.final.${pid}
write_data	data.final.0
System init for write_data ...
PPPM initialization ...
  extracting TIP4P info from pair style
  using 12-bit tables for long-range coulomb (../kspace.cpp:340)
  G vector (1/distance) = 0.36497079
  grid = 30 40 32
  stencil order = 5
  estimated absolute RMS force accuracy = 0.0050842886
  estimated relative force accuracy = 1.5311184e-05
  using double precision FFTW3
  3d grid and FFT values/proc = 7752 1200
Last active /omp style is kspace_style pppm/tip4p/omp
WARNING: Not all mixed pair coeffs generated from mixing. Use write_data with 'pair ij' option to store all pair coeffs. (../write_data.cpp:312)

write_restart   restart.lmp.${pid}
write_restart   restart.lmp.0
System init for write_restart ...
PPPM initialization ...
  extracting TIP4P info from pair style
  using 12-bit tables for long-range coulomb (../kspace.cpp:340)
  G vector (1/distance) = 0.36497079
  grid = 30 40 32
  stencil order = 5
  estimated absolute RMS force accuracy = 0.0050842886
  estimated relative force accuracy = 1.5311184e-05
  using double precision FFTW3
  3d grid and FFT values/proc = 7752 1200
Last active /omp style is kspace_style pppm/tip4p/omp
Total wall time: 0:08:59
