LAMMPS (30 Jul 2021)
Processor partition = 1
  using 2 OpenMP thread(s) per MPI task
using multi-threaded neighbor list subroutines
variable        pid world 0 1
variable        phase world IceIII Liquid

shell cd ${phase}
shell cd Liquid
include Restart.lmp
echo both
log log.lammps
#include		in.partitions
include		in.temp
variable        temperature equal 259.44
variable	tempDamp equal 100.0
include		in.pressure
variable        pressure equal 8875.0
variable        pressureDamp equal 1000.0 # This is 1 ps
include		in.seed
variable        seed equal 745823

units		real
atom_style	full
read_restart	restart.lmp.${pid}
read_restart	restart.lmp.1
Reading restart file ...
  restart file = 30 Jul 2021, LAMMPS = 30 Jul 2021
  restoring atom style full from restart
  orthogonal box = (0.60489705 1.8040201 0.73797299) to (17.602675 21.825158 21.475223)
  2 by 4 by 4 MPI processor grid
  restoring pair style lj/cut/tip4p/long/omp from restart
  restoring bond style harmonic/omp from restart
  restoring angle style harmonic/omp from restart
  864 atoms
  576 bonds
  288 angles
Finding 1-2 1-3 1-4 neighbors ...
  special bond factors lj:    0        0        0       
  special bond factors coul:  0        0        0       
     2 = max # of 1-2 neighbors
     1 = max # of 1-3 neighbors
     1 = max # of 1-4 neighbors
     2 = max # of special neighbors
  special bonds CPU = 0.003 seconds
  read_restart CPU = 0.009 seconds
include 	in.setup
variable	out_freq equal 1000
variable	out_freq2 equal 10000
variable	out_freq3 equal 1000

timestep	2.0

neigh_modify    delay 7 every 1

include		in.tip4p
# This is TIP4P/Ice

# create groups ###
group ox type 2
288 atoms in group ox
group hy type 1
576 atoms in group hy

# set charges - beside manually ###
set group ox charge -1.1794
Setting atom values ...
  288 settings made for charge
set group hy charge 0.5897
Setting atom values ...
  576 settings made for charge

# ### TIP3P Potential Parameters ###
pair_style lj/cut/tip4p/long/omp 2 1 1 1 0.1577 8.5
pair_coeff 1 1*2 0.000 0.000
pair_coeff 2 2 0.21084 3.1668
bond_style  harmonic
bond_coeff  1 450 0.9572
angle_style harmonic
angle_coeff 1 55 104.52
kspace_style pppm/tip4p/omp 1.0e-5
pair_modify tail yes

thermo          ${out_freq}
thermo          1000
thermo_style    custom step temp pe etotal epair emol press lx ly lz vol pxx pyy pzz pxy pxz pyz enthalpy

restart 	${out_freq3} restart.lmp.${pid} restart2.lmp.${pid}
restart 	1000 restart.lmp.${pid} restart2.lmp.${pid}
restart 	1000 restart.lmp.1 restart2.lmp.${pid}
restart 	1000 restart.lmp.1 restart2.lmp.1


include         in.dump
dump            myDump all atom ${out_freq2} dump.water.${pid}
dump            myDump all atom 10000 dump.water.${pid}
dump            myDump all atom 10000 dump.water.1
dump            myDump2 all dcd ${out_freq2} dump.dcd
dump            myDump2 all dcd 10000 dump.dcd
dump_modify     myDump append yes
dump_modify     myDump2 append yes


variable natoms 	equal  "count(all)"                        # NUMBER ATOMS
variable H      	equal  "enthalpy/v_natoms"                 # ENTHALPY-per-atom
variable Vol      	equal  "vol/v_natoms"                 # volume-per-atom
fix AVG all 		ave/time ${out_freq} 1 ${out_freq} v_Vol v_H file vol_enthalpy.dat
fix AVG all 		ave/time 1000 1 ${out_freq} v_Vol v_H file vol_enthalpy.dat
fix AVG all 		ave/time 1000 1 1000 v_Vol v_H file vol_enthalpy.dat


timer           timeout 23:50:00 every 1000
New timer settings: style=normal  mode=nosync  timeout=23:50:00

fix 		1 all shake 1e-6 200 0 b 1 a 1
Finding SHAKE clusters ...
       0 = # of size 2 clusters
       0 = # of size 3 clusters
       0 = # of size 4 clusters
     288 = # of frozen angles
  find clusters CPU = 0.001 seconds
fix             2 all nph iso ${pressure} ${pressure} ${pressureDamp}
fix             2 all nph iso 8875 ${pressure} ${pressureDamp}
fix             2 all nph iso 8875 8875 ${pressureDamp}
fix             2 all nph iso 8875 8875 1000
fix             3 all temp/csvr ${temperature} ${temperature} ${tempDamp} ${seed}
fix             3 all temp/csvr 259.44 ${temperature} ${tempDamp} ${seed}
fix             3 all temp/csvr 259.44 259.44 ${tempDamp} ${seed}
fix             3 all temp/csvr 259.44 259.44 100 ${seed}
fix             3 all temp/csvr 259.44 259.44 100 745823

run             250000
PPPM initialization ...
  extracting TIP4P info from pair style
  using 12-bit tables for long-range coulomb (../kspace.cpp:340)
  G vector (1/distance) = 0.37415089
  grid = 24 24 24
  stencil order = 5
  estimated absolute RMS force accuracy = 0.003173657
  estimated relative force accuracy = 9.5573737e-06
  using double precision FFTW3
  3d grid and FFT values/proc = 3549 432
Last active /omp style is kspace_style pppm/tip4p/omp
Neighbor list info ...
  update every 1 steps, delay 7 steps, check yes
  max neighbors/atom: 2000, page size: 100000
  master list distance cutoff = 10.8154
  ghost atom cutoff = 10.8154
  binsize = 5.4077, bins = 4 4 4
  1 neighbor lists, perpetual/occasional/extra = 1 0 0
  (1) pair lj/cut/tip4p/long/omp, perpetual
      attributes: half, newton on, omp
      pair build: half/bin/newton/omp
      stencil: half/bin/3d
      bin: standard
Setting up Verlet run ...
  Unit style    : real
  Current step  : 27500000
  Time step     : 2
  Walltime left : 23:49:59.93
Per MPI rank memory allocation (min/avg/max) = 10.19 | 10.20 | 10.20 Mbytes
Step Temp PotEng TotEng E_pair E_mol Press Lx Ly Lz Volume Pxx Pyy Pzz Pxy Pxz Pyz Enthalpy 
27500000    272.43216   -3861.8279   -3394.8885   -3861.8279            0    8744.9749    16.997778    20.021138     20.73725    7057.1942     9688.866    8800.3043    7745.7544    528.44598    445.21151   -1758.2475   -2494.8387 
27501000    262.81331   -3871.8074   -3421.3543   -3871.8074            0    7266.0747    16.985372    20.006525    20.722114    7041.7531    6686.4403    6884.1956    8227.5881   -875.69486    1465.9323    -778.6113   -2675.1521 
27502000    253.91162   -3863.8656   -3428.6697   -3863.8656            0    10804.351    16.968427    19.986566    20.701442    7020.6994    11247.706    8849.1915    12316.156     295.8657   -2221.0697   -900.59794   -2322.4154 
27503000    257.98088   -3872.1315   -3429.9611   -3872.1315            0    9503.5407    16.937135    19.949708    20.663265    6981.9294    8690.8234    9294.9085     10524.89    883.97372    -119.4106    626.57332   -2462.2699 
27504000    249.12258   -3904.5532   -3477.5656   -3904.5532            0    8456.4995    16.938247    19.951018    20.664622    6983.3046    9237.2976    7938.3825    8193.8185    473.66061   -1112.0608    154.38772    -2616.319 
27505000    264.57745   -3853.5599   -3400.0832   -3853.5599            0    8880.2225    16.956058    19.971997    20.686352    7005.3574    10313.827     8657.707     7669.133   -319.33973    333.44477   -845.77653   -2492.8268 
27506000    270.51688   -3866.6673   -3403.0106   -3866.6673            0     7995.484    16.963208    19.980418    20.695074    7014.2223    8625.6269     7711.675    7649.1502   -804.32339   -467.12611    212.85265   -2585.1107 
27507000    264.58322   -3865.0256    -3411.539   -3865.0256            0    9206.5313    16.929115    19.940261    20.653481    6972.0155    8707.6592    7805.0699    11106.865      159.075   -480.61416    -1297.441   -2475.4217 
27508000    264.14112   -3854.1539    -3401.425   -3854.1539            0    6762.5594    16.978186    19.998061    20.713348    7032.8196    7760.3447    5954.6592    6572.6742   -2242.3181   -1519.9693   -417.39106   -2707.8133 
27509000    279.32596   -3857.9693   -3379.2142   -3857.9693            0    8833.1174    16.928497    19.939534    20.652727    6971.2525    8133.8521    8953.2477    9412.2526   -1027.1076    -719.0457   -1066.8964   -2481.1638 
27510000    255.89309   -3832.4912   -3393.8992   -3832.4912            0    9918.5981    16.956135    19.972087    20.686445    7005.4522    8689.9331    9998.9672    11066.894   -384.01485   -545.72806    730.28099   -2380.5424 
27511000    255.62285    -3847.656   -3409.5272    -3847.656            0    7914.2978    16.938316    19.951098    20.664705    6983.3892    6059.7227    10140.275    7542.8956   -803.02932   -828.31454   -855.81895   -2603.4911 
27512000    270.87339   -3820.1354   -3355.8677   -3820.1354            0    8418.0434    16.951607    19.966754    20.680921    6999.8416    8615.1991    8317.3684    8321.5627    2553.9331    389.51666    254.59952   -2496.5074 
27513000    265.76188   -3826.3641   -3370.8573   -3826.3641            0     7476.999    16.992269    20.014648    20.730528    7050.3342    6250.1208    10586.339    5594.5375    580.98779   -815.71871   -157.76424   -2602.0581 
27514000    252.61723   -3848.2222   -3415.2449   -3848.2222            0    11386.573    16.949468    19.964234    20.678311    6997.1922    12524.697    8707.9095    12927.113    1505.1401    238.77737     862.2355   -2253.2808 
27515000    261.85451   -3840.0688   -3391.2592   -3840.0688            0    8809.4268    16.961487    19.978391    20.692974    7012.0879    8173.9555    9177.5305    9076.7943   -432.76487     1265.994   -263.66857    -2490.371 
27516000    255.17318   -3838.6416   -3401.2835   -3838.6416            0    7486.1038    17.008819    20.034142    20.750719    7070.9545    8866.9495    7799.2577    5792.1042    446.50506   -2160.7164    310.03226   -2629.2968 
27517000    253.08387    -3825.563   -3391.7859    -3825.563            0    8976.1184    16.919338    19.928745    20.641552    6959.9427    10515.092    9071.8218    7341.4418   -876.97033   -572.21748    510.11648   -2480.6774 
27518000    252.11763   -3870.2989   -3438.1779   -3870.2989            0    6885.5829    16.976031    19.995522    20.710718    7030.1413    7467.7296    6811.8713    6377.1479    532.89154    875.99637   -468.52561    -2732.217 
27519000    246.79947   -3849.1898    -3426.184   -3849.1898            0       7321.4    17.053286    20.086519    20.804969    7126.5581    8281.8301    8022.5298    5659.8403    1334.3201    705.41993   -534.67533    -2665.245 
27520000    252.01549   -3879.7112   -3447.7653   -3879.7112            0    10573.183    16.895232    19.900351    20.612143    6930.2361    10458.224    10700.517    10560.809    36.845038    130.83374    1393.3867   -2379.1295 
27521000    251.78139   -3884.4987   -3452.9541   -3884.4987            0    9360.9992    16.923293    19.933404    20.646378     6964.825    10264.931    9646.6419    8171.4245   -817.65748   -658.79605    371.86585   -2502.1122 
27522000    264.69183    -3848.835   -3395.1622    -3848.835            0    11327.347    16.904877    19.911712     20.62391    6942.1121     11358.48    11212.908    11410.654   -927.76701    1006.2138   -1044.1815    -2248.341 
27523000    251.84245   -3888.7394   -3457.0901   -3888.7394            0    7715.1707    16.968968    19.987203    20.702101      7021.37    6426.2082    9522.1879    7197.1159   -540.34585    1233.0599   -781.96838   -2667.0606 
27524000    282.87101    -3850.403   -3365.5718    -3850.403            0    8825.9455    16.933874    19.945866    20.659286    6977.8965    10310.796    9210.2522    6956.7882   -711.20991   -525.32008   -1879.8744   -2467.3953 
27525000    256.90211   -3843.9913   -3403.6699   -3843.9913            0    10155.469    16.905675    19.912652    20.624884    6943.0952    11539.808    10551.585    8375.0148    1301.2543   -64.836698   -209.21972   -2375.3482 
27526000    269.73885   -3859.1091    -3396.786   -3859.1091            0    9652.9804    16.951341    19.966441    20.680596    6999.5121    9130.1041    9177.6191    10651.218    1096.2126   -1038.5787    2084.4825   -2411.4029 
27527000     273.6749   -3886.9891   -3417.9197   -3886.9891            0    9161.4089    16.917883    19.927032    20.639778    6958.1481    9027.1971    8840.1644    9616.8652   -140.18078    -1403.002    518.00588   -2488.2432 
27528000    256.68412   -3873.5256   -3433.5778   -3873.5256            0    7159.3099    16.932321    19.944038    20.657392    6975.9775    7752.2471    9039.5451    4686.1376    173.32525   -1332.0217   -31.199816   -2705.2077 
27529000    247.77648   -3878.7733   -3454.0929   -3878.7733            0    9775.6392    16.923365    19.933488    20.646466    6964.9138    12567.147    8802.8867     7956.884   -1459.0587   -1528.7211   -830.46831   -2461.1213 
27530000    270.18263   -3873.7492   -3410.6654   -3873.7492            0    9549.2854    16.951962    19.967172    20.681354    7000.2814    8839.6512    11606.863    8201.3424   -513.81288    70.401758    730.36207   -2435.7605 
27531000    254.73928   -3845.5346   -3408.9201   -3845.5346            0    5686.0507    17.011828    20.037686     20.75439    7074.7077    5168.5246    4095.5509    7794.0767    27.843939   -1412.7038    756.99603   -2822.2485 
27532000    261.58351   -3889.1357   -3440.7905   -3889.1357            0    8720.0531    16.985027    20.006118    20.721693    7041.3232    8882.3833    9311.1905    7966.5854    412.67375   -324.38553   -204.30633   -2545.3241 
27533000    272.85269   -3906.6226   -3438.9625   -3906.6226            0    9767.1056    16.959862    19.976478    20.690992    7010.0732    11757.944    8394.6034    9148.7695   -751.80913   -148.69796   -314.69656   -2440.4251 
27534000    261.40265   -3913.8612    -3465.826   -3913.8612            0    9164.3523    16.920681    19.930327    20.643191    6961.6008    7956.8855     10917.33    8618.8418   -1059.6357    752.52201   -1057.7818   -2535.3895 
27535000    247.10034   -3908.2912   -3484.7697   -3908.2912            0    8628.3833    17.039327    20.070076    20.787939    7109.0713    8774.2892     8644.867    8465.9937    18.777121   -856.96033   -1116.4434   -2590.1918 
27536000     258.2042   -3898.0613   -3455.5081   -3898.0613            0    10008.155    16.966001    19.983708    20.698481    7017.6877    8961.0204     9368.926    11694.519   -359.17766   -1125.2409    595.49811   -2431.2157 
27537000     256.3905   -3856.3493   -3416.9048   -3856.3493            0    9082.6865    16.973119    19.992092    20.707166    7026.5245    10348.082    10057.267    6842.7105   -1040.5366    817.22271   -244.18147   -2486.1597 
27538000    248.35791   -3840.9793   -3415.3024   -3840.9793            0    9726.8298    16.945088    19.959076    20.672968    6991.7695    11318.943    8987.2374    8874.3094   -12.463777    1152.7176    -204.7334   -2423.4791 
27539000    248.67564   -3871.4859   -3445.2643   -3871.4859            0    7040.0125     17.06812    20.103991    20.823067    7145.1718    6049.6188     8159.938    6910.4807    1092.9616   -770.72827    434.55988   -2711.6598 
27540000    249.62271   -3869.7931   -3441.9483   -3869.7931            0    7145.3932    17.038319    20.068889     20.78671    7107.8104    7351.9446    7139.7628    6944.4723   -1371.1419    997.61357   -341.47562    -2701.256 
27541000    250.41378   -3848.3316    -3419.131   -3848.3316            0    6405.6442    16.994654    20.017458    20.733438    7053.3036    8075.9386    4820.2564    6320.7375    689.50571   -711.36377   -610.27948   -2760.2131 
27542000    260.50197   -3866.6439   -3420.1525   -3866.6439            0    11087.334    16.937933    19.950647    20.664238    6982.9158    11663.729    9237.5233    12360.749    794.76996    84.060349    1185.9721   -2291.0332 
27543000     269.0747   -3875.3512   -3414.1663   -3875.3512            0    8052.8592     17.03538    20.065427    20.783124    7104.1326    9104.0448    6450.7585    8603.7742   -279.59081    619.02671    13.478964   -2579.8379 
27544000    250.54038    -3839.199   -3409.7814    -3839.199            0    10877.861    16.941803    19.955206     20.66896    6987.7034    11152.429    9783.2628    11697.892    603.91207   -346.97258   -992.54948    -2301.235 
27545000    238.24532    -3867.758   -3459.4137    -3867.758            0    8510.1223    16.982385    20.003006     20.71847    7038.0385      8297.59    9174.5963    8058.1806    2696.8074    897.19991    641.68762   -2585.9129 
27546000     262.2833   -3866.2783   -3416.7337   -3866.2783            0    7605.1014    17.054222    20.087621    20.806111    7127.7311    9802.5933    5193.4226    7819.2882    664.95751   -774.84304   -368.37866   -2626.1785 
27547000    249.01407   -3848.5895   -3421.7879   -3848.5895            0    9149.5808    16.967866    19.985905    20.700757    7020.0025    9105.1376    9587.2473    8756.3574   -1487.6623    1324.7736   -1556.7928   -2485.0581 
27548000    269.90813   -3854.7836   -3392.1703   -3854.7836            0    9618.7749    16.942629    19.956179    20.669968     6988.726    10250.022    7472.3809    11133.922    1309.3083    320.42602    2270.5313    -2411.792 
27549000    260.45916   -3831.2821    -3384.864   -3831.2821            0    8383.4159    16.972532      19.9914    20.706449    7025.7948    8034.3344    6982.3912    10133.522   -856.81129    735.71014   -1228.3228   -2525.8656 
27550000    258.80373   -3881.4149   -3437.8342   -3881.4149            0    9634.8646    16.960635    19.977388    20.691935    7011.0318     9373.518    10901.257    8629.8184   -1559.0898    1230.7692   -12.237922   -2452.6817 
27551000    266.03057   -3827.4002   -3371.4329   -3827.4002            0    7881.0637    16.983678    20.004529    20.720048    7039.6463    4812.3372    10608.508    8222.3461    1454.9042      465.055    421.32124   -2562.3154 
27552000    254.97848   -3850.8411   -3413.8167   -3850.8411            0    8125.2939     16.96929    19.987582    20.702494    7021.7702    6668.8401    8648.2346    9058.8071    925.69542    671.24119    166.53128   -2581.7434 
27553000    246.06624   -3868.5054   -3446.7563   -3868.5054            0    9101.6776    16.945428    19.959476    20.673383    6992.1905    8676.2153    8170.3689    10458.449   -2240.0176    1001.4864    458.17448   -2518.6225 
27554000    263.64523   -3872.5267   -3420.6478   -3872.5267            0    8823.9862    16.995592    20.018562    20.734582    7054.4713    9572.1078    9960.3081    6939.5428   -821.72551    619.92922    357.93176   -2512.8165 
27555000    251.12104   -3859.1047   -3428.6918   -3859.1047            0    9889.6915    16.951467    19.966589     20.68075    6999.6686    11154.551    8678.8856    9835.6384    551.01956   -124.43606   -489.83258   -2419.1226 
27556000    267.61199   -3859.4859   -3400.8081   -3859.4859            0     8704.267    17.004805    20.029414    20.745822    7065.9495    8633.6715    8768.6692    8710.4603    775.89972   -428.57069   -3028.3719   -2503.8366 
27557000    265.58125   -3865.8105   -3410.6134   -3865.8105            0    8590.9188    16.976191    19.995711    20.710914    7030.3407    9217.9559    8002.7123    8552.0882   -847.00144   -1107.9016   -42.258704   -2529.7838 
27558000    251.74843    -3856.433   -3424.9448    -3856.433            0    9609.2788    16.978673    19.998634    20.713941    7033.4243    7623.6071    10260.748    10943.481    699.62476   -481.76771   -583.35675   -2439.2703 
27559000    257.51762   -3870.2925   -3428.9161   -3870.2925            0    9477.7505    16.982517    20.003161    20.718631    7038.2021    11882.408    8036.7492    8514.0939    1191.9382   -205.23148    888.44163   -2456.0728 
27560000    240.61288   -3865.2773   -3452.8751   -3865.2773            0     11226.06    16.900894    19.907021    20.619051    6937.2067    10267.515    11909.295    11501.369    634.55957    1329.5576    199.68884   -2317.1117 
27561000    261.05417   -3858.8337   -3411.3958   -3858.8337            0    8502.0057    16.961758     19.97871    20.693305     7012.424    9095.8703     7835.132    8575.0148   -377.23058   -668.04735    162.45635   -2541.9041 
27562000    262.04423   -3841.3792   -3392.2443   -3841.3792            0     8012.438    16.974704     19.99396      20.7091    7028.4936    8598.2944    8316.6075     7122.412    613.46974    1335.7738    687.43655   -2570.9424 
27563000    267.32327   -3850.8092   -3392.6263   -3850.8092            0    10065.979    16.894687     19.89971    20.611479    6929.5666    10534.473    9692.0896    9971.3726    409.35617    240.94745   -885.87481   -2375.3522 
27564000    263.58755   -3882.3531    -3430.573   -3882.3531            0    9237.6091    16.923082    19.933155     20.64612    6964.5643    11072.614    7878.7689    8761.4445   -2.8678724   -646.95074    361.33778   -2492.2996 
27565000    244.60335    -3886.181   -3466.9393    -3886.181            0    8174.3646    16.987369    20.008876     20.72455    7044.2365    9225.4158    8737.9115    6559.7666   -455.41982   -1632.5742   -364.06147   -2627.1626 
27566000    276.10286   -3884.4463   -3411.2155   -3884.4463            0    9479.6401    16.942434    19.955949     20.66973     6988.484    12720.316    9832.8507    5885.7533    1015.0316   -233.95314   -57.195159   -2445.0518 
27567000    252.08911   -3908.5059   -3476.4338   -3908.5059            0    9297.2418    16.970149    19.988594    20.703542    7022.8362     9865.027    8892.0485      9134.65    2180.1357   -122.63053    704.70641   -2524.2023 
27568000    256.68589   -3872.7502   -3432.7994   -3872.7502            0    8813.0597    16.947437    19.961842    20.675833    6994.6769    9546.7413    9485.2758     7407.162   -124.96954    790.21352   -2104.2442   -2533.7775 
27569000    245.89338   -3894.9969   -3473.5441   -3894.9969            0    7412.9867    16.956331    19.972318    20.686684    7005.6956    8780.6607    7359.4376    6098.8617    837.55917   -654.75959    1833.8313   -2716.1527 
27570000     259.4618   -3868.4813   -3423.7726   -3868.4813            0    8395.6512    16.964914    19.982428    20.697156    7016.3394    8942.8156    6458.5934    9785.5446    -881.4923    563.94593   -727.93284   -2564.6783 
27571000    263.60318   -3895.3608    -3443.554   -3895.3608            0    8673.6362     16.93572    19.948041    20.661539    6980.1796    9028.1186    7574.4478    9418.3422   -255.66682   -179.64247   -192.44387   -2560.5886 
27572000    272.69342   -3828.8268   -3361.4396   -3828.8268            0     8762.963     16.90877    19.916297     20.62866    6946.9092    8687.0042    8139.4491    9462.4357   -1966.4133    639.14422   -328.29003   -2473.6327 
27573000    249.14367   -3869.6998    -3442.676   -3869.6998            0    6956.9959    16.937887    19.950593    20.664182    6982.8586     7100.041    6453.1703    7317.7765    1820.5046    166.14242     836.8214   -2734.1907 
27574000    249.35192    -3895.634   -3468.2533    -3895.634            0    8393.4826     17.00414    20.028631    20.745012    7065.1215    9720.2218    7591.5743    7868.6518   -851.30517    1977.2889   -265.88864   -2603.4094 
27575000    259.26572   -3874.9503   -3430.5777   -3874.9503            0    10059.238    16.933728    19.945695    20.659109    6977.7168    9258.3209    10400.069    10519.326    1286.5245   -1273.0244   -871.75982    -2406.921 
27576000    255.68844   -3891.6396   -3453.3983   -3891.6396            0    9166.4143    16.987174    20.008647    20.724312     7043.994       7347.7    9980.5389    10171.004   -124.79599    711.54818   -868.80699   -2511.7378 
27577000     254.1959   -3910.7317   -3475.0486   -3910.7317            0    8824.6217    16.983599    20.004436    20.719951    7039.5476    9937.9672    9197.4255    7338.4726    2123.4948   -892.14958    168.08074   -2569.0725 
27578000    295.60919   -3894.7311   -3388.0671   -3894.7311            0    8876.1358    16.966573    19.984382     20.69918     7018.398    8319.1583    8414.7289    9894.5202    -1124.608    101.17811    659.76401   -2479.5401 
27579000    243.24093   -3873.4834   -3456.5767   -3873.4834            0    8329.3626    16.987205    20.008684     20.72435    7044.0329    9335.8293    8446.6296    7205.6287   -177.19218   -922.97186    132.95936   -2600.9014 
27580000    282.62127   -3880.9978   -3396.5946   -3880.9978            0    9877.9487    16.958834    19.975266    20.689737    7008.7976    10369.944    9858.8315    9405.0708    416.57518   -449.43925   -894.15631   -2386.9089 
27581000    239.79118   -3856.9486   -3445.9548   -3856.9486            0    8835.6167    16.990413    20.012462    20.728264    7048.0242    9490.7077    7585.6742    9430.4681   -358.12366   -657.40174   -821.52134   -2537.7576 
27582000    257.20092   -3910.9977   -3470.1641   -3910.9977            0    11301.646    16.865279    19.865071    20.575601     6893.443    12004.846    12082.135    9817.9561   -1274.4388   -745.78427    784.92434   -2333.9667 
27583000    256.81703    -3878.855   -3438.6794    -3878.855            0    9041.5452    16.904455    19.911215    20.623396    6941.5926    9966.6759    9872.8728    7285.0869   -302.40904    1850.5461    189.24401   -2523.3494 
27584000    258.72935   -3843.9723    -3400.519   -3843.9723            0    8830.7683    16.911002    19.918927    20.631383     6949.661    7720.0368     10140.19    8632.0782    59.478525    876.47233    347.42241   -2505.4882 
27585000    250.56934   -3854.2222    -3424.755   -3854.2222            0    8503.0325    16.901765    19.908047    20.620114    6938.2796    8848.1608    6979.9561    9680.9806    1219.8398     1476.134    414.92155   -2564.3527 
27586000    262.96208   -3871.4146   -3420.7065   -3871.4146            0      7884.13    16.931961    19.943613    20.656952    6975.5321    8412.3125    8644.9295    6595.1479    601.95771    -973.6686   -769.88616   -2618.6463 
27587000    267.47825   -3898.8006    -3440.352   -3898.8006            0    8187.7792    16.933039    19.944883    20.658268    6976.8644    6783.5183    8519.9896    9259.8297   -2481.5645   -1856.9391    -1782.706   -2607.2421 
27588000    265.37112   -3838.9298   -3384.0928   -3838.9298            0    8944.8513    16.947285    19.961664    20.675648    6994.4893    6856.2335    9477.6088    10500.712     -292.674    724.16777    18.820912   -2471.6513 
27589000    250.84947   -3879.9104    -3449.963   -3879.9104            0    9553.5186     16.84906    19.845967    20.555814    6873.5741    7809.2869    10868.054    9983.2153    1035.6973    -966.4683    752.33472   -2492.2798 
27590000    253.23378    -3848.988    -3414.954    -3848.988            0    8241.9675    16.915077    19.923727    20.636355    6954.6863    7097.0147    9856.0121    7772.8755    841.78066     276.9196    37.629159   -2578.9963 
27591000     249.7707   -3872.2681   -3444.1697   -3872.2681            0    10019.682    16.943009    19.956627    20.670432    6989.1964    10240.233    10530.541    9288.2726   -810.47022   -206.03359   -301.71758   -2422.8609 
27592000    269.62944   -3884.6601   -3422.5245   -3884.6601            0    7811.4963    16.986127    20.007413    20.723035    7042.6914     6928.885    7102.4464    9403.1574   -2255.0615   -278.87759    797.11182   -2620.2023 
27593000    259.58732   -3901.3107   -3456.3869   -3901.3107            0    8901.7876    16.922941    19.932989    20.645948    6964.3899    6932.6109    9541.7845    10230.967   -708.10099   -1466.5435    523.87581   -2552.2458 
27594000    256.98234   -3856.4248   -3415.9658   -3856.4248            0    10826.237    16.896176    19.901464    20.613296    6931.3988    9840.2838    10756.065    11882.363    580.71933   -328.43185    -233.0868   -2321.5703 
27595000    243.04632   -3882.4988   -3465.9257   -3882.4988            0    7525.5427    16.989034    20.010838    20.726581    7046.3079    6640.6083    8015.5992    7920.4206    1359.8949    875.93798    1062.3541   -2692.5771 
27596000    262.83482   -3857.9263   -3407.4364   -3857.9263            0    7734.5527    16.975702    19.995134    20.710316    7029.7323    7101.2753     7482.699    8619.6839   -1271.0133   -442.20758   -351.93722    -2614.479 
27597000      266.712   -3894.6253   -3437.4901   -3894.6253            0    7150.7918    16.928094    19.939059    20.652236    6970.7547    7468.6311    6560.5715    7423.1728    963.97165   -500.22447   -199.71314   -2710.5313 
27598000    248.04298   -3902.0423   -3476.9051   -3902.0423            0    9289.3397    16.961642    19.978573    20.693163    7012.2797    9367.5455    10545.759    7954.7143    984.80649   -103.80879    1627.6891   -2526.9131 
27599000    254.49501   -3868.8991   -3432.7033   -3868.8991            0    9093.7559    16.953042    19.968444    20.682671     7001.619    7911.2919    9954.3076    9415.6681   -266.45319   -387.56235    1109.3472   -2504.1269 
27600000    251.95533    -3876.433   -3444.5901    -3876.433            0    7881.1516    16.998819    20.022363    20.738519    7058.4905    6666.1469    8965.6089     8011.699    -280.5015   -359.62425    1602.0309   -2633.2977 
27601000    258.68252   -3878.7393   -3435.3663   -3878.7393            0    8104.7114    16.965468     19.98308    20.697831    7017.0262     8872.422    7595.5117    7846.2004    554.06099   -1063.2452    890.89534   -2605.9615 
27602000    272.08465   -3872.5848    -3406.241   -3872.5848            0    8672.0269    16.981324    20.001757    20.717176    7036.7193    11588.361    8660.4163    5767.3033    1709.9157   -762.38401    703.10534   -2516.2887 
27603000    270.71524    -3888.075   -3424.0784    -3888.075            0    8137.3578    17.003095      20.0274    20.743737    7063.8189    8582.8917    9443.4995    6385.6823   -536.33859   -888.32653    657.39688   -2585.7795 
27604000    247.27325   -3864.3439    -3440.526   -3864.3439            0    11354.286    16.936624    19.949106    20.662642    6981.2977    12906.125    8039.0815    13117.652   -1223.5444   -92.850161    226.90049   -2284.4886 
27605000    266.01319   -3860.2256   -3404.2881   -3860.2256            0    10221.244    16.970917    19.989499    20.704479    7023.7903    12508.447    7929.6402    10225.644    181.91032    281.48475   -2641.6062   -2357.2773 
27606000    253.05269    -3872.349   -3438.6253    -3872.349            0    7943.0882    16.943886    19.957659    20.671501    6990.2807    9198.9113    8315.8823    6314.4711    -625.3346   -1236.7219   -1052.6149   -2628.8587 
27607000    249.58531   -3864.1384   -3436.3577   -3864.1384            0    8423.7964    16.904848    19.911678    20.623875    6942.0763    7630.2279    9566.1916    8074.9699   -282.31982     1246.551    1800.9388   -2583.5068 
27608000    259.06162   -3872.0033   -3427.9806   -3872.0033            0    8396.0121     16.97611    19.995615    20.710815    7030.2398    8720.5473    8383.7419    8083.7471   -736.11156    176.23873    111.72985   -2567.1472 
27609000    253.84618   -3884.5165   -3449.4328   -3884.5165            0    7163.9032    17.006904    20.031886    20.748383    7068.5667    6451.5488    7058.2149     7981.946    434.11622   -1100.8265    459.16012   -2710.9218 
27610000    247.86181   -3875.8306   -3451.0039   -3875.8306            0    9434.1258    16.999601    20.023284    20.739473    7059.4646    9228.6366    9809.5396    9264.2011   -1105.1197    989.41456   -739.83724    -2479.713 
27611000    252.61339   -3872.3274   -3439.3567   -3872.3274            0    7710.7191    16.945838    19.959959    20.673883    6992.6977    7970.7716    7948.9301    7212.4556    327.37504   -915.83793    793.39195   -2653.0073 
27612000    264.03316   -3885.2346   -3432.6908   -3885.2346            0    8102.4107    16.929688    19.940937     20.65418     6972.724    9837.9943    8357.5453    6111.6924    79.519044    603.49314   -26.248632   -2608.7564 
27613000    256.65591   -3887.3728   -3447.4734   -3887.3728            0    10249.311     16.90467    19.911468    20.623657    6941.8567    10390.722    9935.6288    10421.582    -59.54272   -587.00765     -503.004   -2409.8346 
27614000    263.29497   -3838.0093   -3386.7307   -3838.0093            0    9041.1341    16.946325    19.960533    20.674477    6993.3008    10814.497    7836.1697    8472.7356    2424.5787    1220.1038    891.96406   -2464.6244 
27615000    255.08401   -3863.8042   -3426.5989   -3863.8042            0    7383.1318     17.04749    20.079691    20.797898    7119.2937    7301.7228    7874.5749    6973.0977   -818.34245    230.42593   -112.89802   -2660.0261 
27616000     245.8884   -3876.2252   -3454.7809   -3876.2252            0    5422.8764    17.012056    20.037955    20.754669    7074.9933    5053.4237    5279.8302    5935.3754   -1005.7801    870.76166   -969.79874   -2895.2403 
27617000    245.76969    -3907.925   -3486.6841    -3907.925            0    7658.1087    16.953394    19.968858    20.683101    7002.0551    10429.336    5891.6671    6653.3228   -285.25777    1187.1871    -710.6193    -2704.655 
27618000    252.43847   -3912.0106   -3479.3397   -3912.0106            0    9632.8508     16.89648    19.901822    20.613666    6931.7728    11024.932    9598.2671    8275.3531    125.93187   -1236.6916   -293.24829   -2505.5278 
27619000    256.28904   -3892.1035   -3452.8329   -3892.1035            0    8610.2541    16.949746    19.964562     20.67865    6997.5364    8744.7413    7641.7328    9444.2882   -202.54125   -109.59079    997.23198   -2574.1402 
27620000    248.90427    -3894.998   -3468.3846    -3894.998            0    8596.9788    16.921636    19.931452    20.644356    6962.7792    10014.797    7761.5321     8014.607     943.5003    -1609.576    419.97047   -2595.4044 
27621000    254.20394   -3910.2995   -3474.6026   -3910.2995            0    8793.1121    16.962547    19.979639    20.694267    7013.4024    8159.3978    8729.3189    9490.6197    914.23422    429.23079   -937.49053   -2575.2142 
27622000    266.35216   -3875.2376   -3418.7191   -3875.2376            0    8625.9663    17.018924    20.046044    20.763047    7083.5646    8125.0605    9772.8157    7980.0227   -567.12729    1135.8289   -1518.6974   -2527.6005 
27623000    247.54681   -3901.5903   -3477.3035   -3901.5903            0    7394.5065    16.980693    20.001013    20.716405    7035.9345    7044.6982    7052.6423     8086.179    2879.0697   -373.16123   -1396.8915   -2718.5392 
27624000    274.15863   -3873.9842   -3404.0857   -3873.9842            0       9635.5    16.908046    19.915445    20.627776    6946.0169    10739.132    8154.6788     10012.69    492.43393    487.05398    -1224.465   -2428.0044 
27625000    269.92931   -3865.7187   -3403.0691   -3865.7187            0    8691.9833    16.967309    19.985249    20.700077    7019.3109    8304.1834     9510.983    8260.7836     1078.228   -477.80787   -779.31369   -2513.2756 
27626000    261.86418   -3884.0018   -3435.1755   -3884.0018            0    9675.4838    16.890176    19.894396    20.605975     6924.017    9747.0361    9281.3285    9998.0867    292.27903    288.78576    223.27356   -2458.1482 
27627000    263.64056   -3891.4982   -3439.6273   -3891.4982            0     10236.57    16.936777    19.949286    20.662828     6981.486    11612.728    8177.0018    10919.979    1132.6907   -849.48817    695.78852   -2397.3622 
27628000     259.2038   -3893.1935    -3448.927   -3893.1935            0    10441.228    16.951574    19.966715    20.680881    6999.8008    10776.602    8989.1113    11557.971    306.70953    164.93007   -1040.2667   -2383.0351 
27629000    265.99574   -3891.4755   -3435.5679   -3891.4755            0    7815.9815    16.991255    20.013454    20.729291    7049.0722     8728.869    7914.7563    6804.3193    2046.0542    652.74172   -238.82245   -2632.0577 
27630000    255.34549   -3907.1766   -3469.5232   -3907.1766            0    10444.004    16.906828    19.914011    20.626291    6944.5167    10707.631     10414.94     10209.44    1927.1778   -1361.2115    468.41188   -2411.7685 
27631000    257.18437   -3922.8524   -3482.0472   -3922.8524            0    9534.5272    16.905663    19.912638     20.62487    6943.0812    8512.5807    10147.241    9943.7597    124.51598    1602.1446    638.94021   -2516.6027 
27632000    272.45813   -3875.9892   -3409.0053   -3875.9892            0    7642.0954    16.946784    19.961073    20.675037    6993.8691     6717.575     6376.619    9832.0921    -1894.015    1136.9332   -1128.7067   -2629.5238 
27633000    252.89829   -3908.3866   -3474.9276   -3908.3866            0    7581.7764     16.97114    19.989761    20.704751    7024.0666    8150.5765    6285.0663    8309.6865    2128.5518    486.14185    681.10396   -2698.2595 
27634000    252.27285   -3919.2208   -3486.8338   -3919.2208            0    9597.2004    16.955882    19.971789    20.686136    7005.1387    9547.7106    8793.8247    10450.066    855.22178   -823.95235    1088.4679   -2506.3573 
27635000    259.96665   -3943.2045   -3497.6305   -3943.2045            0    9284.7006     16.95243    19.967723    20.681925    7000.8607     9337.945    9006.6426    9509.5143    1253.4505    979.21148    174.72491   -2549.6591 
27636000    265.45618   -3916.7974   -3461.8146   -3916.7974            0    8767.0094    16.953542    19.969033    20.683282    7002.2392    8483.6601    8327.3841    9489.9838     1153.802   -285.97124   -105.08241   -2566.5234 
27637000    255.51618   -3900.6801   -3462.7341   -3900.6801            0    7705.0799    16.976694    19.996303    20.711527    7030.9651    8010.9539     7457.105    7647.1807      287.939    402.36741    146.60411   -2672.6597 
27638000    267.83279   -3892.7585   -3433.7022   -3892.7585            0    9054.2092    16.945072    19.959056    20.672948    6991.7488    9597.8901    9373.9532    8190.7843    993.88011    794.85798    -2334.456   -2510.4673 
27639000    246.54863    -3889.673   -3467.0971    -3889.673            0    10185.905    16.877382    19.879327    20.590367    6908.2945    10850.606    10553.964    9153.1439   -565.76626   -358.27132   -1109.9087   -2440.8632 
27640000    252.20459   -3858.7903   -3426.5203   -3858.7903            0    10362.217    16.924083    19.934334    20.647341    6965.7999    11343.513    9819.6955    9923.4435    388.09831   -1323.3993   -288.72182   -2373.8325 
27641000    244.48643   -3877.7289   -3458.6875   -3877.7289            0    8706.1996    16.880002    19.882412    20.593563    6911.5117    10064.222    8344.5678    7709.8087   -1254.1593   -334.03766   -2720.4677    -2581.126 
27642000    250.01745   -3857.5966   -3429.0753   -3857.5966            0    9109.6453    16.877154    19.879058    20.590088    6908.0141    8316.8661    9061.6416    9950.4281    -452.6022   -1567.1383    278.11315   -2511.3122 
27643000    246.51677    -3860.231   -3437.7097    -3860.231            0    9643.0329    16.907712    19.915052     20.62737     6945.606     8882.739     11030.23    9016.1301   -926.73736    126.95726   -362.30298   -2460.9231 
27644000    249.44944    -3883.257   -3455.7092    -3883.257            0    8772.7872    16.967597    19.985588    20.700429    7019.6685    9473.5953    7730.3976    9114.3687   -840.33027   -161.34379    464.37861   -2557.5981 
27645000    267.31303   -3859.7029   -3401.5375   -3859.7029            0     7705.138     16.93117    19.942682    20.655988    6974.5547    7554.2691    7903.1963    7657.9485   -59.279165   -930.70931   -62.835983   -2617.7961 
27646000    253.93633   -3878.3919   -3443.1537   -3878.3919            0    10981.535    16.929268    19.940441    20.653667    6972.2042     10780.95     11497.04    10666.613    155.28997    1568.5787    1119.2228   -2326.5244 
27647000    245.23405   -3877.4282   -3457.1055   -3877.4282            0    9163.0451    16.966671    19.984497    20.699299    7018.5193    9982.8693    7705.5074    9800.7587   -808.06881    -56.37589    2636.9184   -2519.1954 
27648000    258.65544   -3899.7685   -3456.4419   -3899.7685            0      10138.6    16.869906    19.870521    20.581246    6899.1181    10858.906    9624.7269    9932.1663   -312.23039    94.790605    424.00108   -2436.3309 
27649000    262.99456    -3859.025   -3408.2613    -3859.025            0    6972.3511     16.96889    19.987111    20.702007     7021.274    6643.4675    6795.7255    7477.8603   -14.585763     711.6188    884.28569    -2694.306 
27650000    259.32471   -3883.6064   -3439.1327   -3883.6064            0    8123.9699    16.898549    19.904258     20.61619    6934.3191    10321.021    7581.1916    6469.6972   -314.93546    596.38604    372.27637   -2617.5562 
27651000    258.98674   -3846.5865   -3402.6921   -3846.5865            0     10508.95      16.8433    19.839182    20.548786    6866.5267    10446.241    8714.2316    12366.377    1316.6526    2033.3349    1838.6401   -2350.3127 
27652000    245.18851   -3888.6498   -3468.4051   -3888.6498            0    7509.2695    16.956693    19.972744    20.687126    7006.1438    6808.5103    7811.3424    7907.9559    29.227997   -931.14304    85.060923   -2701.1273 
27653000    250.73999   -3866.9684   -3437.2087   -3866.9684            0    8373.0177    16.926936    19.937695    20.650823    6969.3241    9094.3344    7612.2999     8412.419   -454.20877   -1968.3903   -594.65667   -2586.1714 
27654000    249.76497   -3885.7024   -3457.6138   -3885.7024            0    8042.9182    16.922627     19.93262    20.645566    6964.0031    9384.6477    8077.1037    6667.0031    503.29009    788.76491    764.83599   -2640.7522 
27655000    266.09278   -3871.5594   -3415.4854   -3871.5594            0    9868.3967    16.919581    19.929032     20.64185    6960.2435    10026.946    9185.2859    10392.959    2017.8626    235.12114   -365.19624   -2413.7641 
27656000    240.83928   -3913.8665   -3501.0762   -3913.8665            0    7351.4925    16.936288     19.94871    20.662232    6980.8814    6418.5218    8261.6235    7374.3323    2651.7516   -6.7626293   -1711.6543   -2752.6281 
27657000    261.36841   -3909.3644   -3461.3879   -3909.3644            0    10233.486    16.869637    19.870204    20.580918    6898.7881    8677.1079    12521.607    9501.7417    828.24317     1773.857   -147.95232    -2431.779 
27658000     256.1547   -3884.2246   -3445.1842   -3884.2246            0    10423.764    16.868655    19.869048     20.57972    6897.5835    8817.0135    12449.201    10005.077   -1380.6005   -1586.1648     -135.627   -2396.6142 
27659000      257.323   -3881.9658    -3440.923   -3881.9658            0    9581.4258    16.896445     19.90178    20.613623    6931.7294    9950.9635    8371.1465    10422.167   -39.176545   -2039.5843    200.44293   -2472.3159 
27660000    258.81706   -3825.2559   -3381.6524   -3825.2559            0    11108.209    16.934467    19.946566     20.66001    6978.6305    12023.612    11663.435    9637.5791    154.74527   -1331.1634   -74.668556   -2251.1015 
27661000    256.36441   -3918.8361   -3479.4363   -3918.8361            0    9489.9958      16.9288     19.93989    20.653096    6971.6262    9397.9628    9083.8826     9988.142    24.491752    432.45284   -953.96676   -2514.5503 
27662000    248.51289   -3882.4905   -3456.5479   -3882.4905            0    7435.3917    16.948229    19.962776      20.6768    6995.6584    9459.1703      6064.48    6782.5247    2212.2281   -184.95712     182.1879   -2697.9558 
27663000    255.83506   -3867.2844   -3428.7919   -3867.2844            0    8700.2472    16.927783    19.938693    20.651856    6970.3702    6962.8006    10080.999     9056.942   -1858.3395   -593.67833     946.6152   -2544.3622 
27664000    258.88724   -3887.9553   -3444.2315   -3887.9553            0    9632.3958    16.904993    19.911849    20.624052    6942.2556    9105.9883    9666.6847    10124.514    710.46051   -826.04787    718.59827    -2468.993 
27665000    255.94526   -3860.2496   -3421.5681   -3860.2496            0    9130.1693     16.96889     19.98711    20.702006     7021.273    8055.5217    10892.119    8442.8673   -585.57885    722.84138     641.6151   -2486.6565 
27666000    263.82237   -3847.5413   -3395.3588   -3847.5413            0     10577.88     16.87568    19.877322     20.58829    6906.2044    10347.649    12008.395    9377.5946   -1879.0411   -184.19614   -143.74408   -2329.9557 
27667000    244.67375   -3894.5361   -3475.1737   -3894.5361            0    8826.6789    16.958519    19.974896    20.689354     7008.408     10331.74    7467.3255    8680.9709   -636.90242   -635.02309    12.353577    -2572.995 
27668000     271.5206   -3873.9608   -3408.5838   -3873.9608            0    8876.7659    16.995256    20.018166    20.734172    7054.0528    12121.704    8626.5279    5882.0657   -1634.8492   -1732.3048   -427.82709   -2495.3765 
27669000    266.88054   -3863.6279   -3406.2038   -3863.6279            0    8012.3437    16.943992    19.957785    20.671631    6990.4131    7365.7238    8337.6023    8333.7051    2292.6976    1462.9761   -92.744416   -2589.3613 
27670000    254.55606   -3886.4911   -3450.1907   -3886.4911            0    8633.0046    16.984952     20.00603    20.721601    7041.2301    7903.8277    8869.8486    9125.3374   -1002.0248    118.54944    307.66883   -2563.6751 
27671000     261.4828   -3915.8105    -3467.638   -3915.8105            0    10067.555    16.961388    19.978275    20.692854    7011.9657    9170.7252    11475.703    9556.2379   -1247.7394    585.21688    721.32862   -2438.1063 
27672000    260.71414   -3880.9436   -3434.0885   -3880.9436            0    11251.738    16.851843    19.849245    20.559209    6876.9807    10328.222    12261.348    11165.645    1619.2287    1503.4005   -277.04192     -2305.61 
27673000    257.77915   -3871.4972   -3429.6726   -3871.4972            0    9102.8686    16.939629    19.952645    20.666307    6985.0135    7643.0974    10610.976    9054.5322   -222.80797   -421.49052   -114.66799   -2502.3701 
27674000    248.43677   -3867.7733   -3441.9611   -3867.7733            0    8741.3242    16.937134    19.949707    20.663264    6981.9281    9387.4035    7438.1485    9398.4207   -2375.7975   -81.051679   -1077.5328   -2551.8823 
27675000    259.29565   -3864.7151   -3420.2912   -3864.7151            0    8325.5989    16.986111    20.007395    20.723016    7042.6719    6994.0811      8612.65    9370.0656   -46.585543    1485.7956   -743.47594   -2565.1677 
27676000    250.00587   -3890.9475    -3462.446   -3890.9475            0      8164.13     16.96741    19.985368    20.700201    7019.4367    8837.5125    8131.7214    7523.1561   -280.38285   -1828.9153    195.61603   -2626.6735 
27677000    268.14116   -3868.5348   -3408.9501   -3868.5348            0    8247.1922    16.948542    19.963144    20.677182    6996.0457    8360.3761    7367.3229    9013.8776   -886.95635   -876.61417    734.46149   -2567.4878 
27678000    260.90726   -3872.8231   -3425.6369   -3872.8231            0    9302.4354    17.015599    20.042128    20.758991    7079.4138    10741.985    9413.2228    7752.0987   -155.72145    104.28626    2310.7444   -2465.1978 
27679000    242.04295   -3867.5305   -3452.6771   -3867.5305            0    8881.0217    17.016279    20.042929     20.75982    7080.2625    11036.592    8213.1318    7393.3409   -783.10379     388.4259    317.42592   -2535.6373 
27680000    259.41696    -3896.224   -3451.5922    -3896.224            0    11239.384    16.863093    19.862496    20.572934    6890.7622    8660.4902     14422.28    10635.382    204.45083    1568.4603     521.7135   -2322.0936 
27681000    263.41999   -3878.3202   -3426.8273   -3878.3202            0    9746.9609    16.886279    19.889806    20.601221    6919.2249     9338.876    9548.2974    10353.709   -1321.9009    563.73355    684.29747   -2443.2635 
27682000    271.01963   -3879.6956   -3415.1773   -3879.6956            0    7383.6272    16.989271    20.011117    20.726871    7046.6031    7853.0318    6100.2885    8197.5613   -706.75278    851.99068   -2563.9296   -2656.3805 
27683000    255.41719   -3916.2962   -3478.5198   -3916.2962            0    7537.9214    17.008717    20.034022    20.750595    7070.8274     7969.629    6759.8383    7884.2968    183.38738    675.12086    226.48146   -2701.2036 
27684000    266.29174   -3926.2554   -3469.8405   -3926.2554            0     7349.345     16.95045    19.965391     20.67951    6998.4086    9542.7912    7284.5187    5220.7251    457.29979    194.70334   -1275.1161   -2719.7325 
27685000    262.25456   -3866.3542   -3416.8589   -3866.3542            0    10363.392     16.90821    19.915638    20.627977    6946.2195    13010.465    8112.5601    9967.1496   -2054.8642    1064.2152   -1922.8424   -2367.0112 
27686000    270.25119   -3886.4331   -3423.2318   -3886.4331            0    7930.0522    16.912272    19.920422    20.632932    6951.2264    6845.2296     7938.303    9006.6239    629.75724   -209.65861     1574.589   -2619.3109 
27687000    255.65612   -3873.7498    -3435.564   -3873.7498            0    10877.526    16.818433    19.809893    20.518449    6836.1598    10139.335    10065.494    12427.748   -649.47411   -455.15772    129.77857   -2351.0923 
27688000    267.95133   -3861.6537   -3402.3943   -3861.6537            0    11433.902    16.861036    19.860073    20.570425    6888.2414    12868.683    10694.296    10738.728    1071.7637    117.26954   -19.342156    -2253.768 
27689000     253.1059   -3900.4531   -3466.6382   -3900.4531            0    8442.2043    16.877718    19.879722    20.590776    6908.7068    7929.1637    9526.4328    7871.0164   -536.27278    -1519.734     1637.653   -2616.0321 
27690000    262.15202   -3847.6819   -3398.3623   -3847.6819            0    10169.396    16.913305    19.921639    20.634193    6952.5007    10783.157    8995.3617    10729.668   -165.42355    630.09175   -907.89539   -2367.2355 
27691000    259.47748   -3870.9166   -3426.1811   -3870.9166            0    7447.3098    17.000638    20.024506    20.740739    7060.7572     6932.629    7445.2645    7964.0358   -347.27499    -301.7794   -962.61975   -2659.3026 
27692000    271.47904   -3880.0169   -3414.7111   -3880.0169            0    9584.7543    16.927186    19.937989    20.651127    6969.6328     8518.481    10838.227    9397.5548   -1144.6348    -5.222452    212.28233   -2440.4693 
27693000    244.96443   -3851.8293   -3431.9687   -3851.8293            0    9324.6205    16.992711    20.015169    20.731068    7050.8846    8459.9002    9913.9891    9599.9721     808.4129   -2549.9608    449.49846   -2473.1187 
27694000    269.67102   -3881.5364   -3419.3295   -3881.5364            0    8348.0124    16.975033    19.994347    20.709501    7028.9021    7635.1906    7126.1666     10282.68   -256.54318   -974.45087   -1558.4827   -2563.5804 
27695000    258.84494   -3895.6383   -3451.9869   -3895.6383            0    6363.5826    16.992454    20.014867    20.730754    7050.5649    5305.6899    6613.8373    7171.2206     73.67887   -892.03302   -667.32948   -2797.6499 
27696000    250.84187   -3864.2223   -3434.2879   -3864.2223            0    10560.155    16.954653    19.970341    20.684636    7003.6151    11056.883    9181.5416     11442.04    482.16449    503.70684    1910.0225    -2355.668 
27697000    266.67866   -3910.3296   -3453.2516   -3910.3296            0     8819.452    16.950497    19.965446    20.679567    6998.4665     7869.086    9134.3483    9454.9217    1454.5459   -297.10702    1681.6982   -2553.0902 
27698000    239.96414   -3849.6718   -3438.3815   -3849.6718            0    8664.6304    16.983417    20.004221    20.719729    7039.3211    9658.8339    8273.5233    8061.5339    289.89509   -322.26717    1116.9988   -2548.8594 
27699000    272.94496   -3877.5562   -3409.7379   -3877.5562            0     8004.888     16.90873     19.91625    20.628611    6946.8601    10236.216    5310.9565     8467.492    936.00109    1353.0805    760.09601   -2598.7401 
27700000    256.07361   -3894.0719   -3455.1705   -3894.0719            0    8606.0162    16.957743    19.973981    20.688406    7007.4451    8574.0364    7852.9677    9391.0446    763.16478   -1109.9733     257.5394   -2575.6666 
27701000     254.8311   -3893.3301   -3456.5583   -3893.3301            0    7421.6845     16.95768    19.973907     20.68833    7007.3672    7846.2529    5419.3569    8999.4436   -1578.6484   -978.82011    1176.1614   -2698.0973 
27702000    261.48809   -3901.3308   -3453.1491   -3901.3308            0    7958.9939    16.948996    19.963678    20.677735    6996.6074    8225.1602    7929.9793    7721.8422   -852.37125   -839.41877    2041.0113   -2641.0266 
27703000    252.12829   -3920.2044   -3488.0651   -3920.2044            0    8565.7281     16.93708    19.949643    20.663198     6981.861    8676.6542     7858.565     9161.965   -366.90618   -1639.5708    382.40657   -2615.8746 
27704000    259.61934   -3922.0834   -3477.1047   -3922.0834            0     9295.409    16.956689     19.97274    20.687121    7006.1395      8611.76    8816.9459    10457.521    -903.4657   -911.51781   -1822.5017   -2527.3244 
27705000    237.25499   -3907.5741   -3500.9272   -3907.5741            0    7844.2818    16.980046    20.000251    20.715616    7035.1306    7036.1888    6889.6746    9606.9819    148.89277   -943.31052   -1389.0654   -2696.1026 
27706000    255.44544   -3904.8195   -3466.9948   -3904.8195            0    9453.8004    16.869432    19.869963    20.580668     6898.537    9741.1183    8887.8254    9732.4574   -795.52912    336.37498    1611.5564    -2515.866 
27707000    252.60635   -3905.7874   -3472.8288   -3905.7874            0    7064.1218    17.027042    20.055606    20.772951    7093.7061    7669.3028    6926.9326    6596.1302   -710.97639   -345.72977    219.98729   -2742.0141 
27708000    261.87893   -3874.4663   -3425.6148   -3874.4663            0    8890.4143    16.975998    19.995484    20.710678    7030.1008    8512.3189    8279.2446    9879.6793    -1125.999   -1537.8524    396.94556    -2514.109 
27709000    255.45499   -3884.3866   -3446.5455   -3884.3866            0     7794.936    16.911129    19.919076    20.631538    6949.8173    8829.7951    6623.1297    7931.8832   -1389.6056    666.15272     395.0333   -2656.4823 
27710000    265.55241   -3860.6479   -3405.5001   -3860.6479            0     10896.96    16.887886    19.891699    20.603181    6921.2009    10243.051    11754.971    10692.858    -1136.476    1633.4982    424.01397   -2305.5761 
27711000      256.613   -3921.3405   -3481.5146   -3921.3405            0    7222.5851    16.994291     20.01703    20.732995    7052.8516    8605.7888    5165.3132    7896.6533    842.64702    1076.3219    959.50989   -2738.6096 
27712000    273.74467   -3898.4612   -3429.2722   -3898.4612            0    9333.6665    16.870509    19.871231    20.581981    6899.8577    9464.3797    10527.841    8008.7784   -328.29873    -380.2337    1374.2166   -2490.0501 
27713000    273.75029   -3870.4381   -3401.2395   -3870.4381            0    11106.559    16.916898    19.925871    20.638576     6956.932    12341.317    11701.858    9276.5009   -421.66543   -381.20838   -582.10103   -2274.3712 
27714000    262.49732    -3894.437   -3444.5255    -3894.437            0    8612.6524    16.910938    19.918851    20.631305     6949.582    7953.0318    9413.8832    8471.0423    636.85362     -540.834    651.78654   -2571.6115 
27715000    248.94517    -3891.202   -3464.5185    -3891.202            0     8717.147    16.837414     19.83225    20.541606    6859.3312    8785.7751    7508.6862    9856.9799   -1719.7069    999.58509   -620.03673   -2592.4873 
27716000    248.23226   -3882.6802   -3457.2186   -3882.6802            0    9305.5447    16.871916    19.872889    20.583699    6901.5848    8344.2002    9992.1123    9580.3216   -1678.9997    395.39092    530.08502    -2520.592 
27717000    242.49571   -3884.2551   -3468.6257   -3884.2551            0    7797.4123    16.903197    19.909733     20.62186    6940.0424    7892.9714    8195.6362    7303.6294   -200.02244   -139.60049   -26.258131   -2679.4231 
27718000    265.52319   -3887.7598   -3432.6622   -3887.7598            0    10172.784    16.913146    19.921452    20.633999    6952.3047    9303.1525    12580.002    8635.1973    143.20491    2312.6386   -700.25915   -2401.2209 
27719000    262.71349   -3870.9201   -3420.6382   -3870.9201            0    9023.2405    16.935332    19.947585    20.661066    6979.7001    8115.6148    8572.1404    10381.966   -536.40492   -1035.9004   -362.91044   -2502.1466 
27720000    242.91815     -3886.63   -3470.2766     -3886.63            0    10000.463    16.916205    19.925055    20.637731    6956.0779    11647.146    9837.0072    8517.2365   -323.51865   -480.34591   -650.56977    -2455.757 
27721000    249.31991   -3861.6323   -3434.3065   -3861.6323            0    8808.8267    16.923934    19.934159     20.64716    6965.6164    9018.9263    9717.3772    7690.1767    112.65024    1243.4033    28.905528   -2539.4497 
27722000    259.25573   -3903.5233   -3459.1678   -3903.5233            0     8688.981    16.977729    19.997522     20.71279    7032.2515    9584.5604    7157.2424    9325.1403    271.47548   -49.482757    728.19862   -2568.0418 
27723000    250.75318   -3876.9555   -3447.1731   -3876.9555            0    8013.1347    16.994165    20.016882    20.732842    7052.6949    7904.3805     6369.848    9765.1756   -957.27911   -203.84238    693.48103   -2622.9715 
27724000    269.48243    -3896.644   -3434.7603    -3896.644            0    8569.5443     16.97281    19.991728    20.706788    7026.1406    7603.1896    9676.9605    8428.4826   -510.89295    1417.0516   -765.26998   -2556.6473 
27725000    247.74014   -3878.7531    -3454.135   -3878.7531            0    11683.243    16.890356    19.894608    20.606195    6924.2379    12408.253    10211.331    12430.146    150.58861    16.586718    1942.3769   -2274.3271 
27726000    260.81286   -3861.9578   -3414.9335   -3861.9578            0    7583.6007    16.960694    19.977457    20.692007    7011.1047    5546.4254    10488.288    6716.0888   -1071.4379    841.31576    291.36047    -2639.512 
27727000    274.75901   -3835.6525    -3364.725   -3835.6525            0    8823.2786    16.961982    19.978975    20.693579    7012.7026     10338.36     9541.776    6589.6995   -157.23324    573.04094    317.24952   -2462.3412 
27728000     273.2907   -3904.7389    -3436.328   -3904.7389            0    8199.9797    16.948877    19.963538     20.67759    6996.4599    8703.7155    8743.2621    7152.9614    1106.1409   -561.76797   -1619.9031   -2599.6333 
27729000    259.36672   -3866.7839   -3422.2382   -3866.7839            0    10848.206    16.923796    19.933997    20.646992    6965.4465    11566.221    10156.364    10822.033    656.53979   -660.42122    -243.3693   -2320.2353 
27730000     252.3498   -3843.2683   -3410.7493   -3843.2683            0    9800.5271    17.015505    20.042017    20.758876    7079.2965    11424.111    10310.308    7667.1616    389.54066    7.6617709    161.96296    -2398.901 
27731000    264.97733   -3889.2553   -3435.0932   -3889.2553            0     8354.329    16.996155    20.019225    20.735269    7055.1724    6331.3414    9520.3438    9211.3017   -271.21035   -744.25407   -942.92603   -2575.4958 
27732000    260.89361   -3894.7247    -3447.562   -3894.7247            0    8311.5659    16.947985    19.962487    20.676502    6995.3554    6335.8421    9280.8592    9317.9963    585.55872   -1018.6408    243.14086   -2599.6154 
27733000    243.77434      -3894.6   -3476.7792      -3894.6            0    8103.1586    17.003286    20.027625    20.743969    7064.0562      7859.45    7745.6162    8704.4098   -566.23882   -1284.9688   -1025.4412   -2641.9754 
27734000    272.69361   -3901.4866   -3434.0991   -3901.4866            0    11132.885    16.950801    19.965805    20.679938    6998.8433    9361.5232    11043.652    12993.479   -42.699819    -1919.351    330.36559    -2297.755 
27735000    251.96275   -3896.1846   -3464.3291   -3896.1846            0    6280.6469    17.019735       20.047    20.764037    7084.5777    5113.6487    6492.6833    7235.6088    760.97334    -137.7743    312.77063   -2815.4045 
27736000    268.90711   -3904.7765   -3443.8789   -3904.7765            0    9407.6532    16.911174    19.919129    20.631593    6949.8729    9141.1179    8362.6551    10719.186   -2212.7804    270.23961    -1478.671   -2490.3496 
27737000    251.49752    -3863.887   -3432.8288    -3863.887            0    9114.0295     16.90532    19.912233     20.62445    6942.6575    8766.1058    8532.2404    10043.742    489.55081    1427.5052    1526.0637   -2510.0193 
27738000    262.73313   -3868.9924   -3418.6768   -3868.9924            0    10699.938    16.871874    19.872839    20.583647     6901.533     10596.92    11373.645    10129.248    789.20032   -1145.9511    234.83387    -2341.709 
27739000    240.57399   -3854.7406    -3442.405   -3854.7406            0    7774.1607    16.975475    19.994867     20.71004    7029.4506    7546.0261     9369.921    6406.5349   -900.62028   -407.80335   -138.04759   -2645.4188 
27740000    251.93898   -3840.8351   -3409.0203   -3840.8351            0    8918.7771    16.974593    19.993829    20.708964    7028.3556    9659.8271    8821.5676    8274.9364       573.77   -324.87303   -541.74924   -2494.8335 
27741000    266.35906   -3888.4604   -3431.9301   -3888.4604            0    9394.9477    16.884268    19.887437    20.598767    6916.7533    9731.1283     9915.037    8538.6778   -238.29221   -259.55182   -633.22302   -2484.2265 
27742000    254.41921    -3846.333   -3410.2671    -3846.333            0    9332.6338    16.957635    19.973855    20.688276    7007.3123    9283.9606    10367.106    8346.8348   -1029.5614   -2634.0836   -131.20424   -2456.5236 
27743000    281.10053   -3871.4236   -3389.6269   -3871.4236            0    9246.5734    16.907775    19.915126    20.627446    6945.6832    7838.5469    9072.0266    10829.147   -1114.0555   -188.03959   -1187.7028   -2452.9891 
27744000    253.16313   -3842.5486   -3408.6357   -3842.5486            0    7456.6835    17.023131       20.051     20.76818    7088.8192     7545.253    7482.8167    7341.9809     1108.629   -1705.5182    -164.1482   -2637.7402 
27745000    260.60157   -3817.6033   -3370.9412   -3817.6033            0    8473.9026    16.966415    19.984196    20.698987    7018.2021    7253.2661    9281.7667    8886.6751      1278.48    1514.6889    -1624.728   -2503.6094 
27746000    245.08114   -3818.3948   -3398.3341   -3818.3948            0    11813.551    16.872057    19.873055     20.58387    6901.7575    12359.705    10870.131    12210.819    1224.7575   -346.72551    1060.4004   -2209.2405 
27747000    255.64896    -3865.609   -3427.4354    -3865.609            0    8513.8534    17.000959    20.024884     20.74113    7061.1565    7916.0731    8866.9212    8758.5661    405.20961   -397.08925   -505.71121   -2550.6811 
27748000    259.84314   -3843.3313   -3397.9691   -3843.3313            0    6116.1732     17.04683    20.078915    20.797093    7118.4676    5512.4591    5997.7692    6838.2912   -2308.0371    68.149179    87.789504   -2763.0152 
27749000    247.77228   -3873.6048   -3448.9315   -3873.6048            0    7322.0109    16.938246    19.951016    20.664621    6983.3032    7910.6852    6157.7179    7897.6297   -375.54519   -464.36917     -841.061   -2703.2264 
27750000    265.57781   -3822.0792    -3366.888   -3822.0792            0    9664.5645     16.89797    19.903576    20.615484    6933.6063    11217.957    7481.0913    10294.645    534.30989    -58.62876    721.62663   -2389.6117 
Loop time of 362.794 on 64 procs for 250000 steps with 864 atoms

Performance: 119.076 ns/day, 0.202 hours/ns, 689.096 timesteps/s
192.8% CPU use with 32 MPI tasks x 2 OpenMP threads

MPI task timing breakdown:
Section |  min time  |  avg time  |  max time  |%varavg| %total
---------------------------------------------------------------
Pair    | 25.816     | 34.127     | 40.467     |  57.2 |  9.41
Bond    | 0.85371    | 1.168      | 1.8241     |  17.0 |  0.32
Kspace  | 157.06     | 164.15     | 175.21     |  30.4 | 45.25
Neigh   | 3.7027     | 4.0759     | 4.5237     |  14.2 |  1.12
Comm    | 71.431     | 76.424     | 81.888     |  30.7 | 21.07
Output  | 0.56117    | 0.56213    | 0.56382    |   0.0 |  0.15
Modify  | 66.376     | 69.809     | 73.341     |  19.9 | 19.24
Other   |            | 12.48      |            |       |  3.44

Nlocal:        27.0000 ave          35 max          20 min
Histogram: 2 0 5 8 6 0 3 4 1 3
Nghost:        2640.38 ave        2684 max        2600 min
Histogram: 2 2 3 5 6 3 6 1 1 3
Neighs:        8892.22 ave       12090 max        5595 min
Histogram: 1 1 2 6 8 4 3 3 2 2

Total # of neighbors = 284551
Ave neighs/atom = 329.34144
Ave special neighs/atom = 2.0000000
Neighbor list builds = 13793
Dangerous builds = 0

unfix		3
unfix		2
unfix		1

write_data	data.final.${pid}
write_data	data.final.1
System init for write_data ...
PPPM initialization ...
  extracting TIP4P info from pair style
  using 12-bit tables for long-range coulomb (../kspace.cpp:340)
  G vector (1/distance) = 0.37463629
  grid = 24 24 24
  stencil order = 5
  estimated absolute RMS force accuracy = 0.0031185146
  estimated relative force accuracy = 9.3913139e-06
  using double precision FFTW3
  3d grid and FFT values/proc = 3549 432
Last active /omp style is kspace_style pppm/tip4p/omp
WARNING: Not all mixed pair coeffs generated from mixing. Use write_data with 'pair ij' option to store all pair coeffs. (../write_data.cpp:312)

write_restart   restart.lmp.${pid}
write_restart   restart.lmp.1
System init for write_restart ...
PPPM initialization ...
  extracting TIP4P info from pair style
  using 12-bit tables for long-range coulomb (../kspace.cpp:340)
  G vector (1/distance) = 0.37463629
  grid = 24 24 24
  stencil order = 5
  estimated absolute RMS force accuracy = 0.0031185146
  estimated relative force accuracy = 9.3913139e-06
  using double precision FFTW3
  3d grid and FFT values/proc = 3549 432
Last active /omp style is kspace_style pppm/tip4p/omp
Total wall time: 0:06:02
