LAMMPS (30 Jul 2021)
Processor partition = 0
  using 4 OpenMP thread(s) per MPI task
using multi-threaded neighbor list subroutines
variable        pid world 0 1
variable        phase world IceVI IceV

shell cd ${phase}
shell cd IceVI
include Restart.lmp
echo both
log log.lammps
#include		in.partitions
include		in.temp
variable        temperature equal 180.77
variable	tempDamp equal 100.0
include		in.pressure
variable        pressure equal 8369.9
variable        pressureDamp equal 1000.0 # This is 1 ps
include		in.seed
variable        seed equal 745823

units		real
atom_style	full
read_restart	restart.lmp.${pid}
read_restart	restart.lmp.0
Reading restart file ...
  restart file = 30 Jul 2021, LAMMPS = 30 Jul 2021
  restoring atom style full from restart
  orthogonal box = (-0.053151237 -0.095602410 0.035431198) to (24.783152 24.825603 22.774569)
  2 by 4 by 2 MPI processor grid
  restoring pair style lj/cut/tip4p/long/omp from restart
  restoring bond style harmonic/omp from restart
  restoring angle style harmonic/omp from restart
  1920 atoms
  1280 bonds
  640 angles
Finding 1-2 1-3 1-4 neighbors ...
  special bond factors lj:    0        0        0       
  special bond factors coul:  0        0        0       
     2 = max # of 1-2 neighbors
     1 = max # of 1-3 neighbors
     1 = max # of 1-4 neighbors
     2 = max # of special neighbors
  special bonds CPU = 0.001 seconds
  read_restart CPU = 0.006 seconds
include 	in.setup
variable	out_freq equal 1000
variable	out_freq2 equal 10000
variable	out_freq3 equal 1000

timestep	2.0

neigh_modify    delay 7 every 1

include		in.tip4p
# This is TIP4P/Ice

# create groups ###
group ox type 2
640 atoms in group ox
group hy type 1
1280 atoms in group hy

# set charges - beside manually ###
set group ox charge -1.1794
Setting atom values ...
  640 settings made for charge
set group hy charge 0.5897
Setting atom values ...
  1280 settings made for charge

# ### TIP3P Potential Parameters ###
pair_style lj/cut/tip4p/long/omp 2 1 1 1 0.1577 8.5
pair_coeff 1 1*2 0.000 0.000
pair_coeff 2 2 0.21084 3.1668
bond_style  harmonic
bond_coeff  1 450 0.9572
angle_style harmonic
angle_coeff 1 55 104.52
kspace_style pppm/tip4p/omp 1.0e-5
pair_modify tail yes

thermo          ${out_freq}
thermo          1000
thermo_style    custom step temp pe etotal epair emol press lx ly lz vol pxx pyy pzz pxy pxz pyz enthalpy

restart 	${out_freq3} restart.lmp.${pid} restart2.lmp.${pid}
restart 	1000 restart.lmp.${pid} restart2.lmp.${pid}
restart 	1000 restart.lmp.0 restart2.lmp.${pid}
restart 	1000 restart.lmp.0 restart2.lmp.0


include         in.dump
dump            myDump all atom ${out_freq2} dump.water.${pid}
dump            myDump all atom 10000 dump.water.${pid}
dump            myDump all atom 10000 dump.water.0
dump            myDump2 all dcd ${out_freq2} dump.dcd
dump            myDump2 all dcd 10000 dump.dcd
dump_modify     myDump append yes
dump_modify     myDump2 append yes


variable natoms 	equal  "count(all)"                        # NUMBER ATOMS
variable H      	equal  "enthalpy/v_natoms"                 # ENTHALPY-per-atom
variable Vol      	equal  "vol/v_natoms"                 # volume-per-atom
fix AVG all 		ave/time ${out_freq} 1 ${out_freq} v_Vol v_H file vol_enthalpy.dat
fix AVG all 		ave/time 1000 1 ${out_freq} v_Vol v_H file vol_enthalpy.dat
fix AVG all 		ave/time 1000 1 1000 v_Vol v_H file vol_enthalpy.dat




fix 		1 all shake 1e-6 200 0 b 1 a 1
Finding SHAKE clusters ...
       0 = # of size 2 clusters
       0 = # of size 3 clusters
       0 = # of size 4 clusters
     640 = # of frozen angles
  find clusters CPU = 0.000 seconds
fix             2 all nph aniso ${pressure} ${pressure} ${pressureDamp}
fix             2 all nph aniso 8369.9 ${pressure} ${pressureDamp}
fix             2 all nph aniso 8369.9 8369.9 ${pressureDamp}
fix             2 all nph aniso 8369.9 8369.9 1000
fix             3 all temp/csvr ${temperature} ${temperature} ${tempDamp} ${seed}
fix             3 all temp/csvr 180.77 ${temperature} ${tempDamp} ${seed}
fix             3 all temp/csvr 180.77 180.77 ${tempDamp} ${seed}
fix             3 all temp/csvr 180.77 180.77 100 ${seed}
fix             3 all temp/csvr 180.77 180.77 100 745823


run             250000
PPPM initialization ...
  extracting TIP4P info from pair style
  using 12-bit tables for long-range coulomb (../kspace.cpp:340)
  G vector (1/distance) = 0.37479237
  grid = 30 30 30
  stencil order = 5
  estimated absolute RMS force accuracy = 0.003236134
  estimated relative force accuracy = 9.7455215e-06
  using double precision FFTW3
  3d grid and FFT values/proc = 7920 1800
Last active /omp style is kspace_style pppm/tip4p/omp
Neighbor list info ...
  update every 1 steps, delay 7 steps, check yes
  max neighbors/atom: 2000, page size: 100000
  master list distance cutoff = 10.8154
  ghost atom cutoff = 10.8154
  binsize = 5.4077, bins = 5 5 5
  1 neighbor lists, perpetual/occasional/extra = 1 0 0
  (1) pair lj/cut/tip4p/long/omp, perpetual
      attributes: half, newton on, omp
      pair build: half/bin/newton/omp
      stencil: half/bin/3d
      bin: standard
Setting up Verlet run ...
  Unit style    : real
  Current step  : 16500000
  Time step     : 2
Per MPI rank memory allocation (min/avg/max) = 12.56 | 12.56 | 12.56 Mbytes
Step Temp PotEng TotEng E_pair E_mol Press Lx Ly Lz Volume Pxx Pyy Pzz Pxy Pxz Pyz Enthalpy 
16500000    187.63426   -9438.3055   -8722.9582   -9438.3055            0    9565.2376    24.836303    24.921206    22.739138    14074.404     9203.749    9342.3145    10149.649    975.21754     792.7137    160.07672   -6759.5904 
16501000    179.32827    -9441.617   -8757.9358    -9441.617            0    10297.277    24.891424     24.79507    22.748713    14040.155    9041.3845    11176.858     10673.59    130.77308   -283.73869    -494.6719   -6649.4523 
16502000    175.64419   -9429.3994   -8759.7637   -9429.3994            0    9011.0859    24.781124    24.858066    22.870459     14088.45     9842.254    8690.6795    8500.3242   -973.35588    1092.0804    575.17513   -6908.2956 
16503000    178.00701    -9443.942   -8765.2981    -9443.942            0     8732.958    24.805573    24.800334    22.926691    14104.191    8425.3342    9223.0946     8550.445    435.97445    123.85733   -443.58699    -6968.971 
16504000    175.25227   -9463.9164   -8795.7748   -9463.9164            0    7271.4691    24.799851    24.913785    22.926003    14165.018    7331.6704    7086.4545    7396.2824    233.51604   -377.18973    100.97695   -7293.6183 
16505000    175.65857   -9427.0211   -8757.3305   -9427.0211            0     6602.338    24.888556     24.85376    22.966371    14206.404    7278.7371    6247.4035    6280.8735    232.64739   -301.58756   -867.52569   -7389.4196 
16506000    182.55083   -9430.7858   -8734.8188   -9430.7858            0    7964.8227    24.757886     24.87643    22.971001    14147.559    7911.7365    7810.4166     8172.315    13.592997   -849.87624     243.7476   -7091.4557 
16507000    179.74413   -9466.2868   -8781.0202   -9466.2868            0    8174.1671    24.822446    24.792945    22.956531    14127.944    8360.4426    8618.8629    7543.1958   -539.30957   -989.22339   -459.35989    -7096.802 
16508000    181.01226   -9470.5494   -8780.4481   -9470.5494            0    8522.5784    24.841669    24.772689    22.904866    14095.538    8411.5566    9314.6645    7841.5142    189.07825   -409.30746   -339.39657   -7028.4705 
16509000    185.27861   -9439.2813   -8732.9148   -9439.2813            0    8756.7864    24.748928    24.948868    22.849172    14108.398    9200.8117    8765.3548    8304.1928    113.43994   -755.67645    641.11348   -6931.1489 
16510000    182.28904   -9440.3328   -8745.3638   -9440.3328            0    9543.8175    24.918196    24.748112    22.785964     14051.61    7747.5632    10775.009    10108.881   -1153.2818   -166.85644    118.08393   -6789.5654 
16511000    189.07978   -9497.6679   -8776.8096   -9497.6679            0    7375.6348    24.776421    25.001762    22.816218    14133.601    7730.7876     6611.616     7784.501   -446.35108    358.55477   -541.52666   -7256.5137 
16512000    187.98254   -9457.7879   -8741.1127   -9457.7879            0    7222.1494    24.869097    24.893616    22.878378    14163.586    7893.0129    7122.6858    6650.7494     680.7759   -275.14831    605.37487   -7249.2955 
16513000     181.0829   -9442.5613   -8752.1907   -9442.5613            0     6608.796    24.869956    24.909136    22.965111    14226.636    7346.8997     5570.954    6908.5343    417.42149     349.4319    1118.0833   -7380.9918 
16514000    181.51379   -9492.9946   -8800.9813   -9492.9946            0    8309.7065    24.788168    24.859273    22.877832    14097.682    8355.5644     7973.925    8599.6301   -474.81225    288.88175     311.5843   -7092.5037 
16515000    175.54591    -9432.767   -8763.5059    -9432.767            0    9808.2586    24.747165    24.817812    22.895586    14061.793    10131.223    11035.794    8257.7587   -526.46873   -589.34181     529.7989   -6752.0593 
16516000    183.89686   -9457.9625   -8756.8639   -9457.9625            0    8022.2593      24.8745    24.765091    22.907138    14111.238    6681.4809    9981.1307    7404.1663   -804.84588      660.796    819.62997   -7105.8995 
16517000    183.06989    -9448.687   -8750.7411    -9448.687            0    9133.7214    24.684438    24.866834    22.924385    14071.533    10473.545    8815.1696    8112.4496    411.73252    673.17681   -509.46358    -6876.329 
16518000    176.43636   -9459.9028    -8787.247   -9459.9028            0    8480.1188    24.792892    24.755249     22.95285    14087.408    8173.8684    9126.1134    8140.3746   -795.78963    40.268687   -501.94438   -7045.0031 
16519000    178.93993   -9445.7891   -8763.5885   -9445.7891            0    9619.5378    24.773563    24.766495    22.921409     14063.53    9241.1057    10441.462    9176.0461    337.82589   -176.82514    116.08515   -6790.6005 
16520000       176.68   -9460.4573   -8786.8725   -9460.4573            0    7513.2501    24.700612    24.925693    22.973632    14144.403    9189.1809    6612.0157    6738.5537   -31.920492   -601.81467   -545.40577   -7237.0273 
16521000    179.83927   -9462.9127   -8777.2834   -9462.9127            0    8040.4293    24.829606    24.777161    22.949233    14118.532    7308.9703     8839.512    7972.8055    473.59648   -494.86414    924.92377   -7121.7244 
16522000    178.23519   -9426.0602   -8746.5463   -9426.0602            0    8813.9794    24.696189    24.929423    22.924478    14113.724    9062.9361    8624.1241     8754.878   -354.96989    9.6765686    367.48591    -6932.328 
16523000    173.96663   -9461.4862   -8798.2461   -9461.4862            0    8173.5325    24.853718    24.795445    22.898197     14111.22    8399.7764    7981.4254    8139.3956   -112.56766    201.92362    304.55227   -7116.1522 
16524000    188.90279   -9428.8044   -8708.6208   -9428.8044            0    8466.7579    24.779619    24.926958    22.817465    14093.904    8260.2136    8400.5713    8739.4888   -515.65047   -867.66215    69.359174     -6968.32 
16525000    180.82897   -9443.5094   -8754.1069   -9443.5094            0    7426.6795    24.866013     24.86915    22.866691    14140.684    7080.9644    8019.7423    7179.3317     401.6074   -1123.9259    1563.4285   -7222.5223 
16526000    185.31932   -9439.0227   -8732.5009   -9439.0227            0    9432.5769    24.837662    24.833287    22.821455    14076.292    8478.2006    10377.365    9442.1647   -549.17997   -687.44818    153.44559   -6796.1035 
16527000    180.09769   -9436.1351   -8749.5205   -9436.1351            0    8932.7432    24.881046    24.843035    22.777255    14079.092    8051.7385     9550.608     9195.883    743.67192   -559.19595     273.3033   -6915.3683 
16528000    180.29518   -9457.2057   -8769.8382   -9457.2057            0    8757.3678    24.798032    24.890013     22.80888    14078.173    8582.8762    8857.4771    8831.7503    102.18323   -275.08731    17.714132    -6971.813 
16529000    171.60177   -9429.5208   -8775.2966   -9429.5208            0    9020.0365    24.777324    24.845255    22.865576    14076.024    9644.9508    8685.1355    8730.0231    -538.3145    788.22146   -669.06071    -6923.624 
16530000    185.42522   -9443.8376   -8736.9121   -9443.8376            0    8169.7757    24.881485     24.77045    22.914595    14122.851    8041.1772    9042.3461    7425.8037    762.58077   -380.07586   -512.04851   -7054.2055 
16531000    183.06341   -9424.5251   -8726.6039   -9424.5251            0    8654.3858    24.727801    24.925884    22.911368    14121.703    9324.0188    8884.0416    7755.0969     504.2801    566.05556   -89.421518   -6944.2283 
16532000    182.15425   -9432.6698   -8738.2147   -9432.6698            0    8361.3387    24.848443    24.855281    22.845154     14109.51     8611.799    8488.1113    7984.1058     364.0116    208.15497    110.97489   -7017.6792 
16533000    180.27641   -9435.2528   -8747.9569   -9435.2528            0    8088.0155    24.852145    24.821254    22.907314    14130.637    8238.4605    8166.4314    7859.1546   -1009.0812   -321.98465    257.51754   -7081.1717 
16534000    176.42651   -9461.4742   -8788.8559   -9461.4742            0    9438.2014    24.781785    24.887811    22.795679    14059.563    8670.9151    8802.2182    10841.471    287.94731   -571.62964   -146.99655   -6853.6065 
16535000    172.90022   -9456.9953   -8797.8208   -9456.9953            0    9215.7012    24.866134    24.793412    22.801134    14057.271    8872.3572    9787.0456    8987.7007    43.362418   -772.59384     86.56762   -6908.5018 
16536000    182.62481   -9464.6795   -8768.4304   -9464.6795            0    7449.7404    24.793745    25.067292    22.728057    14125.762    8327.6977    5666.4758    8355.0477   -1102.3591   -143.83303   -231.49047   -7233.7113 
16537000    183.51666     -9459.78   -8760.1308     -9459.78            0    8822.0506    24.884642    24.802221    22.821205    14085.119    7245.3083    10084.053    9136.7904     102.8045    255.55252   -33.981275   -6947.9315 
16538000    181.56362   -9436.0506   -8743.8473   -9436.0506            0    8488.0487    24.759392     24.95464    22.815922    14097.085    9023.5101    7388.3182    9052.3178   -1513.9823   -359.04102   -267.03812   -6998.7765 
16539000    179.65709   -9466.0254   -8781.0906   -9466.0254            0    7580.2895    24.847745    24.811213    22.911003    14124.695    7712.1213    8545.3523     6483.395    359.30541   -541.75808    387.28524   -7219.5951 
16540000    176.81404   -9457.5179   -8783.4222   -9457.5179            0    7623.1888    24.759113     24.88287    22.996684    14167.746    7692.8908     7230.873    7945.8027    43.182734   -553.12581   -72.643107   -7208.3033 
16541000    174.11891    -9472.841   -8809.0203    -9472.841            0    6740.1082    24.928352    24.762815    22.960589    14173.483    5975.2003    8325.6232    5919.5012    273.41741   -1607.5359    311.06659   -7415.8014 
16542000    183.08592   -9471.5133   -8773.5062   -9471.5133            0    8231.0464    24.799358    24.901527    22.866617    14121.094     7434.239    8112.2628    9146.6375   -533.88535    1008.1814   -148.37585   -7078.3908 
16543000    182.52059   -9447.1523   -8751.3006   -9447.1523            0    8548.9139    24.951164    24.861766    22.736028     14103.84    6406.6123    9189.5807    10050.549   -168.46897     257.5664    1407.6884   -6992.8741 
16544000    179.00469   -9449.7666    -8767.319   -9449.7666            0    8364.2825    24.862448    24.939991    22.751736    14107.651    8571.8987    7023.5732    9497.3756   -683.39375    853.65327   -235.97617   -7046.4045 
16545000    173.39152    -9467.373   -8806.3254    -9467.373            0     9227.993    24.815275    24.922481    22.736822    14061.774    9268.8247    8458.3143      9956.84    455.29938   -309.53174    433.62294   -6913.8805 
16546000    185.92566    -9437.319   -8728.4855    -9437.319            0    8618.8973    24.876873    24.812985    22.844314    14101.098    8277.8285    8836.8924     8741.971   -645.85919   -350.86668   -166.37797   -6956.0089 
16547000    178.95814   -9460.8888   -8778.6187   -9460.8888            0    8307.6106    24.803705    24.897038    22.832924    14100.216    7420.1931    8669.7755    8832.8633    -657.6378   -662.13111   -839.81594   -7070.2651 
16548000    182.02802   -9466.6228   -8772.6489   -9466.6228            0    8633.6597    24.889376    24.833306    22.781167    14080.709    8256.7571     8890.873    8753.3491   -456.95674   -1044.2737    151.67105   -6999.7037 
16549000    184.46431   -9452.0281   -8748.7661   -9452.0281            0    8978.8771    24.853097    24.885523    22.783513      14091.2    7713.1918    9669.5967    9553.8428   -1146.1396    -685.2193   -151.23653   -6903.5557 
16550000    190.39356   -9463.1632   -8737.2961   -9463.1632            0    9205.9144    24.799204    24.877785    22.805146    14069.618    7720.8547    9713.9245    10182.964   -167.15956   -1564.0365    861.24435   -6848.3258 
16551000    181.55805   -9448.5346   -8756.3525   -9448.5346            0    9669.9281    24.821038    24.732897    22.916172     14068.15    9666.2139    10440.252    8903.3182     261.4986    -712.2077   -274.55622   -6772.3778 
16552000    176.01655   -9433.1827   -8762.1274   -9433.1827            0    8494.8117    24.768158    24.853941    22.923452    14111.365    7495.4329    9483.6406    8505.3616    20.142968    656.67385    373.31813    -7013.897 
16553000    180.27831   -9451.3943   -8764.0912   -9451.3943            0    8516.0354    24.695036    24.889328    22.931725    14094.821     9007.778     8454.932    8085.3962   -1026.5919    600.11701   -1526.0102   -7013.5477 
16554000    183.72741   -9449.3081   -8748.8554   -9449.3081            0    8897.2901    24.781568    24.804541    22.933068    14096.851    9853.4878    8368.2581    8470.1244    74.627196     271.9246    415.30416   -6919.6783 
16555000    179.74301   -9426.1871   -8740.9247   -9426.1871            0    8690.1472    24.685202    24.862426    22.979845    14103.513    9787.2642    8681.4433    7601.7342    -741.4998   -166.25234    252.39879   -6953.4895 
16556000    184.74742   -9439.5052   -8735.1638   -9439.5052            0    8501.9018    24.824257    24.777467    22.944505    14112.757    8916.3846    8669.9176    7919.4033    134.03569   -540.39959     147.8648   -6985.3016 
16557000    181.89018   -9460.8804   -8767.4321   -9460.8804            0    8756.8576    24.624603    24.863485     23.03012     14100.27    10310.028    8283.9013    7676.6437    -344.2568    467.14069    652.17342   -6966.6896 
16558000    178.22978   -9451.8846   -8772.3914   -9451.8846            0    8722.8437    24.864314    24.754458     22.87724        14081    7556.7508    10067.455    8544.3257    495.81847   -745.87467    105.57039   -6981.0948 
16559000    176.66386   -9432.6381   -8759.1149   -9432.6381            0    9719.2884    24.719814    24.871709    22.850619    14049.109    10156.593    9684.9055    9316.3663   -329.56136   -325.33328   -7.5667732    -6767.712 
16560000    178.88771   -9470.8074   -8788.8059   -9470.8074            0    9073.9954    24.893796    24.775679    22.804039    14064.635    8526.5834     9757.711    8937.6916   -134.12301    547.39319    4.8261109   -6927.5637 
16561000    180.20539   -9466.4292   -8779.4041   -9466.4292            0     8127.116    24.792378    24.892549    22.857026     14106.11    9095.2143    8131.1537    7154.9802   -359.28452   -325.60017     340.3269   -7107.4683 
16562000    178.92012   -9446.9998   -8764.8747   -9446.9998            0    7845.4089    24.809364    24.891314    22.883791    14131.603    8346.9166    7580.9507    7608.3595   -599.92371    26.507684   -388.57849   -7147.9757 
16563000    189.44171   -9456.2963   -8734.0581   -9456.2963            0    6964.4029     24.73537     24.87685    23.030628    14171.622    8309.0788    7150.6837    5433.4463   -108.86972   -911.08605    294.97611   -7294.6652 
16564000    183.28165   -9456.8555   -8758.1022   -9456.8555            0    8984.9109    24.825258    24.788034    22.906295    14095.832    8542.2907    9324.1903    9088.2519   -464.54024   -460.07863     230.1521   -6911.0449 
16565000     175.1103   -9464.5773   -8796.9769   -9464.5773            0    9136.0383    24.755755    24.818424    22.893946    14066.013    9259.4627    9545.7585    8602.8936   -132.02518   -107.90024    72.817641   -6922.8249 
16566000    184.47416   -9416.4408   -8713.1412   -9416.4408            0    10167.646    24.817816    24.764669    22.870585    14056.376    8923.3617     10918.56    10661.016   -473.32875    673.74208   -236.45079   -6628.7959 
16567000    174.15489   -9450.3234   -8786.3656   -9450.3234            0    9887.3727    24.760291    24.814944    22.827431    14025.749     8985.175    9884.1959    10792.747    105.47593    -893.6006   -623.75059   -6763.8919 
16568000    175.86118    -9457.466   -8787.0029    -9457.466            0    8322.7811    24.860014    24.876421    22.791916    14095.163    6964.4424    9316.0279    8687.8731   -449.00604   -48.611231   -341.92731    -7076.143 
16569000    181.05024   -9477.2051   -8786.9591   -9477.2051            0    8763.6162    24.814729    24.903678    22.790896    14084.273    8220.5766    9427.5126    8642.7594   -341.01661   -194.71176   -1109.5632   -6986.8713 
16570000     177.1049   -9458.2066    -8783.002   -9458.2066            0    7978.1245    24.909791    24.908578    22.758172    14120.706    7400.4346    7773.5401    8760.3989   -78.327856    350.64478   -374.33786   -7140.0189 
16571000    183.33967   -9460.6817   -8761.7073   -9460.6817            0    8112.9957    24.940405    24.930489    22.706499    14118.368    7110.3527    7443.9855    9784.6489    564.95883   -680.09981    204.04677   -7091.2259 
16572000    183.14082   -9443.1777   -8744.9614   -9443.1777            0     8785.482    24.788724    24.891349    22.850614    14099.395    9360.2564    8573.2964    8422.8931    469.98107    715.98835     142.8293   -6938.4448 
16573000    171.63153    -9468.952   -8814.6143    -9468.952            0    8381.0592     24.87836    24.695941    22.943131    14096.134    8500.9583    8987.6597    7654.5596    190.70465   -455.62708    395.60252   -7091.6559 
16574000    180.36746   -9435.9503   -8748.3073   -9435.9503            0    8446.6754    24.745538     24.84835    22.947825    14110.291    8395.8092    8364.1424    8580.0744   -109.05381    439.07054    991.70256   -7010.1156 
16575000    186.54698   -9449.8845   -8738.6823   -9449.8845            0    7742.7252    24.858182    24.822687    22.903592     14132.59    7065.1873    8772.5584    7390.4298   -258.94072    789.68011    790.38188   -7142.8344 
16576000    181.01853   -9459.2488   -8769.1236   -9459.2488            0    7828.3577    24.778964    24.907813    22.910271    14139.985     8489.996    7057.6825    7937.3947    240.45417   -421.82215    460.91923   -7154.7818 
16577000    177.37126   -9476.2822    -8800.062   -9476.2822            0    7386.1083     24.80129    24.908039    22.910263    14152.849    7459.7414     7399.329    7299.2543    10.505683    891.27198    227.48862    -7275.534 
16578000    177.99776   -9425.9743   -8747.3657   -9425.9743            0     6293.513    24.917312    24.860344    22.982337    14236.477    5407.7256    6853.2423     6619.571   -680.59182   -154.13142   -388.34397   -7440.6788 
16579000    180.84736   -9464.8211   -8775.3485   -9464.8211            0    7506.2875    24.778379    24.853328    22.989206    14157.332    7171.1772    8615.9425    6731.7428   -141.27419   -4.6689871   -323.12424    -7225.524 
16580000    177.84762   -9443.0435   -8765.0073   -9443.0435            0    8306.1092    24.798679    24.776133     22.96186    14108.119    8859.1806    8265.7705    7793.3765    41.625978   -688.18596    -452.6946    -7056.005 
16581000    186.37972   -9450.7795    -8740.215   -9450.7795            0    8243.3902    24.777866    24.884106      22.9129    14127.522    8384.4632     8310.306    8035.4013   -834.91546   -856.58895    79.009063   -7041.7846 
16582000    184.69708   -9470.4325    -8766.283   -9470.4325            0    9164.9849    24.949583    24.798808    22.711106    14051.814    8092.8964      9370.24    10031.818    -582.2098   -80.529452   -354.79741   -6888.0908 
16583000    178.08125   -9480.0287   -8801.1018   -9480.0287            0    8662.0859    24.822946    24.926323    22.742856    14072.023    8509.6421    8073.2929    9403.3226   -498.93407   -91.382825    1289.3515   -7023.4163 
16584000    179.98948   -9423.0651   -8736.8631   -9423.0651            0    7967.5191    24.953231    24.874622    22.765105    14130.351    5772.5001    8928.7222     9201.335    -2.835169   -102.95727   -219.96514   -7094.9433 
16585000    178.62084    -9459.448   -8778.4639    -9459.448            0    8512.4822    24.854484    24.915074    22.761349    14094.995    7975.2891    8328.8095    9233.3481   -811.65663   -449.62205    769.24912   -7028.6291 
16586000      176.587   -9431.6263   -8758.3961   -9431.6263            0    8883.9028    24.862734    24.819079    22.825439    14084.897    8649.7297    8289.9222    9712.0564    -239.7707    896.66193    116.73133     -6933.52 
16587000    181.90928   -9464.4065   -8770.8854   -9464.4065            0    7671.2948    24.780664    24.878978    22.916728    14128.566    7751.4252    7599.6855    7662.7736   -820.24239    67.249357    208.27006   -7190.2101 
16588000    188.72983   -9456.2641   -8736.7399   -9456.2641            0    8988.4945    24.801262    24.804339    22.907472    14092.194     8568.234    10170.031    8227.2182    582.36397   -863.96646   -395.03456   -6889.4228 
16589000    181.15985   -9495.1842   -8804.5202   -9495.1842            0    8711.0799    24.800825     24.75472     22.90852    14064.399     8482.414    9553.3269    8097.4987    388.29138    -161.5056    368.83463   -7017.7486 
16590000    180.54456   -9439.6842    -8751.366   -9439.6842            0    9021.1458    24.696546    24.835308    22.960861     14082.96    9908.6506     9248.839     7905.948    948.14697   -682.02985    862.36244   -6898.5533 
16591000    178.25893   -9468.1703    -8788.566   -9468.1703            0    8629.1662      24.8077    24.808442    22.895895    14091.059    9091.0787    8975.3696    7821.0503   -141.79597   -741.77986   -466.32146   -7015.2409 
16592000    184.48899   -9456.8633   -8753.5071   -9456.8633            0    8919.5333     24.80387    24.871837    22.833911    14086.646    8676.5521    9370.4011    8711.6467   -233.85274    38.022247    604.71698   -6921.0846 
16593000    186.38636   -9468.7801   -8758.1903   -9468.7801            0    7390.2118    24.898188     24.90052    22.812602    14143.307    6477.3824    7623.2284    8070.0247     290.5076   -709.99268     -784.955   -7233.8436 
16594000    180.11926   -9451.7672   -8765.0705   -9451.7672            0    8590.4558    24.834123    24.866088    22.850164    14110.604    8494.6059    8574.0213    8702.7401   -649.76286    563.51711   -170.77796   -6997.2518 
16595000    168.87568   -9456.5642   -8812.7331   -9456.5642            0     7391.321    24.889964    24.929804    22.816256    14157.531    7946.4945    6890.1914    7337.2771   -205.74636   -515.03885  -0.57705479   -7286.6244 
16596000    182.58278   -9459.7279   -8763.6391   -9459.7279            0    7078.4954    24.839966    24.971748    22.828431    14160.416     6736.509    7194.9889    7303.9883    81.359603    -249.8694    107.20855   -7301.8227 
16597000    182.71828   -9443.3708   -8746.7654   -9443.3708            0      8748.78    24.821867    24.897236    22.820543    14103.001    7753.5466    7725.6473    10767.146   -231.16973   -497.28134   -1076.0409   -6947.3355 
16598000     171.9344   -9463.1612   -8807.6688   -9463.1612            0    8796.2082    24.863025     24.85652    22.783261    14080.245    8592.8312    8611.5006    9184.2928    124.81599   -1443.8161    8.4687337   -7001.4033 
16599000    186.38961   -9462.1498   -8751.5477   -9462.1498            0    7799.1716    24.754853    24.893956    22.944206     14139.28    8193.5222    7450.9811    7753.0116    547.12927    -673.4362    322.66756   -7143.3047 
16600000    175.37586   -9459.0435   -8790.4307   -9459.0435            0    8204.2456    24.778327    24.842986    22.921442    14109.698    8698.1512    8137.7531    7776.8324   -101.57532   -36.846356    42.195789   -7102.1983 
16601000    182.56402   -9464.1908   -8768.1735   -9464.1908            0    10165.359    24.802355     24.70746    22.878812    14020.209    9796.8959    10844.386    9854.7967    74.710839   -640.53914    245.95425   -6689.6588 
16602000    184.53992   -9448.9267   -8745.3763   -9448.9267            0    8166.9891     24.79921     24.87656    22.870315    14109.133    8490.6212    7465.3014    8545.0445   -377.47202   -901.50388    425.46961   -7064.8776 
16603000    179.32824    -9452.287    -8768.606    -9452.287            0    7819.3495     24.88603    24.830603    22.857914    14124.708    7794.9805     7465.573     8197.495   -277.16777    179.05907    43.566218    -7157.864 
16604000    182.87625   -9469.5541   -8772.3464   -9469.5541            0    7805.0903    24.745371    24.899676    22.918745    14121.424    8279.8963    7583.9028    7551.4718    38.958095   -219.63462    496.71398   -7164.9155 
16605000    181.01562   -9438.5049   -8748.3908   -9438.5049            0     7874.731    24.882128    24.766097    22.919725    14123.895    7375.1914    9130.6521    7118.3494    342.63929    872.93214    190.86747   -7126.3338 
16606000    178.26601   -9455.8139   -8776.1826   -9455.8139            0    9087.4695    24.825685    24.797432    22.828141    14053.306    9547.4759    9032.2207     8682.712   -96.691241    214.04506     418.4305    -6913.678 
16607000    185.28337   -9468.7138   -8762.3291   -9468.7138            0    8177.9394    24.713007     24.88694    22.924823     14099.48    9196.8501    7706.3391     7630.629    489.19306     644.9586    424.83671   -7080.7284 
16608000    182.41585   -9458.2885   -8762.8361   -9458.2885            0    8852.9607    24.857519    24.769203    22.901712    14100.606    7937.6648    9184.6285    9436.5888   -460.25898    687.94733   -270.98398   -6942.2878 
16609000    176.73027   -9441.3311   -8767.5547   -9441.3311            0    9495.0169    24.797797    24.801937     22.84652    14051.373     10158.62    9719.9407    8606.4899     137.5304   -469.01746   -31.785486   -6821.7897 
16610000    173.86978    -9437.451   -8774.5801    -9437.451            0     9668.895    24.721341    24.890745    22.825349    14045.181    10040.928    9211.0055    9754.7515   -1151.5667    718.88724    87.995273   -6794.0562 
16611000    182.38786   -9452.4313   -8757.0856   -9452.4313            0    8255.1259     24.84418    24.870288    22.840036    14112.445    8473.8479    8301.8033    7989.7265    349.35556    97.984821    696.77787   -7058.0524 
16612000    185.32879   -9466.1644   -8759.6066   -9466.1644            0    7470.7478    24.822572    25.027036    22.770855    14146.061    8466.1884    5215.6153    8730.4396   -13.044561   -493.64588    259.63258    -7218.348 
16613000    184.10565     -9461.78   -8759.8853     -9461.78            0    8673.3886    24.914706    24.844422    22.731634    14070.688    7963.6827    8572.0225    9484.4605    301.61601   -5.3305501    350.13582   -6980.0492 
16614000    185.99034   -9427.9914   -8718.9114   -9427.9914            0    8578.8468    24.815384    24.906066    22.838608    14115.484    8134.9518     8513.993    9087.5955   -367.24859    296.39817   -457.24023   -6952.8713 
16615000    184.46556   -9435.0218   -8731.7549   -9435.0218            0    7913.0738    24.945418    24.836847      22.8537    14159.364    6882.7988    8920.2804    7936.1423   -103.41897   -349.54727   -938.02054   -7097.7067 
16616000    176.68313   -9455.4003   -8781.8036   -9455.4003            0    8398.4586    24.794726    24.881097    22.875304    14112.232    8203.3594    8893.0103    8099.0061   -116.94035    348.97438    198.56128   -7053.2964 
16617000    182.28004   -9500.2493   -8805.3147   -9500.2493            0    7924.1993    24.895338    24.798828    22.860654    14113.601     7310.003    8683.8633    7778.7316     470.1302   -358.08645   -852.08358   -7174.2578 
16618000    171.75221   -9463.3406   -8808.5428   -9463.3406            0    7955.3423    24.793637     24.83575    22.948951    14131.243     8244.469    7941.5828    7679.9752    368.52922   -695.36167   -309.46126   -7169.0288 
16619000    179.39374   -9443.3717   -8759.4409   -9443.3717            0    8915.2116     24.82809    24.782694    22.885782    14081.781    9417.1636     8908.194    8420.2772   -873.98016    339.79957    184.23649   -6928.5388 
16620000    179.05209   -9454.1523    -8771.524   -9454.1523            0    9107.5525    24.811938    24.789591    22.908474    14090.493     8262.529    9125.8384    9934.2902   -446.73053    -216.0791    67.888683   -6899.9639 
16621000    179.97868   -9458.5387   -8772.3779   -9458.5387            0     8014.246    24.713949    24.918958    22.894372    14099.404    9670.3736    7358.1598    7014.2046   -319.99214    759.38771    414.17481   -7124.4457 
16622000    182.92641   -9445.2022   -8747.8033   -9445.2022            0    8453.7645    24.890405    24.810307    22.821944    14093.431    7220.6916    8457.1078     9683.494   -686.15285    308.98661    716.84089   -7010.2315 
16623000    177.28019   -9457.1947   -8781.3218   -9457.1947            0    8909.5716    24.893641    24.767499    22.823731    14072.045    7631.4074    10620.005    8477.3023   -857.25817    6.3884263   -380.77828    -6952.843 
16624000    185.29796   -9452.7836   -8746.3433   -9452.7836            0    7801.9542     24.82517    24.945575    22.805807    14123.137    7035.2104    7540.6047    8830.0477    344.78075   -271.60013   -482.24333   -7139.3633 
16625000    185.26037   -9441.2989   -8735.0019   -9441.2989            0    8592.9956    24.833423    24.833472    22.863607     14099.99    8855.3785     8602.411    8321.1972   -234.15849   -466.47298   -233.63096   -6967.9908 
16626000    183.90387   -9469.9178   -8768.7924   -9469.9178            0    8244.2229    24.749088    24.855822    22.932455    14107.104    8142.0492    8742.2776     7848.342   -467.05195   -306.66944    460.48572   -7072.6455 
16627000     186.4147   -9470.1012   -8759.4033   -9470.1012            0    7040.4454     24.84128    24.786225    22.991245    14156.205    7592.8689    7273.2314    6255.2359    314.94533   -358.14058    313.26664   -7305.8771 
16628000    180.47451   -9462.5383   -8774.4872   -9462.5383            0    8067.4773    24.767585    24.825743    22.929999    14099.054    8591.8106    8094.4819    7516.1394   -367.18416    15.688714    132.24379   -7115.6506 
16629000    181.67171   -9449.0455     -8756.43   -9449.0455            0    8124.6311     24.75634    24.828488    22.987727    14129.694    8184.0624    8502.1147    7687.7162   -567.00419    350.15221    38.483793    -7082.211 
16630000    179.96525   -9479.7382   -8793.6286   -9479.7382            0    9027.0861     24.79204    24.809164    22.889318    14078.528    9303.7872     8993.682    8783.7893   -17.963645    -847.9292   -221.81978   -6940.1792 
16631000    180.00408   -9480.6339   -8794.3762   -9480.6339            0    8604.2335     24.85027    24.716082    22.944536    14092.564    8087.1807     10062.41    7663.1096    171.57226    619.97327    -461.2079    -7025.986 
16632000    179.36716   -9454.7186   -8770.8892   -9454.7186            0    8239.1098     24.74222    24.850913    22.955405    14114.515    9288.1135    7610.7565    7818.4593    208.15507    -586.3705    453.52647   -7074.9036 
16633000    175.23526   -9439.9051   -8771.8284   -9439.9051            0    8589.7915     24.92552    24.673634    22.934548    14104.819    6764.6225    10225.063    8779.6893   -815.09877    545.17705    709.52496   -7004.8712 
16634000    178.16712   -9472.9645   -8793.7102   -9472.9645            0    8594.4541    24.735862    24.900152    22.854618     14076.77    9258.8612    7548.2135    8976.2876   -580.66503    -212.5506    672.38044   -7029.3096 
16635000    175.86078   -9476.2361   -8805.7746   -9476.2361            0    7884.9185    24.773037    24.812941    22.978734    14124.842     8160.377    9173.4143    6320.9643    78.887946    -610.8365   -153.88787   -7181.5104 
16636000    178.62953   -9446.2415   -8765.2242   -9446.2415            0     7988.312    24.820695    24.824423    22.950055    14140.893    7513.4724    8145.6498    8305.8137   -638.18912     78.84217    1232.6293   -7117.7913 
16637000    178.32902   -9466.5433   -8786.6717   -9466.5433            0     8846.677    24.676513    24.855715    22.965585    14085.996    9186.8319    8873.2115    8479.9876   -892.33448    234.24127   -32.122651   -6969.3006 
16638000    180.63496    -9445.827   -8757.1641    -9445.827            0    10212.788    24.801966    24.743032     22.91503      14062.4    9499.1356    11428.456    9710.7708   -468.38926   -620.48991    884.36414   -6662.6676 
16639000    179.45743   -9474.2575    -8790.084   -9474.2575            0    9045.6865    24.732041    24.871646    22.836369    14047.258     9573.734     8931.263    8632.0624     360.7451   -514.20641    1201.7338   -6936.9408 
16640000    180.69557   -9445.3814   -8756.4875   -9445.3814            0     9757.726    24.921573    24.690918    22.847007    14058.597    7984.9087    11618.211    9670.0581     239.1781    -469.3024   -241.63211   -6755.8587 
16641000    183.63936   -9489.5983   -8789.4813   -9489.5983            0    8631.7905    24.761439    24.912129    22.810783    14071.063    9729.8303    7818.7088    8346.8324    1225.5777   -1238.3873   -801.68498   -7018.1341 
16642000    176.17001   -9459.1671   -8787.5267   -9459.1671            0    8896.3972    24.875366    24.794159    22.816326    14072.283    7741.7822    9668.1345    9279.2749    98.229224    162.10387     528.5955   -6961.7208 
16643000    186.50988   -9473.7627    -8762.702   -9473.7627            0    9380.8176    24.670257    24.941122    22.835416     14050.72    9682.6096    8838.0317    9621.8115    -545.3184   -170.70215   -717.67298   -6840.4285 
16644000     182.8136   -9472.4897   -8775.5209   -9472.4897            0     8209.782    24.908472    24.734147    22.898457    14107.506     7916.183    8735.4276    7977.7356    162.29265    424.01665   -326.01376   -7086.4116 
16645000    182.80225    -9420.199   -8723.2735    -9420.199            0    8534.9125     24.72103    24.867156    22.948313    14107.285    9691.0127    8138.5414    7775.1834   -1145.1573     134.3581    297.66994   -6967.2981 
16646000    180.75273   -9458.9143   -8769.8025   -9458.9143            0    9016.1042    24.825086    24.677613    22.957513    14064.321    8441.5995    10280.223    8326.4897   -122.90975    -940.5644     199.4419   -6920.4761 
16647000    180.03461   -9456.6864   -8770.3124   -9456.6864            0    9218.3555    24.731171    24.826984    22.872565    14043.764    10545.815    8906.0441    8203.2072   -490.91322    390.93209   -1259.5793   -6882.2652 
16648000    178.98098   -9473.3767   -8791.0196   -9473.3767            0    8741.3557    24.822312    24.723152    22.921502      14066.6    8282.1573    9780.5128     8161.397      549.444   -129.32639   -587.27357   -6997.7573 
16649000    181.86474   -9456.1353    -8762.784   -9456.1353            0    8326.9986    24.737485    24.923865    22.888861    14112.213    8753.1612    7712.1913    8515.6433    267.13841   -736.39333    26.441241   -7048.9865 
16650000     178.2511   -9450.7469   -8771.1724   -9450.7469            0    9347.3923    24.902515    24.832748    22.721048    14050.648    8075.4184    8989.2874    10977.471   -177.35118    233.01477   -127.44323   -6855.7582 
16651000    186.15385    -9472.615   -8762.9116    -9472.615            0     8285.046    24.847515    24.940019    22.762914    14106.121    7621.6668    7652.5648    9580.9064   -738.93522    446.24931   -741.74794   -7058.4845 
16652000     180.1966   -9468.8025   -8781.8109   -9468.8025            0    8338.2469     24.82788    24.882869    22.788892    14078.724    7901.8941    8396.6877     8716.159    -58.92525     974.8702    730.84386   -7069.7708 
16653000     177.3693    -9424.618   -8748.4053    -9424.618            0    9334.4573    24.839162    24.804143    22.852234    14079.584    9092.0894    8884.5698    10026.713   -95.869426   -508.80884    489.51212   -6831.7025 
16654000    183.44317   -9492.0203   -8792.6513   -9492.0203            0    7698.0672    24.801063    24.833567    22.912355    14111.693    6727.7269    8422.9656     7943.509   -392.32117   -513.98845   -817.65826   -7208.3539 
16655000    184.23001   -9468.9779   -8766.6091   -9468.9779            0    9169.0121     24.70451    24.857471    22.916163    14072.624    9995.0488    7849.5103    9662.4773    449.69072   -208.69196   -307.04414   -6884.8088 
16656000    167.86816   -9465.6891   -8825.6991   -9465.6891            0    8519.4883    24.844518    24.736197    22.892201    14068.606    9907.9784     7711.912    7938.5746   -513.01113   -841.01238    865.17167    -7077.703 
16657000    179.60883   -9461.9695   -8777.2187   -9461.9695            0    8215.7912    24.761704    24.936733    22.866665    14119.617    9441.7618    7382.9223    7822.6896     469.1811    362.85924    634.68731   -7085.4219 
16658000    178.92001   -9452.9132   -8770.7885   -9452.9132            0    8221.9736    24.878778     24.80315    22.887779    14123.409    7358.0166    8681.5202    8626.3839    -241.3988    23.154238    388.21607   -7077.2639 
16659000    182.38554   -9448.7681   -8753.4312   -9448.7681            0      7657.81    24.723712    25.009812    22.916878    14170.317    9166.1243    6131.3608    7675.9449   -28.741435    385.53216    599.99385   -7170.8717 
16660000    179.53459   -9464.3551   -8779.8873   -9464.3551            0    8185.8549    24.850474    24.815514    22.871132    14104.108    8172.1543    7717.1951    8668.2154    179.75281    408.53569    1158.5696   -7096.1066 
16661000     171.1249   -9463.7024   -8811.2963   -9463.7024            0    7876.9546    24.806967    24.944734    22.840932    14134.042    7626.8535    6727.6583     9276.352    160.89659   -1748.8498      164.176   -7187.6157 
16662000    183.37092    -9481.511   -8782.4175    -9481.511            0    7829.1632    24.847512    24.806455    22.922045     14128.66    7836.0849    8247.4735    7403.9313   -158.35192    181.70004     350.2236   -7169.2027 
16663000    184.94322   -9466.1409    -8761.053   -9466.1409            0    7971.1783    24.706069    24.858042    22.992106    14120.475    7612.1898    8484.5399    7816.8051    171.62656   -222.85536    487.01818   -7119.5272 
16664000    179.09249   -9468.2093    -8785.427   -9468.2093            0    9411.1866    24.793815    24.719078    22.948799    14064.866    9024.9142    9588.8666    9619.7788   -284.28977   -708.81455    -415.4975   -6854.9889 
16665000    184.22426   -9471.8558   -8769.5089   -9471.8558            0    7627.7463    24.716668    24.822301    23.032732    14131.147    8679.6149    7982.9035    6220.7203    167.95083    89.255206   -411.86351   -7197.5197 
16666000    186.50283   -9455.9185   -8744.8847   -9455.9185            0     8516.711    24.800782     24.81882    22.919164    14107.345    9159.4615    8157.0832    8233.5883   -213.38285   -654.90121    76.569677   -6992.6468 
16667000    175.32528   -9474.0499   -8805.6299   -9474.0499            0    8315.9707    24.812648    24.742579    22.916078    14068.843    8624.3642    8874.5169     7449.031    51.683762   -587.35165   -437.21465   -7099.3621 
16668000    183.36316   -9427.7183   -8728.6543   -9427.7183            0    9182.6304    24.764123    24.848303    22.889917    14085.229    9942.3493    9479.6413    8125.9007   -1154.5627   -926.78551    636.54104   -6842.3711 
16669000    180.99346   -9456.6722   -8766.6426   -9456.6722            0    8105.7162    24.834992    24.806633    22.929164    14126.028    7261.8322    8515.9383    8539.3781    258.77271   -55.764535    823.66018   -7096.7546 
16670000    178.94444   -9459.7114   -8777.4936   -9459.7114            0    8461.4403    24.842319    24.842792    22.853875    14104.327    8747.5967    8559.0968    8077.6273    359.39164   -371.16439   -86.323288   -7036.9994 
16671000    179.08057   -9463.5657   -8780.8289   -9463.5657            0    7730.9696    24.792384     24.98039    22.812719    14128.452    7840.4632    7158.2583    8194.1872    -572.8476   -472.44404      6.18849   -7187.8706 
16672000    177.15177   -9452.9688   -8777.5854   -9452.9688            0    7690.0421    24.890807    24.833495    22.838952    14117.344    7241.5897    7826.9657    8001.5709   -1407.2146    404.84631   -350.53738   -7194.3059 
16673000     183.8088   -9470.3162   -8769.5532   -9470.3162            0    8699.6561    24.766514    24.842317    22.875065    14074.058    9621.0701    8017.8109    8460.0872   -238.94478    507.99641    1502.9107   -6983.8993 
16674000    178.83924   -9457.9243   -8776.1075   -9457.9243            0    9552.9016    24.879897    24.793471    22.772548    14047.451    8464.2393    9718.3355     10476.13    -416.2181    752.88143    515.52976   -6819.0269 
16675000    177.46904   -9447.2558   -8770.6629   -9447.2558            0    8699.9177    24.788136    24.895243    22.849157    14100.367     8287.685    8808.3144    9003.7535    604.71152   -216.58639   -529.52658   -6981.6172 
16676000    177.68143   -9459.3395   -8781.9369   -9459.3395            0    7519.0644    24.952725     24.71972    22.947544    14154.604    6490.7546    8202.9814    7863.4571   -326.86137    93.669686   -103.95431   -7229.7735 
16677000    189.05661   -9490.6617   -8769.8917   -9490.6617            0    7179.0347    24.763766    24.885366     22.92884    14130.021    8042.1965    7350.4838    6144.4238   -834.47604   -424.78119    545.76147   -7290.4947 
16678000    178.75259   -9453.5913   -8772.1049   -9453.5913            0    7118.7405     24.83765    24.943798     22.84871    14155.812    7178.4849    6705.7091    7472.0275   -612.15215    39.540882    284.43979   -7302.4552 
16679000    181.24235   -9470.5634   -8779.5849   -9470.5634            0    7763.5579    24.882506     24.93625    22.806829    14151.099    8769.7327     6362.968    8157.9731   -329.08123    427.06873    87.933855   -7177.3475 
16680000    182.02623   -9486.3143   -8792.3473   -9486.3143            0    7810.9669    24.820867    24.736285    22.978852    14108.464    8025.0399    7861.9848    7545.8759    117.46662    -592.6769    470.89829   -7185.1824 
16681000     181.5751   -9467.5259   -8775.2788   -9467.5259            0    8390.4232    24.720729    24.839069    22.969667    14104.292    8918.6841    8356.8648    7895.7207    135.30029   -235.34001   -64.950612    -7049.397 
16682000    178.11159   -9413.9726     -8734.93   -9413.9726            0    10003.751    24.776421     24.70009    22.964434     14053.77    9206.2699    11672.808    9132.1738   -222.97624   -364.75076   -239.54575    -6684.563 
16683000    179.67815   -9453.3414   -8768.3264   -9453.3414            0    9417.1544     24.74779     24.78539    22.933091    14066.783    8938.8392     9676.656     9635.968    37.531768    458.80973    631.09528   -6836.4009 
16684000    182.47602   -9455.5349   -8759.8531   -9455.5349            0     8775.195     24.77022    24.809233    22.917444     14083.46    9440.9655    8610.7181    8273.9016   -437.82423    255.67948   -355.67803    -6957.491 
16685000    184.72466   -9435.2334   -8730.9787   -9435.2334            0    7681.5822     24.82486    24.869066    22.892295    14133.041    7531.4393    8087.0817    7426.2256   -52.272775    137.60497    68.485109   -7147.6824 
16686000    183.73918   -9443.6374   -8743.1398   -9443.6374            0    7628.5697    24.876899    24.849282    22.871005     14138.24    7578.7148    7730.3058    7576.6886   -328.41913    13.749583     295.8184   -7170.1919 
16687000    178.66207   -9485.5745   -8804.4333   -9485.5745            0    8105.3264    24.840107    24.982159    22.710099    14092.968    8014.2148    7042.2066    9259.5579   -174.88803   -872.42202   -987.41347   -7138.5335 
16688000    183.15248    -9443.761   -8745.5002    -9443.761            0    7666.5525    24.938178     24.87759    22.824408    14160.303     6644.027    7439.6869    8915.9436   -98.842269   -1174.4211   -791.97385   -7162.2537 
16689000    170.30596   -9459.6076   -8810.3236   -9459.6076            0    7732.3828    24.793538    24.897187    22.894094     14132.28     8289.382    8086.9931    6820.7733   -494.92838    475.16451   -328.33653   -7216.6423 
16690000    183.61295   -9437.5288   -8737.5125   -9437.5288            0    8574.6027    24.892825    24.733733    22.914717    14108.419    7308.3582    9873.3707    8542.0793   -581.31515   -635.69401    658.17314   -6973.2296 
16691000    187.43814     -9472.69   -8758.0903     -9472.69            0    9112.6274    24.724857    24.877995    22.869317    14067.029     9927.821     8855.743    8554.3182    114.77405    2.4281683    1081.0482   -6888.6058 
16692000    181.85144   -9446.2823   -8752.9817   -9446.2823            0    8580.3488    24.964479    24.684632    22.888935    14105.054    7592.1383    9559.0064    8589.9017    412.52271   -244.45461   -487.64128   -6987.9375 
16693000    176.21772   -9441.0422   -8769.2199   -9441.0422            0    8350.5488     24.71519    24.900147    22.933459    14113.522     9243.282    8145.0773    7663.2871    264.84262   -621.07999   -331.88215    -7050.416 
16694000    179.94964   -9460.2076   -8774.1575   -9460.2076            0     8272.129     24.85496    24.783438    22.933618    14126.911    7641.6698    8156.4306    9018.2865    470.19397    -673.5086    314.42529   -7069.8797 
16695000    176.18922   -9434.4817    -8762.768   -9434.4817            0    9123.4582    24.668615    24.936112    22.883395    14076.477    10594.658    7828.3937    8947.3228    -261.5805    599.59706    312.61757   -6889.8044 
16696000    183.20635   -9456.0367   -8757.5706   -9456.0367            0    9008.5448    24.802894    24.846224    22.828198    14068.066    9636.7751      8617.97    8770.8894     345.9322   -580.70652   -823.72592   -6909.3027 
16697000    184.60398   -9479.9956   -8776.2011   -9479.9956            0    7399.6717    24.916685    24.913874    22.774859    14137.975    7111.4594    6997.2323    8090.3236     -111.689    234.41163     415.0804   -7250.4785 
16698000    183.40593   -9449.3969   -8750.1698   -9449.3969            0    9261.5496     24.80383     24.86158    22.799764    14059.757    7901.6191    9641.2895     10241.74    -367.2084   -379.22981    574.97337   -6851.1156 
16699000    185.80268   -9449.6972   -8741.3327   -9449.6972            0    9512.8714     24.83383    24.860832    22.761301    14052.592    9068.9164    8964.5484    10505.149    67.157931   -1025.3647   -271.92921   -6791.7397 
16700000    179.52581   -9449.4517   -8765.0174   -9449.4517            0    8927.4333    24.776423    24.878068    22.869085    14096.265    9491.9139    8212.0128    9078.3731   -139.79272    71.702328   -617.00187   -6929.7196 
16701000    183.54719   -9440.1082   -8740.3426   -9440.1082            0    8180.6684    24.747312    24.800004    23.047465        14145    9459.0662    8145.6696    6937.2695   -313.21078   -916.70804    325.63824     -7052.75 
16702000    175.83019   -9450.4578    -8780.113   -9450.4578            0    8285.3273    24.719011    24.853084    22.964369    14108.014    8452.9386    7899.1917    8503.8516   -221.20637   -19.002363    -773.3152   -7075.3993 
16703000    176.11107   -9476.0865   -8804.6708   -9476.0865            0    7674.6197    24.769572    24.771129    23.055084    14145.914    7270.1876    9354.0395    6399.6321   -182.69421   -180.69464    244.62765   -7221.3688 
16704000    180.32184    -9442.868   -8755.3989    -9442.868            0    8737.7166    24.772637    24.832093    22.941765    14112.774    9203.6254    7899.4811    9110.0434   -288.82071    18.188797    657.50196   -6956.9991 
16705000    177.94821   -9467.7344   -8789.3147   -9467.7344            0    8559.9928    24.854388    24.758481    22.908249    14096.749    8320.4254    8830.9666    8528.5863     341.2551   -311.12618    624.47226   -7029.4947 
16706000    174.45535   -9489.2169   -8824.1135   -9489.2169            0    7940.0507    24.870866    24.866764    22.807498    14105.478    7033.6613    7743.5793    9042.9116   -432.36862    -402.3459    345.65317   -7190.7344 
16707000    175.64101   -9434.5345   -8764.9109   -9434.5345            0     8539.981    24.803761    24.865013    22.866694    14102.939    7929.3161    8855.5708    8835.0561   -1401.0788   -1659.9664    480.28715   -7008.4341 
16708000    182.20874   -9463.2055   -8768.5426   -9463.2055            0    7744.0976    24.878926    24.786452    22.945973     14149.87    6765.6957    9084.2213    7382.3758   -144.43841   -547.65931   -407.33725   -7170.4602 
16709000    183.63577   -9441.8839   -8741.7806   -9441.8839            0    8256.9349    24.857203     24.92496    22.780831    14114.201    7952.3907    7806.9676    9011.4463     220.4242   -509.66644   -484.67686   -7042.1637 
16710000    181.42373   -9447.7607   -8756.0907   -9447.7607            0    8428.7754    24.869912    24.928423    22.734103    14094.409    7986.9343    7792.8146    9506.5771   -424.70922   -613.56472    -327.5251   -7023.5348 
16711000    179.21652    -9427.698   -8744.4429    -9427.698            0    8652.7014    24.850897    24.893391    22.760734    14080.316    7319.7937    9116.2127    9522.0979   -249.14072    -529.8876    892.74357    -6967.637 
16712000    179.12925   -9459.3964    -8776.474   -9459.3964            0    8178.1166    24.823279    24.959983     22.78056    14114.575    7974.8642    7536.0565    9023.4292   -412.29235   -68.837722   -348.29717   -7093.0364 
16713000    179.73797   -9468.7796   -8783.5365   -9468.7796            0    8428.3815    24.860995    24.819794    22.827184    14085.395    8200.2004    8627.1622    8457.7817     218.8485   -883.86723    -163.3003   -7052.1697 
16714000    181.00082   -9451.9078   -8761.8501   -9451.9078            0    8181.7449    24.755376     24.92022    22.882736    14116.576    9427.7015    7887.4392    7230.0941   -515.22553   -161.59537    87.056346    -7077.427 
16715000    181.20751   -9482.5224   -8791.6768   -9482.5224            0    6827.7647    24.914852    24.788305     22.90177    14144.063    6557.2664    7452.3623    6473.6654     200.7142   -5.3392089    383.53226   -7383.2683 
16716000    173.05686   -9449.4315   -8789.6599   -9449.4315            0    8116.7854    24.747017    24.907915    22.901319    14116.295    8918.5026    6899.7595    8532.0942   -417.18063    1174.5213    45.221787   -7118.6436 
16717000    182.85748    -9458.903   -8761.7668    -9458.903            0    7147.1784    24.869351    24.795523    22.970672    14164.832    6797.5068    8573.0609    6070.9674   -60.596441    264.02301    455.52768    -7285.306 
16718000    178.74978   -9452.8986   -8771.4229   -9452.8986            0    7063.9469    24.815712    24.957692    22.878571    14169.681    7050.6479    7044.7142    7096.4785    219.55783   -330.21418   -258.62693   -7311.6564 
16719000    176.30693   -9474.9684   -8802.8059   -9474.9684            0      7422.98    24.922181    24.796256    22.883682    14141.584    7881.0353    7514.5582    6873.3465    394.26246   -1120.6868    -146.3976   -7271.8869 
16720000    176.34108   -9448.8374   -8776.5447   -9448.8374            0    8411.3084    24.746757    24.891124    22.900731    14106.268    9126.9729    7596.6813    8510.2709    100.48284    410.43847   -302.38638   -7046.1245 
16721000    174.57369   -9442.8444   -8777.2899   -9442.8444            0    8739.2728    24.816425    24.783101    22.912475    14091.813    8383.7193    9350.0962     8484.003   -707.47718    172.33791   -627.41799   -6981.2414 
16722000    175.82933    -9465.668   -8795.3263    -9465.668            0    7877.8515    24.777314    24.844596    22.941873    14122.612    8320.5151    7967.0134    7346.0261   -752.89278   -244.63358   -34.412572    -7172.774 
16723000    176.86811    -9449.983   -8775.6811    -9449.983            0    7325.8443    24.777004    24.853864    22.972722      14146.7    8107.9803    7268.8618    6600.6907   -180.29376   -606.08536   -575.17971   -7264.2487 
16724000    186.47957   -9437.8896   -8726.9445   -9437.8896            0    7899.9563    24.859173    24.748828    22.962585    14127.395    8143.3366    8001.1294     7555.403   -108.21064    116.85931    280.58298   -7099.2883 
16725000    174.76888   -9450.9639   -8784.6652   -9450.9639            0    7915.5428    24.846016    24.915176    22.828342    14131.722    7541.2276    7128.4753    9076.9254    108.86997   -941.67603   -81.286949   -7153.2982 
16726000    181.06092   -9460.6886   -8770.4018   -9460.6886            0    7878.3796    24.891718    24.902821    22.781219    14121.485    7501.8837    6918.8231     9214.432    63.922002    195.54779    -348.6212   -7147.8702 
16727000    185.64694   -9454.1147   -8746.3439   -9454.1147            0    8266.8107     24.77746    24.856254    22.886656    14095.315    8670.3251    7905.8149    8224.2921   -122.43797    112.73292     265.8279    -7046.971 
16728000    176.29158   -9414.3441   -8742.2401   -9414.3441            0    9155.3433    24.806781    24.862726    22.873334    14107.454    8580.5713    8840.4573    10045.001   -211.25364   -57.054443   -54.550305   -6858.5947 
16729000    180.87543   -9465.8197   -8776.2401   -9465.8197            0    9183.8233    24.814534     24.70324    22.917751    14048.568     7823.917    11347.271    8380.2821   -110.40688    20.688046   -98.372118   -6894.6221 
16730000     177.7093   -9435.7441   -8758.2353   -9435.7441            0    8468.5944    24.759112    24.884982    22.889884    14103.145    9054.5687    8014.9339    8336.2807   -260.84396   -1246.3468    544.25812   -7016.4155 
16731000    185.91166    -9453.938    -8745.158    -9453.938            0    8275.1287    24.872087    24.796259    22.882781    14112.606    8378.0523    8143.1284    8304.2055    302.39858      3.49851    182.30823   -7041.9886 
16732000    177.51789   -9436.4638   -8759.6846   -9436.4638            0    7587.4459    24.851174    24.916404    22.863546    14157.151    7208.5397    7653.4009    7900.3972   -369.96894    -172.4698    1065.2159   -7193.1235 
16733000    182.46159   -9437.3312   -8741.7044   -9437.3312            0    8314.0896    24.938724    24.824031     22.82122    14128.153    8062.4888     8667.764    8212.0159   -21.822353    1098.2235   -192.81765    -7028.631 
16734000    181.97058   -9444.9376   -8751.1828   -9444.9376            0    8924.6122    24.736417    24.942227    22.826247    14083.368    10120.701    7336.6932    9316.4419   -130.72024   -781.35128    420.01866   -6918.1435 
16735000    181.37209   -9480.0194   -8788.5463   -9480.0194            0    8843.0063    24.844901    24.801275    22.823815    14063.697    8220.2336    9142.2044    9166.5807   -18.012555   -965.73749    76.979553   -6974.8051 
16736000    180.46968   -9445.9687   -8757.9359   -9445.9687            0    8614.7651    24.762816    24.837859    22.915869    14094.527    8607.1231    9264.7451    7972.4271    -183.5748   -1109.3242    83.857265   -6987.1347 
16737000    176.91965   -9448.4634    -8773.965   -9448.4634            0     10131.62    24.715676    24.822419    22.851911    14019.713     10877.45    9291.5615    10225.848    331.47502   -477.89035    593.92504   -6702.4223 
16738000    185.88359   -9426.9804   -8718.3074   -9426.9804            0     8928.814    24.847049    24.813937    22.850708    14088.675    8719.3538    10124.728    7942.3607   -1380.9822   -263.20753    645.88468    -6883.714 
16739000    178.59002   -9440.9393   -8760.0727   -9440.9393            0    7214.0642    24.849176    24.911477    22.876325    14161.124    6995.5696    7729.5391    6917.0839   -451.77825     31.24247   -288.31402   -7270.1848 
16740000    181.38488   -9443.0179    -8751.496   -9443.0179            0    8356.7844    24.812685    24.840409    22.929743    14132.913    8324.6851    8547.2732    8198.3949    292.89422   -142.06361   -35.159087   -7029.0454 
16741000    181.39289   -9444.7029   -8753.1505   -9444.7029            0    8769.0349    24.804623    24.814871    22.878224    14082.085    9065.4187    8807.2804    8434.4057   -362.33502   -52.934837     693.1134   -6952.2295 
16742000    184.96575   -9445.1512   -8739.9774   -9445.1512            0    9781.7125    24.769898     24.75447    22.890622    14035.745    10330.959    9605.7307     9408.448   -222.31119    445.21256   -237.79022   -6737.6908 
16743000    185.11647   -9471.0795   -8765.3311   -9471.0795            0    8393.9158    24.802347    24.808629    22.888815    14083.768    8384.0766    8176.6251    8621.0456   -555.48462    295.83931     476.8453   -7041.2434 
16744000     179.6253   -9464.1538   -8779.3403   -9464.1538            0    8662.1746    24.813749    24.815981    22.849353    14070.118    9111.0659    8747.3294    8128.1284    222.91347    -317.5544    225.00012   -7001.8774 
16745000    181.55189   -9460.0477   -8767.8891   -9460.0477            0    7701.7843    24.817704    24.905853    22.859873    14129.827    7443.0351    7589.8856    8072.4322    257.61814   -346.66231   -753.93789   -7180.7899 
16746000    180.56522   -9467.4991   -8779.1021   -9467.4991            0    7881.0539    24.884903    24.828836    22.856212    14122.012    8188.3971    7533.8289    7920.9357     138.9572    1240.1247    1037.5621   -7155.9592 
16747000    185.42978   -9442.2117   -8735.2688   -9442.2117            0    8152.7552    24.781293    24.936667    22.866074    14130.385    8682.2309    7739.9455    8036.0893   -798.55293   -666.37524   -353.25628   -7055.1721 
16748000    178.08872   -9466.3399   -8787.3845   -9466.3399            0    9325.5548    24.772065    24.849173    22.833627    14055.589    9198.6874     9611.371    9166.6062   -1456.6863   -68.650556    276.51752    -6875.773 
16749000     172.0422   -9456.7429   -8800.8395   -9456.7429            0    9208.5317    24.783216    24.805999     22.85086    14048.079    9432.1505     9215.285    8978.1596   -411.50272   -1019.8503    121.01693   -6914.2248 
16750000    183.59383   -9441.6034     -8741.66   -9441.6034            0    8776.5258    24.693074    24.886482    22.950913    14103.881    9649.4918    8132.6185    8547.4672   -345.43409   -821.24322    -845.7907   -6936.4109 
Loop time of 469.383 on 64 procs for 250000 steps with 1920 atoms

Performance: 92.036 ns/day, 0.261 hours/ns, 532.614 timesteps/s
386.7% CPU use with 16 MPI tasks x 4 OpenMP threads

MPI task timing breakdown:
Section |  min time  |  avg time  |  max time  |%varavg| %total
---------------------------------------------------------------
Pair    | 75.479     | 77.127     | 79.71      |  12.9 | 16.43
Bond    | 1.4901     | 1.6904     | 2.0393     |   9.2 |  0.36
Kspace  | 226.1      | 231.66     | 237.24     |  22.5 | 49.36
Neigh   | 1.8356     | 1.9659     | 2.1182     |   6.8 |  0.42
Comm    | 55.625     | 62.076     | 67.091     |  40.2 | 13.22
Output  | 0.53771    | 0.53797    | 0.53925    |   0.0 |  0.11
Modify  | 69.349     | 80.558     | 83.338     |  40.8 | 17.16
Other   |            | 13.76      |            |       |  2.93

Nlocal:        120.000 ave         123 max         114 min
Histogram: 1 1 0 1 3 1 1 1 1 6
Nghost:        4160.62 ave        4203 max        4119 min
Histogram: 2 0 3 1 2 3 2 0 0 3
Neighs:        43094.9 ave       44358 max       41165 min
Histogram: 1 1 1 2 1 1 2 1 1 5

Total # of neighbors = 689518
Ave neighs/atom = 359.12396
Ave special neighs/atom = 2.0000000
Neighbor list builds = 4423
Dangerous builds = 0

unfix		3
unfix		2
unfix		1

write_data	data.final.${pid}
write_data	data.final.0
System init for write_data ...
PPPM initialization ...
  extracting TIP4P info from pair style
  using 12-bit tables for long-range coulomb (../kspace.cpp:340)
  G vector (1/distance) = 0.37484388
  grid = 30 30 30
  stencil order = 5
  estimated absolute RMS force accuracy = 0.0032236832
  estimated relative force accuracy = 9.7080262e-06
  using double precision FFTW3
  3d grid and FFT values/proc = 7920 1800
Last active /omp style is kspace_style pppm/tip4p/omp
WARNING: Not all mixed pair coeffs generated from mixing. Use write_data with 'pair ij' option to store all pair coeffs. (../write_data.cpp:312)

write_restart   restart.lmp.${pid}
write_restart   restart.lmp.0
System init for write_restart ...
PPPM initialization ...
  extracting TIP4P info from pair style
  using 12-bit tables for long-range coulomb (../kspace.cpp:340)
  G vector (1/distance) = 0.37484388
  grid = 30 30 30
  stencil order = 5
  estimated absolute RMS force accuracy = 0.0032236832
  estimated relative force accuracy = 9.7080262e-06
  using double precision FFTW3
  3d grid and FFT values/proc = 7920 1800
Last active /omp style is kspace_style pppm/tip4p/omp
Total wall time: 0:07:49
