LAMMPS (30 Jul 2021)
Processor partition = 1
  using 2 OpenMP thread(s) per MPI task
using multi-threaded neighbor list subroutines
variable        pid world 0 1
variable        phase world IceIh Liquid

shell cd ${phase}
shell cd Liquid
include Restart.lmp
echo both
log log.lammps
#include		in.partitions
include		in.temp
variable        temperature equal 224.50
variable	tempDamp equal 100.0
include		in.pressure
variable        pressure equal 2845.8
variable        pressureDamp equal 1000.0 # This is 1 ps
include		in.seed
variable        seed equal 745823

units		real
atom_style	full
read_restart	restart.lmp.${pid}
read_restart	restart.lmp.1
Reading restart file ...
  restart file = 30 Jul 2021, LAMMPS = 30 Jul 2021
  restoring atom style full from restart
  orthogonal box = (0.30672257 1.4528099 0.37420082) to (17.900850 22.176368 21.838995)
  2 by 4 by 4 MPI processor grid
  restoring pair style lj/cut/tip4p/long/omp from restart
  restoring bond style harmonic/omp from restart
  restoring angle style harmonic/omp from restart
  864 atoms
  576 bonds
  288 angles
Finding 1-2 1-3 1-4 neighbors ...
  special bond factors lj:    0        0        0       
  special bond factors coul:  0        0        0       
     2 = max # of 1-2 neighbors
     1 = max # of 1-3 neighbors
     1 = max # of 1-4 neighbors
     2 = max # of special neighbors
  special bonds CPU = 0.003 seconds
  read_restart CPU = 0.010 seconds
include 	in.setup
variable	out_freq equal 1000
variable	out_freq2 equal 10000
variable	out_freq3 equal 1000

timestep	2.0

neigh_modify    delay 7 every 1

include		in.tip4p
# This is TIP4P/Ice

# create groups ###
group ox type 2
288 atoms in group ox
group hy type 1
576 atoms in group hy

# set charges - beside manually ###
set group ox charge -1.1794
Setting atom values ...
  288 settings made for charge
set group hy charge 0.5897
Setting atom values ...
  576 settings made for charge

# ### TIP3P Potential Parameters ###
pair_style lj/cut/tip4p/long/omp 2 1 1 1 0.1577 8.5
pair_coeff 1 1*2 0.000 0.000
pair_coeff 2 2 0.21084 3.1668
bond_style  harmonic
bond_coeff  1 450 0.9572
angle_style harmonic
angle_coeff 1 55 104.52
kspace_style pppm/tip4p/omp 1.0e-5
pair_modify tail yes

thermo          ${out_freq}
thermo          1000
thermo_style    custom step temp pe etotal epair emol press lx ly lz vol pxx pyy pzz pxy pxz pyz enthalpy

restart 	${out_freq3} restart.lmp.${pid} restart2.lmp.${pid}
restart 	1000 restart.lmp.${pid} restart2.lmp.${pid}
restart 	1000 restart.lmp.1 restart2.lmp.${pid}
restart 	1000 restart.lmp.1 restart2.lmp.1


include         in.dump
dump            myDump all atom ${out_freq2} dump.water.${pid}
dump            myDump all atom 10000 dump.water.${pid}
dump            myDump all atom 10000 dump.water.1
dump            myDump2 all dcd ${out_freq2} dump.dcd
dump            myDump2 all dcd 10000 dump.dcd
dump_modify     myDump append yes
dump_modify     myDump2 append yes


variable natoms 	equal  "count(all)"                        # NUMBER ATOMS
variable H      	equal  "enthalpy/v_natoms"                 # ENTHALPY-per-atom
variable Vol      	equal  "vol/v_natoms"                 # volume-per-atom
fix AVG all 		ave/time ${out_freq} 1 ${out_freq} v_Vol v_H file vol_enthalpy.dat
fix AVG all 		ave/time 1000 1 ${out_freq} v_Vol v_H file vol_enthalpy.dat
fix AVG all 		ave/time 1000 1 1000 v_Vol v_H file vol_enthalpy.dat


timer           timeout 23:50:00 every 1000
New timer settings: style=normal  mode=nosync  timeout=23:50:00

fix 		1 all shake 1e-6 200 0 b 1 a 1
Finding SHAKE clusters ...
       0 = # of size 2 clusters
       0 = # of size 3 clusters
       0 = # of size 4 clusters
     288 = # of frozen angles
  find clusters CPU = 0.000 seconds
fix             2 all nph iso ${pressure} ${pressure} ${pressureDamp}
fix             2 all nph iso 2845.8 ${pressure} ${pressureDamp}
fix             2 all nph iso 2845.8 2845.8 ${pressureDamp}
fix             2 all nph iso 2845.8 2845.8 1000
fix             3 all temp/csvr ${temperature} ${temperature} ${tempDamp} ${seed}
fix             3 all temp/csvr 224.5 ${temperature} ${tempDamp} ${seed}
fix             3 all temp/csvr 224.5 224.5 ${tempDamp} ${seed}
fix             3 all temp/csvr 224.5 224.5 100 ${seed}
fix             3 all temp/csvr 224.5 224.5 100 745823

run             250000
PPPM initialization ...
  extracting TIP4P info from pair style
  using 12-bit tables for long-range coulomb (../kspace.cpp:340)
  G vector (1/distance) = 0.37286781
  grid = 24 24 25
  stencil order = 5
  estimated absolute RMS force accuracy = 0.003230035
  estimated relative force accuracy = 9.7271544e-06
  using double precision FFTW3
  3d grid and FFT values/proc = 3822 576
Last active /omp style is kspace_style pppm/tip4p/omp
Neighbor list info ...
  update every 1 steps, delay 7 steps, check yes
  max neighbors/atom: 2000, page size: 100000
  master list distance cutoff = 10.8154
  ghost atom cutoff = 10.8154
  binsize = 5.4077, bins = 4 4 4
  1 neighbor lists, perpetual/occasional/extra = 1 0 0
  (1) pair lj/cut/tip4p/long/omp, perpetual
      attributes: half, newton on, omp
      pair build: half/bin/newton/omp
      stencil: half/bin/3d
      bin: standard
Setting up Verlet run ...
  Unit style    : real
  Current step  : 9250000
  Time step     : 2
  Walltime left : 23:49:59.95
Per MPI rank memory allocation (min/avg/max) = 10.20 | 10.20 | 10.21 Mbytes
Step Temp PotEng TotEng E_pair E_mol Press Lx Ly Lz Volume Pxx Pyy Pzz Pxy Pxz Pyz Enthalpy 
 9250000    229.51965   -4009.7678    -3616.379   -4009.7678            0    1848.1894    17.594127    20.723558    21.464794    7826.3412    2312.4483    2777.2923    454.82746    97.135285    276.91679    993.98103   -3405.4282 
 9251000    231.89463   -4031.3409   -3633.8814   -4031.3409            0    359.34596    17.612026     20.74464     21.48663    7850.2507    898.66538    661.99353   -482.62101    -259.8433   -449.44276    -2311.228   -3592.7406 
 9252000    223.95835   -4009.7528   -3625.8958   -4009.7528            0    3584.4338     17.49164    20.602842     21.33976    7690.3691    3736.8426    4909.8054    2106.6535    1384.2257   -918.91195    197.40967   -3223.8795 
 9253000    220.12056   -4020.7412   -3643.4621   -4020.7412            0    1639.6389    17.596501    20.726354     21.46769    7829.5091    2092.8226    846.10322    1979.9907    1560.2818   -141.78975     -562.901   -3456.2394 
 9254000    207.84373   -4025.0275   -3668.7905   -4025.0275            0    2698.4851    17.567252    20.691903    21.432007     7790.532    2732.0801    2023.2036    3340.1717    981.79678    805.39173   -954.39386   -3362.1969 
 9255000    218.10271   -3993.3769   -3619.5563   -3993.3769            0    3026.8014    17.554012    20.676308    21.415854    7772.9302    1911.7038    4761.9401    2406.7602    -171.4773   -1117.6594   -633.18051   -3276.4375 
 9256000    233.02831   -4029.1194   -3629.7168   -4029.1194            0     2024.901    17.559684    20.682988    21.422773    7780.4672    3164.2583    1907.7408     1002.704    325.40616    23.794132   -376.01054    -3399.951 
 9257000     231.2252   -4033.9345   -3637.6225   -4033.9345            0    3244.7114    17.561044    20.684591    21.424433    7782.2756    2286.6797     3673.785    3773.6696    1274.4274    418.04391    -655.4359   -3269.3591 
 9258000    221.79732   -4013.4793   -3633.3263   -4013.4793            0    2479.2416    17.557166    20.680023    21.419702    7777.1209    3035.7335    2524.8421    1877.1493    309.28013    44.494198   -768.63074   -3352.1274 
 9259000    224.98368   -3993.7117   -3608.0973   -3993.7117            0    3620.2342    17.541808    20.661933    21.400965    7756.7302    2736.7695    4646.7397    3477.1933   -195.19271   -91.272715   -22.142045   -3198.5621 
 9260000    216.51878   -4012.2634   -3641.1576   -4012.2634            0    649.37864    17.747547    20.904266    21.651965    8032.8669    38.870714   -292.78106    2202.0463   -416.19393    691.91519    1138.2794   -3565.0822 
 9261000    227.55914   -4024.0691   -3634.0405   -4024.0691            0    3039.4661     17.52404    20.641004    21.379287    7733.1827    3171.8039    2786.6103     3159.984    -64.37584     1070.069    23.508952   -3291.2479 
 9262000    228.97622   -3987.3959   -3594.9385   -3987.3959            0    2997.0423    17.558518    20.681615    21.421351    7778.9174    2182.2003    3721.9563    3086.9704    1043.7015   -1397.7962   -1575.6054   -3254.9314 
 9263000    223.68618   -3998.6523   -3615.2618   -3998.6523            0    3227.7392     17.53718    20.656482    21.395319     7750.592    4071.0198    2747.1648     2865.033   -789.10148    318.64501   -1085.1255   -3250.4161 
 9264000    216.99701   -4010.1915   -3638.2661   -4010.1915            0    3614.0031    17.496662    20.608756    21.345886    7696.9944    5171.1213    2651.3437    3019.5443    296.41328   -1032.7389    898.64773   -3232.5842 
 9265000    224.80625   -4009.4428   -3624.1326   -4009.4428            0    3293.3637     17.55752     20.68044    21.420134    7777.5913    2507.9119    3167.8139    4204.3654    1661.3449    1112.3435    613.41284   -3250.5723 
 9266000     220.8993   -4010.7735   -3632.1597   -4010.7735            0    2889.3217    17.568796    20.693721     21.43389    7792.5853    3850.6559    1770.3015    3047.0077   -370.75444   -956.90762    415.04229   -3303.7973 
 9267000     231.1278   -4032.0886   -3635.9435   -4032.0886            0    2782.5107    17.587547    20.715808    21.456767    7817.5638    3516.7738    1715.7318    3115.0266     365.0282    61.604564    -374.2517   -3318.7063 
 9268000    214.90906   -4030.2167   -3661.8699   -4030.2167            0    4356.5855    17.505498    20.619165    21.356667    7708.6622    4924.2414     4358.845      3786.67    -1195.241     476.9185   -1742.8743   -3172.0898 
 9269000    223.27547   -4011.9537   -3629.2672   -4011.9537            0    2069.3569    17.577585    20.704073    21.444612    7804.2861    3287.5725    1504.6437    1415.8545   -1077.3827   -1305.6076    886.45343   -3393.7381 
 9270000    216.12541   -4021.6461   -3651.2145   -4021.6461            0    2191.5357    17.544271    20.664834    21.403969     7759.997     3452.993    935.75975    2185.8545   -200.84053   -1027.9058    270.97256   -3403.1949 
 9271000    216.08609   -4024.1771   -3653.8129   -4024.1771            0    2673.0321    17.599201    20.729535    21.470985    7833.1145    2898.0206    1786.1061    3334.9694   -1153.6855    364.73543   -116.63449   -3348.4512 
 9272000    234.66658   -4022.1882   -3619.9778   -4022.1882            0    3136.7756    17.499082    20.611607    21.348839    7700.1888    2790.4553    4153.6964    2466.1751     128.5546    236.49415   -310.65903   -3267.7199 
 9273000     213.6413   -4043.2626   -3677.0887   -4043.2626            0    2135.9485    17.592512    20.721655    21.462823    7824.1853    1745.3161    2585.3845    2077.1448   -1422.5797    220.88227   -796.48011   -3433.3605 
 9274000    239.94176   -3992.6219     -3581.37   -3992.6219            0    3797.2834    17.482842    20.592479    21.329027    7678.7709    4663.5946    2776.7106     3951.545   -1047.4503     930.0084   -88.592929   -3156.1236 
 9275000    223.99757    -4002.062   -3618.1378    -4002.062            0    1381.8474    17.560324    20.683743    21.423555    7781.3186    2795.5054    160.60691      1189.43   -603.84811   -590.69814   -203.74156   -3461.3223 
 9276000    235.14435   -4010.6314    -3607.602   -4010.6314            0    2151.4664    17.457133    20.562196    21.297661    7644.9444    2431.5163    1512.2918    2510.5911   -519.77541   -152.11128    1250.4189   -3367.7272 
 9277000     232.4161   -4019.8909   -3621.5376   -4019.8909            0    2301.5695    17.456701    20.561688    21.297135    7644.3777    1904.1043    2357.4874    2643.1167   -315.34966   -1397.7502   -287.18126   -3364.9462 
 9278000    220.39497   -4036.5648   -3658.8153   -4036.5648            0    2190.9038    17.512795     20.62776     21.36557    7718.3065    1208.3163    2989.0496    2375.3457   -717.30287    315.16763   -318.33126   -3412.1994 
 9279000     220.4187   -4043.9346   -3666.1445   -4043.9346            0    3247.1492    17.451424    20.555473    21.290697    7637.4472    3352.8063    1553.8618    4834.7793   -1019.1409    533.90584   -277.32127   -3304.4629 
 9280000    230.54524    -4022.605   -3627.4584    -4022.605            0    4678.1815    17.483891    20.593714    21.330306    7680.1524     5413.552    3584.7798    5036.2128   -1885.6723    636.93751    1379.5489   -3103.4686 
 9281000    230.54531   -4013.5938   -3618.4471   -4013.5938            0    1799.9901    17.514225    20.629444    21.367314     7720.197    3363.2823     1488.758    547.93005    37.514634     853.4432    489.10152   -3415.7841 
 9282000    217.69395   -4005.5659   -3632.4459   -4005.5659            0    3714.6488    17.478357    20.587195    21.323554    7672.8617    2634.3771    3741.9567    4767.6125   -161.53296      326.282    828.35384   -3216.7737 
 9283000    239.16621   -4035.2079   -3625.2852   -4035.2079            0    3564.3137    17.517292    20.633056    21.371056    7724.2534    3372.6292    3428.2668    3892.0451    299.26907   -503.38922    512.69316   -3223.7641 
 9284000    227.50648   -4056.0518   -3666.1135   -4056.0518            0    2561.1241    17.469976    20.577325     21.31333    7661.8306    1907.2968    4989.9784    786.09705   -311.28659     493.0795    278.13629   -3379.9336 
 9285000    208.59975   -4041.2553   -3683.7224   -4041.2553            0    2375.0034    17.489103    20.599853    21.336665    7687.0235     1832.742    1724.1997    3568.0686    98.000586    339.02507   -720.29554   -3417.4671 
 9286000    222.57226   -4060.5197   -3679.0384   -4060.5197            0    3108.7358    17.525608    20.642851    21.381201    7735.2591    2395.7737    2517.3804    4413.0533    57.620065     246.1578     1257.492   -3328.3394 
 9287000    231.72092   -4044.1549   -3646.9932   -4044.1549            0     2446.339    17.531357    20.649623    21.388214    7742.8737    827.25037    3133.0989    3378.6676   -892.55811    1431.4476   -127.90978    -3370.748 
 9288000    231.71961   -4049.4273   -3652.2678   -4049.4273            0    2928.8484    17.489383    20.600183    21.337007    7687.3926    1595.1002    5923.7161    1267.7288   -793.51531   -349.77462    1617.7485   -3323.9066 
 9289000    237.01577   -4050.6448   -3644.4079   -4050.6448            0    1815.9277    17.479933    20.589052    21.325477    7674.9379    2512.1087    1855.8069    1079.8676   -368.11994     785.9794    294.78153   -3441.1491 
 9290000    217.07933   -4034.8586    -3662.792   -4034.8586            0    3281.3742    17.484858    20.594854    21.331486    7681.4276     3665.605     2899.485    3279.0326   -980.50935   -80.407666    750.57561   -3295.1936 
 9291000     223.6791   -4028.1018   -3644.7234   -4028.1018            0    3353.7353    17.481485    20.590881    21.327371    7676.9831    1885.1627    2158.6532    6017.3901   -490.58677    445.00937   -760.44617   -3269.2361 
 9292000     231.5138   -4053.6929   -3656.8862   -4053.6929            0    2897.6543    17.516998     20.63271    21.370697    7723.8642    2145.1305    2844.0968    3703.7355   -67.385659    45.961044    -223.2456    -3330.481 
 9293000    229.22048   -4028.9876   -3636.1115   -4028.9876            0     2012.992    17.549901    20.671465    21.410838    7767.4697    1743.2087    3101.0708    1194.6965    160.26388     170.5749     410.4286   -3408.0786 
 9294000    229.16225   -4043.1842    -3650.408   -4043.1842            0    3709.8897    17.447116    20.550399    21.285441    7631.7928    2633.0332    4609.0398     3887.596   -146.33144   -271.33988   -597.54505   -3237.4903 
 9295000    219.59542   -4070.4027   -3694.0236   -4070.4027            0    3300.0148    17.449623    20.553351    21.288499    7635.0825    3480.1321     1698.734    4721.1782   -1522.2605   -2134.3462    191.24438   -3326.5675 
 9296000    226.80022   -4023.5565   -3634.8287   -4023.5565            0    3625.3555    17.482963    20.592621    21.329174      7678.93    2557.1805    2994.6556    5324.2303   -435.35888   -242.56834     614.8429   -3228.8276 
 9297000    220.17865   -4041.3656   -3663.9869   -4041.3656            0    1748.7395    17.517101    20.632832    21.370823     7724.001    1295.3872    2312.1966    1638.6347    314.53234   -143.14972    1662.8783   -3466.9973 
 9298000    232.98279   -4032.8665    -3633.542   -4032.8665            0    2597.4537    17.519744    20.635944    21.374046    7727.4967    2195.1714    1786.3587     3810.831   -1921.4536   -752.72724    23.063562   -3340.8152 
 9299000    230.63449   -4024.4084   -3629.1088   -4024.4084            0    2787.2941    17.476291    20.584763    21.321035    7670.1424    2738.0915    2482.6632    3141.1277    670.63494    1441.7561    747.62344   -3317.3188 
 9300000    224.59349   -4034.2703   -3649.3247   -4034.2703            0    2344.7347    17.399384    20.494177    21.227208    7569.3265    1321.8481    2551.8097    3160.5463   -133.68286    736.66096   -425.65156   -3390.4874 
 9301000    230.38913   -4025.0177   -3630.1387   -4025.0177            0    1525.6629    17.552641    20.674692    21.414181    7771.1087    2280.4931    2535.9439   -239.44835    404.65476   -1296.5316   -182.93437   -3457.2297 
 9302000    225.92957   -4046.9293   -3659.6937   -4046.9293            0    4136.9417    17.461111    20.566883    21.302515    7650.1724    3410.7117    5141.9301    3858.1833     330.8601     442.0641   -26.191136   -3198.1355 
 9303000    223.57692    -4042.119   -3658.9158    -4042.119            0    3102.5387    17.448145     20.55161    21.286696    7633.1422     2495.086    3889.4161    2923.1141    328.86768    852.82428    569.80819   -3313.5364 
 9304000    224.99024   -4001.5387   -3615.9131   -4001.5387            0    2873.6496    17.478472    20.587332    21.323695    7673.0143    1607.8546    5223.4671    1789.6271   -254.89134    942.12394    489.66474    -3294.343 
 9305000    225.09188   -4023.8366   -3638.0369   -4023.8366            0    1246.1526    17.508133    20.622268    21.359881    7712.1435   -491.11544    3645.4751    584.09802   -1107.5349   -57.755863    1963.5165   -3497.8775 
 9306000    224.43713     -3999.15   -3614.4724     -3999.15            0    2772.2816    17.473757    20.581778    21.317943    7666.8059    2574.4041    3775.9199    1966.5207   -304.54532    1726.7491    1579.6358   -3304.4967 
 9307000    228.57237    -4028.071   -3636.3058    -4028.071            0    2796.9327    17.495267    20.607114    21.344185    7695.1544    3607.2419    2097.2729    2686.2831   -598.54846    1534.6472   -588.51589   -3322.4174 
 9308000    218.06055   -4005.3072   -3631.5588   -4005.3072            0    2595.1654    17.463019     20.56913    21.304843    7652.6808    2121.4487    3091.1119    2572.9357    -239.2276   -216.81986   -433.73624   -3341.9215 
 9309000    235.30756   -4037.1806   -3633.8715   -4037.1806            0    2551.2792    17.489427    20.600235     21.33706    7687.4507    2336.7499    3751.6416     1565.446   -2389.9219    1510.3885   -430.45268   -3347.8384 
 9310000    223.77701   -4056.4979   -3672.9518   -4056.4979            0    2241.9288    17.508393    20.622574    21.360198    7712.4865    2720.7752     2090.619    1914.3923    -327.5301     241.0414    -1190.153   -3420.7825 
 9311000    228.19548   -4034.0712   -3642.9519   -4034.0712            0    684.16548    17.566768    20.691332    21.431416    7789.8872    1737.1661   -206.03454     521.3649   -305.45727    767.16964    15.006262   -3565.2256 
 9312000    223.78457   -4006.7192   -3623.1601   -4006.7192            0     1935.572    17.472688    20.580519    21.316639    7665.3989    1627.9519    2382.4769    1796.2873    33.318136    1234.3832    1054.0034   -3406.7787 
 9313000    240.08948   -4015.5169   -3604.0117   -4015.5169            0    1823.5294    17.470982    20.578509    21.314558    7663.1542    791.72263    2633.6536    2045.2118   -982.50279     850.0859    1193.6909   -3400.2155 
 9314000    237.20627   -4052.7753   -3646.2119   -4052.7753            0    4093.9046    17.450967    20.554934    21.290139    7636.8464    4610.6984    4412.1595    3258.8558    603.35554   -457.07699   -99.346412    -3190.251 
 9315000    215.26282   -4043.3116   -3674.3585   -4043.3116            0    2760.3609    17.484742    20.594717    21.331345    7681.2746      2962.18    2224.2539    3094.6488    251.23812    6.1344068   -930.90447   -3365.1332 
 9316000    241.40823   -4013.6094    -3599.844   -4013.6094            0    2596.6275    17.489733    20.600595    21.337433     7687.854    3313.4243    2802.9068    1673.5514   -1570.9055    1506.1029    -568.0351   -3308.7115 
 9317000    217.48137   -4038.8509   -3666.0953   -4038.8509            0    3188.4876    17.418022     20.51613    21.249947     7593.677     4156.601    2519.3576    2889.5043    539.26091    212.52467   -552.11782   -3312.9831 
 9318000     220.2595   -4016.1741   -3638.6569   -4016.1741            0    1522.3678    17.485938    20.596125    21.332803    7682.8502    1177.6305    2887.6148    501.85818   -442.57264    572.72519   -689.69003   -3468.0809 
 9319000    214.23979   -4036.4882   -3669.2886   -4036.4882            0    3030.3738    17.365795    20.454613     21.18623    7525.5736    3144.3786    4307.2733    1639.4695     1239.847    797.72014    69.571305   -3336.6967 
 9320000       224.31   -4013.9628   -3629.5031   -4013.9628            0    3217.9841    17.377121    20.467953    21.200047    7540.3076      2673.64    4190.5973    2789.7151    1411.7442    958.50274   -881.39953    -3275.629 
 9321000    221.97066   -4011.0201     -3630.57   -4011.0201            0    3451.8751    17.440243    20.542303    21.277056     7622.777    3697.9573    3691.8971     2965.771    -352.6216     1642.934   -1665.5197   -3246.8237 
 9322000    239.89191   -3983.8204   -3572.6539   -3983.8204            0    2352.5393    17.487498    20.597962    21.334706    7684.9068    1580.2344    4157.3507    1320.0329   -593.84137    617.91447   -798.58158   -3308.9895 
 9323000    219.38542   -4028.1932   -3652.1741   -4028.1932            0    2937.1248    17.428378    20.528328    21.262581    7607.2297     4044.538    2274.9777    2491.8586   -276.17954   -678.26241    89.056052   -3326.3188 
 9324000    222.93613   -4018.0979    -3635.993   -4018.0979            0    2731.1243    17.437067    20.538562    21.273181    7618.6133    3067.0941    2384.6304    2741.6484    101.79722    80.344671    31.807348   -3332.5387 
 9325000     229.3833    -4011.852   -3618.6968    -4011.852            0    3135.0668    17.416902     20.51481    21.248579    7592.2114    2184.5021    4114.0653     3106.633   -473.40846   -341.65822    862.97097   -3271.5678 
 9326000    214.72762   -3995.6414   -3627.6056   -3995.6414            0     3087.481    17.452894    20.557204     21.29249    7639.3774    3880.7201    2391.2132    2990.5096   -243.93431    -773.8699    1466.3869   -3283.6217 
 9327000    230.68892   -4046.0798   -3650.6869   -4046.0798            0    2244.8347     17.42402    20.523194    21.257263    7601.5238    3231.3729    1805.4144    1697.7167    525.03947   -255.29912     775.6237   -3401.8236 
 9328000    227.85599   -3972.0664    -3581.529   -3972.0664            0    3436.2658     17.39156    20.484961    21.217663    7559.1196    4094.8966    1797.6508    4416.2501   -1873.1949   -73.471585    391.88959   -3202.7081 
 9329000      224.753   -4007.4821   -3622.2632   -4007.4821            0    3312.6964    17.410324    20.507062    21.240554    7583.6123    3649.0606    3142.3386    3146.6902    1456.0785    1087.3464   -385.93247   -3255.8816 
 9330000    239.14063   -3991.8335   -3581.9546   -3991.8335            0    433.06852    17.502644    20.615802    21.353184    7704.8919    177.37746    7.8162629    1114.0118   -294.59995   -387.20534   -284.19503   -3533.2916 
 9331000    223.20931   -4007.7606   -3625.1875   -4007.7606            0    2504.5229    17.434222    20.535211    21.269711    7614.8846    1291.6834    2451.0517    3770.8336   -64.533983    224.46571    231.83542    -3347.047 
 9332000    233.52252    -4048.565   -3648.3154    -4048.565            0    4613.9661    17.377878    20.468844     21.20097    7541.2925    4295.6556    4198.6466     5347.596    495.69194   -342.68467   -897.12782   -3140.8621 
 9333000    223.94075   -4041.8604   -3658.0336   -4041.8604            0    3372.9507    17.399696    20.494544    21.227589    7569.7337    2807.4892    2961.0552    4350.3077    1372.1598   -359.36151    178.15982   -3285.6706 
 9334000    233.66713   -3996.4679   -3595.9704   -3996.4679            0    3679.4151    17.341951    20.426528     21.15714    7494.6178    3070.0375    4241.9629     3726.245    747.03853    796.05387    1636.4478   -3193.8055 
 9335000     214.0437   -4003.6565   -3636.7929   -4003.6565            0    3773.2576    17.439548    20.541484    21.276208    7621.8655    2632.7222    4590.9921    4096.0585   -358.73545    1360.5073   -470.29181   -3217.3685 
 9336000    237.09112   -4037.3785   -3631.0124   -4037.3785            0    4337.6856    17.335506    20.418936    21.149277    7486.2645    4053.1781    2413.0368    6546.8419    552.27365    360.65046   -753.90129   -3157.4261 
 9337000    218.95802   -4025.0584   -3649.7718   -4025.0584            0    2684.0758    17.400169    20.495101    21.228165    7570.3504    2984.0979    1829.8381    3238.2913   -618.21732    1004.4716   -404.90395   -3353.4343 
 9338000    226.80488   -3997.5054   -3608.7696   -3997.5054            0     2637.658    17.411082    20.507955    21.241479    7584.6033    1966.5308     2848.251     3098.192    -425.0984   -144.07702    49.215105   -3317.0086 
 9339000    217.64134   -4041.4792   -3668.4494   -4041.4792            0    4224.6754    17.375723    20.466306    21.198341    7538.4874    4034.0369    3194.1584    5445.8309    224.18804    296.64503   -1160.0577   -3203.9839 
 9340000    223.48102   -4009.4187   -3626.3799   -4009.4187            0    5932.6057    17.349876    20.435862    21.166808    7504.8966    4625.6496    5361.9753    7810.1923   -255.51278   -1344.2904    277.72081    -2977.049 
 9341000    213.99969   -4028.6071   -3661.8189   -4028.6071            0     3589.263    17.365514    20.454282    21.185887    7525.2083    4686.8934    1444.4389    4636.4567   -449.63753    532.24942    -1482.879   -3267.9065 
 9342000    228.90572   -4005.4645   -3613.1279   -4005.4645            0    2805.8226    17.411754    20.508746    21.242299    7585.4817    2549.6174    3778.5071    2089.3432   -801.93439   -532.59714   -924.82588   -3302.7297 
 9343000    215.33343   -4026.1255   -3657.0513   -4026.1255            0    2976.8792    17.386658    20.479187    21.211682    7552.7296    3546.2696    3389.7605    1994.6075     106.5771   -1308.5502    441.06536   -3329.1516 
 9344000    216.64806   -4017.4933   -3646.1659   -4017.4933            0    1003.5014    17.401923    20.497166    21.230305    7572.6395    1115.1258    -480.5919    2375.9703   -764.31963    244.30226    637.79866     -3535.34 
 9345000    223.05379   -4042.3914   -3660.0848   -4042.3914            0    4282.8479    17.362126    20.450291    21.181754    7520.8049    4277.2438    4851.0931    3720.2067   -178.35229   -262.31436    374.31761   -3190.3283 
 9346000    224.77852   -4000.6914   -3615.4287   -4000.6914            0    1368.4391    17.513552    20.628651    21.366492    7719.3064    1982.5502    1312.3243    810.44264    509.27534    940.58136   -577.09102   -3461.3724 
 9347000     232.4065   -4029.7288    -3631.392   -4029.7288            0    2820.3593    17.424569     20.52384    21.257933    7602.2421    3470.0324    1454.1158    3536.9297   -1712.4478    649.19894   -1169.1938   -3318.6962 
 9348000    207.51564   -4009.3009   -3653.6262   -4009.3009            0    1635.0205    17.420892    20.519509    21.253447    7597.4303    2107.5496    898.86558    1898.6463    1350.4446   -131.09876   -1364.5811   -3472.4647 
 9349000    229.25736   -4032.5094   -3639.5702   -4032.5094            0    1390.5649    17.432037    20.532636    21.267044    7612.0209    864.78119    202.08406    3104.8293   -337.81305    422.07254   -168.12268   -3485.1987 
 9350000    225.99928   -4032.5184   -3645.1634   -4032.5184            0    3790.2189    17.402291      20.4976    21.230754    7573.1204    4882.1083    1762.8179    4725.7304    159.06248   -28.840432    139.97452   -3226.5482 
 9351000    221.22394   -4049.2117   -3670.0414   -4049.2117            0    2834.8882    17.364617    20.453225    21.184792    7524.0424    2469.7964    2739.3631    3295.5051   -500.67754    50.767709    699.88585   -3358.9679 
 9352000    228.07139   -4005.5885   -3614.6819   -4005.5885            0    3336.6311    17.457498    20.562626    21.298106    7645.4237    4239.0498     2981.654    2789.1896    143.51757   -431.43863   -44.109166   -3242.6453 
 9353000    226.61978   -4014.4769   -3626.0583   -4014.4769            0    1921.4366    17.476912    20.585494    21.321792    7670.9598    1820.4493    1222.4921    2721.3682   -406.61194   -189.22023    902.28163   -3411.1013 
 9354000    219.43918    -4006.418   -3630.3068    -4006.418            0    2832.8482     17.39089    20.484171    21.216845    7558.2457    2612.6774    1700.3976    4185.4696    -4.469438   -287.64495    590.63328    -3318.044 
 9355000    228.76882   -3997.1707   -3605.0687   -3997.1707            0    1876.2289    17.456834    20.561845    21.297297     7644.552    1848.8398    1723.4332    2056.4138   -1963.0428    2277.7004   -540.82042   -3395.8918 
 9356000     216.8293   -4028.3214   -3656.6834   -4028.3214            0    1794.7374    17.437551    20.539132    21.273772    7619.2473    2060.9586   -192.03293    3515.2864     925.8334    1727.3887    1062.8735   -3457.2541 
 9357000    211.10784   -4005.3048   -3643.4732   -4005.3048            0    4546.3807    17.448578    20.552121    21.287225    7633.7113    4248.9567     5462.854    3927.3314   -875.94755    155.70876    419.35553   -3137.3253 
 9358000    217.46432   -4012.9669   -3640.2405   -4012.9669            0    4198.0282    17.417447    20.515452    21.249244    7592.9243    4440.0281    4669.6739    3484.3825   -199.45335    193.24251    592.95602   -3175.3718 
 9359000    223.09912    -4038.116   -3655.7317    -4038.116            0     3768.853    17.385088    20.477337    21.209766     7550.683    2823.8108      4484.07    3998.6782    -1190.637    295.76822    901.14417   -3240.7095 
 9360000    225.82811     -4039.65   -3652.5883     -4039.65            0    2924.3367    17.454642    20.559263    21.294623    7641.6728    2347.7958    3564.5203    2860.6941     334.8559    1591.4076    670.56989   -3326.6828 
 9361000    233.34847   -4039.4109   -3639.4596   -4039.4109            0    3231.8538    17.456075    20.560951    21.296371    7643.5554    1754.5857    3194.8346     4746.141     670.7306    727.83425    1056.0027   -3279.1939 
 9362000     217.0438   -4004.0368   -3632.0311   -4004.0368            0    2478.1731    17.449082    20.552714     21.28784    7634.3727    2656.4054    3169.7255    1608.3884    414.28548   -1268.3597   -2016.4279   -3356.1126 
 9363000    223.96517   -4025.0164   -3641.1478   -4025.0164            0    3288.8488    17.390237    20.483402    21.216048     7557.394    3069.6135    3620.1399     3176.793    681.15969    460.41783    -416.6482   -3278.6612 
 9364000    230.33175   -4006.0401   -3611.2594   -4006.0401            0    2613.1565    17.445697    20.548727     21.28371    7629.9305     1507.204    3354.4267    2977.8387   -622.23839   -1171.3076   -138.18424   -3320.4812 
 9365000    232.53355   -4015.0913   -3616.5368   -4015.0913            0    2780.6754    17.460031     20.56561    21.301197    7648.7523    1985.7498    2704.4793    3651.7971    1498.1704   -785.91981   -525.07659   -3306.3547 
 9366000    211.32271   -4017.5367   -3655.3368   -4017.5367            0      3111.57    17.439822    20.541806    21.276542     7622.224    3192.6823    2725.0295    3416.9983    900.73877   -407.73199   -370.71824   -3309.4474 
 9367000    213.24201   -4041.6852   -3676.1957   -4041.6852            0     3541.145    17.349153     20.43501    21.165926    7503.9582    4090.0383    3219.1073    3314.2895   -160.01685    1039.6564   -1389.4873   -3288.6615 
 9368000    219.66486     -4024.24    -3647.742     -4024.24            0    3885.0709    17.401243    20.496366    21.229476     7571.753     2369.216    4639.5426    4646.4541   -937.54776    1163.6219    1326.1464   -3218.7282 
 9369000    227.82312   -4002.1465   -3611.6654   -4002.1465            0    3566.7554    17.394975    20.488983    21.221829    7563.5737    2455.4348    3418.4754    4826.3561    1193.7904    1089.0045    362.60225   -3218.2275 
 9370000    232.45007   -4043.1221   -3644.7107   -4043.1221            0    5356.5629      17.3602    20.448023    21.179404    7518.3025    4230.3283    4525.2178    7314.1425   -580.36815    -630.2527    -398.9656   -3057.3811 
 9371000    218.31957   -4015.1821   -3640.9899   -4015.1821            0    2647.4569    17.400674    20.495696    21.228782    7571.0097    3064.6973    2498.9135    2378.7599   -700.36106    149.79234   -623.22723   -3348.6698 
 9372000    226.57612   -3989.3922   -3601.0485   -3989.3922            0    1958.8848    17.447891    20.551311    21.286386    7632.8092    1969.5979    3203.9732    703.08314   -1543.0716    193.46225    -394.6613   -3382.9919 
 9373000    222.47348   -4039.1038   -3657.7919   -4039.1038            0    1885.6132    17.413886    20.511258    21.244901    7588.2689    1192.7324    1724.9706    2739.1366    695.89431     250.0831   -84.885706   -3449.1165 
 9374000    236.94049   -4025.1556   -3619.0477   -4025.1556            0    3085.2912    17.461783    20.567673    21.303334     7651.055    3572.0609    1079.8679    4603.9449    157.17827   -936.06933    5.7699643   -3274.7823 
 9375000    241.70441   -4006.2522   -3591.9791   -4006.2522            0    1305.9476     17.53814    20.657612     21.39649    7751.8647    1582.6245    1119.4045    1215.8137   -820.92061    -8.736839    129.83415   -3444.3378 
 9376000    240.16243   -4038.8594   -3627.2292   -4038.8594            0    4153.0463    17.411089    20.507963    21.241488    7584.6121    3997.3003    2191.5459    6270.2928    206.52633    83.444905    78.380314    -3167.845 
 9377000    225.16068   -4014.4728   -3628.5551   -4014.4728            0    1959.8373    17.481114    20.590443    21.326918    7676.4932    3191.1463    2360.5283    327.83749   -794.99336    1231.4624   -484.62309   -3409.1439 
 9378000    230.00349   -4020.9975   -3626.7794   -4020.9975            0     2874.559    17.500915    20.613766    21.351076    7702.6093    1483.1319    3348.1944    3792.3505   -239.63836   -85.456137   -90.838109   -3303.8668 
 9379000    227.18245   -3989.2965   -3599.9136   -3989.2965            0    2947.6043    17.493358    20.604865    21.341856    7692.6358    3920.7685    2412.8023     2509.242    211.77014   -382.40597     967.2133   -3269.2242 
 9380000    233.87015   -4068.8879   -3668.0425   -4068.8879            0    3402.1598    17.492736    20.604133    21.341097    7691.8151    715.21036    5174.2778    4316.9912   -276.64745   -875.25462    241.31293   -3286.3976 
 9381000    222.25592   -4039.4146   -3658.4755   -4039.4146            0    3182.4748    17.426543    20.526166    21.260342    7604.8268    2956.6121    2948.1663     3642.646    131.70289    57.833036    256.26369   -3305.5117 
 9382000    215.71893   -3972.7618   -3603.0269   -3972.7618            0    2941.1107    17.481419    20.590802     21.32729    7676.8954    3412.0407    2816.9577    2594.3338    309.87752   -273.30571   -265.49744   -3273.7412 
 9383000    215.12323   -4002.6446   -3633.9308   -4002.6446            0    2164.9298    17.454582    20.559192    21.294549    7641.5936    1546.5274    738.38271    4209.8793    1065.6287   -1953.4463     1337.872   -3392.6606 
 9384000    216.21094   -4034.9441    -3664.366   -4034.9441            0    2812.3179    17.453246    20.557618    21.292919    7639.8388     1441.853    3805.4148    3189.6858    1018.8932   -241.18222    609.71499   -3351.0198 
 9385000    220.73069   -4059.2248   -3680.8999   -4059.2248            0    1655.5935    17.444167    20.546924    21.281842    7627.9223    566.56912    2350.3605     2049.851   -144.31939    111.35715   -434.31568   -3496.7227 
 9386000    218.01251   -4001.0383   -3627.3723   -4001.0383            0    3762.2763    17.452581    20.556836    21.292109    7638.9666    2842.4707    4196.2218    4248.1364   -325.19676   -398.20718    323.31357   -3208.2303 
 9387000    216.69007   -4014.3145   -3642.9152   -4014.3145            0    3533.1918    17.384129    20.476207    21.208596    7549.4335    4197.8136    1941.0695    4460.6922    -843.4582     -274.381   -819.62469   -3253.9081 
 9388000    221.48523   -4003.0455   -3623.4274   -4003.0455            0     3560.285    17.398214    20.492798    21.225781    7567.7993    3697.1214    3809.9383    3173.7952   -1393.7035    1394.6968    478.85812   -3230.4837 
 9389000    206.75136   -4022.3912   -3668.0264   -4022.3912            0    2106.6871    17.456766    20.561765    21.297214    7644.4631    2109.9967    1945.4271    2264.6376     458.3237   -674.17144   -571.58802   -3433.1589 
 9390000    221.82856   -4013.1035   -3632.8969   -4013.1035            0    2845.2749    17.440082    20.542113    21.276859     7622.565    2790.4415    1304.0097    4441.3736   -389.12462    1164.8836    1322.7341   -3316.5954 
 9391000    216.08529   -4022.2084   -3651.8456   -4022.2084            0    3861.1786    17.420485     20.51903    21.252951    7596.8981    4800.1067    3024.4775    3758.9515   -356.56112    730.66609    -594.2406   -3224.0542 
 9392000    212.88475   -4007.7184   -3642.8413   -4007.7184            0     3415.468    17.462691    20.568744    21.304443    7652.2497    2664.0502     1893.241    5689.1127   -172.11971     415.0428   -171.01116   -3261.6743 
 9393000    214.05296   -4026.8991   -3660.0196   -4026.8991            0    2193.5614    17.462773     20.56884    21.304543    7652.3574    2603.3702    1659.6856    2317.6282   -330.25356    576.40976   -967.67707   -3415.2143 
 9394000    232.28072   -4035.5554   -3637.4342   -4035.5554            0    3785.0291    17.380598    20.472049    21.204289    7544.8351    4625.8562    3236.5093    3492.7218   -79.252039    816.14738    733.75753   -3220.9535 
 9395000    231.19434   -4007.0048   -3610.7456   -4007.0048            0    3043.8785    17.489124    20.599878    21.336691    7687.0514    2362.5868    3278.7077    3490.3409   -207.97634   -450.06793    569.86378   -3269.5032 
 9396000    228.94485    -4026.753   -3634.3494    -4026.753            0    3623.1586    17.389413    20.482431    21.215043      7556.32    2525.2293    4154.0089    4190.2374    339.60741    245.26218    295.39973   -3235.0731 
 9397000     222.5578   -4044.9522   -3663.4958   -4044.9522            0    2879.9953    17.377605    20.468523    21.200637    7540.9376    3578.9535    1455.1225    3605.9099    884.02522   -230.02541   -865.85166    -3346.763 
 9398000    218.65289   -4046.9838   -3672.2202   -4046.9838            0    1734.4876    17.474725    20.582917    21.319123    7668.0794    2414.7069    3262.3872   -473.63122    305.11225    1003.6257   -217.76618   -3478.2506 
 9399000    229.51927   -3991.6236   -3598.2354   -3991.6236            0    2510.7649    17.500995     20.61386    21.351172    7702.7141    3489.0804    1543.9634    2499.2511   -17.729294   -33.665776   -284.41421   -3316.1856 
 9400000    218.01412   -4005.3361   -3631.6674   -4005.3361            0    2870.7104    17.437956    20.539609    21.274265    7619.7779     3132.389    3432.9206    2046.8218   -70.323456   -710.62231   -1089.0176   -3312.6549 
 9401000    228.53871   -4001.0459   -3609.3384   -4001.0459            0    1837.8615    17.464746    20.571164    21.306949    7654.9508    380.97901    1705.4058    3427.1999   -284.26811    341.66229     1332.774   -3404.1603 
 9402000    222.00328   -4027.4966   -3646.9906   -4027.4966            0    2345.1999    17.450046    20.553849    21.289015    7635.6377    2149.7933    2246.1003     2639.706   -66.762497    201.60171   -213.25206    -3385.834 
 9403000    223.04644   -3995.4938   -3613.1999   -3995.4938            0    1828.5018    17.434797    20.535888    21.270412    7615.6382    2372.4553    1823.9039    1289.1463   -1975.7822   -7.2948366    2275.9863    -3410.115 
 9404000    216.67359   -4013.1595   -3641.7883   -4013.1595            0     2815.254    17.483294    20.593011    21.329578    7679.3663    3645.0672    651.26888    4149.4259     -192.291   -129.62776   -236.21137   -3326.4921 
 9405000      228.379   -4022.0645   -3630.6307   -4022.0645            0    4774.9544    17.425251    20.524643    21.258765    7603.1346    5662.5406    5112.1004    3550.2222    683.44463   -16.781705    608.45313    -3101.165 
 9406000    216.09059   -4035.9326   -3665.5607   -4035.9326            0    2598.4296    17.469882    20.577213    21.313215    7661.7063    2607.1203    3174.0865     2014.082    1494.0405   -810.31983   -251.68213    -3375.217 
 9407000    209.68371   -4003.9831   -3644.5925   -4003.9831            0    1246.3454    17.541728    20.661838    21.400867    7756.6232    1085.6605    1388.5836    1264.7921   -173.50022    883.90523   -191.31163   -3503.6029 
 9408000    228.41465    -4042.455   -3650.9601    -4042.455            0    1644.6486    17.530556    20.648679    21.387237    7741.8122    308.20294    2643.5666    1982.1763    1551.1624   -885.50698    186.02515   -3465.2688 
 9409000    234.31856   -4041.2891   -3639.6751   -4041.2891            0    3980.8684    17.448284    20.551774    21.286866    7633.3251     4514.999    3040.8452     4386.761    655.21246    35.150157   -1009.6507   -3196.5081 
 9410000    230.13806   -3994.6555   -3600.2067   -3994.6555            0    3034.2589    17.483067    20.592744    21.329301     7679.067     3387.527    2412.5467    3302.7031   -278.84781    343.01216    657.08989   -3260.3961 
 9411000    212.37787   -4012.7818   -3648.7734   -4012.7818            0    2730.5323    17.516639    20.632288    21.370259    7723.3899    1846.3955    3172.2505     3172.951   -187.89523   -1268.5092   -660.69523   -3341.2125 
 9412000    221.04549   -4012.9498   -3634.0854   -4012.9498            0    791.58578    17.567548    20.692251    21.432367    7790.9249    48.331116    558.42427    1768.0019    1325.5719    841.82942    473.60402   -3544.1434 
 9413000    230.16848   -4021.2329    -3626.732   -4021.2329            0    3108.4524    17.531832    20.650182    21.388794    7743.5028    3786.6082    1783.2714    3755.4777   -501.94439    -706.1739   -34.708204   -3275.6912 
 9414000    217.13615   -4014.5893   -3642.4253   -4014.5893            0    2333.9105    17.593068    20.722311    21.463502    7824.9283    2106.8911    2594.8733    2299.9672    664.36968    196.94635    128.00199   -3376.0829 
 9415000    214.44759   -4000.3382   -3632.7823   -4000.3382            0    3130.9474    17.448518     20.55205    21.287151    7633.6323     3447.653    3184.2743    2760.9148    723.05655   -839.19883    1095.9719    -3284.218 
 9416000    235.58984   -4018.2454   -3614.4524   -4018.2454            0    4504.4268    17.468858    20.576008    21.311966    7660.3595    3657.9333    5016.8989    4838.4481    69.591508    -389.5206    461.24729   -3111.2247 
 9417000    216.88636   -4035.8839   -3664.1481   -4035.8839            0     1938.929    17.523249    20.640073    21.378323    7732.1361    1790.5798    2427.4336    1598.7737    1339.8143   -79.330256   -1670.1914   -3445.5042 
 9418000    232.32461    -4000.426   -3602.2296    -4000.426            0    3243.0995    17.519743    20.635943    21.374046     7727.496    2038.9577    3195.7223    4494.6184   -34.738858     554.0117   -683.49829   -3236.7401 
 9419000    222.45488   -3982.8097   -3601.5296   -3982.8097            0    3347.5679    17.493002    20.604446    21.341422    7692.1657    4376.5867    3017.8335    2648.2835    447.84796   -553.36967    1757.6651   -3225.9916 
 9420000    223.87198   -4026.6763   -3642.9674   -4026.6763            0    5138.5793    17.481164    20.590502    21.326979    7676.5593    3308.1357    5420.0134    6687.5888    19.030149    407.12988   -100.71811   -3067.6791 
 9421000    219.84357   -4016.5423   -3639.7379   -4016.5423            0    3060.6263     17.54924    20.670687    21.410032    7766.5929    4711.2621    777.21349    3693.4033    473.75752   -149.30639   -631.07932   -3293.0675 
 9422000    218.98879   -4021.7413    -3646.402   -4021.7413            0    4083.2845     17.54934    20.670805    21.410154    7766.7257    3926.0094    3950.5842      4373.26    1403.3987    532.45212    -486.4679   -3183.8895 
 9423000    225.65612   -4033.6742   -3646.9073   -4033.6742            0    4240.4687    17.507889     20.62198    21.359583    7711.8208    5737.1906     3398.813    3585.4026    -301.1514    449.53337    195.84847    -3169.986 
 9424000    221.68084   -4030.5786   -3650.6253   -4030.5786            0    3339.6843    17.591021    20.719899    21.461005    7822.1968    2582.5241    3139.2479    4297.2811   -454.92374    377.78533   -1048.0925   -3269.6384 
 9425000    229.55283    -4001.595   -3608.1493    -4001.595            0    3174.5764    17.555321     20.67785    21.417451    7774.6698    3606.7909    4266.0546    1650.8838    391.14698    2032.1004    164.37341   -3248.1981 
 9426000    219.87329    -4011.679   -3634.8237    -4011.679            0    2938.3758    17.531935    20.650304     21.38892    7743.6398    3373.2876    2828.0047    2613.8351   -654.48346   -242.32977   -97.385456    -3302.984 
 9427000    222.35105   -3980.3704   -3599.2683   -3980.3704            0    2624.4961    17.643668    20.781911    21.525234     7892.639    2864.9825    3160.2577     1848.248    14.706722   -75.582576   -725.74913    -3297.173 
 9428000    232.17673   -4015.0853   -3617.1423   -4015.0853            0    2270.8444    17.619614    20.753578    21.495888    7860.4019    2254.5089    3182.4757    1375.5488    308.75695    802.52613    1984.8809    -3356.822 
 9429000    223.87608   -4014.3003   -3630.5843   -4014.3003            0    683.08123      17.6267    20.761924    21.504532    7869.8888    1417.8631   -220.26674    851.64729    82.449259   -784.01983    765.30788   -3552.1842 
 9430000    228.58776   -4027.5326    -3635.741   -4027.5326            0    1963.5884    17.551989    20.673924    21.413385    7770.2427    1079.5905    2341.0841    2470.0907    856.78608    -963.9345     703.2484   -3413.2252 
 9431000    227.91616   -4032.2627   -3641.6222   -4032.2627            0    1337.3328    17.656256    20.796738    21.540592    7909.5445    342.80553    1628.8276    2040.3653    534.39976    12.119825    381.21408   -3487.3574 
 9432000      233.901   -4015.8351   -3614.9368   -4015.8351            0    2357.6838    17.582851    20.710275    21.451037    7811.3023     497.8665    3361.9098    3213.2752    557.11386   -93.943138    1495.2673   -3346.3498 
 9433000    221.22375    -4044.815   -3665.6451    -4044.815            0    3686.5601    17.609117    20.741214    21.483081    7846.3615    5148.8793    3571.3876    2339.4134    1315.6605   -676.97547   -696.76928   -3243.7878 
 9434000    212.96767   -4033.0147   -3667.9954   -4033.0147            0    2284.7458     17.62912    20.764775    21.507485     7873.131      3073.13     3122.806    658.30146   -131.08001   -312.80143    626.99496   -3405.6574 
 9435000     229.0926   -4013.1174   -3620.4605   -4013.1174            0    3431.5602    17.554149    20.676468     21.41602    7773.1115    1206.6335    4686.1423    4401.9048   -983.95198   -1597.2985   -576.49951   -3231.4491 
 9436000    232.40966   -4016.3709   -3618.0287   -4016.3709            0    3349.6789    17.610853    20.743259      21.4852    7848.6832     2989.812    4101.8499    2957.3749    33.987418   -1389.6136   -323.31929   -3234.6077 
 9437000    216.28499   -4033.4916   -3662.7865   -4033.4916            0    3112.9143     17.57618    20.702418    21.442899    7802.4153    1139.3913    4773.5539    3425.7978    354.36283     775.8048   -466.66986   -3308.5673 
 9438000    228.55463   -4011.3423   -3619.6075   -4011.3423            0    3702.8193    17.547954    20.669172    21.408463    7764.8857     2617.517    4343.1649    4147.7759   -654.74315    158.32283     871.1352   -3200.2895 
 9439000    212.11744   -4026.8516   -3663.2896   -4026.8516            0    1195.4424    17.574386    20.700306     21.44071    7800.0267    1767.8493    608.84597     1209.632   -597.70741   -233.62532    255.26088   -3527.3016 
 9440000    240.26187    -4018.406   -3606.6053    -4018.406            0    2293.7417    17.593754    20.723118    21.464338    7825.8425    2667.6428    2058.1057    2155.4767   -586.07597    368.36017    484.57891   -3344.8163 
 9441000    227.65653   -4030.8121   -3640.6166   -4030.8121            0    1530.4426    17.576762    20.703104    21.443609    7803.1906    510.99401    1476.0949    2604.2388   -433.39047   -951.93908    589.00888   -3466.4499 
 9442000    218.35719   -3997.4965   -3623.2398   -3997.4965            0     4759.288    17.558396    20.681471    21.421202    7778.7548    5172.6535     4446.162    4659.0484    -132.7737    266.19021    140.01773   -3083.3216 
 9443000    233.42005   -4028.1185   -3628.0446   -4028.1185            0    2773.2021    17.639674    20.777206    21.520361    7887.2794    3374.1035    3368.9985    1576.5043    536.09508   -856.29939    898.17026    -3309.049 
 9444000    232.05101   -4003.9285    -3606.201   -4003.9285            0    2155.3539    17.536643    20.655849    21.394664    7749.8802    1079.3398    4031.9078    1354.8143   -69.122801   -498.44965   -285.57821   -3362.5941 
 9445000    228.53117   -4037.8236    -3646.129   -4037.8236            0    4256.1477    17.521012    20.637438    21.375593    7729.1749     3457.439    4507.9008    4803.1033   -832.71901   -1161.5242    591.31973   -3166.3672 
 9446000     219.7047   -4019.2633    -3642.697   -4019.2633            0    2222.7025     17.59229    20.721394    21.462553    7823.8901    651.55622    3972.4907    2044.0606   -308.50619   -720.50982   -511.48109    -3389.079 
 9447000    212.55128   -3999.3877   -3635.0821   -3999.3877            0    2849.9494    17.617453    20.751033    21.493252    7857.5104    3465.8957    2029.6087    3054.3437   -537.12594   -1247.8933   -411.95613   -3308.4958 
 9448000    228.54007   -4024.2773   -3632.5674   -4024.2773            0    1848.3417    17.583154    20.710633    21.451407    7811.7064    1984.5734    2907.2992     653.1525    521.82532   -201.53518    1444.3631   -3421.9937 
 9449000    233.83078   -4003.6406   -3602.8626   -4003.6406            0    2688.0726     17.53721    20.656517    21.395356    7750.6322    2770.7107    3193.0611    2100.4458   -598.36083   -268.28821    1008.9784   -3299.0163 
 9450000    225.62202    -4009.462   -3622.7536    -4009.462            0    1306.7097    17.508299    20.622464    21.360084    7712.3632    1764.0013    1288.5885    867.53927    284.22779   -968.34063   -548.90281   -3475.7789 
 9451000    223.87592   -4008.9376   -3625.2219   -4008.9376            0    1993.3338     17.54009    20.659909    21.398869    7754.4504    2159.9452    278.78522    3541.2708   -627.01383    266.48538   -280.03669   -3399.7944 
 9452000    222.54856   -4009.2581   -3627.8175   -4009.2581            0    2306.3561    17.534726    20.653591    21.392324    7747.3381      3685.75    1296.7602     1936.558    474.84641   -236.85267    -938.7399   -3367.2293 
 9453000    225.32988   -4049.8637    -3663.656   -4049.8637            0    3059.1756    17.453045    20.557382    21.292674    7639.5753    2207.2015    4353.0247    2617.3008   -981.24146    345.35006    558.51231   -3322.8169 
 9454000    212.62263   -4012.4207   -3647.9928   -4012.4207            0    3441.6248    17.458505    20.563813    21.299336    7646.7476     3147.169    5441.8773    1735.8281   -129.82787     143.8117    640.04517   -3264.1829 
 9455000    219.32564   -4041.6303   -3665.7137   -4041.6303            0    3123.3791    17.461108    20.566879    21.302511    7650.1687    2259.6909    4925.5934    2184.8528    112.64562   -849.46548   -710.47673   -3317.2387 
 9456000    221.77697   -4045.0731    -3664.955   -4045.0731            0    2922.6745    17.453849    20.558328    21.293655    7640.6308    3119.9162     3786.139    1861.9682    1032.9619    1673.3405    315.97613   -3339.2791 
 9457000    227.32131   -4047.5343   -3657.9133   -4047.5343            0    2421.9972    17.484637    20.594593    21.331217    7681.1362    2194.5587    2264.2067    2807.2262   -121.83197    95.676059    1624.1992   -3386.5976 
 9458000    228.73838   -4025.7748   -3633.7251   -4025.7748            0     4282.434      17.3911    20.484418    21.217101    7558.5191    4236.6544    4146.6664    4463.9813   -514.17918     339.0973   -107.61686   -3161.6585 
 9459000     217.8018    -4020.202   -3646.8972    -4020.202            0    2515.1822     17.48678    20.597117    21.333831    7683.9607    3084.4407    2952.4945    1508.6113    853.40316    566.37517     404.9657   -3365.0391 
 9460000    234.47002    -4024.457   -3622.5835    -4024.457            0    4118.1552    17.387145     20.47976    21.212276    7553.3634    3871.4509    3960.6123    4522.4025    1838.1783    1169.8472    1052.6704   -3168.9355 
 9461000    216.86704   -4021.0181   -3649.3155   -4021.0181            0    3248.6021    17.407496    20.503731    21.237105    7579.9183    3064.1545     5698.917    982.73472    2041.9404   -1255.8075   -732.53258   -3290.1977 
 9462000    230.87838   -4039.7998   -3644.0821   -4039.7998            0     2919.978    17.467525    20.574437     21.31034    7658.6057    3201.1985    2876.2939    2682.4416    374.20124   -369.42588    1145.0513   -3317.9413 
 9463000    234.11711   -4021.6504   -3620.3817   -4021.6504            0    2394.3024    17.451859    20.555985    21.291227    7638.0179    1008.8696    3227.2313    2946.8063    363.59401     79.00083   -613.67543   -3353.6739 
 9464000    225.77704   -4035.5464   -3648.5723   -4035.5464            0    2486.8902    17.435505    20.536722    21.271276    7616.5657    3385.4705    1389.7659    2685.4342    230.23493     949.1714    561.48533    -3372.329 
 9465000    212.01204   -4050.5403   -3687.1589   -4050.5403            0    2816.5893    17.394637    20.488585    21.221417    7563.1327    3238.2442    3204.3265    2007.1971   -1361.4942   -188.02458   -768.29125   -3376.4877 
 9466000    221.82745   -4022.0276   -3641.8229   -4022.0276            0    4564.3722    17.359331    20.446999    21.178344    7517.1733    4276.2165    6657.5684    2759.3316   -205.43379   -631.03999   -1859.7066   -3141.4296 
 9467000     226.6474   -4031.1117   -3642.6458   -4031.1117            0    3158.2899    17.414226    20.511658    21.245315    7588.7132    1885.2775    2328.2275    5261.3646    1140.5701    1037.5081   -32.204041   -3293.1065 
 9468000    229.76792   -4005.3672   -3611.5528   -4005.3672            0    1254.6275    17.463496    20.569692    21.305425    7653.3077    981.84485      634.936    2147.1017    856.63945   -1141.0983    286.50944   -3471.5168 
 9469000    231.41493   -3995.8241   -3599.1868   -3995.8241            0    2395.6912    17.445594    20.548605    21.283583    7629.7946    1121.7771    3197.6562    2867.6405    453.57334   -151.71544    209.20335   -3332.6117 
 9470000    225.28174    -4037.403   -3651.2778    -4037.403            0    2197.0242     17.45091    20.554866    21.290069    7636.7715    679.45881     2433.368    3478.2456   -557.20587   -520.22772    976.42131   -3406.5854 
 9471000     222.4786   -4020.5845   -3639.2638   -4020.5845            0    3385.6626    17.442298    20.544723    21.279563    7625.4716    3312.8549    3784.1536    3059.9793    646.95554   -413.21249    1230.7923   -3262.7454 
 9472000     214.6631   -4005.9638   -3638.0386   -4005.9638            0     2037.434    17.446037    20.549127    21.284124    7630.3759    721.30348     4036.419    1354.5794     1589.685     997.3751    511.88042   -3411.3105 
 9473000    214.52707   -4009.5878   -3641.8957   -4009.5878            0    3340.4798     17.44648    20.549649    21.284665    7630.9576    3930.6421    2795.2747    3295.5228    1136.9784   -1710.0245    405.89878   -3270.1348 
 9474000    223.34885   -4015.0016   -3632.1893   -4015.0016            0    1751.5873    17.469837    20.577161    21.313161    7661.6474     1560.866     2322.881     1371.015    305.64368   -43.840317   -136.40414   -3436.4717 
 9475000    221.41496   -4024.8669   -3645.3692   -4024.8669            0    2977.3197    17.389073    20.482031    21.214629    7555.8772    3481.3063    3906.3931    1544.2596    219.77893   -559.09977     445.5623   -3317.2843 
 9476000    238.50317   -4027.8007   -3619.0144   -4027.8007            0    3203.7313    17.488976    20.599703     21.33651    7686.8556     2424.996    4897.1647    2289.0331   -528.85242   -1436.6278    -147.9112   -3259.8604 
 9477000    235.44458   -3966.2023   -3562.6583   -3966.2023            0    1611.7145    17.465743    20.572338    21.308165    7656.2615    1500.6635    2007.9853    1326.4947    344.04346    64.558237   -454.19771   -3382.6964 
 9478000    234.19854   -3997.1199   -3595.7116   -3997.1199            0    1611.5669    17.494912    20.606695    21.343751    7694.6852    1317.7178     2529.756    987.22697    361.16541     485.3162   -256.70956   -3414.8631 
 9479000    232.46279   -4010.9208   -3612.4876   -4010.9208            0    1917.3393    17.504568    20.618069    21.355532    7707.4333    1877.7826    2558.2272    1316.0081    481.63959    731.54905    1065.5257    -3396.969 
 9480000    223.46518   -3954.1087   -3571.0971   -3954.1087            0    3519.3504    17.379131    20.470321      21.2025    7542.9249    4162.9106    4423.6402    1971.5003    163.13539   -1127.4511    -433.0546    -3183.948 
 9481000    226.09359   -3988.2682   -3600.7515   -3988.2682            0    184.87384    17.496964    20.609112    21.346255    7697.3931    190.37819   -488.77615     853.0195   -279.64814    533.64246    -546.5391   -3579.9978 
 9482000    226.52181   -3991.7918   -3603.5412   -3991.7918            0     2873.129    17.429594    20.529759    21.264063     7608.821     2326.869    3194.7828    3097.7354    21.652591   -37.974978    225.67135   -3284.7191 
 9483000    226.32021   -4016.6156   -3628.7105   -4016.6156            0    3475.5129    17.459528    20.565018    21.300583    7648.0916    4059.8326     4563.604    1803.1021    575.45581   -177.30991    -731.0429   -3241.0533 
 9484000    229.97206   -3992.2581   -3598.0938   -3992.2581            0    2088.1287    17.524492    20.641536    21.379839    7733.7812    2021.9505    2528.4103    1714.0254     1204.846    1264.8653   -744.01082   -3362.5753 
 9485000    215.98223   -3995.7109   -3625.5248   -3995.7109            0    4430.6236    17.424382     20.52362    21.257705    7601.9975    3153.2088     4686.621    5452.0409    123.60969    173.77217    -423.2492   -3134.3133 
 9486000     222.3477   -4002.8547   -3621.7584   -4002.8547            0    469.25809    17.547173    20.668252     21.40751    7763.8485   -1527.3054    602.44688    2332.6328    666.59084    745.52783   -278.55119   -3568.6253 
 9487000    234.75559   -4024.2899   -3621.9269   -4024.2899            0    2371.8685    17.486197    20.596431     21.33312    7683.1925    3035.1241     808.5042    3271.9773   -1391.2617   -2051.2045     801.1899   -3356.1555 
 9488000    228.82326   -4004.4737   -3612.2785   -4004.4737            0    4402.4523    17.527059    20.644561    21.382971     7737.181    4231.2306    4586.6376    4389.4886    1180.5043    1181.3146   -948.70335   -3115.5109 
 9489000    224.58792   -4008.5061   -3623.5701   -4008.5061            0     1774.468    17.452806      20.5571    21.292382    7639.2613    2630.3102    2544.2459    148.84793   -580.70864   -691.23443    101.07761   -3425.8752 
 9490000    216.65598   -3989.8916   -3618.5507   -3989.8916            0    1841.4733    17.562611    20.686436    21.426344    7784.3586    2465.8411    2398.6799    659.89898    760.12652    763.54858    588.94867    -3409.494 
 9491000    216.03591   -4026.9559   -3656.6778   -4026.9559            0    3518.3813    17.502531     20.61567    21.353047    7704.7429    3284.8792    3485.4633    3784.8015   -667.86126    430.82118    154.79749   -3261.3321 
 9492000    221.13653   -4009.6354   -3630.6149   -4009.6354            0    2981.0284    17.521613    20.638146    21.376327    7729.9712    4043.3192    3629.1522    1270.6136    1409.5128    819.53435   -809.72606   -3294.5526 
 9493000    229.60686   -3995.8078   -3602.2695   -3995.8078            0     1724.456    17.596941    20.726872    21.468227    7830.0962    906.18276    1361.7384    2905.4468    629.01103    330.18338     757.3814   -3405.3471 
 9494000    226.54806    -4006.074   -3617.7784    -4006.074            0     3912.373    17.476533    20.585047    21.321329    7670.4599    4448.4646     4363.929    2924.7253     1084.892    164.61351    249.23055   -3180.1177 
 9495000    231.21983   -3989.0157   -3592.7128   -3989.0157            0    3243.8793    17.447712      20.5511    21.286167    7632.5739    598.22828    3359.1951    5774.2146    1215.2427    529.13062    73.583687   -3231.6261 
 9496000    217.83779   -4014.4702   -3641.1037   -4014.4702            0    1830.6654    17.484246    20.594132    21.330739    7680.6202    2273.2038    479.03775    2739.7548   -682.89644     272.6609   -264.28763   -3436.0436 
 9497000    226.38062   -4040.6306    -3652.622   -4040.6306            0    2822.0656     17.43772    20.539331    21.273978    7619.4687    2999.9894    2014.3092    3451.8983   -1548.0967     1524.966    102.81478    -3339.028 
 9498000     248.7237   -4048.1523   -3621.8484   -4048.1523            0    1617.1076     17.52118    20.637636    21.375799     7729.398     1593.549    1378.7223    1879.0516    837.03706   -225.30469    240.07699   -3439.5594 
 9499000    218.30451   -4035.2291   -3661.0626   -4035.2291            0    3262.4496    17.491037    20.602132    21.339025    7689.5744    3689.2178    2253.4846    3844.6464    -1624.013    1090.2739    749.03171   -3295.1967 
 9500000     236.5208   -4022.8362   -3617.4476   -4022.8362            0    2142.1359    17.483518    20.593274    21.329851    7679.6608    1667.1935    2222.2883    2536.9258   -980.58203     250.8314    345.34145   -3377.5285 
Loop time of 398.063 on 64 procs for 250000 steps with 864 atoms

Performance: 108.525 ns/day, 0.221 hours/ns, 628.041 timesteps/s
192.6% CPU use with 32 MPI tasks x 2 OpenMP threads

MPI task timing breakdown:
Section |  min time  |  avg time  |  max time  |%varavg| %total
---------------------------------------------------------------
Pair    | 25.382     | 31.525     | 36.709     |  54.4 |  7.92
Bond    | 0.92969    | 1.0692     | 1.4395     |   9.5 |  0.27
Kspace  | 185.57     | 192.39     | 199.7      |  27.9 | 48.33
Neigh   | 2.8494     | 3.077      | 3.3054     |   8.9 |  0.77
Comm    | 70.647     | 75.933     | 80.388     |  27.4 | 19.08
Output  | 0.6246     | 0.62488    | 0.62649    |   0.0 |  0.16
Modify  | 73.04      | 74.849     | 78.12      |  13.4 | 18.80
Other   |            | 18.59      |            |       |  4.67

Nlocal:        27.0000 ave          34 max          19 min
Histogram: 2 1 0 2 8 5 7 3 3 1
Nghost:        2450.12 ave        2486 max        2419 min
Histogram: 5 3 2 2 3 9 2 1 4 1
Neighs:        8037.75 ave       11266 max        5055 min
Histogram: 2 1 2 5 7 6 5 2 1 1

Total # of neighbors = 257208
Ave neighs/atom = 297.69444
Ave special neighs/atom = 2.0000000
Neighbor list builds = 9380
Dangerous builds = 0

unfix		3
unfix		2
unfix		1

write_data	data.final.${pid}
write_data	data.final.1
System init for write_data ...
PPPM initialization ...
  extracting TIP4P info from pair style
  using 12-bit tables for long-range coulomb (../kspace.cpp:340)
  G vector (1/distance) = 0.37338956
  grid = 24 24 25
  stencil order = 5
  estimated absolute RMS force accuracy = 0.0031699846
  estimated relative force accuracy = 9.5463144e-06
  using double precision FFTW3
  3d grid and FFT values/proc = 3822 576
Last active /omp style is kspace_style pppm/tip4p/omp
WARNING: Not all mixed pair coeffs generated from mixing. Use write_data with 'pair ij' option to store all pair coeffs. (../write_data.cpp:312)

write_restart   restart.lmp.${pid}
write_restart   restart.lmp.1
System init for write_restart ...
PPPM initialization ...
  extracting TIP4P info from pair style
  using 12-bit tables for long-range coulomb (../kspace.cpp:340)
  G vector (1/distance) = 0.37338956
  grid = 24 24 25
  stencil order = 5
  estimated absolute RMS force accuracy = 0.0031699846
  estimated relative force accuracy = 9.5463144e-06
  using double precision FFTW3
  3d grid and FFT values/proc = 3822 576
Last active /omp style is kspace_style pppm/tip4p/omp
Total wall time: 0:06:38
