LAMMPS (30 Jul 2021)
Processor partition = 1
  using 4 OpenMP thread(s) per MPI task
using multi-threaded neighbor list subroutines
variable        pid world 0 1
variable        phase world IceVI IceV

shell cd ${phase}
shell cd IceV
include Restart.lmp
echo both
log log.lammps
#include		in.partitions
include		in.temp
variable        temperature equal 190.77
variable	tempDamp equal 100.0
include		in.pressure
variable        pressure equal 8337.1
variable        pressureDamp equal 1000.0 # This is 1 ps
include		in.seed
variable        seed equal 745823

units		real
atom_style	full
read_restart    restart.lmp.${pid}
read_restart    restart.lmp.1
Reading restart file ...
  restart file = 30 Jul 2021, LAMMPS = 30 Jul 2021
  restoring atom style full from restart
  triclinic box = (-3.2074094 -0.097772102 0.018430297) to (14.817408 22.677771 19.211568) with tilt (-0.15021061 -6.7341476 -0.20252782)
  2 by 4 by 2 MPI processor grid
  restoring pair style lj/cut/tip4p/long/omp from restart
  restoring bond style harmonic/omp from restart
  restoring angle style harmonic/omp from restart
  1008 atoms
  672 bonds
  336 angles
Finding 1-2 1-3 1-4 neighbors ...
  special bond factors lj:    0        0        0       
  special bond factors coul:  0        0        0       
     2 = max # of 1-2 neighbors
     1 = max # of 1-3 neighbors
     1 = max # of 1-4 neighbors
     2 = max # of special neighbors
  special bonds CPU = 0.004 seconds
  read_restart CPU = 0.009 seconds

include 	in.setup
variable	out_freq equal 1000
variable	out_freq2 equal 10000
variable	out_freq3 equal 1000

timestep	2.0

neigh_modify    delay 7 every 1

include		in.tip4p
# This is TIP4P/Ice

# create groups ###
group ox type 2
336 atoms in group ox
group hy type 1
672 atoms in group hy

# set charges - beside manually ###
set group ox charge -1.1794
Setting atom values ...
  336 settings made for charge
set group hy charge 0.5897
Setting atom values ...
  672 settings made for charge

# ### TIP3P Potential Parameters ###
pair_style lj/cut/tip4p/long/omp 2 1 1 1 0.1577 8.5
pair_coeff 1 1*2 0.000 0.000
pair_coeff 2 2 0.21084 3.1668
bond_style  harmonic
bond_coeff  1 450 0.9572
angle_style harmonic
angle_coeff 1 55 104.52
kspace_style pppm/tip4p/omp 1.0e-5
pair_modify tail yes

thermo          ${out_freq}
thermo          1000
thermo_style    custom step temp pe etotal epair emol press lx ly lz vol pxx pyy pzz pxy pxz pyz enthalpy

restart 	${out_freq3} restart.lmp.${pid} restart2.lmp.${pid}
restart 	1000 restart.lmp.${pid} restart2.lmp.${pid}
restart 	1000 restart.lmp.1 restart2.lmp.${pid}
restart 	1000 restart.lmp.1 restart2.lmp.1


include         in.dump
dump            myDump all atom ${out_freq2} dump.water.${pid}
dump            myDump all atom 10000 dump.water.${pid}
dump            myDump all atom 10000 dump.water.1
dump            myDump2 all dcd ${out_freq2} dump.dcd
dump            myDump2 all dcd 10000 dump.dcd
dump_modify     myDump append yes
dump_modify     myDump2 append yes


variable natoms 	equal  "count(all)"                        # NUMBER ATOMS
variable H      	equal  "enthalpy/v_natoms"                 # ENTHALPY-per-atom
variable Vol      	equal  "vol/v_natoms"                 # volume-per-atom
fix AVG all 		ave/time ${out_freq} 1 ${out_freq} v_Vol v_H file vol_enthalpy.dat
fix AVG all 		ave/time 1000 1 ${out_freq} v_Vol v_H file vol_enthalpy.dat
fix AVG all 		ave/time 1000 1 1000 v_Vol v_H file vol_enthalpy.dat



fix 		1 all shake 1e-6 200 0 b 1 a 1
Finding SHAKE clusters ...
       0 = # of size 2 clusters
       0 = # of size 3 clusters
       0 = # of size 4 clusters
     336 = # of frozen angles
  find clusters CPU = 0.000 seconds
fix             2 all nph tri ${pressure} ${pressure} ${pressureDamp}
fix             2 all nph tri 8337.1 ${pressure} ${pressureDamp}
fix             2 all nph tri 8337.1 8337.1 ${pressureDamp}
fix             2 all nph tri 8337.1 8337.1 1000
fix             3 all temp/csvr ${temperature} ${temperature} ${tempDamp} ${seed}
fix             3 all temp/csvr 190.77 ${temperature} ${tempDamp} ${seed}
fix             3 all temp/csvr 190.77 190.77 ${tempDamp} ${seed}
fix             3 all temp/csvr 190.77 190.77 100 ${seed}
fix             3 all temp/csvr 190.77 190.77 100 745823


run             250000
PPPM initialization ...
  extracting TIP4P info from pair style
  using 12-bit tables for long-range coulomb (../kspace.cpp:340)
  G vector (1/distance) = 0.37936074
  grid = 24 27 32
  stencil order = 5
  estimated absolute RMS force accuracy = 0.0024445778
  estimated relative force accuracy = 7.3617735e-06
  using double precision FFTW3
  3d grid and FFT values/proc = 7875 1344
Last active /omp style is kspace_style pppm/tip4p/omp
Neighbor list info ...
  update every 1 steps, delay 7 steps, check yes
  max neighbors/atom: 2000, page size: 100000
  master list distance cutoff = 10.8154
  ghost atom cutoff = 10.8154
  binsize = 5.4077, bins = 5 5 4
  1 neighbor lists, perpetual/occasional/extra = 1 0 0
  (1) pair lj/cut/tip4p/long/omp, perpetual
      attributes: half, newton on, omp
      pair build: half/bin/newton/tri/omp
      stencil: half/bin/3d/tri
      bin: standard
Setting up Verlet run ...
  Unit style    : real
  Current step  : 14750000
  Time step     : 2
Per MPI rank memory allocation (min/avg/max) = 12.45 | 12.47 | 12.48 Mbytes
Step Temp PotEng TotEng E_pair E_mol Press Lx Ly Lz Volume Pxx Pyy Pzz Pxy Pxz Pyz Enthalpy 
14750000    193.67187   -4969.3629   -4581.9952   -4969.3629            0    6615.8872    18.024818    22.775543    19.193137     7879.263    5194.8956    7316.8498    7335.9163     1218.834    507.64707    1331.2757   -3821.7572 
14751000    189.06343   -4987.7561   -4609.6059   -4987.7561            0    7375.1377    18.120548     22.75434    19.067504    7861.9345    7513.8783    7371.7199    7239.8151    237.04973    481.97261    82.893108   -3763.9855 
14752000    195.62711   -4991.5693   -4600.2909   -4991.5693            0    9109.5462    17.891781    22.832443    19.183569    7836.7388    7572.7269    9494.0595    10261.852   -2249.1015    345.27671   -2613.2647   -3559.1536 
14753000     190.6433   -4987.5308   -4606.2206   -4987.5308            0    9754.4845    17.807237    22.612185    19.368675    7799.0008    10123.729    9517.4371    9622.2871    553.75689    581.04665   -1826.8627   -3496.7414 
14754000    182.82215   -4998.9332   -4633.2663   -4998.9332            0    8418.4308     17.88514    22.577216    19.392676    7830.6979    9232.8128    8985.0058    7037.4737     586.5523    488.30194    1142.3942   -3671.8588 
14755000    186.83398   -4975.0878   -4601.3967   -4975.0878            0    8714.9099    17.880014    22.759778    19.244127    7831.3041    9355.7856    8914.7612     7874.183    1769.0209    851.50801     1812.987   -3606.0535 
14756000    187.36324   -4970.7703   -4596.0207   -4970.7703            0    8376.1856    17.917062    22.769085    19.229858    7844.9192    7402.1112    9017.7617     8708.684   -569.94971    1361.2462   -2286.7773   -3637.7005 
14757000    181.58095   -4976.7726   -4613.5883   -4976.7726            0    8813.0746    17.860823    22.821337    19.250482    7846.6476    9137.2812    8386.1477     8915.795   -1210.2123    690.95422   -1469.1161   -3605.0614 
14758000    191.68811   -4985.1986   -4601.7987   -4985.1986            0     6308.529    17.801302    22.999993    19.278982      7893.39    5253.1605    6700.2055    6972.2211   -80.031268    1410.8254   -938.03711   -3875.5798 
14759000    193.66354    -4967.668    -4580.317    -4967.668            0    8662.4135    17.906481    22.751664    19.233571    7835.7999    8094.5134    8776.1219    9116.6052    511.04905   -309.53302   -96.205792   -3590.4014 
14760000    189.03968   -4971.5749   -4593.4722   -4971.5749            0    9783.4762    17.943249    22.707459    19.206997    7825.8064    13224.817    8018.2885     8107.323   -775.87216   -1353.0743   -1027.7467   -3476.8708 
14761000    184.43779   -4975.8808   -4606.9825   -4975.8808            0    8958.2804    17.844883    22.734147    19.313887    7835.4161    8057.9831    9818.0707    8998.7874    885.33525    271.36438    1307.1866   -3583.3063 
14762000    191.52067   -4950.0238   -4566.9588   -4950.0238            0    8723.5507    17.860995    22.781095    19.319427    7860.9398    9182.0883    9255.6067     7732.957    294.04989    529.01797    1898.3255   -3566.8583 
14763000    200.49351   -4973.0448    -4572.033   -4973.0448            0    8531.7781    17.723562    22.900332      19.2876    7828.3635    9093.6255    8787.4002    7714.3087     909.2123    456.84672    1075.7004   -3597.9714 
14764000    193.27753   -4993.6829    -4607.104   -4993.6829            0    7280.7684    17.889183    22.894061    19.185262    7857.4404    6312.3376    7365.5836     8164.384   -568.48151   -1088.0101   -351.84515    -3772.781 
14765000    185.42721   -4969.0973   -4598.2199   -4969.0973            0    9154.7825    17.901393    22.834291    19.105292    7809.5864     6863.509    9649.9976    10950.841   -587.74915   -276.04717   -351.92398   -3555.5377 
14766000    192.65098   -4982.8324   -4597.5067   -4982.8324            0    8010.0805    17.793147    22.885647     19.26008    7842.8526     8452.912    7303.0765    8274.2532    971.27004   -1266.6194   -766.93952    -3681.314 
14767000    195.87306   -4986.8628   -4595.0925   -4986.8628            0    7979.6843    17.781309    22.834946    19.246685    7814.8323    9031.2955    7869.9921    7037.7653    812.31405   -318.97966    234.63078   -3685.6374 
14768000     189.5294   -4991.2057   -4612.1235   -4991.2057            0    8365.0142    17.833439    22.819678    19.170066    7801.3223     8645.621    8196.3831    8253.0386     58.36183   -254.37474    1263.4388      -3660.4 
14769000    187.81623   -4980.4983   -4604.8426   -4980.4983            0    9332.5603    17.954458    22.720199    19.177122    7822.9015    8860.8132    9091.8883    10044.979   -1270.6744   -511.27617    35.074895   -3540.1002 
14770000    199.56734   -5002.7377   -4603.5784   -5002.7377            0    7913.0823    17.995796    22.646892    19.219782         7833    8550.1349    7308.1832    7880.9287    1560.9578    -24.71408    483.69696   -3699.6174 
14771000     186.2852   -4995.7153   -4623.1219   -4995.7153            0    8017.2309    17.979576    22.519257     19.34717    7833.4118    7654.1144    7752.2446    8645.3336    376.31724   -100.34986    660.02849   -3707.2152 
14772000    194.31938   -4983.1919   -4594.5291   -4983.1919            0    9276.3666    17.919587    22.696278    19.209228    7812.5452    9008.4385    8515.0199    10305.642    147.66659    -412.4118     1071.765   -3537.5988 
14773000    189.49928   -5004.8421   -4625.8202   -5004.8421            0     6472.127    18.012405    22.930123    19.025286    7857.9501    4650.1389    6132.2705    8633.9716   -2040.3739   -705.69457    94.947775   -3884.1135 
14774000    201.83661   -4983.2935   -4579.5954   -4983.2935            0     7282.152    17.988983    22.995023    19.122321    7910.0834    6170.2872    6712.0929     8964.076   -903.44576   -245.68214    26.317467    -3739.523 
14775000    196.43891   -4974.8675   -4581.9654   -4974.8675            0    8307.8933    17.968176    22.788044    19.165434    7847.4708    8639.1307     8260.932    8023.6173    1362.2569    375.91024    534.21308   -3631.1493 
14776000    197.31371    -4974.034   -4579.3823    -4974.034            0    10172.786    18.033263    22.517035    19.201219    7796.7629    10199.351    11021.295    9297.7102   -611.82371    1082.5568    -1436.762   -3422.6573 
14777000    197.67729   -4971.0393   -4575.6603   -4971.0393            0    8846.4872    17.860386    22.765607    19.286883    7842.0954     9219.667    9098.0179    8221.7766   -46.770056     757.8972   -184.45302   -3563.8971 
14778000    194.56933   -5007.1609   -4617.9982   -5007.1609            0     7098.494    17.833221    22.815778    19.307212    7855.6955    8689.3502    7073.8414    5532.2903     769.3356    330.39248    782.55644   -3804.7432 
14779000    194.61109   -4986.7105   -4597.4643   -4986.7105            0    8803.6122    17.892038    22.765315     19.20755    7823.5786    8239.2393    9602.6744    8568.9231     223.8189    350.81556    910.59145   -3592.9821 
14780000    187.17838   -4959.6264   -4585.2465   -4959.6264            0    7979.0793    18.006748    22.815996    19.081228    7839.3681    6232.8209    8721.7804    8982.6365    469.73386    1426.6427    2533.0041   -3673.0052 
14781000    192.79294   -4972.3258   -4586.7161   -4972.3258            0    7101.7431    17.986926    22.767908    19.278098    7894.8568    6293.6246    6755.5862    8256.0187   -335.26625   -851.76907   -1537.1367   -3769.0328 
14782000    197.99518   -4990.4317   -4594.4169   -4990.4317            0    8454.5595    17.958732    22.651555    19.292658    7848.1222    8300.4468    8404.8921    8658.3396     603.8329    744.60899     -1657.63    -3626.735 
14783000    183.51938   -4964.4775    -4597.416   -4964.4775            0    8866.0737    17.956404    22.784531    19.109517     7818.243    8376.7805    8773.1508    9448.2896    609.99522   -382.41738   -1463.7901    -3586.497 
14784000    184.78496   -4999.3015   -4629.7087   -4999.3015            0    6959.5868    17.866704    22.934916    19.214978    7873.7477    5859.9814    7877.5141    7141.2648   -627.69865    1121.9665   -441.54856   -3830.5357 
14785000     192.5866   -5011.8218   -4626.6248   -5011.8218            0    7965.1444    17.936006    22.825123    19.128538    7831.0617    5708.3495    7861.2084    10325.875    -380.8787   -550.99937   -11.249113   -3716.9416 
14786000    174.72299    -4974.259   -4624.7914    -4974.259            0    8488.7071    18.065614    22.690056    19.167141    7856.7986    7189.1409    9223.6024    9053.3781   -817.61863    1112.4128     -1152.77   -3652.1269 
14787000    186.42029   -4972.1478   -4599.2842   -4972.1478            0    7429.0223    17.985817     22.80072     19.20889    7877.3656    7298.1722    7357.1642    7631.7306    498.70319     666.6946    369.99282   -3745.8137 
14788000    194.13334   -4996.2322   -4607.9415   -4996.2322            0     7570.932    17.967941     22.89103    19.050742    7835.6592    6466.9213    7328.5058    8917.3687   -138.80641    196.44293   -369.27759   -3742.7729 
14789000    187.31791   -4989.7996   -4615.1406   -4989.7996            0    6311.4278     17.97368    22.874123    19.200726    7894.0362    5550.0719    6153.3659    7230.8457   -477.17231    555.01819    -1794.747   -3888.5286 
14790000    195.82532   -4986.9356   -4595.2608   -4986.9356            0    10474.011    17.810372     22.66672    19.274997    7781.3686    9878.2851    11799.729    9744.0181    404.82335    725.00875   -531.83233   -3406.6357 
14791000    195.72505   -5002.2451   -4610.7708   -5002.2451            0    5976.9526     17.86083    22.873288    19.321544    7893.5444    6303.8067    5651.2923    5975.7587    302.11281   -952.17776    216.43977   -3922.7085 
14792000    184.02103    -4968.579   -4600.5142    -4968.579            0    8324.6484    17.742674    22.919089    19.288021    7843.3953     8587.038    8173.9885    8212.9186   -332.19067     -297.527   -124.09892   -3648.2754 
14793000    202.35517   -4993.4872   -4588.7519   -4993.4872            0    7134.8437    17.931785    22.758321    19.253277     7857.211    7684.4595    7043.1439    6676.9276   -960.11163   -1119.5938    242.79713   -3771.1747 
14794000    176.70684   -4971.7536    -4618.318   -4971.7536            0     9399.747    17.842102    22.838636    19.171897    7812.3422    9643.7809    8573.7744    9981.6856   -86.013895   -747.90082   -2010.1513   -3547.3579 
14795000    182.84775   -4990.0837   -4624.3656   -4990.0837            0    8220.7132    17.809323    22.890824    19.213583    7832.8027     8314.542    7642.0396    8705.5578     1166.923   -989.89796    1020.9608   -3685.2857 
14796000    192.84068   -4997.0246   -4611.3194   -4997.0246            0    8833.6211    17.797412    22.744687    19.284984    7806.4951    9411.0363    8963.0679    8126.7591    299.47342   -176.34054   -199.66754   -3605.6141 
14797000    187.79311    -4981.483   -4605.8736    -4981.483            0    7893.3112    17.837455    22.833246    19.245705     7838.525    8929.0579    8026.1243    6724.7514   -1058.9371   -172.16293   -80.076479   -3703.5352 
14798000    183.95755   -4991.3709   -4623.4331   -4991.3709            0    8317.9749    17.804059    22.742575    19.317106    7821.6923    9743.8913    7781.4948    7428.5386   -679.65313    122.52086   -107.03191   -3674.5904 
14799000    194.22912   -4977.4213   -4588.9391   -4977.4213            0    9004.0374    17.941723    22.669515    19.250914    7829.9274    8686.9541    9578.8708    8746.2873   -870.42744    1211.7149    1205.4716   -3560.7549 
14800000    188.01758   -5003.2414    -4627.183   -5003.2414            0    7999.4764    18.060348    22.653513    19.182151    7847.9998    7161.9309    8262.6651    8573.8333    966.07234   -124.86513    971.83445   -3711.6027 
14801000    205.12773   -4965.7202   -4555.4394   -4965.7202            0    8758.0606    17.960686    22.758818    19.178245     7839.376    9951.8206    8084.7885    8237.5726    435.52259    379.97236   -1122.8572   -3554.1369 
14802000    186.86421   -4998.8729   -4625.1214   -4998.8729            0    8388.7368    17.937351    22.770381    19.233703    7855.8199    9799.1913    7753.7806    7613.2386    604.19645    1017.9653   -340.45961   -3664.0316 
14803000    179.90703   -5002.8455   -4643.0092   -5002.8455            0    7596.9871    17.963751    22.628522    19.381358    7878.3889    7866.0677    7925.0073    6999.8861    1052.0169     258.1646    1751.2324   -3770.1289 
14804000    198.96097   -4986.0172   -4588.0707   -4986.0172            0    6637.2022    18.054245    22.827451       19.161    7896.8686    5501.6835    7280.0318    7129.8914   -56.958223   -98.526947   -1279.8254   -3823.6792 
14805000     192.4172   -4987.2696   -4602.4114   -4987.2696            0    7136.4526    17.989769    22.819252    19.218151    7889.3023    6451.4306    8166.0024    6791.9249   -483.19032    379.02751    316.78177   -3781.3099 
14806000    201.69003   -4977.0586   -4573.6536   -4977.0586            0     8050.393    17.982049    22.745821    19.214532    7859.0601    8371.3443    8257.1583    7522.6763   -386.69534     976.7372    423.63429   -3650.9471 
14807000    181.27943   -4999.6093   -4637.0281   -4999.6093            0    7225.8512    17.922594    22.800179    19.277605    7877.5689    8932.2373    6060.2948    6685.0215   -996.44598    57.269066   -120.09735   -3806.8771 
14808000    184.81831   -4968.6761   -4599.0167   -4968.6761            0    8466.1338    18.063447    22.613478    19.199492     7842.558    7900.7627    8967.3573    8530.2814    914.70366    441.66789   -324.63261    -3630.697 
14809000    180.34916   -4970.3136    -4609.593   -4970.3136            0    8282.1288    18.040815    22.707795    19.161932    7850.0138    7564.6841    8306.8841    8974.8183    397.87541   -601.68395   -681.44186   -3661.4184 
14810000    182.13292    -4967.398   -4603.1096    -4967.398            0    8906.6482    17.925357    22.875237    19.085693    7826.0271    6234.8841    9363.1012    11121.959    674.64122   -7.9027692    2304.1169   -3586.5531 
14811000    186.98495   -4961.4589   -4587.4659   -4961.4589            0    8956.4632    17.927463    22.689345    19.267328    7837.2243      9747.93    9305.5626    7815.8971   -1219.9465   -363.61585   -65.265684   -3563.7611 
14812000    198.56517   -4960.1945   -4563.0396   -4960.1945            0    9125.4323    17.849202    22.637617    19.387187    7833.6528    8417.5723    8816.2647     10142.46    1128.9188   -1041.0568   -1418.4918   -3520.4974 
14813000    198.17169   -4981.7462   -4585.3784   -4981.7462            0    8401.3778    17.949195    22.764592    19.266468    7872.3963    8237.9636    8394.1634    8572.0063   -1490.5186    448.14388    -2279.553   -3620.8093 
14814000    191.61636   -4990.5815   -4607.3251   -4990.5815            0    8531.8404    18.063767    22.644589    19.167511     7840.405    9723.3693    7782.4066    8089.7454    1231.8923   -76.335523   -6.3165516   -3631.7581 
14815000      187.012   -4994.9444   -4620.8973   -4994.9444            0     7952.261    17.849807    23.029201    19.083393    7844.5491    6617.8132    7852.6923    9386.2775   -540.31376    572.35858   -900.56009   -3711.1213 
14816000    194.83989   -4969.8705   -4580.1666   -4969.8705            0    7539.2286    17.800021    23.017534    19.183434    7859.6945    8256.0863    6788.7599    7572.8395   -597.37925   -1106.6939   -524.78837   -3715.9781 
14817000    186.23019   -4989.5076   -4617.0242   -4989.5076            0    9059.3642    17.761805    22.847362    19.259597    7815.7447    9034.7741     9190.418    8952.9005   -74.979406    1066.2678   -696.89494    -3584.396 
14818000    197.98899   -4995.2085   -4599.2061   -4995.2085            0    7496.2811    17.939501    22.764052    19.162899     7825.663    6952.3244    7622.2425    7914.2763    1408.5013   -349.00002    342.54043    -3743.661 
14819000    184.97442   -4998.8284   -4628.8568   -4998.8284            0     9260.437    17.978363    22.710675    19.117923    7805.8623    8810.5795    9423.9272    9546.8041   -691.32692   -1115.4021   -838.00565    -3574.644 
14820000    187.44353    -4969.658   -4594.7478    -4969.658            0    8790.3414    17.902488    22.706479    19.226693    7815.6982    8915.9989    9313.5756    8141.4498   -34.159931    221.10485    825.04784   -3592.7901 
14821000    186.94221   -4972.7763   -4598.8688   -4972.7763            0    8452.8146    17.706901    22.980962    19.238051    7828.3789    8838.6197    8418.0068    8101.8174   -338.95702    684.23617    1213.5923   -3633.8204 
14822000    198.26639    -4959.861   -4563.3038    -4959.861            0    8286.0413    17.836293    22.858131    19.274067    7858.1201    10281.122    7617.2332     6959.769   -881.79367   -1366.9183    554.22991   -3613.7017 
14823000    187.90591   -5013.0396   -4637.2045   -5013.0396            0    7054.5182    18.102573    22.673256    19.122861    7848.8688    6115.8776    7930.6001     7117.077   -401.84812    643.13285     1371.397     -3829.69 
14824000    178.93029   -4992.0396    -4634.157   -4992.0396            0    8157.4699    18.046475    22.663955    19.190401    7848.9608    6725.0563    9215.5449    8531.8086    544.57643    755.81478    82.399194   -3700.3792 
14825000    182.68292   -4977.3788   -4611.9904   -4977.3788            0    8427.5373    17.821927    22.712145    19.374573    7842.3267    9682.2549    8597.6862     7002.671   -988.79568    540.54414    1561.0089   -3648.1137 
14826000    196.13862   -4991.5875    -4599.286   -4991.5875            0    7979.4982    17.829198    22.736119    19.332056    7836.5732    7822.9743    8718.9106    7396.6096    1306.3801     867.5928   -619.47228   -3687.3221 
14827000    182.59101    -5005.388   -4640.1835    -5005.388            0    7685.1889    17.892149    22.729317    19.285342    7842.8921    9132.0017    7361.6283    6561.9367   -400.86218   -743.30988   -44.051205   -3761.1474 
14828000    206.36689   -4975.9028   -4563.1435   -4975.9028            0    10129.473    17.925277    22.755588    19.083947    7784.3462    9248.2245    9833.8962    11306.299     894.6271    500.50985   -77.911526   -3413.1778 
14829000    191.02111   -4999.8791   -4617.8133   -4999.8791            0    8250.2746    17.989395     22.79724    19.045378    7810.6724     7624.175    8980.8561    8145.7926    497.34654    390.55255   -1468.1806   -3678.0192 
14830000    185.39208   -4961.5691    -4590.762   -4961.5691            0    7434.1848     17.97401    22.847293    19.302298    7926.6328    7250.2353    8353.8361     6698.483   -863.24655    1558.7256   -1092.8984   -3731.3568 
14831000    191.13258   -4983.6356   -4601.3468   -4983.6356            0    7098.3932     17.82898    22.874528    19.332371    7884.3112    7112.1294    7151.0654    7031.9846   -380.39274    1502.4181    576.83151    -3785.141 
14832000    188.32823   -5001.3053   -4624.6255   -5001.3053            0    8886.8603    17.845619    22.718343    19.277032    7815.3501    9569.6969    8135.0612     8955.823   -238.83323    821.07235    -401.5142   -3611.7113 
14833000    192.98039   -4981.9367   -4595.9521   -4981.9367            0    8333.1271    17.981926    22.826968    19.138055    7855.6519    8844.6328    8639.8396     7514.909   -237.83661    967.17996   -716.07964   -3641.2538 
14834000    202.43386   -4987.2399   -4582.3471   -4987.2399            0    7394.2762    17.978948     22.89873    19.141707    7880.5464     6389.017    7486.1668    8307.6447    1176.4765    1102.6395    1071.6406   -3732.5253 
14835000    191.79067   -5002.7017   -4619.0967   -5002.7017            0     8429.462    17.966881    22.795406    19.081208    7814.9441    8573.7435    8512.8813    8201.7611   -243.61541    95.556438   -583.96455   -3658.3661 
14836000    183.07832   -4989.2894   -4623.1102   -4989.2894            0    7833.7926    17.896725     22.94593    19.190437    7880.6873    7780.6278    8088.3494    7632.4007   -942.54694    116.21568    12.380536   -3722.7588 
14837000    191.51439   -5001.7183   -4618.6659   -5001.7183            0    7767.6027    17.875692    22.764307    19.285335    7847.7375    8207.0614    8357.5183    6738.2284   -188.23106    585.56631   -904.80805   -3729.6544 
14838000    191.94445   -4996.1165   -4612.2039   -4996.1165            0    6316.2005     18.05779    22.685884    19.284176     7899.896    6842.6255    7485.7888    4620.1873   -253.78229    1112.2928    2484.9264   -3884.5025 
14839000     185.8467   -5015.7849   -4644.0686   -5015.7849            0    7379.5425     18.04587    22.640497    19.172038    7833.0711    7945.6067    6611.7037     7581.317    79.999262    19.029721    5.2376741   -3801.0495 
14840000     180.4458   -4979.4425   -4618.5286   -4979.4425            0    7430.2344    17.863376     22.83953    19.345306    7892.7132    7068.8546    6332.5515    8889.2971   -445.65328    334.52199   -22.714524   -3763.2557 
14841000    185.34424   -4985.6552   -4614.9438   -4985.6552            0    9411.5566    17.807293    22.769642     19.20105    7785.3669    10531.651    9176.9598    8526.0595    1374.1909   -129.42547   -216.04102   -3546.3407 
14842000    190.20923   -4999.8279    -4619.386   -4999.8279            0    6425.8742    17.874886     22.90845    19.287914    7898.1293    6705.6481    6364.9317    6207.0428    390.53221    761.22406    492.23362   -3879.2145 
14843000    200.68525   -4989.1861   -4587.7908   -4989.1861            0    8517.2812    17.876534    22.801126    19.259424    7850.2397     8768.869    8425.6631    8357.3115    438.44236   -194.59716    514.27388   -3612.6669 
14844000    196.96609   -5002.7059   -4608.7494   -5002.7059            0    7466.8149    17.908891    22.783756    19.238659    7849.9847    6984.9711    7657.8792    7757.5945    622.52845    122.04338    537.34117   -3753.9188 
14845000    189.08294   -5008.8107   -4630.6215   -5008.8107            0    8657.0988    17.775202    22.916871    19.174308    7810.6929    8772.0111    8847.6056    8351.6798   -893.40681   -188.23067   -433.73895   -3644.4832 
14846000    188.68032   -4982.1065   -4604.7226   -4982.1065            0    7124.7726      17.9074    22.842209    19.279044    7885.9883    5813.2542    8249.7541    7311.3096   -318.35292   -257.19774   -1950.9598   -3785.3092 
14847000    194.96073    -4994.687   -4604.7414    -4994.687            0    9520.1125    17.856053    22.595428    19.296197    7785.3435    10177.633    9918.9205    8463.7846    294.57991   -419.25956   -1360.1544   -3523.8159 
14848000    187.73198   -4982.9365   -4607.4494   -4982.9365            0    7100.1238    17.813069    22.864515    19.305221    7862.7694    8265.6415    6250.1748     6784.555   -1071.4113   -994.37621   -1461.0584   -3793.2752 
14849000    186.82867   -4982.8037   -4609.1233   -4982.8037            0    9853.1613    17.943742    22.679279    19.189391     7809.144    8560.0813    10315.232    10684.171   -996.41567   -124.94786   -708.82141   -3486.9629 
14850000    188.65484   -4982.2436   -4604.9106   -4982.2436            0    8666.5163    17.925432    22.716651    19.157891    7801.2044    8452.5586    9027.3057    8519.6848    101.40559   -1191.0978    515.98024   -3618.8988 
14851000    176.41194   -4993.4454   -4640.5997   -4993.4454            0    7765.0602    17.953951    22.790986    19.201467    7857.0143    8912.7401    7119.0922    7263.3482    2130.8365   -320.61106    1192.1215   -3750.8287 
14852000    187.41643   -4980.7032   -4605.8472   -4980.7032            0    7431.9099    17.831923     23.09162    19.127178    7875.9595    7385.6488    7481.6983    7428.3826   -1028.5348   -30.428333    501.31427   -3752.1973 
14853000    192.55087   -4971.9083   -4586.7828   -4971.9083            0    8531.8735    17.732138    23.025379    19.129326    7810.2971    9417.3649    8391.5929    7786.6629   -185.51348    354.70586    67.207348   -3614.9583 
14854000     193.0494   -4977.7593   -4591.6367   -4977.7593            0    9114.7184    17.822109    22.689487    19.323621    7813.9799    11446.762    9105.9274     6791.466   -682.61815    63.416992    369.66684   -3552.9336 
14855000    188.21806   -4951.3265   -4574.8672   -4951.3265            0    8002.6717    18.004166    22.664819    19.289509    7871.2994    8961.5259    7704.0584    7342.4309    24.527131   -360.92003    1153.0818   -3656.2018 
14856000    181.69264   -4991.9441   -4628.5364   -4991.9441            0    8861.7674    17.984705    22.570236    19.312144     7839.167    7848.7374    10340.284     8396.281    1209.3788    326.06787    1677.3603   -3615.4041 
14857000    194.21534   -4983.1419   -4594.6873   -4983.1419            0     9561.385     17.90128     22.62913    19.300792    7818.5654    10249.028    9311.0707    9124.0561   -964.53306      -391.92    -559.5633   -3504.4431 
14858000    192.48183   -4981.4427   -4596.4553   -4981.4427            0    6547.1671    17.891338    22.873032     19.28201    7890.7605    7546.8903    6402.0297    5692.5814   -406.13441    510.52631   -605.44695   -3843.0161 
14859000    183.71124   -4979.8725   -4612.4273   -4979.8725            0    8913.7391    17.869513    23.033371    18.973041     7809.211    8318.7859    7605.2574    10817.174    154.58125    339.32108   -89.975381   -3597.2475 
14860000    201.19213   -4992.1489   -4589.7398   -4992.1489            0    8893.3079    17.816881    22.954429     19.14695    7830.6493    9270.8386    8788.3359     8620.749    1713.0484     626.9942    48.866662   -3574.1064 
14861000    200.29299   -4977.7074   -4577.0966   -4977.7074            0    8277.7942    17.980518    22.781565    19.168041    7851.6961    8869.4704    7509.9398    8453.9726    -878.1529   -183.63984   -251.33253   -3629.2152 
14862000    188.78751   -4976.7265   -4599.1281   -4976.7265            0    8945.8381    18.050675    22.663213    19.128286    7825.1197    9052.0458    8177.6606     9607.808   -710.11235   -228.76821   -122.03287   -3578.2171 
14863000    185.73567   -4987.8082   -4616.3139   -4987.8082            0    8628.7398    17.913755     22.76755    19.190732    7826.9844    9594.0166    9224.3912    7067.8115   -106.69911    130.00359    74.827305   -3631.3559 
14864000    193.63709   -4974.9715   -4587.6734   -4974.9715            0    9102.0821    17.792931    22.767585    19.262358    7803.2213     8631.466     8952.292    9722.4884    822.72315    177.98984     854.1581   -3551.8384 
14865000    193.78218   -4998.4749   -4610.8866   -4998.4749            0    7515.3285    17.908921    22.859824    19.173226    7849.4188    6713.8548    7670.8837    8161.2469     1055.235    1687.9826    918.37254   -3750.5639 
14866000    181.13239   -4993.7107   -4631.4236   -4993.7107            0    7787.8976    17.995768    22.802397    19.123587    7847.2995    5378.2826    9004.4138    8980.9962   -621.52664    732.23202   -1366.7267   -3740.1391 
14867000    185.02754   -4997.7439   -4627.6659   -4997.7439            0    8368.1304    17.775633    22.895445    19.266274    7841.0081    8367.4164    8528.3269     8208.648    -862.9136    23.520844    451.81972   -3670.7446 
14868000    193.55258   -5006.5817   -4619.4527   -5006.5817            0    9398.5108    17.762043    22.704781    19.304168    7785.0487    10294.939    9761.0265    8139.5667    1751.3864    998.19959   -502.28904   -3552.3744 
14869000    190.64549   -5005.0892   -4623.7746   -5005.0892            0    8043.3516    17.910459     22.66314     19.27328    7823.1638    7349.1161     9752.031    7028.9078    163.75601     537.6039   -7.6293891    -3706.086 
14870000    195.52463   -5008.0598   -4616.9864   -5008.0598            0    6309.0617    17.950954    22.837741     19.19766    7870.2578     5314.431    6819.4507    6793.3033   -80.664978     288.8706   -1052.8424   -3892.8346 
14871000    188.24076   -5005.7784   -4629.2736   -5005.7784            0    7713.7017    17.889766    22.824687    19.245065    7858.3046     8831.072    7848.0024    6462.0308    -1495.964   -536.93994   -2453.2148   -3745.2424 
14872000    185.79108   -4957.0752   -4585.4701   -4957.0752            0    7759.3761    18.015491    22.565155    19.343915    7863.7336    8756.4193    8253.6565    6268.0526    286.19244    547.11997     805.6204     -3695.59 
14873000    191.64189   -4983.8162   -4600.5087   -4983.8162            0    8299.8039    17.940166    22.813182    19.113005    7822.4234    8863.3349    6920.5096    9115.5673   -4.9064501   -303.06733    1552.4633   -3653.6503 
14874000    198.65574   -4996.6055   -4599.2695   -4996.6055            0    7807.3612     17.81748    23.019681    19.152834    7855.5865    8360.0034    7544.6076    7517.4726   -1143.4641    299.68913   -1139.1141   -3704.8139 
14875000    192.95943   -4973.6946   -4587.7519   -4973.6946            0     8745.203     17.69105    22.860869    19.368032    7833.0671    11215.598    8157.8621    6862.1484   -595.79645    570.37431   -788.94955    -3588.724 
14876000    186.22304   -4991.1406   -4618.6715   -4991.1406            0    8412.9054    17.825074    22.743687    19.347385    7843.5824    9443.0167    9079.2847    6716.4149    688.03779    1745.8178   -1039.6448   -3656.3141 
14877000    190.65446   -5000.5474   -4619.2149   -5000.5474            0    9083.2197    18.019555    22.400199    19.376692    7821.2392    9600.9537    8712.3474     8936.358   -60.180364   -654.74014    614.81103   -3583.1397 
14878000    183.64199   -4985.4165   -4618.1098   -4985.4165            0    8812.8293    17.912766     22.75355     19.23291     7838.931    8555.0508    8360.5779    9522.8591     522.1591   -190.46225   -2659.9085   -3610.6028 
14879000     201.4566   -4971.3959   -4568.4578   -4971.3959            0    9184.0606    17.690263    23.106832    19.084702    7801.1761    9671.1158    8147.0038    9734.0621   -874.17486   -96.344395    608.56075   -3523.5675 
14880000    180.77542   -5000.2425   -4638.6693   -5000.2425            0    6628.7103    17.954507     23.00528    19.058181    7871.9521    5759.9891    6378.5873    7747.5545   -1216.8199   -70.260176    241.86933   -3877.6646 
14881000    189.01379   -5013.0098   -4634.9589   -5013.0098            0    7899.0587    17.999134    22.621946    19.252836    7839.2818    6902.3918      8732.08    8062.7042   -86.441088   -18.655589   -1109.6204   -3731.8762 
14882000    196.84862   -4975.4655   -4581.7439   -4975.4655            0    8023.8601     17.82287    22.689564     19.41647    7851.8874    8590.0686     8100.406    7381.1057    164.13503   -544.89635   -243.11573   -3662.9179 
14883000    200.82523   -4981.8539   -4580.1787   -4981.8539            0    9653.3277    17.774152    22.821445    19.217921    7795.4006    9474.8856    8784.5767    10700.521    745.34854   -27.191498   -189.38988   -3482.7119 
14884000    187.06416   -5008.9293   -4634.7779   -5008.9293            0    7058.8539    17.947522    22.911071    19.125062    7864.1672    5918.2039      7616.18    7642.1778   -404.25278    313.68066   -1259.8584   -3825.1922 
14885000    187.90704   -4996.2747   -4620.4374   -4996.2747            0    7596.9249     17.92557     22.92487     19.12826    7860.5934    6499.0899    7103.3564    9188.3283   -316.69622    560.44479    1858.3439   -3749.5359 
14886000    200.31274   -4989.4991   -4588.8489   -4989.4991            0    8886.5077    17.893555    22.719958    19.265947     7832.394    9357.8507    8226.8492    9074.8232    274.46485   -1034.5466   -263.71884    -3573.766 
14887000    193.43182   -5003.9378   -4617.0503   -5003.9378            0    8387.7891    17.958941    22.580122    19.348351    7846.0482    8218.6206    9069.3852    7875.3615   0.51591811   -121.32996   -656.69606   -3657.2644 
14888000    191.47642   -4991.7663   -4608.7898   -4991.7663            0     7574.855    17.943726    22.593111    19.360452     7848.816    8018.1654    7864.5331    6841.8666   -173.81055   -307.56529   -948.63706   -3741.7194 
14889000     192.0628   -5012.4049   -4628.2556   -5012.4049            0    9067.8535     17.75827       22.767    19.270964    7791.2996    10643.549    8870.0675    7689.9438    -303.9059   -327.66262   -817.83091   -3597.8925 
14890000    195.72728   -4988.1672   -4596.6885   -4988.1672            0    9498.6124    17.841152    22.936532    19.091697    7812.5924    9741.5397    8904.7096    9849.5881    222.41839    42.116813    106.16155   -3514.4294 
14891000    189.90692   -4991.1729   -4611.3356   -4991.1729            0     7567.793    17.855866     23.02538    19.158764    7876.8979    6550.7988    6962.3097    9190.2706    762.09381      535.321    119.81173   -3741.9742 
14892000    195.13268   -5005.0471   -4614.7576   -5005.0471            0    7235.1752    17.855741    22.919472    19.228369    7869.0977      8198.77    6966.0035     6540.752    777.09529   -1009.0939    1441.3758   -3784.4293 
14893000    189.83182   -4997.3292   -4617.6421   -4997.3292            0    8246.5883    17.974932    22.735715    19.236248    7861.3338    7668.7821    7415.7666    9655.2161   -1362.0232   -468.27169    -37.13143   -3672.1749 
14894000    192.94049   -4992.8368    -4606.932   -4992.8368            0    7670.8186    18.141476    22.482334    19.263979    7857.0591     6332.576    9242.5906    7437.2893   -254.34377    1518.2034   -63.186366   -3727.9548 
14895000    178.88335   -4966.5383   -4608.7495   -4966.5383            0    9580.7896    17.940429     22.79568    19.087284    7806.0172    9347.6771    9003.4206    10391.271    120.03716     804.6188    848.50618   -3518.0461 
14896000    189.72571   -4996.1811   -4616.7063   -4996.1811            0    7998.5265    17.863569    22.992181    19.118981     7852.594    7589.7788    8237.1326    8168.6682   -640.27706    816.68668     414.7847   -3700.6988 
14897000    191.18087   -5015.5137   -4633.1283   -5015.5137            0    7592.5453    17.898074    22.849394    19.169517    7839.5684    7738.7639    8450.0847    6588.7874    1701.6064    804.61055   -444.17337   -3765.0569 
14898000    190.52549    -4991.912   -4610.8375    -4991.912            0     9591.077    17.868988    22.587725    19.295891    7788.2036    11033.484    9630.9361    8108.8109      -126.17   -657.15393   -269.29754   -3521.4546 
14899000    197.37719   -4980.6537    -4585.875   -4980.6537            0    8717.0898    17.908283    22.561958    19.413656    7844.0087    9512.5198    8989.8732    7648.8765    332.92797    140.43358   -621.86831   -3588.6676 
14900000    187.60392   -4991.1826   -4615.9516   -4991.1826            0    9492.8632    17.766684    22.914924    19.154113    7798.0645    9749.0084    10035.503     8694.078    78.618762      1195.29   -2377.4555   -3536.3589 
14901000    198.46497   -4966.4225    -4569.468   -4966.4225            0    8126.5356    17.940693    22.923049     19.06794    7841.7932    6468.9348    8952.0663    8958.6056    514.61714    737.85415    2526.6914   -3640.0808 
14902000    187.22099   -4975.7561    -4601.291   -4975.7561            0    8443.2787     17.98788    22.656369    19.220168    7832.9882     9556.113    8475.3792    7298.3437   -899.58509   -729.84695    398.25161   -3636.7638 
14903000    193.48391   -4984.2764   -4597.2846   -4984.2764            0    8492.9964    17.863048    22.718597    19.335987    7846.9959     8949.341    8236.9446    8292.7036   -793.34852   -608.01684    309.27523   -3625.3429 
14904000     186.7883   -4980.7093   -4607.1096   -4980.7093            0    9162.8198    17.775086    22.753752    19.304181    7807.5739    10102.404    9036.8879    8349.1671   -485.41894   -226.58978   -789.80389   -3563.7809 
14905000    185.02878   -4986.6374    -4616.557   -4986.6374            0    7499.8101    17.858822    22.813953    19.324396    7873.3451    8066.4772    7945.3226    6487.6306     1350.203    595.88572    -205.4691   -3755.3938 
14906000    184.22302   -5001.8035   -4633.3347   -5001.8035            0    8158.9277    17.856092     22.70489    19.322747    7833.8397    9745.1984    8117.8962    6613.6885    1248.6851   -177.86581    3218.5983   -3701.1893 
14907000    190.71084   -4994.9566   -4613.5114   -4994.9566            0    7853.7628    17.931264    22.896021    19.172266    7871.2618    8001.4678    6352.2909    9207.5296   -1163.5237   -1240.2068   -2370.0477   -3711.9444 
14908000    185.94184   -5000.9987   -4629.0921   -5000.9987            0    8975.0507    17.927981    22.861125    19.039927     7803.587    9103.2792    8218.8847    9602.9882   -573.12011   -535.13331   -397.78231   -3607.6657 
14909000    192.89298   -5005.1135   -4619.3037   -5005.1135            0    8728.5445    17.689507    22.752156    19.421484    7816.6508      10619.2    8664.7537    6901.6795   -1024.9622    653.38871   -861.02743   -3624.2685 
14910000    195.48595   -4986.8172   -4595.8212   -4986.8172            0    9664.1179    17.788269    22.606434    19.420582    7809.5857    9906.1893    11255.908    7830.2566   -749.75099    1056.9416    2792.1784   -3495.1284 
14911000    186.48375   -5003.8439   -4630.8533   -5003.8439            0    8435.7053    17.910282    22.574964    19.383635    7837.2686    6893.4974    9941.0493    8472.5693    -87.30368    1326.4878   -718.89884   -3666.6647 
14912000    195.75635    -4999.585   -4608.0482    -4999.585            0    6879.9029    17.808951     22.94981    19.227871    7858.6622    7958.5249    6502.0904    6179.0935     305.7971   -2.4637247   -893.95664   -3819.5388 
14913000    188.23878   -4985.6313   -4609.1305   -4985.6313            0    9574.3042    17.790144    22.869581    19.206077     7814.053    9529.2297    9830.4786    9363.2042    921.93956    660.38387    999.39858   -3518.0433 
14914000    189.20728   -5002.5118   -4624.0739   -5002.5118            0    7803.5631     18.01157    22.854824    19.107674    7865.6983    5586.6842    8083.6641    9740.3409    265.97361    1906.1839   -341.34811   -3728.9026 
14915000    178.25485   -4971.9934   -4615.4616   -4971.9934            0    8403.7757    18.180529    22.621309     19.12508    7865.5211    7943.0292    7929.3048    9338.9931   -831.31329    246.07762   -306.81631   -3651.4598 
14916000    196.07349   -4969.1137   -4576.9425   -4969.1137            0    8410.2923    17.954948    22.573021    19.350456    7842.6902    9104.3332    8228.7182    7897.8255   -482.88595   -143.30517     1701.242   -3614.9935 
14917000    185.51483   -4990.9291   -4619.8766   -4990.9291            0    6994.1758    17.811432    22.869719       19.314    7867.4122    7059.9136    7553.0698    6369.5438    1226.0906    1399.3631    1423.2913   -3817.3779 
14918000    195.04434   -4970.3014   -4580.1886   -4970.3014            0    9652.3909    17.857821    23.077969    18.929955    7801.4552    8911.2925    8862.6648    11183.215   -1167.2443   -178.49704   -494.23433    -3481.976 
14919000    195.17056    -4966.393   -4576.0278    -4966.393            0    8919.3278    17.967981    22.751922    19.172428    7837.8058    8733.0172    9651.3103    8373.6558    274.34523   -712.27796    239.40049   -3556.4919 
14920000    194.01895   -4984.7618   -4596.6999   -4984.7618            0    9187.5742    17.903562    22.571106     19.36165    7824.1046    9684.3981     8205.465    9672.8596    566.06085   -362.96749    1541.7979   -3548.3376 
14921000    191.05459   -4976.5451   -4594.4123   -4976.5451            0    8377.6865    17.830644    22.673824     19.37094    7831.4556     8003.155     8931.615    8198.2894    1655.2626   -726.41617     374.1366   -3637.5654 
14922000    185.82985   -4991.5305   -4619.8478   -4991.5305            0    9142.8263    17.797285    22.880971    19.183255     7811.789    8829.9268    8781.0016    9817.5506    -1206.199   -679.30555   -459.76549   -3578.2337 
14923000    182.68286   -4990.2466   -4624.8583   -4990.2466            0    8105.9475    17.797637    23.067925     19.04831    7820.3705    7538.7315     7902.031      8877.08   -386.15078   -645.20413    545.40308   -3700.3581 
14924000     183.0389   -4976.1245    -4610.024   -4976.1245            0    8827.0894    17.784933    22.663973    19.374554    7809.4416    9553.4331    8598.5006    8329.3346    498.65925   -433.38642     1495.661    -3604.683 
14925000    192.18797   -5005.4591   -4621.0594   -5005.4591            0    7416.2772    17.953315    22.530256    19.458066    7870.6472    7164.6623    8638.4827    6445.6866   -1215.9821    179.61032    1188.9029   -3769.7797 
14926000    194.24042   -5006.7287   -4618.2239   -5006.7287            0     7337.852    17.984175    22.659514    19.318805    7872.6579    7418.8427    7588.6821    7006.0313   -601.69037    835.76861    1307.6062    -3775.731 
14927000    202.57656   -4996.6425   -4591.4643   -4996.6425            0    9434.6788    17.783985    22.806227    19.239218    7803.1498    11206.292    9315.8051    7781.9395    21.996237      358.812    1905.0439   -3517.7891 
14928000    198.23091   -4995.7676   -4599.2813   -4995.7676            0    6950.5675    17.782094    23.182351    19.093842    7871.0687    7717.5237    5727.8851    7406.2937   -954.50665    96.225515   -336.85429   -3801.4155 
14929000     185.2871   -4962.0261    -4591.429   -4962.0261            0    9167.2058    17.927967    22.941306    19.017333    7821.6575    7900.6128    8562.8114    11038.193   -207.72996   -319.10186    43.285003   -3545.7181 
14930000    193.73511   -4994.7034   -4607.2093   -4994.7034            0    7818.2797    17.923095    22.726139    19.249615    7840.8059    7495.2738    7248.1904     8711.375   -114.72277   -898.20795    341.47625   -3713.1881 
14931000    192.04139     -5006.24   -4622.1335     -5006.24            0    7544.2255    17.835873      22.7569     19.39734    7873.1704    6542.2151    9048.3079    7042.1536    558.76802    1278.9677    1107.6819   -3755.8896 
14932000    192.75821    -4984.492   -4598.9518    -4984.492            0    9692.5593    17.824557    22.710071    19.301963     7813.376    10423.378    9371.7101    9282.5893     911.8979   -564.60265    312.73373   -3494.4839 
14933000    187.89359   -4997.4081   -4621.5977   -4997.4081            0    8763.0449     17.80959     22.78162    19.316855    7837.4525    9476.9269    9511.9809     7300.227    1304.7798    26.257115     574.4337   -3619.9711 
14934000    180.75175   -4988.6234   -4627.0975   -4988.6234            0    9396.0646    17.946938    22.695145    19.193029    7817.4809    8797.2422    8313.0743    11077.877    -320.0328   -928.94041   -1833.9914   -3555.8528 
14935000    197.39148   -4976.6106   -4581.8033   -4976.6106            0    8862.6469    17.726828    22.894982    19.301264    7833.5224    11104.435    7853.9435    7629.5617    1006.7254   -857.50399   -126.08707   -3569.3001 
14936000    194.34237   -4984.2545   -4595.5457   -4984.2545            0    7593.0158    17.729863    23.000019    19.231306      7842.28    8464.2475     6494.524    7820.2758   -528.99552   -669.66301     909.1679   -3727.1203 
14937000    186.97135   -4992.9139    -4618.948   -4992.9139            0    8270.3045    17.831654    22.888547    19.170079    7824.0886    7572.3995     8659.369    8579.1451   -1206.3025   -769.16523    -659.4268   -3675.2541 
14938000    196.08884   -4975.8685   -4583.6666   -4975.8685            0    9805.1316    17.934807    22.539284     19.29148    7798.3435    10487.161    9979.2088    8949.0255   -156.61779   -1481.4205    61.211068   -3468.5207 
14939000    179.14786   -4993.4885   -4635.1707   -4993.4885            0    7643.7036    17.917864    22.488282    19.515349    7863.5535    8590.0429    8900.9706    5440.0973    1399.8274    11.854351   -2.8090805   -3758.5765 
14940000    195.43381   -4964.0091   -4573.1174   -4964.0091            0     9293.551     17.79812    22.903191    19.221103    7835.1704    11171.754    8844.1706     7864.728   -570.98735    943.46017    966.89628   -3511.1626 
14941000    197.06972   -4989.9585   -4595.7947   -4989.9585            0    8541.4106    17.749455    23.002338    19.117159    7805.1343    8790.0205     7838.194    8996.0174    175.56947   -88.594107     801.9326   -3623.5269 
14942000    184.69352   -4961.6868   -4592.2769   -4961.6868            0    10212.989    17.975487    22.715735    19.064929    7784.7142    8717.9025    10716.833    11204.233    1129.7312    650.23787    825.74201   -3432.7751 
14943000    189.93015   -4995.4339   -4615.5502   -4995.4339            0    7882.6954    18.001537    22.652716    19.237635    7844.7939    6512.5965    9301.5943    7833.8954    20.219474    912.81806   -1008.7122   -3713.7046 
14944000    185.88833   -4978.6795   -4606.8798   -4978.6795            0    7382.0352    18.059545    22.597551     19.33668     7891.328    7932.1639    7561.1205    6652.8212   -864.83777   -558.14078    705.44323   -3757.3041 
14945000     189.4915   -4982.5625   -4603.5561   -4982.5625            0    9662.2358      17.9226    22.769507    19.126586    7805.3446    8284.4222    10244.458    10457.827    752.72087    342.40489    67.728335   -3503.6753 
14946000    193.82372   -5007.5128   -4619.8414   -5007.5128            0    6106.9469    17.965465    22.954018    19.156361     7899.693    6324.3602    5823.0612    6173.4192   -553.83961   -22.789274   -79.052214   -3916.2667 
14947000    189.22957   -4992.4366   -4613.9541   -4992.4366            0    7795.1731    17.943003    22.776665    19.269752    7875.1963     7105.218    8535.9258    7744.3756    586.68552   -683.01239    408.19442   -3718.6656 
14948000    189.60687    -4987.096   -4607.8588    -4987.096            0    9487.6421    17.895141    22.668853    19.265214    7815.1715    9571.8481     9548.532    9342.5461   -958.17494   -192.41618    655.55153   -3526.4929 
14949000    193.08436    -4987.745   -4601.5524    -4987.745            0    7859.9557    18.013124    22.839109    19.157578    7881.4985    8724.2445    7021.6725    7833.9502   -553.32506    302.04349   -1355.0285    -3698.101 
14950000    188.15498   -4990.7018   -4614.3686   -4990.7018            0    8838.5734    17.968734    22.732979    19.145203    7820.4873    9041.6158    8859.2157    8614.8888    3069.2408    348.40182    598.01122   -3606.2958 
14951000       194.14   -4994.0037   -4605.6997   -4994.0037            0    7722.4845    17.967549    22.813187    19.166915    7856.4623    6704.9852    8762.7503    7699.7178    934.46885    1964.7506   -1406.5419   -3720.8694 
14952000    184.36409   -4979.7957   -4611.0448   -4979.7957            0    7625.6306    17.901827    22.796234    19.263713      7861.41    7861.0034    7416.9666    7598.9216   -193.59652   -1091.5734   -422.33035   -3736.7617 
14953000    190.19388   -5007.3107   -4626.8995   -5007.3107            0     7631.191      17.6833    22.929528    19.358174    7849.1539    8394.1436    7446.0612     7053.368   -1649.9869    746.31296   -856.08505   -3753.3429 
14954000    186.56118   -5004.5965    -4631.451   -5004.5965            0    8784.2689    17.827045    22.849322      19.1596    7804.3927    10869.841    7081.4762    8401.4894   -659.98362   -848.16501     582.4849   -3631.6338 
14955000    191.10248   -5015.7617   -4633.5332   -5015.7617            0    8014.4636    17.949387    22.735644     19.25435    7857.5248    8556.9344    7272.4161    8214.0402   -455.15515   -958.37409   -1624.3178   -3715.1242 
14956000    192.32256   -5003.3114   -4618.6425   -5003.3114            0    7988.5984    17.959299    22.682599    19.238027    7836.8715    7695.8085    7745.2748    8524.7119    2333.8148   -1475.6548   -1942.1268   -3705.6038 
14957000    189.68903   -4981.4646   -4602.0631   -4981.4646            0    8505.5184    17.993748    22.576236    19.278247    7831.4234    8201.2519     8545.708    8769.5954   -1371.9264    422.22053   -1844.9082     -3630.62 
14958000    193.20763   -4974.1429   -4587.7038   -4974.1429            0    8648.5937    18.071873    22.822025    18.992058    7833.0222    6113.8683    8362.3134    11469.599   -448.38322    -34.68571   -1118.4747   -3599.7179 
14959000     193.1668   -4991.8397   -4605.4823   -4991.8397            0    9339.0626    17.976995    22.854003    19.006685    7808.8261    7586.3881    10440.091    9990.7092    230.22064    1516.7437    66.946363   -3541.9151 
14960000    196.94591   -4988.3883   -4594.4722   -4988.3883            0    8119.5283    17.915204    22.897459    19.099207    7834.7361     8012.047    7814.5826    8531.9554    721.42058   -524.38093     1127.207    -3666.722 
14961000    187.38366   -4981.5753   -4606.7848   -4981.5753            0    8737.7321     17.87861    22.666804    19.353762    7843.1305     9017.731     8361.618    8833.8475   -419.03891    291.85586    334.24877    -3607.328 
14962000    189.21521   -4985.6588    -4607.205   -4985.6588            0     8999.485    17.907408    22.580801    19.333445    7817.7413    8762.8828    9254.9795    8980.5927   -147.69559     56.20143   -661.08958     -3581.14 
14963000    187.51593   -4989.0018   -4613.9467   -4989.0018            0    7240.5272    18.011671    22.638129    19.306119    7872.0805    8138.6565    6983.3583    6599.5667   -637.09023    96.517351   -1657.6073   -3782.6892 
14964000     190.0052   -4984.3296   -4604.2957   -4984.3296            0    9535.7856    17.920743      22.6232    19.254274    7806.1553    10925.876    9210.0467    8471.4337    991.54063   -7.7336152    1296.1562   -3518.6964 
14965000     185.7014   -5006.4439   -4635.0182   -5006.4439            0    10366.049     17.70117    22.881019    19.174335    7766.0048    11232.304     9875.175    9990.6671   -38.749198    515.80022   -374.88856   -3460.9677 
14966000    186.51679   -4983.7408   -4610.6842   -4983.7408            0    8942.9519    17.732444    23.000178    19.198863    7830.2444    8462.7127    9062.9525    9303.1907    12.064916    298.75146   -153.80919   -3589.4341 
14967000    186.04505   -5008.2584   -4636.1453   -5008.2584            0    8398.8288     17.85046      22.9436    19.129877    7834.7143    8963.0983    8289.7945    7943.5937   -501.86662     717.9222    332.45519   -3676.4844 
14968000    193.93537   -4981.3287    -4593.434   -4981.3287            0    7852.5783    17.906242    22.765285    19.210375    7830.9307    7106.6427    8335.9585    8115.1337   -543.09576   -657.86697    342.55328   -3696.6217 
14969000      195.598   -5004.0655   -4612.8453   -5004.0655            0    7609.0521    18.075205    22.443701    19.418397    7877.5487    6940.8109    8453.8938    7432.4517   -1245.2325   -1083.4015   -683.03073    -3738.672 
14970000    185.94386   -4996.9538   -4625.0432   -4996.9538            0    8374.4736    17.907114    22.717661    19.195356    7808.8193     7915.319    8924.4685    8283.6333   -139.50072    764.12956   -1695.6176   -3671.3278 
14971000    187.23629   -4987.0645   -4612.5688   -4987.0645            0    7600.4396    17.992847    22.780428    19.133308    7842.4511    7266.0717    7066.5408    8468.7063    1878.4827   -507.34353    1509.4139   -3743.2754 
14972000    182.87406   -5009.4718   -4643.7011   -5009.4718            0    8111.1679    17.976783    22.829503    19.150496    7859.3831    8209.8074    7742.6001    8381.0962   -1024.8668    60.315416    244.47403   -3713.9906 
14973000    179.50789   -4994.7962   -4635.7583   -4994.7962            0    7145.9617    17.889019     22.96609    19.184325    7881.7037    8028.2734     5954.308    7455.3036   -766.92258    77.121991   -1094.1198   -3814.3545 
14974000    190.95555   -4993.8239   -4611.8892   -4993.8239            0    7907.5017    17.899144    22.787667    19.237261    7846.4886    7333.1308    8198.7691    8190.6054   -6.3779447    599.68345   -78.226577   -3707.0102 
14975000    189.22412   -4994.6767    -4616.205   -4994.6767            0    8933.0751     17.95751    22.577133    19.284527    7818.5085    8881.6796    8584.4486    9333.0972    1481.9435   -427.47613   -1487.5281   -3597.6118 
14976000    188.92756   -4989.2623   -4611.3838   -4989.2623            0    8925.9531    17.771915    22.795862    19.266518    7805.3698     9890.858    8543.8113      8343.19   -1014.0903   -553.81648    294.86378    -3595.313 
14977000    193.73097   -4947.3629    -4559.877   -4947.3629            0    10061.418    17.792788    22.857811     19.19476    7806.5889    10427.225    9400.3219    10356.708   -590.20075   -162.51884   -221.40296   -3414.3735 
14978000    193.10015   -4973.8746   -4587.6504   -4973.8746            0    9678.8743    17.873634    22.812517    19.205139    7830.7529    11283.164    9323.4071    8430.0519   -784.03839   -179.98523    -1086.511   -3482.2891 
14979000    191.98606   -4980.4723   -4596.4765   -4980.4723            0    7761.2379    17.842325    22.801032    19.394156    7889.9969     7962.102    7155.7474    8165.8643     1045.326   -297.17031    1227.6222   -3703.4101 
14980000     194.7467   -4967.9739   -4578.4564   -4967.9739            0    6887.9318    17.886381    22.753895     19.38539    7889.5598    7263.5009     7140.202    6260.0925    1045.1001   -419.40318    1700.8232   -3785.9231 
14981000    200.32709   -4991.8223   -4591.1434   -4991.8223            0    9383.1069    17.844744    22.800631    19.248913    7831.8327      8657.95    10005.405    9485.9659   -287.89736     842.5285    -923.1386    -3519.412 
14982000    194.39192   -4993.9738    -4605.166   -4993.9738            0    7458.3413    17.800939    22.915162      19.2954    7870.8133    6956.6185    6680.7237    8737.6818   -1295.1231   -98.987409   -1329.8585   -3749.0399 
14983000    184.18208   -4984.3555   -4615.9686   -4984.3555            0    9043.7671    17.849636     22.91501    19.116181     7818.988    9065.1745    8467.3446    9598.7822    -380.6762    55.345875    838.06423   -3584.6905 
14984000    193.63636   -4980.1644   -4592.8678   -4980.1644            0    7398.5641    17.848053    22.894558    19.225165    7855.8501     6530.094    6990.0744    8675.5238    179.10325   -986.88093   -888.19867   -3745.2179 
14985000    191.55246   -5002.8213   -4619.6927   -5002.8213            0    9789.8912    17.940118    22.786821    19.017988    7774.5204    7932.4259     10479.22    10958.028     86.93651   -109.90886   -554.32218   -3509.6815 
14986000    191.29369   -4998.7666   -4616.1556   -4998.7666            0    8567.1103    17.959226    22.737448    19.202386    7841.2364     7944.369    8792.6322    8964.3297   -320.72951    320.74243    920.62396   -3636.4518 
14987000    182.71883   -4981.0004   -4615.5402   -4981.0004            0    8050.9018    17.804963    22.732245    19.398369    7851.4273    8197.2282    8721.2585    7234.2187   -157.67196   -106.40706   -676.30855   -3693.6716 
14988000    188.88484   -4972.1568   -4594.3638   -4972.1568            0    7127.3321    17.693304     22.99071    19.339643    7867.0111    8883.1731    6473.5021     6025.321    -640.4688   -642.87879    1305.8316   -3776.6287 
14989000     185.1666   -4975.7773   -4605.4212   -4975.7773            0    7468.1286    17.898811    22.941333    19.148541    7862.8237     7624.883    8187.6867    6591.8162   -207.29819    584.56285    -1202.433   -3749.0418 
14990000    194.05308   -4980.2652    -4592.135   -4980.2652            0    9337.6731    17.914726    22.752293    19.168588    7813.1376    8310.2705    10199.237    9503.5123    924.68207   -302.80631   -325.50774   -3528.1389 
14991000    179.76129   -4986.2328    -4626.688   -4986.2328            0    6016.2866    18.010978     22.63591    19.352456    7889.8972     4858.991    7855.6634    5334.2053   -164.74186   -289.88291   -645.26055   -3934.4176 
14992000    185.70625   -4980.1401   -4608.7046   -4980.1401            0    9868.8539    17.816558    22.702747     19.33961    7822.5786    10725.874    9504.5656    9376.1221    362.44118   -543.81398    2198.8938   -3482.8235 
14993000    204.45695   -4989.1715   -4580.2323   -4989.1715            0       9029.5     17.85285    22.861983    19.120851    7804.2046    10366.671    7344.4359    9377.3933   -1148.4501   -710.54787    1893.1226   -3552.5279 
14994000    194.44521   -4979.0487   -4590.1343   -4979.0487            0    9162.4525    17.788388    22.732744    19.306939    7807.3185    8859.3075    9686.9749    8941.0751    551.22274    1073.5698   -1326.3875   -3546.8816 
14995000    194.55897   -4972.0407   -4582.8987   -4972.0407            0    7839.3472    17.975471    22.676829    19.306254     7869.744    8105.5544    7995.1396    7417.3477   -473.54172   -412.30574   -1941.8309     -3683.16 
14996000     194.4935   -5001.1428   -4612.1318   -5001.1428            0     6770.273    18.010807    22.702257     19.21619    7857.2304    5176.8467    8061.0741    7072.8983    -206.6837   -754.11629    -1263.816   -3836.3286 
14997000    197.05395    -4998.669   -4604.5368    -4998.669            0    8786.3813     17.91871    22.839208     19.15034    7837.2607    9729.5298    8782.7132    7846.9009   -659.77778    46.795775    152.29459   -3600.2674 
14998000    190.52118    -4971.427   -4590.3611    -4971.427            0    8514.5122    17.872647     22.94041    19.145241    7849.6606    9308.3962    7660.9104    8574.2301   -330.00637    449.06039    617.45333   -3615.6262 
14999000     193.4113   -5008.8044   -4621.9579   -5008.8044            0    7646.0029    17.998731     22.80026    19.154578     7860.574    6797.8397    7532.4459    8607.7231    -1537.494    -67.84016   -627.45428   -3745.4323 
15000000    196.57558   -4976.1843   -4583.0089   -4976.1843            0    8128.8387    18.079575    22.594964    19.257172    7866.6963    6644.4419    9148.7105    8593.3639   -847.67428    1410.6961    502.99197   -3650.4059 
Loop time of 670.681 on 64 procs for 250000 steps with 1008 atoms

Performance: 64.412 ns/day, 0.373 hours/ns, 372.755 timesteps/s
373.8% CPU use with 16 MPI tasks x 4 OpenMP threads

MPI task timing breakdown:
Section |  min time  |  avg time  |  max time  |%varavg| %total
---------------------------------------------------------------
Pair    | 41.56      | 45.167     | 49.279     |  28.3 |  6.73
Bond    | 1.6906     | 1.9411     | 2.3509     |  13.6 |  0.29
Kspace  | 329.45     | 339.2      | 346.66     |  25.4 | 50.58
Neigh   | 2.7934     | 2.9673     | 3.3279     |   9.3 |  0.44
Comm    | 98.7       | 107.79     | 119.62     |  49.1 | 16.07
Output  | 0.55509    | 0.55541    | 0.55689    |   0.1 |  0.08
Modify  | 130.19     | 138.04     | 147.42     |  36.7 | 20.58
Other   |            | 35.02      |            |       |  5.22

Nlocal:        63.0000 ave          69 max          59 min
Histogram: 1 2 1 6 1 0 2 0 2 1
Nghost:        3446.62 ave        3468 max        3427 min
Histogram: 2 0 3 1 2 3 2 1 1 1
Neighs:        21282.8 ave       23234 max       20024 min
Histogram: 3 0 5 2 1 1 1 1 1 1

Total # of neighbors = 340524
Ave neighs/atom = 337.82143
Ave special neighs/atom = 2.0000000
Neighbor list builds = 5410
Dangerous builds = 0

unfix		3
unfix		2
unfix		1

write_data	data.final.${pid}
write_data	data.final.1
System init for write_data ...
PPPM initialization ...
  extracting TIP4P info from pair style
  using 12-bit tables for long-range coulomb (../kspace.cpp:340)
  G vector (1/distance) = 0.37858938
  grid = 24 27 32
  stencil order = 5
  estimated absolute RMS force accuracy = 0.0025520543
  estimated relative force accuracy = 7.6854358e-06
  using double precision FFTW3
  3d grid and FFT values/proc = 7875 1344
Last active /omp style is kspace_style pppm/tip4p/omp
WARNING: Not all mixed pair coeffs generated from mixing. Use write_data with 'pair ij' option to store all pair coeffs. (../write_data.cpp:312)

write_restart   restart.lmp.${pid}
write_restart   restart.lmp.1
System init for write_restart ...
PPPM initialization ...
  extracting TIP4P info from pair style
  using 12-bit tables for long-range coulomb (../kspace.cpp:340)
  G vector (1/distance) = 0.37858938
  grid = 24 27 32
  stencil order = 5
  estimated absolute RMS force accuracy = 0.0025520543
  estimated relative force accuracy = 7.6854358e-06
  using double precision FFTW3
  3d grid and FFT values/proc = 7875 1344
Last active /omp style is kspace_style pppm/tip4p/omp
Total wall time: 0:11:10
