LAMMPS (30 Jul 2021)
  using 1 OpenMP thread(s) per MPI task
package omp 0
using multi-threaded neighbor list subroutines
echo both

include		in.partitions
variable        pid world 0
include		in.temp
variable        temperature equal 235.02
variable	tempDamp equal 100.0
include		in.pressure
variable        pressure equal 1500.0
variable        pressureDamp equal 1000.0 # This is 1 ps
include		in.seed
variable        seed world 745823

units		real
atom_style	full
box tilt large
read_restart	restart.lmp.${pid}
read_restart	restart.lmp.0
Reading restart file ...
  restart file = 30 Jul 2021, LAMMPS = 30 Jul 2021
  restoring atom style full from restart
  triclinic box = (-10.734970 -9.3114552 -0.042998973) to (12.714970 12.301453 21.902998) with tilt (-9.2217767 2.1336182 3.1377551)
  4 by 4 by 4 MPI processor grid
  restoring pair style lj/cut/tip4p/long/omp from restart
  restoring bond style harmonic/omp from restart
  restoring angle style harmonic/omp from restart
  1296 atoms
  864 bonds
  432 angles
Finding 1-2 1-3 1-4 neighbors ...
  special bond factors lj:    0        0        0       
  special bond factors coul:  0        0        0       
     2 = max # of 1-2 neighbors
     1 = max # of 1-3 neighbors
     1 = max # of 1-4 neighbors
     2 = max # of special neighbors
  special bonds CPU = 1.788 seconds
  read_restart CPU = 2.239 seconds
include 	in.setup
variable	out_freq equal 1000
variable	out_freq2 equal 10000
variable	out_freq3 equal 1000

timestep	2.0

neigh_modify    delay 7 every 1

include		in.tip4p
# This is TIP4P/Ice

# create groups ###
group ox type 2
432 atoms in group ox
group hy type 1
864 atoms in group hy

# set charges - beside manually ###
set group ox charge -1.1794
Setting atom values ...
  432 settings made for charge
set group hy charge 0.5897
Setting atom values ...
  864 settings made for charge

# ### TIP3P Potential Parameters ###
pair_style lj/cut/tip4p/long/omp 2 1 1 1 0.1577 8.5
pair_coeff 1 1*2 0.000 0.000
pair_coeff 2 2 0.21084 3.1668
bond_style  harmonic
bond_coeff  1 450 0.9572
angle_style harmonic
angle_coeff 1 55 104.52
kspace_style pppm/tip4p/omp 1.0e-5
pair_modify tail yes

thermo          ${out_freq}
thermo          1000
thermo_style    custom step temp pe etotal epair emol press lx ly lz vol pxx pyy pzz pxy pxz pyz enthalpy

restart 	${out_freq3} restart.lmp.${pid} restart2.lmp.${pid}
restart 	1000 restart.lmp.${pid} restart2.lmp.${pid}
restart 	1000 restart.lmp.0 restart2.lmp.${pid}
restart 	1000 restart.lmp.0 restart2.lmp.0


include         in.dump
dump            myDump all atom ${out_freq2} dump.water.${pid}
dump            myDump all atom 10000 dump.water.${pid}
dump            myDump all atom 10000 dump.water.0
dump            myDump2 all dcd ${out_freq2} dump.dcd
dump            myDump2 all dcd 10000 dump.dcd
dump_modify     myDump append yes
dump_modify     myDump2 append yes


variable natoms 	equal  "count(all)"                        # NUMBER ATOMS
variable H      	equal  "enthalpy/v_natoms"                 # ENTHALPY-per-atom
variable Vol      	equal  "vol/v_natoms"                 # volume-per-atom
fix AVG all 		ave/time ${out_freq} 1 ${out_freq} v_Vol v_H file vol_enthalpy.dat
fix AVG all 		ave/time 1000 1 ${out_freq} v_Vol v_H file vol_enthalpy.dat
fix AVG all 		ave/time 1000 1 1000 v_Vol v_H file vol_enthalpy.dat


timer           timeout 10:00:00 every 1000
New timer settings: style=normal  mode=nosync  timeout=10:00:00

fix 		1 all shake 1e-6 200 0 b 1 a 1
       0 = # of size 2 clusters
       0 = # of size 3 clusters
       0 = # of size 4 clusters
     432 = # of frozen angles
  find clusters CPU = 0.219 seconds
fix             2 all nph tri ${pressure} ${pressure} ${pressureDamp}
fix             2 all nph tri 1500 ${pressure} ${pressureDamp}
fix             2 all nph tri 1500 1500 ${pressureDamp}
fix             2 all nph tri 1500 1500 1000
fix             3 all temp/csvr ${temperature} ${temperature} ${tempDamp} ${seed}
fix             3 all temp/csvr 235.02 ${temperature} ${tempDamp} ${seed}
fix             3 all temp/csvr 235.02 235.02 ${tempDamp} ${seed}
fix             3 all temp/csvr 235.02 235.02 100 ${seed}
fix             3 all temp/csvr 235.02 235.02 100 745823


run             250000
PPPM initialization ...
  extracting TIP4P info from pair style
  using 12-bit tables for long-range coulomb (../kspace.cpp:340)
  G vector (1/distance) = 0.37355561
  grid = 27 40 36
  stencil order = 5
  estimated absolute RMS force accuracy = 0.0031974121
  estimated relative force accuracy = 9.6289115e-06
  using double precision FFTW3
  3d grid and FFT values/proc = 5130 675
Last active /omp style is kspace_style pppm/tip4p/omp
Neighbor list info ...
  update every 1 steps, delay 7 steps, check yes
  max neighbors/atom: 2000, page size: 100000
  master list distance cutoff = 10.8154
  ghost atom cutoff = 10.8154
  binsize = 5.4077, bins = 7 5 5
  1 neighbor lists, perpetual/occasional/extra = 1 0 0
  (1) pair lj/cut/tip4p/long/omp, perpetual
      attributes: half, newton on, omp
      pair build: half/bin/newton/tri/omp
      stencil: half/bin/3d/tri
      bin: standard
Per MPI rank memory allocation (min/avg/max) = 9.407 | 9.428 | 9.442 Mbytes
Step Temp PotEng TotEng E_pair E_mol Press Lx Ly Lz Volume Pxx Pyy Pzz Pxy Pxz Pyz Enthalpy 
 2250000    244.27015   -6330.9166   -5702.5465   -6330.9166            0    1085.1847     23.44994    21.612908    21.945997    11122.701    1622.1416    531.88713    1101.5254   -1435.0587    149.83313    31.845435   -5526.5152 
 2251000    235.92829   -6357.0134   -5750.1023   -6357.0134            0    2334.3602    23.471705    21.578976    21.861735    11072.867    2593.0088    2295.2624    2114.8093   -43.966429   -322.31515   -170.47564   -5373.1348 
 2252000    241.98462    -6366.283   -5743.7923    -6366.283            0    2426.6248    23.566418     21.53037    21.776159    11049.086    1783.5035    2751.0544    2745.3166    1435.4687    -393.1825    373.73044    -5352.767 
 2253000    229.97732   -6337.2738   -5745.6712   -6337.2738            0    2387.4589    23.416828    21.583108    21.964009    11100.784    2775.7817     2346.319    2040.2761    -103.4005   -664.15552    1215.5756    -5359.157 
 2254000    229.94697    -6372.874   -5781.3494    -6372.874            0    115.81894    23.557921    21.577418    22.001222    11183.642    34.683965   -105.38832    418.16117     915.9937    120.92658    380.15172   -5762.4591 
 2255000     242.3529   -6374.3662   -5750.9281   -6374.3662            0     127.1442    23.381524    21.761022    21.998306    11192.867    821.10073   -91.491304   -348.17683   -572.69104    718.93733   -839.03039   -5730.1735 
 2256000    246.57584    -6367.306   -5733.0047    -6367.306            0    1414.7824    23.523363    21.602358    21.882884    11120.008    872.42562    1862.1459    1509.7757   -296.12841   -73.684357    345.43951   -5503.5639 
 2257000    237.90492   -6369.2893   -5757.2934   -6369.2893            0     2541.342    23.320619      21.6071    21.944773    11057.772    2209.0002    3221.2275    2193.7984   -92.038907    510.92538   -1559.3188   -5347.4607 
 2258000    234.96702   -6341.9307   -5737.4924   -6341.9307            0    1821.4747    23.534367    21.491179    21.973667     11113.87    855.83091    2261.3544    2347.2387    1256.3507   -338.91567    54.163421   -5442.2597 
 2259000    246.41517    -6333.679    -5699.791    -6333.679            0   -6.9162181    23.570768    21.765837    21.786473    11177.278    199.58188   -401.40305    181.07251   -697.84099    530.01513   -834.25935   -5700.9184 
 2260000    233.33495    -6331.548   -5731.3081    -6331.548            0     1055.927    23.506703    21.505098    22.099563    11171.637     889.7377    1230.3545    1047.6888    186.84373    348.41643   -715.31805   -5559.2692 
 2261000     231.4536   -6343.3242    -5747.924   -6343.3242            0    2558.7041    23.423339    21.618247    21.909662    11094.429    3762.8895    2035.4891    1877.7337    114.27887   -338.48071   -829.75685   -5333.9234 
 2262000    241.70374   -6325.7074   -5703.9392   -6325.7074            0    1711.8356     23.59896    21.487089    21.896386    11103.065    1503.3059    2555.8993    1076.3015   -924.59868    70.399529   -336.31236   -5426.7471 
 2263000    235.47316   -6322.0236   -5716.2832   -6322.0236            0    1072.8535    23.372352    21.753338    21.974058    11172.197    1764.0256    82.413771    1372.1212   -1006.1609   -1469.6781     578.9021   -5541.4778 
 2264000     226.4142   -6358.2811   -5775.8444   -6358.2811            0    884.60317    23.552575    21.542998    21.911808      11117.9    903.72365    400.94242    1349.1434    864.99923    290.82932     743.9819   -5632.4121 
 2265000    242.85811   -6366.8977     -5742.16   -6366.8977            0    433.37216    23.524255    21.552552     22.00861    11158.535   -249.99013    1538.3124     11.79421    314.55519    851.96259   -216.83876   -5671.6348 
 2266000    236.52845   -6361.2631   -5752.8081   -6361.2631            0    1623.6648    23.478134    21.647326    21.866786    11113.549    1886.2071    1006.2624     1978.525   -884.51023    561.23636   -137.72441    -5489.645 
 2267000     234.6944   -6344.9916   -5741.2546   -6344.9916            0    3426.5606     23.42853    21.560167    21.815604    11019.564    2203.9929    3246.2345    4829.4545    404.65229    457.66322    53.332786   -5190.5753 
 2268000    227.03958    -6356.372   -5772.3265    -6356.372            0    504.17825    23.608475    21.657692    21.798305    11145.584   -956.29862    1534.9578    933.87554   -83.619505   -288.21702   -199.18341   -5690.3739 
 2269000    239.59199   -6368.7879   -5752.4521   -6368.7879            0    1364.0082    23.409279    21.546775    22.050717     11122.26    2009.8167    871.37602     1210.832   -286.10387   -327.83577    1077.0247   -5531.2007 
 2270000    223.15519   -6334.8676   -5760.8145   -6334.8676            0    2131.0719    23.412304    21.516338    22.015892    11090.441    2429.2046    2306.6284    1657.3827    297.62263    -333.0495    1065.0103   -5416.1291 
 2271000    233.54124   -6379.3961   -5778.6255   -6379.3961            0    872.30699    23.476129    21.732606    21.826678    11135.915    358.03434    634.15562     1624.731    418.48585    165.97057   -262.00594   -5636.9577 
 2272000    231.60847   -6335.7833   -5739.9847   -6335.7833            0    1669.9491    23.697486    21.518104    21.768774    11100.441   -150.13309    2002.0219    3157.9586    903.64447    1848.2329    -517.6048    -5469.639 
 2273000    239.00523   -6377.7508   -5762.9244   -6377.7508            0    1757.2942    23.400509    21.738739    21.786333    11082.654    1649.2342    715.57799    2907.0705    197.31989    13.914843    737.30806   -5478.8944 
 2274000    255.26286   -6334.6914   -5678.0432   -6334.6914            0    1539.5729    23.464547    21.442603    22.149467    11144.304    1499.2371    1616.2718    1503.2096   -659.43356   -877.26331    686.16247   -5427.8192 
 2275000    229.19966   -6300.2324   -5710.6302   -6300.2324            0    1710.8028    23.340533    21.744033    21.972352     11151.35    1961.4329    1027.4034     2143.572   -171.29194   -194.28079    838.72786   -5432.4007 
 2276000    241.49614   -6332.6809   -5711.4468   -6332.6809            0    1432.6041    23.841249    21.547611    21.648052     11121.08   -48.697719    1660.8919    2685.6181    242.51653    636.45783    92.052883   -5479.0934 
 2277000    228.73843    -6317.402   -5728.9863    -6317.402            0    1702.3519    23.484388    21.651865     21.87202    11121.503    1377.6416    2023.2767    1706.1375    648.19335    1587.4782    1395.0764   -5452.8721 
 2278000    225.61216    -6354.185   -5773.8114    -6354.185            0    1591.1092    23.363201    21.545479    22.058247     11103.49    902.84224     3814.395    56.090365    770.60522    474.09927   -263.13353   -5516.1583 
 2279000    236.59263   -6379.5395   -5770.9194   -6379.5395            0    1226.0807    23.511959    21.540413    21.893855    11088.303    443.13073    1503.5041    1731.6072   -137.48632   -547.99363   -558.06111    -5572.648 
 2280000    243.43945   -6327.6619   -5701.4288   -6327.6619            0    1873.0014    23.513456    21.715535    21.758732    11110.167    1455.4505     1671.561    2491.9927    240.34968   -844.67849   -672.17133   -5397.9456 
 2281000    238.03428   -6324.7799   -5712.4512   -6324.7799            0      260.734    23.601703    21.636203     21.93695    11202.131   -178.89798     581.5152    379.58476    56.095076   -817.13587    826.12388   -5669.8547 
 2282000    241.43625   -6356.1637   -5735.0837   -6356.1637            0    1135.0286    23.334572    21.644501    22.026456    11124.796    1591.3994    498.24837    1315.4379    -41.11326    -423.7096     815.6204   -5550.9324 
 2283000    227.64292   -6330.6153   -5745.0178   -6330.6153            0    2383.5994    23.448751    21.533681    21.922729    11069.618    2365.9904    2151.4451    2633.3628   -1331.5915    220.82611    177.46401   -5360.2118 
 2284000     237.9025   -6378.3006   -5766.3109   -6378.3006            0     1807.878    23.435296    21.702609    21.775569    11075.208    1906.7857     1118.341    2398.5074   -295.94702    844.57613   -805.67176   -5474.3015 
 2285000    240.20579   -6390.4668    -5772.552   -6390.4668            0    2307.3817    23.499603       21.419    21.962059    11054.339    2457.5347    2835.3976    1629.2129    1274.0654    469.22121   -455.25316   -5400.5647 
 2286000     233.4928   -6370.8123   -5770.1664   -6370.8123            0    2681.4878    23.184619    21.713765    21.912616    11031.367    3744.2116    1984.3245    2315.9272    207.09864    309.92322   -775.93789   -5338.7655 
 2287000    241.55329   -6359.8605   -5738.4794   -6359.8605            0     3272.493     23.50357    21.417782    21.903876    11026.287     2518.055    4192.1809    3107.2429   -1079.5129    767.22575   -930.60684   -5212.2393 
 2288000    235.34837   -6351.3239   -5745.9046   -6351.3239            0     1000.751     23.39168    21.680609     21.90789    11110.496    2173.4756   -955.41849    1784.1958   -286.73541   -4.3487442    674.16491   -5583.7477 
 2289000    231.99038   -6340.0746   -5743.2935   -6340.0746            0    -179.0756    23.548523    21.514705    22.103731    11198.624    892.12986   -503.83708   -925.51959   -563.03413   -1165.3073    63.949655   -5772.5402 
 2290000    229.15009   -6346.4153   -5756.9406   -6346.4153            0    546.15019    23.394508    21.868015    21.781468    11143.213    183.87498   -901.17395    2355.7496   -511.16982    110.45518    870.30271   -5668.1845 
 2291000    227.00411   -6349.1545   -5765.2002   -6349.1545            0    1330.2699    23.656573    21.482696    21.889011    11124.148    125.97543    2170.0829    1694.7515   -134.72733    1216.4345    39.641813   -5549.3848 
 2292000    229.55329   -6348.2895   -5757.7776   -6348.2895            0    1385.2813    23.322662    21.662481     21.96404     11096.82    1554.7647    1264.8369    1336.2425    599.09361   -151.96617    244.72441   -5533.5896 
 2293000    246.47289   -6374.8233   -5740.7868   -6374.8233            0    1681.5663    23.496533    21.471715    21.960313    11079.217   -347.36138    3640.5081     1751.552    1551.9131    873.04131   -426.96861    -5469.081 
 2294000    235.39244   -6343.9297    -5738.397   -6343.9297            0    1471.9533    23.527218    21.665253    21.834646    11129.625    2116.1214    865.65508    1434.0833    715.31225   -349.09182   -42.418347   -5499.4781 
 2295000    219.82524   -6376.9679   -5811.4809   -6376.9679            0    1440.1461    23.550032    21.636758    21.813961    11115.224    1823.0419    894.70302    1602.6935    -1527.335   -748.05621   -590.33815   -5578.0272 
 2296000     237.7703   -6346.4002   -5734.7506   -6346.4002            0    2146.0847    23.367217    21.591638    21.951928    11075.549    3216.6859    1857.2798    1364.2884    592.26347   -476.17254   -818.39357   -5388.1032 
 2297000    236.16942   -6375.1261   -5767.5946   -6375.1261            0    974.03136    23.478599    21.535874    21.916036    11081.453    203.51476     1773.311    945.26836    484.86193    652.02066   -351.23918   -5610.1798 
 2298000    245.21645   -6360.5438   -5729.7394   -6360.5438            0    1579.2287    23.455228    21.666867    21.784061    11070.689    1342.2934    702.98799    2692.4046    396.55988    931.78488    1050.4897   -5474.7656 
 2299000    243.03729   -6345.1063   -5719.9077   -6345.1063            0    2346.0315    23.557298    21.479841    21.987873    11126.017    1851.8275    3163.0818    2023.1851   -655.27575    -48.95262   -124.03772    -5339.237 
 2300000    238.60112   -6355.6779   -5741.8911   -6355.6779            0    2821.2057    23.253788     21.60712    22.055822     11081.89    4093.2532    3274.5574    1095.8065   -773.07404     160.8024    357.72862   -5285.9335 
 2301000    241.06787   -6341.7054    -5721.573   -6341.7054            0    1588.4922     23.56731    21.516658    21.926134    11118.518    1742.7031    1821.9203    1200.8532   -240.27945    586.35433    1302.9041   -5463.9956 
 2302000    229.10527   -6361.6488   -5772.2894   -6361.6488            0    1430.5767    23.485172    21.601378    21.904591    11112.464    2425.1345    858.80254     1007.793    788.53243    497.84884   -256.55677   -5540.4446 
 2303000    232.43267   -6367.8369    -5769.918   -6367.8369            0    2931.6963    23.361662    21.560378    21.892797    11027.101    2736.8154    3632.9619    2425.3115    269.94538    795.75567   -1392.7902   -5298.4457 
 2304000    242.11277   -6357.6326   -5734.8123   -6357.6326            0    1519.8265    23.538968    21.518893    21.894963    11090.511    555.24828    2020.4192    1983.8119   -23.193544    866.74608   -248.56455   -5488.9899 
 2305000    237.06889     -6348.54   -5738.6947     -6348.54            0    1367.4517     23.49357    21.639309    21.840237    11103.241    248.46407    1727.3673    2126.5237   -420.94044     845.4698    288.08035   -5517.2641 
 2306000    233.93776   -6307.1188   -5705.3282   -6307.1188            0    1748.7263     23.51771    21.414605    22.139636    11150.018    2326.9034      2399.53    519.74535    1043.4309   -1295.6927    622.03771    -5420.965 
 2307000    237.66066   -6357.4936   -5746.1261   -6357.4936            0    2491.1451    23.259928    21.753281    21.891665    11076.739    3352.7434    418.48212    3702.2097    987.00785   -445.93507    1490.7325   -5343.6993 
 2308000    236.14707   -6357.2271   -5749.7531   -6357.2271            0    2281.5929    23.643859    21.456452    21.828233    11073.753    783.70953    3004.9911     3056.078   -46.855306    137.41141    279.08394   -5381.2774 
 2309000    230.21522   -6328.4742   -5736.2596   -6328.4742            0    1697.1746    23.343113    21.708249    21.964538    11130.268    2449.5881    892.31286    1749.6229    489.64512    -188.6211   -501.71743   -5460.7682 
 2310000    234.20357    -6383.741   -5781.2666    -6383.741            0     276.2197    23.694118    21.465518    21.971114    11174.652   -626.23315    2013.4685   -558.57621   -264.38977    84.958604   -525.30432   -5736.2509 
 2311000    233.26529   -6342.6872   -5742.6265   -6342.6872            0    1365.2445    23.341691    21.825145    21.857722    11135.106    1230.5243   -323.07305    3188.2823    618.38797    1243.5884     1750.989   -5520.9188 
 2312000    232.51619   -6323.2411   -5725.1073   -6323.2411            0    1054.5048    23.546035    21.557633     21.97431    11154.089    751.42154    1098.5298     1313.563   -642.16028   -348.74449   -493.03072     -5553.57 
 2313000    240.55419   -6313.0356   -5694.2246   -6313.0356            0     1865.885     23.46221    21.707461    21.897292      11152.4    2344.6842    1536.8419    1716.1291    286.91499   -219.59789    611.90337   -5390.7453 
 2314000    234.04855   -6356.3774   -5754.3017   -6356.3774            0    529.58596    23.611474     21.63372    21.847766    11159.926    315.29383   -1.4506893    1274.9147   -232.97809   -741.17295   -198.58795   -5668.1084 
 2315000     224.7529   -6375.3064   -5797.1432   -6375.3064            0    1228.7136    23.504111    21.622505    21.870016     11114.73    1854.2838    1194.7177    637.13939   -24.391561    1637.7299   -228.97515   -5597.9725 
 2316000    241.64999   -6339.4877   -5717.8579   -6339.4877            0    1679.5221    23.398502    21.546095    22.058481    11120.703     2863.708    888.92788    1285.9304   -17.415228    391.49627    146.36734   -5445.4662 
 2317000    233.50723   -6386.2704   -5785.5873   -6386.2704            0    2588.8831    23.489166    21.501225    21.877109    11048.943    1631.4512    4329.9191     1805.279    571.93719    1081.8834   -535.31996   -5368.4211 
 2318000    233.43335   -6368.5315   -5768.0385   -6368.5315            0    493.92198    23.565597    21.745951    21.750647    11146.257    665.64212   -311.55823     1127.682   -1048.1843    424.30071    389.55924   -5687.7481 
 2319000    213.12071   -6345.3675   -5797.1275   -6345.3675            0    1574.1163    23.507294    21.517749    21.932362    11093.916    762.22624    2821.9495    1138.1731   -41.178851     60.26283   -190.91749   -5542.4459 
 2320000    227.94337    -6336.389   -5750.0185    -6336.389            0    845.51614    23.334828     21.60952    22.089699    11138.829    377.92443    1081.2563    1077.3677   -819.56956    416.37402   -553.74906   -5612.6658 
 2321000    240.42501   -6361.6015   -5743.1228   -6361.6015            0    520.51532    23.576343    21.662869    21.881951    11175.796   -7.2149718   -165.63438    1734.3953    802.79931    713.22488   -280.08381   -5658.2853 
 2322000    255.57627   -6347.0698   -5689.6154   -6347.0698            0    1177.4752     23.47641    21.631408    21.888044    11115.358    49.833699     1289.433    2193.1587    697.13012    1482.6536    590.80901   -5498.7395 
 2323000    231.29504   -6375.0805   -5780.0881   -6375.0805            0    944.56477    23.363729    21.602879    22.036942    11122.569    962.59809    629.33528    1241.7609   -224.74045    582.78316   -1052.9485    -5626.869 
 2324000    235.85123   -6361.4718   -5754.7589   -6361.4718            0    1990.3408    23.369864    21.598067    22.025411    11117.192    2831.1889    1817.0247     1322.809   -496.40946   -692.85682   -390.60822   -5432.0593 
 2325000    237.80895   -6359.4553   -5747.7063   -6359.4553            0    1722.8617     23.50106     21.61786    21.806901    11078.835    261.72971     2577.361    2329.4944    999.84415     -301.722    71.622758   -5469.3376 
 2326000    237.08938   -6357.5358   -5747.6378   -6357.5358            0    2123.4122    23.539597    21.519364    21.873404    11080.129    1758.6745    3215.6805    1395.8815    779.56724   -565.91395    522.16106   -5404.5107 
 2327000    229.82621   -6358.5069    -5767.293   -6358.5069            0    348.14578    23.486497    21.616024    22.084274    11211.848    883.25151    203.98456    -42.79874   -707.00563   -371.73142   -1052.9653   -5710.3665 
 2328000    248.19585    -6350.551   -5712.0823    -6350.551            0    63.542501    23.578063    21.713425    21.871283    11197.233     1100.734   -382.59127   -527.51519    -520.8453   -526.22958   -460.44143   -5701.7058 
 2329000    228.84717   -6364.8397   -5776.1443   -6364.8397            0    2368.0022    23.574603    21.490079    21.761832    11024.981    2022.0651    1978.4098    3103.5318   -572.85581   -806.55124   -86.399784   -5395.3979 
 2330000    249.74152   -6349.6415   -5707.1966   -6349.6415            0     2533.328    23.305234    21.677077    21.873907    11050.465     3243.154    2779.5283    1577.3017    324.21231    304.54299    75.279658   -5298.9263 
 2331000    231.91508   -6362.7826   -5766.1952   -6362.7826            0    2456.5242    23.453277    21.241739    22.202686    11061.121    2396.6006    3636.6061     1336.366    442.43678   -359.78736    30.195117   -5369.9207 
 2332000    237.05963   -6377.8005    -5767.979   -6377.8005            0    1624.4085    23.409996    21.695185    21.837435    11090.888    3622.6755     19.86643    1230.6836   -1027.9461   -200.93582    148.82731   -5505.2322 
 2333000    238.65061   -6364.4759   -5750.5617   -6364.4759            0    1896.1142    23.481666    21.578239    21.862427    11077.539    1569.9231    1574.2963    2544.1234    -385.7212    362.66161   -412.85623   -5444.2358 
 2334000    243.06969   -6322.6794   -5697.3974   -6322.6794            0   -101.87033    23.442736    21.576067    22.214634    11236.207    -571.2681    519.53337   -253.87628   -529.31615    1373.0709    666.33698   -5714.0908 
 2335000    229.93925   -6357.8278    -5766.323   -6357.8278            0    1016.8648    23.480644    21.537439     21.96562    11108.298    231.77874    2105.6572    713.15841    97.333429    349.36778    642.10296   -5601.5878 
 2336000    236.87646   -6377.8858   -5768.5355   -6377.8858            0    1527.8364    23.559309    21.552744    21.844331    11091.847    1614.3983    1529.5635    1439.5474   -743.34993    265.17589   -134.36249   -5521.3878 
 2337000    229.30913   -6371.9741   -5782.0903   -6371.9741            0    1967.6843    23.300837     21.70137    21.902593    11075.267    2459.5574    1534.3528    1909.1427   -112.66894     -224.565    412.19171   -5464.2672 
 2338000    235.69062   -6339.1554   -5732.8556   -6339.1554            0    2097.2705    23.567401    21.560423     21.83761    11096.195    762.69432     3150.118    2378.9991    1511.5467   -549.83472    580.67933   -5393.4614 
 2339000     224.3947   -6375.7737    -5798.532   -6375.7737            0    1834.6183    23.550107    21.516505    21.827896    11060.544    1099.8585    2597.8459    1806.1506    1201.9559   -897.70736   -770.03632   -5502.5958 
 2340000    235.17364   -6373.6463   -5768.6765   -6373.6463            0    1079.4471    23.410926    21.633776    21.971687    11127.928    1890.4739    1226.0578    121.80963   -447.70619   -280.44747    156.56031   -5593.4936 
 2341000    231.42103    -6370.715   -5775.3985    -6370.715            0    1536.3209    23.601355       21.581    21.818818    11113.215    790.28598    2535.4153    1283.2615   -1011.7539    754.18624   -1245.5387   -5526.3995 
 2342000    239.34058   -6363.9673   -5748.2782   -6363.9673            0    1161.8891    23.360064    21.609964    21.975335    11093.372    1549.4532    899.47825    1036.7359   -290.87774    545.79209    481.94607   -5560.3014 
 2343000    239.42636   -6367.4473   -5751.5376   -6367.4473            0    1248.3381    23.439586     21.54638    22.035784    11128.913    901.02242     1458.605    1385.3867   -58.570482    427.18047    660.92696   -5548.9276 
 2344000    236.29077    -6353.138   -5745.2944    -6353.138            0    1333.6764    23.449462    21.602546    21.912226    11100.034    1032.8934     1251.032    1717.1039   -1089.9221    715.72112    -400.5066   -5529.3954 
 2345000     227.9315    -6379.785   -5793.4451    -6379.785            0     3174.396    23.420624    21.492351    21.898464    11022.904    4159.4082    3021.6043    2342.1756   -561.92511    -655.5194   -715.58403   -5283.1363 
 2346000    236.97287   -6336.1767   -5726.5784   -6336.1767            0    2216.3804    23.399919     21.52987    21.924809    11045.658    2654.1714    2852.5092    1142.4607    526.02753    59.062253   -405.42447   -5369.5426 
 2347000    237.34647   -6368.0771   -5757.5178   -6368.0771            0    2211.1641    23.432327    21.534519    21.857447    11029.353    3334.6106    1061.0205    2237.8611    326.39383    471.32295    272.87028    -5401.848 
 2348000    227.52771   -6373.4223   -5788.1211   -6373.4223            0      1045.87    23.557657    21.582996    21.905569    11137.773    975.76462    901.99892    1259.8463    1039.0142   -17.047351   -1215.3598   -5618.2373 
 2349000    230.11106   -6344.0252   -5752.0785   -6344.0252            0    493.45109    23.498506    21.658108    21.981954    11187.346    108.47079     97.72054    1274.1619    643.37825   -674.74772    477.40337    -5671.569 
 2350000    229.29294   -6367.8079   -5777.9658   -6367.8079            0    2181.2644    23.498432    21.591412    21.759163    11039.823    2135.6338     2216.109    2192.0502   -34.258158   -791.50886    1149.0508   -5426.7724 
 2351000    223.67354   -6353.1631   -5777.7765   -6353.1631            0    3204.2776    23.520357    21.532098    21.739494    11009.807    3354.8602    3153.8893    3104.0834   -76.411751   -356.69456   -563.45234   -5263.2761 
 2352000    240.11628   -6365.8539   -5748.1694   -6365.8539            0    420.08539    23.401004    21.650563     22.05742    11175.279    999.67814   -2.9137356    263.49177    320.22487    59.281291    88.806253   -5679.7039 
 2353000     235.4644   -6327.4633   -5721.7454   -6327.4633            0     323.6496    23.550522    21.569537    22.013196    11182.128    9.3758803    308.41139    653.16153    -828.6793    537.55738   -254.25449   -5668.9647 
 2354000    235.30444   -6350.5211   -5745.2148   -6350.5211            0    1191.9881    23.493648    21.656251    21.814958    11099.109    2167.1796    633.21612     775.5685   -61.136164   -130.29158    89.484771   -5552.2687 
 2355000    234.05444   -6335.1748    -5733.084   -6335.1748            0    2642.9302    23.349893    21.542604    22.042353    11087.689     3153.722    3721.6983    1053.3702    735.04345   -89.650347   -38.671754   -5305.7154 
 2356000    231.99249   -6367.2237   -5770.4372   -6367.2237            0    1521.9968     23.42807    21.539232    21.955739    11079.363    958.61516    1478.4309    2128.9445    -517.1216    1565.6297    1048.1989   -5524.5112 
 2357000    239.15266   -6374.8266    -5759.621   -6374.8266            0     2181.097    23.451494    21.444937    21.950791      11039.4    1812.0979     2422.037     2309.156    1035.9581     507.3633    1209.5211    -5408.468 
 2358000    237.10528   -6363.4511   -5753.5122   -6363.4511            0    794.68117    23.416025     21.63726    21.961503    11126.984    805.44198    851.53622    727.06532   -434.52299   -684.30603    -1680.409   -5624.5548 
 2359000    229.37319   -6352.4137   -5762.3652   -6352.4137            0    1211.1756    23.663041    21.574166    21.773632    11115.665   -826.71755    1837.4896    2622.7546    23.982911    619.85858   -370.68971   -5566.0208 
 2360000    230.61188   -6352.7313   -5759.4963   -6352.7313            0    2438.0082    23.381646    21.480585    22.065195    11082.276    2972.2631    3044.1639    1297.5976    1271.2857    549.73508    65.606228   -5365.4566 
 2361000    240.20755   -6363.1602   -5745.2409   -6363.1602            0     226.8559    23.510437    21.658233    21.919857    11161.471    1168.1012   -1486.0067     998.4732    571.43483   -536.52264    1064.0222   -5708.3136 
 2362000    246.99523   -6380.3519   -5744.9717   -6380.3519            0    1152.8713    23.517337    21.558576      21.9254    11116.184    1344.3539    43.109303    2071.1507    71.524606   -1391.3601    367.98315   -5558.0703 
 2363000    238.31208   -6361.1155   -5748.0722   -6361.1155            0    1653.3834    23.473817    21.714076    21.880247     11152.63    743.28089     1904.209    2312.6602   -354.35488    -686.6139   -31.600316   -5479.1499 
 2364000    238.63225    -6349.948    -5736.081    -6349.948            0    1620.6387    23.561026    21.504566    21.942739     11117.72    2047.4387     1806.561    1007.9164    436.29985   -1190.7788    18.102268   -5473.3098 
 2365000    234.63338   -6337.6417   -5734.0616   -6337.6417            0    1486.8995    23.412067    21.688297    21.834851    11087.035    439.99453    1285.0882    2735.6156    1163.4226      384.655    2127.2896   -5493.6403 
 2366000    232.89064   -6390.7884   -5791.6914   -6390.7884            0    1642.7092    23.447982    21.532373    22.013246    11114.283    1776.4338    2797.1496    354.54411   -893.78724   -312.41043   -196.21946    -5525.424 
 2367000    222.24539   -6387.0893   -5815.3766   -6387.0893            0    1493.8877    23.393438    21.651025    21.951946    11118.483    1930.2101    942.10118     1609.352   -1429.3114   -677.96806   -19.387631   -5573.1402 
 2368000     232.2149   -6377.3588   -5780.0001   -6377.3588            0    1138.8449     23.48721    21.646819    21.882055    11125.349    355.20522    1150.7641    1910.5655   -925.14201    906.92771     312.3798   -5595.2205 
 2369000    228.54986   -6341.8495   -5753.9189   -6341.8495            0    2410.0625    23.452531    21.508595    21.894398    11044.213    960.18096    3639.0634    2630.9433    446.94547    897.13252    793.88024   -5365.7337 
 2370000    230.23043   -6343.5696   -5751.3159   -6343.5696            0    167.02741    23.501325    21.658444    22.014983    11205.673    437.49301    397.18948   -333.60026   -248.64315    1056.5217   -101.10432   -5724.0197 
 2371000    233.91975   -6365.7056   -5763.9613   -6365.7056            0    571.60316    23.397907     21.61376    22.070711    11161.528    1372.7535    319.07413     22.98186    -771.0553    299.98939    38.519197   -5670.9161 
 2372000     233.0309   -6308.7805   -5709.3227   -6308.7805            0    2397.3386    23.540801    21.632618    21.826733    11115.245    1677.5863    1920.3205     3594.109    1005.1172    288.66041    859.13777   -5320.7034 
 2373000    231.24776   -6359.9561   -5765.0853   -6359.9561            0    2010.2447    23.629465    21.481162    21.845292    11088.416    857.45653    2736.5326    2436.7451   -21.342516   -93.122043   -223.60458   -5440.0022 
 2374000    237.11753    -6349.476   -5739.5056    -6349.476            0    829.25168    23.500063    21.598567    21.971294    11151.919    783.82351    969.78959    734.14194    808.98704   -667.54375    -522.4524   -5604.6367 
 2375000     245.3364   -6353.6298   -5722.5168   -6353.6298            0     2160.508    23.435932    21.494656    22.005486    11085.204    2530.8383    2782.3604    1168.3254    1339.7296   -322.67991   -112.08117   -5373.2354 
 2376000     233.2281   -6352.4821    -5752.517   -6352.4821            0    2540.8337    23.433415    21.628966    21.855924    11077.468    2306.8573    2289.6449    3025.9988   -528.68312   -1459.0954   -89.415509   -5342.0364 
 2377000    242.52421   -6372.0605   -5748.1818   -6372.0605            0    1726.8091    23.628271    21.543735    21.829144    11111.934    850.27598    1999.1914    2330.9598    405.12557    591.26707   -376.28961   -5468.3417 
 2378000    233.96443   -6363.0136   -5761.1544   -6363.0136            0    672.83208    23.496589    21.616702    21.936228    11141.822     1162.184   -122.13216    978.44441   -335.59503   -333.14822   -734.88368   -5651.8245 
 2379000    235.88126   -6317.1969   -5710.4067   -6317.1969            0    801.68795    23.436875    21.641722     22.05554    11186.886    1480.0579     59.07393    865.93202    1002.0724     242.0546     892.8946   -5579.6119 
 2380000    219.72301   -6368.8831    -5803.659   -6368.8831            0    532.26778    23.604281    21.542456    21.929344    11150.944   -1099.2955    1578.6176    1117.4813    65.986773    2709.2042    61.629019   -5717.0989 
 2381000    225.61511   -6375.1009   -5794.7198   -6375.1009            0    1497.9057    23.311508    21.637967    21.926439    11059.995    1803.8023    105.84346    2584.0713    478.19141    983.20474   -525.94658   -5553.1096 
 2382000    231.09459   -6316.5412   -5722.0644   -6316.5412            0    1216.9552    23.501723    21.610895     21.99153     11169.35    660.15915    1984.5674     1006.139    373.41892   -563.28759   -955.79932   -5523.8303 
 2383000    228.57936   -6322.4041   -5734.3976   -6322.4041            0    1569.6933    23.429624    21.593279    22.015319    11138.043    801.02872    2197.9579    1710.0934    326.20093    111.25866    646.15392   -5479.4214 
 2384000    221.99649   -6358.2884    -5787.216   -6358.2884            0    2291.1427    23.607589    21.466968    21.821081    11058.561    1654.3899    2276.8946    2942.1434   -683.20369   -988.54512     350.0775   -5417.7056 
 2385000    220.53076   -6347.6935   -5780.3915   -6347.6935            0     3116.559    23.316812    21.706973    21.779191    11023.264    4069.6834    2724.3878    2555.6057    667.89321   -655.37475   -1225.9977   -5279.3642 
 2386000    238.72352   -6340.2429   -5726.1412   -6340.2429            0    1269.4876    23.602332    21.433258     22.07871    11169.064    1582.7884     1829.697     395.9774   -50.341454   -1798.1675   -1115.9962   -5519.3552 
 2387000    232.25171   -6361.4166   -5763.9632   -6361.4166            0    1930.5228     23.38712     21.60364    21.958828     11094.63    2961.0437    477.15333    2353.3712    315.57177   -316.43815    504.69548   -5451.5973 
 2388000    227.17049   -6365.3355   -5780.9533   -6365.3355            0    2083.9328    23.535511    21.464244    21.895308    11060.896    2846.6371    1490.3832    1914.7779    442.12373   -758.94714    -586.1327   -5444.7903 
 2389000    233.87563   -6368.3111   -5766.6803   -6368.3111            0    1515.7682    23.325838    21.636996    21.970533    11088.551    3139.8806    1426.3783   -18.954091   -1396.0752   -1434.2236   -864.58402   -5521.5576 
 2390000    223.35456   -6324.4383   -5749.8723   -6324.4383            0     67.38429     23.69451     21.54237    21.973499    11216.063   -489.36712   -244.14314    935.66313   -466.01824   -974.32674      378.946   -5738.8499 
 2391000    237.86673   -6388.5446    -5776.647   -6388.5446            0    741.27493    23.526492    21.752572    21.756273    11134.028    144.75337   -64.312593     2143.384   -871.31387    432.52315    266.96223     -5656.28 
 2392000    232.03551   -6350.8108   -5753.9136   -6350.8108            0    736.91212    23.478615    21.445258    22.118295    11136.671    487.80794    1635.3287    87.599695   -366.90562    568.37788    192.53304   -5634.2266 
 2393000    228.28011   -6333.2521   -5746.0155   -6333.2521            0    2044.6507    23.160684    21.685276    22.098224    11098.741    3226.4597    1813.8863    1093.6059    39.941636    58.537477      52.7129   -5415.0606 
 2394000     230.0535   -6354.9252   -5763.1265   -6354.9252            0    1810.2265    23.575519    21.531416    21.844345    11088.502    355.67532    3300.3815    1774.6225    881.30837    408.24953    179.72069   -5470.3868 
 2395000    250.92609    -6355.709    -5710.217    -6355.709            0    1067.0765    23.532681    21.766681    21.789423    11161.161    858.97576    975.41612    1366.8376   -947.29499   -291.78421   -1394.9431   -5536.5246 
 2396000    232.91754   -6369.8342    -5770.668   -6369.8342            0    1753.6734    23.431344    21.457503    22.045382    11083.936    1726.6145    2808.9452    725.46043    121.29958   -538.72622   -233.41075   -5487.1905 
 2397000    229.69905   -6373.1158    -5782.229   -6373.1158            0    739.65134    23.304006    21.564912      22.1895    11151.308    1240.6574    601.76308    376.53354   -938.59752    1411.2873   -510.78622   -5661.9392 
 2398000    233.32577   -6380.6565   -5780.4402   -6380.6565            0    1291.2785    23.565933    21.558769    21.830029    11090.801    1864.2183    1225.9444    783.67286    -129.2358   -412.72884   -151.82981   -5571.5785 
 2399000    233.02443   -6319.0971   -5719.6559   -6319.0971            0    641.75655    23.682426    21.707445    21.802656    11208.418   -446.37135    371.48295     2000.158    814.48335   -536.57202   -221.83512   -5614.7523 
 2400000    227.67215   -6359.9955   -5774.3227   -6359.9955            0    992.28416    23.472367    21.611072    21.937865    11128.268    621.98575    1268.8001    1086.0666    566.78599   -100.54576   -951.27558   -5613.2806 
 2401000    240.27632    -6340.015   -5721.9188    -6340.015            0    1907.4978    23.400701     21.56386    22.015134    11109.045    1790.0112    2306.4893    1625.9931    894.64717   -211.80769    126.61043   -5412.8774 
 2402000     228.8108   -6368.0351   -5779.4333   -6368.0351            0    2081.9975    23.563415      21.5572     21.78255    11064.691    1464.3072    2620.7965    2160.8888     345.2809   -565.68528    341.49604   -5443.4672 
 2403000    234.90503   -6319.6393   -5715.3604   -6319.6393            0    2908.4689    23.438472    21.576291    21.826088    11037.786    4343.0627    2543.9345    1838.4095   -1564.1213    -479.6147   -947.38229   -5247.1703 
 2404000    229.86158   -6348.6035   -5757.2986   -6348.6035            0    1472.5587    23.373953    21.567894     22.02832     11105.07    1736.2138    1936.0972    745.36501   -1079.3115    361.25045   -753.87578   -5518.8088 
 2405000    219.10605   -6341.2354   -5777.5984   -6341.2354            0     1562.325    23.484776    21.586137     21.90746     11105.89    1798.6858    1110.9101    1777.3791     246.4267    855.27054    210.46501   -5524.5517 
 2406000    226.15231   -6385.7794   -5804.0163   -6385.7794            0     1171.873     23.50842    21.633813    21.852199    11113.521    458.75045    1508.0276    1548.8411    57.535866     441.2565     422.1446     -5614.08 
 2407000    229.08957   -6363.7854   -5774.4665   -6363.7854            0    574.07222    23.430588    21.702914    21.995684     11185.07    366.31954     1006.771    349.12612    213.68257   -29.262344    -150.3883   -5680.8222 
 2408000    241.10445   -6392.1501   -5771.9236   -6392.1501            0    787.64324    23.504696     21.54374    21.982701    11131.579   -643.98627    1309.1044    1697.8116    1469.1436   -1545.2934    436.43328   -5644.0555 
 2409000    235.65906   -6358.3703   -5752.1517   -6358.3703            0    1998.1871    23.513556    21.576243    21.782262    11050.886    904.92011    3368.8461    1720.7952     792.2945    235.44519    879.36693   -5430.1122 
 2410000    235.45247   -6369.1195   -5763.4324   -6369.1195            0    2262.4948    23.455938    21.399776    22.068748    11077.448    2120.4603    3336.0856    1330.9384    1083.2028    281.23244    309.46166   -5397.9191 
 2411000    238.71172   -6401.4354   -5787.3641   -6401.4354            0    830.94138    23.407411    21.566424    22.009007    11110.459    2414.4348    123.34836   -44.959019   -478.56563   -1002.6489   -106.41372   -5652.7228 
 2412000    227.37342   -6335.2637   -5750.3595   -6335.2637            0    315.57937    23.549526    21.706956    21.931126     11210.94    751.34687   -162.57504    357.96628   -758.34764    695.66422   -808.52244   -5698.7622 
 2413000    230.56696   -6348.7986   -5755.6791   -6348.7986            0    2786.5309    23.597151    21.422422    21.769576    11004.697    1711.8702    3327.5512    3320.1714    484.28662   -16.798798    457.72328   -5308.4626 
 2414000    233.38625   -6365.7093   -5765.3374   -6365.7093            0     1177.085    23.374341    21.717677    21.862158    11098.027    963.21119    1184.3292    1383.7147     1210.611    214.68904    370.40276   -5574.8222 
 2415000    243.20523   -6379.8935   -5754.2629   -6379.8935            0    1258.3116    23.529313    21.491836    22.037444    11144.074    937.60195    2312.8983    524.43452   -140.27968   -995.67326   -166.12632   -5549.7559 
 2416000    238.47724   -6331.1085   -5717.6403   -6331.1085            0    1792.1003    23.409235    21.703389    21.837487    11094.748    1629.1048    1332.5107    2414.6854    533.58088   -1053.7882    327.96835   -5427.6686 
 2417000    232.68547   -6367.2313   -5768.6621   -6367.2313            0    1859.0239    23.626024    21.566389    21.776922    11095.952    1005.7787    2550.7067    2020.5864   -711.02348      246.491   -527.15262   -5467.8291 
 2418000    236.12926    -6331.469   -5724.0409    -6331.469            0     1341.953    23.357518    21.643418     22.09626    11170.467    1887.9832    1460.9439    676.93183   -827.36239   -189.08544   -453.57063   -5505.4236 
 2419000    241.53641   -6326.1745   -5704.8368   -6326.1745            0    2197.0905    23.316538     21.52661    22.104205    11094.676    2725.5125    1901.2163    1964.5427   -473.91048   -149.26828    515.26177   -5349.3378 
 2420000    243.32113   -6371.4848    -5745.556   -6371.4848            0    2170.4799     23.53438    21.530067    21.766792    11029.164    1751.3333    1610.6361    3149.4703   -522.04875    806.79942    358.06269   -5396.4364 
 2421000    227.35153    -6336.956   -5752.1081    -6336.956            0    1728.8505    23.522967     21.66755    21.776116    11098.961     1454.203   -35.771901    3768.1204   -203.99997    426.85478    838.37482   -5472.2643 
 2422000    233.17962    -6350.506   -5750.6656    -6350.506            0    2070.5279    23.480151    21.490009    21.988136    11094.964    1549.8459    2770.5121    1891.2259    386.19776   -317.64202   -1294.6083   -5415.6362 
 2423000    229.07791   -6355.1763   -5765.8873   -6355.1763            0    1791.1131    23.258168    21.685506    22.024111    11108.193    2136.9779    2221.4384    1014.9228    114.09818    265.70409    -503.3039   -5475.7242 
 2424000    227.20817   -6352.6444   -5768.1653   -6352.6444            0      316.079    23.692519    21.487994    21.875895    11137.121   -893.70337    1047.9524    793.98802    191.72603    333.12383    261.83402   -5716.8266 
 2425000     230.0216   -6342.8048   -5751.0883   -6342.8048            0    1850.0708    23.491518     21.66359    21.782815    11085.506    1825.7734    1121.8808    2602.5581    939.00274   -135.14768    462.07491    -5451.986 
 2426000    233.66753   -6380.2584   -5779.1629   -6380.2584            0    2101.7919    23.450603    21.445497    21.959446    11043.622    1979.5587     2306.917       2018.9    1000.6378   -845.91488    269.56949   -5440.6485 
 2427000    238.59291   -6326.3059   -5712.5402   -6326.3059            0    1257.8064      23.3555    21.626858    22.108183    11166.978    1760.9478    1842.6822    169.78912   -125.66104    659.52546   -1280.7687   -5507.6952 
 2428000    233.99482   -6347.5855   -5745.6481   -6347.5855            0    914.83009    23.600518    21.499632    21.988317    11156.926    359.68812    1399.6617    985.14042    1205.8758    138.95915   -244.45156    -5596.794 
 2429000    227.79798   -6336.1247   -5750.1283   -6336.1247            0    1196.3653    23.556846     21.59921    21.920494     11153.35    1133.3948    1930.1012    525.59976    1368.8161   -947.87283   -1189.9977   -5555.5273 
 2430000    232.25998   -6341.3308   -5743.8561   -6341.3308            0    1995.7822    23.469733    21.686216    21.845135    11118.512     3232.176    1265.7068    1489.4637    712.05457   -961.99431   -389.39487   -5420.2359 
 2431000    230.60896   -6355.3092   -5762.0817   -6355.3092            0     2212.959    23.608238    21.521217    21.832025    11092.372    2210.9819    1866.6169    2561.2782    1421.9252   -1371.6811   -9.2265479   -5404.0894 
 2432000    233.97742    -6339.046   -5737.1534    -6339.046            0    1888.8157    23.348573    21.644589    21.959158    11097.505    2496.9498    1677.5091    1491.9882   -747.89362   -849.03944    440.73486   -5431.4566 
 2433000    234.16375   -6365.9127   -5763.5407   -6365.9127            0    2452.3559     23.49723    21.427744    21.951893    11052.616    3325.6548    1949.2186    2082.1944   -446.08624   -1100.7908    268.67261   -5368.2428 
 2434000     223.6766    -6340.338   -5764.9436    -6340.338            0    1250.3978    23.353406    21.738738    21.943515    11140.143    765.92498    1589.0763    1396.1921   -1027.9878    1128.4546    914.25155   -5561.7945 
 2435000    245.31918   -6360.2242   -5729.1556   -6360.2242            0     178.0625    23.781467     21.45876    21.881631    11166.652   -1573.2204    21.565834    2085.8421   -1990.8013    1696.1143     1068.934   -5700.1573 
 2436000    238.79335   -6343.6188   -5729.3374   -6343.6188            0    1540.7137    23.281027    21.687935    22.013342    11114.919    1784.7792     1375.106    1462.2558    573.00125    1483.8383   -4.1358221   -5479.5882 
 2437000    228.16305   -6377.5222   -5790.5867   -6377.5222            0    1785.9796    23.624618    21.438904    21.873199    11078.467    471.47737    3249.8581    1636.6033   -49.879923   -189.46279   -1467.7907   -5502.0294 
 2438000    239.20768   -6331.7751   -5716.4279   -6331.7751            0    2505.9321    23.294259    21.785492    21.790081    11057.963    3001.3488    2155.7938    2360.6537    83.796173    264.28309    219.83254   -5312.2987 
 2439000    225.15714   -6367.8673   -5788.6643   -6367.8673            0    814.10174    23.581411    21.401222    22.090522    11148.446    1115.2566    901.41732    425.63135    494.86899   -1390.1398     345.7618   -5656.3006 
 2440000    241.99113   -6322.0681   -5699.5607   -6322.0681            0    976.58571    23.493774    21.744678    21.837785     11156.15    2445.4952   -722.40375    1206.6657   -49.703356   -223.97515    194.31898   -5540.6692 
 2441000    239.73771   -6345.5886   -5728.8779   -6345.5886            0    2214.6142    23.629045    21.544422    21.748963    11071.834    832.24275    3018.3198    2793.2801    267.06379   -964.06933   -352.46809   -5371.2812 
 2442000    231.22887   -6331.6353   -5736.8131   -6331.6353            0    3347.1113     23.16391    21.701335    21.997159    11057.703    3385.2782    3233.3872    3422.6685    553.66092     553.3396   -69.204314   -5197.0404 
 2443000    234.03691   -6368.5545   -5766.5089   -6368.5545            0    1380.2885    23.527771    21.418889    22.020064    11096.763    744.25429    2725.9802    670.63085    424.22112    228.16823    377.87454     -5543.13 
 2444000    236.88553    -6358.097   -5748.7234    -6358.097            0    1183.4418    23.414222    21.662983    21.894165    11105.199    573.93852    1749.4534    1226.9334    244.08302    929.93472    109.92955   -5557.0556 
 2445000    238.16938   -6350.7921   -5738.1159   -6350.7921            0    470.35753    23.748854    21.456081    21.849823    11133.738   -699.45974    1981.0028    129.52948   -713.96033    1000.8684    -525.6601    -5661.742 
 2446000    226.91389   -6343.4651   -5759.7429   -6343.4651            0    2829.0105    23.299207    21.649063    21.916761    11054.946    3521.1828      2045.21    2920.6386    -951.8149    -81.71002    896.63307   -5303.6356 
 2447000    232.66588   -6348.7969   -5750.2781   -6348.7969            0    -653.3146    23.628165    21.689689    21.944107    11246.082   -1889.3566   -629.32505    558.73784    269.50565    448.12103    430.21605   -5857.4299 
 2448000     228.7515   -6325.7807   -5737.3314   -6325.7807            0    1781.3937    23.462236    21.623943    21.925118    11123.623    2149.0234    1903.7646    1291.3932    -772.1582    90.688209   -140.28645   -5448.3419 
 2449000     235.7428   -6338.7199    -5732.286   -6338.7199            0     3247.143    23.409445    21.441804    22.010028     11047.73    3139.0913    2651.5351    3950.8025   -271.54228    1810.6442   -392.71379   -5209.1069 
 2450000    229.51707   -6356.0429   -5765.6243   -6356.0429            0    2784.6026    23.294794     21.63511    21.927687    11051.235    3390.1446    2536.5487    2427.1144     509.0597    785.77083   -583.89373   -5316.8273 
 2451000    238.02707   -6360.4554   -5748.1453   -6360.4554            0     1982.571     23.62841    21.480606    21.804347    11066.852    1126.7398     2438.888    2382.0851   -498.49157    1502.3778   -1122.0798   -5428.1609 
 2452000    240.85926   -6371.3583   -5751.7626   -6371.3583            0    1367.7624    23.327403    21.767974    21.875829    11108.334    2144.5621    625.34922    1333.3758   -254.58961   -26.452647    375.14547   -5530.1801 
 2453000    223.40946   -6374.4746   -5799.7674   -6374.4746            0    960.67415    23.567366     21.48034    21.972492    11123.245    619.93369    1580.9505    681.13828   -481.85536   -1393.1274    307.75778   -5643.9258 
 2454000    238.95422   -6386.5078   -5771.8126   -6386.5078            0    866.72954    23.461104     21.66062    21.899051    11128.705    1128.3301    43.057186    1428.8013    1202.3326   -842.14243    951.26508   -5631.1418 
 2455000    237.71543   -6386.7467   -5775.2382   -6386.7467            0    1982.2092    23.498871    21.495633    21.908499    11066.489    2665.8714     1195.323    2085.4333   -727.86472   -550.13688    -622.6137   -5455.3227 
 2456000    226.34423   -6363.2267     -5780.97   -6363.2267            0     1119.914    23.422359    21.745215    21.868756    11138.287    1339.2293    268.41935    1752.0933     523.5199    230.63301   -1220.8343   -5599.0506 
 2457000    232.83981   -6380.6123   -5781.6461   -6380.6123            0    1671.2821    23.488845    21.465419    22.000235    11092.473    2565.8532    1722.2448    725.74825    1066.4572    92.722728   -1375.8862   -5511.2789 
 2458000    235.72987   -6359.0826   -5752.6819   -6359.0826            0    1463.4927    23.391611    21.615478     22.00615    11126.768    2002.5377    758.28307    1629.6572    272.57232    186.30232    262.56744   -5515.1973 
 2459000    242.34198   -6360.6248   -5737.2148   -6360.6248            0    266.27029    23.622844    21.546335    21.899937    11146.755         -926    779.04381    945.76707   -220.98426   -747.51451    336.31833   -5693.9288 
 2460000    234.22517   -6364.4523   -5761.9223   -6364.4523            0    1058.0328    23.486288    21.627005    21.870729    11108.976    958.34793    1069.0653    1146.6852   -1403.4907   -1025.2089    484.58504   -5590.5072 
 2461000    231.67902   -6337.0193   -5741.0391   -6337.0193            0    2264.6884    23.487948    21.495377    21.927493    11070.803    1515.5744    4000.0979     1278.393   -56.053681    379.90207   -1223.4498   -5375.3909 
 2462000    239.49971    -6392.635   -5776.5366    -6392.635            0     2255.198    23.314685    21.534996    22.016426    11054.043     2647.597    2303.2369      1814.76    397.96812    422.08279   -493.49032   -5412.9719 
 2463000    234.33849   -6361.7499   -5758.9284   -6361.7499            0    1522.2966    23.422475    21.477404    21.989206    11061.757    2476.6571    1067.2122    1023.0206    397.14587    606.88746    555.90361   -5513.3449 
 2464000    227.70251   -6332.1182   -5746.3674   -6332.1182            0    1163.0906    23.560933    21.611081    21.827747    11114.192     1131.407   -286.80083    2644.6655    194.67082   -509.97472     924.0866   -5557.8431 
 2465000    223.15891   -6365.2395   -5791.1768   -6365.2395            0    712.32936    23.598209    21.695126    21.786664    11154.034   -667.78243    443.58576    2361.1847    421.20637   -377.17243   -136.88166   -5675.3021 
 2466000     227.6367   -6347.7314   -5762.1499   -6347.7314            0    1879.2552    23.442868    21.576731    21.946776    11101.128    2696.1993     1617.451    1324.1154   -631.32245   -1380.0275    337.70682   -5457.9012 
 2467000    238.27519   -6375.1211   -5762.1727   -6375.1211            0    2139.8096      23.4628    21.453169     21.95182     11049.48    2385.0115    1399.5703     2634.847   -1082.7105    103.92932    289.31369   -5417.3523 
 2468000    242.53381   -6345.9557   -5722.0523   -6345.9557            0    2843.4262    23.242238    21.679982    21.901972    11036.213    3010.4488    2513.9226    3005.9072    52.154643    1750.0281    556.88979   -5264.3976 
 2469000    234.33286   -6357.7714   -5754.9644   -6357.7714            0    2038.5642    23.542102    21.432615    21.937633    11069.045    2464.2675    2382.2754    1269.1499     1078.923   -596.07244   -155.69477   -5425.8776 
 2470000    222.45824   -6373.9564   -5801.6962   -6373.9564            0    263.78597    23.439023    21.757224    21.918617    11177.795    15.930492   -88.194769     863.6222    -485.0283    272.52632   -140.52513   -5758.6947 
 2471000    221.57187   -6341.6282    -5771.648   -6341.6282            0    2468.3635    23.611688    21.387099    21.930659    11074.665    1256.8247    4545.0054    1603.2603   -335.47665     775.6403   -653.81366   -5372.9762 
 2472000    239.14697    -6378.104    -5762.913    -6378.104            0    1690.9672    23.226985    21.632666    21.995561    11051.925    3718.4407    141.63508    1212.8259    -416.6585     317.7871   -56.042175   -5490.3613 
 2473000    222.91044   -6338.9249   -5765.5014   -6338.9249            0    932.90987     23.59955    21.460699    22.037985     11161.42   -134.23781    3463.1707   -530.20334   -308.19516    613.84667   -566.62329   -5613.6443 
 2474000    238.16159   -6334.4295   -5721.7733   -6334.4295            0    2152.7063    23.533832    21.705644    21.733555    11101.869    1569.5472    1063.6245    3824.9472   -369.15604   -687.87497    131.91111     -5373.23 
 2475000    221.21024   -6334.9875   -5765.9377   -6334.9875            0    1411.1156    23.679344    21.600201    21.742032    11120.583    586.54105    1246.0168    2400.7889    229.46298   -270.40308   -323.81722   -5537.0797 
 2476000      229.844   -6351.4262   -5760.1665   -6351.4262            0    2384.2314    23.217075    21.685155    21.990983     11071.71    3751.7093    2162.9099    1238.0751    933.85787    369.24046    614.21519   -5375.1858 
 2477000    239.51751   -6320.6252    -5704.481   -6320.6252            0    1884.1315    23.644312    21.408813    21.957893    11115.012    1504.9488    2543.7397     1603.706   -288.84207    583.30548   -192.25998   -5399.0613 
 2478000    253.32842   -6365.0932   -5713.4213   -6365.0932            0    1249.9779    23.418283    21.760091    21.819627    11118.932    1568.1123   -419.37885    2601.2001   -26.773944   -305.54333    704.26782   -5510.7271 
 2479000    231.72249   -6334.7932   -5738.7012   -6334.7932            0    1312.7532    23.675607    21.532474    21.874106    11151.297    1185.8895    2195.5217    556.84851   -737.40386   -1852.1574   -1228.9558   -5525.2079 
 2480000    238.93885   -6325.4915   -5710.8359   -6325.4915            0    1191.8381    23.231735    21.676543    22.154993    11156.893    1611.7952    1032.3632    931.35588    109.02125    628.18711    18.130045   -5516.9097 
 2481000    242.96201   -6348.1733   -5723.1684   -6348.1733            0    1824.3074    23.510111    21.498445    21.959911    11099.216    1297.4499    3089.8716    1085.6006    -139.4445    433.91548    55.575747   -5427.8665 
 2482000    240.52577   -6360.4724   -5741.7345   -6360.4724            0    2404.9189    23.653422    21.509248    21.750419    11065.903    811.05416    2719.6712    3684.0314   -433.82409     966.0479    793.81608    -5353.617 
 2483000    240.04106   -6382.5645   -5765.0735   -6382.5645            0    2222.7437     23.34181    21.635191    21.826297    11022.379     2741.607    1861.5649    2065.0594    702.58124   -786.81759   -817.60045   -5407.7672 
 2484000    241.47617   -6370.1842   -5749.0015   -6370.1842            0    832.54093    23.522016    21.416408    22.108308    11137.217    1243.1182     988.9927    265.51186    992.19137   -634.33919   -1159.9161   -5613.7761 
 2485000    237.61081   -6373.5757   -5762.3364   -6373.5757            0    1074.2665    23.334404    21.703331    21.974636     11128.71     1607.421    1552.5033    62.875088    884.22681    99.055994   -99.969407   -5587.9821 
 2486000    236.96918   -6364.0999   -5754.5111   -6364.0999            0    1431.0213    23.574555    21.536533    21.925704    11131.991    652.50904    1588.1099    2052.4451    1067.6555    23.130442    268.90251   -5522.1867 
 2487000    230.66883   -6367.0162   -5773.6347   -6367.0162            0    788.92088    23.382702    21.710091    21.927367    11131.222    1550.8722     -445.836    1261.7264   -609.75488    184.16527    1353.3831   -5645.5633 
 2488000      243.133   -6349.1602   -5723.7154   -6349.1602            0    2083.6182     23.57521    21.468244    21.890362    11079.114    1958.3698    2027.3359     2265.149   -1541.1521    82.644044   -228.12878   -5387.0495 
 2489000    224.10138   -6342.5086   -5766.0214   -6342.5086            0    1244.7385    23.407215    21.826451    21.788093    11131.459    1270.5266   -15.122645    2478.8115    429.92687      284.131   -336.82002   -5563.9494 
 2490000    250.03198   -6382.6377   -5739.4457   -6382.6377            0    1421.7176     23.59898    21.482191    21.940199    11122.755    1021.6907    1858.0667    1385.3954    755.58934   -510.75672   -302.02565   -5508.8232 
 2491000    233.89584   -6368.6425   -5766.9597   -6368.6425            0    1576.6799    23.431667    21.700935    21.855292    11113.178    2659.2233     480.5771    1590.2393     485.0042   -252.26447    171.12701   -5511.4204 
 2492000    231.11363   -6360.0183   -5765.4926   -6360.0183            0    547.95854    23.480309     21.54283    22.073629    11165.554    1360.5911    748.90943    -465.6249   -1139.8892    -575.7069    901.44351    -5676.264 
 2493000    241.81031   -6357.7087   -5735.6664   -6357.7087            0    2026.0908    23.395738    21.584058    21.985792    11102.275    -378.4795    3785.3302    2671.4219    872.65176    1288.6218    256.73885   -5407.6113 
 2494000    238.90319   -6373.4929   -5758.9289   -6373.4929            0    1931.4831    23.608924    21.614591    21.683582    11065.072    966.37501    1885.9244    2942.1498    85.248382    51.355439    726.64136   -5447.2403 
 2495000    254.01402   -6357.2376    -5703.802   -6357.2376            0    1372.7207    23.449949    21.563066    21.972797    11110.607     1618.922    1823.8377    675.40236   -516.21393    274.95956   -521.60336   -5481.3707 
 2496000    228.79154   -6358.1102    -5769.558   -6358.1102            0    525.71302    23.426004    21.686948    22.023573    11188.824    836.40175    250.30889    490.42842    495.53899   -201.50511   -985.01927   -5683.7734 
 2497000    233.61427   -6352.3833   -5751.4248   -6352.3833            0    974.11824    23.660219    21.619043    21.746013    11123.331    379.79656    908.67826    1633.8799    156.26435   -1067.8088   -438.76027    -5593.401 
 2498000    231.02579   -6333.6458    -5739.346   -6333.6458            0    1265.3486    23.464584     21.75323    21.757973    11105.933    1132.4761    182.42998    2481.1396   -881.00076   -329.77392   -101.58489   -5534.3993 
 2499000    229.67819   -6358.9752    -5768.142   -6358.9752            0    2819.4027    23.500563    21.409804    21.978053    11058.091    2630.3972    3352.7326    2475.0783   -184.53856    1032.5286    1026.3711   -5313.4544 
 2500000     245.7965   -6327.3737   -5695.0772   -6327.3737            0    2888.1034    23.111319    21.691448    22.109832    11084.056     3890.744    4109.7528    663.81325    165.60334    213.89496    738.54619   -5228.2165 
Loop time of 630.281 on 64 procs for 250000 steps with 1296 atoms

Performance: 68.541 ns/day, 0.350 hours/ns, 396.648 timesteps/s
99.2% CPU use with 64 MPI tasks x 1 OpenMP threads

MPI task timing breakdown:
Section |  min time  |  avg time  |  max time  |%varavg| %total
---------------------------------------------------------------
Pair    | 29.1       | 37.967     | 46.577     |  95.2 |  6.02
Bond    | 0.2704     | 0.27756    | 0.28924    |   0.8 |  0.04
Kspace  | 329.88     | 342.53     | 357.54     |  36.1 | 54.34
Neigh   | 4.2811     | 4.8492     | 5.3958     |  10.5 |  0.77
Comm    | 96.07      | 106.55     | 118.61     |  42.2 | 16.91
Output  | 1.1651     | 1.1663     | 1.1787     |   0.3 |  0.19
Modify  | 121.47     | 126.79     | 133        |  26.0 | 20.12
Other   |            | 10.15      |            |       |  1.61

Nlocal:        20.2500 ave          27 max          11 min
Histogram: 1 2 1 10 6 13 12 8 7 4
Nghost:        2521.23 ave        2560 max        2483 min
Histogram: 1 2 6 9 14 15 7 8 1 1
Neighs:        6296.38 ave        8465 max        3433 min
Histogram: 1 2 2 9 13 6 12 9 6 4

Total # of neighbors = 402968
Ave neighs/atom = 310.93210
Ave special neighs/atom = 2.0000000
Neighbor list builds = 8450
Dangerous builds = 0

unfix		3
unfix		2
unfix		1

write_data	data.final.${pid}
write_data	data.final.0
System init for write_data ...
PPPM initialization ...
  extracting TIP4P info from pair style
  using 12-bit tables for long-range coulomb (../kspace.cpp:340)
  G vector (1/distance) = 0.36850665
  grid = 30 40 32
  stencil order = 5
  estimated absolute RMS force accuracy = 0.0042006479
  estimated relative force accuracy = 1.2650126e-05
  using double precision FFTW3
  3d grid and FFT values/proc = 5168 640
Last active /omp style is kspace_style pppm/tip4p/omp
WARNING: Not all mixed pair coeffs generated from mixing. Use write_data with 'pair ij' option to store all pair coeffs. (../write_data.cpp:312)

write_restart   restart.lmp.${pid}
write_restart   restart.lmp.0
System init for write_restart ...
PPPM initialization ...
  extracting TIP4P info from pair style
  using 12-bit tables for long-range coulomb (../kspace.cpp:340)
  G vector (1/distance) = 0.36850665
  grid = 30 40 32
  stencil order = 5
  estimated absolute RMS force accuracy = 0.0042006479
  estimated relative force accuracy = 1.2650126e-05
  using double precision FFTW3
  3d grid and FFT values/proc = 5168 640
Last active /omp style is kspace_style pppm/tip4p/omp
Total wall time: 0:10:34
