#include		in.partitions
include		in.temp
variable        temperature equal 259.28
variable	tempDamp equal 100.0
include		in.pressure
variable        pressure equal 2500.0
variable        pressureDamp equal 1000.0 # This is 1 ps
include		in.seed
variable        seed equal 745823

units		real
atom_style	full
read_restart	restart.lmp.${pid}
read_restart	restart.lmp.1
Reading restart file ...
  restart file = 30 Jul 2021, LAMMPS = 30 Jul 2021
  restoring atom style full from restart
  orthogonal box = (0.26049008 1.3983542 0.31779729) to (17.947082 22.230824 21.895399)
  2 by 4 by 4 MPI processor grid
  restoring pair style lj/cut/tip4p/long/omp from restart
  restoring bond style harmonic/omp from restart
  restoring angle style harmonic/omp from restart
  864 atoms
  576 bonds
  288 angles
Finding 1-2 1-3 1-4 neighbors ...
  special bond factors lj:    0        0        0       
  special bond factors coul:  0        0        0       
     2 = max # of 1-2 neighbors
     1 = max # of 1-3 neighbors
     1 = max # of 1-4 neighbors
     2 = max # of special neighbors
  special bonds CPU = 0.002 seconds
  read_restart CPU = 0.009 seconds
include 	in.setup
variable	out_freq equal 1000
variable	out_freq2 equal 10000
variable	out_freq3 equal 1000

timestep	2.0

neigh_modify    delay 7 every 1

include		in.tip4p
# This is TIP4P/Ice

# create groups ###
group ox type 2
288 atoms in group ox
group hy type 1
576 atoms in group hy

# set charges - beside manually ###
set group ox charge -1.1794
Setting atom values ...
  288 settings made for charge
set group hy charge 0.5897
Setting atom values ...
  576 settings made for charge

# ### TIP3P Potential Parameters ###
pair_style lj/cut/tip4p/long/omp 2 1 1 1 0.1577 8.5
pair_coeff 1 1*2 0.000 0.000
pair_coeff 2 2 0.21084 3.1668
bond_style  harmonic
bond_coeff  1 450 0.9572
angle_style harmonic
angle_coeff 1 55 104.52
kspace_style pppm/tip4p/omp 1.0e-5
pair_modify tail yes

thermo          ${out_freq}
thermo          1000
thermo_style    custom step temp pe etotal epair emol press lx ly lz vol pxx pyy pzz pxy pxz pyz enthalpy

restart 	${out_freq3} restart.lmp.${pid} restart2.lmp.${pid}
restart 	1000 restart.lmp.${pid} restart2.lmp.${pid}
restart 	1000 restart.lmp.1 restart2.lmp.${pid}
restart 	1000 restart.lmp.1 restart2.lmp.1


include         in.dump
dump            myDump all atom ${out_freq2} dump.water.${pid}
dump            myDump all atom 10000 dump.water.${pid}
dump            myDump all atom 10000 dump.water.1
dump            myDump2 all dcd ${out_freq2} dump.dcd
dump            myDump2 all dcd 10000 dump.dcd
dump_modify     myDump append yes
dump_modify     myDump2 append yes


variable natoms 	equal  "count(all)"                        # NUMBER ATOMS
variable H      	equal  "enthalpy/v_natoms"                 # ENTHALPY-per-atom
variable Vol      	equal  "vol/v_natoms"                 # volume-per-atom
fix AVG all 		ave/time ${out_freq} 1 ${out_freq} v_Vol v_H file vol_enthalpy.dat
fix AVG all 		ave/time 1000 1 ${out_freq} v_Vol v_H file vol_enthalpy.dat
fix AVG all 		ave/time 1000 1 1000 v_Vol v_H file vol_enthalpy.dat


timer           timeout 23:50:00 every 1000
New timer settings: style=normal  mode=nosync  timeout=23:50:00

fix 		1 all shake 1e-6 200 0 b 1 a 1
       0 = # of size 2 clusters
       0 = # of size 3 clusters
       0 = # of size 4 clusters
     288 = # of frozen angles
  find clusters CPU = 0.000 seconds
fix             2 all nph iso ${pressure} ${pressure} ${pressureDamp}
fix             2 all nph iso 2500 ${pressure} ${pressureDamp}
fix             2 all nph iso 2500 2500 ${pressureDamp}
fix             2 all nph iso 2500 2500 1000
fix             3 all temp/csvr ${temperature} ${temperature} ${tempDamp} ${seed}
fix             3 all temp/csvr 259.28 ${temperature} ${tempDamp} ${seed}
fix             3 all temp/csvr 259.28 259.28 ${tempDamp} ${seed}
fix             3 all temp/csvr 259.28 259.28 100 ${seed}
fix             3 all temp/csvr 259.28 259.28 100 745823

run             250000
PPPM initialization ...
  extracting TIP4P info from pair style
  using 12-bit tables for long-range coulomb (../kspace.cpp:340)
  G vector (1/distance) = 0.37243319
  grid = 24 24 25
  stencil order = 5
  estimated absolute RMS force accuracy = 0.0032808481
  estimated relative force accuracy = 9.8801767e-06
  using double precision FFTW3
  3d grid and FFT values/proc = 3822 576
Last active /omp style is kspace_style pppm/tip4p/omp
Neighbor list info ...
  update every 1 steps, delay 7 steps, check yes
  max neighbors/atom: 2000, page size: 100000
  master list distance cutoff = 10.8154
  ghost atom cutoff = 10.8154
  binsize = 5.4077, bins = 4 4 4
  1 neighbor lists, perpetual/occasional/extra = 1 0 0
  (1) pair lj/cut/tip4p/long/omp, perpetual
      attributes: half, newton on, omp
      pair build: half/bin/newton/omp
      stencil: half/bin/3d
      bin: standard
Per MPI rank memory allocation (min/avg/max) = 10.20 | 10.20 | 10.21 Mbytes
Step Temp PotEng TotEng E_pair E_mol Press Lx Ly Lz Volume Pxx Pyy Pzz Pxy Pxz Pyz Enthalpy 
 2250000    254.45893   -3850.5834   -3414.4495   -3850.5834            0     1433.844    17.686592    20.832469    21.577601    7950.3835    480.51572    1406.3469    2414.6694    1444.4537    -1076.198   -1949.5769   -3248.1979 
 2251000    257.61441   -3893.8971   -3452.3548   -3893.8971            0    2231.1947    17.670915    20.814003    21.558475    7929.2605    2341.6323    1489.0966     2862.855   -367.88112   -988.25689   -566.74316   -3194.3392 
 2252000    265.42889   -3872.3547   -3417.4187   -3872.3547            0    1635.4456    17.634347    20.770931    21.513862    7880.1363   -42.375188      1571.78    3376.9319    507.31318   -703.81342   -472.99237   -3229.4672 
 2253000    248.32301   -3834.9357   -3409.3186   -3834.9357            0     2968.473    17.627963    20.763412    21.506074    7871.5816    2844.2682    3115.8833    2945.2673    856.40156   -1913.9564    732.41087    -3068.541 
 2254000    242.45113   -3878.6635   -3463.1106   -3878.6635            0    1607.0135    17.522161    20.638791    21.376995    7730.6957    1088.3239    3117.4801    615.23655    1070.5706   -39.554072    606.31094    -3281.929 
 2255000     257.9031   -3852.1051    -3410.068   -3852.1051            0     925.9602    17.633415    20.769833    21.512725    7878.8866    936.79704    1385.5511    455.53243    1385.3713    389.52356    1094.5339   -3303.6701 
 2256000    264.85443   -3864.9859   -3411.0344   -3864.9859            0     1331.597    17.595846    20.725583    21.466891    7828.6354   -1291.2768    1904.4407    3381.6271   -534.72316   -166.73883   -203.49503   -3259.0025 
 2257000    271.03662   -3893.4765    -3428.929   -3893.4765            0    3577.0106    17.443207    20.545794    21.280672    7626.6639    4102.0386    4436.2778    2192.7154     1617.481   -955.19293   -745.72433   -3031.0686 
 2258000    265.92186   -3879.8903   -3424.1093   -3879.8903            0    2499.6727    17.508939    20.623217    21.360865    7713.2085    1450.6254    3829.2875    2219.1052   -1182.2321    559.78137    1071.5782   -3142.9231 
 2259000    275.54467   -3846.7516   -3374.4775   -3846.7516            0    2057.0379    17.565448    20.689778    21.429805    7788.1316     2952.798    1026.6648    2191.6509   -184.87188    29.443686    2171.1992   -3140.8352 
 2260000    271.14723   -3871.8538   -3407.1167   -3871.8538            0    3146.9221    17.536847    20.656089    21.394912    7750.1502    2826.9296    3259.6949    3354.1417    440.97373   -1426.6391    300.12405   -3051.4264 
 2261000    270.26918   -3878.9817   -3415.7495   -3878.9817            0    2256.3122    17.539736    20.659492    21.398437    7753.9811    3591.6588    1309.3281    1867.9497    -429.2067    254.32542   -7.5695333    -3160.597 
 2262000    263.25928   -3834.3795   -3383.1621   -3834.3795            0    2720.2651    17.525769    20.643041    21.381397    7735.4721    2805.0362    3366.7417    1989.0174    -1135.909   -889.69979   -471.07544   -3076.2783 
 2263000    256.25816   -3841.1799   -3401.9622   -3841.1799            0    3630.4445    17.541847    20.661978    21.401012    7756.7808    1971.1976    4027.9506    4892.1853   -224.44704   -566.84141    -1546.926   -2991.2692 
 2264000    236.65407   -3851.3765   -3445.7595   -3851.3765            0    1907.9384    17.554607    20.677008    21.416579    7773.7202   -773.46375      4399.13    2098.1489    786.73241   -1504.0801    412.23768   -3229.4533 
 2265000    263.32199   -3878.7424   -3427.4176   -3878.7424            0    2758.1572    17.661958    20.803453    21.547547    7917.2091    1813.8723    4418.9681    2041.6311   -369.78684   -976.43199   -1999.7029   -3108.9487 
 2266000    260.03987   -3853.0007   -3407.3013   -3853.0007            0    2089.3172    17.654533    20.794707    21.538488    7907.2279    2375.2095    2197.8957    1694.8465    833.24078    387.12834     220.3891   -3166.3637 
 2267000    261.15975   -3870.1571   -3422.5382   -3870.1571            0    917.92528    17.704113    20.853106    21.598976    7974.0341   -337.26914    1659.7512    1431.2938    -280.9588    392.26022    1486.3411   -3315.7898 
 2268000    249.79322   -3903.9468   -3475.8098   -3903.9468            0    1569.7148    17.766024    20.926029    21.674507     8057.982    1984.6039    948.49323    1776.0472   -2475.0293   -889.07481     547.4511    -3291.341 
 2269000    254.60764   -3873.8116   -3437.4229   -3873.8116            0    3498.8031    17.739063    20.894273    21.641616    8021.3532    2430.7388    2978.4294    5087.2411   -62.444951   -403.32976     1192.339   -3028.1216 
 2270000    254.05033   -3911.5439   -3476.1104   -3911.5439            0      2088.96    17.762076     20.92138    21.669692    8052.6124    1883.5239    2537.1411    1846.2151    99.776593    -1215.099    1552.6633   -3230.7848 
 2271000     256.0554   -3904.9428   -3466.0726   -3904.9428            0    1910.6363    17.753713    20.911529    21.659489    8041.2432    975.90638    2585.1076    2170.8948    423.82495   -7.0572761    537.05991    -3242.006 
 2272000    255.75536   -3843.6515   -3405.2956   -3843.6515            0    3349.7307    17.612483    20.745179    21.487188    7850.8621    1629.1678    3992.4345    4427.5898    175.02715   -1267.2989    232.09932   -3021.7622 
 2273000    259.48881   -3915.2566   -3470.5016   -3915.2566            0    2722.6231     17.64298    20.781099    21.524394    7891.7148    3542.5665    3685.5212    939.78163    133.58877     208.9338   -1035.1305    -3157.148 
 2274000    268.14981   -3855.1369   -3395.5373   -3855.1369            0    1412.3247    17.681476    20.826443    21.571359    7943.4859    277.29666    1057.0417    2902.6357     742.5107   -1261.3063    706.35828   -3231.9229 
 2275000    272.62678   -3904.7497   -3437.4768   -3904.7497            0    2753.3955    17.573404    20.699149    21.439512    7798.7194     2515.433    3028.4592    2716.2943   -1475.0207   -891.16599    554.68791   -3124.3157 
 2276000    261.43449   -3850.7836   -3402.6938   -3850.7836            0    2931.5086    17.614768     20.74787    21.489976    7853.9184    2073.8831    3058.0126      3662.63   -1138.7872   -476.20755    145.35829   -3066.9149 
 2277000    269.18346    -3854.551   -3393.1797    -3854.551            0    4110.9939    17.558122    20.681149    21.420868    7778.3914    4373.9252    4389.1924    3569.8641    27.733394    282.09643    520.94738   -2926.8291 
 2278000    252.80013     -3895.37   -3462.0792     -3895.37            0    447.67112    17.744759    20.900982    21.648564    8029.0816    -668.1589    1314.2378    696.93449    280.96667   -312.52198    1414.2857   -3409.6588 
 2279000    263.68197   -3913.0192   -3461.0773   -3913.0192            0    2571.4593    17.633031    20.769381    21.512256     7878.372    3215.2548    2526.4516    1972.6715    1009.9457    355.62768   -533.98604   -3165.6219 
 2280000    261.49102   -3842.7201   -3394.5334   -3842.7201            0    1695.8387    17.711892     20.86227    21.608467    7984.5506    1368.4488    1112.2148    2606.8525    67.647553     321.5471    1249.5008   -3197.0589 
 2281000    261.44474   -3855.4693    -3407.362   -3855.4693            0    2449.5848    17.786526    20.950179    21.699521    8085.9119    3128.0764     2552.405    1668.2731    -328.2172   -291.27599   -105.11662   -3118.4954 
 2282000    258.94677   -3880.4578   -3436.6319   -3880.4578            0    3433.6301     17.65892    20.799875    21.543841    7913.1241    4848.1268    3933.3506     1519.413    104.48984     384.0507    15.540852   -3040.3745 
 2283000    247.69665   -3857.7771   -3433.2335   -3857.7771            0     1411.333    17.756274    20.914545    21.662613     8044.723    730.99002    960.09078    2542.9183   -795.82742    584.02372   -422.08355   -3267.6502 
 2284000    249.00939   -3900.0205   -3473.2269   -3900.0205            0    2269.3501    17.701952    20.850562    21.596341    7971.1155    1461.6848    1896.1302    3450.2354    765.66535    2393.7087   -472.22627   -3209.4137 
 2285000     256.4372   -3938.6105   -3499.0859   -3938.6105            0    1486.1599    17.759012     20.91777    21.665953    8048.4453    1180.9616    3156.3097     121.2084   -261.53687    223.03755   -2080.6109   -3324.6429 
 2286000    263.20098   -3920.5022   -3469.3848   -3920.5022            0    2920.0663    17.698408    20.846387    21.592016    7966.3279    2860.4081    2741.5858     3158.205     233.5624    263.68601   -1070.4154   -3130.1294 
 2287000     262.8038   -3898.7751   -3448.3383   -3898.7751            0     2111.261    17.633442    20.769865    21.512758    7878.9227    1053.4984    332.46811    4947.8166    1173.9533    1334.3001    1696.9767   -3205.7418 
 2288000    267.31124   -3898.7741   -3440.6118   -3898.7741            0    1404.5944    17.594483    20.723977    21.465228    7826.8163    1178.7478    865.70249    2169.3328    1400.9369    732.56906   -603.73207   -3280.2828 
 2289000     263.6703   -3884.9329    -3433.011   -3884.9329            0    3228.9177    17.613139    20.745952    21.487989      7851.74     3080.305    2494.2574    4112.1907     686.2811    834.76161    259.82328    -3063.269 
 2290000    250.43812   -3853.8485   -3424.6061   -3853.8485            0     3661.122    17.623092    20.757675    21.500131    7865.0579    3492.9939    3713.7931    3776.5789   -207.01396   -43.900494   -381.61309   -3004.6615 
 2291000    249.34089   -3835.6527   -3408.2909   -3835.6527            0    2744.5638    17.639945    20.777525    21.520691    7887.6431    3538.2027    3310.7278    1384.7609    970.35511    775.71041   -245.48488    -3092.575 
 2292000    254.82918   -3859.7662   -3422.9977   -3859.7662            0    3174.0871    17.627585    20.762966    21.505612    7871.0746    3356.3173     3211.171    2954.7729    768.24612    625.05614   -128.05654   -3058.6393 
 2293000    266.62133   -3874.4416   -3417.4617   -3874.4416            0    2004.5771    17.718886    20.870508       21.617    7994.0132    3286.4673   -4.3098647    2731.5739   -90.330679   -560.91848     308.5817   -3183.7592 
 2294000    272.54966   -3875.2527   -3408.1119   -3875.2527            0    2123.9548    17.593298    20.722581    21.463782    7825.2342    2171.9251    1310.2606    2889.6788     327.0026   -731.54521    1192.8556   -3165.7197 
 2295000    259.78921   -3933.3318    -3488.062   -3933.3318            0     1455.613    17.536112    20.655223    21.394015    7749.1757    1367.7256    1384.3066    1614.8067    872.80222    81.304993   -362.92715   -3323.5577 
 2296000      274.602   -3882.1299   -3411.4715   -3882.1299            0    3053.1049    17.601346    20.732061    21.473601    7835.9788    3811.5532    3911.3589    1436.4024    -413.6653    94.290239    686.98071   -3062.5635 
 2297000    247.56566   -3869.5648   -3445.2457   -3869.5648            0    1178.9317    17.617297    20.750849    21.493061    7857.3014    2479.8298   -822.75412    1879.7194    221.32239   -545.18373   -963.73433   -3310.1511 
 2298000    261.55174   -3877.4692   -3429.1785   -3877.4692            0    1202.6622    17.600887     20.73152    21.473041    7835.3655     1291.549    1215.4423    1100.9954   -274.79116    703.69742   -457.39776   -3291.7493 
 2299000    259.30305   -3833.7644   -3389.3278   -3833.7644            0    3524.0569    17.460637    20.566324    21.301937    7649.5495    4771.4491    4835.7362    964.98541   -361.44722    1000.8036    -163.6888   -2996.1811 
 2300000    245.97798   -3865.5217   -3443.9239   -3865.5217            0     3889.504     17.43681    20.538259    21.272868    7618.2763    6419.0119    3466.9985    1782.5017   -203.95108   -85.856898    134.04509   -3011.7816 
 2301000    260.08433   -3847.4502   -3401.6746   -3847.4502            0    4264.3251    17.501678    20.614665    21.352006    7703.6167    4368.7822    4436.1616    3988.0316    10.535637   -1371.4505    207.09206   -2922.5805 
 2302000    250.98493   -3866.1283   -3435.9487   -3866.1283            0     3268.577    17.558561    20.681666    21.421404    7778.9751    4996.3749      1203.34    3606.0161    108.24196   -894.97687   -709.47567    -3065.134 
 2303000    258.06077   -3898.3631   -3456.0558   -3898.3631            0    2372.2475    17.575594    20.701728    21.442183    7801.6346    2199.1528    1814.1035    3103.4862   -7.0526063   -250.17754    -1010.898   -3186.1442 
 2304000    255.99866   -3819.8824   -3381.1095   -3819.8824            0    1487.2529    17.677006    20.821179    21.565906    7937.4635     1865.403    1731.0599    865.29577    599.67954   -481.57463   -1511.8195   -3208.9454 
 2305000    260.18387   -3880.6281   -3434.6818   -3880.6281            0   -318.55772    17.764205    20.923887    21.672288    8055.5074   -310.35935    99.737637   -745.05145    918.82382   -67.460502    -511.0254   -3472.1064 
 2306000    275.18875    -3856.612   -3384.9479    -3856.612            0    3359.4181    17.660958    20.802276    21.546328    7915.8647    2193.4141     3656.565    4228.2752    283.79285    912.70724    138.33909   -2997.1207 
 2307000    261.72236   -3860.6331     -3412.05   -3860.6331            0    2673.2231    17.678733    20.823213    21.568013    7939.7903     3166.366    1767.7916    3085.5118    -95.98353    526.31189    447.08951   -3102.5076 
 2308000    267.70333   -3884.2251   -3425.3907   -3884.2251            0    2960.2079    17.600158    20.730662    21.472152    7834.3923    2374.7227    2545.5907    3960.3105    570.07526   -1382.1924   -868.86841   -3087.1675 
 2309000    259.99583   -3878.5721   -3432.9481   -3878.5721            0    2168.6916    17.697416    20.845219    21.590806     7964.989    3008.5121    3096.8788    400.68388    485.22287    102.74883    627.05918   -3181.0303 
 2310000     254.2348    -3912.859   -3477.1092    -3912.859            0    2818.9948    17.774814    20.936383    21.685231    8069.9485    3742.8724    2737.7482    1976.3638   -1316.5368    697.06275    257.11449   -3145.3363 
 2311000    258.44359   -3879.4762   -3436.5127   -3879.4762            0     2092.474    17.679583    20.824214     21.56905    7940.9355    2654.9779    1910.5743      1711.87   -290.65026    443.55476   -733.65665   -3194.1825 
 2312000    270.88501   -3890.5206    -3426.233   -3890.5206            0    1423.3128    17.801301    20.967582    21.717546    8106.0791    1006.5207    1861.3251    1402.0927    63.599084    258.46356    177.73544   -3257.9706 
 2313000    264.20581   -3848.4311   -3395.5914   -3848.4311            0    2545.9932    17.791675    20.956243    21.705802    8092.9358    3976.6261    1519.3674     2141.986   -518.59579   -1704.9543   -1333.9861    -3095.095 
 2314000    261.22146   -3876.9302   -3429.2055   -3876.9302            0    2098.3581    17.715971    20.867074    21.613443     7990.068    2371.5433    2055.4224    1868.1088    -240.7253    1419.1852    511.67298   -3184.6903 
 2315000     259.6179   -3904.4582    -3459.482   -3904.4582            0    1469.5906    17.652095    20.791837    21.535515    7903.9536    1184.8469    2095.6735    1128.2514   -898.17144     39.39965   -959.16919   -3290.0807 
 2316000     265.7395   -3860.9286   -3405.4602   -3860.9286            0    2250.9277    17.691276    20.837986    21.583315    7956.7009    4805.4077    1650.7594    296.61602   -491.65163    31.885277   -82.898376   -3144.2619 
 2317000    246.52768    -3895.679    -3473.139    -3895.679            0    2136.7048     17.64865    20.787779    21.531312    7899.3265    2010.2524    1948.9933    2450.8687   -179.04222    1490.1794    828.31188   -3226.9829 
 2318000    247.53461   -3852.5532   -3428.2873   -3852.5532            0    1583.9006    17.702627    20.851356    21.597163    7972.0263   -149.53964    2764.7175    2136.5239     894.3595    511.21624   -542.89788    -3244.137 
 2319000       257.91   -3894.1694   -3452.1204   -3894.1694            0    1514.4479    17.589675    20.718313    21.459362    7820.4007    411.85112    1072.1909    3059.3017    54.630779   -301.16372    54.024391   -3279.3938 
 2320000    251.74338   -3854.6998   -3423.2203   -3854.6998            0    2291.3724    17.729134    20.882579    21.629503    8007.8916    1964.4203    2274.4615    2635.2356   -853.71623   -482.09704    466.29811    -3155.618 
 2321000    256.56003   -3866.7747   -3427.0395   -3866.7747            0    3443.5922    17.583429    20.710956    21.451742    7812.0729    2811.9377    2984.9123    4533.9266    -587.1775    130.33525    32.476955   -3034.7074 
 2322000    279.22802   -3822.3027   -3343.7154   -3822.3027            0    2963.3168    17.696235    20.843828    21.589366    7963.3946    2958.4058    2051.6477     3879.897   -1809.7438    521.36034    733.61248   -2999.5619 
 2323000    246.34206   -3871.6234   -3449.4016   -3871.6234            0    3487.9871    17.635953    20.772823    21.515822    7882.2897    2925.5015     4926.078    2612.3818    109.00166    57.501588   -1595.3646   -3048.4396 
 2324000    251.80111   -3856.1774    -3424.599   -3856.1774            0    2699.4196    17.583912    20.711526    21.452332    7812.7171     2810.194    2183.6597     3104.405    115.81385    954.38304    48.360182   -3117.0258 
 2325000    258.36127     -3871.71   -3428.8876     -3871.71            0    3100.9127    17.618354    20.752093     21.49435    7858.7153    1847.0476    4135.9475    3319.7429     805.2185   -979.81226   -165.31043    -3073.488 
 2326000    254.72111   -3878.9774   -3442.3942   -3878.9774            0    5128.4708    17.535775    20.654827    21.393605    7748.7292    4679.2001    7525.8812    3180.3311    1141.4129    1361.5689   -1195.0332   -2862.8397 
 2327000     253.5639   -3891.9517   -3457.3518   -3891.9517            0    3938.3676       17.495    20.606799    21.343859    7694.8018    5154.7514    3346.3214    3314.0299   -958.92184   -43.774084   -1051.9835   -3015.3851 
 2328000    280.02389   -3848.9081   -3368.9567   -3848.9081            0    2302.4606    17.569513    20.694566    21.434765    7793.5401    2448.9833    1216.5877    3241.8107   -560.64748   -18.362743    824.31047   -3107.2573 
 2329000    263.55495   -3875.4499   -3423.7258   -3875.4499            0     3007.882     17.52379    20.640709    21.378982    7732.8517    4735.3225    2553.9529    1734.3707    454.98212    1575.0342     435.9465   -3084.5098 
 2330000     266.6038   -3824.8483   -3367.8985   -3824.8483            0    4481.6442    17.413358    20.510635    21.244256    7587.5777     4783.118    4303.1142    4358.7004    688.91199   -911.65591   -100.60379   -2871.9731 
 2331000    263.86934   -3867.4955   -3415.2325   -3867.4955            0    1519.4939    17.507077    20.621024    21.358593    7710.7479      1981.85    2932.9862   -356.35445    345.61245   -19.739488   -199.72026   -3244.3603 
 2332000    247.19304   -3903.2816   -3479.6012   -3903.2816            0    2444.5842    17.605777     20.73728    21.479007    7841.8976    1954.0722    2275.2319    3104.4485    142.49237    335.90487   -1479.3467   -3200.0238 
 2333000     244.2261   -3864.1417   -3445.5466   -3864.1417            0    3602.3714     17.62025    20.754327    21.496663    7861.2527    4204.7629    3708.1827    2894.1684    234.06984    1055.5351    809.99307   -3032.5408 
 2334000    268.41353   -3821.8826    -3361.831   -3821.8826            0     2363.605     17.59587    20.725611     21.46692    7828.6669    728.99315    4093.4155    2268.4064     752.6263   -284.06341    485.14753    -3091.971 
 2335000    260.73419   -3860.0807   -3413.1912   -3860.0807            0    2019.4838    17.515698    20.631178     21.36911     7722.144   -114.60012    4964.8689    1208.1825   -109.91786    697.99796    254.45712   -3185.7578 
 2336000    257.46512   -3846.8846   -3405.5982   -3846.8846            0    1681.8557    17.639097    20.776527    21.519657    7886.5063    1407.7454    1374.3654    2263.4563    7.2956807     460.8861   -1532.3073   -3212.1568 
 2337000     260.8988   -3881.4862   -3434.3146   -3881.4862            0    3891.6196    17.638742    20.776109    21.519225    7886.0304    3957.3817    2651.7344    5065.7428    511.34797    73.760604    220.14832   -2986.7407 
 2338000    276.51087   -3862.8005   -3388.8703   -3862.8005            0    2974.1018    17.787789    20.951666    21.701061    8087.6338    1679.4431    3731.7358    3511.1265    411.13711   -224.57768    1202.4028   -3038.0755 
 2339000    256.88658   -3888.1789   -3447.8841   -3888.1789            0    3103.8203    17.666394    20.808679     21.55296    7923.1767    3365.4224    2407.4771    3538.5614   -518.11041    226.11421      1033.88   -3089.2333 
 2340000    266.03006   -3884.4646   -3428.4982   -3884.4646            0    2868.9205    17.727351    20.880478    21.627327    8005.4758    3062.4904    2432.4778    3111.7933    59.226693    294.95855   -990.85401    -3093.547 
 2341000    253.74324   -3869.9869   -3435.0797   -3869.9869            0    3298.4692    17.628221    20.763716    21.506389     7871.927    2686.5579    5522.1466    1686.7031    644.21157   -323.64023   -512.78651   -3056.4023 
 2342000    272.08277   -3865.9462   -3399.6056   -3865.9462            0    2268.3631    17.601712    20.732491    21.474047    7836.4667    1617.5708    2527.4683    2660.0504     1528.204   -1231.5842    721.71234   -3140.3616 
 2343000    258.19558   -3883.0505   -3440.5121   -3883.0505            0    2741.6502    17.520634    20.636992    21.375132    7728.6746    3116.9975    3221.8372     1886.116   -254.36517   -761.11316    1216.6215   -3131.4875 
 2344000    253.36588   -3863.8145    -3429.554   -3863.8145            0    894.38173    17.564281    20.688403    21.428382    7786.5798    4.9099407    1906.1095    772.12575    132.55355   -942.10574    1954.4529   -3327.9887 
 2345000     250.6655   -3873.8309   -3444.1988   -3873.8309            0    2437.7204     17.58187     20.70912     21.44984    7809.9951    2916.7363    2371.4196    2025.0053    446.51514   -998.49691   -483.49252   -3166.5406 
 2346000    263.75196   -3844.4573   -3392.3954   -3844.4573            0    2802.1216    17.520773    20.637157    21.375303    7728.8593    1374.3194    4895.4797    2136.5659   -826.77227    661.95424    331.60061   -3076.5473 
 2347000    257.41067   -3881.3386   -3440.1455   -3881.3386            0    2995.1571    17.525622    20.642868    21.381218    7735.2778    2361.7634    3646.7575    2976.9503    2315.3085    -234.2245     513.3412   -3102.2586 
 2348000    250.31421   -3903.9635   -3474.9335   -3903.9635            0     1278.745    17.587806    20.716113    21.457083     7817.909    1535.0217    1123.1633    1178.0501   -1043.4407    29.731828   -37.736823   -3329.1359 
 2349000    254.87226   -3871.8528   -3435.0105   -3871.8528            0    2740.5106    17.603718    20.734855    21.476495     7839.147    1993.6767    4084.5009    2143.3544    2058.0076   -1508.9693   -661.22512   -3121.6991 
 2350000    256.66773   -3906.8342   -3466.9145   -3906.8342            0    3220.7057    17.630452    20.766343     21.50911    7874.9157    2358.4182    4701.6167    2602.0824   -1014.4291    57.760348    570.75771   -3097.0242 
 2351000    243.19066   -3878.1841   -3461.3636   -3878.1841            0    2903.6971    17.634057     20.77059    21.513508    7879.7474    5081.8201    1932.3575    1696.9136   -1171.7259    457.04231    1411.6105   -3127.6765 
 2352000     262.5123   -3866.1625   -3416.2254   -3866.1625            0    3647.3524    17.586352      20.7144    21.455309    7815.9704    2823.4693     3910.715    4207.8728    170.67621    864.48268   -339.33285   -3000.4713 
 2353000    248.90123   -3837.4571   -3410.8489   -3837.4571            0    2150.9079     17.47646    20.584961     21.32124    7670.3637     1845.133    3536.5148    1071.0759   -170.26364    538.04939   -17.865673   -3170.2389 
 2354000    268.74715    -3890.314   -3429.6905    -3890.314            0    1270.6844    17.545473    20.666249    21.405436    7761.5919    1164.6745    1102.2515    1545.1271     837.0805    770.67682   -30.092173   -3285.8556 
 2355000    265.33714    -3876.823   -3422.0442    -3876.823            0    742.09592    17.618449    20.752206    21.494467    7858.8435    583.73709    2555.9721   -913.42143     1118.545   -873.76286   -263.30108   -3336.9903 
 2356000    250.96617   -3901.8065    -3471.659   -3901.8065            0    457.03413    17.613226    20.746053    21.488094    7851.8551    -719.4207     1807.789    282.73405   -1310.8396    851.84447   -92.384205   -3419.3235 
 2357000    267.65554   -3918.7832   -3460.0307   -3918.7832            0     1365.481    17.625705    20.760753    21.503319    7868.5572   -390.56584    1460.4085    3026.6002   -1607.0767    48.602351    785.02349   -3303.3352 
 2358000    263.16882   -3911.6295   -3460.5671   -3911.6295            0    1087.9175    17.692298     20.83919    21.584562    7958.0804     1081.639     2765.804   -583.69061    1149.6773   -46.630897    475.84197    -3334.303 
 2359000    268.99909   -3924.0954   -3463.0402   -3924.0954            0    3538.1809    17.587566     20.71583     21.45679     7817.589    4740.6899    3180.6647     2693.188    1797.4092    544.25632     593.2273   -3059.6468 
 2360000    259.27553   -3895.7415   -3451.3521   -3895.7415            0    3332.1815    17.588783    20.717263    21.458274    7819.2118    3860.2734     2332.297     3803.974    1288.5243   -145.62831    952.90686   -3071.3662 
 2361000    249.83359   -3837.1409   -3408.9347   -3837.1409            0    2702.9719    17.596562    20.726426    21.467765     7829.591    3076.3317    2266.4428    2766.1411    552.97529   -35.844659    1238.0337   -3100.2917 
 2362000    249.12297    -3887.579   -3460.5908    -3887.579            0    3260.8538    17.512421    20.627318    21.365112    7717.8108    2063.4729    4239.0768    3480.0118    231.11649    183.26186    310.97577    -3093.561 
 2363000    258.75722   -3907.4594   -3463.9583   -3907.4594            0    3380.9307    17.582541    20.709911    21.450659    7810.8901    2368.5746    5193.3971    2580.8203   -459.30325    119.36579    391.58119   -3078.8236 
 2364000    272.06659   -3873.8759   -3407.5631   -3873.8759            0    3210.5948    17.568216    20.693038    21.433183    7791.8141    3284.2717    3505.7205    2841.7923   -634.31832   -1799.3354    72.491088   -3042.7252 
 2365000    272.18992   -3854.0884   -3387.5642   -3854.0884            0    3589.7772     17.56667    20.691217    21.431296    7789.7568    3345.2226    4148.9946    3275.1144    618.94243    946.29053   -946.70535   -2979.7454 
 2366000    249.02358   -3883.1801   -3456.3622   -3883.1801            0    2973.0685    17.650631    20.790112    21.533729    7901.9871     2768.738    3612.7558    2537.7117   -104.17814   -747.19527   -2522.9846   -3113.7388 
 2367000    245.52103   -3903.1785   -3482.3639   -3903.1785            0    1903.5733    17.648093    20.787123    21.530632    7898.5787    1464.4352     1901.018    2345.2668   -655.56216   -845.35927    1455.6671   -3263.0862 
 2368000    255.44715   -3919.8349   -3482.0072   -3919.8349            0    1292.9446    17.691048    20.837718    21.583037     7956.394   -16.053251    1482.1404    2412.7467   -1096.4382   -226.19617    40.968214   -3331.9793 
 2369000    263.60099   -3903.9813   -3452.1782   -3903.9813            0    4334.7533    17.619432    20.753364    21.495666     7860.159    4524.6129    4435.2524    4044.3945    640.16933    375.40343     -1689.44   -2955.2752 
 2370000    257.28163   -3891.4943   -3450.5224   -3891.4943            0    4566.9169    17.669954    20.812872    21.557303    7927.9674    5481.1684    3722.6457    4496.9366    1033.5908    687.31139    304.35821   -2922.4896 
 2371000    249.42329   -3888.8209   -3461.3179   -3888.8209            0    1386.6072     17.77148    20.932456    21.681164    8065.4086    1417.7514    1024.9023    1717.1679   -334.15395    800.27512    253.38165   -3298.2173 
 2372000     267.5866   -3859.4788   -3400.8445   -3859.4788            0    1593.2971    17.693245    20.840306    21.585718     7959.359    1275.4356    2141.1897    1363.2661   -670.24344    134.44406   -37.973203   -3215.8961 
 2373000    245.98917   -3902.2783   -3480.6613   -3902.2783            0    3544.7838    17.560558    20.684018     21.42384    7781.6292    1853.7841    4587.2135    4193.3539   -217.68809    -1628.005    76.650885   -3078.3741 
 2374000    276.27218   -3885.9331    -3412.412   -3885.9331            0    2821.2481    17.669724      20.8126    21.557022    7927.6571    1550.9957    4305.9875    2606.7612   -870.80286   -1260.5708    435.20517   -3086.2285 
 2375000    271.28093   -3856.7444   -3391.7782   -3856.7444            0    2651.3705     17.64051     20.77819    21.521381    7888.4012     3141.727    3223.5135     1588.871   -248.25222   -465.80166    1140.0707   -3086.7533 
 2376000    256.54129   -3879.3125   -3439.6095   -3879.3125            0    740.18386      17.7282    20.881477    21.628362    8006.6249    887.36098    1266.9352    66.255409   -149.33872    268.80632    820.18754   -3353.1794 
 2377000    265.91086   -3902.8792   -3447.1171   -3902.8792            0     2248.557    17.734452    20.888842     21.63599    8015.0995    2061.6941    2114.3499    2569.6272   -186.92014    1071.4653   -322.08131   -3184.2787 
 2378000    260.86449   -3901.8468    -3454.734   -3901.8468            0    1979.4437    17.645235    20.783756    21.527145    7894.7417    490.88953    3577.1805    1870.2612    1671.5464   -857.89411    305.77736   -3226.8273 
 2379000    288.55052    -3895.356   -3400.7903    -3895.356            0    2443.8229    17.703174       20.852    21.597831    7972.7655    4046.7716    1799.8212    1484.8758   -1231.8701   -545.46696   -1896.3658   -3116.6357 
 2380000    262.72071   -3934.2623    -3483.968   -3934.2623            0    5922.1543    17.549557     20.67106    21.410418    7767.0132    6314.0725    5703.7316    5748.6588   -864.02929    35.166597   -607.48492   -2813.1423 
 2381000     247.7964    -3899.477   -3474.7624    -3899.477            0     2506.161     17.65836    20.799216    21.543158    7912.3722    3800.6752    1224.6114    2493.1965   -492.47973    276.57941   -329.48255   -3185.5669 
 2382000    257.20501   -3846.7171   -3405.8765   -3846.7171            0    2269.1445    17.717901    20.869347    21.615798    7992.6798    2195.5431    3286.0821    1325.8082   -893.69646   -936.22763     984.2621   -3141.3736 
 2383000      247.621   -3866.9513   -3442.5374   -3866.9513            0    1393.9996    17.623206    20.757809    21.500271     7865.211    1879.1548    120.83668    2182.0072     314.8352   -735.43319    905.60288   -3282.6372 
 2384000    245.95133   -3874.6856   -3453.1334   -3874.6856            0    1325.4328    17.663654    20.805452    21.549617    7919.4911    2248.7568     1240.838    486.70346    611.88536   -1836.5612    296.00278    -3300.049 
 2385000    253.80225    -3912.833   -3477.8246    -3912.833            0    2206.8413    17.555971    20.678614    21.418243    7775.5321    3562.8874    2073.2089    984.42771   -68.036458    1200.2102    764.28563   -3227.5729 
 2386000    254.44908   -3850.4182   -3414.3012   -3850.4182            0    2793.2175    17.605009    20.736375    21.478069    7840.8712    3253.5195    2717.6113    2408.5217   -1316.4631    436.51844    1087.7068   -3094.8938 
 2387000    265.11493   -3894.5049    -3440.107   -3894.5049            0    1096.1343    17.553614    20.675839    21.415369    7772.4019    1502.3368   -1055.8967    2841.9629     785.1202    1160.8841   -92.132575   -3315.8574 
 2388000    276.80619   -3875.0601   -3400.6237   -3875.0601            0    3524.2791      17.4976    20.609861    21.347031    7698.2326    2440.4983    4382.4827    3749.8563    60.849755     127.6696   -563.59566     -3004.95 
 2389000    244.82636   -3920.7217   -3501.0977   -3920.7217            0    1085.6676    17.653541     20.79354    21.537279    7905.8962    1006.7504   -659.63067    2909.8832    965.26477    800.51129    218.81698   -3375.9209 
 2390000    255.47936     -3887.78   -3449.8971     -3887.78            0    2836.2118    17.559523    20.682799    21.422577    7780.2533    3392.4189    2671.0771    2445.1393    859.98023   -242.06456   -1159.3552   -3128.0807 
 2391000     263.4899   -3911.5255   -3459.9128   -3911.5255            0    2133.4585    17.608444    20.740422    21.482261    7845.4626    1513.5528    4103.7668      783.056    194.86641    217.61005   -1131.8166   -3215.8067 
 2392000    251.88289   -3875.3346   -3443.6159   -3875.3346            0    2873.1438    17.533914    20.652635    21.391334    7746.2628    3909.3377    3374.7614    1335.3324    1306.2902    467.50722    82.407982   -3119.0331 
 2393000    251.51472   -3878.8344   -3447.7467   -3878.8344            0    1614.5624    17.621245    20.755499    21.497877    7862.5845      1214.35    2642.8521    986.48507     -600.971    1150.6776    319.05382   -3262.6085 
 2394000    258.60255   -3890.1913   -3446.9554   -3890.1913            0    624.33072    17.702778    20.851534    21.597348    7972.2307    428.51602    465.80347    978.67267    644.31265    714.13323   -582.39076   -3374.3664 
 2395000    266.45618   -3879.7039   -3423.0071   -3879.7039            0    2481.9631    17.668889    20.811618    21.556004    7926.5341    2853.5314    2498.5098    2093.8481   -205.03725   -453.94447    253.86522   -3136.0912 
 2396000    260.31829   -3912.0331   -3465.8564   -3912.0331            0    1091.8481     17.67517    20.819015    21.563666    7934.9896    680.39329     686.7616    1908.3893   -710.30367    1656.1922   -892.97472   -3339.5037 
 2397000    245.04293   -3905.3417   -3485.3465   -3905.3417            0    1550.5446    17.697868    20.845751    21.591358    7965.5996    1884.7201    1207.8286    1559.0852   -1055.8755    -942.3506   -860.44448   -3305.2196 
 2398000    256.29558   -3942.7608    -3503.479   -3942.7608            0    3068.6214    17.635218    20.771957    21.514925    7881.3039    2529.5339    4974.9802    1701.3503   -236.58354   -535.87357    658.39548   -3150.7694 
 2399000    270.27561   -3865.6282    -3402.385   -3865.6282            0    3521.0612    17.535684    20.654719    21.393493    7748.6081    2062.4353    5408.7351    3092.0133   -456.54221    14.627687    42.289604   -3004.4857 
 2400000    236.67304    -3845.914   -3440.2645    -3845.914            0    1857.1668    17.647891    20.786884    21.530386    7898.3072    1421.1831    2491.2964    1659.0209     712.5054    737.17301   -38.529007   -3226.3399 
 2401000     272.0985   -3876.1061   -3409.7386   -3876.1061            0    2425.4906    17.657196    20.797844    21.541738     7910.807    3152.0018    3227.2851    897.18484   -61.519413    795.93414   -827.71773   -3129.9073 
 2402000    257.31561   -3909.3924   -3468.3622   -3909.3924            0    4264.3978    17.650459     20.78991    21.533519    7901.7562    3622.5356    4885.4321    4285.2257    -168.1769    686.32177    641.45466   -2976.9372 
 2403000     258.1907   -3854.6197   -3412.0896   -3854.6197            0    3005.2119    17.661052    20.802387    21.546442    7915.9913    3560.3547    3360.7736    2094.5074    668.25686    298.79907   -166.80308   -3065.1481 
 2404000    247.61803   -3869.6649    -3445.256   -3869.6649            0    1387.7034    17.729844    20.883414    21.630368    8008.8533    1416.0331    1274.5828    1472.4942   -50.517959     -184.675    1450.3759    -3283.171 
 2405000    263.98419   -3905.9594   -3453.4995   -3905.9594            0    3274.3857    17.611496    20.744016    21.485984    7849.5421    1905.8791    3237.8884    4679.3896    763.47808   -423.25019    127.88866    -3078.656 
 2406000    243.53431   -3918.3811   -3500.9716   -3918.3811            0    752.78365    17.636161    20.773069    21.516076    7882.5691    1394.5803    429.31559    434.45501   -257.10073   -832.62589   -707.87584   -3414.4322 
 2407000    241.88994     -3872.73   -3458.1389     -3872.73            0    2475.5487    17.579293    20.706085    21.446696    7806.5618    1481.8765    3797.7835    2146.9861    810.06925   -1107.2169    70.240416    -3176.296 
 2408000    260.24686   -3900.5182    -3454.464   -3900.5182            0    3069.4106    17.615295    20.748491    21.490619    7854.6236    3316.3663    3468.9436    2422.9219    515.62038    155.71726    424.99974    -3102.858 
 2409000      264.883   -3895.3799   -3441.3795   -3895.3799            0    4953.9582     17.51443    20.629685    21.367564    7720.4676     5919.437    4747.1004    4195.3373   -1238.6937   -855.64846    639.17623   -2883.5881 
 2410000    266.87854   -3873.2796   -3415.8589   -3873.2796            0    1447.5881    17.638222    20.775495    21.518589    7885.3318    2295.8669    1187.8555    859.04183   -1047.8941    797.25667   -1242.7925    -3249.387 
 2411000    256.39731   -3881.1652    -3441.709   -3881.1652            0    2888.0387     17.58263    20.710015    21.450767    7811.0079    2707.7655    4462.7452    1493.6052   -971.54002    446.33415     -346.769   -3112.7165 
 2412000    246.31459   -3866.2149   -3444.0401   -3866.2149            0    2034.2355    17.584274    20.711952    21.452773    7813.1993    1766.4477    2857.8782    1478.3807   -578.12821     298.0387   -506.21494   -3212.2441 
 2413000    256.19608   -3854.8825   -3415.7712   -3854.8825            0    2447.8816    17.537448    20.656798    21.395646    7750.9479    2509.8994    1562.6255    3271.1199    18.342306   -791.10593    509.06784   -3139.0636 
 2414000    250.94679   -3860.3585   -3430.2443   -3860.3585            0    3102.8154    17.603038    20.734053    21.475665    7838.2378     4082.804    2413.9062    2811.7362    74.167898   -443.96199    -761.7499   -3075.5532 
 2415000    252.04687   -3878.5423   -3446.5426   -3878.5423            0    2369.0664    17.634989    20.771688    21.514646    7880.9974    3803.6376    1906.6597    1396.9019   -196.78692    1622.2419    1813.8677    -3174.251 
 2416000    264.11272   -3871.9322    -3419.252   -3871.9322            0    2794.1282    17.648267    20.787327    21.530844    7898.8121    2347.9239    2767.2406    3267.2202   -355.85824    -563.8927    946.03778   -3097.3794 
 2417000    244.98857   -3883.4379   -3463.5358   -3883.4379            0    2953.4906    17.620958    20.755161    21.497528    7862.2015    4742.6285     2640.963    1476.8804   -686.20814   -540.39239   -689.78699   -3124.8823 
 2418000    266.67949   -3867.6072   -3410.5277   -3867.6072            0    1549.0766    17.720191    20.872045    21.618592    7995.7795    800.61953    2345.2352     1501.375    929.50567   -297.46265    -1701.431   -3229.8895 
 2419000    269.70076   -3864.9122   -3402.6544   -3864.9122            0    1994.5245    17.660724       20.802    21.546042    7915.5504    1910.2221    3596.2055    477.14593    414.75569   -213.27684    2430.1494   -3172.4061 
 2420000    268.59937   -3872.2173   -3411.8472   -3872.2173            0    4009.1931    17.533344    20.651963    21.390638    7745.5065    3653.0742    4422.4322    3952.0729   -1035.6969    264.69039    1254.7191   -2958.9677 
 2421000    262.55298   -3896.3562   -3446.3494   -3896.3562            0    2235.4168    17.578104    20.704684    21.445245    7804.9774     1284.176    4834.1218    587.95281   -394.71664    117.77972    512.28121   -3191.8973 
 2422000    258.59215   -3910.5204   -3467.3023   -3910.5204            0    1948.6021    17.668821    20.811538    21.555921    7926.4427    3797.9791    938.56338    1109.2638   -1194.5846    37.728242     888.6093   -3242.0458 
 2423000     263.3178   -3910.4955   -3459.1778   -3910.4955            0    3283.2416     17.55287    20.674962     21.41446    7771.4129    1974.1219    3785.5071    4090.0959    172.63183   -66.327202   -8.4257823   -3087.0615 
 2424000    248.68534   -3877.3542    -3451.116   -3877.3542            0    2759.0123     17.61681    20.750276    21.492468    7856.6505     2369.389    2127.8171    3779.8309     371.0643   -1143.5442    1374.5514   -3134.9851 
 2425000     258.5555   -3881.6222   -3438.4669   -3881.6222            0     3081.979      17.6078    20.739663    21.481475    7844.6017    2592.5631    2911.7399    3741.6339    539.43989    476.86072   -625.45682   -3085.8717 
 2426000    263.64484    -3916.856   -3464.9778    -3916.856            0    2844.2921    17.632729    20.769025    21.511888    7877.9669    2278.0228    3546.3205    2708.5331   -888.45389    -5.501912   -1056.2331   -3138.1912 
 2427000    273.59421   -3909.5309   -3440.5997   -3909.5309            0    3154.4395    17.681915     20.82696    21.571895    7944.0775    2759.1547    4270.9723    2433.1916   -415.04191   -270.61691   -284.96595   -3075.1383 
 2428000    263.46091   -3901.2443   -3449.6813   -3901.2443            0    3507.2466    17.607829    20.739697     21.48151    7844.6398    3891.8921    4431.0603    2198.7874    50.352616    822.36637    -558.6861   -3048.4311 
 2429000    274.11987   -3931.8575   -3462.0254   -3931.8575            0     2407.481    17.634321    20.770901     21.51383    7880.1015    2655.8438    1849.8507    2716.7486    212.40087   -122.38512   -689.62066     -3185.35 
 2430000     251.6338   -3882.5341   -3451.2424   -3882.5341            0    282.81732    17.699632    20.847828    21.593509    7967.9808   -1193.3262    452.53524    1589.2429   -945.72261    1452.7595   -255.31457   -3418.3776 
 2431000    266.55221   -3863.9906   -3407.1292   -3863.9906            0    3109.9718    17.560576    20.684038    21.423861    7781.6524     3551.389    2356.1806    3422.3456   -597.51201   -305.93618   -451.36353   -3054.1865 
 2432000    274.04609    -3862.284   -3392.5784    -3862.284            0    3361.6427    17.629209     20.76488    21.507594    7873.2508    2557.3346    4354.1747    3173.4188   -461.38021    798.39441   -300.91687   -3006.5835 
 2433000    255.73423   -3898.6084   -3460.2887   -3898.6084            0    3887.0836    17.574488    20.700425    21.440834    7800.1621    3415.6964    3835.9419    4409.6126   -774.37377   -503.25909   -290.50651   -3018.1043 
 2434000    253.24689   -3886.4236   -3452.3671   -3886.4236            0    4712.3808    17.567032    20.691643    21.431738    7790.2387    3424.9785    4715.2749    5996.8891    699.85478    -954.1705   -782.46628    -2916.981 
 2435000    256.06055   -3842.3012   -3403.4222   -3842.3012            0    2311.0993    17.691865     20.83868    21.584034    7957.4962     3956.316    2566.6289    410.35291   -348.44538    2158.1361    -775.1203   -3135.2146 
 2436000    267.16016   -3865.9039   -3408.0006   -3865.9039            0    2647.5413     17.67491    20.818709    21.563348    7934.6392    2797.9642   -125.94608    5270.6059    2155.6615    -755.9029   -424.80742   -3101.6309 
 2437000    254.15475   -3877.5342   -3441.9217   -3877.5342            0    1927.7274    17.621039    20.755257    21.497627    7862.3095    3012.3059    1479.5775    1291.2988    -427.2434    529.32764   -411.27953   -3220.8813 
 2438000    262.14871   -3830.3951   -3381.0811   -3830.3951            0    3866.1599    17.622425    20.756889    21.499317    7864.1643    3578.7498    3119.7293    4900.0006   -2373.6806   -189.19928   -1629.6232   -2937.6683 
 2439000     255.7848   -3864.9908   -3426.5844   -3864.9908            0     2265.252    17.579825    20.706712    21.447345    7807.2706    3176.0672    721.19826    2898.4906   -230.19235   -1178.7346     652.4649   -3168.6605 
 2440000    272.94276   -3828.0192   -3360.2047   -3828.0192            0    2816.1397    17.560473    20.683917    21.423736    7781.5158    4276.1875    1383.8967    2788.3348   -572.53422   -926.16314    882.26432   -3040.6139 
 2441000    261.76289   -3861.7011   -3413.0484   -3861.7011            0     2568.689    17.583604    20.711163    21.451956    7812.3067    3649.0473    2951.6948    1105.3248    -1229.534    1318.2464   -688.51404   -3120.3862 
 2442000    255.10333   -3849.5186   -3412.2802   -3849.5186            0    1484.6305    17.776749    20.938663    21.687593    8072.5852    1485.1903    1802.5468    1166.1544    1428.3585   -538.75449   -806.03754   -3237.4941 
 2443000    273.37812   -3895.5583   -3426.9976   -3895.5583            0     3104.619    17.649698    20.789013     21.53259    7900.7336    3061.8687    2280.0863     3971.902    711.76173    1323.4375    109.89579   -3069.2706 
 2444000    272.43641   -3882.1123   -3415.1656   -3882.1123            0    2979.2593    17.623953    20.758689    21.501182    7866.2107    4560.9598    1847.7312    2529.0869   -549.78944    1544.5588     418.7442   -3073.3832 
 2445000    254.66401   -3890.1876   -3453.7022   -3890.1876            0    1941.5432    17.632263    20.768477     21.51132    7877.3432    2491.4379    1074.7732    2258.4185    614.38394    1206.6673    688.89591    -3230.652 
 2446000    260.39419   -3880.8907    -3434.584   -3880.8907            0    2376.8851    17.621079    20.755304    21.497676    7862.3635       1713.3     3175.756    2241.5995    682.95833   -1174.9844   -662.53631   -3162.0396 
 2447000    255.99854   -3856.0143   -3417.2416   -3856.0143            0    1777.9086    17.608206    20.740141     21.48197    7845.1438   -164.67084    4241.4314    1256.9651    514.79335   -50.389862    91.567324   -3213.8251 
 2448000     253.1656   -3880.3867   -3446.4696   -3880.3867            0    2943.0126    17.658564    20.799456    21.543407    7912.6467    2047.3216    2604.7793     4176.937   -546.73104   -2067.6911   -502.48508   -3106.8523 
 2449000    246.19338   -3844.8989   -3422.9319   -3844.8989            0    3034.7081    17.631686    20.767797    21.510615    7876.5691    4565.6733    2026.1065    2512.3446   -155.63615     516.7471   -299.50116   -3074.3299 
 2450000    254.32612   -3887.1944   -3451.2882   -3887.1944            0    3022.1731    17.610438     20.74277    21.484694    7848.1283    3584.6766     3805.892    1675.9508     70.06772     887.1548   -209.44493   -3105.3796 
 2451000     258.3073   -3875.2112   -3432.4814   -3875.2112            0    2070.3922    17.541735    20.661847    21.400876    7756.6326    3256.2636    593.18823    2361.7248   -726.49859   -189.07708    582.85521   -3198.2733 
 2452000    257.15111   -3862.1873   -3421.4391   -3862.1873            0    1567.6487    17.592855     20.72206    21.463242    7824.6437    1091.7449    1478.7676    2132.4336   -630.53457   -764.88658     -712.646   -3242.5478 
 2453000    256.29485   -3904.9255   -3465.6449   -3904.9255            0    2030.9273    17.582725    20.710128    21.450883    7811.1349    2439.6114    2780.6505    872.52006   -849.97641    1042.5642    703.03291    -3234.287 
 2454000     246.1368   -3875.8546   -3453.9846   -3875.8546            0    3681.2145    17.508657    20.622886    21.360521    7712.8365    1074.5773    6609.4582     3359.608    640.22112    -1.331289    422.07067   -3039.9075 
 2455000    243.70598   -3890.0718    -3472.368   -3890.0718            0    4098.2932    17.570739     20.69601    21.436261    7795.1719    4451.5437    4438.9653    3404.3707   -1011.0449   -432.60559    -420.5724   -3006.4553 
 2456000    255.87401    -3903.069   -3464.5097    -3903.069            0    2124.7878    17.620399    20.754503    21.496846    7861.4529    2796.1917     2360.615    1217.5566    402.14245   -554.62162   -140.59547   -3220.9002 
 2457000    246.98219   -3855.7242   -3432.4052   -3855.7242            0    2272.4724    17.557654    20.680598    21.420297    7777.7698      3386.32    1667.9454    1763.1517   -1009.1402    66.998642   -148.12974   -3174.6369 
 2458000    263.11336   -3873.5505   -3422.5832   -3873.5505            0    1127.3689    17.579838    20.706728    21.447362    7807.2885    1782.4714    1504.3321    95.303079    61.468369    1014.2872    598.51643   -3294.2195 
 2459000    259.66975   -3855.1526   -3410.0875   -3855.1526            0    2614.9275    17.583349    20.710862    21.451645    7811.9665    3928.8785     1838.905    2076.9989   -893.51028    974.35585     675.9336   -3112.1701 
 2460000    254.17713   -3824.4392   -3388.7883   -3824.4392            0     1952.088    17.635098    20.771816    21.514778    7881.1434    3408.5947   -1531.7527    3979.4218   -227.97516    1036.2333   -754.27648   -3164.4184 
 2461000    255.21956   -3868.7876     -3431.35   -3868.7876            0     2548.987    17.633713    20.770184    21.513088     7879.286     3128.852    1354.2258    3163.8832    175.19717   -188.71604   -46.917851   -3138.4426 
 2462000    268.58476   -3884.4716   -3424.1265   -3884.4716            0    2763.3249    17.626579    20.761782    21.504385    7869.7275    2689.0183    2935.0853    2665.8712   -1915.3461   -274.73125   -503.38134   -3106.9744 
 2463000    274.32339   -3891.7377   -3421.5568   -3891.7377            0    2511.3691    17.637709    20.774892    21.517964    7884.6445    1465.7874    2534.4051    3533.9148    830.94207   -1052.7116   -370.61897   -3132.7758 
 2464000     263.4422   -3901.5943   -3450.0634   -3901.5943            0    3731.9562    17.572655    20.698266    21.438598    7797.7219    4418.8381    4716.5116     2060.519   -13.759297   -1040.9218   -345.96886   -3025.6587 
 2465000    243.06026   -3919.9592   -3503.3622   -3919.9592            0    1411.2772    17.601989    20.732818    21.474385    7836.8368    2017.3338     2525.613   -309.11509    51.698163    164.56433    961.33804   -3342.0642 
 2466000    256.52967   -3903.6843   -3464.0012   -3903.6843            0    1798.4338    17.524792     20.64189    21.380205    7734.1789    1554.6314    1696.5975    2144.0725   -30.611438    151.28797    88.629038   -3261.1467 
 2467000    244.65728   -3884.9268   -3465.5926   -3884.9268            0     3281.653    17.476883     20.58546    21.321757    7670.9216    1467.3457     3959.983    4417.6304   -1585.3504   -55.407553     721.7799   -3098.4658 
 2468000    262.57143    -3864.995   -3414.9566    -3864.995            0    3499.8558    17.600062    20.730548    21.472035    7834.2639    4033.2145    1664.3612    4801.9917    187.88124    214.68453    403.26843   -3015.0816 
 2469000    268.62344   -3878.8532   -3418.4419   -3878.8532            0    2682.4961    17.593907    20.723298    21.464525    7826.0471    1951.3243    1915.5534    4180.6106    1082.8323    383.50072    242.86914   -3112.2755 
 2470000    249.11161   -3911.2316   -3484.2629   -3911.2316            0    3392.6615    17.562474    20.686274    21.426177    7784.1761    2618.0164    2870.0203    4689.9478   -461.00712   0.26911596   -290.77686   -3099.1136 
 2471000    266.29591   -3881.6792   -3425.2572   -3881.6792            0    2469.7245    17.541679    20.661781    21.400808     7756.559    1667.8432    2876.3445    2864.9858    337.48373     77.20891     677.6671   -3145.8783 
 2472000    247.21737   -3874.5993   -3450.8772   -3874.5993            0    3810.0876    17.564937    20.689176    21.429182    7787.4522    4291.6205    4525.6265    2613.0158   -2160.4562    663.41827   -994.30883   -3018.1579 
 2473000    248.74362   -3866.8124   -3440.4744   -3866.8124            0    2451.9691    17.642601    20.780654    21.523932    7891.2073    1998.2977    2103.7927    3253.8169    1252.2721   -154.56518   -355.52053   -3158.2891 
 2474000    259.73692   -3867.3995   -3422.2193   -3867.3995            0    3469.3395    17.566189    20.690651     21.43071    7789.1175    5479.9656    3208.6709    1719.3819   -794.31117    636.23285     1622.215   -3028.1153 
 2475000     254.8121   -3871.6978   -3434.9586   -3871.6978            0    3128.2881    17.595381    20.725035    21.466324    7828.0148    2553.9061    3295.3697    3535.5884    402.34114   -875.10198   -334.29899    -3077.822 
 2476000    254.93942   -3853.0621   -3416.1047   -3853.0621            0    2036.7294     17.68067    20.825494    21.570377    7942.4003    1568.3159     655.0595    3886.8129    847.33382   -369.67933      1980.57   -3180.1867 
 2477000    282.14026   -3839.8476   -3356.2688   -3839.8476            0    3317.7408    17.584918    20.712711    21.453559    7814.0583    3359.6548    4350.2176    2243.3499   -762.48915    995.98333   -1034.6229    -2978.179 
 2478000    273.61819    -3851.404   -3382.4318    -3851.404            0    3412.4581    17.671698    20.814926     21.55943    7930.3149    3447.2828    3892.5489    2897.5425    900.79418     -484.645    796.79184   -2987.7622 
 2479000    271.14571   -3858.6232   -3393.8887   -3858.6232            0    2321.6996     17.65352    20.793515    21.537254     7905.868    2123.7353    3176.9344     1664.429   -1017.6128    51.387076   -1115.4197   -3126.1991 
 2480000    264.81902     -3836.38   -3382.4893     -3836.38            0    1209.0026    17.595104    20.724709    21.465986    7827.6452    96.770497    1113.9595    2416.2778   -957.94984   -1511.8699      794.309   -3244.4718 
 2481000    264.87617   -3864.3731   -3410.3844   -3864.3731            0    2961.0092    17.645725    20.784334    21.527744    7895.4002    1072.8729    5304.1188    2506.0359    956.69659   -689.63535   -63.590067   -3069.4351 
 2482000    272.50774    -3896.295   -3429.2261    -3896.295            0    4817.9846    17.638578    20.775915    21.519024      7885.81    6000.2648    4201.9197    4251.7694    295.50449     973.1687    86.873012   -2875.1268 
 2483000    248.34605   -3875.3933   -3449.7367   -3875.3933            0     2042.015    17.768752    20.929243    21.677836    8061.6955    71.693697    3496.8765    2557.4747   -443.21385   0.31374532   -241.23416   -3209.6538 
 2484000    268.19473   -3863.4991   -3403.8225   -3863.4991            0    2711.8064    17.599883    20.730337    21.471816    7834.0247    2170.2982     2198.151    3766.9701   -426.78261   -1537.5021    466.12477   -3093.9953 
 2485000    263.80992   -3912.4575   -3460.2964   -3912.4575            0    2658.0104    17.618644    20.752435    21.494704    7859.1038    3026.4815    1856.1357    3091.4141   -110.24949    627.09909    -647.2399   -3155.6433 
 2486000    270.82648    -3885.471   -3421.2837    -3885.471            0    2900.7591    17.623304    20.757925     21.50039     7865.342     1494.147    3501.4114    3706.7191   -16.754005   -684.77478   -600.43339   -3088.5436 
 2487000    266.89814   -3883.9488   -3426.4945   -3883.9488            0     2903.869     17.60769    20.739533     21.48134     7844.454    1878.0434    4573.1228    2260.4407    2221.6862     -499.203   -1264.7022   -3094.2823 
 2488000    249.51286   -3856.9037   -3429.2472   -3856.9037            0    2917.9706    17.587112    20.715295    21.456236    7816.9835    2632.9463    4661.3305    1459.6348    -312.0898    261.39091   -307.55478   -3096.5907 
 2489000    261.22487   -3889.1256   -3441.3951   -3889.1256            0    2674.4406    17.519064    20.635143    21.373217    7726.5969    3836.4071    2721.3208    1465.5939    119.93846   -399.87814    1003.0258   -3140.0271 
 2490000    256.16219   -3861.4796   -3422.4264   -3861.4796            0    1806.5998    17.745536    20.901897    21.649512    8030.1367    2000.9334    518.86945    2899.9965    361.34191    -152.3343    156.50284   -3210.8531 
 2491000    248.65368   -3887.3301   -3461.1462   -3887.3301            0    1823.3995    17.657109    20.797742    21.541631    7910.6897    1777.3319    2775.1923    917.67412   -302.24999     732.6733    215.84213   -3250.7819 
 2492000    262.04367   -3868.3147   -3419.1808   -3868.3147            0    4901.1482    17.566548    20.691073    21.431147    7789.5947    4633.4783    5112.0383     4957.928    -155.6764     301.4293    96.910523   -2862.3945 
 2493000    264.63406   -3851.4757    -3397.902   -3851.4757            0    3757.8378     17.56423    20.688343     21.42832     7786.512    2653.8755    4681.5103    3938.1276    160.43259    -478.2351   -925.15099   -2971.1683 
 2494000    249.40312   -3842.5902   -3415.1218   -3842.5902            0    3842.2366    17.560137    20.683522    21.423326    7781.0692    5590.5542    860.22193    5075.9337    865.78365   -825.33884   -1042.7023    -2979.109 
 2495000    271.22806   -3865.9933   -3401.1177   -3865.9933            0    2647.4808    17.614733    20.747829    21.489934     7853.872    2755.1151    3111.2458    2076.0814   -373.95407    -531.9459   -107.69788   -3097.8735 
 2496000    257.26016   -3888.9585   -3448.0234   -3888.9585            0    3133.0193    17.574876    20.700883    21.441308    7800.6792    2147.8886    2807.4878    4443.6814   -1897.0183   -253.84207    424.12022   -3091.5958 
 2497000    252.54004   -3899.1595   -3466.3145   -3899.1595            0    3041.3138    17.661859    20.803336    21.547426    7917.0757    2624.5215    2723.4161    3776.0037   -980.46093   -1122.9268    201.67762   -3115.1571 
 2498000    264.92823   -3850.0182   -3395.9403   -3850.0182            0    3382.7575    17.540783    20.660725    21.399714    7755.3694    4199.0331    2388.7352    3560.5043   -197.35893   -557.38791   -626.83926   -3013.3365 
 2499000    249.31847   -3885.3709   -3458.0476   -3885.3709            0     4264.637     17.49591    20.607871     21.34497    7696.0029    3888.3222     3643.244    5262.3448   -149.81203    1563.7874   -708.93326    -2979.392 
 2500000    253.61662   -3831.1379   -3396.4477   -3831.1379            0     2018.376    17.607245    20.739009    21.480797    7843.8592    1055.8789    2361.1509    2638.0983   -478.68946    1060.6262   -1319.3543   -3165.5563 
Loop time of 354.155 on 64 procs for 250000 steps with 864 atoms

Performance: 121.980 ns/day, 0.197 hours/ns, 705.905 timesteps/s
194.9% CPU use with 32 MPI tasks x 2 OpenMP threads

MPI task timing breakdown:
Section |  min time  |  avg time  |  max time  |%varavg| %total
---------------------------------------------------------------
Pair    | 23.601     | 29.626     | 34.79      |  47.8 |  8.37
Bond    | 0.85902    | 1.1059     | 1.3238     |  10.5 |  0.31
Kspace  | 160.68     | 168.78     | 177.31     |  26.2 | 47.66
Neigh   | 3.2365     | 3.728      | 4.0127     |  12.2 |  1.05
Comm    | 68.461     | 72.039     | 76.73      |  26.6 | 20.34
Output  | 0.58608    | 0.58637    | 0.58805    |   0.0 |  0.17
Modify  | 66.286     | 67.96      | 70.337     |  10.4 | 19.19
Other   |            | 10.33      |            |       |  2.92

Nlocal:        27.0000 ave          32 max          20 min
Histogram: 2 1 1 1 6 9 1 1 6 4
Nghost:        2417.31 ave        2481 max        2377 min
Histogram: 5 3 5 4 6 3 3 1 1 1
Neighs:        7881.44 ave       10556 max        5720 min
Histogram: 2 4 1 2 10 6 4 2 0 1

Total # of neighbors = 252206
Ave neighs/atom = 291.90509
Ave special neighs/atom = 2.0000000
Neighbor list builds = 13756
Dangerous builds = 1

unfix		3
unfix		2
unfix		1

write_data	data.final.${pid}
write_data	data.final.1
System init for write_data ...
PPPM initialization ...
  extracting TIP4P info from pair style
  using 12-bit tables for long-range coulomb (../kspace.cpp:340)
  G vector (1/distance) = 0.37280607
  grid = 24 24 25
  stencil order = 5
  estimated absolute RMS force accuracy = 0.0032372095
  estimated relative force accuracy = 9.7487601e-06
  using double precision FFTW3
  3d grid and FFT values/proc = 3822 576
Last active /omp style is kspace_style pppm/tip4p/omp
WARNING: Not all mixed pair coeffs generated from mixing. Use write_data with 'pair ij' option to store all pair coeffs. (../write_data.cpp:312)

write_restart   restart.lmp.${pid}
write_restart   restart.lmp.1
System init for write_restart ...
PPPM initialization ...
  extracting TIP4P info from pair style
  using 12-bit tables for long-range coulomb (../kspace.cpp:340)
  G vector (1/distance) = 0.37280607
  grid = 24 24 25
  stencil order = 5
  estimated absolute RMS force accuracy = 0.0032372095
  estimated relative force accuracy = 9.7487601e-06
  using double precision FFTW3
  3d grid and FFT values/proc = 3822 576
Last active /omp style is kspace_style pppm/tip4p/omp
Total wall time: 0:05:54
