LAMMPS (30 Jul 2021)
  using 1 OpenMP thread(s) per MPI task
package omp 0
using multi-threaded neighbor list subroutines
echo both

include		in.partitions
variable        pid world 0
include		in.temp
variable        temperature equal 258.89
variable	tempDamp equal 100.0
include		in.pressure
variable        pressure equal 7125.0
variable        pressureDamp equal 1000.0 # This is 1 ps
include		in.seed
variable        seed world 745823

units		real
atom_style	full
read_restart	restart.lmp.${pid}
read_restart	restart.lmp.0
Reading restart file ...
  restart file = 30 Jul 2021, LAMMPS = 30 Jul 2021
  restoring atom style full from restart
  orthogonal box = (0.50855570 1.6905427 0.62043677) to (17.699017 21.938635 21.592759)
  4 by 4 by 4 MPI processor grid
  restoring pair style lj/cut/tip4p/long/omp from restart
  restoring bond style harmonic/omp from restart
  restoring angle style harmonic/omp from restart
  864 atoms
  576 bonds
  288 angles
Finding 1-2 1-3 1-4 neighbors ...
  special bond factors lj:    0        0        0       
  special bond factors coul:  0        0        0       
     2 = max # of 1-2 neighbors
     1 = max # of 1-3 neighbors
     1 = max # of 1-4 neighbors
     2 = max # of special neighbors
  special bonds CPU = 0.068 seconds
  read_restart CPU = 0.205 seconds
include 	in.setup
variable	out_freq equal 1000
variable	out_freq2 equal 10000
variable	out_freq3 equal 1000

timestep	2.0

neigh_modify    delay 7 every 1

include		in.tip4p
# This is TIP4P/Ice

# create groups ###
group ox type 2
288 atoms in group ox
group hy type 1
576 atoms in group hy

# set charges - beside manually ###
set group ox charge -1.1794
Setting atom values ...
  288 settings made for charge
set group hy charge 0.5897
Setting atom values ...
  576 settings made for charge

# ### TIP3P Potential Parameters ###
pair_style lj/cut/tip4p/long/omp 2 1 1 1 0.1577 8.5
pair_coeff 1 1*2 0.000 0.000
pair_coeff 2 2 0.21084 3.1668
bond_style  harmonic
bond_coeff  1 450 0.9572
angle_style harmonic
angle_coeff 1 55 104.52
kspace_style pppm/tip4p/omp 1.0e-5
pair_modify tail yes

thermo          ${out_freq}
thermo          1000
thermo_style    custom step temp pe etotal epair emol press lx ly lz vol pxx pyy pzz pxy pxz pyz enthalpy

restart 	${out_freq3} restart.lmp.${pid} restart2.lmp.${pid}
restart 	1000 restart.lmp.${pid} restart2.lmp.${pid}
restart 	1000 restart.lmp.0 restart2.lmp.${pid}
restart 	1000 restart.lmp.0 restart2.lmp.0


include         in.dump
dump            myDump all atom ${out_freq2} dump.water.${pid}
dump            myDump all atom 10000 dump.water.${pid}
dump            myDump all atom 10000 dump.water.0
dump            myDump2 all dcd ${out_freq2} dump.dcd
dump            myDump2 all dcd 10000 dump.dcd
dump_modify     myDump append yes
dump_modify     myDump2 append yes


variable natoms 	equal  "count(all)"                        # NUMBER ATOMS
variable H      	equal  "enthalpy/v_natoms"                 # ENTHALPY-per-atom
variable Vol      	equal  "vol/v_natoms"                 # volume-per-atom
fix AVG all 		ave/time ${out_freq} 1 ${out_freq} v_Vol v_H file vol_enthalpy.dat
fix AVG all 		ave/time 1000 1 ${out_freq} v_Vol v_H file vol_enthalpy.dat
fix AVG all 		ave/time 1000 1 1000 v_Vol v_H file vol_enthalpy.dat


timer           timeout 23:50:00 every 1000
New timer settings: style=normal  mode=nosync  timeout=23:50:00

fix 		1 all shake 1e-6 200 0 b 1 a 1
       0 = # of size 2 clusters
       0 = # of size 3 clusters
       0 = # of size 4 clusters
     288 = # of frozen angles
  find clusters CPU = 0.002 seconds
fix             2 all nph iso ${pressure} ${pressure} ${pressureDamp}
fix             2 all nph iso 7125 ${pressure} ${pressureDamp}
fix             2 all nph iso 7125 7125 ${pressureDamp}
fix             2 all nph iso 7125 7125 1000
fix             3 all temp/csvr ${temperature} ${temperature} ${tempDamp} ${seed}
fix             3 all temp/csvr 258.89 ${temperature} ${tempDamp} ${seed}
fix             3 all temp/csvr 258.89 258.89 ${tempDamp} ${seed}
fix             3 all temp/csvr 258.89 258.89 100 ${seed}
fix             3 all temp/csvr 258.89 258.89 100 745823

run             250000
PPPM initialization ...
  extracting TIP4P info from pair style
  using 12-bit tables for long-range coulomb (../kspace.cpp:340)
  G vector (1/distance) = 0.37478147
  grid = 24 24 25
  stencil order = 5
  estimated absolute RMS force accuracy = 0.0030147219
  estimated relative force accuracy = 9.0787455e-06
  using double precision FFTW3
  3d grid and FFT values/proc = 2730 288
Last active /omp style is kspace_style pppm/tip4p/omp
Neighbor list info ...
  update every 1 steps, delay 7 steps, check yes
  max neighbors/atom: 2000, page size: 100000
  master list distance cutoff = 10.8154
  ghost atom cutoff = 10.8154
  binsize = 5.4077, bins = 4 4 4
  1 neighbor lists, perpetual/occasional/extra = 1 0 0
  (1) pair lj/cut/tip4p/long/omp, perpetual
      attributes: half, newton on, omp
      pair build: half/bin/newton/omp
      stencil: half/bin/3d
      bin: standard
Per MPI rank memory allocation (min/avg/max) = 9.241 | 9.244 | 9.250 Mbytes
Step Temp PotEng TotEng E_pair E_mol Press Lx Ly Lz Volume Pxx Pyy Pzz Pxy Pxz Pyz Enthalpy 
12500000    263.02449   -3872.0244   -3421.2094   -3872.0244            0    3838.6702    17.190461    20.248092    20.972322     7299.921    2801.2972    5842.7416    2871.9718   -808.97355   -546.08375    1195.8301   -3012.5374 
12501000    268.16835   -3894.2307   -3434.5993   -3894.2307            0    5337.5725    17.126101    20.172284    20.893803    7218.2356    4584.8384    5487.2452    5940.6339    62.563981   -857.68914    731.86331     -2872.71 
12502000    259.20219   -3874.5904   -3430.3267   -3874.5904            0    6589.6293    17.122537    20.168087    20.889456    7213.7313    6918.3682    6684.4999    6166.0199   -319.56961   -1133.4985   -43.133222   -2737.0656 
12503000    264.58834   -3879.1751   -3425.6798   -3879.1751            0    6004.5052     17.09629    20.137171    20.857433    7180.6075    5044.2088    5824.6853    7144.6214   -1107.4061   -658.35009    -549.0505   -2796.8772 
12504000    246.06639   -3892.7986   -3471.0492   -3892.7986            0    6648.9764     17.04339    20.074862    20.792896    7114.1586    7679.5551    5109.0244    7158.3498   -447.87913   -251.12793    1961.2933   -2781.1999 
12505000    268.15671   -3901.0246   -3441.4131   -3901.0246            0    6844.3612    17.106983    20.149767     20.87048    7194.0903    5977.8134    6848.7874    7706.4829   -667.75186    510.04617   -474.65316   -2723.3135 
12506000    254.03086   -3863.9961   -3428.5959   -3863.9961            0    6613.9723    17.137246    20.185412      20.9074    7232.3375    8747.5364    5987.7097    5106.6707     70.03376    895.56951   -375.33811   -2730.9791 
12507000    252.91655   -3864.6024   -3431.1121   -3864.6024            0    8032.7011    17.082037    20.120383    20.840045    7162.6636    8899.5361    8143.8843     7054.683    94.938168    310.54791   -188.90824   -2592.0153 
12508000    257.80262   -3860.9371   -3419.0723   -3860.9371            0    7821.9323    17.032219    20.061704    20.779267    7100.1786    6453.0152    8587.3372    8425.4446   -33.127568   -1872.9833   -1291.2455   -2609.1204 
12509000    261.91868   -3854.5763   -3405.6566   -3854.5763            0    8463.7217    17.037121    20.067478    20.785248    7106.3112    7164.5309    8912.9357    9313.6986   -576.43632    878.91788   -691.77343   -2528.4913 
12510000    261.22209    -3880.707   -3432.9813    -3880.707            0    5576.7101    17.116918    20.161468      20.8826    7206.6309    6037.4302     6657.491     4035.209   -1237.6858   -47.114141    -1421.745   -2846.8617 
12511000    264.19413   -3902.0103   -3449.1906   -3902.0103            0    6970.6733    17.188545    20.245836    20.969985    7297.4807    4747.4689    8336.1317    7828.4194   -1191.3634    146.38192   -139.66262   -2707.3279 
12512000    258.03371   -3838.4618   -3396.2009   -3838.4618            0    8456.7317      17.0714    20.107854    20.827068    7149.2915    7915.9972     10775.84    6678.3575   -48.715753    975.87899    419.37106   -2514.4591 
12513000     263.8038   -3858.0415   -3405.8908   -3858.0415            0    8278.8286    17.070073    20.106292     20.82545    7147.6248    9010.1171    6981.6614    8844.7075   -328.91242    196.81568   -486.70276   -2542.8993 
12514000    249.79549   -3868.5547   -3440.4138   -3868.5547            0    7617.1018    17.057478    20.091456    20.810083    7131.8143    6762.0392    8599.6091    7489.6569    1074.5284   -962.04107    1026.2515   -2648.1575 
12515000    258.83212   -3874.4447   -3430.8153   -3874.4447            0    7432.0518    17.122994    20.168626    20.890013    7214.3088    6530.0985    7350.6054    8415.4514    2891.8172    384.22649   -209.52306   -2648.8646 
12516000    263.91727   -3875.2211   -3422.8759   -3875.2211            0    8911.0228    16.963609    19.980891    20.695564    7014.7207    8726.1962    8623.6703    9383.2019    174.10315    350.89804   -118.81009   -2511.2559 
12517000    253.58542   -3866.7442   -3432.1075   -3866.7442            0    5351.6559    17.090973    20.130908    20.850947    7173.9099    5092.4233    4453.4275    6509.1169   -1045.8659    -1177.382    1398.0977   -2872.1952 
12518000    249.21147   -3907.0282   -3479.8883   -3907.0282            0    6607.0842    17.073369    20.110174    20.829471    7151.7658     5876.218     6987.022    6958.0125    174.72095   -2090.0023   -493.09903   -2790.7617 
12519000    250.99633   -3869.5738   -3439.3746   -3869.5738            0      8030.68    17.026971    20.055523    20.772865    7093.6178    8859.2172    7374.9486    7857.8743    366.58011    569.27333    576.07066   -2608.5756 
12520000      254.226   -3902.6732   -3466.9386   -3902.6732            0    6618.0086    17.109785    20.153067    20.873898    7197.6259    4951.3685    6625.0727    8277.5846    1806.0015   -188.46322   -171.90915   -2772.2463 
12521000    249.21063   -3895.5929   -3468.4544   -3895.5929            0    7789.6564    17.050757    20.083539    20.801883    7123.3874    8378.8359    7553.2919    7436.8415    560.94488    2488.4449    438.56398    -2659.208 
12522000    260.30429   -3870.1807   -3424.0281   -3870.1807            0    6807.3375    17.077609    20.115167    20.834643    7157.0946    7526.8853    6035.8186    6859.3085    388.80619    920.19324    173.32094   -2713.4858 
12523000    245.58291   -3888.4542   -3467.5335   -3888.4542            0    7710.5745    17.069664    20.105809     20.82495    7147.1104    7258.6592    6857.2416    9015.8227    274.78854   -272.40711    1093.4523   -2663.8351 
12524000     272.2775   -3847.7729   -3381.0986   -3847.7729            0    6288.1312    17.121604    20.166988    20.888317    7212.5518    6232.7488    6695.9185    5935.7264    186.18931    1678.5213    190.20476   -2719.6647 
12525000    269.10219   -3881.7143   -3420.4823   -3881.7143            0    8491.7452    17.031816     20.06123    20.778776    7099.6752    9175.0767    8306.6855    7993.4735   -959.47225   -1242.1823    107.67661   -2541.2345 
12526000    272.55942   -3866.2852   -3399.1277   -3866.2852            0     7640.849    17.090303    20.130119    20.850129    7173.0663    7534.5151    7006.7097    8381.3222   -735.39229    323.47226   -1435.4941   -2599.8046 
12527000    254.99064   -3839.8424   -3402.7972   -3839.8424            0    7316.4639    17.078097    20.115742    20.835238    7157.7086    5959.6952    6656.2688    9333.4277   -181.64772     1445.457    314.66776   -2639.0474 
12528000    251.73362   -3912.0558    -3480.593   -3912.0558            0    7604.9952    17.137952    20.186244    20.908262    7233.2315    6944.5289    8144.2934    7726.1634    259.52313   -71.764631   -2159.0237   -2678.3477 
12529000    255.90262   -3904.4111   -3465.8028   -3904.4111            0    6779.8823    17.080806    20.118933    20.838543    7161.1149    7616.4692    5790.3009    6932.8768    -2044.305    1380.8239    972.86033   -2757.7287 
12530000    262.03759   -3862.1894   -3413.0659   -3862.1894            0    6064.5429    17.162725    20.215424    20.938485    7264.6443    7808.4416    5669.8131     4715.374   -339.30792   -156.79102    608.28582   -2770.5434 
12531000    264.21185   -3852.9119   -3400.0618   -3852.9119            0    8039.7353    17.070923    20.107292    20.826486    7148.6917    8565.3306    7228.3737    8325.5016    1245.2085   -354.59092    660.31025   -2561.8685 
12532000     255.5702   -3859.5126    -3421.474   -3859.5126            0    8041.6407    17.061396    20.096071    20.814863    7136.7299    6826.3503    8462.4815    8836.0905    -1741.339    1610.5917    220.86209   -2584.4849 
12533000    260.47711   -3856.9295   -3410.4807   -3856.9295            0    7196.3679    17.115495    20.159793    20.880864    7204.8346    6359.0737     6918.858    8311.1718    641.28355   -1816.0839    -909.9858   -2654.3214 
12534000    247.97313   -3888.2925    -3463.275   -3888.2925            0    6467.7436    17.051541    20.084463    20.802841    7124.3708    5567.3292    7299.3214    6536.5804   -688.61011    833.55908    36.588368   -2791.2659 
12535000    239.57324   -3879.6656   -3469.0452   -3879.6656            0    7799.6588    17.012658    20.038664    20.755403    7075.7442    8008.0347    9606.1544    5784.7875     1074.777   -610.46948   -669.22246   -2664.1792 
12536000    249.88642   -3872.3975   -3444.1008   -3872.3975            0    7540.7003    17.012766    20.038791    20.755535    7075.8789    7731.9774    7416.7576    7473.3659    42.692363   -919.25994   -608.41027   -2665.9425 
12537000     264.3833   -3877.3183   -3424.1744   -3877.3183            0    5765.9286    17.085567    20.124541    20.844351    7167.1048    5527.1422     6769.861    5000.7826     108.0555     -423.917   -1129.9328   -2821.4915 
12538000    265.42409   -3879.3685   -3424.4407   -3879.3685            0    7883.3294    17.008492    20.033757     20.75032    7070.5469    6140.0038    10068.693    7441.2916   -449.77438   -93.039971   -775.06214    -2611.538 
12539000    256.53686   -3874.9782   -3435.2829   -3874.9782            0    5270.6683    17.140686    20.189464    20.911597    7236.6933    6598.3751    5823.9924    3389.6374    1151.6022   -686.63775       524.73   -2879.0178 
12540000    252.78821   -3886.5558   -3453.2855   -3886.5558            0    7251.9159    17.098397    20.139653    20.860004    7183.2627    6513.2761    8030.2621    7212.2096   -1622.5221   -20.551646    814.83465    -2693.571 
12541000    245.65526    -3848.748   -3427.7032    -3848.748            0    8395.8177    17.013979     20.04022    20.757015    7077.3924     9886.834    7239.9473    8060.6718   -1072.5507    501.03841   -1174.3721   -2561.1163 
12542000    261.32723   -3888.3055   -3440.3996   -3888.3055            0    8638.1527    17.003183    20.027503    20.743843     7063.928     6426.969    10902.116    8585.3731    1247.3807   -588.49155   -1449.6686   -2550.4959 
12543000    257.50909   -3867.9291   -3426.5674   -3867.9291            0    6590.5959    17.061688    20.096415     20.81522    7137.0968    5811.2707    5851.0725    8109.4444    628.39607   -1298.6885   -659.42279   -2740.5705 
12544000    252.44565   -3860.9255   -3428.2423   -3860.9255            0    10073.337    17.017272    20.044098    20.761032    7081.5023    8346.8376    10926.807    10946.366    1991.4329    75.913723    283.13257   -2387.9038 
12545000       243.64   -3896.2855   -3478.6948   -3896.2855            0    7403.1756    17.089033    20.128624    20.848581    7171.4681    7494.3087    6680.9453    8034.2727     917.7713   -465.62369    518.52536   -2704.4078 
12546000    278.39206   -3896.5185    -3419.364   -3896.5185            0    6119.1068    17.115432    20.159718    20.880787    7204.7544    8048.5235    5476.6576    4832.1394    331.90139    273.31966   -1060.9664   -2776.4053 
12547000    257.53761   -3887.4086    -3445.998   -3887.4086            0    9493.6576    17.064605     20.09985    20.818778    7140.7576    10175.595    8043.1701    10262.208    2276.6807   -799.98057    632.68596   -2457.3226 
12548000    253.95258   -3857.5846   -3422.3186   -3857.5846            0    8315.3799    17.071766    20.108286    20.827515    7149.7518    8335.2798    8847.5437    7763.3163    -1065.495   -541.85041    1227.6465    -2555.259 
12549000    269.75432   -3890.5671   -3428.2174   -3890.5671            0     6519.409    17.047803     20.08006     20.79828    7119.6858    6398.5577    6403.1278    6756.5415   -135.68496    762.87794    256.21454   -2751.2856 
12550000     250.8234   -3870.6615   -3440.7587   -3870.6615            0    6731.9316    17.101829    20.143695    20.864191    7187.5891    6868.1702     6205.323    7122.3016     361.3344   -327.08815   -1417.5712   -2735.0933 
12551000    268.78782   -3870.6682   -3409.9751   -3870.6682            0    6970.4137     17.04779    20.080045    20.798264    7119.6703     7177.898    4242.7546    9490.5884    1404.0881    527.00032    560.16779   -2686.2155 
12552000    260.66934   -3890.2761   -3443.4978   -3890.2761            0    9071.7701    17.048778    20.081209     20.79947    7120.9082    10105.528    8124.8837    8984.8989   -593.61657   -628.39707      1740.24   -2501.3841 
12553000    250.45458   -3899.4275   -3470.1569   -3899.4275            0    8986.5032    17.117289    20.161905    20.883052    7207.0997    9586.9362    7963.6666    9408.9069   -1229.3082   -298.80215    731.86394   -2525.6022 
12554000    263.09696   -3869.6217   -3418.6825   -3869.6217            0    7104.4389    17.072966    20.109699    20.828979    7151.2595    8257.1975    5881.9866    7174.1326   -1096.5181    972.89672    993.12661   -2677.7337 
12555000    251.90818   -3859.7385   -3427.9765   -3859.7385            0    8630.5725    17.016289    20.042941    20.759833    7080.2755    8351.8831     8383.722    9156.1123   -74.510631   -1709.9066   -455.69968    -2536.796 
12556000    272.89402    -3873.421     -3405.69    -3873.421            0    8523.1409    17.042433    20.073735    20.791728    7112.9598    6627.0707    9148.6979    9793.6542    -413.3871    1390.5834    418.24066   -2521.5401 
12557000    253.36881   -3866.2882   -3432.0227   -3866.2882            0    8081.8636    17.012539    20.038524    20.755258    7075.5953     9198.765    9670.2837    5376.5422    1037.2348    1911.2513   -197.54491   -2598.0528 
12558000    264.70643   -3883.9097   -3430.2119   -3883.9097            0    6277.2835    17.045745    20.077636    20.795769    7117.1077    7578.8605    5001.5626    6251.4274   -60.169557   -273.21769    367.37749   -2778.6568 
12559000     274.6813   -3893.4194    -3422.625   -3893.4194            0    8818.6089    17.024265    20.052335    20.769563    7090.2358    9920.2987    7715.5438    8819.9844    70.985738   -311.13363   -130.88752   -2510.7472 
12560000    244.37209   -3889.6196   -3470.7742   -3889.6196            0    7465.3415    17.091116    20.131077    20.851122    7174.0907    8189.5919    7825.9307    6380.5018   -302.11263    1579.3669   -564.58311   -2689.6997 
12561000    250.16735   -3864.1386   -3435.3603   -3864.1386            0     7821.112     17.04738    20.079562    20.797764    7119.1565     5747.647    9576.2967    8139.3925   -1133.2026    1601.5383   -564.91817   -2623.3287 
12562000    249.61073   -3835.8686   -3408.0444   -3835.8686            0     6440.737    17.146031     20.19576    20.918118    7243.4659    7302.4271    7026.4253    4993.3585   -163.21444    191.52938    -572.3894   -2727.6545 
12563000    268.84277   -3855.7642   -3394.9769   -3855.7642            0    7909.6593    17.092632    20.132863    20.852971    7175.9999    7165.9246    8638.0829    7924.9703    156.42817    1354.2911    253.57658   -2567.1946 
12564000    256.68855   -3874.8694    -3434.914   -3874.8694            0    6692.4416     17.12203    20.167489    20.888836    7213.0894    6103.3393    7294.7672    6679.2182    11.983457   -127.72247    324.91684   -2730.8992 
12565000    245.85894   -3874.0072   -3452.6134   -3874.0072            0    5763.6705    17.108208    20.151209    20.871973     7195.635     6268.773    7001.3652    4020.8734      24.9452     666.0719   -1997.7531   -2847.7683 
12566000    262.90095   -3852.2993    -3401.696   -3852.2993            0    7276.0937    17.169056     20.22288    20.946208    7272.6857     6582.457    6934.7495    8311.0747   -1078.7409   -9.7349855    324.71079   -2629.9596 
12567000    246.63023   -3903.0195   -3480.3037   -3903.0195            0    5469.2747    17.153613     20.20469    20.927368    7253.0788    5982.1632    5263.0899    5162.5709   -849.44929    2133.2573    2187.3632   -2901.7709 
12568000     259.9078   -3884.5984   -3439.1253   -3884.5984            0     5924.142    17.141247    20.190125    20.912282    7237.4046    5287.9311    5118.0269    7366.4678   -818.90069   -771.12927    930.25799   -2813.8314 
12569000    251.78014   -3891.2838   -3459.7412   -3891.2838            0    4983.2667    17.116989    20.161552    20.882687    7206.7212    4115.0283    4682.2776    6152.4941    1130.6354   -911.03906     516.5266   -2935.9867 
12570000    261.15098   -3871.4409    -3423.837   -3871.4409            0    5594.1198     17.17951    20.235194    20.958963    7285.9795    7064.1561    4139.0388    5579.1646    882.39073   -97.412496    81.137444   -2829.4141 
12571000    242.82452   -3836.0155   -3419.8226   -3836.0155            0    6225.2653    17.031569    20.060938    20.778474    7099.3656    6743.5312    4942.3901    6989.8747    472.76829   -506.82717    779.57811   -2775.2775 
12572000    292.60634   -3850.9743    -3349.457   -3850.9743            0    8390.6517    17.084406    20.123174    20.842936    7165.6448    8471.0892    8790.6094    7910.2566   -1308.5369   -356.29878   -649.49607   -2472.6039 
12573000    249.95659   -3908.9609   -3480.5438   -3908.9609            0    5226.7683    17.182342     20.23853    20.962418    7289.5833     5752.837    7282.8125    2644.6553   -672.03066   -537.47123    321.81345   -2924.8804 
12574000    258.90645   -3866.6564   -3422.8996   -3866.6564            0    6171.4983    17.082927    20.121432    20.841131    7163.7835    6407.9347    6462.8546    5643.7055    1049.1095    413.25279   -604.38058   -2778.1234 
12575000    264.90585   -3887.4569   -3433.4173   -3887.4569            0    7740.9382    17.061702    20.096432    20.815237    7137.1146    8927.9473    8783.3416    5511.5256    1480.2938     918.5192    1027.8189   -2627.6825 
12576000    262.15106   -3881.5771   -3432.2592   -3881.5771            0    5701.3232    17.082806     20.12129    20.840984    7163.6317    5131.6511    4199.9636    7772.3548    3638.8146    574.40005    583.98332   -2836.6179 
12577000    255.20533   -3884.9707   -3447.5575   -3884.9707            0    8427.7586    17.013467    20.039617     20.75639    7076.7532    7541.6461    7960.7881    9780.8416   -1023.3877    -292.3621   -890.23348   -2577.7522 
12578000    264.95337   -3822.5422   -3368.4211   -3822.5422            0    10088.375    16.986805    20.008213    20.723863    7043.5356    11566.651    9306.6934    9391.7797   -954.83815    814.77275   -36.406923   -2332.1156 
12579000    256.37445     -3871.29   -3431.8729     -3871.29            0    8311.5357    17.073857    20.110748    20.830066    7152.3787    7620.4157    8597.8798    8716.3116    691.41547   -3.4844286    676.72648   -2564.8957 
12580000    275.74389   -3864.9073   -3392.2917   -3864.9073            0    4953.8872    17.131878    20.179089    20.900851    7225.5433    5499.0882    4467.5362    4895.0372   -499.64414    789.63494    658.00169   -2870.2652 
12581000    259.32527   -3866.5438   -3422.0691   -3866.5438            0    7530.6117    17.106574    20.149285    20.869981    7193.5743    7200.8365    8982.4964     6408.502    976.28083    949.12285   -728.66053   -2632.0259 
12582000    262.72629   -3891.1535   -3440.8497   -3891.1535            0    7498.7376    17.111759    20.155392    20.876306     7200.117    9225.7839    6690.1452    6580.2838   -382.50107    595.89097   -1070.8733   -2653.4348 
12583000    239.48797   -3833.4069   -3422.9327   -3833.4069            0    7119.3491    17.121759    20.167171    20.888506    7212.7478    6542.2299    6514.6977    8301.1196    829.08637   -483.84438    931.78677   -2674.0446 
12584000    264.30636    -3791.466   -3338.4539    -3791.466            0    8989.5979    17.082547    20.120984    20.840667    7163.3051    9105.6447    9477.1981    8385.9509   -357.15751    1841.8162     771.9559   -2399.3155 
12585000    268.01653   -3880.1479   -3420.7767   -3880.1479            0    8325.7768    17.068242    20.104135    20.823216    7145.3252     8503.465    8937.4043     7536.461   -86.769259    23.785167    223.44863   -2553.1705 
12586000     262.0427    -3867.651   -3418.5187    -3867.651            0    6781.6112    17.125307     20.17135    20.892835    7217.2329    4971.2019    8643.4389    6730.1928   -292.53193   -992.00604   -152.16773   -2704.7139 
12587000    250.82453   -3865.3184   -3435.4138   -3865.3184            0    6152.5964    17.061209    20.095851    20.814635    7136.4958    5486.5764    5356.5905    7614.6225   -1025.8326    19.063787    6.9496944   -2795.0609 
12588000    258.32629   -3842.6325     -3399.87   -3842.6325            0     6695.977    17.101193    20.142946    20.863415    7186.7873    7044.0505     6331.485    6712.3954    471.42358    591.52346   -2095.1173   -2698.0518 
12589000    251.33355   -3898.5428   -3467.7657   -3898.5428            0    7831.3603    17.135392    20.183228    20.905138    7229.9899    9566.2078    6804.3732    7123.4999     1127.636    29.241505   -119.63793   -2642.0115 
12590000     254.2874   -3837.6373   -3401.7974   -3837.6373            0    7540.0851     17.07034    20.106605    20.825774    7147.9594     7825.994    9080.4325    5713.8289   -226.29556    419.35963   -1217.2347   -2615.7763 
12591000    244.39433   -3875.3689   -3456.4854   -3875.3689            0    6769.3812     17.08883    20.128384    20.848332    7171.2117    9545.8676     4661.858    6100.4181    1360.1658    517.78161    715.30324   -2748.5112 
12592000    262.84725   -3855.7966   -3405.2854   -3855.7966            0    8693.8727    17.063049    20.098018     20.81688    7138.8044    8605.5294     8430.082    9046.0067   -726.50277   -704.63974    397.63902   -2500.1477 
12593000    262.47888   -3902.1326   -3452.2527   -3902.1326            0    8577.4344    17.072208    20.108806    20.828054    7150.3072    7718.4192     8776.977    9236.9068     540.2868   -151.35944    1040.5049   -2557.7988 
12594000    250.79526   -3843.3732   -3413.5187   -3843.3732            0    6499.9341    17.036182    20.066372    20.784102    7105.1358    7031.8905     6562.665    5905.2469    426.65375    643.59284     2092.956   -2739.9882 
12595000    255.83109   -3886.1502   -3447.6644   -3886.1502            0    7537.4231    17.021735    20.049356    20.766478    7087.0762    8287.8768     6645.131    7679.2614   -879.18267   -333.12442   -616.46261   -2668.6134 
12596000    271.48285   -3882.6732   -3417.3609   -3882.6732            0    7939.8054    17.045906    20.077825    20.795965    7117.3092    10125.321    4853.5219    8840.5737     478.6438    1972.3995    739.39413   -2593.2198 
12597000    247.64871   -3845.1387   -3420.6773   -3845.1387            0    5711.5508    17.116687    20.161196    20.882318    7206.3393    5988.0583    3820.2057    7326.3883    534.94659     1391.178    125.95668     -2820.41 
12598000    253.15923   -3905.2509   -3471.3447   -3905.2509            0    6557.8493    17.160152    20.212392    20.935345    7261.3769    5799.5957    6370.9036    7503.0485    1298.4849    485.48219    64.537453   -2776.8702 
12599000    252.68388   -3835.8546   -3402.7631   -3835.8546            0    6582.2235    17.100418    20.142033     20.86247    7185.8104    8765.3287    6428.4307    4552.9111    735.11398    788.27244   -736.61393   -2712.9614 
12600000    260.17103   -3877.7168   -3431.7926   -3877.7168            0    5857.2191    17.150753    20.201321    20.923878    7249.4515    5458.5364    6234.6228    5878.4982   -144.49054    916.12143   -218.74577   -2812.5333 
12601000    245.54343   -3879.2972   -3458.4442   -3879.2972            0    8526.2365    17.074222    20.111179    20.830511     7152.838    8207.2849    8891.5701    8479.8546    765.98756    323.12905   -34.652056   -2569.0144 
12602000    261.69788   -3848.1287   -3399.5875   -3848.1287            0    7508.0652    17.108088    20.151068    20.871827    7195.4841    6867.5439    7937.7389    7718.9128   -284.34792    502.87697    445.80404   -2611.7005 
12603000    252.02837   -3834.8499   -3402.8819   -3834.8499            0    6903.1705    17.105564    20.148095    20.868749    7192.3004    5864.7497    7588.7126    7256.0491   -750.96287   -686.73439    77.588404   -2678.7923 
12604000    267.70407   -3879.5569   -3420.7212   -3879.5569            0    6336.1529    17.127328     20.17373      20.8953    7219.7873    5636.1424     6674.366    6697.9504    316.05997   -655.85193    1430.5695   -2753.5675 
12605000    264.77615   -3865.7242   -3411.9069   -3865.7242            0    9281.6655    16.960472    19.977196    20.691736    7010.8294    9389.2106    7844.6583    10611.128    96.540952    917.50585   -1672.1991    -2462.896 
12606000    248.58617   -3892.2622    -3466.194   -3892.2622            0    7004.1038    17.016964    20.043736    20.760657    7081.1185    7277.6969    6393.5166     7341.098    1068.1494    1661.7217   -605.19007   -2742.8743 
12607000    246.92602   -3851.8578   -3428.6351   -3851.8578            0    4836.8974    17.060323    20.094807    20.813554    7135.3833    4020.0582    6377.4044    4113.2297   -795.62276   -11.381881    282.71681   -2925.2966 
12608000    249.12159   -3845.2704   -3418.2846   -3845.2704            0     6197.633    17.044915    20.076659    20.794757    7116.0687    8152.5247    5814.1961    4626.1783    23.577188   -1332.5047   -227.93666   -2775.0907 
12609000    255.83195   -3906.2623   -3467.7751   -3906.2623            0    5898.8646     17.14293    20.192107    20.914334    7239.5356    3738.4018    7830.2533    6127.9387   -1669.4788    42.600149   -311.58656   -2844.9659 
12610000    260.43911   -3881.1904   -3434.8067   -3881.1904            0    8119.3287    17.024376    20.052466    20.769699    7090.3748    8091.2432    8689.7001    7577.0428   -403.74169    723.73236    912.83557   -2595.2207 
12611000     260.3967   -3870.2451   -3423.9341   -3870.2451            0    8701.1182    17.063915    20.099038    20.817936    7139.8917     10070.74    9604.0038    6428.6104    235.35962   -236.10286   -688.05126   -2517.9041 
12612000    251.47637   -3908.5788   -3477.5569   -3908.5788            0     4397.984    17.158815    20.210817    20.933714    7259.6792    3506.7446    4253.9662    5433.2411   -1955.0589    -928.9646     1953.487   -3011.9205 
12613000    253.06067   -3907.6301   -3473.8927   -3907.6301            0    7447.3796     17.09939    20.140822    20.861215    7184.5143    7666.1015    7272.4211    7403.6162    253.24376    416.41292    909.71084   -2693.5654 
12614000    265.02595   -3878.5324    -3424.287   -3878.5324            0    6266.4606    17.138201    20.186538    20.908566    7233.5472    6447.3308    5985.9679    6366.0831    483.83079    53.874514    767.52791   -2763.2139 
12615000    267.89878   -3894.0281   -3434.8588   -3894.0281            0    5473.2223    17.139461    20.188021    20.910103    7235.1426    5898.9102    5783.2882    4737.4685   -1352.1752   -1735.3272    821.74427   -2857.3401 
12616000    256.72567   -3896.5708   -3456.5518   -3896.5708            0     7859.311    17.061073    20.095691    20.814469    7136.3251    6957.3773    7868.8047    8751.7511   -1831.2439   -649.78502    57.979555   -2638.5863 
12617000    248.60946   -3920.5448   -3494.4367   -3920.5448            0    5982.7772    17.133672    20.181202     20.90304    7227.8134    6673.9173    5672.2295    5602.1846   -476.82892   -1065.6821    1398.9632   -2863.7907 
12618000    257.59972   -3906.6991    -3465.182   -3906.6991            0    6891.7847    17.076104    20.113395    20.832807    7155.2033    6724.4019    7943.1706    6007.7816    1499.9058    1186.2995    16.203389   -2746.0153 
12619000    264.51743   -3896.6019   -3443.2281   -3896.6019            0     7457.998    17.026524    20.054996    20.772319    7093.0589    5435.0897    8203.3674    8735.5369      128.455    488.46863   -740.80675   -2671.7356 
12620000    254.76961   -3886.8572   -3450.1908   -3886.8572            0    8332.7808    16.995782    20.018786    20.734814    7054.7075     8701.297    7670.2484     8626.797    1476.8371   -886.84871     248.6701    -2592.867 
12621000    266.74378   -3920.4794   -3463.2897   -3920.4794            0    7732.5795    17.015068    20.041502    20.758343    7078.7511    6674.4421    8212.8065    8310.4899    19.218364    45.574489    1213.4233   -2665.0066 
12622000    255.74912   -3832.2119   -3393.8666   -3832.2119            0    6438.2949    17.100516    20.142149    20.862589    7185.9337    7341.3735    5471.6334    6501.8779   -62.282202    -140.6273     464.2661   -2719.1367 
12623000     249.1897   -3875.8953   -3448.7927   -3875.8953            0    7585.5575    17.021088    20.048594    20.765688     7086.268    7463.1648    7227.3115    8066.1963    711.89689    214.72114    402.87205    -2664.856 
12624000    257.49726   -3843.9677   -3402.6262   -3843.9677            0    7348.1656    17.032018    20.061467    20.779022    7099.9269    5612.7905    8254.5913    8177.1151    266.11279   -147.11612    325.56409   -2641.7593 
12625000    271.09602   -3828.2888   -3363.6395   -3828.2888            0    7105.6924    17.018129    20.045108    20.762077    7082.5721     5586.954    8849.9417    6880.1814   -279.21727   -677.37945   -58.514244   -2629.6779 
12626000    253.58103   -3857.1572    -3422.528   -3857.1572            0    8397.8367    17.056337    20.090112    20.808691    7130.3835    8962.4297    6430.5126     9800.568    311.23206   -1196.0731   -95.022091   -2549.2426 
12627000    254.36689   -3839.3635   -3403.3874   -3839.3635            0    8405.4745    16.975582    19.994994    20.710171     7029.584     9677.655    7289.7072    8249.0613    -112.5082    1589.5814    21.014545   -2541.6642 
12628000    263.89794   -3878.9623   -3426.6503   -3878.9623            0    6549.1881    17.050474    20.083207    20.801539    7123.0336    8139.4357    5545.2577     5962.871    1190.2235   -347.27843      473.019   -2746.3066 
12629000    271.06066    -3873.615   -3409.0263    -3873.615            0    6450.6681    17.037504    20.067929    20.785715    7106.7901    3938.2614    6416.4261    8997.3168   -386.15008    721.13232    328.93111   -2740.4452 
12630000    254.75288   -3900.0431   -3463.4053   -3900.0431            0    5209.0174    16.988023    20.009647    20.725348    7045.0499    3931.8131    5971.9814    5723.2576   -745.06287    414.40485    858.05684   -2928.2058 
12631000    248.46794   -3853.3027   -3427.4371   -3853.3027            0    8448.2368    16.936695     19.94919    20.662729    6981.3854    11823.482    7460.7573    6060.4714    764.09446   -980.02718    269.56425   -2567.2685 
12632000    263.57903    -3852.901   -3401.1356    -3852.901            0    7625.9905      17.0292    20.058148    20.775584    7096.4034    7187.5306    8217.0641     7473.377    270.03317    1049.7636     1057.463   -2611.8931 
12633000    248.77556   -3878.2502   -3451.8575   -3878.2502            0    7722.1739    17.002424     20.02661    20.742918    7062.9823    8412.8892    7918.8722    6834.7605   -256.42985   -265.88022   -1970.0909   -2656.4245 
12634000    261.10438   -3911.3158   -3463.7918   -3911.3158            0    5540.9344    17.031769    20.061174    20.778718    7099.6158     6297.122    3859.6229    6466.0582   -1826.9643   -309.11561    910.79227   -2890.0801 
12635000    239.30686   -3913.0417   -3502.8779   -3913.0417            0    5555.3483    17.085602    20.124582    20.844394    7167.1488    5036.8107    5824.1749    5805.0594   -332.82177    1149.5523    1357.7372   -2922.2022 
12636000    265.27055   -3897.0802   -3442.4155   -3897.0802            0    8899.1959    16.997713    20.021061     20.73717    7057.1132    9273.5792    7910.9246    9513.0841    647.92699   -1107.9327   -80.587458   -2526.5036 
12637000    236.22294   -3863.6741   -3458.7961   -3863.6741            0    8161.9415    17.024961    20.053155    20.770413    7091.1059    7624.8107    9456.7023    7404.3115   -819.62036   -934.64115   -607.08003   -2614.7166 
12638000    256.98014   -3884.8321   -3444.3769   -3884.8321            0    6346.0872    17.109294    20.152488    20.873299    7197.0059     7104.138    7256.0663    4678.0574    226.85229   -1311.0029    1387.3688   -2778.2856 
12639000      237.816   -3901.9929   -3494.3844   -3901.9929            0    5380.8298    17.079532    20.117432    20.836989    7159.5125    4998.1099    5279.5366    5864.8428    507.33035   -1809.0457    704.31946   -2932.5497 
12640000    256.16229    -3867.351   -3428.2976    -3867.351            0    7387.8036    17.073491    20.110317    20.829619    7151.9189     7276.584    7786.4538    7100.3731   -1150.8385    552.28761    19.074931   -2657.7246 
12641000    255.41696   -3904.7537   -3466.9777   -3904.7537            0    5567.7131     17.17501    20.229893    20.953472     7280.255    3797.9992    6968.6709    5936.4693    192.28908    27.397576    341.01447   -2875.8255 
12642000    255.16674   -3893.8608   -3456.5137   -3893.8608            0    6924.2654    17.082427    20.120843    20.840521    7163.1547    7693.8621    5096.0303    7982.9039   -348.01596   -996.91236    1253.8179   -2733.1546 
12643000    255.19659   -3882.8515   -3445.4533   -3882.8515            0    6205.5495    17.137029    20.185157    20.907135    7232.0628    7239.7866    6115.2569    5261.6049   -808.83966    48.410866   -621.69534   -2790.9402 
12644000    268.39216   -3891.0257   -3431.0107   -3891.0257            0     10467.51    16.984367    20.005341    20.720888    7040.5027     13730.17    9711.3068     7961.054    635.76465   -1194.7508   -727.05816   -2356.2224 
12645000    263.36756   -3824.1613   -3372.7583   -3824.1613            0     6508.858    17.037065    20.067412    20.785179    7106.2405    6014.7865    5995.2716     7516.516    1056.5603   -652.63231    168.48128   -2698.1983 
12646000    256.52101   -3867.3925   -3427.7243   -3867.3925            0    7330.6158    17.067749    20.103554    20.822614     7144.706    6221.8491       8416.2    7353.7982   -1208.7961    1533.1412    52.106975   -2663.8873 
12647000    254.25306    -3891.486    -3455.705    -3891.486            0    7428.9387    17.051936    20.084929    20.803322    7124.8659    7261.7678     7568.814    7456.2343   -477.84945    1078.9705   -173.50548   -2683.7724 
12648000    253.81872   -3897.7382   -3462.7016   -3897.7382            0    5736.8019    17.042837    20.074211    20.792222    7113.4666    6932.7933    4875.9771    5401.6353   -445.52607    647.64374   -1279.5014   -2867.5508 
12649000    266.16325   -3841.9877    -3385.793   -3841.9877            0    8765.5519    17.038487    20.069087    20.786914    7108.0201    7667.6638    8873.1614    9755.8304   -965.59007    39.093157    112.92767    -2477.128 
12650000    251.63538    -3871.073   -3439.7786    -3871.073            0    8304.9333    17.088792    20.128339    20.848286    7171.1638    7755.8697     8611.705    8547.2251    614.73894    961.24556    1410.5158   -2571.2149 
12651000    258.56331   -3832.5349   -3389.3662   -3832.5349            0    8602.5117    17.032981    20.062602    20.780198    7101.1323    6824.9731    8495.7347    10486.827    1200.5916     138.6728   -161.48395   -2498.4666 
12652000    246.07415    -3894.715   -3472.9523    -3894.715            0    4946.2267    17.127658    20.174119    20.895703    7220.2051    5218.7364    4451.7677    5168.1759    343.88208    -321.3481   -941.82843   -2952.1182 
12653000    259.68332   -3884.6189   -3439.5306   -3884.6189            0     5282.833    17.115888    20.160256    20.881344    7205.3308    4660.5222     5052.785    6135.1917    421.82408    1068.5795    785.72488   -2884.3981 
12654000    247.23411   -3887.8344   -3464.0836   -3887.8344            0    6934.6496    17.065117    20.100453    20.819402    7141.4002    8470.2416    6091.8301     6241.877   -204.84964   -684.88016   -2447.0223   -2741.8399 
12655000    257.17829   -3899.5587   -3458.7639   -3899.5587            0    6426.6634    17.090301    20.130117    20.850127    7173.0645    5415.7679    6390.4115    7473.8107   -1271.8337     325.8389   -1025.3522   -2786.4591 
12656000    252.86069   -3929.4829   -3496.0883   -3929.4829            0    6253.5286    17.071205    20.107624     20.82683    7149.0463    4203.1243    8490.0534     6067.408    393.74742    1385.3873   -327.69323    -2844.086 
12657000    256.08707   -3901.9293   -3463.0048   -3901.9293            0    6883.5452    17.038788    20.069442    20.787282    7108.3974    6988.4519      7088.65    6573.5335   -534.44132    477.04043    398.69319   -2749.3968 
12658000    260.07272   -3900.5116   -3454.7558   -3900.5116            0    7987.2854    17.067113    20.102805    20.821838     7143.907    7290.3412      8459.54    8211.9749   -1342.2379   -403.13958   -1822.2174   -2622.5881 
12659000    262.95692   -3898.3391     -3447.64   -3898.3391            0    8235.0363     17.05671    20.090552    20.809147    7130.8519    8349.5612    7623.7545    8731.7933    161.70702   -8.4051382    165.29655   -2591.2278 
12660000    279.47634    -3886.957   -3407.9441    -3886.957            0    8584.8039    17.086356     20.12547    20.845314    7168.0979    6863.7342    10176.518    8714.1591   -924.60202    1810.0218   -1014.5115   -2510.4942 
12661000     239.7951   -3872.3054   -3461.3048   -3872.3054            0    7839.0885    17.005734    20.030508    20.746956    7067.1079    8057.2093    7098.5688    8361.4875    866.95967   -354.78877    1270.5734   -2653.3572 
12662000    252.14799   -3871.0733   -3438.9003   -3871.0733            0    6425.7754    17.064378    20.099584    20.818502    7140.4733    7663.8184    5363.1231    6250.3847    801.94318    202.70115   -176.80305   -2769.7427 
12663000    242.84428   -3835.0318    -3418.805   -3835.0318            0    7769.4469    17.067805    20.103619    20.822682    7144.7753    7167.9792    9893.7847    6246.5769     1777.193   -85.094744    1066.7447   -2609.2347 
12664000    262.92056   -3897.3778   -3446.7409   -3897.3778            0    5774.4982    17.095559    20.136311    20.856542    7179.6873      6115.19    5779.1225    5429.1821    1611.8078    459.12246    1644.7192   -2842.1026 
12665000    257.85139   -3884.1178   -3442.1694   -3884.1178            0    5846.8127     17.12679    20.173096    20.894644    7219.1073    5689.4219    5956.7009    5894.3152    1712.5919    559.27035   -411.48591   -2826.5978 
12666000    276.76208   -3893.7778   -3419.4171   -3893.7778            0    6456.6065    17.037195    20.067566    20.785339    7106.4041    6003.9177    6206.7138     7159.188     1247.538    505.96164    432.39061   -2750.2569 
12667000    258.47386   -3929.9355   -3486.9201   -3929.9355            0    6283.9168    17.081039    20.119208    20.838828    7161.4087    7133.6251    7789.2778    3928.8475   -1717.5424   -1850.2467   -484.63028   -2830.6165 
12668000    278.38327   -3876.3125   -3399.1731   -3876.3125            0    8203.3807    17.044732    20.076443    20.794534    7115.8394    8711.5117    9100.3517    6798.2787   -613.35865   -1919.1165    -1228.732   -2547.8491 
12669000    275.48646   -3910.1702   -3437.9959   -3910.1702            0    6766.2333    17.111642    20.155255    20.876164    7199.9699    7307.1443     6240.563    6750.9925    128.30352    2438.2979     289.5371   -2727.5131 
12670000    262.28477    -3899.443   -3449.8959    -3899.443            0    7893.8813     17.04387    20.075428    20.793482    7114.7597    9172.8844    7968.8066     6539.953   -1036.5842     905.1428    301.80491   -2630.8152 
12671000    259.88086   -3887.6045   -3442.1775   -3887.6045            0    6419.2054    17.060802    20.095371    20.814139     7135.985    5941.4995    6048.8161    7267.3007    497.30351   -346.80141    157.34245   -2774.1243 
12672000    243.19967   -3876.5082   -3459.6723   -3876.5082            0    7109.0139    17.109446    20.152667    20.873484    7197.1974    5436.3238    6984.3298    8906.3882   -332.64077    1005.7193   -476.23218   -2713.4836 
12673000    262.86291   -3910.6947   -3460.1566   -3910.6947            0    6242.9513    17.096021    20.136854    20.857106     7180.269    4812.2126    7638.5711    6278.0703    87.734685   -1590.8646    292.51148   -2806.4144 
12674000    250.84626   -3886.6388   -3456.6969   -3886.6388            0    6416.9686    17.073926     20.11083     20.83015    7152.4659    5102.3853    7617.1105    6531.4099    1002.0464   -513.68013   -1989.3162   -2787.3341 
12675000    278.16717   -3915.7442   -3438.9752   -3915.7442            0    7717.3421     17.01302    20.039091    20.755845    7076.1961    4791.1143    9701.8686    8659.0434    658.82718    705.38551    37.789324   -2642.5528 
12676000     255.2508   -3931.6073   -3494.1162   -3931.6073            0    6544.0841    17.103622    20.145808    20.866379    7189.8508    4131.3333    6785.9357    8714.9833    654.79324   -117.34531    221.37571   -2807.9258 
12677000    251.80015   -3862.1757   -3430.5989   -3862.1757            0    7125.7938    17.059673    20.094042    20.812761    7134.5685    5820.5743    8506.8083    7049.9987    1058.8139    454.06452    958.19005   -2689.1574 
12678000    255.78825   -3863.7854   -3425.3731   -3863.7854            0    8215.7544    17.087737    20.127097       20.847    7169.8366    8000.3503    8647.7063    7999.2064    1122.5374   -84.469904    2107.7248   -2566.2951 
12679000    246.57383   -3862.2949   -3439.6758   -3862.2949            0     7701.575    17.043829    20.075379    20.793432    7114.7083    5988.3938     9540.594    7575.7372     993.5132    3.3696088   -1077.7728   -2640.5549 
12680000    261.74099   -3885.9181    -3437.303   -3885.9181            0    7671.7601    17.038538    20.069147    20.786977    7108.0846    6721.8954    6874.9614    9418.4235    854.55832    1661.1506    247.84733   -2642.0168 
12681000     258.6721   -3893.4008   -3450.0457   -3893.4008            0    7436.5958    17.091614    20.131663    20.851729    7174.7171    6695.8671     6969.394    8644.5264     -568.824    -680.8395    261.45097   -2671.9108 
12682000    282.72839   -3889.0635   -3404.4767   -3889.0635            0    9519.1124     17.07447     20.11147    20.830813     7153.149    9302.2361    9274.2465    9980.8547    424.90542   -1951.4076   -1894.2326   -2411.4302 
12683000    264.42571   -3910.6374   -3457.4208   -3910.6374            0    7597.8438    17.059422    20.093746    20.812455    7134.2532    7049.9186    7857.3755    7886.2374    593.02766    311.14507   -845.42309   -2666.8973 
12684000     249.8026   -3875.7346   -3447.5815   -3875.7346            0    8298.6624     17.04312    20.074544    20.792566    7113.8201    8156.8388    7626.2392     9112.909   -990.94745    47.566069    926.52252   -2586.6138 
12685000    258.32925   -3843.9974     -3401.23   -3843.9974            0    8775.5281    17.026754    20.055267      20.7726    7093.3466    7713.7243    8169.4578    10443.402    779.52963   -648.96495    650.88802   -2493.4087 
12686000    270.65508   -3879.0965    -3415.203   -3879.0965            0    6479.4027     17.10364    20.145828      20.8664    7189.8727    4988.9287    6986.0277    7463.2516   -413.49147   -69.703297   -13.420123   -2735.7928 
12687000     261.2527    -3901.313   -3453.5348    -3901.313            0    7152.0339    17.130481    20.177444    20.899147     7223.776     6592.456    5047.7679    9815.8777   -1446.9128    123.94038   -471.14831   -2700.0583 
12688000    276.39448    -3866.663   -3392.9323    -3866.663            0    9454.4447    17.135466    20.183315    20.905228    7230.0835    8810.5835    10717.667     8835.084    265.95998   -267.33281    1103.4474    -2396.024 
12689000    246.10446   -3892.0349   -3470.2203   -3892.0349            0     7904.847    17.091807    20.131891    20.851965    7174.9607    7628.4735    7959.4977    8126.5699   -981.48108   -1590.0291    -437.6534   -2643.0615 
12690000    268.86688    -3845.983   -3385.1544    -3845.983            0    4725.6697    17.178442    20.233936     20.95766    7284.6206    4968.6678    4806.2549    4402.0866    533.11795   -112.10763   -1054.6911   -2883.1053 
12691000    261.05242   -3866.3054   -3418.8705   -3866.3054            0    6424.1905    17.103502    20.145666    20.866232    7189.6991    6731.1738    5243.0069    7298.3909    195.86732   -1023.3937   -1110.9889   -2745.2659 
12692000    255.33779   -3854.1553   -3416.5151   -3854.1553            0    8249.5548    17.030422    20.059587    20.777075    7097.9316    7368.1483    8724.6008    8655.9154    580.29524   -164.15551   -1769.0678   -2562.5538 
12693000    251.23261   -3866.7214   -3436.1173   -3866.7214            0     7537.028    17.048412    20.080778    20.799023    7120.4495    7818.7177    7060.8946    7731.4717   -1414.2036   -979.79683   -1168.1908   -2653.4387 
12694000    268.82946   -3860.0772   -3399.3127   -3860.0772            0    8305.6437    16.955352    19.971165    20.685489    7004.4815     7418.359    8803.9861     8694.586    648.08268    623.91615   -468.37847   -2550.8648 
12695000    259.51824   -3902.7719   -3457.9665   -3902.7719            0     7153.138    17.025093    20.053311    20.770574    7091.2707    6604.9075    6111.4433    8743.0632   -160.96651   -1584.7147    1445.3603   -2718.1968 
12696000    250.07398   -3897.4433    -3468.825   -3897.4433            0    5177.8559    17.069911      20.1061    20.825252    7147.4209    5847.5695    4290.2674    5395.7307    1232.3195   -337.02542   -154.27716   -2929.0967 
12697000    258.47613    -3894.752   -3451.7328    -3894.752            0    9184.2749    17.057174    20.091098    20.809712    7131.4334      9363.45    9178.3904    9010.9844   -65.634247    1243.3105    169.57437   -2496.5256 
12698000    264.66496    -3890.048   -3436.4214    -3890.048            0    7077.6277    17.049286    20.081806    20.800089    7121.5438    5248.9734    8183.0422    7800.8676   -178.65076    982.59194    1935.3901    -2701.336 
12699000    268.89974   -3883.1451   -3422.2601   -3883.1451            0     5605.272    17.096484      20.1374    20.857671     7180.853    4353.2677    7251.5377    5211.0105    1500.8858    778.25869    360.49123   -2835.2459 
12700000    254.85885    -3889.256   -3452.4366    -3889.256            0    6096.9179    17.104418    20.146745     20.86735    7190.8541    7302.0666     6446.033    4542.6542   -1175.3144   -947.63658    382.80748   -2813.0453 
12701000    258.74189   -3867.9888   -3424.5141   -3867.9888            0    8378.3322    17.039925    20.070781    20.788669    7109.8202    11070.975    8837.4131    5226.6085    1474.6251    270.71472   -198.06889   -2555.7695 
12702000    259.64947   -3878.7609   -3433.7306   -3878.7609            0    7692.0986    17.062954    20.097906    20.816765     7138.686    7276.2252    8981.0968    6818.9738    1299.3863    947.77012    2095.3138    -2632.903 
12703000    247.00953   -3909.9766   -3486.6107   -3909.9766            0    5946.3991    17.060508    20.095025     20.81378    7135.6156    7341.7931    4569.7065    5927.6976    283.22272   -825.66571    650.01115   -2867.7949 
12704000    255.42813   -3910.0524   -3472.2573   -3910.0524            0    7476.0921    16.990989    20.013141    20.728967    7048.7413    6691.1608    6585.5948    9151.5206   -68.558119    1288.7387   -1056.6081   -2703.7251 
12705000    254.00566   -3896.2289   -3460.8719   -3896.2289            0    7794.2037    17.027059    20.055626    20.772972    7093.7271    5860.9074    9375.0629    8146.6408   -451.94156    1232.8961    1171.3795   -2654.5246 
12706000    253.13159   -3900.1186   -3466.2597   -3900.1186            0    7526.2928    17.020358    20.047733    20.764797    7085.3556    8515.3208    7572.7191    6490.8384    1436.0641   -611.97364    110.66982    -2688.548 
12707000    262.74356   -3898.7756   -3448.4421   -3898.7756            0    7361.9617    17.047147    20.079288     20.79748    7118.8646    6967.9076    6925.4533    8192.5241   -1417.1321   -61.233128    657.16217   -2684.1134 
12708000    266.06798   -3873.5472   -3417.5158   -3873.5472            0     7308.514    17.049102    20.081591    20.799865    7121.3142    8025.0896    7769.0643    6131.3882   -2191.3674   -159.23993    75.170728    -2658.475 
12709000    257.05803   -3870.6542   -3430.0655   -3870.6542            0    5712.7943     17.01052    20.036145    20.752794    7073.0762    4535.1408    6618.3658    5984.8764   -302.88281    158.43168   -257.42283   -2840.7705 
12710000    264.64681   -3861.1949   -3407.5993   -3861.1949            0    7328.4491    17.010459    20.036074     20.75272    7073.0003    8983.3341    8164.9443    4837.0689   -242.83611   -533.13596   -154.32283   -2651.6518 
12711000    259.71236   -3872.3985   -3427.2604   -3872.3985            0    7500.5873    16.985112    20.006218    20.721797    7041.4294    5484.4715    10268.997    6748.2929    13.575858    446.14168    889.31399   -2657.0099 
12712000    264.22859   -3879.0455   -3426.1668   -3879.0455            0    7772.9695    17.019864    20.047152    20.764195    7084.7393    10312.344    6234.0493    6772.5149    614.22256   -2339.1781    2044.6369   -2623.0352 
12713000    264.19307   -3861.5452   -3408.7273   -3861.5452            0    7239.0637    17.019681    20.046936    20.763971    7084.5104    7558.6184    7076.0739    7082.4988    844.28292    1360.7029    -1365.493   -2660.7849 
12714000    252.84266   -3861.5491   -3428.1854   -3861.5491            0    5780.6804    17.017492    20.044357      20.7613    7081.7768    5067.4525    4966.5288    7308.0599    1438.5325   -194.66669    1536.4889   -2831.1541 
12715000    259.72971    -3920.241   -3475.0732    -3920.241            0    7019.2813    16.942051    19.955498    20.669263    6988.0103    6734.2737    6378.8199    7944.7504    292.76313   -7.0002882     1229.002   -2759.7175 
12716000    265.47407   -3907.2479   -3452.2344   -3907.2479            0    6798.6942    16.987836    20.009426     20.72512    7044.8174     7335.192    6370.6357    6690.2549   -885.96141   -693.12532   -1251.4553   -2753.7268 
12717000    250.57964   -3890.3051   -3460.8201   -3890.3051            0    7120.5187    17.022347    20.050076    20.767223    7087.8399    7007.6126    7768.0447    6585.8986   -564.34631    678.81757   -324.74048   -2724.7801 
12718000    264.12721   -3876.7299   -3424.0249   -3876.7299            0    4412.0022    17.086494    20.125633    20.845482    7168.2714    1582.4643    5619.7017    6033.8405    838.84918    2077.4853   -1525.9419   -2962.7859 
12719000    263.66237   -3870.2395   -3418.3312   -3870.2395            0      6847.58    17.026182    20.054593    20.771902    7092.6314    6005.2953    5871.9255    8665.5192   -338.03684      1242.75    474.92285   -2710.0261 
12720000    254.88007   -3932.0571   -3495.2014   -3932.0571            0    8461.7739    16.971412    19.990081    20.705082    7024.4041    8360.4486    8317.4191     8707.454    -1590.636     799.9754    1902.2303   -2628.3457 
12721000    254.20261   -3901.6641   -3465.9696   -3901.6641            0    6987.0273    17.054466    20.087908    20.806409    7128.0373    6436.2921    5936.8549    8587.9349    569.34611   -653.69997   -750.07925   -2739.6323 
12722000    249.75957   -3917.3833   -3489.3039   -3917.3833            0    6920.3935    17.075737    20.112962    20.832359    7154.7413    6280.8056    6606.7037    7873.6712    1431.3409    382.28919   -922.28229   -2767.1985 
12723000    245.61442   -3895.2516   -3474.2769   -3895.2516            0     8384.263    16.957062     19.97318    20.687576    7006.6018    9314.5091    8650.5023    7187.7776   -787.92719    216.86404   -621.66151   -2617.5385 
12724000     264.1241   -3924.2821   -3471.5825   -3924.2821            0    5978.8287    17.015434    20.041934     20.75879    7079.2087    4180.9774    6754.9494    7000.5592    1764.3959   -1355.3214    532.50536   -2854.3103 
12725000    253.68535   -3931.3874   -3496.5794   -3931.3874            0    8076.4407    17.018076    20.045046    20.762013    7082.5062    5939.9183    9078.6304    9210.7735    2909.7486    252.92723   -964.82573    -2662.355 
12726000    266.16177   -3886.8243   -3430.6321   -3886.8243            0    6987.9692    17.054603     20.08807    20.806576    7128.2096    5666.6575    9427.6122    5869.6378    1187.7235   -841.83791   -725.28598   -2704.1794 
12727000    276.78401   -3854.9246   -3380.5263   -3854.9246            0    8326.0422    17.068775    20.104762    20.823865    7145.9937    6876.9025    9949.5519    8151.6721    1272.2731    927.64695    -94.90568   -2512.8112 
12728000    262.46208   -3858.2586   -3408.4076   -3858.2586            0    6346.7838     17.07657    20.113944    20.833376    7155.7893    5449.6509    5776.3992    7814.3013    433.13756   -1375.7959    1159.9443   -2746.0582 
12729000    259.66134   -3888.3917   -3443.3411   -3888.3917            0    6259.0382    17.083195    20.121747    20.841458    7164.1203    5276.0239    7414.5752    6086.5157    -581.7582    251.83072   -346.86153   -2789.3883 
12730000    269.57474   -3880.3899   -3418.3481   -3880.3899            0    7928.7673    16.994945    20.017801    20.733794    7053.6663    8778.2084    6274.2589    8733.8346   -706.81267   -625.98644    565.20837   -2602.7119 
12731000    250.59911   -3871.1506   -3441.6323   -3871.1506            0    6478.7818    17.069811    20.105983     20.82513    7147.2958    6289.6551    5847.2197    7299.4707    499.94495   -1192.0215   -1835.7438   -2766.3101 
12732000    252.83016   -3868.4165   -3435.0743   -3868.4165            0     6504.451    17.022437    20.050182    20.767333    7087.9522    7307.0329    6690.1909    5516.1293   -1702.7683    1413.9807     894.5505   -2762.7058 
12733000    251.13855   -3886.6428   -3456.1999   -3886.6428            0    7623.2794    17.042325    20.073608    20.791597    7112.8254    8775.7851    5714.7613    8379.2918   -1229.2536   -491.05894    209.45777   -2665.4123 
12734000    244.75268   -3834.2578   -3414.7601   -3834.2578            0    9578.4913    16.948925    19.963594    20.677649    6996.5193    10795.557     8107.601    9832.3159    524.11811    973.12498   -699.63034    -2437.399 
12735000    251.16051   -3896.3656   -3465.8851   -3896.3656            0    6955.5483    17.100415    20.142031    20.862467    7185.8075    6262.2352    6252.2973    8352.1126    100.75413    982.92214   -1632.1692   -2736.9601 
12736000    254.74021   -3866.5428   -3429.9268   -3866.5428            0    6872.5448    17.123196    20.168863    20.890259    7214.5636    7849.6715    6387.9516    6380.0114    687.59585    2372.2425   -150.69852   -2706.8182 
12737000    258.07573   -3871.9229     -3429.59   -3871.9229            0     7179.651    17.081687    20.119971    20.839618    7162.2232    7528.1227    8820.9813    5189.8491   -122.52061   -140.82586   -173.79831    -2679.649 
12738000    258.59141   -3859.2176   -3416.0008   -3859.2176            0    8265.6776     17.07681    20.114227    20.833668    7156.0907    7617.5903    9425.1604    7754.2822   -1498.0802   -204.96189    580.83287   -2553.3596 
12739000    261.22758    -3896.927   -3449.1919    -3896.927            0    7643.7313     17.02039    20.047772    20.764837    7085.3963    8620.0165    6507.5333    7803.6441    235.20105   -141.70912   -365.05828   -2659.3404 
12740000    254.35302   -3849.9169   -3413.9645   -3849.9169            0    7666.5459    16.989861    20.011812     20.72759    7047.3371    10442.502     4768.274    7788.8616    957.79611    -1807.943    961.73615   -2626.0109 
12741000    255.68301   -3904.5259    -3466.294   -3904.5259            0    6719.8436     17.04508    20.076852    20.794957    7116.2744    6520.3895    6401.8318    7237.3096    560.89226    68.308009   -194.04647   -2768.8847 
12742000    260.59221   -3883.8231    -3437.177   -3883.8231            0    5994.9376    17.082432    20.120849    20.840528    7163.1611    6636.7957    6298.1112    5049.9057    258.42326   -553.34004    315.97676   -2810.9017 
12743000    268.78571   -3890.6526   -3429.9631   -3890.6526            0     7673.869      17.0678    20.103614    20.822677    7144.7699     6790.545    6907.6702    9323.3918   -1095.8636   -258.44538   -406.99304   -2630.3526 
12744000    265.65163   -3904.2354   -3448.9176   -3904.2354            0    10329.209    16.954031    19.969609    20.683878    7002.8449    9827.8535     10101.36    11058.413   -660.99813    1166.1295     944.7098   -2394.0026 
12745000    272.14386   -3880.5121   -3414.0668   -3880.5121            0      6354.03    17.105269    20.147748    20.868388     7191.928    7098.2313    7428.4586    4535.4002    424.35537    1155.1034   -1011.7276   -2747.6124 
12746000    260.65946   -3874.0824    -3427.321   -3874.0824            0    7199.4873    17.096915    20.137907    20.858196    7181.3953    7470.5086    6496.0525    7631.9008   -1521.3177    241.72232   -934.35688   -2673.2951 
12747000     256.3896    -3872.496    -3433.053    -3872.496            0    5745.1731    17.101609    20.143437    20.863924    7187.3127     5638.857    6995.8661    4600.7962     723.0438    1069.8792   -646.00755   -2830.8463 
12748000    273.56543   -3858.3673   -3389.4856   -3858.3673            0    8949.9424    16.981167    20.001572    20.716984    7036.5243    7373.6217    11638.052    7838.1534    171.61391    283.18935    2366.9429   -2471.0381 
12749000    263.43253   -3899.9708   -3448.4565   -3899.9708            0    6696.3783     17.02576    20.054096    20.771387     7092.104    6273.9099    6735.8026    7079.4224    966.95841   -1122.8158   -895.41205   -2755.8429 
12750000    270.05756   -3848.0481   -3385.1787   -3848.0481            0     6665.288    17.070093    20.106314    20.825473    7147.6491    8114.5014    6416.6072    5464.7556    1070.3961    138.90336   -1515.1252   -2690.3815 
Loop time of 495.732 on 64 procs for 250000 steps with 864 atoms

Performance: 87.144 ns/day, 0.275 hours/ns, 504.304 timesteps/s
99.1% CPU use with 64 MPI tasks x 1 OpenMP threads

MPI task timing breakdown:
Section |  min time  |  avg time  |  max time  |%varavg| %total
---------------------------------------------------------------
Pair    | 21.402     | 26.766     | 31.64      |  49.5 |  5.40
Bond    | 0.27183    | 0.28386    | 0.30129    |   1.1 |  0.06
Kspace  | 213.23     | 225.02     | 237.6      |  40.5 | 45.39
Neigh   | 5.1922     | 6.4093     | 7.5755     |  26.7 |  1.29
Comm    | 104.74     | 115.49     | 128.9      |  57.8 | 23.30
Output  | 1.3471     | 1.3485     | 1.3614     |   0.3 |  0.27
Modify  | 111.2      | 114.22     | 118.4      |  14.3 | 23.04
Other   |            | 6.197      |            |       |  1.25

Nlocal:        13.5000 ave          18 max           8 min
Histogram: 1 2 4 5 7 13 10 11 4 7
Nghost:        2233.72 ave        2266 max        2204 min
Histogram: 3 4 5 13 11 9 7 6 4 2
Neighs:        4316.66 ave        6148 max        2504 min
Histogram: 5 2 8 5 13 10 6 9 3 3

Total # of neighbors = 276266
Ave neighs/atom = 319.75231
Ave special neighs/atom = 2.0000000
Neighbor list builds = 13846
Dangerous builds = 1

unfix		3
unfix		2
unfix		1

write_data	data.final.${pid}
write_data	data.final.0
System init for write_data ...
PPPM initialization ...
  extracting TIP4P info from pair style
  using 12-bit tables for long-range coulomb (../kspace.cpp:340)
  G vector (1/distance) = 0.37380028
  grid = 24 24 24
  stencil order = 5
  estimated absolute RMS force accuracy = 0.0032140395
  estimated relative force accuracy = 9.6789845e-06
  using double precision FFTW3
  3d grid and FFT values/proc = 2535 216
Last active /omp style is kspace_style pppm/tip4p/omp
WARNING: Not all mixed pair coeffs generated from mixing. Use write_data with 'pair ij' option to store all pair coeffs. (../write_data.cpp:312)

write_restart   restart.lmp.${pid}
write_restart   restart.lmp.0
System init for write_restart ...
PPPM initialization ...
  extracting TIP4P info from pair style
  using 12-bit tables for long-range coulomb (../kspace.cpp:340)
  G vector (1/distance) = 0.37380028
  grid = 24 24 24
  stencil order = 5
  estimated absolute RMS force accuracy = 0.0032140395
  estimated relative force accuracy = 9.6789845e-06
  using double precision FFTW3
  3d grid and FFT values/proc = 2535 216
Last active /omp style is kspace_style pppm/tip4p/omp
Total wall time: 0:08:16
