LAMMPS (30 Jul 2021)
  using 1 OpenMP thread(s) per MPI task
package omp 0
using multi-threaded neighbor list subroutines
echo both

include		in.partitions
variable        pid world 0
include		in.temp
variable        temperature equal 249.87
variable	tempDamp equal 100.0
include		in.pressure
variable        pressure equal 5750.0
variable        pressureDamp equal 1000.0 # This is 1 ps
include		in.seed
variable        seed world 745823

units		real
atom_style	full
box tilt large
read_restart	restart.lmp.${pid}
read_restart	restart.lmp.0
Reading restart file ...
  restart file = 30 Jul 2021, LAMMPS = 30 Jul 2021
  restoring atom style full from restart
  triclinic box = (-10.736731 -9.2009564 0.056370247) to (12.716731 12.190954 21.803629) with tilt (-9.0939198 1.8210172 2.4556945)
  4 by 4 by 4 MPI processor grid
  restoring pair style lj/cut/tip4p/long/omp from restart
  restoring bond style harmonic/omp from restart
  restoring angle style harmonic/omp from restart
  1296 atoms
  864 bonds
  432 angles
Finding 1-2 1-3 1-4 neighbors ...
  special bond factors lj:    0        0        0       
  special bond factors coul:  0        0        0       
     2 = max # of 1-2 neighbors
     1 = max # of 1-3 neighbors
     1 = max # of 1-4 neighbors
     2 = max # of special neighbors
  special bonds CPU = 0.222 seconds
  read_restart CPU = 0.367 seconds
include 	in.setup
variable	out_freq equal 1000
variable	out_freq2 equal 10000
variable	out_freq3 equal 1000

timestep	2.0

neigh_modify    delay 7 every 1

include		in.tip4p
# This is TIP4P/Ice

# create groups ###
group ox type 2
432 atoms in group ox
group hy type 1
864 atoms in group hy

# set charges - beside manually ###
set group ox charge -1.1794
Setting atom values ...
  432 settings made for charge
set group hy charge 0.5897
Setting atom values ...
  864 settings made for charge

# ### TIP3P Potential Parameters ###
pair_style lj/cut/tip4p/long/omp 2 1 1 1 0.1577 8.5
pair_coeff 1 1*2 0.000 0.000
pair_coeff 2 2 0.21084 3.1668
bond_style  harmonic
bond_coeff  1 450 0.9572
angle_style harmonic
angle_coeff 1 55 104.52
kspace_style pppm/tip4p/omp 1.0e-5
pair_modify tail yes

thermo          ${out_freq}
thermo          1000
thermo_style    custom step temp pe etotal epair emol press lx ly lz vol pxx pyy pzz pxy pxz pyz enthalpy

restart 	${out_freq3} restart.lmp.${pid} restart2.lmp.${pid}
restart 	1000 restart.lmp.${pid} restart2.lmp.${pid}
restart 	1000 restart.lmp.0 restart2.lmp.${pid}
restart 	1000 restart.lmp.0 restart2.lmp.0


include         in.dump
dump            myDump all atom ${out_freq2} dump.water.${pid}
dump            myDump all atom 10000 dump.water.${pid}
dump            myDump all atom 10000 dump.water.0
dump            myDump2 all dcd ${out_freq2} dump.dcd
dump            myDump2 all dcd 10000 dump.dcd
dump_modify     myDump append yes
dump_modify     myDump2 append yes


variable natoms 	equal  "count(all)"                        # NUMBER ATOMS
variable H      	equal  "enthalpy/v_natoms"                 # ENTHALPY-per-atom
variable Vol      	equal  "vol/v_natoms"                 # volume-per-atom
fix AVG all 		ave/time ${out_freq} 1 ${out_freq} v_Vol v_H file vol_enthalpy.dat
fix AVG all 		ave/time 1000 1 ${out_freq} v_Vol v_H file vol_enthalpy.dat
fix AVG all 		ave/time 1000 1 1000 v_Vol v_H file vol_enthalpy.dat


timer           timeout 10:00:00 every 1000
New timer settings: style=normal  mode=nosync  timeout=10:00:00

fix 		1 all shake 1e-6 200 0 b 1 a 1
       0 = # of size 2 clusters
       0 = # of size 3 clusters
       0 = # of size 4 clusters
     432 = # of frozen angles
  find clusters CPU = 0.154 seconds
fix             2 all nph tri ${pressure} ${pressure} ${pressureDamp}
fix             2 all nph tri 5750 ${pressure} ${pressureDamp}
fix             2 all nph tri 5750 5750 ${pressureDamp}
fix             2 all nph tri 5750 5750 1000
fix             3 all temp/csvr ${temperature} ${temperature} ${tempDamp} ${seed}
fix             3 all temp/csvr 249.87 ${temperature} ${tempDamp} ${seed}
fix             3 all temp/csvr 249.87 249.87 ${tempDamp} ${seed}
fix             3 all temp/csvr 249.87 249.87 100 ${seed}
fix             3 all temp/csvr 249.87 249.87 100 745823


run             250000
PPPM initialization ...
  extracting TIP4P info from pair style
  using 12-bit tables for long-range coulomb (../kspace.cpp:340)
  G vector (1/distance) = 0.37094289
  grid = 30 40 32
  stencil order = 5
  estimated absolute RMS force accuracy = 0.0037169689
  estimated relative force accuracy = 1.1193541e-05
  using double precision FFTW3
  3d grid and FFT values/proc = 5168 640
Last active /omp style is kspace_style pppm/tip4p/omp
Neighbor list info ...
  update every 1 steps, delay 7 steps, check yes
  max neighbors/atom: 2000, page size: 100000
  master list distance cutoff = 10.8154
  ghost atom cutoff = 10.8154
  binsize = 5.4077, bins = 7 5 5
  1 neighbor lists, perpetual/occasional/extra = 1 0 0
  (1) pair lj/cut/tip4p/long/omp, perpetual
      attributes: half, newton on, omp
      pair build: half/bin/newton/tri/omp
      stencil: half/bin/3d/tri
      bin: standard
Per MPI rank memory allocation (min/avg/max) = 9.434 | 9.439 | 9.445 Mbytes
Step Temp PotEng TotEng E_pair E_mol Press Lx Ly Lz Volume Pxx Pyy Pzz Pxy Pxz Pyz Enthalpy 
19000000    262.61287   -6314.6632   -5639.1076   -6314.6632            0    5273.9519    23.453462    21.391911    21.747259    10910.912    3855.8168    5319.3672    6646.6716   -559.83007    134.89115    1990.8143   -4799.8929 
19001000    244.18669    -6314.451   -5686.2956    -6314.451            0    5982.7164    23.147596    21.563749    21.829783    10896.314     4614.986    6525.4034    6807.7597     729.7445     1066.477   -265.33856   -4735.5728 
19002000     246.0173   -6309.5279   -5676.6634   -6309.5279            0    5612.1215    23.269341    21.390682    21.927581    10914.389    6773.9097    6059.0501    4003.4047   -1395.2403    -206.2626   -1179.1277    -4783.353 
19003000    245.81047   -6318.1179   -5685.7854   -6318.1179            0    4709.5908    23.551362    21.390534    21.676985     10920.35    4703.7654    4990.2843    4434.7227   -315.43294      1304.73   -570.01075   -4935.7261 
19004000    233.31463   -6324.9941   -5724.8065   -6324.9941            0     4937.872    23.342636    21.503595    21.776176    10930.564    5275.5093    4318.3822    5219.7246    -1038.652    1273.4586    772.28675    -4937.655 
19005000    248.54079   -6341.4086   -5702.0526   -6341.4086            0    4575.7779    23.423218    21.428223    21.863132    10973.498    4779.5799    4378.2325    4569.5213   -423.52407    173.70421   -905.12286   -4969.7578 
19006000    250.44293   -6312.4075   -5668.1583   -6312.4075            0    5328.1992    23.495352    21.279667    21.873148    10935.989    4795.5142    6320.6429    4868.4405   -591.73865    1284.5976    246.56887   -4818.3629 
19007000    254.38093   -6354.9771   -5700.5976   -6354.9771            0    5526.2807    23.194297    21.638809    21.607652    10844.815    5562.6419    6365.5262     4650.674    23.937709   -18.638837   -1200.2606   -4826.5583 
19008000    251.53804   -6313.3217   -5666.2554   -6313.3217            0    7443.0429    23.441762    21.237925    21.726773    10816.769    7599.5612     7830.117    6899.4504   -1057.4126   -1185.0863   -748.18658   -4492.1043 
19009000    258.96085   -6297.2182   -5631.0572   -6297.2182            0    7280.3014     23.07954    21.495993    21.796317    10813.537    7859.4947    6336.0651    7645.3444   -1108.7031   -106.20968    1259.7968    -4482.922 
19010000    265.35946   -6345.0977   -5662.4767   -6345.0977            0    5423.2296    23.303426    21.592312    21.586416    10861.741    4930.8223    5965.7403    5373.1261   -618.45303     641.3871   -119.13353   -4803.3972 
19011000    249.36477   -6329.4428   -5687.9671   -6329.4428            0     5393.867    23.477755     21.35861    21.769133     10916.18    5089.7675    5343.7398    5748.0937    614.72351   -464.07281   -53.674646   -4829.2566 
19012000      250.988   -6286.3851   -5640.7338   -6286.3851            0    5860.3605    23.359677    21.486987    21.711886    10897.827    4769.6932     5729.554    7081.8343   -375.94578    435.22714   -1334.1731   -4709.3254 
19013000    255.11073   -6312.9955   -5656.7387   -6312.9955            0    5666.4582    23.408926    21.624513    21.452436    10859.365    4666.6723    5101.3142    7231.3881    850.71307    1198.1168    47.895769   -4759.3264 
19014000    249.89661   -6344.2748    -5701.431   -6344.2748            0    6550.1221    23.261357    21.403533    21.764371    10835.941    7502.4472    6852.0165    5295.9025   -16.742917   -430.03682    579.21839   -4666.3081 
19015000    257.94446   -6340.3482   -5676.8018   -6340.3482            0    5268.0489      23.3623    21.326911     21.90938    10916.255    5306.4329    6379.1477    4118.5662    251.62585     345.1509    998.04396   -4838.1159 
19016000    244.27314   -6312.4132   -5684.0355   -6312.4132            0    6322.2448    23.370493    21.517111    21.621149     10872.53    6785.1711      5072.36    7109.2032   -277.76063    959.88128   -229.00078   -4681.5506 
19017000    248.43925   -6319.0485   -5679.9537   -6319.0485            0    6728.5291    23.283206    21.497114    21.683549    10853.088    7028.8115    5876.8779     7279.898   -961.07685    509.43283   -1382.6832   -4614.9544 
19018000     240.3156   -6336.3382    -5718.141   -6336.3382            0    5057.2953    23.419864     21.41261    21.773329    10918.898    4466.4173    5306.7837     5398.685   -31.561797    731.04771    434.45927   -4912.8126 
19019000    239.59707   -6303.4463   -5687.0974   -6303.4463            0    6642.3814    23.314375    21.541106    21.593298     10844.53    7384.8736    5136.4355    7405.8352   -219.09941   -392.33553    63.279578   -4636.5626 
19020000    246.85703   -6330.9087    -5695.884   -6330.9087            0    6870.7782    23.438662    21.168262    21.860252     10846.09    6113.4837    8438.3454    6060.5054    375.50535    725.56374    1198.1564   -4609.0705 
19021000    249.23201   -6357.5664   -5716.4322   -6357.5664            0    5701.2632    23.051906    21.592696    21.845797    10873.807    6207.8373    6844.9117    4051.0407   -476.92194    452.14285     23.82891    -4812.307 
19022000    255.90581   -6334.6745   -5676.3724   -6334.6745            0    6341.8621    23.369085    21.478602    21.626514     10855.11     7552.368    5742.0031    5731.2152    645.69729   -558.78564    430.05323   -4672.3881 
19023000    246.35041   -6334.7768   -5701.0554   -6334.7768            0    5436.2507    23.506009    21.426703    21.659566    10908.976    6125.1658    4661.1375    5522.4488    44.932791   -1015.0766    60.773662   -4836.1684 
19024000    263.91667   -6296.8979   -5617.9883   -6296.8979            0    4781.6683    23.301162    21.663152    21.755549    10981.692    5408.4154    4389.2491    4547.3403    868.95429    694.21282     577.7827    -4852.172 
19025000    252.29122   -6301.6376   -5652.6338   -6301.6376            0    4646.1835     23.27101    21.428836    21.943928    10942.793    5661.3247    4229.0055    4048.2203    677.13063   -588.32803    343.47277   -4911.1522 
19026000    250.84035   -6299.5418   -5654.2703   -6299.5418            0    5300.6813     23.52071    21.312619    21.759011     10907.53    4072.2535    5497.2654    6332.5252    1181.1063   -460.83536    924.85363   -4811.0637 
19027000    263.50244    -6344.945    -5667.101    -6344.945            0    5940.8939    23.328126    21.668447    21.520874    10878.464    6079.6149    4051.4294    7691.6373    1575.9214   -381.61502   -202.32154   -4724.5709 
19028000    250.92786   -6360.6104   -5715.1138   -6360.6104            0    5027.1563    23.420249    21.429131    21.714892    10898.175    5150.9847    5423.1062    4507.3779    62.223666   -785.39057   -1100.5142   -4916.1041 
19029000    242.65161   -6330.6366   -5706.4301   -6330.6366            0    5291.9438    23.373469     21.43667    21.785737    10915.729    6028.2059    5239.3613    4608.2642   -166.03513   -540.40812   -953.58112   -4863.9807 
19030000    263.98129   -6321.5794   -5642.5036   -6321.5794            0    5094.8703    23.411309    21.488844    21.681127    10907.384     4480.154    6683.4179    4121.0391     751.3046     426.0541    73.426834   -4832.0473 
19031000    253.14117   -6310.7736   -5659.5834   -6310.7736            0    4819.3677    23.453394    21.439012    21.776264    10949.489    4643.5903    6032.7499     3781.763   -217.47533    10.642103     171.0102   -4889.9927 
19032000    251.04272   -6314.0485   -5668.2564   -6314.0485            0     6000.722    23.358847    21.404736    21.807293    10903.427    6562.0458    5669.3245    5770.7956   -195.19507    485.11408   -85.851739   -4714.0498 
19033000    249.67595    -6323.802   -5681.5258    -6323.802            0    6081.0516    23.380358    21.620574    21.530198    10883.445    5175.1468    6213.8495    6854.1586    1666.5962   -2500.9686   -1335.9556   -4716.3177 
19034000    251.58754   -6345.2695   -5698.0759   -6345.2695            0    5406.1523    23.420423    21.379577    21.796683    10914.008    5473.0536    6793.8884    3951.5147    2111.6678   -1129.8668   -983.38093   -4837.5807 
19035000    243.82312     -6340.71   -5713.4898     -6340.71            0    6846.6447    23.267377    21.492624    21.666019    10834.678    5510.5307    7195.4596    7833.9438    1792.3771    -190.5569    84.507672   -4631.6333 
19036000    241.61529   -6324.0086    -5702.468   -6324.0086            0     6258.286     23.34444    21.415826    21.663599    10830.509    7451.2194     7111.094    4212.5445    329.29078   -68.384118   -751.11225   -4713.9601 
19037000     251.4394   -6321.3082   -5674.4956   -6321.3082            0     5947.034    23.607251    21.195961    21.688975    10852.694     4292.532    7360.4517    6188.1184    1519.5006   -582.41972   -746.75875   -4733.2264 
19038000    242.28962   -6305.1966   -5681.9213   -6305.1966            0    5886.1251    23.238882    21.598084    21.705873     10894.51    7329.9649    5011.0245     5317.386    287.27712   -752.90811   -174.73644   -4746.7028 
19039000    243.38553   -6309.7341   -5683.6397   -6309.7341            0    4537.5867    23.579529    21.463278    21.612445    10937.928    3331.3151    5839.2362    4442.2087   -484.52601    820.14029   -735.02407   -4959.8108 
19040000    235.18498   -6306.6842   -5701.6852   -6306.6842            0    5609.6014    23.415664    21.445049    21.682261    10887.749    4771.7965    5723.1153    6333.8924    642.10328   -728.12165   -150.16382   -4810.9554 
19041000    245.97939   -6334.2576   -5701.4906   -6334.2576            0    6041.6387    23.218957    21.612552    21.675547    10877.243    6604.1579    5982.4209    5538.3374    367.85731   -672.10198    472.65277   -4743.0847 
19042000    241.69813   -6308.9488   -5687.1951   -6308.9488            0    6978.8907     23.38062    21.340537    21.718791    10836.699     7435.445    6403.0048    7098.2223   -623.03304   -555.15085    436.90235   -4584.2362 
19043000    259.99549   -6336.9187   -5668.0962   -6336.9187            0    6691.2163     23.14527    21.388552    21.906839    10844.845    7363.8572    7901.5353    4808.2564    28.436363    -807.4493    5.9449614   -4609.8071 
19044000    255.50613   -6336.6427   -5679.3687   -6336.6427            0    5855.6339    23.245582     21.56155    21.688163    10870.341    5040.4858    7453.3682    5073.0476    433.55842   -27.507626   -1108.7189   -4751.0589 
19045000    240.76849   -6374.0169   -5754.6547   -6374.0169            0    5741.3971    23.564648    21.365852     21.57482    10862.464    5081.7445    4544.7128     7597.734    -721.0074    348.79377    753.04854   -4845.1146 
19046000    249.32014   -6318.6951   -5677.3342   -6318.6951            0    6395.0533    23.195177    21.686523    21.680023    10905.544    6139.6775    6947.5087    6097.9736    61.653333    271.09123   -497.82821   -4660.2254 
19047000    246.09978    -6345.501   -5712.4244    -6345.501            0    6423.4381    23.260953    21.362523    21.865276    10865.132    7336.5044    6384.7936    5549.0161   -138.45627   -345.17984   -247.77333   -4694.5869 
19048000    252.69564   -6316.4343   -5666.3902   -6316.4343            0    6343.8019    23.375011    21.412519    21.726757     10874.63    6699.2253    7179.3563    5152.8241   -1841.1008   -175.99214    37.340178   -4660.2929 
19049000    259.81432   -6323.9257   -5655.5692   -6323.9257            0    7677.2814    23.258456    21.529142    21.494309    10762.944    8050.3216    6905.4628    8076.0598    441.60716   -510.61311    1486.4268   -4450.4932 
19050000    251.04148   -6330.2733   -5684.4844   -6330.2733            0    6043.4323    23.290562    21.466778    21.749594    10874.217    6976.4966    6053.0482    5100.7519    277.27018   -63.600876    678.55768   -4726.0607 
19051000     251.6974   -6300.7493   -5653.2731   -6300.7493            0    5203.3902    23.434158     21.43227    21.742306    10920.012    4588.6066    5576.7808    5444.7833   -163.91108     -307.685    242.64554   -4824.5958 
19052000    253.81104   -6370.4091   -5717.4957   -6370.4091            0    4293.7387    23.426945    21.580339    21.594939    10917.568    3608.3785    4780.3361    4492.5015    21.079494   -248.37328   -2069.4406     -5033.84 
19053000    241.03482   -6330.4002   -5710.3528   -6330.4002            0    6237.1723    23.335044    21.391263    21.822791    10893.197    5185.1563    6786.0346    6740.3258    94.182971    992.25191     386.3206   -4719.4776 
19054000    257.73091   -6334.7064   -5671.7094   -6334.7064            0    5126.5285    23.349112    21.445182    21.787422    10909.527    4437.0424    5349.6521    5592.8911    759.88375    91.792168   -752.96861   -4856.0568 
19055000    258.36007   -6332.6061   -5667.9906   -6332.6061            0    6610.0406    23.302957    21.518193    21.592586    10827.333    8092.2982    4672.1246    7065.6991     173.5533    125.51541    547.98889   -4624.2285 
19056000    265.94852     -6329.65   -5645.5137     -6329.65            0     5931.419    23.420793    21.358117    21.778653    10894.205    6206.6849    6634.1169    4953.4553    232.30834   -495.29157   -1474.3795    -4703.125 
19057000    249.29327    -6323.209   -5681.9173    -6323.209            0     5675.217    23.289074    21.501367    21.739701    10886.089    5497.4017    5923.2628    5604.9866    404.56737   -82.217737   -680.42271    -4780.906 
19058000    247.73634   -6324.5109   -5687.2243   -6324.5109            0    5600.0225    23.370076    21.512214    21.656608    10887.688    5576.3589    6011.4435    5212.2651    525.05377   -1151.0162   -341.51988   -4798.0205 
19059000    254.42949   -6327.0078   -5672.5034   -6327.0078            0    5537.8145     23.25019    21.464289    21.793719    10876.129    5056.6935    6370.8546    5185.8952    846.01999   -332.95942    1051.9847   -4794.1109 
19060000    254.25774   -6376.2368   -5722.1743   -6376.2368            0    5137.4075    23.399506    21.429801    21.701115    10881.954    4056.6176     6200.711    5154.8939   -103.88337    142.49104    163.31641   -4906.8568 
19061000    252.87037    -6345.332   -5694.8384    -6345.332            0    4540.7045    23.441064    21.582058    21.676758    10966.411      3758.05     5192.435    4671.6286   -839.15818    564.83191   -507.06616    -4968.626 
19062000    266.64567   -6362.2129   -5676.2832   -6362.2129            0    3983.0149    23.421534    21.482345    21.786844    10962.039    4660.6602    3415.8852    3872.4992    153.97461   -861.92236    369.64764   -5039.5182 
19063000    260.24231   -6308.4081   -5638.9506   -6308.4081            0    4933.9433    23.456984    21.431722    21.687929    10903.033    4871.9404    5296.5705    4633.3189   -102.66058   -923.39768   -631.33928   -4854.4065 
19064000    259.19346   -6361.7107   -5694.9513   -6361.7107            0    5443.8736    23.479142    21.530059    21.580177    10908.937    5193.4739    4905.9148     6232.232    534.24455     267.1526    645.62687   -4828.8546 
19065000    239.92484   -6356.8598   -5739.6678   -6356.8598            0    4604.6689    23.341444    21.423184    21.845103    10923.601    4720.9156    4475.1276    4617.9636    909.05002     167.4596    522.86447   -5006.1002 
19066000    258.22844   -6317.3574   -5653.0805   -6317.3574            0    6133.2045    23.353464    21.549237    21.659667    10900.213    6663.2404    5121.7273    6614.6458   -1002.5432    121.08142    703.13196   -4678.0946 
19067000    254.00727   -6370.0184   -5716.6002   -6370.0184            0    6541.0117    23.466758    21.403504    21.486634     10792.11    5708.4481    6364.2741    7550.3128    1078.5461    227.03544    854.25102   -4687.0983 
19068000     234.6306   -6314.2091   -5710.6362   -6314.2091            0    5543.4243    23.274159    21.545503    21.741519     10902.36    6139.0692    4803.5217    5687.6819    817.44643    611.94081    232.86292   -4829.2332 
19069000    239.86339   -6357.2788   -5740.2448   -6357.2788            0    5505.2799    23.284961    21.435053    21.792656    10877.028    5783.3868    4537.2595    6195.1935    44.765654   -490.12147   -630.44112   -4866.9407 
19070000    246.57748   -6333.8923   -5699.5868   -6333.8923            0    6023.7495    23.445343    21.311099    21.828825    10906.686    5562.8036    6639.2673    5869.1776    41.539501     604.8141   -320.40324   -4741.4322 
19071000    256.02403   -6343.6125   -5685.0063   -6343.6125            0    5271.1264    23.290872    21.686404      21.5596    10889.652    5058.6548    3837.1484    6917.5762   -775.12058    418.15827    217.32857   -4847.8755 
19072000    260.97128    -6304.351   -5633.0183    -6304.351            0    5847.0376    23.460112    21.473859    21.632142    10897.822    5452.5649     6397.973    5690.5748   -1233.3624    293.84199   -318.40118   -4703.7278 
19073000    256.94469   -6370.8423   -5709.8677   -6370.8423            0    6117.8764    23.247377    21.410739    21.773726    10837.731    6210.9977    7007.1183    5135.5133   -311.90652    1008.5462   -436.60456   -4742.8933 
19074000    261.02579   -6351.1211   -5679.6482   -6351.1211            0    5903.4673    23.312747    21.473668    21.677506     10851.98    6080.6691    5654.1258     5975.607   -123.46348    1860.5199    1796.0629   -4745.3359 
19075000    245.50619   -6310.9043   -5679.3546   -6310.9043            0    6166.3432    23.310218    21.375363      21.8456    10884.885    5529.8321     6385.206    6583.9916    566.03487    411.31001    697.96935   -4700.4792 
19076000    243.47635   -6304.4491    -5678.121   -6304.4491            0    6433.1874    23.387533    21.484432    21.635256    10871.021    5495.4476    6299.4002    7504.7144   -600.49134    756.63998   -292.36554   -4658.1862 
19077000    245.47407   -6334.8226   -5703.3556   -6334.8226            0    5830.3787    23.423584    21.436269    21.640012    10865.758    6097.1992      5809.78     5584.157    -540.0512    254.99922   -520.78702   -4779.4391 
19078000    250.79691   -6289.7585   -5644.5987   -6289.7585            0    5352.5787     23.38784    21.418535    21.837573    10939.167    4789.5367    6535.5505    4732.6489   -685.79711    1432.6857   -13.006812   -4790.6669 
19079000    247.50889   -6347.8593   -5711.1578   -6347.8593            0    5177.6413    23.321331    21.544006    21.650675    10878.054    5940.1001    4159.9329    5432.8909   -895.48451    218.89812    611.02275   -4889.7495 
19080000    261.03847   -6315.7358   -5644.2303   -6315.7358            0    6361.6342    23.304704     21.35669    21.803185    10851.692    7282.9035    6980.6568    4821.3424   -741.03758    247.46142    134.10407    -4637.433 
19081000    248.87823   -6342.1773   -5701.9532   -6342.1773            0    6962.4281    23.306228     21.36398     21.74316    10826.219    8465.5025    6711.0985    5710.6835    -596.5037   -271.58475    367.58088   -4602.6602 
19082000    246.50244    -6327.831   -5693.7185    -6327.831            0    7022.8713    23.158215    21.534197    21.695703    10819.507    7711.1314    7131.7442    6225.7383    52.618033   -601.85971   -777.75456   -4585.5697 
19083000     246.5543     -6316.01   -5681.7641     -6316.01            0    6128.6958    23.480541    21.376215    21.624574    10853.916    5320.1709    5467.0037    7598.9128   -35.909442   -272.90832    233.06158    -4711.633 
19084000     257.4657   -6292.8508    -5630.536   -6292.8508            0    3746.4669    23.436013     21.48517    21.856649    11005.407    4395.2815    2961.0415    3883.0775   -751.11518   -751.71125    723.28153   -5029.2184 
19085000    254.93601   -6361.4017   -5705.5944   -6361.4017            0    4121.2195    23.259391    21.600113    21.780877    10942.832     4940.123    2476.9106    4946.6249   -387.81499   -823.03725    255.79719    -5047.889 
19086000    249.56042   -6344.7379   -5702.7589   -6344.7379            0     5025.985    23.476612     21.37346    21.685851    10881.449    3421.2112    5119.3322    6537.4117   -948.98142    888.64625    554.68844   -4905.1614 
19087000      244.709   -6348.0075   -5718.5085   -6348.0075            0    6060.3253    23.256982    21.453569    21.802503    10878.255    6462.4716    6477.4295    5241.0747   -2008.2272     1215.647   -317.62257   -4757.0489 
19088000    250.29682   -6326.6105   -5682.7372   -6326.6105            0    4519.0476    23.322916    21.477664    21.833394    10936.822    6247.4983    3245.2774    4064.3671    262.73868   -469.41429   -60.349267   -4961.9386 
19089000    246.05574   -6365.5782   -5732.6148   -6365.5782            0    5371.8149     23.41943     21.37335    21.711215    10867.585     5307.528    5493.5181    5314.3984   -376.03779   -66.595259    -319.9502    -4881.222 
19090000    251.32521    -6357.352   -5710.8332    -6357.352            0    6136.6854    23.313337    21.488452    21.641699    10841.789    5050.7508    6578.2407    6781.0647   -612.41053    2045.3938   -884.91339   -4740.5228 
19091000    246.43992   -6350.5154   -5716.5637   -6350.5154            0    5731.4943     23.35884    21.410507    21.759319    10882.371    5771.8368    6049.9152    5372.7308   -273.39178   -535.16145   -818.93694   -4806.9285 
19092000      247.257   -6319.3755   -5683.3219   -6319.3755            0    4753.4203    23.314577    21.610725    21.635752    10901.064    4411.1781    4796.1349     5052.948    420.38504    -324.0228   -599.36495   -4927.6192 
19093000    253.16308   -6335.9918   -5684.7452   -6335.9918            0    4452.8136    23.404084    21.422131     21.76608    10912.758    4543.9367    4719.4047    4095.0995   -260.27279    647.68237    1387.9907   -4976.0737 
19094000    255.80944   -6335.3704   -5677.3162   -6335.3704            0    6200.0882    23.221335    21.399077    21.903013    10883.938    6991.9308     6902.527    4705.8068   -546.17713   -563.29286    803.61198   -4693.1696 
19095000    238.18064   -6338.9462    -5726.241   -6338.9462            0    6717.5169    23.292284    21.450617    21.623564    10803.864    7332.9519    6933.2358    5886.3629   -931.92308    484.84033    -10.39907    -4667.807 
19096000    249.04002   -6298.2011   -5657.5608   -6298.2011            0    6273.2706    23.449962    21.448431    21.669721    10899.109    6545.4503    6938.4314      5335.93   -536.98075    223.49731   -28.866452   -4660.4099 
19097000    251.82537   -6338.1784    -5690.373   -6338.1784            0    6677.5597    23.171837    21.425181    21.828958    10837.222    7548.0284    6409.5897    6075.0611   -540.23165   -1504.2606   -322.25913   -4634.9862 
19098000    244.84553   -6361.7623   -5731.9121   -6361.7623            0    5770.7458    23.410686    21.295628    21.774414    10855.531    5902.4162    6047.9038    5361.9172     517.1416   -131.93399   -91.730687   -4818.3062 
19099000    246.97303   -6314.2685   -5678.9454   -6314.2685            0    5302.1308    23.466056    21.450483    21.673001    10909.283    4276.7897    5811.3521    5818.2505    120.09719    877.79917    -105.1761   -4835.3727 
19100000    245.00761   -6337.2744   -5707.0073   -6337.2744            0       6974.5    23.244718    21.427112    21.734387    10825.185    8387.6415    6984.0565    5551.8021   -562.67846   -436.55664   -1727.0615   -4605.9136 
19101000    243.90913   -6348.3147   -5720.8734   -6348.3147            0    5658.9729    23.511023    21.306846    21.751971    10896.557    4756.6137    7428.7593    4791.5456   -268.97032       256.63   -1049.0908    -4821.577 
19102000    250.53452   -6337.0515   -5692.5667   -6337.0515            0    5043.3081    23.343258    21.518297    21.704193    10902.172    4493.5618    5555.5567    5080.8057    1578.7948    644.77438    410.71427   -4890.6958 
19103000    254.62942   -6320.1398   -5665.1211   -6320.1398            0    4591.6854    23.301678    21.557306    21.726547     10913.71     6073.629    3874.8698    3826.5574   -1070.7305    -5.218648   -249.45127   -4934.2843 
19104000    261.36878   -6353.2019   -5680.8466   -6353.2019            0     4488.332    23.569598    21.203394    21.904441    10946.864    3357.8934    5997.2071    4109.8956   -532.83156   -1187.0446   -77.357879   -4964.2899 
19105000    250.05163   -6315.5822   -5672.3396   -6315.5822            0    5248.1711     23.20845    21.697516    21.688684    10921.678    5570.0462    4578.0013    5596.4658    529.60851   -93.930647   -211.55058   -4836.4032 
19106000    243.18036   -6327.1606    -5701.594   -6327.1606            0    5868.0999    23.459543    21.463558    21.634001    10893.266    5032.9903    6046.2057    6525.1037   -15.388654    519.74517    332.92856   -4769.3459 
19107000     244.3345   -6327.5167   -5698.9811   -6327.5167            0    5251.1692     23.53764    21.374406    21.695467    10915.056     5229.666    5813.2741    4710.5674    1469.7707   -657.84707   -370.88695   -4863.0743 
19108000    247.99979   -6334.1469   -5696.1826   -6334.1469            0    4393.6021    23.217248    21.747276    21.681862     10947.43     4591.156    4255.8741    4333.7763   -719.99755    1632.4745   -906.46243    -4994.713 
19109000    239.78133   -6330.5377   -5713.7148   -6330.5377            0    4044.6119    23.708215    21.374321    21.627376    10959.608    1645.6933    4473.9288    6014.2136    77.549459    741.92863    262.06231   -5067.2457 
19110000    238.93703   -6320.8558   -5706.2049   -6320.8558            0    5818.5702    23.267122     21.46597    21.786677    10881.385    7145.8286    5372.3462     4937.536   -224.32325   -1481.8015   -1233.0915   -4782.8337 
19111000    255.45334   -6342.0445   -5684.9064   -6342.0445            0    5044.9481    23.249747    21.521194    21.780763    10898.273    6338.5887    5472.3415    3323.9141   -793.20577    122.91365   -1126.7819   -4883.0617 
19112000    245.60325   -6310.4619   -5678.6624   -6310.4619            0     6153.374    23.443258    21.430761     21.58545    10844.678    6162.2563     6146.515    6151.3508   -1018.4217   -166.08894   -209.73248    -4705.454 
19113000    254.65811   -6340.2113   -5685.1188   -6340.2113            0    7025.6103    23.267142    21.443544    21.722544    10838.028    7969.3241    7883.8539    5223.6528    231.57914    -186.7784   -982.71486   -4574.6401 
19114000    256.33544   -6330.9439   -5671.5366   -6330.9439            0    6838.8559    23.245185    21.444791    21.763651    10848.922     8055.881    7646.5832    4814.1035     412.5168    -1664.898    -99.90244   -4589.4901 
19115000     244.4073   -6300.2095   -5671.4866   -6300.2095            0    6534.5791    23.498327    21.461215     21.57022    10877.919     6115.609    6162.1795    7325.9488    477.12898   -1179.2464     566.0691   -4634.8194 
19116000    246.94342    -6367.552   -5732.3051    -6367.552            0     4579.467    23.326849    21.572132    21.632999    10885.939    4326.3238    4021.3117    5390.7654    214.07617   -381.23038   -477.17939   -5005.2677 
19117000    228.80841   -6345.6409   -5757.0452   -6345.6409            0    4163.7516    23.461691     21.48506    21.747043    10962.159    4418.2169    4559.2149     3513.823   -763.20038   -944.29896    -1388.661   -5091.3785 
19118000    246.89394   -6359.3747    -5724.255   -6359.3747            0    5888.9883    23.338008    21.451427      21.7571    10892.335    6669.8419    6130.2401     4866.883    176.14211   -828.81719   -91.444743   -4788.7684 
19119000    250.28559   -6345.4163   -5701.5719   -6345.4163            0    5793.9233    23.324299    21.523262    21.643281    10865.251    5403.6078     6206.123    5772.0391    460.08124   -1502.6684   -1273.8271   -4783.4752 
19120000    240.96708   -6311.4135   -5691.5403   -6311.4135            0    5552.3179    23.479816    21.392065    21.712425    10905.755    4781.9936    7085.8712     4789.089    575.65081   -775.10444   -1583.0894   -4808.4483 
19121000    243.65886    -6321.534   -5694.7364    -6321.534            0    6314.6721    23.258284    21.485008    21.754504    10870.821    6079.4464    7671.3206    5193.2492    1239.8516     105.3809    228.43222   -4693.6097 
19122000    254.08937   -6301.5425    -5647.913   -6301.5425            0    4980.1217    23.364492     21.61806    21.606384    10913.277    4428.7437    4759.3796    5752.2418    575.47696    373.77743   -338.87114   -4855.2821 
19123000    243.64126   -6328.3905   -5701.6382   -6328.3905            0    5924.5497    23.413863    21.424219     21.72911    10899.837    5407.2956    4746.0938    7620.2597    735.98413   -702.61705   -534.19654   -4759.8544 
19124000    255.35043   -6335.6391   -5678.7656   -6335.6391            0    6826.1096    23.311062    21.587235    21.590798    10864.951    6285.7524    6647.0384     7545.538    -56.47169    93.078356    926.40164   -4597.1401 
19125000     253.8766   -6309.3897   -5656.3076   -6309.3897            0    6890.7408    23.306625    21.524823    21.617888    10845.067    8338.0363    5454.3037    6879.8822    -1619.876   -731.23949    243.19611   -4566.4392 
19126000     252.1976   -6334.8389   -5686.0759   -6334.8389            0    6344.0028     23.37198    21.468988    21.591021    10833.787    5415.7135    6743.7949    6872.5001   -1110.8003     310.5181   -371.77189   -4683.7256 
19127000    252.69636   -6342.4367   -5692.3907   -6342.4367            0    6417.9497    23.290447    21.492181    21.700395    10862.404    8062.8938    4982.7993    6208.1559   -888.04207   -945.12108   -102.21691   -4675.6782 
19128000    249.42519   -6332.5588   -5690.9277   -6332.5588            0    5575.1306    23.308113    21.371395    21.898432    10908.198    5048.3764    7210.1094     4466.906    901.90176    346.92267    307.56724   -4804.0088 
19129000    255.63275   -6302.2534   -5644.6537   -6302.2534            0     6135.778    23.481833     21.31829    21.760936    10893.361    5064.1395    7259.6417    6083.5528     1153.228   -256.34453   -981.12763   -4669.8718 
19130000    235.36584   -6341.5394   -5736.0751   -6341.5394            0    5681.1109    23.367714    21.491468    21.648508    10872.021     5165.495    4491.1689    7386.6686    805.42488   -185.28324    510.01382   -4835.2937 
19131000    248.02147   -6371.6979   -5733.6778   -6371.6979            0    5206.5814    23.380498    21.403103    21.748838    10883.449    5527.1263    4597.4171    5495.2008    50.412054   -706.18284    -340.8925   -4907.2687 
19132000    251.97017   -6303.1554   -5654.9775   -6303.1554            0     5456.303    23.360707    21.409455    21.835085      10920.6    5581.8529    6654.0782     4132.978    409.37669    137.72542   -700.51104   -4785.9754 
19133000    255.00301   -6330.8663   -5674.8866   -6330.8663            0     5583.538    23.519277    21.457159    21.612036    10906.662    3942.2348    6476.8166    6331.5626    1592.9086    25.045329    916.79357   -4786.7552 
19134000    236.69639   -6335.7096   -5726.8226   -6335.7096            0    5065.2184     23.46007    21.371535    21.759343     10909.65    5239.4063    5418.1915    4538.0574    1002.0437   -1046.0059   -254.05358   -4920.9157 
19135000    238.05357   -6342.6397   -5730.2614   -6342.6397            0    6784.5043    23.113189    21.524806     21.77984    10835.621    7968.9215    7582.0771    4802.5144     85.80151   -438.34952   -1436.7879   -4658.1305 
19136000    255.91412   -6321.3821   -5663.0587   -6321.3821            0    6426.3665    23.429176    21.430373    21.652651    10871.709    6021.2787     4688.867    8568.9538    67.658801    -882.8696     1121.059   -4644.1407 
19137000    249.28643   -6342.5049   -5701.2307   -6342.5049            0    6096.5898    23.373387    21.510463    21.582844    10851.258     5739.329    7064.1761    5486.2643   -747.62863    1059.8251   -281.39269   -4736.4181 
19138000     245.2666   -6350.4674    -5719.534   -6350.4674            0    6247.9623    23.218633    21.436289    21.821421    10860.987    6570.0193    6936.6888    5237.1789    178.18244   -554.95523   -745.76421   -4729.8796 
19139000    254.88423   -6355.4829   -5699.8087   -6355.4829            0    7837.1297    23.359188    21.371206    21.570447    10768.269    7111.9769    8309.9665    8089.4457    1431.0701     981.4266    139.10173   -4469.0332 
19140000    252.81219   -6339.0274   -5688.6834   -6339.0274            0    5264.4218    23.475092    21.371771    21.720915    10897.476    4789.3793    5440.4847    5563.4015    153.03545    116.34171   -1184.6649   -4852.0167 
19141000    242.29858   -6337.1132   -5713.8149   -6337.1132            0    4507.5864    23.334284    21.379534    21.934517    10942.607      4004.03    5360.2671    4158.4623    1620.5505    886.05517    365.55398    -4994.464 
19142000    254.46087   -6346.5658   -5691.9808   -6346.5658            0    4950.5928    23.255094    21.558025    21.723786    10890.871     4362.084    5755.8389    4733.8554    757.73733    689.86293    652.11759   -4905.6673 
19143000    246.40119   -6325.1829   -5691.3309   -6325.1829            0    5277.5471    23.599624    21.246267    21.752457    10906.767    4167.4271    6006.1139    5659.1002    1320.1805   -233.82117   -253.95869   -4851.8631 
19144000     251.2904   -6350.6152   -5704.1859   -6350.6152            0    6192.7811    23.264049    21.481393    21.685044    10836.975    4819.0071    6761.1145    6998.2217    802.55044   -730.28108   -213.13879   -4725.4406 
19145000    259.76349   -6321.1519   -5652.9262   -6321.1519            0    6132.7807    23.305767    21.608075    21.607764    10881.514    6640.0691    6107.1605    5651.1124     178.6714   -391.40107    38.520194   -4679.6802 
19146000    247.23968   -6343.2946   -5707.2856   -6343.2946            0    5500.1477    23.602768    21.152521    21.780545    10874.113     3249.134    6954.1586    6297.1505   -791.32305    1454.0861   -1134.1484   -4835.0294 
19147000    244.02319    -6342.799   -5715.0642    -6342.799            0    7085.8537    23.040708    21.635771    21.713081    10824.047    8637.9125    6032.2934    6587.3554   -282.08492    981.41531   -267.07598   -4596.5082 
19148000    245.70802   -6350.6724   -5718.6035   -6350.6724            0    5082.1785     23.50402    21.451996    21.616791    10899.362    3985.1154    4635.8197    6625.6003   -1301.3733     1614.992   -774.46426   -4910.7607 
19149000    257.88266    -6329.797   -5666.4096    -6329.797            0    4700.9821    23.376261     21.47483    21.837895     10962.65    5081.0932    4388.5369    4633.3163   -218.73311   -676.38886   -480.33231   -4914.8212 
19150000    237.35539   -6324.3922   -5713.8099   -6324.3922            0    6193.5969    23.292846    21.572532    21.621138    10864.312    5575.0805    6115.1699    6890.5404    945.26864    1294.7377    537.62407   -4732.4664 
19151000     255.2196   -6312.6268     -5656.09   -6312.6268            0    7116.0884    23.427957    21.295605    21.725849    10839.298     5870.435    8336.0262    7141.8041    606.45958   -78.700737    1086.8321   -4531.1784 
19152000     242.6348   -6344.9905   -5720.8273   -6344.9905            0    5750.3686    23.366213    21.383723    21.702869    10843.982    4818.4251    5230.1435    7202.5371    657.63794    14.764953     667.9108   -4811.4159 
19153000    255.88194   -6316.3258   -5658.0851   -6316.3258            0    5776.3623    23.262124    21.663137     21.59303    10881.388       5972.5    4469.2257    6887.3614   -1148.7994    139.55388      68.3893   -4741.4117 
19154000    254.16894   -6344.4831    -5690.649   -6344.4831            0    4586.4251    23.559267    21.507981    21.569538     10929.55    3382.5636    5735.0739     4641.638    313.91479   -300.78564   -2191.9312     -4959.59 
19155000    245.87837   -6355.7677   -5723.2606   -6355.7677            0    5476.9431    23.234082     21.47369    21.841925    10897.406    5660.8175    5246.5028     5523.509    90.184298    911.69337     1020.313   -4852.8238 
19156000    232.82437    -6339.327   -5740.4005    -6339.327            0    5083.2613     23.34295    21.447569    21.715716    10871.963    5403.6875    4397.1323     5448.964    -82.82614   -352.27878    1021.4728   -4934.4168 
19157000    253.19623   -6366.1267   -5714.7948   -6366.1267            0    4808.9173    23.361905    21.485996    21.756642    10920.829    5565.6784    3609.6598    5251.4136   -389.60453   -221.28799   -63.160026   -4948.8829 
19158000     250.5629   -6363.3721   -5718.8143   -6363.3721            0    4887.7839    23.423151    21.539395    21.558746    10876.829    4960.4259    4171.1538     5531.772   -784.33481   -271.22916   -1495.1983   -4943.4779 
19159000    244.98736   -6313.1915   -5682.9764   -6313.1915            0    6767.9862    23.369318    21.342472    21.770441    10858.204      6228.12    7134.3149    6941.5237   -1445.7152    1066.8645   -368.23678   -4611.2268 
19160000    249.75289   -6345.5161    -5703.042   -6345.5161            0    5174.1596    23.298068    21.529247    21.738749    10903.936    6296.0108    4410.2653    4816.2027    460.06175   -342.51526    585.65524   -4880.2331 
19161000    245.81233   -6356.5922    -5724.255   -6356.5922            0    4921.2027    23.540779    21.358814    21.682775    10902.167    4796.1888    4405.0574    5562.3618   -1298.0213    141.57628    1701.2285   -4941.7989 
19162000    244.31959   -6323.2004   -5694.7031   -6323.2004            0    2956.7849    23.307839    21.592013     21.93862    11040.899    3991.9811    1664.0726    3214.3011    713.61325   -817.20789    94.360354    -5218.601 
19163000    244.93977   -6325.3355   -5695.2429   -6325.3355            0    6123.7439    23.320744    21.549475    21.545647    10827.761    5356.0404    5167.8167    7847.3746    541.35012    -295.6877     137.2073   -4728.2316 
19164000     253.3855   -6364.3973   -5712.5785   -6364.3973            0    6599.9929    23.303043    21.445517    21.578271    10783.651    6915.6465    6522.9877    6361.3444    306.93969   -304.07745   -789.89939   -4674.6077 
19165000    254.47722   -6342.2577   -5687.6306   -6342.2577            0    6971.8075    23.461814    21.162329    21.824227    10835.874    5163.4632    9246.2681    6505.6913   -765.09838    445.84138   -690.51414   -4585.8751 
19166000    260.17649   -6314.7119   -5645.4237   -6314.7119            0    5860.6047    23.225469    21.551512    21.710613    10867.117     7090.205    5430.0915    5061.5176    106.32916    83.821844    177.25163   -4716.6014 
19167000    252.20188   -6355.6899    -5706.916   -6355.6899            0    5115.7251    23.359075    21.451876    21.702214    10874.892    5124.9399    4248.5612    5973.6743   -929.47588    849.82717    313.67188   -4895.5663 
19168000    254.06023   -6320.8624   -5667.3079   -6320.8624            0    4971.5546     23.40447    21.233278    22.033961    10949.857    4564.3425    5652.9656    4697.3557   -347.10522    740.21637    430.98083   -4873.3883 
19169000    256.37631   -6302.2907   -5642.7782   -6302.2907            0     5954.921    23.237604    21.612674    21.724556    10910.654    6467.0984    5397.4829    6000.1817   -31.753157   -9.5661761   -167.61376   -4695.2271 
19170000    244.95931   -6324.3201   -5694.1772   -6324.3201            0    6212.2757    23.446752    21.497252     21.53909    10856.579    5927.9356    5807.3214    6901.5699   -245.80469   -874.51043   -418.51283   -4710.5747 
19171000    242.20939   -6311.5678   -5688.4989   -6311.5678            0    6389.6485    23.325774    21.323323    21.844251    10864.959    7043.4577    6687.2167    5438.2709   -183.21215    427.16344   -155.02683   -4676.0317 
19172000    255.30093   -6338.2375   -5681.4914   -6338.2375            0     5669.353    23.075412    21.557482    21.821666     10855.14    7917.5567    5102.6929    3987.8094   -774.72974   -458.26311     428.1705     -4783.97 
19173000    251.61979   -6349.8456    -5702.569   -6349.8456            0    6895.4925    23.530525    21.325947    21.535058    10806.523    5116.0964    7455.6151    8114.7659    496.83482    839.40919    755.38981   -4615.8252 
19174000    243.00202    -6336.677   -5711.5691    -6336.677            0    5670.8392    23.430286    21.399577    21.740077    10900.435    6425.6925    4986.2709    5600.5542   -1365.8109     569.2927   -415.16332   -4810.0663 
19175000    250.34879   -6337.0455   -5693.0385   -6337.0455            0    6052.1586    23.174146    21.638641    21.736811    10900.077    7432.2987    4869.5237    5854.6534   -253.82555   -523.77114   -1182.8862   -4730.9484 
19176000    232.69797   -6315.0724    -5716.471   -6315.0724            0    5787.8481    23.752947    21.244226    21.542599    10870.675     3579.275    7522.3558    6261.9135    525.79191   -1040.4379   -579.11442   -4798.8793 
19177000    259.56912   -6320.2834   -5652.5576   -6320.2834            0    6554.6525    23.303787    21.475261    21.710513    10865.133    7300.9688    5939.4867    6423.5018   -91.008751    293.10317    1271.4456   -4613.9283 
19178000    250.87649   -6322.3836   -5677.0192   -6322.3836            0    5548.0826    23.199864    21.512247    21.861022    10910.425    6859.4566    4808.1142     4976.677    970.26737    -1123.513    171.49886   -4794.2229 
19179000    248.58464   -6331.6572   -5692.1884   -6331.6572            0    5250.3814    23.469468    21.441128    21.682863    10911.074    6736.0232    4143.3629    4871.7582   -357.72482    102.15283    -110.7537   -4856.7119 
19180000    243.19011   -6309.0132   -5683.4215   -6309.0132            0    6137.6648    23.292974     21.55568    21.647041     10868.89    7868.6149    4256.2402    6288.1392   -298.89841    -538.4154   -640.35933   -4710.5303 
19181000    241.52845   -6310.9383   -5689.6211   -6310.9383            0    7072.2327    23.417234    21.279574    21.759941    10843.169     7065.728    8092.0054    6058.9648    307.07928   -367.48398   -1310.1039   -4571.2429 
19182000    247.62338   -6298.6817   -5661.6857   -6298.6817            0    7120.6981    23.380697    21.460336    21.621988    10848.997    5872.1196    7706.0239    7783.9507   0.96820928    652.28845   -220.27949   -4535.0382 
19183000    237.98602   -6320.4482   -5708.2437   -6320.4482            0     5569.752    23.249184    21.650787    21.581219     10863.19     6474.964    5501.8093    4732.4826    247.19948   -1167.2055    411.24605   -4825.8363 
19184000    248.48222   -6340.4212   -5701.2159   -6340.4212            0    5346.4543    23.504603    21.213357    21.787275    10863.387    4780.7663    6184.9066    5073.6899    988.93692   -1919.4261    820.94132   -4854.1699 
19185000    253.12229   -6314.3307   -5663.1891   -6314.3307            0    5737.8968    23.321121    21.571052    21.662473    10897.548    5650.3036    5675.8205    5887.5663   -300.34159   -225.54442   -857.98616   -4751.2677 
19186000    250.95648    -6313.123   -5667.5527    -6313.123            0     4775.504    23.346247    21.519375    21.842128    10973.412    5663.8997    3324.7881    5337.8242    81.223004   -135.67742   -151.51937   -4903.3004 
19187000    242.22515   -6355.8923   -5732.7828   -6355.8923            0    5052.9981    23.450269    21.365868    21.823471    10934.331    4642.3712    6358.7708    4157.8524    1191.0285   -411.91276   -560.37422   -4927.0014 
19188000    257.78646    -6322.616   -5659.4761    -6322.616            0    6288.0632    23.381638    21.513873    21.599976    10865.427    6919.0511    5090.9299    6854.2088    473.99729    -541.6252    1109.5126   -4663.0626 
19189000    244.69024   -6363.3235   -5733.8728   -6363.3235            0    6335.3445    23.407468    21.422462    21.554575    10808.447    6743.9468     5635.993    6626.0938    1039.0345   -1429.4984     1298.329   -4735.2317 
19190000    265.17261   -6311.8601   -5629.7197   -6311.8601            0    5151.0383    23.231116    21.432608    21.926939    10917.497    6209.4536    4774.3794    4469.2819   -272.45972   -278.22625    995.90072   -4809.5688 
19191000    253.15814   -6316.2009    -5664.967   -6316.2009            0    4918.5742    23.257937    21.596583    21.737651    10918.647    6478.2109    4416.2591    3861.2525   -273.49324    11.538082   -121.78601   -4881.7466 
19192000    251.98699   -6322.9331    -5674.712   -6322.9331            0    5735.6774    23.544029    21.350465    21.656217     10886.06     5264.017    5510.2567    6432.7583   -861.58897   -122.85386    540.39935   -4764.1042 
19193000    246.07269   -6334.1881   -5701.1811   -6334.1881            0    6207.4279    23.219118    21.597881    21.632672    10848.433    6440.9113    6245.8936    5935.4788   -341.21392   -678.92081   -1004.6003   -4719.0836 
19194000    247.12736   -6321.5063   -5685.7862   -6321.5063            0    5265.0192     23.40051     21.43409    21.726283    10897.222     6449.641    4634.8577    4710.5588   -1153.4651   -849.68905   -384.80578    -4849.044 
19195000    254.36672   -6325.0654   -5670.7225   -6325.0654            0    5431.3248    23.429329    21.375251    21.744746    10889.938    5154.5216    6236.9307    4902.5222   -39.178307   -175.55091    407.24992   -4808.1272 
19196000    244.68698   -6326.3189   -5696.8765   -6326.3189            0    6040.6402    23.191253    21.579831    21.704048     10862.08    7583.6044    5384.6375    5153.6789   -5.8142445    1044.9796     335.7559   -4739.9648 
19197000    243.90869   -6311.4307   -5683.9904   -6311.4307            0    4287.0027    23.459072    21.522793    21.769993    10991.773     3167.601    5264.2061    4429.2011    -711.8563    987.46409   -7.7232257   -4996.7679 
19198000    256.63375   -6331.8699   -5671.6952   -6331.8699            0    4591.5964    23.486499    21.439938    21.744456    10949.401    3257.0318    5617.6076    4900.1498   -246.16936   -52.615184    629.76271   -4938.4825 
19199000    247.04055   -6305.4926   -5669.9958   -6305.4926            0    4984.1633    23.228734     21.57859    21.818049    10936.152    5636.1177    5981.9649    3334.4072    18.172052    471.42906   -1308.0498   -4875.0589 
19200000    244.26531    -6337.128   -5708.7704    -6337.128            0    7264.6573    23.466319    21.356801    21.562446    10806.354    6270.5967    7351.8293     8171.546    1199.5644    -1280.434   -772.78773   -4563.8634 
19201000    254.76769   -6331.6547   -5676.2804   -6331.6547            0    7231.9961    23.400521     21.35115    21.616228    10800.074    7213.8268    6326.2182    8155.9432   -282.59462    1586.2132    327.27818   -4537.1832 
19202000     253.8215   -6333.7538   -5680.8135   -6333.7538            0    6498.0092    23.247709     21.42106    21.784296    10848.374    7168.4872    5742.4757    6583.0648    365.06207    632.06352   -354.45497   -4652.7478 
19203000     247.0262   -6385.3533   -5749.8934   -6385.3533            0    4547.9198    23.400637    21.343031    21.811718    10893.656    4414.8849    4408.5292    4820.3454   -543.03004    163.71004    931.91912   -5027.3527 
19204000    249.01885   -6347.1176   -5706.5318   -6347.1176            0    5454.3912    23.402142    21.606967    21.556683    10900.122    5918.1662    5640.8818    4804.1257    101.71131   -78.312887   -2330.4017    -4839.463 
19205000     250.2007   -6355.4873   -5711.8613   -6355.4873            0    5745.8494     23.31502    21.372749    21.810169     10868.14    5862.9645    7177.0257     4197.558    1296.9069   -334.40983   -363.15427   -4801.1403 
19206000    238.13499   -6340.6762   -5728.0884   -6340.6762            0    6362.5301    23.439116    21.374187    21.631633    10837.276    5363.8413    6185.7616    7537.9874    863.47958    674.36326    518.53657    -4722.487 
19207000    246.03937   -6350.3893    -5717.468   -6350.3893            0    5532.8631    23.128286    21.415767    22.007317    10900.444    6652.3287    5328.9347    4617.3259   -695.45579    553.28971    509.96474   -4837.8989 
19208000    246.61951   -6329.7916    -5695.378   -6329.7916            0    3128.9876    23.380119    21.609314    21.720934    10974.032    3953.3579    3568.9758    1864.6292    421.79421    579.96937   -72.367717   -5194.5992 
19209000    247.98129   -6311.9158    -5673.999   -6311.9158            0     5611.893    23.385084    21.459645    21.760686    10920.287    5815.9964    4841.8003    6177.8825   -1373.5939   -92.954707    809.99522   -4780.2422 
19210000    243.23124   -6337.3326    -5711.635   -6337.3326            0    5077.8333    23.310618    21.539264    21.725238    10908.102    4677.8928    5875.9756    4679.6316   -207.97487   -515.04329   -714.04354   -4903.8356 
19211000    249.87975    -6321.079   -5678.2785    -6321.079            0    6585.0411     23.30921    21.503781    21.637622    10845.558    7049.2563    6703.6534    6002.2136    -1475.811   -330.48326   -166.90406   -4636.7138 
19212000    242.56309   -6335.1595   -5711.1808   -6335.1595            0    7278.9981    23.337034    21.415131    21.615151     10802.51    6536.0494    8235.9842    7064.9606    42.250736   -605.82568   -696.38438   -4564.4217 
19213000    250.90661    -6340.792     -5695.35    -6340.792            0    6768.3427    23.275128    21.437243    21.714628    10834.613    5721.6094    7708.1924    6875.2262    887.32648    471.80411   -0.2836116   -4625.8726 
19214000    251.15736   -6330.1946   -5684.1076   -6330.1946            0    6743.5174    23.386745    21.255107    21.788007    10830.552     7051.303    7243.0823    5936.1668    -117.7404    393.96589    720.12265   -4618.9522 
19215000     243.6881   -6360.3963   -5733.5235   -6360.3963            0    4682.0637    23.238343    21.541632    21.825985     10925.91    5624.8171    3831.3797    4589.9943   -361.57782     860.4053    452.41167   -4987.4686 
19216000    239.28058   -6309.5231   -5693.9883   -6309.5231            0    6869.9453    23.477558    21.372708    21.597775     10837.31    4904.1369    7354.8309    8350.8681   -99.535082    831.50767    62.916159   -4608.1863 
19217000    255.07831   -6350.0552   -5693.8818   -6350.0552            0    6645.0552    23.292591    21.492085    21.661934    10844.102    6330.2384    7381.4431     6223.484    371.16059   -700.27101   -1183.0475   -4642.9657 
19218000    254.65983   -6320.0344   -5664.9375   -6320.0344            0    5309.3414    23.345221    21.615004    21.623239    10911.238     5164.385    5524.1489    5239.4903     942.6117   -1810.1993   -1563.9478   -4820.0662 
19219000    245.24651   -6325.1424   -5694.2607   -6325.1424            0    6582.8595    23.403718     21.31541    21.764828    10857.599    7073.4171    7843.4277    4831.7338    1061.9232   -704.33428   -208.05912    -4651.885 
19220000     247.3428   -6377.6607   -5741.3864   -6377.6607            0    4596.9767    23.244755    21.553325    21.729151    10886.343    5371.0037    3766.1363    4653.7901    408.00644    1099.6704    1863.2098   -5011.5421 
19221000    245.79815   -6345.2936   -5712.9929   -6345.2936            0    6666.1603    23.402293    21.277765    21.796765    10853.666     7531.873    7330.7206    5135.8874   -1189.9058    348.07716    141.64055   -4657.8091 
19222000    244.07364   -6328.6413   -5700.7768   -6328.6413            0    6854.6915     23.30739    21.305273    21.809746    10830.072    6757.7931    7920.6351    5885.6462   -1744.0678    616.56417   -970.76305   -4618.1092 
19223000    261.04476   -6384.3342   -5712.8124   -6384.3342            0    5733.5419    23.399008    21.605159    21.508463    10873.373     5275.029    4652.8514    7272.7454     677.6995    117.47965       48.367   -4803.6046 
19224000     258.1302   -6322.0436   -5658.0193   -6322.0436            0    5544.3856    23.475898    21.421691    21.701539    10913.561    5319.5131    6145.6322    5168.0116   -645.51665    700.85032   -665.01878   -4775.5577 
19225000    243.18031   -6333.1839   -5707.6174   -6333.1839            0    6425.0744    23.301788    21.346252    21.899693    10893.036    6742.7224    8489.3387    4043.1621    371.31736    1404.3301   -1127.2605   -4686.9059 
19226000    246.49777    -6328.433   -5694.3325    -6328.433            0    4987.4645    23.473502    21.422368    21.634957    10879.312    4281.2945    4170.9644    6510.1347    1888.0197    1313.3203    902.55272   -4903.0035 
19227000    263.19697   -6314.3139   -5637.2558   -6314.3139            0    5380.2894    23.228771     21.50014    21.861151    10917.936    5647.7699    5566.5981    4926.5002    451.67238   -433.58172   -328.72498    -4780.569 
19228000    254.74891   -6304.5688   -5649.2427   -6304.5688            0     6524.751    23.422113    21.375204    21.723095    10875.721    7115.4305    6176.2615    6282.5609   -289.27631   -245.28163   -679.25042   -4614.3439 
19229000    252.44935   -6313.5048   -5664.0942   -6313.5048            0    6730.4637    23.435596    21.462997    21.520858    10824.951    6320.8969     6655.533    7214.9611   -406.21627    306.87636   -549.01205   -4601.5505 
19230000    262.44564    -6319.986   -5644.8606    -6319.986            0    5103.7313     23.14553    21.697758    21.779568    10937.833    5981.9911    3828.2217     5500.981     1086.797   -2.7181003    40.031508   -4830.7283 
19231000    252.37338   -6304.0091    -5654.794   -6304.0091            0    5594.6825    23.581806    21.330032    21.676127    10903.107    4885.0703     5672.136    6226.8412    824.64758   -419.90033    33.488613     -4765.18 
19232000     255.7486   -6334.3634   -5676.4657   -6334.3634            0    5856.7232    23.282495    21.459811    21.775745    10879.989    7144.6092    5446.7134    4978.8472    562.46747    -746.0656    179.65751   -4747.1591 
19233000     250.8271    -6356.981   -5711.7436    -6356.981            0    6573.6505    23.132002    21.453874    21.812977    10825.149    6668.5635      6704.97    6347.4178    459.61089   -395.02284   -107.53217   -4673.9371 
19234000    247.01076   -6318.1584   -5682.7383   -6318.1584            0    6177.9945     23.59862    21.280718    21.680187    10887.694    5990.0073     5770.451    6773.5252   -720.73137   -1437.5967   -209.59164   -4701.7601 
19235000    245.03139   -6326.5326   -5696.2043   -6326.5326            0    5495.2154    23.297648    21.637295    21.592922    10884.951    4925.8969    5723.9104     5835.839     -939.618    198.55245    77.000666   -4823.8617 
19236000    240.20456   -6314.7733   -5696.8618   -6314.7733            0    6143.7214    23.303105    21.500316    21.734902     10889.71    6413.7217    5479.9032    6537.5393    217.12146   -621.61167    19.124434   -4721.1451 
19237000    251.05007   -6355.1311   -5709.3201   -6355.1311            0    5211.8924    23.425709    21.330498    21.797972    10892.055    5127.1615    5898.5242    4609.9915   -2167.4134   -707.99068   -1290.7468   -4881.4139 
19238000    249.79015    -6303.172   -5660.6021    -6303.172            0    6727.6433    23.301407    21.568429    21.606857    10859.061    6536.9383    5286.2193    8359.7721   -225.67477    1391.7195    528.96528   -4595.1569 
19239000    250.51181   -6344.9371   -5700.5108   -6344.9371            0    4936.7676    23.413333    21.387044    21.763499    10897.898    4508.8487    5425.2068    4876.2472   -145.69514    884.76498    48.503759   -4915.8873 
19240000    237.94874   -6295.7796   -5683.6709   -6295.7796            0    5557.4512    23.385141    21.462704    21.772906    10928.004    6119.2745     5100.054     5453.025    547.51897   -480.11545   -784.37744   -4797.9592 
19241000     248.9721   -6345.6528   -5705.1873   -6345.6528            0    6130.4306    23.329437    21.489102    21.726967     10892.35    6112.7585    5955.6158    6322.9174   -831.64317     1304.205   -803.39408   -4731.3454 
19242000    253.25473   -6359.2771   -5707.7948   -6359.2771            0    4030.8561    23.492565     21.58277    21.587894     10945.81    3889.0569    2649.1895    5554.3217   -142.49587    716.83986   -768.24486   -5064.3355 
19243000    253.19272   -6325.8499   -5674.5271   -6325.8499            0    5530.4337    23.397615    21.366385    21.846946    10921.779    5331.8212    5635.1525    5624.3273   -204.69728   -193.86971    1168.3495   -4793.6233 
19244000    244.97985   -6327.7775   -5697.5818   -6327.7775            0    5927.0559    23.142334    21.490112    21.890065    10886.616    6444.4688    6607.5288      4729.17    89.064785    551.53379    544.37347   -4756.5424 
19245000    259.48708   -6308.0712   -5640.5565   -6308.0712            0    5834.5436    23.490207    21.325657    21.761123    10901.106    5466.2508     5261.414     6775.966   -962.61002   -478.03168   -482.97312   -4712.9723 
19246000    249.77768   -6351.5061   -5708.9682   -6351.5061            0    5128.0808    23.330393    21.632463    21.614931    10908.923    6270.4856    4449.1886    4664.5684   -215.43097    -314.1394   -455.38933   -4893.1139 
19247000    251.42182   -6337.7078   -5690.9405   -6337.7078            0    6251.1561    23.247357    21.547089    21.738006    10888.847    6913.5761    6040.8687    5799.0235   -659.07534    12.898167   -619.72829   -4698.2403 
19248000    245.22212    -6309.026    -5678.207    -6309.026            0    6847.8356     23.46837    21.270787    21.708369    10836.615    5369.4188    8131.8502    7042.2377     885.6213    41.004704   -1293.2142   -4595.9688 
19249000    247.99113   -6340.3716   -5702.4296   -6340.3716            0    6137.5354    23.293319    21.529901    21.668422    10866.775    6435.0047    6575.9614    5401.6402    322.33165    700.49399   -1076.2237   -4729.7483 
19250000    253.51148   -6283.1244   -5630.9815   -6283.1244            0    5190.6982    23.395022    21.439553    21.829422    10949.176    4946.0844    5892.7669    4733.2432    1126.0227    717.42298   -675.21451   -4802.1179 
Loop time of 575.416 on 64 procs for 250000 steps with 1296 atoms

Performance: 75.076 ns/day, 0.320 hours/ns, 434.468 timesteps/s
99.3% CPU use with 64 MPI tasks x 1 OpenMP threads

MPI task timing breakdown:
Section |  min time  |  avg time  |  max time  |%varavg| %total
---------------------------------------------------------------
Pair    | 29.924     | 38.915     | 47.385     |  94.3 |  6.76
Bond    | 0.2691     | 0.27784    | 0.28481    |   0.6 |  0.05
Kspace  | 293.94     | 308.7      | 325.7      |  44.5 | 53.65
Neigh   | 4.4593     | 5.1272     | 6.1162     |  20.4 |  0.89
Comm    | 88.963     | 101.07     | 110.92     |  52.2 | 17.56
Output  | 1.1283     | 1.1287     | 1.1331     |   0.1 |  0.20
Modify  | 110.83     | 113.37     | 115.89     |  10.0 | 19.70
Other   |            | 6.831      |            |       |  1.19

Nlocal:        20.2500 ave          28 max          11 min
Histogram: 1 3 7 4 10 15 8 8 6 2
Nghost:        2575.22 ave        2606 max        2545 min
Histogram: 2 5 6 12 12 7 4 7 5 4
Neighs:        6374.34 ave        8822 max        3404 min
Histogram: 1 3 6 5 10 10 16 5 6 2

Total # of neighbors = 407958
Ave neighs/atom = 314.78241
Ave special neighs/atom = 2.0000000
Neighbor list builds = 9256
Dangerous builds = 0

unfix		3
unfix		2
unfix		1

write_data	data.final.${pid}
write_data	data.final.0
System init for write_data ...
PPPM initialization ...
  extracting TIP4P info from pair style
  using 12-bit tables for long-range coulomb (../kspace.cpp:340)
  G vector (1/distance) = 0.36626191
  grid = 30 40 32
  stencil order = 5
  estimated absolute RMS force accuracy = 0.0047610913
  estimated relative force accuracy = 1.4337885e-05
  using double precision FFTW3
  3d grid and FFT values/proc = 5168 640
Last active /omp style is kspace_style pppm/tip4p/omp
WARNING: Not all mixed pair coeffs generated from mixing. Use write_data with 'pair ij' option to store all pair coeffs. (../write_data.cpp:312)

write_restart   restart.lmp.${pid}
write_restart   restart.lmp.0
System init for write_restart ...
PPPM initialization ...
  extracting TIP4P info from pair style
  using 12-bit tables for long-range coulomb (../kspace.cpp:340)
  G vector (1/distance) = 0.36626191
  grid = 30 40 32
  stencil order = 5
  estimated absolute RMS force accuracy = 0.0047610913
  estimated relative force accuracy = 1.4337885e-05
  using double precision FFTW3
  3d grid and FFT values/proc = 5168 640
Last active /omp style is kspace_style pppm/tip4p/omp
Total wall time: 0:09:37
