LAMMPS (30 Jul 2021)
Processor partition = 1
  using 2 OpenMP thread(s) per MPI task
using multi-threaded neighbor list subroutines
variable        pid world 0 1
variable        phase world IceII IceVI

shell cd ${phase}
shell cd IceVI
include Restart.lmp
echo both
log log.lammps
#include		in.partitions
include		in.temp
variable        temperature equal 65.49
variable	tempDamp equal 100.0
include		in.pressure
variable        pressure equal 8500.2
variable        pressureDamp equal 1000.0 # This is 1 ps
include		in.seed
variable        seed equal 745823

units		real
atom_style	full
read_restart	restart.lmp.${pid}
read_restart	restart.lmp.1
Reading restart file ...
  restart file = 30 Jul 2021, LAMMPS = 30 Jul 2021
  restoring atom style full from restart
  orthogonal box = (0.047376820 0.014689618 0.032932830) to (24.682624 24.715311 22.777067)
  4 by 4 by 2 MPI processor grid
  restoring pair style lj/cut/tip4p/long/omp from restart
  restoring bond style harmonic/omp from restart
  restoring angle style harmonic/omp from restart
  1920 atoms
  1280 bonds
  640 angles
Finding 1-2 1-3 1-4 neighbors ...
  special bond factors lj:    0        0        0       
  special bond factors coul:  0        0        0       
     2 = max # of 1-2 neighbors
     1 = max # of 1-3 neighbors
     1 = max # of 1-4 neighbors
     2 = max # of special neighbors
  special bonds CPU = 0.002 seconds
  read_restart CPU = 0.009 seconds
include 	in.setup
variable	out_freq equal 1000
variable	out_freq2 equal 10000
variable	out_freq3 equal 1000

timestep	2.0

neigh_modify    delay 7 every 1

include		in.tip4p
# This is TIP4P/Ice

# create groups ###
group ox type 2
640 atoms in group ox
group hy type 1
1280 atoms in group hy

# set charges - beside manually ###
set group ox charge -1.1794
Setting atom values ...
  640 settings made for charge
set group hy charge 0.5897
Setting atom values ...
  1280 settings made for charge

# ### TIP3P Potential Parameters ###
pair_style lj/cut/tip4p/long/omp 2 1 1 1 0.1577 8.5
pair_coeff 1 1*2 0.000 0.000
pair_coeff 2 2 0.21084 3.1668
bond_style  harmonic
bond_coeff  1 450 0.9572
angle_style harmonic
angle_coeff 1 55 104.52
kspace_style pppm/tip4p/omp 1.0e-5
pair_modify tail yes

thermo          ${out_freq}
thermo          1000
thermo_style    custom step temp pe etotal epair emol press lx ly lz vol pxx pyy pzz pxy pxz pyz enthalpy

restart 	${out_freq3} restart.lmp.${pid} restart2.lmp.${pid}
restart 	1000 restart.lmp.${pid} restart2.lmp.${pid}
restart 	1000 restart.lmp.1 restart2.lmp.${pid}
restart 	1000 restart.lmp.1 restart2.lmp.1


include         in.dump
dump            myDump all atom ${out_freq2} dump.water.${pid}
dump            myDump all atom 10000 dump.water.${pid}
dump            myDump all atom 10000 dump.water.1
dump            myDump2 all dcd ${out_freq2} dump.dcd
dump            myDump2 all dcd 10000 dump.dcd
dump_modify     myDump append yes
dump_modify     myDump2 append yes


variable natoms 	equal  "count(all)"                        # NUMBER ATOMS
variable H      	equal  "enthalpy/v_natoms"                 # ENTHALPY-per-atom
variable Vol      	equal  "vol/v_natoms"                 # volume-per-atom
fix AVG all 		ave/time ${out_freq} 1 ${out_freq} v_Vol v_H file vol_enthalpy.dat
fix AVG all 		ave/time 1000 1 ${out_freq} v_Vol v_H file vol_enthalpy.dat
fix AVG all 		ave/time 1000 1 1000 v_Vol v_H file vol_enthalpy.dat




fix 		1 all shake 1e-6 200 0 b 1 a 1
Finding SHAKE clusters ...
       0 = # of size 2 clusters
       0 = # of size 3 clusters
       0 = # of size 4 clusters
     640 = # of frozen angles
  find clusters CPU = 0.005 seconds
fix             2 all nph aniso ${pressure} ${pressure} ${pressureDamp}
fix             2 all nph aniso 8500.2 ${pressure} ${pressureDamp}
fix             2 all nph aniso 8500.2 8500.2 ${pressureDamp}
fix             2 all nph aniso 8500.2 8500.2 1000
fix             3 all temp/csvr ${temperature} ${temperature} ${tempDamp} ${seed}
fix             3 all temp/csvr 65.49 ${temperature} ${tempDamp} ${seed}
fix             3 all temp/csvr 65.49 65.49 ${tempDamp} ${seed}
fix             3 all temp/csvr 65.49 65.49 100 ${seed}
fix             3 all temp/csvr 65.49 65.49 100 745823


run             250000
PPPM initialization ...
  extracting TIP4P info from pair style
  using 12-bit tables for long-range coulomb (../kspace.cpp:340)
  G vector (1/distance) = 0.37532891
  grid = 30 30 30
  stencil order = 5
  estimated absolute RMS force accuracy = 0.0031695691
  estimated relative force accuracy = 9.5450631e-06
  using double precision FFTW3
  3d grid and FFT values/proc = 5400 960
Last active /omp style is kspace_style pppm/tip4p/omp
Neighbor list info ...
  update every 1 steps, delay 7 steps, check yes
  max neighbors/atom: 2000, page size: 100000
  master list distance cutoff = 10.8154
  ghost atom cutoff = 10.8154
  binsize = 5.4077, bins = 5 5 5
  1 neighbor lists, perpetual/occasional/extra = 1 0 0
  (1) pair lj/cut/tip4p/long/omp, perpetual
      attributes: half, newton on, omp
      pair build: half/bin/newton/omp
      stencil: half/bin/3d
      bin: standard
Setting up Verlet run ...
  Unit style    : real
  Current step  : 3250000
  Time step     : 2
Per MPI rank memory allocation (min/avg/max) = 10.56 | 10.56 | 10.57 Mbytes
Step Temp PotEng TotEng E_pair E_mol Press Lx Ly Lz Volume Pxx Pyy Pzz Pxy Pxz Pyz Enthalpy 
 3250000    65.904292    -9908.581   -9657.3238    -9908.581            0    8008.2713    24.635247    24.700622    22.744134    13839.941    8697.1037    7649.8232    7677.8871    56.981023   -110.12685    409.21981   -8040.9236 
 3251000    65.086756   -9912.5674    -9664.427   -9912.5674            0    7920.4691    24.686413    24.712383     22.66942    13829.709    8004.3099    7462.1422    8294.9553     -257.446   -461.38588   -495.09223   -8066.9308 
 3252000    64.723404   -9908.7062    -9661.951   -9908.7062            0    8314.6847    24.608031    24.737724    22.702134    13819.849    8489.6489    7923.7926    8530.6125    367.41827   -816.83439   -337.43301   -7986.1403 
 3253000    66.248305   -9913.5556   -9660.9869   -9913.5556            0    8732.8636    24.594098    24.653745    22.761347    13801.038    9248.3164    8766.4202     8183.854    275.71849     95.00934    121.50305   -7903.2886 
 3254000    64.575515   -9912.9595   -9666.7682   -9912.9595            0    8911.0067    24.583938    24.708253    22.705098    13791.671    9009.9701    8692.1631    9030.8871   -640.35094   -199.67131   -518.92904   -7874.4317 
 3255000     67.24567   -9913.0943   -9656.7231   -9913.0943            0    8513.6283    24.651121    24.676822    22.696102    13806.296    8268.1344    8530.9011    8741.8492   -134.36922   -168.80498   -211.56668   -7942.4985 
 3256000    66.466489   -9904.5632   -9651.1627   -9904.5632            0    8225.4478    24.698611    24.650471    22.709283    13826.147    7899.2542    8618.0456    8159.0437   -152.67647    250.34266    175.58961   -7992.5819 
 3257000    64.453395   -9911.6253   -9665.8995   -9911.6253            0    8363.8074    24.670564    24.631514    22.714311    13802.881    8044.4249    8671.6657    8375.3317   -34.035385   -252.77268    55.963408   -7982.2579 
 3258000    66.366159   -9918.5524   -9665.5344   -9918.5524            0    8228.6012    24.685324    24.636282    22.710972    13811.782    7563.0392    8574.4157    8548.3487    105.89347   -45.591269     372.4474   -8008.0416 
 3259000    67.450728   -9909.7122   -9652.5593   -9909.7122            0    8238.5567    24.730609    24.631531    22.695262    13824.881    7801.3357    8804.9528    8109.3815   -58.296611   -367.32908    333.98454   -7991.4874 
 3260000    66.999812   -9913.9799    -9658.546   -9913.9799            0    8304.5159    24.621943    24.635265    22.779625    13817.393    8426.0037    8751.9301     7735.614   -156.32905    15.567826    223.94486   -7985.0822 
 3261000    65.658836   -9910.8983   -9660.5769   -9910.8983            0    9218.0293    24.684696    24.649996    22.657492    13786.578     8363.815     9264.536    10025.737   -456.23146   -59.212337   -106.72575   -7807.1714 
 3262000    66.715034   -9901.5882   -9647.2401   -9901.5882            0    8837.8574     24.65182    24.582247    22.773223    13800.508    8551.0391     9454.408    8508.1251    -279.2127    -192.9986    418.47658   -7868.4776 
 3263000    66.521701   -9906.5526   -9652.9415   -9906.5526            0    8648.4387    24.657593    24.688549    22.675077    13803.684    8259.3693    8921.4859    8764.4609   -451.77965    147.55764     751.0756   -7911.9021 
 3264000    60.849334   -9901.4039   -9669.4185   -9901.4039            0    8944.5918    24.667642    24.626647    22.694587    13786.538     8317.384    9576.7186    8939.6729   -389.03688    590.72957   -568.57332   -7870.9964 
 3265000    64.470141    -9907.371   -9661.5815    -9907.371            0     8440.044    24.652044    24.668464    22.729119    13822.215    8647.9721    8561.4818     8110.678    276.65431    128.92098    59.669632   -7960.2135 
 3266000    65.913932   -9910.6721   -9659.3781   -9910.6721            0    8306.1921    24.646012    24.673903    22.726296    13820.164    8172.1972    8605.3053    8141.0739   -370.71676   -367.31891    134.11921   -7985.2409 
 3267000    64.105378   -9898.5096   -9654.1107   -9898.5096            0    8872.6092    24.601702    24.672955    22.722672    13792.587     9404.702    9007.4493    8205.6763   -12.973177   -25.749455    833.46344   -7869.3789 
 3268000    65.451631   -9919.0808   -9669.5493   -9919.0808            0    8281.1448     24.61567    24.730397    22.700682     13819.16    8878.7442    7637.5924    8327.0979   -288.07355    349.51934    139.03084   -8000.5816 
 3269000    64.617693   -9911.0867   -9664.7346   -9911.0867            0    8241.8151    24.659891    24.681204    22.706439    13819.952    7625.4907    8419.0953    8680.8594   -115.49226   -323.39757    445.92814   -8003.5982 
 3270000    64.516435   -9913.1927   -9667.2266   -9913.1927            0    8561.0993    24.700175    24.618877    22.719175    13815.316    8213.3447    9047.3116    8422.6416   -215.61249    376.98876    644.62638   -7942.3174 
 3271000    64.308942    -9913.159    -9667.984    -9913.159            0    8003.7437    24.692394    24.669967    22.709123    13833.502    7643.0111    8177.8858    8190.3343   -25.412063    18.563852    409.38982   -8053.2492 
 3272000    65.025077   -9908.1646   -9660.2593   -9908.1646            0    7711.5843    24.676093    24.732598    22.710699    13860.428    7709.6458    7401.2947    8023.8124   -396.74371   -669.34228    375.46024   -8101.4387 
 3273000    63.427124    -9913.876   -9672.0628    -9913.876            0    8064.7693    24.659887    24.651322     22.74145    13824.501    7970.4416    8121.3331    8102.5332   -184.42932   -118.64464   -42.107286    -8046.075 
 3274000    66.997175    -9901.742   -9646.3182    -9901.742            0    8080.5202    24.676795    24.732498     22.67057    13836.275     7792.229    7751.7352    8697.5964    41.402258    -614.9139    -274.0504   -8015.7672 
 3275000    64.957393   -9910.8482    -9663.201   -9910.8482            0    7629.0773    24.581231    24.684692    22.827582    13851.323    8294.9082    7232.9044    7359.4193    400.21194   -694.98468    373.18064   -8122.0714 
 3276000    67.482088   -9912.0257   -9654.7532   -9912.0257            0    8306.1491    24.630741     24.72976    22.686123    13818.397     8227.909    8211.8846    8478.6537    141.26515     75.58864    325.23606   -7980.8387 
 3277000    65.024393   -9907.2797    -9659.377   -9907.2797            0    8688.3464     24.64677    24.663177    22.703269    13800.583    9061.8653    7818.3053    9184.8688    -199.7785   -1051.9394    383.05858   -7910.6966 
 3278000    65.432753   -9913.4437   -9663.9842   -9913.4437            0    8764.1621    24.663883    24.656465    22.686931    13796.471    8626.9919    9076.6013    8588.8932   -249.84146   -187.13733   -121.19549   -7900.5701 
 3279000    66.467152     -9913.03   -9659.6269     -9913.03            0    9634.9881     24.57085     24.62566    22.746523    13763.316    10007.486    9696.3831    9201.0949   -81.892487   -428.30773    351.63361    -7725.655 
 3280000    67.314136   -9908.4943   -9651.8621   -9908.4943            0    8247.9754    24.677568    24.731793    22.642545     13819.21     7625.256    8193.9697    8924.7006    -378.8032    414.52982   -56.125589   -7989.5734 
 3281000    65.089017   -9898.6502   -9650.5012   -9898.6502            0    8283.0761    24.659898     24.65796    22.733239    13823.236    7932.1601    8685.5568    8231.5115   -12.497469     102.9488   -48.093928   -7980.6519 
 3282000     66.25486    -9907.702   -9655.1082    -9907.702            0    8580.4855    24.663286     24.66865    22.700769    13811.374    8157.5351    8211.7727    9372.1485   -333.46103   -28.720264     593.5084   -7926.7863 
 3283000    69.454329   -9920.1077   -9655.3161   -9920.1077            0     8831.464    24.653885    24.628201    22.718129    13794.012    9141.8374    9115.3147    8237.2399   -78.263572   -209.12253    422.36306   -7878.6771 
 3284000    63.787222   -9911.9904   -9668.8044   -9911.9904            0    8820.3308    24.578115    24.704773    22.724056    13797.973    10205.159    7673.0839    8582.7489   -626.08521   -619.23303    100.94554   -7893.8956 
 3285000    64.047889   -9916.0043   -9671.8245   -9916.0043            0    9012.1502    24.615317    24.690681    22.686903    13788.395    8195.4594    9743.5548    9097.4364   -517.03456    380.29567    -30.51835   -7859.5749 
 3286000    65.480434   -9909.6429   -9660.0017   -9909.6429            0    8610.6086     24.66165    24.685161    22.667025    13799.159    8295.5751    8491.2304    9045.0203   -63.988042   -204.03658    62.463634   -7927.1462 
 3287000    65.794319   -9912.4346   -9661.5967   -9912.4346            0    8075.4683    24.616343     24.65065    22.815889    13844.883    8288.5371    8487.2544    7450.6135   -464.69786   -570.88353    251.59665   -8031.0512 
 3288000    66.587895   -9910.7702   -9656.9067   -9910.7702            0    8224.3793    24.662415    24.690933    22.704475    13825.618    7815.9996    8663.1757    8193.9624   -401.12574    155.71282    177.16313   -7998.6049 
 3289000    64.482436   -9915.2565     -9669.42   -9915.2565            0     8395.453    24.588102    24.727081    22.708392    13806.521    9111.5435    7609.3451    8465.4705    205.89167   -186.31091    274.53317   -7978.9625 
 3290000    65.740384   -9918.4452   -9667.8129   -9918.4452            0    8560.5636    24.589115    24.673596    22.760851    13809.051    8854.0648    8259.0311    8568.5949     39.15277    30.615094    81.926705   -7943.7937 
 3291000    64.479861   -9917.6577   -9671.8311   -9917.6577            0    8812.6429    24.673617    24.677356    22.644788     13787.95    7888.3496    9089.2557    9460.3233   -135.15457   -963.30194    424.00342   -7899.7575 
 3292000    65.741512   -9911.9556    -9661.319   -9911.9556            0     8816.885    24.645695    24.664849    22.686068     13790.46    9135.4375    8475.4677    8839.7499    243.76969     8.228507     355.0858   -7888.0695 
 3293000    64.683114   -9901.7882   -9655.1867   -9901.7882            0    8404.9726    24.713852    24.652376    22.681142    13818.603    7743.8521      8784.36    8686.7057     78.45227   -118.62692    111.48223   -7961.3314 
 3294000    64.932689   -9905.9836   -9658.4306   -9905.9836            0    8958.1814    24.603946    24.693222    22.705932    13795.005    9509.8498    8829.3161    8535.3781   -380.70403    929.81063    402.63958   -7856.1699 
 3295000    61.216669   -9909.5254   -9676.1395   -9909.5254            0    8900.5374    24.667787    24.618048    22.731776    13804.388    8938.8057    8545.8013    9217.0052   -82.012738    181.27531    277.62926    -7884.258 
 3296000    67.271891   -9908.1808   -9651.7097   -9908.1808            0    8151.2509    24.721568      24.6523     22.69835    13833.362    7813.7707    8527.8295    8112.1525    21.162605   -147.54346   -67.787269   -8007.2323 
 3297000    64.510242   -9907.3921   -9661.4496   -9907.3921            0    9290.0611    24.657302    24.594914    22.705613    13769.688    8651.9562    9660.4199    9557.8073   -103.38936    677.88638    360.04922   -7795.8495 
 3298000    64.997543   -9910.6459   -9662.8456   -9910.6459            0    8463.5493     24.64264    24.648656    22.723347    13802.342    9300.2111    8587.6493    7502.7876    1.2815655   -84.845447   -119.21091   -7959.1924 
 3299000    66.243959   -9905.5493   -9652.9971   -9905.5493            0    8843.8673    24.650766    24.689285    22.671933     13798.36    8297.2223    8885.2712    9349.1084    177.83945   -59.916713    478.75861   -7873.3021 
 3300000    67.717453   -9908.3306   -9650.1607   -9908.3306            0     8628.286    24.622528    24.674176    22.720326     13803.52    8669.5795    8519.8533    8695.4254   -966.68442   -282.82549    827.38373   -7913.1989 
 3301000     65.25171   -9907.5073    -9658.738   -9907.5073            0    8799.3713      24.6549    24.684537    22.683396    13804.997    8222.4081    8798.0489    9377.6568    32.884319   -299.44394    73.953155   -7887.1454 
 3302000    63.817279    -9904.786   -9661.4854    -9904.786            0    8411.9133    24.674261    24.699958    22.673809    13818.625    8226.3972    8362.9841    8646.3584   -97.036677   -225.53402   -493.57985   -7966.2285 
 3303000    64.793696   -9907.0414   -9660.0182   -9907.0414            0     8411.621    24.668257    24.633903    22.720899    13806.932    8117.8408    8553.5462    8563.4759   -82.966025   -275.88504    218.78504   -7966.2547 
 3304000      66.5325   -9906.8362    -9653.184   -9906.8362            0    9029.2333    24.678521    24.647211    22.673478    13791.295    9302.3101    8964.3337    8821.0562   -381.13288    -478.4103    399.36983   -7837.1172 
 3305000    67.623941   -9906.1197   -9648.3064   -9906.1197            0    8879.7472    24.666372     24.61687    22.709537    13789.432     8406.892    9209.7487     9022.601    112.50792    407.15208    299.86973   -7862.5473 
 3306000    66.479863   -9908.3515      -9654.9   -9908.3515            0    7886.7141    24.655844    24.714775    22.715052    13841.727    7691.6362    7873.2908    8095.2152   -529.41354   -34.508806    -49.77203   -8062.8296 
 3307000    65.044917   -9910.1969   -9662.2161   -9910.1969            0    8316.8744    24.662254    24.668937    22.708798    13815.842    8322.7175    8375.1566     8252.749    -38.45464    260.61728    323.47256     -7986.45 
 3308000    63.643797    -9904.434   -9661.7948    -9904.434            0    9005.9343    24.645984    24.604521    22.748544    13794.777    8894.0549     9400.898      8722.85   -313.49975   -10.060028    35.771114   -7849.9569 
 3309000    65.058302   -9910.6638   -9662.6319   -9910.6638            0    8328.8668    24.698253    24.703446    22.655339    13822.747     7630.492    8578.3586    8777.7498   -675.42764   -51.063143    214.71218   -7983.6108 
 3310000    65.069256   -9925.2815   -9677.2078   -9925.2815            0    7552.3133    24.655583    24.763712    22.674763    13844.388    7732.8684    6849.7029    8074.3685   -563.85178   -105.49273    168.99866   -8152.3489 
 3311000    64.672977   -9918.4724   -9671.9095   -9918.4724            0    7641.3789    24.636535     24.64905    22.795195    13842.774    7847.9636    8181.5217    6894.6514   -219.16353    530.32584    710.34415   -8129.2476 
 3312000    64.924136    -9910.568   -9663.0476    -9910.568            0    8677.9805    24.648193    24.690257      22.6725    13797.808    9110.5858    8120.9342    8802.4215     58.50061   -622.10247    946.08124   -7916.8047 
 3313000    66.298515   -9900.6044   -9647.8442   -9900.6044            0    9094.6685    24.612698    24.705096    22.685969    13794.409    9809.1756    8538.4993    8936.3304   -460.12243   -871.79482   -503.63747   -7818.2033 
 3314000    65.528546   -9907.3125   -9657.4878   -9907.3125            0    9052.1584    24.595792     24.67111    22.731324    13793.492    9234.6591    8983.3298    8938.4864   -18.248577   -352.21632    300.74435     -7836.52 
 3315000    64.412145    -9918.688   -9673.1195    -9918.688            0    8354.2816    24.626298    24.690651    22.725256     13817.85    8628.3296     8143.763    8290.7522   -240.67224   -315.64572   -303.86569   -7989.5716 
 3316000    68.029531   -9904.5116    -9645.152   -9904.5116            0    8337.3099    24.707079    24.653694    22.682488    13816.375    8308.9915    8008.2517    8694.6865    107.05093   -277.41616   -82.089101   -7965.2036 
 3317000    63.890911   -9917.4242   -9673.8429   -9917.4242            0    8153.3324      24.6901    24.636702    22.717959     13818.94    8433.4725    8329.2162    7697.3084    474.59426   -5.6941523    893.65542   -8030.6606 
 3318000    63.109154   -9913.1733   -9672.5724   -9913.1733            0    7907.2915    24.719949    24.636293    22.726576    13840.665    7113.2728    8160.7185    8447.8833   -462.06855   -314.01768    432.25001   -8076.4706 
 3319000    63.334714   -9912.3455   -9670.8846   -9912.3455            0    8331.9072    24.637559    24.685181    22.714842    13814.772    8713.8345    7964.0416    8317.8456   -166.66392    190.80352   -208.98923   -7992.2197 
 3320000    64.844153   -9913.7174    -9666.502   -9913.7174            0    8676.5264    24.582036    24.703687     22.72675    13801.204    9141.3864    8585.0223    8303.1706    -76.62109   -202.60366   -666.11677   -7920.1219 
 3321000    66.602402   -9911.9972   -9658.0784   -9911.9972            0    8797.3102    24.578782    24.739961    22.699569    13803.111     9078.844    8157.8139    9155.2727   -166.93721    24.916131   -165.86171   -7887.1428 
 3322000    66.630037    -9907.394   -9653.3699    -9907.394            0    8449.5359    24.606258    24.719388    22.703984    13809.736    8656.7216     7986.493    8705.3931   -349.41394   -141.10622    187.71085   -7951.6264 
 3323000     63.16645   -9919.6216   -9678.8023   -9919.6216            0    9045.0293    24.595587    24.664535    22.717598    13781.374    8903.8371    9592.7342    8638.5166   -44.780231    108.36884    150.83947   -7860.8671 
 3324000     67.54443   -9909.1415   -9651.6313   -9909.1415            0    9222.5527    24.656358    24.661748    22.657841    13777.528    8708.2535     9477.144    9482.2606    -297.0818    -602.8085   -66.901385   -7798.5335 
 3325000    67.038054   -9903.7028   -9648.1231   -9903.7028            0    8764.3622    24.666002    24.626784    22.718552    13800.255    8736.1738    8721.5541    8835.3587    190.80598   -307.95586    105.78579   -7884.1852 
 3326000    66.424561   -9917.4281   -9664.1874   -9917.4281            0    7523.0078    24.686432    24.687858    22.721433    13847.693    6894.1406    7750.8265    7924.0563   -153.97229   -188.42975   -16.020965   -8144.8829 
 3327000    65.117548    -9922.601   -9674.3432    -9922.601            0    7885.4092    24.636648    24.675825    22.752858    13832.136    7882.4163    8033.2019    7740.6096   -86.448844   -437.07714    67.020038   -8083.6392 
 3328000    68.028175    -9910.901   -9651.5465    -9910.901            0       8840.2    24.603012    24.672897    22.722914    13793.435    9001.0761    8702.8488    8816.6752   -219.19048   -379.18012    243.62442   -7873.2244 
 3329000     66.02367   -9915.4117   -9663.6994   -9915.4117            0     8713.939    24.629649    24.675477    22.694749    13792.696    8971.3256    8245.4464    8925.0451   -449.96052   -239.74862     186.1733   -7910.8703 
 3330000     63.79364   -9905.9951   -9662.7847   -9905.9951            0    8770.3543    24.684083    24.668355    22.670851    13804.637    8735.0737    8601.5498    8974.4393   -92.626076   -279.61617     247.6724   -7897.0802 
 3331000    66.791824   -9903.7875   -9649.1466   -9903.7875            0    9072.6544    24.643065    24.665036    22.684286     13788.01    8827.2296    8513.1153    9877.6184   -176.07274    97.393786    833.72373   -7824.7811 
 3332000    65.948415   -9911.2551   -9659.8297   -9911.2551            0    8644.0395    24.618554    24.700141    22.684307    13793.913    9297.8746    8265.9926    8368.2514    237.45137    -294.4048    515.99089   -7920.9076 
 3333000    64.453542   -9919.6303    -9673.904   -9919.6303            0    8191.2701    24.625368    24.688989    22.728012    13818.073     8578.223    8036.9522    7958.6351   -51.369726   -12.767961   -69.976735   -8023.1795 
 3334000    66.593546    -9909.453    -9655.568    -9909.453            0    7364.4943    24.687543    24.718544     22.72346    13866.767    7225.7595    7126.9217    7740.8015    292.03163   -1162.9232    1.4714906   -8166.2274 
 3335000    65.738022   -9918.6285   -9668.0052   -9918.6285            0    8232.6034    24.644547    24.708411    22.701041    13823.291    9055.4261    7279.8615    8362.5226   -553.61634   -131.97065   -448.40717   -8008.3246 
 3336000     66.20336   -9909.0314    -9656.634   -9909.0314            0     8990.974    24.611579    24.633776     22.74135    13787.537    8965.4828     9506.315     8501.124    18.090301   -490.90301   -349.23962   -7848.7551 
 3337000     67.34685   -9917.0939    -9660.337   -9917.0939            0    8409.0709     24.61146    24.706398    22.698729    13802.201    8924.2051    8500.7266    7802.2812    23.688551   -540.44567   -241.50792   -7967.6672 
 3338000    68.723761   -9911.0156   -9649.0093   -9911.0156            0    8632.5599    24.589271    24.733326    22.696843     13803.64    8838.3908    8114.3719    8944.9169   -534.03593    106.27514   -23.991148    -7911.172 
 3339000    64.398525   -9922.9345   -9677.4179   -9922.9345            0    8064.2323    24.651263    24.721637    22.682693    13823.277    7888.6464    7691.5208    8612.5298    -147.4801    267.09012    136.88212   -8051.6823 
 3340000    68.051883   -9914.3923   -9654.9475   -9914.3923            0    8557.2603    24.637314    24.666709    22.714966    13804.372    8896.7994    8400.4776     8374.504   -761.70065    181.54464   -93.461745   -7932.1776 
 3341000    65.305629   -9919.4055   -9670.4307   -9919.4055            0    7893.0357     24.65534    24.717569    22.678176    13820.536    8029.8418    7887.9023    7761.3631      -146.59    286.27547    97.027593   -8079.5235 
 3342000    64.990208   -9910.0289   -9662.2566   -9910.0289            0    7592.5202    24.687027    24.641805    22.760949    13846.234    8150.3668    7291.2317    7335.9621   -226.15756    493.34474    182.93895   -8129.0753 
 3343000     65.86304   -9911.3288   -9660.2288   -9911.3288            0    8424.9586    24.629403    24.674838    22.726452    13811.468    8839.7411    8411.0103    8024.1245   -156.18884     -614.335    430.42169   -7963.2223 
 3344000    65.996987   -9914.2177   -9662.6071   -9914.2177            0    8216.1662    24.682748     24.68816    22.674034    13816.913    8166.1117    8410.0203    8072.3667    150.01807    251.01065   -422.91617   -8007.0043 
 3345000     62.83025   -9914.8696    -9675.332   -9914.8696            0    8649.0444    24.599786    24.695211    22.730784    13808.881    9090.7618    8384.5127    8471.8587    84.563933   -682.19323   -191.40443   -7933.5151 
 3346000    64.644814   -9908.4756   -9662.0201   -9908.4756            0    8201.6262    24.660308    24.667252    22.716161    13818.287    8113.7395     8894.203    7596.9361   -300.22446    -279.9335    130.71161   -8009.1829 
 3347000    65.997624   -9909.6378   -9658.0248   -9909.6378            0    8672.8316    24.630958    24.630176    22.774015    13816.194    8917.8284    8718.5557    8382.1106   -50.854734   -720.95726    513.79873   -7910.4925 
 3348000    63.228331   -9913.2518   -9672.1966   -9913.2518            0    8994.4264    24.641252    24.699693    22.650345     13785.71    8955.1173    8712.9279    9315.2338    166.76739   -283.33935   -206.39521   -7863.8632 
 3349000    65.926135   -9907.7682   -9656.4277   -9907.7682            0    8498.9524    24.609572    24.635444    22.774463    13807.423    8981.6085    8539.8312    7975.4176   -360.13721   -24.045635    79.016682   -7945.0184 
 3350000    65.009918   -9918.5451   -9670.6976   -9918.5451            0    8686.1222    24.651357    24.685775    22.673066    13797.419    8574.8516    8801.8922    8681.6227    61.845993   -235.05228    722.55482   -7922.8657 
 3351000    64.392467   -9911.8644   -9666.3709   -9911.8644            0    8389.3299     24.61594    24.694194    22.727673    13815.489    8525.2698    8449.2901    8193.4297   -129.10565   -428.24421   -259.09763   -7976.0491 
 3352000    67.231449   -9907.7107   -9651.3937   -9907.7107            0    8829.6522    24.623581    24.674646    22.717673    13802.762    9161.5655    8495.9426    8831.4485    -222.1174    18.783521   -328.19381   -7873.9925 
 3353000    63.632468   -9895.4194   -9652.8235   -9895.4194            0    9634.6267    24.638302    24.706858    22.623828    13771.916    9179.8766    9098.2326    10625.771   -369.07976   -10.297962    310.89874   -7717.7157 
 3354000    64.553582   -9903.5841   -9657.4764   -9903.5841            0    9327.9274    24.633839    24.613089    22.722138     13776.77    9093.8727    9698.8175    9191.0921    -172.8871   -459.73183    425.65106   -7783.3087 
 3355000    64.526346   -9901.6953   -9655.6914   -9901.6953            0    8614.2327    24.683987    24.695846    22.658712    13812.568    8255.6181    8658.3209    8928.7592   -344.69857   -580.99018   -19.718986    -7920.422 
 3356000    65.299253   -9917.2764   -9668.3258   -9917.2764            0    8449.4517    24.681304    24.616596    22.713538    13800.057    7804.9112    8785.7442    8757.6996   0.36990417    221.00549    -378.9983   -7967.7919 
 3357000    66.033529   -9915.6681   -9663.9182   -9915.6681            0    8079.6402    24.738665    24.605458    22.720121    13829.878    7541.2671    8823.4335    7874.2201   -11.199164   -256.90122   -281.57803   -8034.2985 
 3358000    66.228326   -9917.7609   -9665.2683   -9917.7609            0    8369.2496    24.653942    24.686711    22.711907    13823.028    7898.4309    8260.5569    8948.7611     178.8372   -140.49544    123.93289    -7978.072 
 3359000    66.318333   -9917.5725   -9664.7368   -9917.5725            0    8636.9303     24.66163    24.720342    22.648104    13807.279    9519.8426    7664.4607    8726.4876    -110.1805   -290.46099    276.17804   -7925.5612 
 3360000    64.650891   -9913.8579   -9667.3792   -9913.8579            0    8543.1688     24.62045    24.626273    22.780139    13811.824     8574.408    9166.6135    7888.4847   -239.96448    105.79257   -175.66637   -7946.5178 
 3361000     66.19273   -9913.7548   -9661.3979   -9913.7548            0    8391.2768     24.72537    24.657531    22.669402    13820.777    7549.6728    8845.6199    8778.5376    455.78159   -116.44974    682.84702   -7970.0366 
 3362000    66.182691    -9913.607   -9661.2884    -9913.607            0    8099.9282    24.672961    24.659222    22.727299    13827.653    8220.2606    8286.2401     7793.284   -168.57205    218.25729    300.04394   -8027.8396 
 3363000     65.76378   -9917.3152   -9666.5937   -9917.3152            0    7762.5718    24.711953    24.659166    22.723783    13847.332    7043.4527    7845.8221    8398.4408    117.59349    340.86266    473.35107    -8098.949 
 3364000    67.499147   -9901.5998   -9644.2623   -9901.5998            0    8716.5692    24.675691    24.674106    22.669861    13802.559    9296.4571    8105.3664    8747.8841    -106.9071   -106.64026   -251.20661   -7889.6504 
 3365000    68.374947   -9905.4997   -9644.8233   -9905.4997            0    9642.7742    24.656963    24.634187    22.672163    13771.168    9298.0421    9747.8275     9882.453   -65.961026    6.3195086   -495.18755   -7708.1843 
 3366000    66.531668   -9920.6724   -9667.0233   -9920.6724            0    8717.0272    24.643226    24.625931    22.729577    13793.725    8842.7494    8969.1939    8339.1384    105.78666   -409.78296    336.49882   -7913.4422 
 3367000    62.537282   -9914.0366    -9675.616   -9914.0366            0    8114.5456    24.646993    24.744911    22.653799    13816.273    8540.8909    7506.5769    8296.1689   -410.04364    156.28202     264.8887   -8040.5661 
 3368000    61.897691   -9913.1857   -9677.2035   -9913.1857            0    8364.1596    24.610752    24.679327    22.751309    13818.617    8739.7294    8313.2143    8039.5352   -95.352163   -27.180928    139.41484   -7991.5714 
 3369000    63.782515   -9903.6293   -9660.4612   -9903.6293            0    8882.2506    24.610448    24.679216    22.711624    13794.281     8934.702    9030.0134    8682.0364   -148.03818   -344.01506    315.28449   -7873.5706 
 3370000    65.669806   -9911.4984   -9661.1351   -9911.4984            0    9121.8564    24.624587    24.672661    22.667324    13771.626    9316.8455    8953.2158    9095.5078   -257.54527   -449.19989    531.31938   -7829.0555 
 3371000     64.42827   -9908.6116   -9662.9817   -9908.6116            0    8970.8599    24.585095    24.694736    22.716643    13791.784    9290.8402    8836.2292    8785.5103   -267.74953   -209.44699   -401.28293   -7858.5917 
 3372000     67.53897   -9909.7074   -9652.2181   -9909.7074            0    8832.2938    24.621529    24.719423    22.666833    13795.715    8630.6783    8551.4526    9314.7506   -656.20208     433.6611   -388.89861   -7875.1928 
 3373000    65.666029   -9921.5542   -9671.2054   -9921.5542            0    7812.6903     24.64813    24.679748    22.740524     13833.28    7725.2896     8330.771    7382.0104    186.01446   -38.615204    290.35774   -8095.0404 
 3374000    65.496983   -9904.2693    -9654.565   -9904.2693            0    8143.4828    24.603156    24.722055    22.743783    13833.692    8376.7006    7676.5037    8377.2441   -405.96782    77.571004   -304.29286   -8011.6156 
 3375000      65.3564   -9903.5583   -9654.3899   -9903.5583            0    7619.3596    24.631431    24.726595    22.740018     13849.84    7982.2714    7649.9699    7225.8376   -471.48233   -1008.3678     51.16716   -8115.3882 
 3376000    65.693944   -9911.9459   -9661.4906   -9911.9459            0     8695.335    24.599497    24.699647    22.726463    13808.574    9238.9688    8493.6107    8353.4254    105.12888   -865.60998    221.53407   -7910.3903 
 3377000     65.01439   -9901.9957   -9654.1312   -9901.9957            0    9162.1597    24.636585    24.703765    22.651629    13786.153    9327.7799    8178.5277    9980.1714    91.345121    87.180609   -64.484809   -7812.0158 
 3378000    65.153811    -9911.175    -9662.779    -9911.175            0    8753.0563    24.672042    24.618703    22.715911    13797.501    8536.0293    8855.4288    8867.7108   -294.43537   -783.43872   -341.94016    -7901.468 
 3379000    66.338849   -9910.7429    -9657.829   -9910.7429            0    8288.3281    24.626747    24.632164    22.783064    13820.436    8605.5801    8554.1765    7705.2278   -299.74948    -59.89963    -151.3382   -7987.2594 
 3380000    64.806609   -9920.0026   -9672.9303   -9920.0026            0    8147.8062    24.662011    24.689107    22.702472     13823.15    7759.4759    8390.2243    8293.7185   -99.183221    496.01579    76.335694   -8030.3613 
 3381000    62.049377   -9906.0025   -9669.4419   -9906.0025            0    8797.4313     24.62388    24.693124    22.698537     13801.63    8486.4944    8505.8466     9399.953    -136.4555    83.266453   -109.97146   -7898.6719 
 3382000    64.409062   -9912.2438    -9666.687   -9912.2438            0     8012.635    24.723437    24.673049    22.673086    13830.641    7527.7866     8110.514    8399.6045   -335.97612   -190.61548   -102.91384   -8050.4928 
 3383000    65.498567   -9920.0984    -9670.388   -9920.0984            0     7387.535    24.658157    24.648455    22.802048    13858.753    7616.4577    8228.2944    6317.8528   -29.947932   -23.695493    441.42918   -8177.2512 
 3384000    64.355002   -9916.5141   -9671.1635   -9916.5141            0    8684.5788    24.680329    24.727521    22.613729    13800.782    8332.7806    8156.1878     9564.768   -59.950424   -159.28801    337.20741   -7923.2161 
 3385000    65.031533   -9925.6518   -9677.7219   -9925.6518            0    8051.6586    24.579882    24.696249    22.778494    13827.249     8977.239    7173.9356    8003.8013     -121.279    136.90905    583.82417   -8054.0546 
 3386000    65.646022   -9910.9207   -9660.6481   -9910.9207            0    8404.1703    24.632138    24.721752    22.690682    13817.482    8681.9884    8149.2072    8381.3152   -496.25579    28.181504     277.2841   -7967.0918 
 3387000    64.710644   -9915.1339   -9668.4274   -9915.1339            0    8530.1886      24.6119    24.640888    22.754643     13799.76    9178.4846    8596.9035    7815.1779   -539.79844   -518.30403    223.95216   -7951.6814 
 3388000    66.282521   -9913.0417   -9660.3425   -9913.0417            0    8362.1761    24.708347    24.708815     22.62439    13812.507     7835.587    8304.0297    8946.9117    88.959471   -172.34489   -631.16375   -7975.8554 
 3389000    62.321594   -9910.6201   -9673.0218   -9910.6201            0    8089.5486    24.679404     24.66115    22.721801    13828.999    8108.2541     7968.906    8191.4858   -481.30238   -55.212613    573.92846   -8041.5074 
 3390000    64.381841    -9910.504   -9665.0511    -9910.504            0    7689.0225    24.717524    24.673261    22.711814     13851.07    6861.9948    8514.5883    7690.4844   -37.291922    95.824292    895.14939   -8111.8404 
 3391000     64.28397    -9918.911   -9673.8312    -9918.911            0    8161.8541    24.694524    24.660818    22.703679    13826.248    7279.9986    8659.6062    8545.9573   -101.29483   -691.55134    456.61233   -8028.0615 
 3392000    64.799909   -9922.2834   -9675.2366   -9922.2834            0    7736.3591    24.643377    24.648573    22.779062    13836.551    8178.5871    7986.1208    7044.3695    71.503357    60.671513    116.80644    -8114.102 
 3393000     65.60421   -9910.8549   -9660.7417   -9910.8549            0    8526.3088    24.644141    24.678793    22.696358    13803.645    8548.1732    8350.0239    8680.7294   -458.65212   -479.68711    335.03126   -7944.2934 
 3394000     64.61761   -9908.2277   -9661.8759   -9908.2277            0    9100.1856    24.648799    24.626922    22.716421    13789.414    8406.7623    10047.105    8846.6897   -801.49199    83.603984   -45.803567    -7831.788 
 3395000    67.281879   -9903.9143   -9647.4051   -9903.9143            0    8581.1733    24.665011    24.715538      22.6513    13808.436    8445.4556    7867.1733     9430.891   -271.30898   -380.27093    464.79126   -7919.3122 
 3396000    65.234796   -9909.0629   -9660.3581   -9909.0629            0    9049.0699    24.610633    24.677981    22.687248     13778.89    9050.4595    9093.1824    9003.5678    -98.92021   -355.60162   -176.09402   -7841.9386 
 3397000    65.560817   -9913.9223   -9663.9746   -9913.9223            0    8689.3725    24.677266    24.714867    22.613719    13792.002    8484.2897     8516.589    9067.2387   -517.59862   -466.66598    406.98554   -7916.1751 
 3398000    65.568586   -9921.1883    -9671.211   -9921.1883            0    8811.9127    24.641886    24.623715    22.723951     13788.32    8455.6807    9336.0571    8644.0003    106.74112    106.66554    91.748963   -7899.2365 
 3399000    66.511237   -9912.1742   -9658.6031   -9912.1742            0    8767.1648    24.579025    24.687086    22.737812    13796.951    9197.1627    8535.1411    8569.1907     233.6364   -276.38871   -680.29929   -7894.5234 
 3400000    64.860632    -9915.478   -9668.1997    -9915.478            0    8489.2813    24.676493    24.669062    22.692338    13813.868    7879.6545     8524.049    9064.1404    -20.23185    -779.7211   -108.91017   -7957.9398 
 3401000    64.708707   -9904.2393   -9657.5402   -9904.2393            0    8804.7545    24.643299    24.673705    22.705734    13806.028     8362.846    9036.3181    9015.0995   -254.83062   -265.94003    216.51708   -7884.7314 
 3402000     65.41626   -9914.6218   -9665.2252   -9914.6218            0    8924.7896     24.66379    24.621321    22.704588    13787.476    8422.5724    9454.5225    8897.2741   -268.39949    -837.6716    113.55482   -7870.6624 
 3403000    65.639106   -9905.8309   -9655.5847   -9905.8309            0    8805.7256    24.663977    24.683318    22.662647    13796.765    8730.9437    8528.3701    9157.8631   -270.62497   -24.961348     60.57104     -7883.77 
 3404000    62.261252   -9908.5319   -9671.1636   -9908.5319            0    8132.0891    24.606786    24.598213    22.838325    13823.649    8454.4911     9125.859    6815.9174   -252.52774    234.49628    1018.0512    -8031.704 
 3405000    66.654466   -9916.6991   -9662.5819   -9916.6991            0    8245.9102    24.670634    24.679388    22.691627    13815.937    8031.8467    8139.3646    8566.5195    -84.76846    109.51296    308.59678    -8001.103 
 3406000    60.588916   -9916.7916   -9685.7991   -9916.7916            0    8368.3246    24.622828    24.652646    22.749153    13809.142    8721.8686    8341.0493     8042.056   -130.68744   -489.36671     48.58936    -8000.484 
 3407000    63.836906    -9908.596   -9665.2206    -9908.596            0    8390.4258    24.665652    24.714106    22.660648    13813.694    8308.3533    8431.1396    8431.7846   -433.62929    -264.4134    251.86299   -7974.8975 
 3408000    63.267229   -9902.7192   -9661.5156   -9902.7192            0    8738.9744    24.641286    24.664054     22.71687    13806.269    9303.2341    7805.3089    9108.3801   -681.82114   -589.68636    220.14889   -7901.9207 
 3409000    65.436198   -9901.5419   -9652.0692   -9901.5419            0    8896.9743    24.645374     24.63979    22.718556    13795.998    8714.0042    9794.0118    8182.9068    271.11013   -35.355225    580.87663   -7861.9937 
 3410000     66.18836   -9916.3183   -9663.9781   -9916.3183            0     8139.632    24.710461    24.684195    22.646551    13813.441    7790.5636    8088.3233    8540.0092    50.650543   -181.82041    81.058068   -8024.2096 
 3411000    62.705765   -9916.2732   -9677.2102   -9916.2732            0    8408.4896    24.624362    24.669068     22.73597    13811.194    8723.3817    8154.1238    8347.9632   -542.75043   -487.93198   -419.88185   -7983.5546 
 3412000    64.475589   -9910.7223    -9664.912   -9910.7223            0    8730.5354    24.666103    24.680205    22.667951    13799.443    8222.3277    9135.1047    8834.1738   -564.98614   -554.45199     129.5948   -7907.8854 
 3413000    67.185083   -9909.5479   -9653.4077   -9909.5479            0    9332.0873    24.574784    24.613014    22.778948    13778.063    9202.1734    10243.929    8550.1595   -334.11866   -604.73145   -330.40216   -7778.2282 
 3414000    66.131513   -9921.7051   -9669.5816   -9921.7051            0    8563.0593    24.643134    24.700963    22.669898    13799.375     8721.994    8331.2856    8635.8984     53.52093   -366.76385    1.9357444   -7946.2683 
 3415000    63.704444   -9904.5918   -9661.7214   -9904.5918            0    8849.8434    24.637324    24.664217    22.710841    13800.477    9330.1371     8869.297    8350.0959    247.86085   -572.05428   -542.81152   -7880.5506 
 3416000    65.526309   -9897.0139   -9647.1977   -9897.0139            0    9440.8691    24.634227    24.601661    22.716757    13767.329    9336.8041    9533.0072     9452.796   -132.91543    -370.1641    344.85906   -7751.6375 
 3417000    63.157344   -9916.9122   -9676.1276   -9916.9122            0    8536.3703    24.672966    24.696971    22.650431    13801.984    8367.2364     8571.631    8670.2435     148.1525    49.014053    534.02045   -7957.8605 
 3418000    66.615886   -9900.2463   -9646.2762   -9900.2463            0    8644.1178    24.565712    24.631917    22.819519    13808.104    9086.5487    8694.7055    8151.0993   -950.26687    128.05403    268.11817   -7905.5494 
 3419000    63.517351   -9900.1398   -9657.9827   -9900.1398            0    8941.5639    24.655393    24.697215    22.647242    13790.348    8790.1789    8679.2572    9355.2555   -311.23285    81.707241    715.36565   -7859.6725 
 3420000    63.436862   -9906.9634   -9665.1132   -9906.9634            0    8562.6192    24.660436     24.66137    22.713036    13813.163     8064.342    9116.1618    8507.3538   -308.53121   -433.26467    28.014632   -7940.1666 
 3421000    64.322793     -9912.14   -9666.9122     -9912.14            0    8109.1476     24.62535     24.69518    22.733372    13824.788    8468.2087    7993.6117    7865.6223    -714.1866    213.59626    551.09674    -8031.943 
 3422000    64.770416   -9912.7326   -9665.7982   -9912.7326            0    8448.7084    24.658751    24.726385    22.654938    13813.209    8612.8683    8037.3862    8695.8707   -653.14721    384.82733    892.49551   -7963.7934 
 3423000    66.781357   -9916.3495   -9661.7485   -9916.3495            0    8488.7976    24.585767    24.621667    22.814934    13810.851    8750.1775    9316.1668    7400.0486    514.70522    238.13839    549.18718   -7951.9596 
 3424000    65.532577   -9919.5267   -9669.6866   -9919.5267            0    8042.4385    24.616059    24.720878     22.71703    13824.007    8423.2751     7604.839    8099.2014    214.36995    100.75702   -15.138778   -8048.2589 
 3425000    66.434574   -9921.6131   -9668.3342   -9921.6131            0    7796.5788    24.678995    24.711334    22.684826    13834.361    7531.1324    7640.7593    8217.8447   -229.87355   -209.25536    310.18832   -8095.2967 
 3426000    64.755954    -9910.058   -9663.1788    -9910.058            0    9409.4764    24.607529    24.629262    22.725011     13772.84    9334.9621    9535.3993    9358.0679   -389.90873    1.4975147     12.82861   -7773.1655 
 3427000    65.176632    -9905.937   -9657.4539    -9905.937            0    8904.0848    24.700036    24.668191    22.649328    13800.353    8139.9095    9204.2005    9368.1445   -181.04099   -428.68692   -8.2215201   -7865.3822 
 3428000    65.896231   -9918.1694   -9666.9429   -9918.1694            0    7868.0446    24.629118    24.660289    22.761596    13824.509    7261.0847    8863.4833    7479.5658   -36.862159    -330.4804    199.81629    -8080.617 
 3429000    64.512067   -9914.5701   -9668.6207   -9914.5701            0    7855.8692    24.606087    24.763726     22.71714    13842.426    8052.4761    8104.4279    7410.7037    -510.5281   -195.41413    195.40173   -8082.6968 
 3430000    63.366984   -9908.1542   -9666.5704   -9908.1542            0    8890.9869    24.617842    24.707785    22.669147    13788.562     9306.769    8404.2001    8961.9916   -29.918533   -298.49203   -365.27984   -7878.6638 
 3431000    67.450125   -9917.6115   -9660.4608   -9917.6115            0    8942.9164    24.668229    24.633432    22.700663    13794.356     7940.582    9419.5227    9468.6443   -181.40857    67.694929    647.89906   -7861.3559 
 3432000    64.824143   -9901.3417   -9654.2025   -9901.3417            0      8712.41    24.689284    24.653255    22.693656    13812.975    8244.8021    9336.8771    8555.5507    158.83351    -92.63227   -314.81962   -7899.1043 
 3433000    65.690178   -9918.1712   -9667.7303   -9918.1712            0    7983.0922    24.648479    24.704738    22.709269    13828.451    8207.4465    7477.6191     8264.211   -421.94379    -652.8564     273.5606     -8057.75 
 3434000    64.653844   -9907.9128   -9661.4228   -9907.9128            0    8554.1081      24.6524    24.654168    22.729961    13814.916    8724.1679      8530.83    8407.3265   -619.64761   -102.74013   -104.12417    -7937.972 
 3435000    67.483019   -9908.4397   -9651.1637   -9908.4397            0    8133.4483    24.675574    24.662175    22.727871    13831.121    8056.7725    8392.1898    7951.3827    228.69878   -99.372325   -201.34293   -8010.5437 
 3436000    65.084583   -9901.2311    -9653.099   -9901.2311            0    8828.0576    24.670556     24.66078     22.67995    13798.372    8327.9179    9291.3476    8864.9073   -286.22667   -915.21936   -291.97822    -7876.584 
 3437000    63.709435   -9920.8644    -9677.975   -9920.8644            0    8336.4822    24.652829     24.69771    22.678304    13808.103    8322.6313    8301.1583    8385.6571    53.755404   -98.614084   -3.1326679    -7999.199 
 3438000    65.603321   -9903.7257   -9653.6159   -9903.7257            0    8537.7449    24.656156    24.625251    22.760908    13819.604    7927.3164    9330.1981    8355.7201    66.980332   -119.31087    130.80686   -7932.8782 
 3439000    65.218137   -9923.7058   -9675.0645   -9923.7058            0    8287.2159    24.669977    24.704024    22.640072     13797.94      8512.08    7590.9005    8758.6674   -3.5625613   -46.420577    527.67197   -8007.4379 
 3440000    66.677284   -9905.3065   -9651.1023   -9905.3065            0    8566.6815     24.66287    24.649896    22.722417    13813.802    8373.9772       8631.8    8694.2673   -317.73576   -298.10945    345.71928   -7925.2575 
 3441000    64.793289   -9905.3319   -9658.3103   -9905.3319            0    8533.9299    24.690588    24.666681    22.669502    13806.517    8392.9082    8527.2461    8681.6355   -167.52246    141.82257    58.641111   -7939.9704 
 3442000    65.292008   -9902.0746   -9653.1517   -9902.0746            0    8741.1193    24.646946    24.630127     22.73857    13803.617    8179.6687    9146.7642    8896.9251   -306.49655    197.07219    106.46998   -7893.4629 
 3443000    66.011395   -9913.0539   -9661.3884   -9913.0539            0     9004.134    24.648154    24.678807    22.663291    13785.786    9244.5801    8918.9302    8848.8917   -125.65853    118.90341     166.4704   -7851.0933 
 3444000    63.880669   -9904.4658   -9660.9235   -9904.4658            0    9012.7925    24.599247    24.680139     22.72182    13794.709    9487.4442    8501.5344    9049.3989   -287.85274   -486.07179   -309.19888   -7847.7148 
 3445000    65.328967   -9911.5957   -9662.5319   -9911.5957            0    8357.4118    24.600798    24.732236    22.702738    13813.089    8852.3724    7743.7208    8476.1422     315.6232   -139.75684     268.5899   -7978.9334 
 3446000    66.396754   -9913.5455   -9660.4108   -9913.5455            0    8513.1097    24.613887    24.730688    22.677566    13804.251    9008.8501    7794.5771     8735.902   -209.25937   -229.75245   -260.49661   -7946.5444 
 3447000    64.774942   -9910.8759   -9663.9242   -9910.8759            0    8395.5334    24.637149    24.671196    22.727093    13814.162    8743.2391    8401.4922     8041.869    -33.38578    88.678714    135.95877   -7972.5148 
 3448000    67.193272   -9913.6156   -9657.4442   -9913.6156            0    8694.5198    24.597483    24.695072    22.719312    13800.542    8568.2792    8507.2383    9008.0419   -75.116197   -499.89594    5.4959357   -7907.5265 
 3449000    64.525679   -9899.4709   -9653.4695   -9899.4709            0    8472.0724    24.595292    24.642161    22.801824    13819.756    8942.2902    8469.2282    8004.6987   -400.59156   -473.10375    540.76591   -7945.9491 
 3450000    64.945216   -9907.7135   -9660.1127   -9907.7135            0    8943.7447    24.645234    24.679594    22.681908    13795.916    8140.1221    9128.6703    9562.4418   -256.13767    259.40296   -30.721412   -7860.6377 
 3451000    68.591724   -9914.4428   -9652.9399   -9914.4428            0    8862.1351     24.62921    24.695684    22.694233    13803.431    9803.8449    8007.2476    8775.3127    9.2825004   -600.80463    150.93834   -7868.9134 
 3452000    63.453375   -9907.3376   -9665.4244   -9907.3376            0     8778.984    24.652894    24.704022    22.663293    13802.526    8431.3373    8437.7839    9467.8308   -88.229128    380.93586    356.65372   -7898.2527 
 3453000    65.218289   -9921.7184   -9673.0765   -9921.7184            0    8597.5308    24.678986     24.65279    22.682729    13800.305     8112.748    9201.4593     8478.385    -145.7907   -190.63827    300.23329   -7942.7092 
 3454000    66.800006   -9907.0611    -9652.389   -9907.0611            0    9196.2363    24.686797    24.626073    22.675865    13785.539    8258.7914    9512.0488    9817.8688    30.091242    532.97973   -64.364805   -7803.5045 
 3455000     65.24717    -9918.839    -9670.087    -9918.839            0    8484.5736    24.652584    24.671402    22.686012    13797.946    8010.2908    8979.2894    8464.1405    -874.0137   -115.45605    202.50631   -7962.7457 
 3456000    61.868164   -9915.0088   -9679.1392   -9915.0088            0    8946.9835     24.64795    24.597837    22.739634    13786.727    8912.8599    9269.5527    8658.5379   -182.11346   -189.40877    338.82367   -7880.2114 
 3457000    64.005128   -9902.8395   -9658.8228   -9902.8395            0    9160.1994    24.662493    24.732752    22.594212    13781.822     8891.672    8448.4988    10140.427   -20.508688   -401.06287     443.7111   -7817.6802 
 3458000    66.332454   -9914.2302   -9661.3406   -9914.2302            0    8489.4609     24.66181    24.650301    22.717983     13810.74    8861.7218    8263.4263    8343.2347    166.81558   -92.527353     298.3363   -7951.4318 
 3459000    64.489279   -9901.2585   -9655.3959   -9901.2585            0    7833.8799    24.615613      24.7481    22.723149    13842.707    8198.2737    7345.7175    7957.6483   -236.05456   -1031.9869    393.96834   -8073.8791 
 3460000    66.824041   -9913.4528   -9658.6891   -9913.4528            0    8622.2778    24.672392    24.662933    22.692378    13808.166    8357.4012    8584.0809    8925.3515   -524.55218    190.36558    269.53916   -7922.3526 
 3461000    66.391211   -9908.6276    -9655.514   -9908.6276            0    8424.9233    24.658954     24.65781     22.72169    13815.601    8185.5202    8732.6254    8356.6244   -210.10045   -1142.6998    62.019251   -7958.0067 
 3462000    66.144637   -9916.9378   -9664.7643   -9916.9378            0    8499.6145    24.722502    24.637961    22.669245     13808.11    7743.5585    9440.9219    8314.3633   -699.40154   -102.71543   -108.10612   -7953.1364 
 3463000    62.922393   -9907.7063   -9667.8174   -9907.7063            0    8361.9894     24.64078    24.678483    22.717307    13814.328    8240.7912    8688.0537    8157.1233   -416.98295   -356.68701    560.01254   -7983.1458 
 3464000    64.596087   -9899.2963   -9653.0266   -9899.2963            0    9195.7302    24.695209    24.670268    22.621033     13781.58    8603.2229    8865.3343    10118.634   -394.73668   -282.61031    -80.57425   -7804.7749 
 3465000    63.984502    -9908.301   -9664.3629    -9908.301            0    8679.2267    24.670004    24.642398    22.704952    13802.977    8761.0594    8539.1767    8737.4441   -178.47084   -564.91425    163.47349    -7917.215 
 3466000    63.716253   -9913.7384    -9670.823   -9913.7384            0    8143.9633    24.624287    24.706682    22.723693    13824.741    8329.7876     7917.986    8184.1164   -697.26664   -205.96628    586.90424   -8028.8399 
 3467000    67.900684   -9917.0991   -9658.2308   -9917.0991            0    7883.3663    24.693825    24.705104    22.675979    13833.788     7548.676    8124.1574    7977.2656   -359.74612    199.85684    382.65484    -8067.749 
 3468000    63.163652   -9904.8777   -9664.0691   -9904.8777            0    8167.1045    24.586309    24.712024    22.770005    13834.542    9001.5431     7870.017    7629.7535    6.8102368   -221.22509    620.76295   -8016.2528 
 3469000    64.677261   -9916.4683   -9669.8891   -9916.4683            0    8972.2481    24.626541    24.684755    22.673423    13783.177    9062.3456    9020.2018    8834.1967    -598.4156   -241.70933   -470.60651   -7866.3461 
 3470000    65.658724   -9913.4299   -9663.1089   -9913.4299            0    8748.6861    24.672632    24.661366    22.675984    13797.448    8243.8192    9069.1314    8933.1076   -387.53486    74.943815   -201.87672   -7902.6841 
 3471000    64.894867   -9911.4568   -9664.0479   -9911.4568            0     8598.993    24.635406    24.649368    22.741897    13809.953    8630.0566    8775.0541    8391.8683   -50.508989   -83.449213    -133.1458   -7932.1764 
 3472000    64.558193   -9917.9669   -9671.8416   -9917.9669            0    7904.9693    24.671453    24.682069    22.714159    13831.617    7730.6093    8514.1637     7470.135   -355.36492   -355.82382   -152.33018   -8077.2517 
 3473000    65.347257   -9914.7253   -9665.5917   -9914.7253            0    8247.6341    24.676342    24.671212    22.707164    13824.014    7944.3395     7942.662    8855.9007   -380.25114   -533.23769    480.35551   -8002.7939 
 3474000    66.093344   -9895.4353   -9643.4573   -9895.4353            0    9496.5655    24.611524    24.695651    22.672947    13780.563    9956.1228    8757.1292    9776.4445    281.42319    157.98767    432.02134   -7734.8814 
 3475000    64.641224   -9912.2571   -9665.8152   -9912.2571            0    8701.9479     24.65265    24.620058    22.735214     13799.13    8359.7053    9433.8773    8312.2611   -424.14254   -16.204743    119.95956   -7914.5816 
 3476000    66.274746   -9915.4803   -9662.8108   -9915.4803            0    8360.2892    24.695449    24.725426    22.619643    13811.679      7774.05    8422.5839    8884.2336    187.05029   -300.10651   -37.895948   -7978.8047 
 3477000    66.807786   -9912.6792   -9657.9774   -9912.6792            0    8441.6241    24.640118    24.650446    22.749554    13817.849    7565.9424    9678.4485    8080.4815   -55.103917   -455.43687   -66.362349   -7956.8284 
 3478000    65.227466    -9903.406   -9654.7292    -9903.406            0    8668.3459    24.676307    24.689357    22.645927    13796.853    8460.3853    8713.8576    8830.7948    383.91227   -763.67298    1118.2899   -7910.5457 
 3479000    64.467771   -9913.6442   -9667.8637   -9913.6442            0    8360.4101    24.633387     24.62646     22.77377    13815.323    8331.1241    8641.0054    8109.1008   -55.887988   -97.335025   -325.02875   -7983.3889 
 3480000    66.101679   -9911.6158   -9659.6061   -9911.6158            0    8584.7687     24.63275    24.749673    22.641593    13803.504    9304.6139    7582.4706    8867.2217   -222.76715    417.01583    256.05544   -7931.4068 
 3481000    68.540825   -9908.6987   -9647.3898   -9908.6987            0     9151.964    24.585416    24.654825    22.751486    13790.794    9807.9951    8868.0775    8779.8193   -543.36147   -79.983101    384.48374   -7806.7049 
 3482000    66.064007   -9911.0043   -9659.1382   -9911.0043            0    8404.6035     24.61136    24.695816    22.734859    13818.193    8533.2234    8190.4942     8490.093   -496.35702    251.04614   -42.776989   -7965.4074 
 3483000     66.34759   -9907.9402   -9654.9929   -9907.9402            0    8204.8859     24.61188    24.720171    22.723111    13824.965     8426.008    7905.0194    8283.6302   -281.33456    364.91883   -100.68434   -8000.6997 
 3484000    66.819035   -9910.9228   -9656.1782   -9910.9228            0    8669.4191    24.636704    24.712317     22.67938    13807.887    8482.3968    8410.9086     9114.952    76.971024     180.2307   -127.46291   -7910.3837 
 3485000    65.143622   -9920.4286   -9672.0714   -9920.4286            0    8144.4713    24.565882    24.671319    22.817507    13829.068    9092.4056    7868.0132    7472.9949   -227.62496   -530.40674   -297.75147   -8029.4719 
 3486000    68.037902   -9919.0789   -9659.6874   -9919.0789            0    8129.7224    24.627103    24.741151    22.676475    13816.842    8454.0898    7869.2388    8065.8386    61.009989    -339.6229    304.62293    -8021.512 
 3487000    66.071192   -9919.1595    -9667.266   -9919.1595            0    8473.2337    24.617741    24.671304     22.73962    13810.949    8800.5541    8253.0787    8366.0683    109.31793   -368.00899    198.34816   -7960.5997 
 3488000    68.362178   -9909.3115   -9648.6837   -9909.3115            0    8318.8975    24.687826    24.693994    22.682268    13828.041    8212.5609    8165.0303    8579.1014   -98.940724   -461.39087    401.54293   -7971.0299 
 3489000    67.170029   -9913.5435   -9657.4607   -9913.5435            0    9041.9023    24.614504    24.680188    22.699811    13789.921    8775.7408     8730.657    9619.3092   -430.87812   -96.672473   -135.21908   -7839.0269 
 3490000    66.204352   -9904.7646   -9652.3635   -9904.7646            0    8777.9939     24.60474    24.655598     22.75415    13803.682    9209.7511    8655.9675    8468.2632    50.277355   -150.76343    105.50017   -7885.2432 
 3491000    64.526268   -9899.6839   -9653.6804   -9899.6839            0    8813.8202    24.599877    24.680125    22.718036    13792.757    8700.8461    9276.6092    8464.0053    105.76245   -368.62621    301.60908   -7880.7521 
 3492000     66.61154   -9908.4133   -9654.4597   -9908.4133            0    8707.6476    24.652395    24.704493    22.661033    13801.134    8725.5531    8416.4435    8980.9462   -492.40654   -218.62453    75.985067   -7901.8246 
 3493000    65.922781   -9912.9041   -9661.5764   -9912.9041            0    8984.4037    24.571032    24.672089    22.746706    13789.478    9657.9256    8551.8905    8743.3949    1.1946703    75.443577    228.28739   -7854.7644 
 3494000    63.307258   -9908.0727   -9666.7166   -9908.0727            0    8846.0853     24.63427    24.712783    22.660708    13795.417     9661.152    8142.8725    8734.2316   -295.78661    23.732087   -32.539731    -7886.955 
 3495000    66.669857   -9912.3525   -9658.1766   -9912.3525            0    8743.3105    24.617549    24.699887    22.692187        13798    8959.4346    8476.9748    8793.5221    -6.390942   -408.56223    -304.4189   -7898.7631 
 3496000    64.593259   -9915.2522   -9668.9933   -9915.2522            0     8199.305    24.657694    24.676684    22.708908    13817.692    7844.9876    8490.3178    8262.6097   -164.28249   -430.43976   -54.323715    -8016.695 
 3497000    65.167014   -9901.2046   -9652.7582   -9901.2046            0    7945.1124    24.626936    24.729685    22.729174    13842.439    8461.1002    7350.8967    8023.3404   -434.98434   -894.45327   -207.59361   -8048.8166 
 3498000    65.151364    -9925.168   -9676.7813    -9925.168            0    7621.0363    24.685732    24.673273    22.717419    13836.675    7634.3219    7526.6475    7702.1394    38.727412    129.97791    235.72157   -8138.9041 
 3499000    62.894776   -9917.1134   -9677.3298   -9917.1134            0    8765.5988    24.621054    24.670227     22.71066    13794.614     8367.426    8930.9182    8998.4522   -31.819812   -241.17654    -22.46692   -7913.8641 
 3500000    67.508922   -9913.8778    -9656.503   -9913.8778            0    8465.8798    24.635512    24.656166    22.731458     13807.48     8778.978    8511.4634    8107.1981    632.30575   -404.17457    443.12812   -7951.7462 
Loop time of 538.968 on 64 procs for 250000 steps with 1920 atoms

Performance: 80.153 ns/day, 0.299 hours/ns, 463.850 timesteps/s
195.2% CPU use with 32 MPI tasks x 2 OpenMP threads

MPI task timing breakdown:
Section |  min time  |  avg time  |  max time  |%varavg| %total
---------------------------------------------------------------
Pair    | 72.196     | 74.605     | 79.903     |  23.5 | 13.84
Bond    | 0.8203     | 1.0763     | 1.7006     |  21.8 |  0.20
Kspace  | 245.38     | 255.11     | 268.19     |  34.3 | 47.33
Neigh   | 0.14939    | 0.17243    | 0.19315    |   2.8 |  0.03
Comm    | 73.367     | 85.876     | 96.488     |  54.0 | 15.93
Output  | 0.60493    | 0.60594    | 0.60777    |   0.1 |  0.11
Modify  | 89.201     | 98.114     | 105.89     |  38.0 | 18.20
Other   |            | 23.4       |            |       |  4.34

Nlocal:        60.0000 ave          62 max          58 min
Histogram: 3 0 7 0 0 13 0 5 0 4
Nghost:        3610.34 ave        3638 max        3577 min
Histogram: 2 0 1 5 5 6 5 4 2 2
Neighs:        22034.3 ave       22846 max       21113 min
Histogram: 2 2 2 3 4 7 5 1 2 4

Total # of neighbors = 705098
Ave neighs/atom = 367.23854
Ave special neighs/atom = 2.0000000
Neighbor list builds = 250
Dangerous builds = 0

unfix		3
unfix		2
unfix		1

write_data	data.final.${pid}
write_data	data.final.1
System init for write_data ...
PPPM initialization ...
  extracting TIP4P info from pair style
  using 12-bit tables for long-range coulomb (../kspace.cpp:340)
  G vector (1/distance) = 0.37539619
  grid = 30 30 30
  stencil order = 5
  estimated absolute RMS force accuracy = 0.0031616893
  estimated relative force accuracy = 9.5213333e-06
  using double precision FFTW3
  3d grid and FFT values/proc = 5400 960
Last active /omp style is kspace_style pppm/tip4p/omp
WARNING: Not all mixed pair coeffs generated from mixing. Use write_data with 'pair ij' option to store all pair coeffs. (../write_data.cpp:312)

write_restart   restart.lmp.${pid}
write_restart   restart.lmp.1
System init for write_restart ...
PPPM initialization ...
  extracting TIP4P info from pair style
  using 12-bit tables for long-range coulomb (../kspace.cpp:340)
  G vector (1/distance) = 0.37539619
  grid = 30 30 30
  stencil order = 5
  estimated absolute RMS force accuracy = 0.0031616893
  estimated relative force accuracy = 9.5213333e-06
  using double precision FFTW3
  3d grid and FFT values/proc = 5400 960
Last active /omp style is kspace_style pppm/tip4p/omp
Total wall time: 0:08:59
