#include		in.partitions
include		in.temp
variable        temperature equal 53.27
variable	tempDamp equal 100.0
include		in.pressure
variable        pressure equal 8187.4
variable        pressureDamp equal 1000.0 # This is 1 ps
include		in.seed
variable        seed equal 745823

units		real
atom_style	full
read_restart    restart.lmp.${pid}
read_restart    restart.lmp.1
Reading restart file ...
  restart file = 30 Jul 2021, LAMMPS = 30 Jul 2021
  restoring atom style full from restart
  triclinic box = (-3.0954847 0.032838061 0.030060078) to (14.705484 22.547161 19.199938) with tilt (-0.16049573 -6.7208271 0.021999984)
  2 by 4 by 2 MPI processor grid
  restoring pair style lj/cut/tip4p/long/omp from restart
  restoring bond style harmonic/omp from restart
  restoring angle style harmonic/omp from restart
  1008 atoms
  672 bonds
  336 angles
Finding 1-2 1-3 1-4 neighbors ...
  special bond factors lj:    0        0        0       
  special bond factors coul:  0        0        0       
     2 = max # of 1-2 neighbors
     1 = max # of 1-3 neighbors
     1 = max # of 1-4 neighbors
     2 = max # of special neighbors
  special bonds CPU = 0.001 seconds
  read_restart CPU = 0.005 seconds

include 	in.setup
variable	out_freq equal 1000
variable	out_freq2 equal 10000
variable	out_freq3 equal 1000

timestep	2.0

neigh_modify    delay 7 every 1

include		in.tip4p
# This is TIP4P/Ice

# create groups ###
group ox type 2
336 atoms in group ox
group hy type 1
672 atoms in group hy

# set charges - beside manually ###
set group ox charge -1.1794
Setting atom values ...
  336 settings made for charge
set group hy charge 0.5897
Setting atom values ...
  672 settings made for charge

# ### TIP3P Potential Parameters ###
pair_style lj/cut/tip4p/long/omp 2 1 1 1 0.1577 8.5
pair_coeff 1 1*2 0.000 0.000
pair_coeff 2 2 0.21084 3.1668
bond_style  harmonic
bond_coeff  1 450 0.9572
angle_style harmonic
angle_coeff 1 55 104.52
kspace_style pppm/tip4p/omp 1.0e-5
pair_modify tail yes

thermo          ${out_freq}
thermo          1000
thermo_style    custom step temp pe etotal epair emol press lx ly lz vol pxx pyy pzz pxy pxz pyz enthalpy

restart 	${out_freq3} restart.lmp.${pid} restart2.lmp.${pid}
restart 	1000 restart.lmp.${pid} restart2.lmp.${pid}
restart 	1000 restart.lmp.1 restart2.lmp.${pid}
restart 	1000 restart.lmp.1 restart2.lmp.1


include         in.dump
dump            myDump all atom ${out_freq2} dump.water.${pid}
dump            myDump all atom 10000 dump.water.${pid}
dump            myDump all atom 10000 dump.water.1
dump            myDump2 all dcd ${out_freq2} dump.dcd
dump            myDump2 all dcd 10000 dump.dcd
dump_modify     myDump append yes
dump_modify     myDump2 append yes


variable natoms 	equal  "count(all)"                        # NUMBER ATOMS
variable H      	equal  "enthalpy/v_natoms"                 # ENTHALPY-per-atom
variable Vol      	equal  "vol/v_natoms"                 # volume-per-atom
fix AVG all 		ave/time ${out_freq} 1 ${out_freq} v_Vol v_H file vol_enthalpy.dat
fix AVG all 		ave/time 1000 1 ${out_freq} v_Vol v_H file vol_enthalpy.dat
fix AVG all 		ave/time 1000 1 1000 v_Vol v_H file vol_enthalpy.dat



fix 		1 all shake 1e-6 200 0 b 1 a 1
       0 = # of size 2 clusters
       0 = # of size 3 clusters
       0 = # of size 4 clusters
     336 = # of frozen angles
  find clusters CPU = 0.000 seconds
fix             2 all nph tri ${pressure} ${pressure} ${pressureDamp}
fix             2 all nph tri 8187.4 ${pressure} ${pressureDamp}
fix             2 all nph tri 8187.4 8187.4 ${pressureDamp}
fix             2 all nph tri 8187.4 8187.4 1000
fix             3 all temp/csvr ${temperature} ${temperature} ${tempDamp} ${seed}
fix             3 all temp/csvr 53.27 ${temperature} ${tempDamp} ${seed}
fix             3 all temp/csvr 53.27 53.27 ${tempDamp} ${seed}
fix             3 all temp/csvr 53.27 53.27 100 ${seed}
fix             3 all temp/csvr 53.27 53.27 100 745823


run             250000
PPPM initialization ...
  extracting TIP4P info from pair style
  using 12-bit tables for long-range coulomb (../kspace.cpp:340)
  G vector (1/distance) = 0.38029084
  grid = 24 27 32
  stencil order = 5
  estimated absolute RMS force accuracy = 0.0023524642
  estimated relative force accuracy = 7.0843762e-06
  using double precision FFTW3
  3d grid and FFT values/proc = 7875 1344
Last active /omp style is kspace_style pppm/tip4p/omp
Neighbor list info ...
  update every 1 steps, delay 7 steps, check yes
  max neighbors/atom: 2000, page size: 100000
  master list distance cutoff = 10.8154
  ghost atom cutoff = 10.8154
  binsize = 5.4077, bins = 5 5 4
  1 neighbor lists, perpetual/occasional/extra = 1 0 0
  (1) pair lj/cut/tip4p/long/omp, perpetual
      attributes: half, newton on, omp
      pair build: half/bin/newton/tri/omp
      stencil: half/bin/3d/tri
      bin: standard
Per MPI rank memory allocation (min/avg/max) = 12.46 | 12.47 | 12.48 Mbytes
Step Temp PotEng TotEng E_pair E_mol Press Lx Ly Lz Volume Pxx Pyy Pzz Pxy Pxz Pyz Enthalpy 
42500000    55.944764   -5275.4344    -5163.538   -5275.4344            0     7909.393    17.800968    22.514323    19.169878    7682.8413    8854.5905    7438.4412    7435.1473    577.64239   -183.34788    614.05544   -4277.3193 
42501000    55.214125   -5283.0489   -5172.6138   -5283.0489            0     7800.476    17.814469    22.586802    19.074162    7674.9064    7823.0964    7972.9732    7605.3584   -307.56619    86.808887    98.128653   -4299.5016 
42502000    55.457092     -5280.38   -5169.4589     -5280.38            0    7675.1973    17.696115    22.730893    19.088096     7678.158    7578.7593    8144.6175     7302.215   -152.30237   -147.96167    15.095452   -4310.0052 
42503000    53.968356   -5281.7539   -5173.8106   -5281.7539            0    7323.0696    17.744744    22.757182    19.021553    7681.2906    7889.7213    7130.8616    6948.6258    880.84517    145.90176    -311.7321   -4353.4529 
42504000    52.121889   -5281.5434   -5177.2931   -5281.5434            0    8314.7733    17.749088    22.724312    19.015993    7669.8309    7953.0288    8194.7675    8796.5237    32.399292    66.352729    365.18832   -4247.2307 
42505000    53.326178   -5278.0407   -5171.3818   -5278.0407            0    7989.2053    17.707867    22.643449    19.149355     7678.263    8560.6995    8069.1964    7337.7201    798.59602    196.61446    293.26006   -4276.7538 
42506000    53.596971   -5270.7625   -5163.5619   -5270.7625            0    8922.2055    17.766345     22.70569     18.97277    7653.5609    8947.9525    8302.6769    9515.9871     400.5577   -303.19957    308.57183   -4167.6712 
42507000    53.601912    -5278.194   -5170.9835    -5278.194            0    7804.1432    17.777315     22.74127    18.973041    7670.3971    7811.2893     7571.332    8029.8083   -414.79557   -69.561282    26.857152    -4297.974 
42508000    53.720871   -5278.2497   -5170.8013   -5278.2497            0    7839.2672    17.740172    22.622967    19.138617     7681.003    8281.5616    8066.3551    7169.8848   -361.25384   -348.29342   -69.207075   -4292.6501 
42509000    54.643993    -5274.236   -5164.9412    -5274.236            0    8545.9637    17.785567    22.592812    19.107005    7677.6908    9081.7303    8649.2287    7906.9321   -9.3240589   -569.64061    492.38948    -4208.039 
42510000    54.184923   -5276.8409   -5168.4644   -5276.8409            0    7844.8149    17.790819     22.61283    19.098865    7683.4876    7113.8149    7893.3847    8527.2452   -862.60562    450.27104   -1359.8054   -4289.4075 
42511000    54.218774   -5281.1895   -5172.7453   -5281.1895            0     7309.586      17.7233    22.716581    19.110225    7694.0205    7783.8478    6849.9482    7294.9619    257.06287    15.375216    133.88588    -4352.541 
42512000    57.688223   -5274.5684   -5159.1849   -5274.5684            0    8028.2964    17.750899    22.693766    19.041551    7670.5981    8221.1393    8010.8026    7852.9472   -592.60635    285.95468   -181.55888    -4261.077 
42513000    56.908662   -5271.4421   -5157.6178   -5271.4421            0    9116.6157    17.693964    22.700903    19.018238    7639.0356    8156.6893    9101.7437    10091.414   -559.58765   -51.960129    791.61131   -4141.9584 
42514000    54.772797   -5277.6224     -5168.07   -5277.6224            0    9063.0469    17.686093    22.683881    19.052751    7643.7585    9965.5135    9099.7831    8123.8441   -964.88846    714.91482    549.65864   -4157.7544 
42515000    52.464095   -5273.7416   -5168.8069   -5273.7416            0    8508.2244    17.699205    22.744883     19.04887    7668.4344     8118.569    8212.9706    9193.1336    1373.9609    290.47232     244.5197    -4217.279 
42516000    56.265659    -5277.582   -5165.0437    -5277.582            0    8868.5669    17.719684    22.699077    18.997474    7641.1728    8461.2937    8835.4392    9308.9678   -632.13115    643.48843   -48.062405   -4176.7424 
42517000    54.619658   -5279.1797   -5169.9336   -5279.1797            0    8235.7581    17.759996    22.702891    19.043248    7678.2996    9125.3232    7530.0039    8051.9471    246.83912   -301.65345    440.89813   -4247.6924 
42518000    51.860827    -5277.243    -5173.515    -5277.243            0     7846.113    17.771085    22.596425    19.114312    7675.6003    7724.1292    7911.2192    7902.9905  -0.62579549   -611.27278    578.91436   -4295.2152 
42519000    54.122051   -5276.0265   -5167.7757   -5276.0265            0    8456.2121    17.832289    22.540082    19.047565    7656.0022    8591.6032    8412.6383    8364.3947   -152.39968    -204.9344   -576.98997   -4223.5978 
42520000    55.190205   -5281.3939   -5171.0067   -5281.3939            0    8103.2696    17.849342    22.421449    19.171387    7672.5447    8676.4024    8626.4063    7007.0002   -352.33271   -172.69809   -491.55527   -4264.2816 
42521000    50.245712   -5274.2065   -5173.7089   -5274.2065            0    8006.5029    17.814194    22.551935    19.085507    7667.4982    9125.9422    7458.6628    7434.9038    287.63652   -991.55442    462.50141   -4278.4009 
42522000     55.34557   -5278.0406   -5167.3426   -5278.0406            0    8480.3106     17.77951    22.551812    19.101978    7659.1322    8587.1602    8602.7929    8250.9786    230.37004   -156.38121    446.51735   -4220.0869 
42523000    53.369966   -5280.1485    -5173.402   -5280.1485            0     8657.511    17.823195     22.60049    19.006064    7655.8886    8047.4255     8682.188    9242.9194    -306.9869    544.03987   -845.27165   -4206.7624 
42524000    54.519572   -5267.1116   -5158.0657   -5267.1116            0    8457.7607    17.808065     22.55438    19.074989     7661.467    7664.7911    8796.4224    8912.0688    70.127699   -199.33502    568.71884   -4213.0408 
42525000    56.823304   -5274.7248   -5161.0712   -5274.7248            0     8454.427    17.796566    22.610276    19.032857    7658.5414    8518.2637    8565.9824     8279.035   -16.888839    102.91942     921.9615   -4216.7796 
42526000    52.133004   -5267.8367   -5163.5643   -5267.8367            0    7988.7427    17.713739    22.691573    19.076221    7667.7364    7606.0825    8456.4943    7903.6513    45.502841    439.39165    -321.4447   -4270.2146 
42527000    55.378717   -5273.7074   -5162.9431   -5273.7074            0     8063.798    17.758822    22.665376    19.058764    7671.3503    7597.6214    8472.8424    8120.9304     365.6314    153.30236   -61.775387   -4260.7753 
42528000    52.656813   -5277.8318   -5172.5117   -5277.8318            0    8011.1798    17.781797    22.671302    19.026114    7670.1211    6597.3395    8185.9165    9250.2833    29.494014    151.85071   -787.82469   -4276.3743 
42529000    52.623498   -5271.6854   -5166.4319   -5271.6854            0    8278.6671    17.673483    22.642087    19.155433     7665.325     9907.114    7755.9339    7172.9534    43.676568   -320.06348    113.54516   -4240.9522 
42530000    54.568074   -5273.8604   -5164.7175   -5273.8604            0    8000.0515    17.691098    22.889062    18.947245     7672.358    8049.1145    7351.8441    8599.1959   -1042.4219    462.04149   -1410.4029    -4269.564 
42531000    54.801365   -5273.9159   -5164.3064   -5273.9159            0     7635.438    17.727265    22.793977    19.022104    7686.3542    8011.9213    7197.2892    7697.1035    437.73759   -125.77842   -317.49254   -4308.3922 
42532000     52.87808   -5271.8569   -5166.0943   -5271.8569            0    8232.0195    17.778571     22.69407    18.998873    7665.4398    8623.4646    8154.5698    7918.0241    -492.7953   -146.06508    -3.459754   -4245.8156 
42533000     53.22187   -5273.3467   -5166.8964   -5273.3467            0    8544.0097     17.73065    22.771696     18.96266    7656.3064    8814.4553    7858.8431    8958.7306   -899.02643   -234.53996   -697.86278   -4212.8776 
42534000    51.716191   -5276.6848    -5173.246   -5276.6848            0    8143.8528    17.746647    22.708979    19.022722    7666.3137    8596.1434    8089.9145    7745.5004    215.07709    -230.1973    513.05709   -4262.7199 
42535000    50.889955   -5273.5744   -5171.7882   -5273.5744            0     9184.404    17.674135    22.733675    19.027624    7645.2623    9914.7862    8447.7626    9190.6632    176.67159   -290.27153   -234.79319   -4147.7427 
42536000    51.599924   -5276.1537   -5172.9474   -5276.1537            0    8254.2126     17.77094     22.64098    19.037058    7659.5887    7793.0818    8165.0641    8804.4918    293.05349    97.920877   -29.130129   -4250.8921 
42537000    54.511052   -5274.5362   -5165.5073   -5274.5362            0    8721.3298    17.777839     22.49845     19.12312     7648.747    8195.5624     9192.882    8775.5451   -76.464716    -103.3478   -31.162797   -4192.6506 
42538000    50.175788   -5269.9273   -5169.5695   -5269.9273            0    8631.0231    17.752451     22.62663    19.076863    7662.7589    9384.0226    8720.0675    7788.9791   -780.41278   -523.68564   -279.92187   -4205.0226 
42539000     53.87305   -5276.0447    -5168.292   -5276.0447            0    8390.0864    17.633055     22.76736    19.084995    7661.8256     8796.442    8076.9212     8296.896    521.89475   -488.46453    997.19186   -4230.7848 
42540000    53.565021   -5276.6826    -5169.546   -5276.6826            0    7538.8428    17.777471    22.711407      19.0449    7689.4049    7139.4054    7689.6144    7787.5086   -567.68886    401.33976   -3.0788784   -4324.1244 
42541000     54.09021   -5277.8405   -5169.6534   -5277.8405            0    8149.5021      17.7707    22.670697    19.049492    7674.5483    7677.7306     8134.116    8636.6597    78.317146     36.60304   -649.17414    -4257.517 
42542000    54.970573    -5276.051    -5166.103    -5276.051            0    9465.3469    17.721656     22.56634    19.113322    7643.6643    9421.1907    9752.7855    9222.0646    274.92394     407.6617    490.55355   -4110.9534 
42543000    53.298692   -5274.0732   -5167.4692   -5274.0732            0    8035.7828    17.725488     22.75403    19.057883    7686.5449    7941.1244    7720.1978    8446.0262   -137.01539    148.14334   -308.39071   -4266.6549 
42544000    52.493335   -5279.7772    -5174.784   -5279.7772            0    8090.3624    17.707973    22.730469    19.032735    7660.8763    9054.5214    7607.8194    7608.7464   -18.869809    443.25991   -572.47655     -4270.88 
42545000    50.607858   -5273.5278   -5172.3058   -5273.5278            0     9191.995    17.705033    22.715606    19.007189    7644.3213    9370.5763    8962.6848    9242.7239    -21.23614    257.06916    69.724125   -4147.5401 
42546000    52.548962    -5275.927   -5170.8226    -5275.927            0     8676.402    17.659831    22.767395    19.026199    7649.8322    9250.1033    7929.6582    8849.4446   -371.46493   -970.73039   -702.10296   -4202.8401 
42547000    52.557999   -5275.6648   -5170.5423   -5275.6648            0     7857.312      17.7573    22.666299    19.081495    7680.1542    7658.4106    7850.3264    8063.1988    -268.6916    363.06652   -631.85232    -4290.467 
42548000    53.301319   -5279.4469   -5172.8377   -5279.4469            0     8016.598    17.775308    22.623284    19.086803    7675.4875    9072.6143    7514.9469    7462.2329   -189.84862     138.3906   -12.985319   -4275.4668 
42549000    55.194785   -5275.8428   -5165.4464   -5275.8428            0    8250.2983      17.7339    22.664812    19.083121    7670.1838    8819.8605    8340.4738    7590.5607   -138.92336    28.751049   -891.28606   -4242.5535 
42550000    52.507064   -5279.0411   -5174.0205   -5279.0411            0     8358.274    17.772528    22.634424    19.056615    7665.9223    7986.4368    8627.8419    8460.5432    490.88964    523.15981   -633.69455   -4239.5687 
42551000    56.422379   -5268.2828    -5155.431   -5268.2828            0    8636.8929    17.824527    22.584293    19.049474    7668.4484    8559.6041    8601.4818    8749.5928    168.25331    37.026213    975.78219   -4189.5115 
42552000     52.06524   -5280.2761   -5176.1392   -5280.2761            0    7669.4844     17.85037    22.572362    19.073656    7685.2531    7436.3277     7820.323    7751.8024   -579.01446    301.37235   -756.87375   -4316.5316 
42553000    52.268956   -5283.5189   -5178.9746   -5283.5189            0    7805.7012    17.802616    22.598646    19.088254    7679.4911    7808.0933    7873.8977    7735.1127   -248.03755    473.95943   -113.19383   -4304.7555 
42554000    54.570854   -5274.4487   -5165.3002   -5274.4487            0     7218.933    17.790824    22.691966    19.038535    7686.0237    7450.2871    7289.5878    6916.9242     597.7672   -500.60275    310.57207     -4356.11 
42555000    54.434019   -5272.4115   -5163.5368   -5272.4115            0    8208.9696    17.739248    22.575608    19.118787    7656.5829    8484.1952    9018.7668    7123.9469   -175.52989     723.1067     136.1584   -4246.8952 
42556000    55.480699   -5270.7094   -5159.7411   -5270.7094            0    8093.7782    17.841394    22.607192    19.013957    7669.1617    8324.0682     7964.184    7993.0823   -494.46525    174.09527   -264.38399   -4254.4775 
42557000    49.921244   -5274.1529   -5174.3042   -5274.1529            0     8720.911      17.6461    22.701046    19.114087    7656.8151    9273.9685    8457.9649    8430.7996    918.17796   -432.16416   -410.17266   -4200.4681 
42558000    54.179628   -5273.6934   -5165.3274   -5273.6934            0    9018.5259    17.765246    22.591446    19.052184    7646.4528    9388.3975    9034.1329    8633.0471    206.94253   -540.14596   -521.91575   -4159.6205 
42559000    53.953232   -5276.0027   -5168.0896   -5276.0027            0    8434.5153    17.841427    22.570471    19.016475    7657.7334    8879.9383    7969.9792    8453.6283    185.49276    -699.8317    591.34562   -4226.1214 
42560000    53.754152   -5273.3504   -5165.8354   -5273.3504            0    9046.4935    17.760196    22.638579    19.009254    7642.9674    8869.6615    9006.0787    9263.7404   -976.93622   -98.311642     204.5847   -4157.4695 
42561000    54.825897   -5274.5163   -5164.8577   -5274.5163            0    7892.2142    17.869267    22.671357     18.94984    7676.9694    6620.8874    7629.5534    9426.2016    18.412778     188.5481    903.25853   -4281.2397 
42562000    56.974454   -5275.1406   -5161.1847   -5275.1406            0    8126.2669    17.804079    22.572475    19.129563    7687.8293    7927.5701    8304.1759    8147.0548   -423.13522    139.58891   -288.72724   -4250.0749 
42563000    53.908235   -5269.4222   -5161.5991   -5269.4222            0    8395.9562    17.769183    22.535971     19.12752    7659.5348    8682.4262    8997.6181    7507.8244   -90.463805    89.951067    484.83109   -4223.7165 
42564000    51.647404   -5272.3822    -5169.081   -5272.3822            0    8270.8723     17.76672    22.626698    19.047611    7657.1818    8170.6738    8532.0208    8109.9222   -429.66851    348.66973    504.11635    -4245.455 
42565000    51.385445   -5274.2069   -5171.4296   -5274.2069            0    8397.6722    17.871444    22.560004    18.996614    7659.0517    7824.8599    8277.1819    9090.9749    -420.6785   -297.59928   -210.85501   -4233.4146 
42566000    53.328488   -5272.3046   -5165.6411   -5272.3046            0    7207.1503    17.885918    22.592047    19.063611    7703.2147    6418.7638    7334.7527    7867.9342    270.22247   -52.817557   -281.28895   -4355.9647 
42567000    54.109607   -5281.6835   -5173.4576   -5281.6835            0    8035.2156    17.807666    22.523298    19.133279    7674.1168    8047.5226    8412.4753     7645.649   -958.25961   -661.37989   -384.96504   -4274.1633 
42568000    54.044374   -5275.0814    -5166.986   -5275.0814            0     8119.146    17.797373    22.616306    19.035924    7662.1657    8163.2816    8203.9833     7990.173   -670.89046   -352.90767   -117.80796   -4259.7134 
42569000    50.677767    -5278.535   -5177.1732    -5278.535            0    7923.8844     17.79415    22.586125    19.094655    7674.1591     8104.432    7727.4311    7939.7902    1085.4112   -372.49642    981.49564   -4290.3341 
42570000    55.049756   -5281.8763     -5171.77   -5281.8763            0    6852.8265    17.874299    22.589145    19.088589    7707.3067    6618.2632    7632.7766    6307.4397   -126.33978    276.25886   -414.98757   -4401.4906 
42571000    53.574069   -5275.0479   -5167.8932   -5275.0479            0    8038.6165    17.801304    22.590616    19.051897    7661.5762    7989.3636    8282.6915    7843.7944   -332.82483   -113.54292   -26.716262   -4269.6884 
42572000    57.326835   -5270.8673   -5156.2065   -5270.8673            0    8438.7053    17.650644    22.819581    19.002628    7653.8845    8279.9277    8501.0743    8535.1139   -324.14269    301.60547   -220.40898    -4214.244 
42573000    52.843851    -5285.019   -5179.3248    -5285.019            0    7663.2026    17.756494    22.697572     19.05199    7678.5101    7709.9321    7834.4272    7445.2484     258.5698    538.02576   -709.98357   -4321.1749 
42574000    48.144604   -5272.4642    -5176.169   -5272.4642            0    7984.5396    17.806269    22.615284    19.060003    7675.3454    7700.3622    8335.1745    7918.0821    447.70774    348.97966   -60.367726   -4282.4033 
42575000    53.261139   -5274.6867   -5168.1579   -5274.6867            0    8320.5273    17.767812     22.57907    19.081963    7655.3148    8172.4964    8482.2395    8306.8459   -383.70441   -200.05312      454.448   -4239.2133 
42576000    53.424988   -5274.5778   -5167.7213   -5274.5778            0     8387.702    17.735321    22.602485    19.117295    7663.4033    9086.9607    8142.5949    7933.5504     249.3608   -16.501978    462.13385   -4230.2875 
42577000     50.13843   -5279.5409   -5179.2579   -5279.5409            0    7976.8328    17.801472    22.653542    19.044034    7679.8191     8059.214    7662.9376    8208.3468   -561.28865    264.39377   -439.47177   -4285.8344 
42578000    54.654604   -5267.6138   -5158.2978   -5267.6138            0    8162.5919    17.830911    22.708559    18.934266     7666.755    7285.1361    7996.7248    9205.9148   -308.19369   -689.17022    508.41437   -4245.6241 
42579000    51.703147   -5276.3612   -5172.9486   -5276.3612            0    8090.3486    17.772117    22.681378    19.056752    7681.7024    7952.0209    7874.2612    8444.7637     10.70546    -49.36077    1028.2148   -4266.5888 
42580000    54.261265   -5269.0296   -5160.5004   -5269.0296            0    8580.0644    17.717082    22.719175    19.014957     7653.853    8865.2029    8502.3332     8372.657   -36.928084   -72.048763   -649.49672   -4202.7627 
42581000    52.683996   -5270.5137   -5165.1392   -5270.5137            0     8817.502    17.816198    22.563091    19.033316     7651.174    7895.1222    9195.0779    9362.3058    89.002282    343.49312    169.15721   -4181.2424 
42582000     51.23786   -5276.3623   -5173.8803   -5276.3623            0    8694.8827    17.742235    22.545418    19.142495    7657.1149    8791.7061     8998.304     8294.638   -605.83066    253.77057    -1490.846   -4202.9126 
42583000    54.222327   -5275.7907   -5167.3394   -5275.7907            0    8446.3898    17.761217    22.667837    19.050943    7670.0693    9095.3232    8252.0232    7991.8229   -166.59641    155.79153    -1138.732   -4222.5254 
42584000    53.888706   -5270.9386   -5163.1546   -5270.9386            0    7715.5175    17.733503    22.693608    19.093875    7684.0852     7931.188    7522.6949    7692.6696   -303.06935    261.34018   -414.85711    -4298.519 
42585000    54.996826   -5284.8856   -5174.8851   -5284.8856            0    7214.0149    17.807459    22.744813    18.985837    7689.7824     6688.139    7334.4653    7619.4403   -909.04379   -284.08591   -305.29771   -4365.8508 
42586000    53.409945     -5283.06   -5176.2335     -5283.06            0     6774.058    17.833914    22.702482    19.007373    7695.5932    6679.6596    6267.3475    7375.1667   -462.49838    129.37786      531.958   -4415.9651 
42587000    52.619426   -5275.2606   -5170.0153   -5275.2606            0    8361.7968     17.70376    22.617283    19.098841    7647.3849    9067.4717     8347.785    7670.1337    261.34889   -369.95206   -215.78139   -4237.4302 
42588000    50.611028   -5269.2799   -5168.0516   -5269.2799            0    8396.5562    17.754496    22.659179    19.050841    7664.1973    8238.3007    8395.9187     8555.449    8.0665837     -186.599    22.548447   -4229.5311 
42589000    50.403198   -5281.4112   -5180.5986   -5281.4112            0    7346.2123    17.798317    22.642765     19.05472    7679.1114    6695.4171    7694.3683    7648.8515    363.43366    428.52703   -237.59625   -4357.8818 
42590000    52.508315   -5279.5137   -5174.4906   -5279.5137            0    7643.6533     17.71743    22.730234    19.092319     7688.884     8476.909    7342.4428    7111.6082    119.59935    143.44427   -1111.8084   -4317.3735 
42591000     51.77189   -5274.3886   -5170.8384   -5274.3886            0    8138.9575     17.74436     22.67105    19.029721    7655.3381    7986.6406    8266.5376    8163.6943   -10.729859    -265.6985   -357.51296   -4262.1624 
42592000    52.121646   -5275.5317    -5171.282   -5275.5317            0    8686.9096    17.755477    22.600995    19.085583    7658.8816     8957.441    8300.5149    8802.7728    428.56418    18.010485    138.11149   -4200.9808 
42593000    54.280178   -5271.1348   -5162.5677   -5271.1348            0    8521.8031     17.81751    22.578459    19.042573    7660.6737    8318.0244    8587.8021    8659.5829   -125.26429    424.16802   -198.66004   -4210.4857 
42594000    52.175877   -5274.4963   -5170.1381   -5274.4963            0    7668.7072      17.7906    22.564097    19.141759    7684.0539    7885.5484    8141.8046    6978.7686   -266.91835   -194.69046   -398.91557   -4310.7518 
42595000    51.114301   -5280.1598   -5177.9249   -5280.1598            0    8384.8765    17.859021    22.460567    19.104256    7663.1709    7085.6467    8971.8959    9097.0867    118.17887    636.47249   -83.922951   -4240.8354 
42596000    53.385467   -5275.0853   -5168.3078   -5275.0853            0    8145.9598    17.767267    22.543599    19.169376    7678.0664    8685.4599    8205.2194       7547.2   -257.84944   -708.71075   -406.48783   -4256.1499 
42597000    53.170232   -5275.4255   -5169.0785   -5275.4255            0    8335.5345    17.774418    22.600707    19.057693    7655.7499    7772.9686    8327.9555    8905.6794   -174.78922   -376.81728    472.10922   -4238.4055 
42598000    54.154263   -5276.9864   -5168.6712   -5276.9864            0    8116.1721    17.824528    22.504192    19.107721    7664.6153     8188.305    8461.3509    7698.8603    129.18771    478.12602   -369.84638    -4261.441 
42599000    53.416497    -5278.633   -5171.7934    -5278.633            0    7474.6465    17.749255    22.639496    19.126203     7685.562    7634.6583    7213.3147    7575.9665   -469.44638   -473.89011    150.70861   -4333.9899 
42600000    54.184486   -5278.9683   -5170.5926   -5278.9683            0    8103.0876    17.725546    22.596983    19.146364    7668.9583    8364.9165    8539.8866    7404.4596   -346.36082    121.12734    394.48386   -4264.3118 
42601000    51.108953   -5279.9937   -5177.7694   -5279.9937            0    8312.5222    17.809962    22.530461    19.073619    7653.6069     8657.625    8645.0587    7634.8829   -1283.6577    250.68244   -184.28341   -4249.9257 
42602000    53.483837   -5276.7972   -5169.8229   -5276.7972            0    8007.3343    17.818296    22.694248    18.997716    7682.1599    7386.2934    8258.4494      8377.26   -1.2141983    179.41871    943.68721   -4272.7099 
42603000     52.37167   -5273.9713   -5169.2215   -5273.9713            0    7051.5163    17.801612    22.657505    19.115041    7709.8629    7752.8484    6814.5413    6587.1593   -707.83133   -220.66313   -264.05902   -4376.3459 
42604000    55.394544      -5278.5   -5167.7041      -5278.5            0    7996.4708    17.874936     22.62714    18.992062    7681.5042    7531.4653    8065.1407    8392.8064    230.06754   -385.40797    735.13175   -4271.8845 
42605000    55.385101   -5268.4525   -5157.6754   -5268.4525            0    9299.0289    17.840258    22.565591    18.992766    7646.0312    8359.8086    9078.1561    10459.122   -249.09647    316.65337   -777.79752   -4120.7452 
42606000    49.516495   -5272.9708   -5173.9317   -5272.9708            0    8730.8669    17.744507    22.514246    19.169228     7658.187    8108.0722    9541.4185    8543.1099   -537.11817    566.05852   -290.17221   -4198.8091 
42607000    52.764692   -5272.3139    -5166.778   -5272.3139            0    8420.8292    17.777205    22.678468    19.014716    7665.9684    7962.5112     8251.504    9048.4724    -346.8723   -474.53984   -738.98795   -4225.3269 
42608000    53.545729   -5274.2261    -5167.128   -5274.2261            0    7979.8061    17.761095    22.743674    19.004877    7677.0685    7422.8895    7818.2931    8698.2359   -366.11975    326.63928    88.268272   -4273.6916 
42609000    53.991938   -5276.9918   -5169.0013   -5276.9918            0    8551.0949    17.759026    22.647879    19.025287    7652.0518    8264.0979    8722.1719     8667.015    944.20499   -396.66302    179.94828    -4214.722 
42610000     54.19555   -5272.7579   -5164.3602   -5272.7579            0    8496.8453     17.80502    22.669548    18.986508    7663.5575    8094.4603    7981.8429    9414.2327   -9.2917654   -769.32673     210.4617   -4214.7092 
42611000    56.696769   -5273.3906   -5159.9901   -5273.3906            0    8466.0215    17.733899    22.678128    19.042768    7658.4609    7484.7482     8675.695    9237.6213    309.55461   -53.707853    531.95893   -4214.4134 
42612000    52.391884   -5271.4825   -5166.6922   -5271.4825            0    8176.7157    17.783965    22.636587    19.065406    7675.1277    8922.3111    7547.7248    8060.1113    734.08162   -278.25295    363.04536   -4251.4409 
42613000    54.915629    -5281.375   -5171.5369    -5281.375            0    7827.4574     17.87063    22.599972     19.00255    7674.6684    6758.9626    7852.1483    8871.2614    808.52158    91.391082   -75.255752   -4295.4318 
42614000    55.022091    -5273.063    -5163.012    -5273.063            0    8415.4702    17.637063    22.723595    19.106511    7657.4592    9248.5431    8058.2323    7939.6352   -783.80165   -501.97313   -192.79196   -4223.2044 
42615000    54.217124   -5275.5372   -5167.0963   -5275.5372            0    8390.0903     17.73505    22.716708    18.989876    7650.6782    8831.1021    7914.0292    8425.1397    518.55617    11.141535   -24.766974   -4230.9527 
42616000    52.075397     -5281.43   -5177.2728     -5281.43            0    7652.8781    17.838089    22.588015    19.072041    7684.6406    7310.7027    8322.8175    7325.1141    695.90295    530.35654   -424.46536   -4319.5949 
42617000    50.759794   -5277.3514   -5175.8255   -5277.3514            0    7996.2383    17.725863    22.638627    19.101718     7665.313    7623.2927     8635.385    7730.0374    735.67564    631.94941    1071.1241   -4281.9202 
42618000    52.249745    -5279.922   -5175.4161    -5279.922            0    7639.0123    17.743311    22.702726    19.075775    7684.1326    6935.0946    8045.3189    7936.6235    509.79338    43.118749   -443.03054   -4319.3487 
42619000    52.028264   -5278.6405   -5174.5775   -5278.6405            0    7571.2194    17.772724    22.629126    19.088798     7677.156    7454.9363    7807.1391    7451.5828   -248.27537     212.9671   -188.24815   -4326.8777 
42620000    52.210321   -5275.3103   -5170.8832   -5275.3103            0    8272.5086    17.805377    22.630335    19.032083    7668.8189    7314.2545    8754.4128    8748.8584     445.7323    405.57884    743.66594   -4245.6705 
42621000    52.006147   -5279.4357    -5175.417   -5279.4357            0    7482.8985    17.777857    22.637746    19.096866    7685.5456     7880.702    7280.3795     7287.614   -302.10568   -539.90379    154.03192   -4336.6903 
42622000     55.79713   -5274.0066   -5162.4055   -5274.0066            0    8613.6731    17.643501    22.709203    19.105674    7655.0671    9163.9817    8782.0314     7895.006    441.12945    217.79256   -762.09834   -4200.7638 
42623000    52.382128   -5273.4234   -5168.6527   -5273.4234            0    8546.1437    17.765499    22.668053    19.025164    7661.6103    8009.5726    8640.0348    8988.8237    330.58354    319.53786    313.69806   -4213.7345 
42624000    54.993079   -5280.5189   -5170.5259   -5280.5189            0    7578.7345    17.869084    22.550186    19.091985    7693.1375    6798.7158    8158.7591    7778.7287   -253.76002    394.38402   -463.53887   -4320.2183 
42625000    54.860739   -5273.7744   -5164.0461   -5273.7744            0    8604.0274    17.769884    22.664281    19.002744    7653.1963    8705.2479    8498.9525     8607.882    654.07187   -574.30917    71.740204   -4203.7161 
42626000    53.311464    -5277.231   -5170.6015    -5277.231            0    8564.9461     17.62603    22.807122    19.038252    7653.3584    8707.0097    8326.9226    8660.9061    52.875662   -181.42577   -95.861236   -4214.6132 
42627000    49.164596   -5271.5915   -5173.2562   -5271.5915            0    8498.5382    17.721263    22.665445    19.083023    7664.8929    9594.9978       8026.8    7873.8168    1058.7763    -227.8275    32.709842   -4223.2505 
42628000    52.349248   -5278.2799   -5173.5749   -5278.2799            0    8176.4699    17.806232    22.603763     19.04716    7666.2506    7926.3692    8290.2416    8312.7988    161.32012   -164.97085   -553.71868   -4259.4096 
42629000    56.436881   -5273.9121   -5161.0314   -5273.9121            0     8397.096    17.841515    22.587835     19.04508    7675.1904    7154.7403    8448.0288    9588.5189    389.38234   -481.21832   -77.663313   -4221.1043 
42630000    51.396832   -5279.8932   -5177.0932   -5279.8932            0    7682.3748    17.718975    22.663319    19.080787    7662.2863    8732.6872    7532.8275    6781.6096    738.54495   -413.13907    18.382621    -4318.614 
42631000    51.774235   -5282.9204   -5179.3655   -5282.9204            0     7938.219    17.799977    22.669236    19.013154    7672.0336    7819.5279    7436.4314    8558.6978    132.50418   -493.16676    218.06419   -4291.1682 
42632000    56.483861    -5276.114   -5163.1393    -5276.114            0    7974.0073    17.803367    22.572852    19.100344    7675.9076     7426.007    8770.0433    7725.9715   -807.33595    307.82454   -491.73906   -4270.4872 
42633000    54.597841   -5274.6924     -5165.49   -5274.6924            0    8066.9303    17.774737    22.584564     19.09913    7667.0532    7944.6315    8542.1506    7714.0087   -118.31608    337.05488    279.97794   -4263.4773 
42634000    51.738716   -5274.4776   -5170.9938   -5274.4776            0    8908.7307    17.671544    22.765447    18.987293    7638.5997    9240.4689    8392.3549    9093.3684    134.26038   -675.75906   -18.907762    -4178.551 
42635000    52.660924   -5278.6604    -5173.332   -5278.6604            0    7974.9994    17.729818    22.693494    19.057635    7667.8684    8661.0268    7473.3958    7790.5756   -405.22545   -410.64281    130.34065   -4281.5038 
42636000    58.175782   -5279.8867    -5163.528   -5279.8867            0    8893.4362     17.73816    22.627265    19.067424    7653.0165    9316.9091    8736.6457    8626.7538   -139.88707    213.25242    283.95889   -4170.9192 
42637000    53.530299   -5275.8373   -5168.7701   -5275.8373            0    8647.3348    17.739277    22.656109    19.029361    7647.9572    8561.8112    8847.6104    8532.5827    55.859701    365.11803    408.22093    -4204.267 
42638000    54.576877   -5275.5276   -5166.3671   -5275.5276            0    8843.6765    17.722297    22.755774     18.95401    7643.8602    9156.8647     8231.818    9142.3467   -454.19442   -785.51506   -597.05054    -4180.493 
42639000    50.771175   -5276.8023   -5175.2537   -5276.8023            0    8435.6366     17.77484    22.559219     19.11918    7666.5336    8890.9799    8561.2252    7854.7048    365.53886    77.258116    427.20203   -4232.0776 
42640000    55.363176   -5275.5578   -5164.8246   -5275.5578            0    8883.6656    17.798251    22.399171    19.208742    7657.8738    9210.3716    9276.1569    8164.4683    368.30879   -243.48763    632.48439    -4172.677 
42641000    52.943125   -5277.6143   -5171.7215   -5277.6143            0    8646.0049    17.793422    22.618132    19.025384    7656.8412    8122.3819    8823.3104    8992.3224    301.10169    272.50254    866.51077   -4206.2465 
42642000    53.966253   -5274.8416   -5166.9024   -5274.8416            0    9079.0858    17.759542    22.561573    19.063551    7638.4447    9185.6164    8715.4679    9336.1732   -394.31127   -341.56137    189.27053   -4155.5024 
42643000    52.947841   -5278.0087   -5172.1064   -5278.0087            0    8025.4997    17.795632    22.617595    19.060582    7671.7773    8661.7481    8028.3186    7386.4324    34.076407   -204.06832    176.16363   -4274.1734 
42644000    55.105467   -5277.3869   -5167.1692   -5277.3869            0    8479.1134    17.762178    22.629941     19.03591    7651.6179     8744.575    8124.5463    8568.2187    -152.0132   -331.72049     151.7829   -4220.9764 
42645000    54.202386   -5283.4918   -5175.0803   -5283.4918            0    7406.8741    17.780657    22.644003    19.100319    7690.2709    7347.9793    7629.2574    7243.3856   -39.641865    307.17605    265.79869   -4344.3645 
42646000    51.403275   -5274.8745   -5172.0616   -5274.8745            0    7785.8324    17.782673     22.49721    19.173258    7670.4635    7901.2459    8319.2524    7136.9988   -324.25806    165.63547    433.25392   -4301.0929 
42647000    50.709697   -5280.0738   -5178.6482   -5280.0738            0    7564.0828    17.773804    22.703003     19.04369    7684.4852    8174.8411    7049.2136    7468.1938    -818.5036   -198.51855    421.64764   -4330.9389 
42648000    51.362098   -5275.8523   -5173.1218   -5275.8523            0     7886.493    17.747261    22.716965    19.015608    7666.4064    7719.7754    8190.5355    7749.1682    786.77369   -106.38671    616.55019   -4291.3592 
42649000    53.933521   -5271.1798   -5163.3061   -5271.1798            0    8605.1761    17.809697    22.528255    19.093453    7660.7022    8837.4401    8625.4577    8352.6305   -55.931524   -302.96599   -285.04608   -4201.9058 
42650000    54.548141   -5283.4767   -5174.3737   -5283.4767            0    7801.0429    17.819225    22.462014    19.173204    7674.1841    8411.8705    8047.8731     6943.385   -164.26605   -172.76696   -544.91758   -4301.2801 
42651000    54.899919   -5267.8119   -5158.0053   -5267.8119            0    8906.0944    17.666145    22.737609     19.05888    7655.6835    9186.8367    8449.7331    9081.7133    15.696539   -181.56295    920.74311   -4163.6373 
42652000    54.352098   -5275.2205   -5166.5096   -5275.2205            0    8204.5514    17.814924    22.559721    19.057426    7659.1737     7760.735    8985.6515    7867.2676   -66.349393    187.23195    436.26031   -4250.0514 
42653000    54.655777   -5279.0629   -5169.7446   -5279.0629            0    7162.3421    17.828333    22.708722    18.992649    7689.3383    7929.4453     6648.727     6908.854    878.21549    -22.81594   -53.726472   -4366.5516 
42654000     51.42812   -5275.1603   -5172.2977   -5275.1603            0    7105.3205    17.765672    22.616549    19.132058    7687.2263    7697.6849    6885.2349    6733.0417    714.90804   -107.75286     694.6126    -4375.718 
42655000    52.487777   -5277.6752   -5172.6932   -5277.6752            0    7612.8552    17.723845    22.686579    19.080211     7672.027    6963.4343    7643.5061    8231.6252    175.52297   -219.19813     -1000.71   -4320.9012 
42656000    51.645286   -5280.2326   -5176.9356   -5280.2326            0    8121.4763    17.719115    22.680094      19.0604    7659.8261    8051.2994    8031.1246    8282.0049    142.75916    163.55725    -951.2109   -4269.6798 
42657000    53.380062   -5279.3949   -5172.6282   -5279.3949            0    7409.2527    17.811997     22.60059    19.067013    7675.6479    7073.1168    7293.8712    7860.7701   -210.36656    353.70518   -51.625503   -4343.2257 
42658000    52.873602   -5280.7482   -5174.9945   -5280.7482            0    8115.1454    17.711598    22.707262    19.051318    7662.0952    8318.7947    8104.4883    7922.1532     364.9817    310.37199     858.0042   -4268.1773 
42659000     52.91644   -5277.9004    -5172.061   -5277.9004            0      8149.29    17.710732     22.82636    18.942344    7657.8508    8342.1818    7582.7545    8522.9336   -722.72799    57.548647   -557.67044   -4261.9328 
42660000    54.516427    -5275.493   -5166.4534    -5275.493            0    8532.1248     17.77245    22.617478    19.044106     7655.121    8252.5761    8396.3025    8947.4957   -48.924031   -246.19864   -116.34438   -4213.9092 
42661000    50.851612   -5278.1378   -5176.4283   -5278.1378            0     7597.294    17.691256    22.694799    19.113994    7674.2586    7933.2109    7370.2408    7488.4302    133.84761    285.95925   -91.754104   -4326.1301 
42662000    53.217233   -5276.6905   -5170.2494   -5276.6905            0    7441.1733    17.766737    22.723788    19.014244    7676.5748    6931.6716     7165.172    8226.6764    435.27926   -36.801125   -73.627707   -4337.1731 
42663000    51.896728   -5274.9623   -5171.1624   -5274.9623            0    8040.1955    17.792995    22.732984    18.951533    7665.6651    7749.6134    7520.7144    8850.2586   -183.96997   -369.64864   -802.05277   -4272.3018 
42664000    50.481886   -5272.7561   -5171.7861   -5272.7561            0    8326.3381    17.686876    22.750596     19.05405    7667.1014    7933.1837    8562.4481    8483.3826    -797.8619    278.96382   -869.50867   -4240.7615 
42665000    50.381394   -5271.5233   -5170.7543   -5271.5233            0    8284.3376     17.71595    22.727025    19.020457    7658.2224    8332.0457    8028.4146    8492.5524   -815.70072    453.55434   -1479.7206   -4245.4988 
42666000    55.085904   -5272.3308   -5162.1521   -5272.3308            0    7552.3416    17.747358      22.6711    19.091334    7681.4388    8251.0621    7101.3459    7304.6168    94.820272   -664.95593    233.35864   -4316.0942 
42667000    51.913202   -5275.0511   -5171.2183   -5275.0511            0    8096.6849    17.763903     22.71387    19.035449    7680.5558    8422.5534    7458.7921    8408.7094    15.837538     269.3331   -770.77904   -4264.2841 
42668000    51.820491   -5269.3285   -5165.6811   -5269.3285            0    7332.7647     17.77734    22.689644    19.047377    7682.9791    7269.3491    7325.1996    7403.7454    521.00224    52.823995    269.16658   -4344.0568 
42669000    53.949634   -5272.2868   -5164.3809   -5272.2868            0    7357.8268    17.738784    22.700107    19.086788    7685.7205    8096.8793     6917.508    7059.0931    409.96293   -506.06021    99.655905   -4339.6542 
42670000    52.311929   -5273.6862   -5169.0559   -5273.6862            0    7783.4772    17.780993    22.640073    19.059791    7672.7662    7976.4612     7830.676    7543.2943    676.85665     149.3161   -488.74157   -4298.0893 
42671000    57.656539   -5281.4471   -5166.1269   -5281.4471            0    8054.7337    17.717388    22.768051    19.001986    7665.2186     8760.649    7832.3016    7571.2504   -218.91631    593.67438    421.47321   -4265.6935 
42672000    50.608596   -5275.0406   -5173.8171   -5275.0406            0    7962.4563    17.742085    22.762874    18.978149    7664.5318    8217.7809    7319.4653    8350.1227     77.53647   -403.44019   -93.510074    -4283.779 
42673000    51.946797   -5277.5128   -5173.6128   -5277.5128            0    8574.6417    17.709266    22.687505    19.037076    7648.6985     8420.363    9107.4854    8196.0766   -232.33877   -187.14634    451.34652   -4217.1251 
42674000    53.242129   -5277.4001   -5170.9093   -5277.4001            0    8440.6323    17.678564     22.65765    19.130177     7662.683    8421.2369    9106.2887    7794.3712     299.2422    168.51092     270.0563   -4227.6486 
42675000    54.442234   -5279.9841   -5171.0929   -5279.9841            0    8783.2086    17.781993    22.577846    19.076696    7658.8946    9669.9272    8603.8988    8075.7998   -140.43315   -325.68002    119.15287   -4190.0338 
42676000     52.93342   -5275.0875   -5169.2141   -5275.0875            0    8403.4084    17.747286    22.718255    18.996627    7659.2002    8875.0801    7745.8735    8589.2716    668.08821   -461.71855   -662.87995   -4230.5401 
42677000    55.223464   -5274.0283   -5163.5745   -5274.0283            0    8403.8769    17.737335     22.68525    19.036355    7659.7701    7716.1846     7889.452    9605.9941    232.39141   -431.00043    26.228633   -4224.7784 
42678000    55.454724   -5278.5386   -5167.6223   -5278.5386            0    7928.8211    17.843598     22.50197    19.115262    7675.0856    7018.9982     8166.327     8601.138    561.77429   -448.01858   -36.119369   -4280.1236 
42679000    52.413254   -5271.3055   -5166.4725   -5271.3055            0    8196.2139     17.79759    22.550051    19.113878     7671.098    8350.4035    8131.7081      8106.53   -166.01669   -103.13602   -220.37184   -4249.5203 
42680000    51.146573   -5266.7696   -5164.4701   -5266.7696            0    8468.4228    17.869691    22.607908    18.945179    7653.7831    7251.0307    8618.5593    9535.6783   -199.03566    309.86108   -41.126404    -4219.203 
42681000    52.540855   -5276.5508   -5171.4626   -5276.5508            0    8331.7673    17.780909    22.565196    19.076959    7654.2425    8463.6498    8002.9498    8528.7024    10.194447   -413.39487    203.32541   -4241.3935 
42682000    52.210282   -5271.8298   -5167.4027   -5271.8298            0    8602.0552    17.817631    22.555949    19.084545    7669.9562    9163.4514    8159.5232    8483.1908   -291.43425   -726.48929    4.7398676   -4205.1902 
42683000    52.915407   -5281.7959   -5175.9586   -5281.7959            0    8111.9019    17.844304    22.573603    19.045583    7671.7559    6817.6538    8726.2758    8791.7762   -331.48132    682.91624   -527.07288   -4268.3609 
42684000    50.376857    -5276.507    -5175.747    -5276.507            0    8500.4662    17.835361    22.511209    19.091132    7665.0045     7782.764    8933.5842    8785.0506    346.75254    99.021847    -109.7492    -4225.512 
42685000    55.152472   -5277.5002   -5167.1885   -5277.5002            0    7330.9814    17.799255     22.61108    19.118924    7694.6094    7116.6399     7725.646    7150.6584   -278.71906    31.512008     -717.203   -4344.5205 
42686000    54.898315   -5278.7567   -5168.9533   -5278.7567            0      7676.77     17.77374    22.647307    19.096906    7687.0274    8356.1158    7663.9657    7010.2285    70.536701    72.461476    545.55099   -4308.3305 
42687000    52.271443   -5278.4475   -5173.8981   -5278.4475            0    7513.4816    17.763885    22.584017    19.147514    7681.5975    7359.4098     8167.143     7013.892    750.51528    818.33131    95.516869   -4332.1761 
42688000    52.925023   -5271.7115   -5165.8549   -5271.7115            0    7882.0209    17.757813    22.671378    19.060044    7673.4613    8353.4903     7561.166    7731.4065   -870.65782   -202.28531    841.24226   -4283.7814 
42689000    53.444648   -5285.1919    -5178.296   -5285.1919            0    7241.8251    17.777517    22.508201    19.213996    7688.2869    8470.8782    6996.4549    6258.1421    -28.95991   -568.07051    -665.3683   -4366.3008 
42690000    54.970319   -5269.6316   -5159.6841   -5269.6316            0    8075.2852    17.861345    22.618211    19.003045     7677.072    7449.8659    8027.0138    8748.9761   -288.39745    -389.0316    30.853837   -4255.5573 
42691000    55.189797   -5274.6918   -5164.3054   -5274.6918            0    8689.3438    17.751589    22.668113    19.038474    7660.9872    8906.5317    8484.1378    8677.3619    128.64993    551.64191   -222.13083   -4193.4655 
42692000    53.298458    -5271.809   -5165.2055    -5271.809            0    8468.1962    17.652748    22.671497    19.131235    7656.5923     8647.172    8490.7215    8266.6951   -1.4180216    79.646393   -241.43669   -4219.6167 
42693000    54.383953   -5280.0458   -5171.2711   -5280.0458            0    8419.6771     17.79543    22.620283      19.0273    7659.2049    8451.9532    8741.5332    8065.5447   -760.16185   -82.067763    179.15017   -4230.7793 
42694000    53.894626   -5274.1416   -5166.3457   -5274.1416            0     8427.192     17.79966    22.526947    19.106751    7661.2721    8610.0666     8804.789    7866.7202   -485.32826    451.37419    571.01945   -4224.7604 
42695000    54.068655   -5275.5427   -5167.3987   -5275.5427            0    8865.8993    17.746585    22.770634    18.934229    7651.3412    8635.6838    8770.1638    9191.8504    232.63425    158.13853    852.01185   -4178.0799 
42696000    51.774267    -5278.225   -5174.6701    -5278.225            0    7526.7313    17.666165    22.741503    19.111849    7678.2838    7763.6291    7461.2231    7355.3419    219.46762   -128.43893    2.8272378   -4331.8275 
42697000    53.784264   -5278.4634   -5170.8882   -5278.4634            0    7575.5664    17.824883    22.586182    19.101824    7690.3193    7995.7851    7372.4174    7358.4966    3.2955697   -242.54793    282.46847   -4321.2474 
42698000    52.091396   -5273.8148   -5169.6256   -5273.8148            0    7770.4034    17.728059    22.694554    19.079875    7676.4136    8788.1038    7211.9546     7311.152   -209.37577   -665.74614    352.10601   -4299.7086 
42699000    56.256688   -5277.5105   -5164.9901   -5277.5105            0    8369.9836    17.763564    22.575131     19.10461     7661.231     8176.654    8397.0591    8536.2376    864.80924   -111.50017   -510.25438   -4229.8019 
42700000    52.659908   -5277.1146   -5171.7883   -5277.1146            0    8119.8987    17.831406    22.562358    19.069001    7671.8133     7350.313     8666.668    8342.7151   -121.80489   -111.08233   -468.75136   -4263.2891 
42701000    53.929265   -5278.4358   -5170.5706   -5278.4358            0    7978.3307    17.807322    22.512961    19.153491    7678.5491     8268.634    7994.7219    7671.6362    496.64855   -288.01947    40.205781   -4277.1271 
42702000    53.826127   -5280.8658   -5173.2069   -5280.8658            0    7299.6312    17.754578    22.636845      19.1339    7690.0603    8065.7393    7418.4779    6414.6764   -635.94026    399.72424    -387.1704   -4354.5413 
42703000    52.368954   -5276.4254    -5171.681   -5276.4254            0    8886.2132    17.759272    22.488274    19.132393    7641.0067    9337.1972    9194.6488    8126.7936   -224.00699   -73.641474    712.41403   -4181.4348 
42704000    52.655572    -5284.085   -5178.7674    -5284.085            0    7653.7556    17.809086    22.553967    19.135985    7686.2654    8478.2732     7245.408    7237.5855    462.46282   -418.20815    858.09828   -4320.8097 
42705000    51.259825   -5280.5663   -5178.0403   -5280.5663            0    7673.5154    17.838918    22.521617    19.127164    7684.5538    7462.1668    7677.4661    7880.9132    363.28745   -365.95438   -349.86308   -4318.0592 
42706000    51.619057   -5277.8076   -5174.5631   -5277.8076            0    7668.1295    17.818008    22.553943    19.097428    7674.6137    8312.1539    7784.5518     6907.683    348.27056   -106.59363      145.761   -4316.2972 
42707000    54.535081   -5278.6483   -5169.5714   -5278.6483            0     8302.348     17.71084    22.641956    19.109945    7663.2419    9048.1862     7785.802    8073.0558   -357.56225   -202.48715    2.4451675   -4241.6967 
42708000    54.197382   -5274.2988   -5165.8973   -5274.2988            0    8007.1853    17.789708    22.614743    19.075617    7674.3052    7813.8899    8265.2952    7942.3708     43.00444    313.17957   -78.360951   -4269.7182 
42709000    53.501777   -5279.2903   -5172.2801   -5279.2903            0    7399.6313    17.807907    22.642419    19.081678    7694.0015    6466.5606    8306.7511    7425.5822    266.44512    321.08232    41.273093    -4341.974 
42710000    55.255346   -5278.9027   -5168.3851   -5278.9027            0    7454.9243     17.77131    22.627498    19.101089    7680.9354     7210.456    8573.6507    6580.6662   -445.23125    415.79645    133.00923   -4333.2952 
42711000    53.928129   -5277.8612   -5169.9983   -5277.8612            0    7696.7272    17.770283    22.636394    19.096385    7681.6192    8131.7079    7371.1051    7587.3685   -336.88801   -602.25465   -75.231895   -4307.7452 
42712000    54.193035   -5280.4606   -5172.0678   -5280.4606            0    7297.5627    17.736743     22.70169    19.111372    7695.2714    7477.5906    7197.6173    7217.4802    671.84355   -262.86973    -882.7354   -4353.0796 
42713000    52.719121   -5273.2497    -5167.805   -5273.2497            0    9219.5019    17.730608     22.65062    19.035018    7644.6398    8448.8491     9280.343    9929.3135    387.70352   -123.34469   -182.61621   -4139.9298 
42714000    54.113028    -5276.659   -5168.4263    -5276.659            0    8853.8569     17.69663    22.694545    19.048488    7650.1961    9792.2095    7881.9232     8887.438    143.54019   -342.87472   -277.40081   -4180.5992 
42715000    50.229343   -5276.8422   -5176.3773   -5276.8422            0    8774.9361    17.706013    22.745925    19.000002     7652.054    8258.2492    8368.0733    9698.4858    303.45609    804.56751    389.61923   -4197.1176 
42716000    52.963861   -5274.8238   -5168.8895   -5274.8238            0    8581.3778    17.723608    22.717665    19.005672    7652.4246    8729.0201    8166.2302    8848.8833    7.0335945   -502.17587   -704.72751    -4211.184 
42717000    53.672953     -5283.21   -5175.8574     -5283.21            0    8094.7297    17.711409    22.628288    19.104082    7656.5123    8973.8633    7796.0627    7514.2631    653.53445   -89.004801    444.97563   -4271.9807 
42718000    52.902589   -5271.2252   -5165.4135   -5271.2252            0    8290.4211    17.754093    22.634308      19.0583    7658.6086    8576.6161    7978.8172    8315.8302   -662.29909    198.40113   -1239.2811   -4239.4319 
42719000    51.548739   -5276.4341   -5173.3302   -5276.4341            0    7794.4605    17.828833    22.619766    19.037117     7677.365    6881.1761    8188.4708    8313.7345   -142.99847    627.61191   -538.85049   -4300.6118 
42720000     50.90988   -5278.7268   -5176.9008   -5278.7268            0    8168.3149    17.810916    22.502007    19.124922    7664.9123     7711.281    8954.1762    7839.4874   -414.31159    280.04133    255.11049   -4263.8066 
42721000    51.360547   -5274.1175   -5171.3901   -5274.1175            0    7869.7931    17.808709     22.64586    19.002822     7663.715    7103.1726    8065.6722    8440.5345   -5.9422605   -221.65691   -114.59283   -4291.8036 
42722000    52.011659   -5281.9863   -5177.9565   -5281.9863            0    8421.2561    17.818026    22.570319    19.035053    7655.1089    7767.7137    9172.1771    8323.8773   -417.37579   -96.727063    389.99325   -4237.7914 
42723000    50.881166   -5276.8108   -5175.0422   -5276.8108            0    8879.8984    17.842252    22.488444    19.065572    7649.9555    8268.0864    9167.8153    9203.7934    910.83043    11.680393    1288.9137   -4184.3407 
42724000     53.12797   -5276.4606   -5170.1981   -5276.4606            0    7941.4577    17.840477    22.553056    19.065443    7671.1198    7907.8311    7771.9733    8144.5688   -19.162027   -148.42565    90.847112   -4281.7442 
42725000    52.793012    -5277.075   -5171.4825    -5277.075            0    8535.0718     17.78927    22.572056    19.052964    7650.5348    8581.9338    8756.7964    8266.4852    490.92632   -20.809751     1411.564   -4219.1801 
42726000    53.452436   -5278.5793   -5171.6678   -5278.5793            0    8067.6561    17.745381    22.692544    19.033673    7664.6286    7962.4532    7882.5733    8357.9419   -498.56143   -570.99262    -132.9839   -4269.8592 
42727000    54.803135   -5270.1672   -5160.5542   -5270.1672            0    7089.2072    17.844361    22.649669    19.033203     7692.628    6381.6101    7153.3163    7732.6951    320.34255   -216.29683    203.24696   -4365.2225 
42728000    52.408532   -5270.3212   -5165.4977   -5270.3212            0    8260.4875    17.727308    22.659609    19.102932    7673.5308    8077.0039    8178.7642    8525.6945     268.1664    283.79287    1297.7835   -4241.0618 
42729000    55.167221   -5278.3285   -5167.9872   -5278.3285            0    8208.6958    17.703988    22.734682    19.054059    7669.1546    7981.4865    8100.2698    8544.3312    127.62034    409.57121   -35.530224   -4249.8712 
42730000    57.274692   -5277.4614    -5162.905   -5277.4614            0    8080.8378    17.712183    22.737358    19.045069    7669.9871    7958.9083    7950.4353    8333.1698    232.68063    473.69318   -451.53153   -4258.9914 
42731000    54.797979    -5274.802   -5165.1993    -5274.802            0    7844.3015    17.728358    22.744204    19.036357    7675.7903    8043.7656    7417.5334    8071.6056    -157.5842    177.50982   -250.90565   -4287.0805 
42732000    54.722716   -5278.1035   -5168.6513   -5278.1035            0    7781.3416    17.659833    22.795199    19.048585    7668.1872    7919.2329    7608.2237     7816.568    73.924629    -265.2224   -265.73154   -4298.4433 
42733000    54.492533   -5282.6117   -5173.6199   -5282.6117            0    8479.5117    17.767897    22.659917     19.04795    7669.0679    8091.2753    8569.2427    8778.0171   -451.75208   -36.263847   -203.43319   -4225.2248 
42734000    56.668053    -5282.057   -5168.7139    -5282.057            0    7352.5336    17.822659    22.554578    19.126365    7688.4651    6747.0669    7766.5379    7543.9961    385.42436    300.21645   -199.23088   -4344.2862 
42735000    53.254005   -5279.5637   -5173.0491   -5279.5637            0    8611.7122    17.823353    22.666559    18.943252    7652.9615    8296.6977    8161.7464    9376.6926   -199.35603    336.55067     464.8139   -4211.8908 
42736000     51.73757   -5275.2899   -5171.8084   -5275.2899            0    8681.5591    17.704138    22.656075    19.093185    7658.3968    9219.4278    8654.2412    8171.0083   -400.61497   -118.58721   -745.99003   -4202.1662 
42737000    50.646686   -5273.5873   -5172.2877   -5273.5873            0    8206.4045    17.830686    22.539276     19.06088    7660.3915    8154.4885    8920.7737    7543.9513    295.37876   -159.58165   -382.88074   -4255.4768 
42738000     54.18283   -5272.9514   -5164.5791   -5272.9514            0    8872.1912    17.782818    22.564832    19.087589    7659.2061    8936.0953     8968.319    8712.1594   -25.587584    91.495514   -52.086069   -4173.5406 
42739000    55.291279   -5277.8112   -5167.2218   -5277.8112            0    8275.8369    17.809876    22.583103    19.044202    7659.6212     7767.322    8286.9826     8773.206     17.71582   -369.32245    608.36184   -4242.7469 
42740000     53.00205   -5271.8073   -5165.7967   -5271.8073            0    7893.6969    17.729845    22.705044    19.056853    7671.4678    7460.6356     7999.335    8221.1201   -30.482871   -408.18932    -46.58952    -4282.646 
42741000    52.529111   -5279.2833   -5174.2186   -5279.2833            0    7635.7453    17.836709    22.641871    19.011668    7677.9852    6629.4499     7901.987     8375.799   -276.78205    36.307036    1233.5377   -4319.2019 
42742000    52.376195   -5280.3956   -5175.6367   -5280.3956            0    7875.0399    17.859443    22.505237    19.121595    7685.5618    8162.3991    8305.1884     7157.532   -33.867845    320.45697   -259.20569   -4292.9547 
42743000    56.207672   -5274.5426   -5162.1203   -5274.5426            0    8635.7543    17.770474    22.590428    19.053534    7648.9005    8540.6679    8869.1331    8497.4618   -151.35669   -422.23826    491.18996   -4198.7901 
42744000    55.630298   -5276.1271   -5164.8597   -5276.1271            0    8221.1303    17.763428    22.652311    19.060972     7669.805    8614.5834    7974.4789    8074.3288    -705.3938    -491.4613   -638.90281   -4245.2749 
42745000    54.756573   -5273.5898   -5164.0699   -5273.5898            0    7947.1396    17.784758    22.576997    19.123322    7678.5191    7551.1334    8038.8677    8251.4176   -789.65108     -401.351   -430.74898   -4274.1228 
42746000    53.437178   -5276.5458   -5169.6649   -5276.5458            0    8489.3577    17.817313    22.584775     19.04002    7661.7041    8918.9786    7864.1209    8684.9736    187.07228    -628.1994    31.604554   -4221.0802 
42747000    52.929101   -5275.9097   -5170.0449   -5275.9097            0    8031.4516    17.732889    22.621251     19.11356    7667.2163    8768.0076    8059.6785    7266.6685    1050.7315     51.37406   -267.39868   -4271.9802 
42748000    55.776964   -5277.2104   -5165.6496   -5277.2104            0    8263.2932    17.785747    22.590131    19.085968    7668.4051    7694.9689     8183.347    8911.5637    214.40391   -990.76645    829.81402   -4241.5174 
42749000    51.838175   -5275.3618    -5171.679   -5275.3618            0    8517.4906    17.784777    22.595342    19.072723    7664.4333    8631.9794    8431.4259    8489.0666   -1143.9855     289.2238    -73.19517   -4219.6118 
42750000     54.86964   -5275.0404   -5165.2944   -5275.0404            0    7172.2246    17.798749    22.697906      19.0497    7695.9705    7277.9778    7053.1703    7185.5258    791.57621    103.45381   -634.30559   -4360.2994 
Loop time of 582.796 on 64 procs for 250000 steps with 1008 atoms

Performance: 74.125 ns/day, 0.324 hours/ns, 428.967 timesteps/s
363.4% CPU use with 16 MPI tasks x 4 OpenMP threads

MPI task timing breakdown:
Section |  min time  |  avg time  |  max time  |%varavg| %total
---------------------------------------------------------------
Pair    | 41.242     | 44.314     | 46.878     |  25.3 |  7.60
Bond    | 1.5777     | 1.8813     | 2.6385     |  17.2 |  0.32
Kspace  | 274.99     | 280.27     | 288.51     |  20.8 | 48.09
Neigh   | 0.48902    | 0.51767    | 0.55891    |   3.3 |  0.09
Comm    | 76.841     | 84.255     | 93.381     |  52.2 | 14.46
Output  | 0.48249    | 0.48295    | 0.48459    |   0.1 |  0.08
Modify  | 120.26     | 128.65     | 140.42     |  55.5 | 22.08
Other   |            | 42.42      |            |       |  7.28

Nlocal:        63.0000 ave          65 max          61 min
Histogram: 5 0 2 0 0 2 0 2 0 5
Nghost:        3492.12 ave        3504 max        3480 min
Histogram: 1 1 2 1 2 3 0 5 0 1
Neighs:        21714.4 ave       22514 max       20976 min
Histogram: 5 1 1 0 2 1 1 0 0 5

Total # of neighbors = 347431
Ave neighs/atom = 344.67361
Ave special neighs/atom = 2.0000000
Neighbor list builds = 882
Dangerous builds = 0

unfix		3
unfix		2
unfix		1

write_data	data.final.${pid}
write_data	data.final.1
System init for write_data ...
PPPM initialization ...
  extracting TIP4P info from pair style
  using 12-bit tables for long-range coulomb (../kspace.cpp:340)
  G vector (1/distance) = 0.38031593
  grid = 24 27 32
  stencil order = 5
  estimated absolute RMS force accuracy = 0.0023472184
  estimated relative force accuracy = 7.0685786e-06
  using double precision FFTW3
  3d grid and FFT values/proc = 7875 1344
Last active /omp style is kspace_style pppm/tip4p/omp
WARNING: Not all mixed pair coeffs generated from mixing. Use write_data with 'pair ij' option to store all pair coeffs. (../write_data.cpp:312)

write_restart   restart.lmp.${pid}
write_restart   restart.lmp.1
System init for write_restart ...
PPPM initialization ...
  extracting TIP4P info from pair style
  using 12-bit tables for long-range coulomb (../kspace.cpp:340)
  G vector (1/distance) = 0.38031593
  grid = 24 27 32
  stencil order = 5
  estimated absolute RMS force accuracy = 0.0023472184
  estimated relative force accuracy = 7.0685786e-06
  using double precision FFTW3
  3d grid and FFT values/proc = 7875 1344
Last active /omp style is kspace_style pppm/tip4p/omp
Total wall time: 0:09:42
