LAMMPS (30 Jul 2021)
  using 1 OpenMP thread(s) per MPI task
package omp 0
using multi-threaded neighbor list subroutines
echo both

include		in.partitions
variable        pid world 0
include		in.temp
variable        temperature equal 249.87
variable	tempDamp equal 100.0
include		in.pressure
variable        pressure equal 5750.0
variable        pressureDamp equal 1000.0 # This is 1 ps
include		in.seed
variable        seed world 745823

units		real
atom_style	full
read_restart	restart.lmp.${pid}
read_restart	restart.lmp.0
Reading restart file ...
  restart file = 30 Jul 2021, LAMMPS = 30 Jul 2021
  restoring atom style full from restart
  orthogonal box = (0.48651752 1.6645846 0.59355024) to (17.721055 21.964593 21.619646)
  4 by 4 by 4 MPI processor grid
  restoring pair style lj/cut/tip4p/long/omp from restart
  restoring bond style harmonic/omp from restart
  restoring angle style harmonic/omp from restart
  864 atoms
  576 bonds
  288 angles
Finding 1-2 1-3 1-4 neighbors ...
  special bond factors lj:    0        0        0       
  special bond factors coul:  0        0        0       
     2 = max # of 1-2 neighbors
     1 = max # of 1-3 neighbors
     1 = max # of 1-4 neighbors
     2 = max # of special neighbors
  special bonds CPU = 0.046 seconds
  read_restart CPU = 0.190 seconds
include 	in.setup
variable	out_freq equal 1000
variable	out_freq2 equal 10000
variable	out_freq3 equal 1000

timestep	2.0

neigh_modify    delay 7 every 1

include		in.tip4p
# This is TIP4P/Ice

# create groups ###
group ox type 2
288 atoms in group ox
group hy type 1
576 atoms in group hy

# set charges - beside manually ###
set group ox charge -1.1794
Setting atom values ...
  288 settings made for charge
set group hy charge 0.5897
Setting atom values ...
  576 settings made for charge

# ### TIP3P Potential Parameters ###
pair_style lj/cut/tip4p/long/omp 2 1 1 1 0.1577 8.5
pair_coeff 1 1*2 0.000 0.000
pair_coeff 2 2 0.21084 3.1668
bond_style  harmonic
bond_coeff  1 450 0.9572
angle_style harmonic
angle_coeff 1 55 104.52
kspace_style pppm/tip4p/omp 1.0e-5
pair_modify tail yes

thermo          ${out_freq}
thermo          1000
thermo_style    custom step temp pe etotal epair emol press lx ly lz vol pxx pyy pzz pxy pxz pyz enthalpy

restart 	${out_freq3} restart.lmp.${pid} restart2.lmp.${pid}
restart 	1000 restart.lmp.${pid} restart2.lmp.${pid}
restart 	1000 restart.lmp.0 restart2.lmp.${pid}
restart 	1000 restart.lmp.0 restart2.lmp.0


include         in.dump
dump            myDump all atom ${out_freq2} dump.water.${pid}
dump            myDump all atom 10000 dump.water.${pid}
dump            myDump all atom 10000 dump.water.0
dump            myDump2 all dcd ${out_freq2} dump.dcd
dump            myDump2 all dcd 10000 dump.dcd
dump_modify     myDump append yes
dump_modify     myDump2 append yes


variable natoms 	equal  "count(all)"                        # NUMBER ATOMS
variable H      	equal  "enthalpy/v_natoms"                 # ENTHALPY-per-atom
variable Vol      	equal  "vol/v_natoms"                 # volume-per-atom
fix AVG all 		ave/time ${out_freq} 1 ${out_freq} v_Vol v_H file vol_enthalpy.dat
fix AVG all 		ave/time 1000 1 ${out_freq} v_Vol v_H file vol_enthalpy.dat
fix AVG all 		ave/time 1000 1 1000 v_Vol v_H file vol_enthalpy.dat


timer           timeout 23:50:00 every 1000
New timer settings: style=normal  mode=nosync  timeout=23:50:00

fix 		1 all shake 1e-6 200 0 b 1 a 1
       0 = # of size 2 clusters
       0 = # of size 3 clusters
       0 = # of size 4 clusters
     288 = # of frozen angles
  find clusters CPU = 0.159 seconds
fix             2 all nph iso ${pressure} ${pressure} ${pressureDamp}
fix             2 all nph iso 5750 ${pressure} ${pressureDamp}
fix             2 all nph iso 5750 5750 ${pressureDamp}
fix             2 all nph iso 5750 5750 1000
fix             3 all temp/csvr ${temperature} ${temperature} ${tempDamp} ${seed}
fix             3 all temp/csvr 249.87 ${temperature} ${tempDamp} ${seed}
fix             3 all temp/csvr 249.87 249.87 ${tempDamp} ${seed}
fix             3 all temp/csvr 249.87 249.87 100 ${seed}
fix             3 all temp/csvr 249.87 249.87 100 745823

run             250000
PPPM initialization ...
  extracting TIP4P info from pair style
  using 12-bit tables for long-range coulomb (../kspace.cpp:340)
  G vector (1/distance) = 0.37457125
  grid = 24 24 25
  stencil order = 5
  estimated absolute RMS force accuracy = 0.0030377194
  estimated relative force accuracy = 9.1480018e-06
  using double precision FFTW3
  3d grid and FFT values/proc = 2730 288
Last active /omp style is kspace_style pppm/tip4p/omp
Neighbor list info ...
  update every 1 steps, delay 7 steps, check yes
  max neighbors/atom: 2000, page size: 100000
  master list distance cutoff = 10.8154
  ghost atom cutoff = 10.8154
  binsize = 5.4077, bins = 4 4 4
  1 neighbor lists, perpetual/occasional/extra = 1 0 0
  (1) pair lj/cut/tip4p/long/omp, perpetual
      attributes: half, newton on, omp
      pair build: half/bin/newton/omp
      stencil: half/bin/3d
      bin: standard
Per MPI rank memory allocation (min/avg/max) = 9.238 | 9.243 | 9.250 Mbytes
Step Temp PotEng TotEng E_pair E_mol Press Lx Ly Lz Volume Pxx Pyy Pzz Pxy Pxz Pyz Enthalpy 
19000000    260.38748    -3881.665   -3435.3698    -3881.665            0    4452.9082    17.234537    20.300009    21.026095    7356.2161    4432.9983    4486.4745    4439.2519    1489.3423   -1005.9203    117.63956    -2957.649 
19001000    253.96659   -3917.1842   -3481.8941   -3917.1842            0    4019.3836    17.327552    20.409567    21.139572    7475.9638    2942.4875    5401.7684    3713.8949    94.767655    1164.4976   -736.19323   -3043.6637 
19002000    241.90304   -3915.5909   -3500.9774   -3915.5909            0    4973.5629    17.232841    20.298011    21.024026    7354.0448    6095.6121    3156.8045    5668.2721    28.936526    133.93016    676.34445   -2967.5568 
19003000     244.9044   -3904.8911   -3485.1333   -3904.8911            0    5522.9536    17.248017    20.315886     21.04254    7373.4899     5140.169     7133.846    4294.8458   -271.82906    543.66545    18.629012   -2891.2237 
19004000    242.18241   -3940.2487   -3525.1563   -3940.2487            0    5603.3099    17.198417    20.257464    20.982029    7310.0618    5671.5924    3754.5331    7383.8041     536.1926   -574.32215   -1322.7307   -2927.7888 
19005000    251.37446   -3923.0151   -3492.1679   -3923.0151            0    5051.7186    17.196707    20.255449    20.979942    7307.8809    7370.3509    3351.2549    4433.5501   -231.12351    114.05427      2761.93   -2953.7661 
19006000    257.96596   -3926.3229   -3484.1781   -3926.3229            0    5338.1257    17.243949    20.311094    21.037577    7368.2741    6857.5794    2744.1929    6412.6047    1362.2809   -1809.9512    -614.2866   -2910.5499 
19007000    260.22141   -3932.0641   -3486.0535   -3932.0641            0    7726.5827    17.131755    20.178945    20.900702    7225.3881    8254.3327    7169.9034     7755.512   -33.060702    305.08907   -991.21748   -2671.8658 
19008000    256.24729   -3917.4508   -3478.2517   -3917.4508            0    5935.7082    17.208412    20.269237    20.994223     7322.814    6302.5269    5825.5579    5679.0399   -492.34461    228.91107   -1269.1974   -2844.3434 
19009000    268.99384   -3916.3726   -3455.3264   -3916.3726            0    6402.1488    17.124025     20.16984     20.89127    7215.6116    4424.8177    7047.7784    7733.8503    -1633.975   -651.65837   -232.69507   -2781.6136 
19010000    249.44738   -3883.5579   -3456.0136   -3883.5579            0    5474.5205    17.190458    20.248089    20.972318    7299.9168    7117.6799    5054.0436     4251.838   -1262.5332   -1055.6363    1731.4659   -2873.1863 
19011000    252.31814   -3918.8017    -3486.337   -3918.8017            0    5561.7051    17.227025     20.29116    21.016931    7346.6011    6240.7114    5296.1732    5148.2307   -450.07246    308.30724    1168.2539   -2890.4413 
19012000    263.00923   -3900.1213   -3449.3325   -3900.1213            0    6173.7465    17.223757    20.287311    21.012944    7342.4212    6841.4912     6298.871    5380.8774    -1128.894    1103.2099    109.09164   -2788.2373 
19013000    260.16131   -3909.3834   -3463.4758   -3909.3834            0    4321.1044    17.221937    20.285167    21.010723     7340.093    4352.5521    4554.0678    4056.6935    111.85083   -363.64242     711.0168   -3000.9114 
19014000    246.33415   -3925.5549   -3503.3466   -3925.5549            0    4596.5099    17.217623    20.280086     21.00546    7334.5786    5455.9743    6682.8404    1650.7151   -14.393881    890.91866    384.66895   -3011.6703 
19015000    255.32857     -3927.22   -3489.5955     -3927.22            0    6080.0962     17.13186    20.179068    20.900829    7225.5207    5134.3422    7977.8748    5128.0714   -1376.3735    1010.7032    135.76726   -2848.8944 
19016000    244.90076   -3903.7358   -3483.9843   -3903.7358            0    7040.8296    17.135614     20.18349    20.905409    7230.2717    7573.1303    6868.2143    6681.1443    1251.6852      545.907    308.20458   -2741.5563 
19017000    246.40007    -3893.374   -3471.0527    -3893.374            0    7612.4291    17.168617    20.222363    20.945672    7272.1277    9762.9987    7377.4549    5696.8338    1699.7739    284.60859    285.97908    -2663.705 
19018000    237.02124   -3937.5535   -3531.3072   -3937.5535            0    5639.9402    17.174963    20.229837    20.953414    7280.1946    6905.1365    5629.4414    4385.2426   -496.46204    436.14209    97.085649   -2932.4912 
19019000    249.03852   -3924.8726   -3498.0291   -3924.8726            0    5356.2074    17.241992    20.308789     21.03519    7365.7658    5090.6812    4442.2652    6535.6757    1577.9222    700.78922    9.0676611   -2922.6538 
19020000    241.21199     -3921.96   -3508.5309     -3921.96            0    5218.6539    17.252627    20.321316    21.048165    7379.4042    4567.4241    5070.6541    6017.8834    -656.6087    450.99222    48.714788   -2946.8939 
19021000    238.83824   -3911.4357   -3502.0751   -3911.4357            0    5272.3678    17.203987    20.264024    20.988823    7317.1654    5455.6308    7299.8091    3061.6635   -965.36856   -198.05419    261.69075    -2939.443 
19022000    249.22293   -3902.7406    -3475.581   -3902.7406            0    4622.7161    17.256139    20.325452    21.052449    7383.9115     3795.488    5908.5847    4164.0755   -585.29824    212.84307   -182.59708   -2977.7757 
19023000    228.34773   -3888.0467   -3496.6665   -3888.0467            0    5402.7595    17.214494      20.2764    21.001642    7330.5805    5403.5953     7496.844    3307.8391   -1183.6215   -518.47348    475.74898   -2919.0629 
19024000    249.72698   -3833.1666   -3405.1431   -3833.1666            0    5492.7051    17.267926    20.339336    21.066829    7399.0525    5705.1058    5916.0271    4856.9824   -116.46634    1970.8962   -740.98924   -2812.4385 
19025000    250.11873    -3867.339    -3438.644    -3867.339            0    5343.0586    17.207595    20.268275    20.993226    7321.7712    5809.3351    4242.8143    5977.0266    749.72079     219.9915   -399.85874   -2868.1094 
19026000     255.5772   -3882.9867   -3444.9361   -3882.9867            0    6458.1912    17.204545    20.264682    20.989505    7317.8782    5779.6875    8096.4123    5498.4739   -1928.8044    2585.2278   -499.15717   -2755.6937 
19027000    260.37928    -3908.001   -3461.7198    -3908.001            0    5800.8793    17.218037    20.280573    21.005965    7335.1074     4442.727      5892.67     7067.241   -1735.3195    99.013364   -567.81173   -2841.1707 
19028000    245.72375   -3936.4198   -3515.2577   -3936.4198            0    6632.2188    17.187815    20.244975    20.969094    7296.5503    6509.0646    5327.7848    8059.8071    963.09968   -541.88498   -907.48975   -2809.5054 
19029000    237.05017   -3930.4388   -3524.1429   -3930.4388            0    8439.0071     17.12445     20.17034    20.891789    7216.1491    8381.0905    8497.0015    8438.9293    308.15714    1008.7517    90.119149   -2636.0207 
19030000    253.48232   -3904.4304   -3469.9704   -3904.4304            0    5402.2627    17.200786    20.260254    20.984919    7313.0825    4117.7076    6069.1597    6019.9209   -45.426968   -1522.7471    721.51841   -2893.7985 
19031000    252.41034   -3901.4274   -3468.8047   -3901.4274            0    4535.8158    17.145453    20.195079    20.917413    7242.7336    5925.3178    3374.1529    4307.9768   -221.24752   -1523.2783   -1532.9056   -2989.6963 
19032000    261.29825   -3934.2289   -3486.3727   -3934.2289            0    6229.0237    17.166586    20.219971    20.943195    7269.5476     5089.615    7903.5662    5693.8897   -1088.5398    361.51175    833.87967   -2825.9784 
19033000     245.3641   -3915.6155   -3495.0698   -3915.6155            0    5351.4699    17.166938    20.220386    20.943624    7269.9951    7497.2525    4444.5513    4112.6059    650.98027    -627.4806   -2238.9427    -2927.678 
19034000    243.22481   -3948.6298   -3531.7508   -3948.6298            0    5023.8005    17.153772    20.204877    20.927561    7253.2802    4696.0238    4216.1466    6159.2311    354.08524    283.09225    26.799956   -3000.3249 
19035000    231.36218   -3930.5407   -3533.9938   -3930.5407            0     7997.007     17.16021    20.212461    20.935416    7261.4508    6956.3535    8476.5724    8558.0952    1187.1048   -599.44393    1083.6341   -2687.1043 
19036000    249.83215   -3940.5602   -3512.3565   -3940.5602            0    4037.1421    17.222215    20.285495    21.011063    7340.4493    4639.8062    3221.7053    4249.9147   -228.42117   -886.88902    925.93632   -3080.1686 
19037000    243.31656   -3885.2254   -3468.1892   -3885.2254            0    5926.5615    17.174805    20.229652    20.953222    7279.9944    3954.7778     7736.069    6088.8376    -232.1036   -123.87051   -78.996648   -2838.9587 
19038000    248.59388   -3896.6696   -3470.5882   -3896.6696            0    7101.3961     17.18013    20.235923    20.959718    7286.7673    6690.5637    7028.0526    7585.5722    210.20842    430.53116   -484.23501   -2715.9226 
19039000    261.02694   -3916.4794   -3469.0881   -3916.4794            0    5810.1722    17.225579    20.289457    21.015166    7344.7513    7133.0938     5620.067    4677.3558    779.35864    769.17603    1206.0297   -2846.7277 
19040000    247.63078   -3900.0077    -3475.577   -3900.0077            0    5804.0026    17.205082    20.265315     20.99016    7318.5639    6530.7265    5608.9135    5272.3679   -841.80588    396.57201    231.46057   -2856.0941 
19041000    236.79486   -3876.7432   -3470.8849   -3876.7432            0    5054.1628    17.222046    20.285296    21.010856    7340.2331    6211.1434    3526.4293    5424.9158   -1066.0829    1157.6785    1418.1768   -2929.8379 
19042000    260.07386   -3929.1167    -3483.359   -3929.1167            0    5660.8119    17.223863    20.287435    21.013072     7342.556    5168.9852    7161.5864    4651.8639    2233.3222   -724.46042    -210.1959   -2877.1786 
19043000    257.39815    -3894.299   -3453.1274    -3894.299            0    7048.1929    17.166793    20.220215    20.943447    7269.8108    7402.3951    6597.7302    7144.4534     633.2105    1823.2447   -52.386266   -2705.8587 
19044000    252.06856   -3896.5658   -3464.5289   -3896.5658            0    6371.6405    17.237386    20.303363     21.02957    7359.8639    5253.3718     7304.707    6556.8428    -817.7779    743.96828    194.07194   -2780.6221 
19045000    243.06254   -3937.5516   -3520.9507   -3937.5516            0    5871.3449    17.140932    20.189754    20.911897     7237.005    8250.0222    6564.6236    2799.3889    1369.0579    344.08606    104.63442   -2901.2638 
19046000    260.05586   -3907.7463   -3462.0194   -3907.7463            0    5520.4529    17.146619    20.196453    20.918836    7244.2114    5776.7593    5684.0849    5100.5144    270.07422    1096.3826    842.95169   -2878.7869 
19047000    242.61546   -3891.4718   -3475.6372   -3891.4718            0    7202.0064     17.10724    20.150069    20.870793     7194.414    6753.8133    9667.3246    5184.8813   -1598.0662   -171.02319     1069.646     -2719.98 
19048000    254.54761   -3898.8368   -3462.5509   -3898.8368            0    4396.3526    17.138225    20.186565    20.908594     7233.577    4289.4468    4336.0674    4563.5438   -57.099171    447.23395    195.75047   -2998.7608 
19049000    262.36634   -3912.3314   -3462.6445   -3912.3314            0    6510.7319    17.181533    20.237577     20.96143    7288.5534    7014.3109    5501.2774    7016.6075   -1271.9229   -1039.7773   -344.51574   -2770.5792 
19050000    248.66721   -3907.9432   -3481.7361   -3907.9432            0    4318.5333    17.188911    20.246267    20.970432    7297.9469    5408.2152    3316.8655    4230.5191    12.379509   -625.05928   -785.93872   -3022.1013 
19051000    257.54604   -3885.6212   -3444.1961   -3885.6212            0    5447.1243    17.204316    20.264412    20.989226    7317.5863    5865.1152     6262.796    4213.4617   -1193.8184   -93.480302    52.101123   -2862.8817 
19052000    247.54512   -3913.1354   -3488.8515   -3913.1354            0     4797.645    17.165058    20.218171    20.941331    7267.6068     6223.028     3821.751    4348.1561     1004.341    121.59297    335.64825   -2980.3463 
19053000    254.04446   -3924.8531   -3489.4296   -3924.8531            0    4845.8066    17.169441    20.223334    20.946678    7273.1755    5784.8688    3990.8219    4761.7291    1070.3409    248.26024    433.23177   -2975.4262 
19054000    267.07171   -3920.0738    -3462.322   -3920.0738            0    5009.9198    17.174763    20.229602    20.953171    7279.9409    7203.2131    3837.8554    3988.6908   -386.50668    369.55893   -1446.6909   -2930.4165 
19055000    248.18582   -3909.4173   -3484.0353   -3909.4173            0    5383.9552    17.137453    20.185656    20.907653    7232.5995    4757.7363    5726.4368    5667.6925    751.18548   -3172.4962    438.17799   -2916.1355 
19056000    268.22404   -3891.4278    -3431.701   -3891.4278            0    6086.1597     17.16399    20.216913    20.940028    7266.2501    5416.4857    6194.8009    6647.1926    700.45624    390.77399     412.1274   -2786.7457 
19057000    258.51053   -3938.1583   -3495.0801   -3938.1583            0    6539.3287    17.116366    20.160818    20.881926    7205.9335    6923.9372     6856.892    5837.1569    131.93175    807.18972    14.825945   -2807.8545 
19058000    251.67159   -3927.1905    -3495.834   -3927.1905            0    7600.6317    17.101763    20.143617     20.86411    7187.5058    8580.3943    6063.3163    8158.1844   -2574.5913    -948.1649   -198.92575   -2699.1175 
19059000    254.59843   -3925.7742   -3489.4012   -3925.7742            0    4992.1266    17.173167    20.227722    20.951223    7277.9112     5363.341    4975.1384    4637.9004    184.91135   -59.515522    260.32933   -2959.5326 
19060000     240.6243   -3927.9276   -3515.5058   -3927.9276            0    6588.0559    17.066547    20.102138    20.821147    7143.1956    7308.9065    5875.1922    6580.0689   -376.17926   -1267.8815    517.64815   -2829.1873 
19061000    251.79461   -3909.8991   -3478.3318   -3909.8991            0    5591.9767     17.13639    20.184404    20.906356    7231.2536    7688.3084    4783.4875    4304.1343    455.54082     354.2578   -394.39665   -2888.5996 
19062000    242.95609   -3886.8076   -3470.3892   -3886.8076            0      6396.59     17.15881    20.210812    20.933709    7259.6739    6837.8248    6151.5394    6200.4058    1029.0106   -512.03774    2012.4159   -2793.1509 
19063000    263.31041    -3913.589    -3462.284    -3913.589            0    5510.1616    17.200244    20.259615    20.984257    7312.3907    7102.7354    5338.3096    4089.4399   -964.66038    859.30277   -731.92569   -2874.6599 
19064000    255.01792   -3931.4474   -3494.3554   -3931.4474            0    4719.6829    17.200366    20.259759    20.984407    7312.5469    5002.6633    5118.0241    4038.3612   -731.19703   -832.53853    1091.8364   -2991.0201 
19065000    241.30532   -3939.4908   -3525.9017   -3939.4908            0    5071.9723     17.19932    20.258528    20.983131    7311.2133    4709.7864    6180.4105    4325.7201   -794.61648   -704.14616   -917.13277   -2985.0948 
19066000    252.93196   -3890.3816   -3456.8649   -3890.3816            0    5560.6767    17.178138    20.233578    20.957288    7284.2334    3766.7306    5535.6815     7379.618    217.65594   -589.09445   -279.87502   -2866.1371 
19067000    249.05274   -3937.8784   -3511.0106   -3937.8784            0    5592.6709    17.174925    20.229793    20.953368    7280.1468    5090.5636    7285.1315    4402.3175    1668.0937   -590.29152    494.26998   -2917.2173 
19068000    250.80919   -3915.5403   -3485.6619   -3915.5403            0    5686.0749    17.204483    20.264608    20.989429    7317.7983     5370.063    5595.9538    6092.2079    308.86313    448.70168   -231.97707   -2878.8293 
19069000    232.68642   -3927.3467   -3528.5301   -3927.3467            0    6639.0704    17.143929    20.193284    20.915554    7240.8023    6563.6043     6622.789    6730.8179   -897.32753    88.669083   -738.93549   -2827.4464 
19070000    256.52817     -3944.52   -3504.8395     -3944.52            0    5944.2559    17.148757    20.198971    20.921444    7246.9212    7569.6184    6418.8145    3844.3348   -357.09796   -1082.5728    551.66126   -2876.5976 
19071000    244.88292   -3919.7388   -3500.0179   -3919.7388            0     5061.633    17.181675    20.237744    20.961604    7288.7343    5127.8425    5168.8018    4888.2546   -83.445592   -167.65567    395.14364   -2961.9728 
19072000    282.79905   -3919.2808   -3434.5729   -3919.2808            0    6251.7719    17.139243    20.187764    20.909836     7234.866    5829.3086    6277.8261    6648.1808   -465.44184    390.42557    1824.2985   -2774.9291 
19073000    240.39029   -3949.3081   -3537.2874   -3949.3081            0    8215.4186     17.15795    20.209798    20.932658    7258.5813    6614.3765    7744.2948    10287.585    297.89523   -964.50903   -1249.0985   -2667.6117 
19074000    254.05447   -3956.6518   -3521.2111   -3956.6518            0    7287.2367    17.084194    20.122924    20.842677    7165.3778     6592.862    8342.3876    6926.4605   -551.62687    -313.8215     210.8348   -2759.6972 
19075000    249.36926   -3931.8005   -3504.3901   -3931.8005            0    6988.1105    17.151742    20.202486    20.925085    7250.7054    8334.1554    6799.5967    5830.5793   -355.77834    485.47586    730.80255   -2765.4386 
19076000    247.84122    -3945.001   -3520.2096    -3945.001            0    4625.9343    17.196151    20.254794    20.979264    7307.1721    4001.2022    5424.7959    4451.8047    172.54863   -99.461328     693.7059   -3027.2349 
19077000    237.47731   -3932.5315   -3525.5036   -3932.5315            0    5996.1225    17.150519    20.201045    20.923593    7249.1546    6037.3885    6323.7115    5627.2677   -408.27357    772.59309    682.46679   -2891.5846 
19078000    268.85109   -3916.3564   -3455.5549   -3916.3564            0    4079.6586     17.15036    20.200859      20.9234     7248.954    3874.4914    4160.3873    4204.0973   -310.67555   -259.42429    13.389334   -3024.2592 
19079000      254.839   -3924.3227   -3487.5374   -3924.3227            0     8109.078    17.105276    20.147755    20.868396    7191.9359    9784.2762    7628.5788     6914.379   -538.32395    29.097209   -147.06516   -2637.0005 
19080000    266.43197    -3913.102   -3456.4467    -3913.102            0    6889.6134     17.13203    20.179268    20.901036     7225.735    5542.2203    8852.4821    6274.1378    579.02199   -90.546656     358.4477   -2730.4197 
19081000    246.96712   -3924.3543   -3501.0611   -3924.3543            0     6078.521    17.126845    20.173161    20.894711    7219.1773    7263.7714     5191.624    5780.1676    1855.9082   -441.00324    92.698344   -2861.0883 
19082000     242.6477    -3935.216   -3519.3261    -3935.216            0    3885.5996    17.124002    20.169812    20.891242    7215.5822    3462.1334    3965.9002    4228.7651    -1029.814    342.82037    -578.4562   -3110.4372 
19083000    246.27581   -3941.0174   -3518.9091   -3941.0174            0    4967.8483    17.185039    20.241706    20.965707    7293.0158    4234.8752    5528.4396    5140.2302    448.97901    817.13254    56.084742    -2990.523 
19084000    251.82652    -3873.951    -3442.329    -3873.951            0    5628.1071    17.197815    20.256754    20.981294    7309.2932      4740.65    7817.7285    4325.9428   -689.18318    980.59532    46.877125    -2842.381 
19085000    250.39763   -3900.1645   -3470.9915   -3900.1645            0    5271.6543    17.142073    20.191098    20.913289    7238.4507    5882.9814    4082.9702    5849.0113   -1279.1021    1098.0963   -6.6010343   -2914.4873 
19086000     242.6825   -3898.9798   -3483.0303   -3898.9798            0    4616.1314    17.155275    20.206648    20.929395    7255.1872    4862.3526    4011.3128    4974.7288    344.36866   -1940.5086   -629.41697      -2994.6 
19087000     249.7197   -3920.0547   -3492.0437   -3920.0547            0    6692.4389    17.181102    20.237068    20.960904    7288.0041    8648.5352     4604.773    6824.0085   -1050.3563    -1661.799   -229.50547   -2780.7173 
19088000    252.82575   -3882.4918   -3449.1571   -3882.4918            0    5747.8015    17.129328    20.176085     20.89774    7222.3168    5621.0791    6086.2999    5536.0255   -1194.2766   -166.65401    213.55571   -2843.7407 
19089000    236.63025    -3920.406   -3514.8298    -3920.406            0    5202.6863    17.158739    20.210728    20.933621     7259.583    5182.9087    5127.4089    5297.7414    39.664499   -1747.8724   -1361.1493   -2964.0029 
19090000      256.292   -3939.0328   -3499.7571   -3939.0328            0    5072.6805    17.199769    20.259057    20.983679    7311.7859    3039.8242    5239.1522    6939.0652    594.03428   -1183.8249    439.66024   -2958.8323 
19091000    237.78398   -3916.4419   -3508.8883   -3916.4419            0    4850.6932    17.230256    20.294966    21.020872    7350.7352    4700.2414    5003.9157    4847.9225   -315.89676   -47.821903    1623.2935   -2988.8798 
19092000    253.97416   -3899.5522   -3464.2492   -3899.5522            0    6648.1497    17.230433    20.295174    21.021087    7350.9612    5169.8436    8519.5822    6255.0232    1278.3878    257.37871   -1189.4178   -2751.5261 
19093000    246.30473    -3926.243   -3504.0851    -3926.243            0    5218.1743    17.209481    20.270496    20.995527    7324.1786     4563.682    5635.8033    5455.0377    348.09465    -1254.741   -297.37012   -2946.7026 
19094000    239.86293   -3891.3291   -3480.2122   -3891.3291            0    6125.2243    17.138129    20.186452    20.908477    7233.4551    3371.3158    8476.0192    6528.3378   -816.02774    477.07446   -88.896949   -2834.0469 
19095000    233.18002   -3892.4056    -3492.743   -3892.4056            0     5686.255    17.142401    20.191484    20.913689    7238.8659    5504.9037    5286.5772     6267.284    1895.3962    874.73217    -543.9479   -2892.4369 
19096000    268.51247   -3924.1033   -3463.8821   -3924.1033            0    6065.9404    17.158761    20.210754    20.933648    7259.6114    6589.7874      4491.43    7116.6039   -9.9653595   -283.61172   -764.58269   -2821.6568 
19097000    257.94928   -3929.3675   -3487.2512   -3929.3675            0    7245.7485    17.089624    20.129319    20.849301    7172.2115    7686.2053    6640.9815    7410.0586   -1354.8741    1194.0329    5.5078442   -2729.3507 
19098000    238.44145   -3934.4262   -3525.7458   -3934.4262            0    4098.2864    17.162257    20.214872    20.937913    7264.0494    5834.5504    4714.8242    1745.4847   -436.09238    1048.1796   -229.73232   -3091.5786 
19099000    252.96659   -3915.6624   -3482.0863   -3915.6624            0    4571.1301     17.23426    20.299682    21.025757    7355.8606    5962.6725    2857.7272    4892.9906    1605.6388    68.687319   -605.54218    -2991.706 
19100000    249.22747   -3933.7395   -3506.5721   -3933.7395            0    6250.6562    17.199818    20.259114    20.983738    7311.8478    7132.0043    6733.6602    4886.3042    1730.4179    668.50027    571.03722   -2840.0284 
19101000    248.33883   -3963.1911   -3537.5469   -3963.1911            0    3908.7009    17.192645    20.250665    20.974987    7302.7037    3019.5285    3680.6916    5025.8825    190.47173    87.995616    2024.9699   -3121.2607 
19102000    247.27472   -3901.9151   -3478.0947   -3901.9151            0     8055.007    17.119241    20.164205    20.885434    7209.5659    7751.3312    7900.0839    8513.6058   -69.911959    -110.5318   -142.99181   -2631.1581 
19103000    254.95311   -3928.2443   -3491.2634   -3928.2443            0    4501.7028    17.201779    20.261424     20.98613    7314.3491    4157.6555    5221.4119    4126.0409   -236.58906    858.05444   -620.28333   -3011.0565 
19104000    249.98612   -3942.7535   -3514.2858   -3942.7535            0    5421.7115    17.207983    20.268731    20.993699    7322.2663    6230.0849    5580.1782    4454.8715   -758.65436    398.63389    1006.7787   -2935.3135 
19105000    256.42371   -3911.7935   -3472.2921   -3911.7935            0    6610.2427    17.180767    20.236674    20.960495     7287.578    5532.4028    8043.7454      6254.58    1210.7087    382.66735    -197.4171   -2769.7432 
19106000    243.26371    -3955.612   -3538.6664    -3955.612            0    6375.1655    17.168862    20.222652    20.945972      7272.44    4784.7936    7455.3762    6885.3268   -15.983876   -356.71052   -1273.1476   -2862.5094 
19107000    241.24889   -3935.0056   -3521.5133   -3935.0056            0    7928.9178    17.117242     20.16185    20.882995    7207.0407    8768.4812    8524.8499    6493.4223   -148.73233     953.0688    127.61499   -2688.1261 
19108000    246.62309   -3927.7057   -3505.0021   -3927.7057            0    6053.9849    17.178869    20.234438     20.95818     7285.163    4727.1951    6871.6078    6563.1519   -812.29309    1969.8061    903.08807   -2861.7867 
19109000    246.47474   -3916.1651   -3493.7158   -3916.1651            0    5735.9702    17.227735    20.291996    21.017797    7347.5093    6812.1166    4271.5464    6124.2476   -313.70258    1271.4744    870.07326   -2879.0728 
19110000    252.38789    -3931.188   -3498.6038    -3931.188            0    5939.5839    17.172071    20.226431    20.949886    7276.5178    7856.4026    4561.1109    5401.2383   -145.49908   -957.03054   -1333.9046   -2868.2919 
19111000    234.34034   -3892.3038   -3490.6525   -3892.3038            0    6148.4336     17.16004    20.212261    20.935209    7261.2351    7545.5259    3854.0215    7045.7533   -29.069829    952.09951   -10.812116   -2839.5477 
19112000    250.49435   -3934.0691   -3504.7304   -3934.0691            0    5733.3008     17.21235    20.273874    20.999026    7327.8414    5380.3767    5469.4477     6350.078    526.19166    398.82119    983.31696   -2892.0179 
19113000    253.44605   -3962.1716   -3527.7737   -3962.1716            0    5230.2029    17.210603    20.271816    20.996895    7325.6103    4938.3241    5194.0215     5558.263    -345.0329   -315.52023   -577.09418   -2968.9971 
19114000    265.19802   -3930.7594   -3476.2191   -3930.7594            0    4873.1321    17.275513    20.348272    21.076085    7408.8097    7514.2474    4093.6718    3011.4772    828.02623    991.81545   -1999.1868   -2949.6777 
19115000    259.43298   -3918.0821   -3473.4229   -3918.0821            0    6342.0819    17.181598    20.237653    20.961509    7288.6358    6062.5617    5680.5706    7283.1134     22.26056    229.41344   -520.65178   -2799.2769 
19116000    239.49484   -3924.4225   -3513.9365   -3924.4225            0    5412.4665    17.213936    20.275743    21.000962    7329.8684     6064.843    4735.8917    5436.6649   -820.77273     644.4701    1785.5233   -2935.3514 
19117000    235.08418   -3934.2879   -3531.3617   -3934.2879            0    5079.8166    17.261849    20.332178    21.059415    7391.2438    5654.9067    6378.8759    3205.6673   -55.202873    610.98638    493.91066   -2983.7894 
19118000    245.08608   -3938.1259   -3518.0568   -3938.1259            0     6228.776    17.214889    20.276865    21.002124     7331.085    6407.9592     4124.074    8154.2947    1165.2331   -1016.1253   -832.72027   -2852.0987 
19119000    244.48752    -3929.683   -3510.6398    -3929.683            0    6190.8164    17.220232    20.283159    21.008643    7337.9136    4083.1135    7518.3254    6971.0103   -945.39991    1175.9792    175.31925   -2848.1237 
19120000    242.05878   -3936.8618   -3521.9813   -3936.8618            0    6450.9766    17.167087     20.22056    20.943806    7270.1837    6114.1494    7273.3612    5965.4192    457.96631   -564.33302   -811.39357    -2837.996 
19121000    252.97042   -3963.4249   -3529.8422   -3963.4249            0    6792.3117    17.147499    20.197489    20.919909    7245.3261    6567.9429    7267.0074    6541.9848    505.01575   -590.40399   -701.71476   -2812.1282 
19122000    256.09333   -3909.5564   -3470.6212   -3909.5564            0    5305.6095    17.219239    20.281989    21.007431    7336.6437    7120.2791    5052.9638    3743.5855    678.40379   -104.10026    411.35772   -2902.9347 
19123000    252.05143   -3960.5583   -3528.5507   -3960.5583            0    6831.3412     17.19645    20.255146    20.979629    7307.5531    7363.3784    8232.1669    4898.4783   -1064.8062    -927.9294    288.72924   -2800.5131 
19124000    252.75663   -3917.7337   -3484.5175   -3917.7337            0    4637.1074    17.253502    20.322346    21.049232    7380.5264    5138.4352      4969.87     3803.017   -325.61973   -1612.1762   -91.941801   -2985.3913 
19125000    266.59345   -3902.1614   -3445.2293   -3902.1614            0    6027.3183    17.215531    20.277621    21.002907    7331.9049    8446.2995    6103.2802    3532.3753    784.72516    319.69602    175.85143   -2800.7383 
19126000    250.40684   -3901.4319   -3472.2431   -3901.4319            0    7448.9719    17.132982     20.18039    20.902198    7226.9403    7535.4435     8442.743     6368.729    164.44827   -44.079571    629.30449     -2687.14 
19127000    267.85216   -3924.0852   -3464.9958   -3924.0852            0    5751.0023    17.190655    20.248321    20.972559    7300.1681    6032.8007    5492.8448    5727.3615    1190.9636    769.75322      37.6571   -2852.7127 
19128000    246.36029   -3891.5012   -3469.2481   -3891.5012            0    6355.4516    17.185532    20.242286    20.966309    7293.6431    6329.7893    6381.7369    6354.8286   -1073.4301   -334.25601   -110.69941   -2793.2167 
19129000    254.59119   -3897.9855   -3461.6249   -3897.9855            0    5098.6126    17.245036    20.312374    21.038903    7369.6675    5771.7929    4484.5273    5039.5175    1495.8274   -1011.0549    660.81446   -2913.6309 
19130000    238.89397   -3924.0536   -3514.5975   -3924.0536            0    8565.3818    17.086679    20.125851    20.845709    7168.5048    8501.7249    7329.5319    9864.8887    376.97451   -729.85302   -633.52099   -2619.1272 
19131000    247.20944   -3948.2441   -3524.5356   -3948.2441            0    6510.2748    17.157502    20.209271    20.932112    7258.0135    6488.4717    5493.3737    7548.9788    858.30789   -878.08428   -903.70772   -2835.4186 
19132000    259.06187    -3896.705   -3452.6819    -3896.705            0    5156.1015    17.211577    20.272964    20.998083    7326.8544    6219.5989     4464.763    4783.9426     62.28928    430.51749   -700.03413   -2901.7284 
19133000     237.4733   -3885.4225   -3478.4014   -3885.4225            0    5741.4342    17.215861     20.27801     21.00331    7332.3265    6819.3059    5132.5978     5272.399   -907.89983    216.09942   -588.22387   -2864.4442 
19134000    251.04934   -3970.4175   -3540.1275   -3970.4175            0    5890.8845    17.189606    20.247086     20.97128    7298.8323    5955.8964    5322.7498    6394.0074    655.43652    -1702.718   -873.37594   -2913.0665 
19135000    241.55548   -3961.7548    -3547.737   -3961.7548            0    5184.0872    17.165696    20.218922    20.942109    7268.4167    5755.8832    5806.6946    3989.6839   -608.10058    111.72671    460.83385   -2998.2113 
19136000    244.16311    -3929.578   -3511.0908    -3929.578            0    6318.9919    17.155241    20.206608    20.929354    7255.1447    6525.5796    6166.0687    6265.3275   -101.29402    858.19232    616.44514   -2842.4855 
19137000    248.93804   -3969.0356   -3542.3643   -3969.0356            0    5584.8402    17.197817    20.256757    20.981297    7309.2967    2774.9773    6841.5216    7138.0218    -373.4241   -713.60953   -393.05982   -2947.0281 
19138000    255.27458   -3929.3544   -3491.8225   -3929.3544            0    7429.3963    17.192887     20.25095    20.975282    7303.0123    4987.0128    7920.4047    9380.7714    1244.7311   -909.35694   -699.97225   -2700.5402 
19139000    229.57093   -3942.6726   -3549.1959   -3942.6726            0    4832.4847    17.202944    20.262796    20.987552    7315.8353    5122.1359    4112.4891    5262.8291   -79.538363   -1244.7354    129.06469    -3033.599 
19140000    257.94091   -3953.9263   -3511.8244   -3953.9263            0      4163.98     17.20315    20.263038    20.987803    7316.0978    3830.8094    3783.7298    4877.4009   -750.97503     1779.186    141.74912    -3067.537 
19141000    239.36352   -3957.7262   -3547.4653   -3957.7262            0    2946.4772    17.142809    20.191965    20.914187    7239.3831     4602.194    1456.0015    2781.2361   -383.58414     658.7927    437.70539   -3236.3792 
19142000    238.95082   -3929.0123   -3519.4588   -3929.0123            0    5574.3842    17.161994    20.214562    20.937593    7263.7154    6949.2354     3942.517    5831.4003   -71.274571    1188.0832   -475.22492   -2928.9428 
19143000    232.40995   -3897.0754   -3498.7327   -3897.0754            0    5789.7193     17.15231    20.203156    20.925778    7251.4267    6941.5443    4623.9975    5803.6162   -421.59782   -1166.9548   -469.08725   -2886.4432 
19144000    253.77155   -3919.1667    -3484.211   -3919.1667            0    5641.3385    17.194298    20.252612    20.977003    7304.8102    7263.7424    4841.3948    4818.8785   -992.93494    491.27568   -539.78093   -2883.2213 
19145000    260.98025   -3907.7067   -3460.3955   -3907.7067            0    3620.4144    17.252032    20.320615    21.047439    7378.6408    4845.7245    3677.4141    2338.1045    -890.0075    139.02557    757.10119   -3070.8031 
19146000    256.44121   -3945.7169   -3506.1854   -3945.7169            0    6280.6313    17.198207    20.257216    20.981772     7309.793    7307.4945    6819.6705    4714.7289   -234.52436    1651.9125    675.56952   -2836.6335 
19147000    233.85025   -3923.9751   -3523.1638   -3923.9751            0    6641.6048    17.192721    20.250754    20.975079    7302.7999    6596.9805    6283.4261    7044.4077    194.09927    1980.8856    906.86268   -2815.8073 
19148000     233.2593   -3924.2683   -3524.4698   -3924.2683            0    6866.3554    17.221151    20.284241    21.009764    7339.0878    6847.1386    7677.4655    6074.4623    1054.1347   -362.86684    1419.8466   -2789.5428 
19149000    251.99237   -3867.7854   -3435.8791   -3867.7854            0    9515.0332    17.094845    20.135469    20.855671    7178.7875    10537.729    10108.153    7899.2177    571.95461   -826.12775   -41.878304   -2439.7003 
19150000    245.24839   -3913.4826   -3493.1353   -3913.4826            0    5079.1876    17.190008    20.247559     20.97177     7299.344    4875.8466    5966.0264      4395.69   -1051.1533    1569.3091   -2323.6203   -2952.4383 
19151000    251.91421   -3902.8207   -3471.0484   -3902.8207            0    5810.2102    17.122305    20.167814    20.889172    7213.4377      4358.68    7299.2662    5772.6845    827.26803   -1648.5646   -873.69995   -2859.8108 
19152000    239.00408    -3927.681   -3518.0362    -3927.681            0    5384.4152    17.068033    20.103889    20.822961    7145.0626    5930.2716     4140.153    6082.8209   -324.83977   -1370.8422   -596.34532   -2956.9618 
19153000    258.47352   -3914.3924   -3471.3776   -3914.3924            0    7224.2667    16.977735    19.997529    20.712797    7032.2583    6645.3449    8185.0279    6842.4274   -636.86543   -816.40219   -2186.4129   -2730.4693 
19154000    241.31904   -3905.4078   -3491.7952   -3905.4078            0    4541.4611    17.094712    20.135313    20.855509    7178.6202    5103.4183    3708.8242    4812.1408     340.6748    -1597.626    400.85492   -3016.3369 
19155000      235.346   -3892.6912   -3489.3162   -3892.6912            0    5673.3824    17.094109    20.134603    20.854773    7177.8605    4697.2734     6718.458    5604.4157   -588.27591   -1673.5411    414.02112   -2895.4167 
19156000     237.5851   -3922.3585   -3515.1457   -3922.3585            0    5189.9977     17.03786    20.068349     20.78615    7107.2364    5144.0755    5134.8312    5291.0863    426.85026    835.34007    335.93461   -2977.1934 
19157000    237.15329    -3906.133   -3499.6604    -3906.133            0    6080.6642    17.081802    20.120107    20.839759    7162.3684    7064.9459    5882.9887    5294.0581   -154.77998    103.58453    -1018.166   -2864.4998 
19158000    245.94071   -3926.9155   -3505.3815   -3926.9155            0    6008.7006    17.058409    20.092553    20.811219    7132.9824    6198.1243    4870.8448    6957.1328    281.45303   -1324.8303     1006.705    -2880.313 
19159000    241.40328   -3892.9963   -3479.2393   -3892.9963            0    6415.2759    17.114804    20.158978    20.880021    7203.9612    7944.3124    6829.8976    4471.6176   -3003.2086   -922.26327    710.60801   -2805.2352 
19160000    251.37798   -3882.9499   -3452.0966   -3882.9499            0    6181.7841    17.123245    20.168921    20.890319     7214.626    6599.1841    6429.3684    5516.7996    966.45731    -635.5915   -267.48234   -2801.6622 
19161000    243.00929   -3933.7749   -3517.2653   -3933.7749            0    5173.2719      17.0885    20.127996     20.84793     7170.797     7194.904    4349.0848     3975.827   -750.53017    358.04895    156.58988   -2976.2511 
19162000     246.5622   -3908.7126   -3486.1135   -3908.7126            0    7322.4711    17.058519    20.092682    20.811353    7133.1199    7230.8454    8095.3717    6641.1963    -28.50588   -60.736668     -474.426   -2724.3624 
19163000    239.67444   -3893.7151   -3482.9213   -3893.7151            0    6634.6109     17.07035    20.106617    20.825787    7147.9724    7274.1264    5848.7247    6780.9817   -274.15298   -294.59989   -1993.7433   -2791.2906 
19164000     248.9806   -3926.3043   -3499.5601   -3926.3043            0    6455.4409    17.060499    20.095014    20.813769    7135.6042    6005.0641    8232.2569    5129.0017    576.71869    436.17657    503.75924   -2827.7716 
19165000    249.61906   -3937.0037   -3509.1652   -3937.0037            0     8104.901    17.129541    20.176337       20.898    7222.5871    8375.0344    6789.3188    9150.3497    334.35128   -99.192718     2275.406   -2655.4433 
19166000    254.62672   -3928.9364    -3492.515   -3928.9364            0     4477.977    17.174648    20.229467     20.95303    7279.7944    6010.5032    3574.8123    3848.6155   -837.77152    530.07609    549.06101   -3017.0956 
19167000    232.34031   -3919.8733   -3521.6499   -3919.8733            0    6019.1978    17.129703    20.176527    20.898197    7222.7912    5353.1079    6868.1888    5836.2966    2168.8295    -905.2782    921.45948   -2887.6057 
19168000    271.86737   -3916.0257   -3450.0544   -3916.0257            0    6056.3242    17.150585    20.201124    20.923674    7249.2391    6824.1158     5396.171    5948.6859   -194.44801    1428.1708    2424.9964   -2809.7633 
19169000    259.38556   -3908.5593   -3463.9813   -3908.5593            0    4387.0209    17.189617    20.247098    20.971293    7298.8459    3535.1146    5246.7167    4379.2313   -283.46866   -199.09394    79.613675   -2996.9997 
19170000    256.60055   -3898.9589   -3459.1543   -3898.9589            0    4803.8143    17.097461    20.138551    20.858862    7182.0835    5929.8529    5896.3366    2585.2536    -1681.281    179.73273   -248.69176   -2955.9868 
19171000    250.08336   -3910.8204    -3482.186   -3910.8204            0    6033.5577    17.122519    20.168066    20.889433    7213.7083    6108.4023     7253.035    4739.2357    922.12822     509.1182    441.28514   -2847.4284 
19172000    242.71945   -3902.2709   -3486.2581   -3902.2709            0    7189.9516    17.106947    20.149724    20.870435    7194.0442    8023.1755    7801.6275     5745.052    174.06362    811.10496    48.468549   -2731.9045 
19173000    241.44488   -3922.5269   -3508.6986   -3922.5269            0    6084.9197    17.127157    20.173528    20.895091    7219.5713    6167.4508    7414.0045    4673.3038   -1500.9279    1860.7973    375.11185   -2868.0172 
19174000    237.86254   -3945.9725   -3538.2842   -3945.9725            0    4809.6453    17.201099    20.260623    20.985301     7313.482    4600.3293     5242.224    4586.3826    444.37565    1181.9903     258.5904   -3025.2892 
19175000    253.91789   -3928.9996    -3493.793   -3928.9996            0     5639.954    17.234777    20.300291    21.026388    7356.5234    5048.2193     6131.738    5739.9048      22.7171   -2026.1371   -295.81991   -2888.6973 
19176000    247.66026   -3943.9336   -3519.4524   -3943.9336            0    5761.9815    17.218591    20.281225     21.00664    7335.8153    5773.6146    6241.8121    5270.5178    850.70634   -762.17577    272.48064   -2903.0048 
19177000    257.24445   -3928.4855   -3487.5774   -3928.4855            0    8147.4616    17.148645    20.198839    20.921307    7246.7792    9903.9089    6107.6839    8430.7919     22.79043   -619.30165   -375.66405   -2626.4979 
19178000    253.65192   -3942.2344   -3507.4837   -3942.2344            0    5125.3856    17.190599    20.248254     20.97249    7300.0962    6366.5964    5944.4835    3065.0768    344.53509   -181.25591   -334.42948   -2961.8125 
19179000    245.10083   -3960.4164   -3540.3219   -3960.4164            0    5566.0108    17.243384    20.310429    21.036889    7367.5505    5993.4327    4278.5685    6426.0312      679.824   -1548.5018    1139.2012   -2942.2643 
19180000    238.96791   -3924.8019   -3515.2191   -3924.8019            0    3357.0959    17.229272    20.293807    21.019672     7349.476    3120.3307    3250.1085    3700.8484    -49.57389   -266.99839    450.28139   -3155.3902 
19181000    243.35342   -3916.4896   -3499.3902   -3916.4896            0    4226.3234    17.194287    20.252599     20.97699    7304.7959    5967.7396    3462.1344    3249.0963    1114.2045   -1276.4349   -799.60734   -3049.1475 
19182000     260.9065   -3920.1498    -3472.965   -3920.1498            0    6333.0464    17.207576    20.268252    20.993203    7321.7463    4807.6353    6874.0957    7317.4081    -80.34529    378.40089   -941.28395   -2796.7213 
19183000    242.18476   -3925.2238   -3510.1274   -3925.2238            0    6471.1683    17.165806    20.219051    20.942243    7268.5562    8243.8655    4551.1696    6618.4697   -694.74971    233.50319    198.44719   -2824.1549 
19184000    234.60191   -3928.9486    -3526.849   -3928.9486            0    5362.3068    17.214687    20.276627    21.001877    7330.8267    5965.6588    5182.8521    4938.4096   -547.72808   -1419.3855    154.74869   -2953.5509 
19185000    259.02527   -3918.3379   -3474.3774   -3918.3379            0    5678.2436    17.287706    20.362634    21.090961    7424.5084     4133.361    6837.5192    6063.8507   -757.72253    1449.1967    1385.5034   -2859.5438 
19186000    262.85896   -3927.8155   -3477.2843   -3927.8155            0    6559.0948    17.264051    20.334771    21.062101    7394.0723    5840.9855    5969.8834    7866.4153    966.16391    659.18687    379.30484   -2769.9845 
19187000    244.56075   -3906.4881   -3487.3193   -3906.4881            0    5492.1535    17.185582    20.242346     20.96637    7293.7077    5907.7148    5605.4417    4963.3041    915.52955    730.24415   -2114.7342   -2903.1121 
19188000    255.47328   -3871.6638   -3433.7913   -3871.6638            0    6171.2505    17.217902    20.280414      21.0058    7334.9348     5501.816    6404.4074    6607.5279   -328.57226    1116.7653   -1484.5831   -2773.6372 
19189000    237.99185   -3914.4552   -3506.5454   -3914.4552            0    4411.4692    17.225254    20.289074     21.01477    7344.3354     5730.028    4053.3182    3451.0615    2316.3482    46.255128    577.27119   -3034.0347 
19190000    265.56195     -3899.94   -3444.7759     -3899.94            0    4209.1557    17.285496    20.360031    21.088265    7421.6611    4848.8836    3332.0897     4446.494    514.43478    709.06168   -918.18138   -2989.1882 
19191000    250.41623   -3896.9088   -3467.7039   -3896.9088            0    4797.0418    17.251728    20.320257    21.047068    7378.2506    5623.4689    4185.2558    4582.4007   -695.80736    1382.7195   -721.42109    -2951.522 
19192000    249.14089   -3883.2591   -3456.2402   -3883.2591            0    6185.6937    17.178419    20.233908    20.957631    7284.5907    5868.1603    6169.5139    6519.4068    627.77886   -542.97187    755.11901   -2799.0827 
19193000    252.34674   -3889.9995   -3457.4858   -3889.9995            0    5936.1264    17.162174    20.214773    20.937812    7263.9435    5369.6794    5365.5765    7073.1234   -1004.4211    443.88038   -826.21041   -2828.6294 
19194000    259.05029   -3906.5567   -3462.5534   -3906.5567            0    5514.4222    17.218522    20.281144    21.006556    7335.7274    4771.9018     5007.105    6764.2598   -859.87691   -934.80859   -1503.3844   -2872.5981 
19195000    250.54446    -3910.165   -3480.7404    -3910.165            0     7399.983    17.205295    20.265565     20.99042    7318.8352    5153.4588     8584.289    8462.2011   -905.61331    982.41818   -814.33171   -2690.8832 
19196000    255.28223    -3914.797    -3477.252    -3914.797            0    4310.4745    17.267516    20.338852    21.066329    7398.5252    3424.4992    5162.2669    4344.6575    204.32359    1295.7091   -912.39055   -3012.1522 
19197000    251.95607   -3901.6225   -3469.7784   -3901.6225            0    6199.7794    17.163179    20.215958    20.939038    7265.2202    6890.1822    5138.2072    6570.9488    873.67391   -686.46941   -445.43715   -2812.8759 
19198000    252.67353   -3893.7334   -3460.6596   -3893.7334            0    4239.5368    17.255748    20.324992    21.051972    7383.4092    4416.7923     5198.678    3103.1402   -1520.7032   -557.84081    965.31436   -3004.1486 
19199000    266.67184   -3912.1447   -3455.0783   -3912.1447            0    5352.6162    17.187284     20.24435    20.968446    7295.8745    4301.8118    6565.7001    5190.3366    -796.7505    395.62616   -704.86266   -2885.5447 
19200000    246.29591   -3926.6683   -3504.5256   -3926.6683            0    3891.7239     17.27247    20.344689    21.072373    7404.8958    5008.4604    2450.4502    4216.2611   -796.79061    533.11818    -1038.945   -3084.2474 
19201000    250.06177   -3938.4817   -3509.8844   -3938.4817            0    5813.5539    17.187675    20.244811    20.968923    7296.3721    5962.4461    6779.9525     4698.263   -1160.8497    295.30471    572.78015   -2891.2635 
19202000    244.73042   -3911.6236   -3492.1641   -3911.6236            0    4899.3438    17.220568    20.283555    21.009053    7338.3436    5058.5867    5722.7476    3916.6971    1374.8592   -2076.9276    1510.2578   -2967.8254 
19203000    238.13355   -3934.3568   -3526.2041   -3934.3568            0    4750.5848    17.236948    20.302848    21.029036    7359.3034     5215.858    4812.3761    4223.5203    -1088.864    497.80397    13.397034   -3016.3338 
19204000     234.0565   -3912.2541   -3511.0893   -3912.2541            0    4535.3792    17.233667    20.298984    21.025034    7355.1019    5985.8343    4766.2017    2854.1017   -185.23022     447.6809    1066.8862   -3024.5945 
19205000    238.29006   -3943.0656   -3534.6446   -3943.0656            0     5734.343    17.262678    20.333155    21.060427     7392.309    7166.2005    6116.1623     3920.666    1274.9118     -1192.17   -420.11724   -2916.4294 
19206000    243.46276   -3926.9195   -3509.6327   -3926.9195            0    4702.2084    17.286501    20.361215    21.089491    7422.9557    3807.3131    5715.7934    4583.5185   -1902.8915   -1182.9242   -288.04834   -3000.5895 
19207000    233.05052   -3898.2872   -3498.8466   -3898.2872            0     8831.402    17.198229    20.257242    20.981799    7309.8213    11256.909    10327.526    4909.7705    1057.7642   -1757.0708    -701.6111    -2557.364 
19208000    251.64425   -3905.9452   -3474.6356   -3905.9452            0     5904.418    17.221025    20.284092     21.00961    7338.9269    6710.8986    4450.3842    6551.9711   -835.04881    44.938805   -493.10503   -2842.6815 
19209000    247.25963   -3919.3988   -3495.6043   -3919.3988            0    7478.1543    17.109801    20.153085    20.873917    7197.6451    8849.9855    6784.3211    6800.1564    116.46364     273.2392    1868.1434   -2710.6204 
19210000    262.97401   -3903.6928   -3452.9644   -3903.6928            0    5085.3213    17.197414    20.256283    20.980805    7308.7829    4591.7102    5578.6587     5085.595   -440.44017    415.21564   -130.45794   -2910.9144 
19211000     253.4954    -3926.265   -3491.7825    -3926.265            0    6689.5357    17.194696    20.253081    20.977489    7305.3175    5708.0269    7280.0787    7080.5014   -662.84011    32.255448    793.64889   -2779.0756 
19212000    251.57506   -3911.9438   -3480.7528   -3911.9438            0    7043.3492     17.15053    20.201059    20.923606    7249.1689    7585.1304    7664.2822    5880.6351    522.93861   -402.45857   -1438.8131    -2736.118 
19213000    252.17726   -3893.3278   -3461.1046   -3893.3278            0    5158.1977    17.204109    20.264168    20.988973    7317.3219    5626.4461    5454.7478    4393.3994    567.39162    14.563945    702.41845   -2910.6442 
19214000    245.33067   -3921.7668   -3501.2784   -3921.7668            0    3750.5252    17.169651    20.223581    20.946934    7273.4422    3435.5676    4728.0135    3087.9944    884.03426   -331.89802   -17.678601   -3103.4388 
19215000    235.40023   -3957.4724   -3554.0045   -3957.4724            0    6309.9227     17.11939     20.16438    20.885616    7209.7542    5945.9046    6731.1939    6252.6698    321.94355    89.790274    43.948587   -2890.5359 
19216000    245.86942   -3935.7721   -3514.3604   -3935.7721            0    5285.1475    17.135798    20.183707    20.905634    7230.5046    6325.7289    5422.7627    4106.9508    1137.9164    1159.6949     186.0865   -2957.0443 
19217000    229.61061   -3903.5201   -3509.9753   -3903.5201            0    4928.1926    17.192548    20.250551    20.974869    7302.5805    4815.1495    5779.6953     4189.733    537.49201    574.56079    148.27253   -2985.1197 
19218000    252.31336   -3910.8931   -3478.4366   -3910.8931            0    5262.4595    17.185348    20.242071    20.966085    7293.4099    4935.7596     5781.729    5069.8898    1989.8441   -1500.8433    43.291891   -2918.6851 
19219000    250.36046   -3881.8089   -3452.6996   -3881.8089            0    6234.8059    17.154366    20.205577    20.928286    7254.0339    4562.8097    7001.9594    7139.6487    1111.2053    101.02084   -759.87971    -2793.103 
19220000    249.87114   -3933.0361   -3504.7655   -3933.0361            0    6483.9505    17.113841    20.157844    20.878846    7202.7453    7966.6626    6950.3545    4534.8344   -171.44043   -207.31754   -25.599014   -2823.6612 
19221000    263.32181   -3936.4855    -3485.161   -3936.4855            0    4898.0596    17.157619    20.209409    20.932255    7258.1617    4699.3191    5232.0747    4762.7849    2276.9035    631.96566    1447.0081   -2966.6874 
19222000    240.85885   -3915.2987   -3502.4749   -3915.2987            0    6965.3042    17.150549    20.201081     20.92363    7249.1932     5968.092    8665.0166    6262.8041    1047.9111    340.62778    483.47823   -2766.0887 
19223000    242.92127    -3935.344   -3518.9852    -3935.344            0    5085.2502    17.242866    20.309819    21.036256    7366.8863    3758.6208    6801.3101    4695.8196    1147.2695   -189.34088     1411.345   -2972.6337 
19224000    262.94475   -3953.5742   -3502.8959   -3953.5742            0    6863.9663    17.173112    20.227658    20.951157    7277.8422    5583.9613    9239.2306     5768.707   -195.61425   -1111.8671    1054.5238   -2774.3554 
19225000    238.79972   -3920.8099   -3511.5154   -3920.8099            0    6728.2996    17.154189    20.205369    20.928071    7253.8099    6167.0067    7873.0922    6144.8001     240.2635   -1298.2223    945.41927   -2799.7327 
19226000     256.1101   -3918.2558   -3479.2918   -3918.2558            0    3917.3465    17.244224    20.311418    21.037913    7368.6267    3992.8107    3504.2077    4255.0211    544.54977    1440.2776   -737.08323   -3058.3186 
19227000     261.5326   -3895.5322   -3447.2743   -3895.5322            0    4931.2232     17.24389    20.311025    21.037506    7368.1986      3743.96     6251.054    4798.6556    617.94376    62.760856    550.48178   -2917.3768 
19228000    264.49235   -3925.6462   -3472.3154   -3925.6462            0    5175.8191    17.241421    20.308116    21.034493    7365.0338    5521.2851    6290.0211    3716.1511    599.49395   -1118.8468    48.195508   -2916.3731 
19229000    254.23115    -3934.844   -3499.1005    -3934.844            0    5790.7682    17.235294    20.300899    21.027018    7357.1845    6003.2432    6923.8276    4445.2337    321.60937   -552.99388    302.42758   -2877.7685 
19230000    263.69344   -3932.9488   -3480.9873   -3932.9488            0    6488.9127    17.211738    20.273154     20.99828    7327.0603    5951.5932    7234.0073    6281.1376    124.50602   -558.89151    925.71236   -2787.5973 
19231000    248.93661   -3908.9123   -3482.2435   -3908.9123            0    6601.2385    17.184845    20.241478    20.965471    7292.7691    6359.5631    7597.3312    5846.8213    223.35713   -369.29931    939.75904   -2780.1519 
19232000    256.57153   -3937.2128    -3497.458   -3937.2128            0     8198.194    17.216459    20.278715     21.00404    7333.0913    10154.866    7321.4258    7118.2905   -103.19543   -16.074486    354.28221   -2620.6971 
19233000    246.96532   -3928.2275   -3504.9374   -3928.2275            0    4727.0258    17.231201    20.296079    21.022025     7351.945    4444.4477    5578.3157    4158.3142   -1839.6684    272.64351    242.99526    -2998.103 
19234000    243.49377   -3891.7317   -3474.3917   -3891.7317            0     6159.342    17.174884    20.229744    20.953318    7280.0943     3519.742    6915.0984    8043.1855    616.05833    571.00337    772.78078   -2820.4377 
19235000    240.40459   -3918.7459   -3506.7007   -3918.7459            0    7177.4505     17.15502    20.206348    20.929084    7254.8641    7132.1747    7716.4109    6683.7658   -545.31589   -658.35022   -340.59314   -2747.2923 
19236000    241.65583   -3896.4767   -3482.2869   -3896.4767            0    4161.8721    17.163949    20.216865    20.939978    7266.1984    3437.1657    2853.4103    6195.0404    201.17302   -312.31169    481.53906   -3041.2531 
19237000    248.58769   -3916.1556   -3490.0848   -3916.1556            0    4889.3093     17.17312    20.227667    20.951167    7277.8523    4910.7705    5336.8439    4420.3135    221.51981    541.61131    313.75622   -2971.1334 
19238000    256.34991   -3905.8262   -3466.4512   -3905.8262            0    5465.8286    17.168251    20.221932    20.945226    7271.6631     6307.371    4912.8862    5177.2286   -196.12566    709.42815    1912.7013   -2886.8015 
19239000     248.6299   -3909.1219   -3482.9787   -3909.1219            0    5862.7295    17.156052    20.207564    20.930344    7256.1739    4935.3311    5967.0654    6685.7921   -653.28607   -1037.8748   -477.17506   -2862.5621 
19240000    254.78577   -3925.3002   -3488.6061   -3925.3002            0    6012.1195    17.130151    20.177056    20.898745     7223.359    7225.1984    6048.8855    4762.2747     -1163.15     1641.897    1922.3825   -2855.2576 
19241000    241.43533    -3926.389   -3512.5771    -3926.389            0    6438.8021    17.221931     20.28516    21.010716    7340.0861    7493.0258    6171.6458    5651.7347   -1046.1797   -597.60396   -224.83844   -2823.3186 
19242000     253.0516    -3915.682   -3481.9602    -3915.682            0    4086.0777    17.263331    20.333923    21.061223    7393.1474    2931.9858    4560.4458    4765.8014   -827.57392    1768.9404   -1031.3016   -3041.3933 
19243000    265.82709   -3909.8599   -3454.2414   -3909.8599            0    6272.6128    17.196125    20.254764    20.979232    7307.1391    7345.2445    4566.0402    6906.5536   -33.477913   -67.820617    124.37093   -2785.7871 
19244000    250.72154   -3900.1438   -3470.4156   -3900.1438            0    8159.8518    17.151943    20.202723     20.92533    7250.9604     7799.209     10038.31    6642.0369    901.25435   -235.10962   -740.41958   -2607.5291 
19245000    259.71674   -3901.3397   -3456.1941   -3901.3397            0    4180.9237    17.253045    20.321808    21.048674    7379.9399    5397.2099    5508.6242    1636.9369     439.4224      448.322    513.68625   -3006.2061 
19246000     242.3084   -3875.1006   -3459.7923   -3875.1006            0    7354.2842    17.113177    20.157062    20.878036    7201.9067     8596.303    6889.0779    6577.4717    227.59547   -454.61074    375.05752    -2687.354 
19247000    238.98973   -3888.2457   -3478.6255   -3888.2457            0    6465.9312    17.156667    20.208288    20.931094    7256.9543    7425.6695     6750.087    5222.0372     529.6786   -472.17945    380.55709   -2794.3021 
19248000    259.63443   -3892.5797   -3447.5752   -3892.5797            0    6045.0775    17.239242     20.30555    21.031835    7362.2416    6504.8635    7420.4432    4209.9258   -213.72291    583.93123    1659.2959   -2798.5107 
19249000    242.97171   -3921.9018   -3505.4566   -3921.9018            0    4198.7557    17.215514    20.277601    21.002886    7331.8832    5007.1634    4621.3837    2967.7201   -199.96919   -651.68247    1533.5953    -3056.492 
19250000    264.08801   -3896.7318    -3444.094   -3896.7318            0    3492.0319    17.255958    20.325239    21.052228    7383.6787    3076.7152    2622.3332    4777.0473    2655.6751    1080.7147    1713.6597   -3068.0602 
Loop time of 434.784 on 64 procs for 250000 steps with 864 atoms

Performance: 99.360 ns/day, 0.242 hours/ns, 574.999 timesteps/s
99.1% CPU use with 64 MPI tasks x 1 OpenMP threads

MPI task timing breakdown:
Section |  min time  |  avg time  |  max time  |%varavg| %total
---------------------------------------------------------------
Pair    | 20.512     | 25.851     | 30.784     |  49.6 |  5.95
Bond    | 0.27243    | 0.28025    | 0.292      |   0.8 |  0.06
Kspace  | 188.81     | 199.01     | 209.01     |  30.2 | 45.77
Neigh   | 4.5467     | 5.1458     | 6.0571     |  14.8 |  1.18
Comm    | 86.981     | 97.418     | 107.19     |  39.3 | 22.41
Output  | 1.6662     | 1.6687     | 1.6803     |   0.2 |  0.38
Modify  | 94.47      | 99.016     | 104.05     |  22.2 | 22.77
Other   |            | 6.392      |            |       |  1.47

Nlocal:        13.5000 ave          21 max           8 min
Histogram: 3 1 6 21 15 9 7 0 1 1
Nghost:        2171.36 ave        2211 max        2123 min
Histogram: 2 2 5 9 5 8 18 7 5 3
Neighs:        4181.50 ave        6934 max        2119 min
Histogram: 2 4 6 16 18 9 6 2 0 1

Total # of neighbors = 267616
Ave neighs/atom = 309.74074
Ave special neighs/atom = 2.0000000
Neighbor list builds = 12612
Dangerous builds = 0

unfix		3
unfix		2
unfix		1

write_data	data.final.${pid}
write_data	data.final.0
System init for write_data ...
PPPM initialization ...
  extracting TIP4P info from pair style
  using 12-bit tables for long-range coulomb (../kspace.cpp:340)
  G vector (1/distance) = 0.37446919
  grid = 24 24 25
  stencil order = 5
  estimated absolute RMS force accuracy = 0.003048941
  estimated relative force accuracy = 9.1817952e-06
  using double precision FFTW3
  3d grid and FFT values/proc = 2730 288
Last active /omp style is kspace_style pppm/tip4p/omp
WARNING: Not all mixed pair coeffs generated from mixing. Use write_data with 'pair ij' option to store all pair coeffs. (../write_data.cpp:312)

write_restart   restart.lmp.${pid}
write_restart   restart.lmp.0
System init for write_restart ...
PPPM initialization ...
  extracting TIP4P info from pair style
  using 12-bit tables for long-range coulomb (../kspace.cpp:340)
  G vector (1/distance) = 0.37446919
  grid = 24 24 25
  stencil order = 5
  estimated absolute RMS force accuracy = 0.003048941
  estimated relative force accuracy = 9.1817952e-06
  using double precision FFTW3
  3d grid and FFT values/proc = 2730 288
Last active /omp style is kspace_style pppm/tip4p/omp
Total wall time: 0:07:16
