LAMMPS (30 Jul 2021)
  using 1 OpenMP thread(s) per MPI task
package omp 0
using multi-threaded neighbor list subroutines
echo both

include		in.partitions
variable        pid world 0
include		in.temp
variable        temperature equal 252.38
variable	tempDamp equal 100.0
include		in.pressure
variable        pressure equal 5750.0
variable        pressureDamp equal 1000.0 # This is 1 ps
include		in.seed
variable        seed world 745823

units		real
atom_style	full
read_restart	restart.lmp.${pid}
read_restart	restart.lmp.0
Reading restart file ...
  restart file = 30 Jul 2021, LAMMPS = 30 Jul 2021
  restoring atom style full from restart
  orthogonal box = (0.52405142 1.7087946 0.63934151) to (17.683521 21.920383 21.573854)
  4 by 4 by 4 MPI processor grid
  restoring pair style lj/cut/tip4p/long/omp from restart
  restoring bond style harmonic/omp from restart
  restoring angle style harmonic/omp from restart
  864 atoms
  576 bonds
  288 angles
Finding 1-2 1-3 1-4 neighbors ...
  special bond factors lj:    0        0        0       
  special bond factors coul:  0        0        0       
     2 = max # of 1-2 neighbors
     1 = max # of 1-3 neighbors
     1 = max # of 1-4 neighbors
     2 = max # of special neighbors
  special bonds CPU = 2.145 seconds
  read_restart CPU = 2.688 seconds
include 	in.setup
variable	out_freq equal 1000
variable	out_freq2 equal 10000
variable	out_freq3 equal 1000

timestep	2.0

neigh_modify    delay 7 every 1

include		in.tip4p
# This is TIP4P/Ice

# create groups ###
group ox type 2
288 atoms in group ox
group hy type 1
576 atoms in group hy

# set charges - beside manually ###
set group ox charge -1.1794
Setting atom values ...
  288 settings made for charge
set group hy charge 0.5897
Setting atom values ...
  576 settings made for charge

# ### TIP3P Potential Parameters ###
pair_style lj/cut/tip4p/long/omp 2 1 1 1 0.1577 8.5
pair_coeff 1 1*2 0.000 0.000
pair_coeff 2 2 0.21084 3.1668
bond_style  harmonic
bond_coeff  1 450 0.9572
angle_style harmonic
angle_coeff 1 55 104.52
kspace_style pppm/tip4p/omp 1.0e-5
pair_modify tail yes

thermo          ${out_freq}
thermo          1000
thermo_style    custom step temp pe etotal epair emol press lx ly lz vol pxx pyy pzz pxy pxz pyz enthalpy

restart 	${out_freq3} restart.lmp.${pid} restart2.lmp.${pid}
restart 	1000 restart.lmp.${pid} restart2.lmp.${pid}
restart 	1000 restart.lmp.0 restart2.lmp.${pid}
restart 	1000 restart.lmp.0 restart2.lmp.0


include         in.dump
dump            myDump all atom ${out_freq2} dump.water.${pid}
dump            myDump all atom 10000 dump.water.${pid}
dump            myDump all atom 10000 dump.water.0
dump            myDump2 all dcd ${out_freq2} dump.dcd
dump            myDump2 all dcd 10000 dump.dcd
dump_modify     myDump append yes
dump_modify     myDump2 append yes


variable natoms 	equal  "count(all)"                        # NUMBER ATOMS
variable H      	equal  "enthalpy/v_natoms"                 # ENTHALPY-per-atom
variable Vol      	equal  "vol/v_natoms"                 # volume-per-atom
fix AVG all 		ave/time ${out_freq} 1 ${out_freq} v_Vol v_H file vol_enthalpy.dat
fix AVG all 		ave/time 1000 1 ${out_freq} v_Vol v_H file vol_enthalpy.dat
fix AVG all 		ave/time 1000 1 1000 v_Vol v_H file vol_enthalpy.dat


timer           timeout 23:50:00 every 1000
New timer settings: style=normal  mode=nosync  timeout=23:50:00

fix 		1 all shake 1e-6 200 0 b 1 a 1
       0 = # of size 2 clusters
       0 = # of size 3 clusters
       0 = # of size 4 clusters
     288 = # of frozen angles
  find clusters CPU = 0.016 seconds
fix             2 all nph iso ${pressure} ${pressure} ${pressureDamp}
fix             2 all nph iso 5750 ${pressure} ${pressureDamp}
fix             2 all nph iso 5750 5750 ${pressureDamp}
fix             2 all nph iso 5750 5750 1000
fix             3 all temp/csvr ${temperature} ${temperature} ${tempDamp} ${seed}
fix             3 all temp/csvr 252.38 ${temperature} ${tempDamp} ${seed}
fix             3 all temp/csvr 252.38 252.38 ${tempDamp} ${seed}
fix             3 all temp/csvr 252.38 252.38 100 ${seed}
fix             3 all temp/csvr 252.38 252.38 100 745823

run             250000
PPPM initialization ...
  extracting TIP4P info from pair style
  using 12-bit tables for long-range coulomb (../kspace.cpp:340)
  G vector (1/distance) = 0.37336819
  grid = 24 24 24
  stencil order = 5
  estimated absolute RMS force accuracy = 0.0032644516
  estimated relative force accuracy = 9.8307989e-06
  using double precision FFTW3
  3d grid and FFT values/proc = 2535 216
Last active /omp style is kspace_style pppm/tip4p/omp
Neighbor list info ...
  update every 1 steps, delay 7 steps, check yes
  max neighbors/atom: 2000, page size: 100000
  master list distance cutoff = 10.8154
  ghost atom cutoff = 10.8154
  binsize = 5.4077, bins = 4 4 4
  1 neighbor lists, perpetual/occasional/extra = 1 0 0
  (1) pair lj/cut/tip4p/long/omp, perpetual
      attributes: half, newton on, omp
      pair build: half/bin/newton/omp
      stencil: half/bin/3d
      bin: standard
Per MPI rank memory allocation (min/avg/max) = 9.234 | 9.237 | 9.240 Mbytes
Step Temp PotEng TotEng E_pair E_mol Press Lx Ly Lz Volume Pxx Pyy Pzz Pxy Pxz Pyz Enthalpy 
 5250000    272.39629   -3901.0869    -3434.209   -3901.0869            0    5891.8589     17.15947    20.211589    20.934513    7260.5106    7032.7089    4913.6833    5729.1846    -190.5287    213.90819    931.35342   -2810.3372 
 5251000    255.99827   -3910.5455   -3471.7732   -3910.5455            0    3720.6161    17.225537    20.289408    21.015115    7344.6976    4205.9445     3637.767    3318.1369   -1216.6961   -351.30818   -887.11296   -3073.2399 
 5252000    253.99593   -3916.4745   -3481.1342   -3916.4745            0    4596.4575    17.143094      20.1923    20.914535    7239.7442    3738.7059    4682.0907    5368.5759    835.00775    106.18876   -825.91418   -2995.8207 
 5253000    249.41969   -3911.9186   -3484.4218   -3911.9186            0    4916.9502    17.221746    20.284943     21.01049    7339.8497    5437.8662    3626.5802    5686.4041    51.648294    380.74759    186.15468   -2958.0909 
 5254000    231.57741   -3920.2955   -3523.3798   -3920.2955            0    5757.6832    17.179535    20.235223    20.958992    7286.0103    6987.2202    4238.2411    6047.5883   -274.30606   -244.50761   -754.08212   -2911.5742 
 5255000    258.76007   -3897.4727   -3453.9668   -3897.4727            0    6503.0895    17.181524    20.237565    20.961419    7288.5412    6354.7125    5324.0896    7830.4665   -616.99946    388.79793    449.76897   -2762.7151 
 5256000    251.06029   -3883.2499   -3452.9412   -3883.2499            0    5207.8173    17.210882    20.272146    20.997236    7325.9672    5055.3619    5403.5399    5164.5501    1559.3385    1378.0584   -427.06154    -2896.529 
 5257000    251.95846   -3888.6395   -3456.7913   -3888.6395            0    5996.9253    17.110495    20.153903    20.874764     7198.522    5064.9553    5476.8624    7448.9581   -413.18506    -115.9509    488.43962   -2827.2158 
 5258000     257.6777   -3884.0945   -3442.4438   -3884.0945            0    6171.6561     17.16453    20.217549    20.940686    7266.9359    5020.7388    6936.5662    6557.6632   -1074.0475    1133.5266    1141.6159   -2788.3667 
 5259000     253.7361   -3863.0335   -3428.1385   -3863.0335            0    7021.6201    17.146417    20.196214    20.918588    7243.9543    5372.2307     8520.854    7171.7756    342.50687   -1105.4801    73.291401   -2686.3349 
 5260000    243.97187   -3871.6703   -3453.5108   -3871.6703            0    4244.2125    17.132751    20.180117    20.901916    7226.6477    4219.3208    4531.3499    3981.9666   -877.22586   -776.97776    908.14969   -3006.1995 
 5261000    248.71731   -3902.2951   -3476.0022   -3902.2951            0    5721.1575    17.176938    20.232164    20.955824    7282.7068    4420.5161    6848.9572    5893.9993   -1626.4501    855.61584   -391.17281   -2868.3534 
 5262000    264.17533   -3885.1887   -3432.4012   -3885.1887            0    4371.9283    17.198603    20.257682    20.982255    7310.2978    4382.8756    3896.6509    4836.2585    547.34902   -1947.7828    703.31846    -2966.296 
 5263000    264.30593   -3915.1572   -3462.1459   -3915.1572            0    5281.6741    17.102463    20.144443    20.864965    7188.3891    4300.6676    4898.1204    6646.2343   -334.71526    1117.8125    237.67708   -2908.4401 
 5264000    251.53729    -3962.161   -3531.0346    -3962.161            0    4098.1639    17.174901    20.229765    20.953339    7280.1167     4561.331    3598.5898     4134.571   -199.67228    1267.5454   -166.13888   -3095.9201 
 5265000    258.81208   -3942.7285   -3499.1334   -3942.7285            0    5788.6536     17.21304    20.274687    20.999868    7328.7227    3579.0097     7982.655    5804.2962    327.66105    1070.0013   -227.40926   -2880.4311 
 5266000    251.72635   -3923.0002   -3491.5499   -3923.0002            0    6887.4733    17.122974    20.168601    20.889988    7214.2828    7604.2156    6030.0347    7028.1695   -584.67079    -1454.648   -35.266262   -2766.8988 
 5267000    250.49655    -3904.069   -3474.7265    -3904.069            0    7169.4422    17.119532    20.164547    20.885789     7209.933    8700.1261    7914.3429    4893.8577   -384.32934   -1608.2426    255.53945   -2720.8634 
 5268000    244.97227   -3919.4834   -3499.6093   -3919.4834            0    7348.8921    17.071088    20.107487    20.826688    7148.9001    5290.2268    8071.8182    8684.6314    141.01226   -647.27252     309.0473   -2733.4184 
 5269000    246.21539   -3892.2971   -3470.2924   -3892.2971            0     5017.777    17.252755    20.321467    21.048321    7379.5684    4631.2562    5095.0604    5327.0145    602.11212   -236.84443    -313.8628    -2930.262 
 5270000    241.32048    -3918.345   -3504.7299    -3918.345            0    6223.8892    17.179258    20.234896    20.958654    7285.6579    5668.8612     7452.489    5550.3172   -19.677808    1036.5834     -989.398   -2843.4178 
 5271000    253.02469    -3935.446   -3501.7703    -3935.446            0    5927.5552    17.131396    20.178522    20.900263    7224.9336    6670.6947    5858.4309    5253.5399     241.0604    7.6554068   -1207.1492   -2877.1942 
 5272000    259.09511   -3918.4302     -3474.35   -3918.4302            0    6332.1843    17.174593    20.229402    20.952964    7279.7249    5813.0277    7829.5876    5353.9375    -807.2853   -754.74759   -870.54508    -2802.079 
 5273000    244.55747   -3921.6929   -3502.5298   -3921.6929            0    7776.9449    17.113122    20.156997    20.877968    7201.8371    7185.8118     7283.412    8861.6108    -1131.818    324.52415     278.4245   -2685.7063 
 5274000    270.09735   -3911.3542   -3448.4166   -3911.3542            0    5511.3163    17.234008    20.299385     21.02545    7355.5387    5402.1124    6606.9504    4524.8861    119.62614   -1797.6955   -881.35816   -2857.2012 
 5275000    238.40277    -3883.659   -3475.0448    -3883.659            0    4056.1851     17.28053    20.354182    21.082207    7415.2669     4206.295    4016.6642    3945.5961    12.150981     -1114.86    461.96496   -3036.3925 
 5276000    251.95708   -3870.8749   -3439.0291   -3870.8749            0    4760.1725    17.240751    20.307327    21.033676    7364.1751    4955.2797     4766.198    4559.0397    986.52502   -216.36856    47.876106   -2927.7916 
 5277000    247.42525   -3883.3276   -3459.2492   -3883.3276            0    6516.7806    17.143603      20.1929    20.915156    7240.3888    7638.0889    5411.4021    6500.8508   -179.17266   -515.05798    220.58879   -2771.1186 
 5278000    249.88823   -3939.2778   -3510.9779   -3939.2778            0    4090.3893    17.223518    20.287029    21.012652    7342.1149    3381.6853    3233.7957     5655.687    589.04202   -39.771069    484.17143   -3072.9904 
 5279000    248.39026   -3944.9248   -3519.1924   -3944.9248            0    5209.3359    17.125956    20.172115    20.893627    7218.0534    4018.8319    6362.6685    5246.5072    339.68133   -542.35565     -768.982   -2970.8165 
 5280000    257.45471   -3888.3852   -3447.1166   -3888.3852            0    7819.0724    17.121561    20.166937    20.888264    7212.4972    8387.4952    6852.0676    8217.6544    282.20946   -1502.4363    -752.1492   -2624.6528 
 5281000    257.53304   -3884.9431   -3443.5403   -3884.9431            0    4123.6327    17.238457    20.304625    21.030877    7361.2361    2880.9095    4277.8841    5212.1045     52.20849   -700.33915    1273.4992   -3000.8433 
 5282000    252.04072   -3891.8579   -3459.8687   -3891.8579            0    5890.4409    17.145588    20.195238    20.917577    7242.9039    5927.5664    5376.4107    6367.3455    182.95817    -129.3083    -844.1464   -2837.6596 
 5283000    247.84343   -3901.4674   -3476.6722   -3901.4674            0    7176.5887    17.151003    20.201616    20.924183    7249.7683    8604.4673    6670.5768     6254.722    1751.8974     658.6938     316.3839   -2717.8884 
 5284000    253.77636   -3949.8098   -3514.8458   -3949.8098            0    4254.1662    17.154997     20.20632    20.929056    7254.8347    5930.4015    4216.2409    2615.8562   -1053.1957   -582.57632   -662.97909   -3064.7366 
 5285000    241.24515    -3932.728    -3519.242    -3932.728            0      5359.54     17.22503     20.28881    21.014497    7344.0492    4011.2308    6251.7471    5815.6421   -1176.2346   -57.917715   -855.16108   -2945.2062 
 5286000    248.62529   -3908.3202   -3482.1849   -3908.3202            0    7254.6304    17.131252    20.178351    20.900087    7224.7507    7555.6912    7074.8079    7133.3922   -1621.7371    90.980601    522.15788   -2717.7966 
 5287000    246.42714   -3897.8027    -3475.435   -3897.8027            0     4446.743    17.272281    20.344466    21.072143    7404.6529    2487.3966    7080.9118    3771.9208      293.074    194.55904   -816.49917   -2995.2345 
 5288000    248.01976   -3912.9573   -3487.8599   -3912.9573            0    5636.2336    17.237726    20.303764    21.029985    7360.2996    5336.9407    5632.6765    5939.0834    993.33723   -319.59895    1131.2779    -2882.853 
 5289000    266.88926   -3936.1559   -3478.7169   -3936.1559            0    4097.1217     17.24491    20.312226     21.03875    7369.5059    2628.0971     5741.302    3921.9662    1383.2952   -496.99793   -1998.9679   -3038.3718 
 5290000    242.65813   -3921.1779   -3505.2701   -3921.1779            0    5808.7077     17.23956    20.305925    21.032223    7362.6495    3011.5235    7313.7804    7100.8193   -1014.9204    400.82062    476.75068   -2881.5503 
 5291000    248.36358   -3921.6169   -3495.9303   -3921.6169            0    6382.3994    17.163104     20.21587    20.938947    7265.1255    7016.0695    6513.7382    5617.3904    -48.24199    815.61516   -810.18765   -2819.6869 
 5292000    242.66265   -3896.8604   -3480.9449   -3896.8604            0    8527.6293    17.106495    20.149192    20.869884    7193.4748    8131.5148    9860.1192    7591.2539    1759.5148    193.23591   -756.32775    -2586.316 
 5293000    266.76881   -3926.9309   -3469.6983   -3926.9309            0    6244.6273    17.145912     20.19562    20.917973    7243.3149    7285.2251    4255.2328     7193.424    332.03139   -951.61447   -39.355795   -2810.0389 
 5294000    256.37285   -3914.2395   -3474.8252   -3914.2395            0    5951.0493    17.202293    20.262029    20.986758    7315.0053    4473.9369    5696.3481    7682.8631    -760.1342    -515.5187    60.116931   -2839.9562 
 5295000    232.37996   -3923.9144   -3525.6231   -3923.9144            0    6612.9769    17.130316     20.17725    20.898946    7223.5675    6457.9144    6972.0918    6408.9245    200.20806   -656.36207   -2736.8681   -2828.9571 
 5296000    269.78251   -3913.4116   -3451.0136   -3913.4116            0    5694.2342    17.195852    20.254442    20.978899     7306.791    4695.5325    5812.8657    6574.3044   -793.91269     233.8939   -73.392334   -2844.2243 
 5297000    241.19923   -3900.7048   -3487.2976   -3900.7048            0    6401.0601    17.160623    20.212947     20.93592    7261.9746    6285.1118    6896.4989    6021.5697    1007.8081    180.97307   -590.02217   -2809.3712 
 5298000    255.68293    -3887.781   -3449.5492    -3887.781            0     7379.582    17.169294    20.223161    20.946499    7272.9891     8633.826    5183.9333    8320.9867    1782.0477    1519.1721   -186.52459   -2666.8037 
 5299000    259.92602   -3885.1013    -3439.597   -3885.1013            0    6498.4296    17.183753    20.240191    20.964138    7291.3786    6543.0326    5564.0998    7388.1563   -272.44473   -918.78254   -1522.1638   -2748.5716 
 5300000    253.84355   -3892.0586   -3456.9794   -3892.0586            0    8307.3938    17.090176     20.12997    20.849975    7172.9074    8066.1353    8335.9055    8520.1407    41.236045    53.716364    1066.1533   -2587.9471 
 5301000    259.87541   -3880.1676   -3434.7501   -3880.1676            0     5618.643    17.219235    20.281984    21.007427     7336.639    4133.3952    5803.9192    6918.6145   -241.25852    2.4424009   -155.26844   -2833.5701 
 5302000    246.12728   -3890.3801   -3468.5264   -3890.3801            0    5669.3623    17.207414    20.268061    20.993005      7321.54    5761.4822    6070.6029     5176.002   -293.04765   -497.29407    749.24703    -2863.168 
 5303000    251.67329   -3903.3836   -3472.0242   -3903.3836            0     5264.797    17.290163    20.365528    21.093958    7427.6742    5768.7164    5664.2781    4361.3965    1833.4903    276.30788   -424.72257   -2901.7151 
 5304000    253.16134   -3873.7242   -3439.8143   -3873.7242            0    4934.7118    17.265849     20.33689    21.064295    7396.3833    5208.5752     4203.676    5391.8841   -218.54666    -15.56058     300.6239   -2907.5136 
 5305000    256.09483   -3898.7639   -3459.8261   -3898.7639            0    5044.8965     17.17124    20.225453    20.948873    7275.4622    6203.1354    1828.4298    7103.1244     2566.829    406.06218   -992.09338   -2924.5366 
 5306000    258.41229   -3862.6405   -3419.7307   -3862.6405            0    6308.6764     17.17299    20.227514    20.951008    7277.6865     5533.998    5901.0512    7490.9799    343.96669   -314.04548   -880.43431   -2750.1429 
 5307000    256.85466   -3880.1628   -3439.9227   -3880.1628            0    6873.6273    17.158936     20.21096    20.933861    7259.8329    6601.0183    6311.6541    7708.2096   -169.73385     895.4247   -1114.3959   -2712.1621 
 5308000    246.44316   -3864.6814   -3442.2862   -3864.6814            0     6104.257    17.168891    20.222685    20.946007    7272.4761    6783.4307    5861.5239    5667.8163   -401.64746    2383.2559   -929.18235   -2794.8589 
 5309000    255.08495   -3874.7599    -3437.553   -3874.7599            0     5802.656    17.155295    20.206672     20.92942    7255.2133    5478.6317    6772.3072    5157.0291    1153.5824   -820.95551   -1002.1962   -2823.5749 
 5310000    244.45474   -3914.6207   -3495.6336   -3914.6207            0    5807.3608     17.25931    20.329187    21.056318    7387.9827    8241.1908    4243.2595    4937.6322    39.514341    331.97262   -68.605702   -2869.9128 
 5311000    250.98638   -3898.1993   -3468.0172   -3898.1993            0    4616.3927    17.228091    20.292416    21.018231    7347.9648    5114.7904    4474.8235    4259.5642    1402.3686    910.06882    23.392584   -2973.3129 
 5312000    263.05772   -3887.4414   -3436.5695   -3887.4414            0    4918.1187    17.239854     20.30627    21.032581    7363.0256    5147.9532    3657.5874    5948.8154    612.23612   -430.82942   -1071.7756   -2908.4512 
 5313000    263.74994   -3864.6008   -3412.5425   -3864.6008            0    6576.1154    17.156112    20.207634    20.930416    7256.2493    6305.8516    9081.1622    4341.3324     644.9447   -655.21051   -935.69988   -2716.6254 
 5314000     245.8145   -3884.0034   -3462.6857   -3884.0034            0    5333.3548    17.220042    20.282935    21.008411    7337.6703    4937.8763    5087.7688    5974.4194    1573.5653   -305.34162   -945.68377   -2891.9507 
 5315000    239.06331   -3895.8629   -3486.1165   -3895.8629            0    7075.5507    17.130314    20.177247    20.898943    7223.5641    7852.2042    6719.5966    6654.8512    1340.0634   -164.40373   -792.43756   -2740.7195 
 5316000     265.5221   -3894.0229   -3438.9271   -3894.0229            0    3609.6597    17.256618    20.326017    21.053034    7384.5265    3210.3038    2757.6767    4860.9987   -524.20174    1226.6292    -413.1983   -3050.1821 
 5317000    249.81948   -3916.8702   -3488.6882   -3916.8702            0    4202.5332    17.269506    20.341198    21.068758    7401.0846    4508.1556    3571.4193    4528.0246    477.91918   -221.75799    485.74433   -3035.0784 
 5318000    247.59798   -3885.3436   -3460.9692   -3885.3436            0    6709.5793    17.187772    20.244925    20.969042    7296.4961    4163.3923    8035.5453    7929.8002   -958.97373   -1236.8713    463.27187     -2746.99 
 5319000    235.26185   -3915.2289   -3511.9982   -3915.2289            0    5015.9964    17.226495    20.290535    21.016283    7345.9225    4006.6407    3744.7019    7296.6466   -1406.1462    285.52607   -536.55774   -2974.6207 
 5320000    243.98215    -3879.772    -3461.595    -3879.772            0    7536.0625    17.170744    20.224868    20.948267    7274.8312    7393.1679    7366.9124    7848.1072    509.19354   -1827.2476   -331.59403   -2662.0493 
 5321000    253.51408   -3895.6091   -3461.0947   -3895.6091            0    6132.9424    17.173483    20.228094    20.951609    7278.3127    4087.5808    5138.4591    9172.7872   -719.21632   -1605.8867   -415.00635   -2810.1029 
 5322000    265.79279   -3882.8174   -3427.2577   -3882.8174            0     7495.805    17.174353    20.229119     20.95267    7279.4189    8370.3854    8219.2303    5897.7993    985.00043   -859.33855    -102.4873   -2631.4816 
 5323000     244.6195   -3938.1474    -3518.878   -3938.1474            0    7380.4263    17.089061    20.128657    20.848614    7171.5031     7102.111    7584.3042    7454.8637    628.38695   -300.68756    979.41906   -2746.9665 
 5324000     251.0267   -3935.0191    -3504.768   -3935.0191            0    5133.0728    17.187179    20.244227    20.968318    7295.7408    5666.2143    5290.7507    4442.2533    687.50742    -185.1925    332.54037   -2958.6044 
 5325000    261.41546   -3943.9132    -3495.856   -3943.9132            0    6546.3011    17.153416    20.204459    20.927128    7252.8295    7585.0622    4999.1292    7054.7119   -1104.5218    199.96872   -1200.7147   -2803.4205 
 5326000    244.73399   -3916.6358   -3497.1701   -3916.6358            0     4784.726    17.197321    20.256172    20.980691    7308.6634    4883.4813    5908.6878    3562.0089   -1127.3007    11.197396   -68.643904   -2987.1692 
 5327000    242.76644   -3919.0503   -3502.9569   -3919.0503            0    7752.0498    17.127977    20.174494    20.896091    7220.6081    6327.6868    7750.6424    9177.8202    814.30055    1464.7043   -641.02116   -2686.6261 
 5328000    275.55275   -3906.5392   -3434.2512   -3906.5392            0     4691.595    17.232577    20.297699    21.023703    7353.7058    4965.9922    4400.6769    4708.1159   -1602.6293    551.20254    810.89466   -2931.0952 
 5329000    252.15952   -3909.9943   -3477.8016   -3909.9943            0    7109.2009    17.084799    20.123636    20.843415    7166.1384    7520.8648    5746.8705    8059.8674   -991.50183    679.54275    198.99263   -2734.8134 
 5330000    278.03698   -3906.6787   -3430.1328   -3906.6787            0    5102.0317    17.162502     20.21516    20.938212    7264.3602    5107.6776    4468.1535    5730.2641   -362.67307   -575.60841   -1214.2138    -2889.607 
 5331000    252.00664   -3929.0267   -3497.0959   -3929.0267            0    5532.5379     17.15203    20.202825    20.925436    7251.0707    4661.8673    6653.1712     5282.575    348.96913   -291.29521   -583.48726   -2912.0332 
 5332000    252.83057   -3947.8303   -3514.4874   -3947.8303            0    5879.1152     17.13425    20.181883    20.903745    7228.5446    6595.7034    4537.3128    6504.3294   -217.04768   -1396.5629    16.440514   -2894.7057 
 5333000    241.76354    -3912.685   -3498.3106    -3912.685            0    9421.4165    17.013527    20.039688    20.756463    7076.8285     10780.08    10202.625    7281.5445    766.81625    653.87141    1509.0107   -2525.9423 
 5334000    256.36777   -3886.2459   -3446.8403   -3886.2459            0    7169.7413    17.107808    20.150738    20.871486    7195.1312    6512.3207    7997.8013    6999.1019    426.58473    728.33823    941.37647   -2694.4935 
 5335000     255.2539   -3925.1645   -3487.6681   -3925.1645            0    7389.3627    17.117156    20.161749    20.882891    7206.9322    8125.5697    6997.4929    7045.0256    189.80292    681.94688   -232.66356   -2711.0038 
 5336000    259.39282   -3929.5167   -3484.9263   -3929.5167            0    6043.7698    17.132558     20.17989    20.901681    7226.4038    5027.2675    6747.6623    6356.3797   -1001.6259    683.74053    662.86163   -2847.9752 
 5337000     245.2899    -3899.849   -3479.4306    -3899.849            0    6798.7268    17.120181    20.165312    20.886581    7210.7535    7347.5009    7598.7803    5449.8991    1007.4394    511.52847    315.56766   -2764.4666 
 5338000     264.4547   -3896.3691   -3443.1028   -3896.3691            0      3630.15    17.180947    20.236886    20.960715     7287.807     814.2833    4295.1529    5781.0139   -389.05106    418.75788   -489.84971   -3057.2716 
 5339000    240.08482   -3920.3156   -3508.8184   -3920.3156            0    6526.2071    17.136765    20.184845    20.906813    7231.7282    7306.4169    7012.8418    5259.3626    5.1487446    136.70029   -2216.3627   -2820.5167 
 5340000    251.27673   -3886.9831   -3456.3034   -3886.9831            0    5654.3697    17.152481    20.203357    20.925987    7251.6433    6452.6962    6086.6846    4423.7283   -1119.3138     976.9955    659.16628   -2858.3098 
 5341000    236.08562   -3899.1665   -3494.5238   -3899.1665            0    5859.3508    17.234674    20.300169    21.026261    7356.3905    5693.1408    7111.4415    4773.4702   -669.15571    1856.5317    -912.6104   -2865.9009 
 5342000    253.61226    -3884.856   -3450.1733    -3884.856            0    6189.3696     17.17527      20.2302    20.953789    7280.5857    6771.2509    6761.6982    5035.1595    1028.5025   -517.45451    435.52045   -2792.9868 
 5343000    240.45005   -3895.9898   -3483.8667   -3895.9898            0    6088.1231      17.2531    20.321873    21.048742    7380.0109    3860.4533    6399.6009    8004.3152   -237.66514   -1217.5745    1045.2435   -2828.6027 
 5344000    246.78377   -3884.8487   -3461.8698   -3884.8487            0    4950.3973    17.175463    20.230427    20.954025    7280.8315    2635.7731    5390.3066    6825.1121    -489.9848    464.74794    184.38676   -2936.2195 
 5345000    256.02824   -3908.3706   -3469.5469   -3908.3706            0    5634.7881     17.20453    20.264664    20.989486    7317.8585    5642.4894    7264.8427    3997.0321   -696.58589   -217.95479   -311.82853   -2868.1828 
 5346000    258.79042    -3889.117   -3445.5591    -3889.117            0    6270.2866    17.160228    20.212482    20.935438    7261.4735    6096.4973    5387.7583    7326.6041    -1489.325   -57.843776    1186.5623   -2781.5286 
 5347000    265.03828   -3920.3154   -3466.0488   -3920.3154            0    3619.9467    17.160302    20.212569    20.935529    7261.5677    2649.5567     3496.818    4713.4653   -1322.9341   -1650.6249    508.41813   -3082.6873 
 5348000    235.35492   -3908.3644   -3504.9741   -3908.3644            0    5180.0279    17.142485    20.191583    20.913792    7238.9727     3009.296    6437.6032    6093.1844   -68.409646    452.57978   -3.0687461   -2958.1031 
 5349000    255.03076    -3914.569    -3477.455    -3914.569            0    3018.6558    17.172088    20.226451    20.949907    7276.5397    1862.7176    3525.0868    3668.1629   -206.03416    1005.3707    492.79128   -3157.1126 
 5350000    250.03593   -3918.4413   -3489.8883   -3918.4413            0    6310.7623    17.206996    20.267568    20.992495    7321.0058    4675.8064    7982.5562    6273.9242    541.56452   -279.12014   -1083.4549   -2816.0922 
 5351000    240.64228   -3931.2481   -3518.7955   -3931.2481            0    4440.1186    17.205626    20.265954    20.990823    7319.2569    5581.7584    3552.7953    4185.8021   -93.892393   -90.952202   -551.78687   -3044.8401 
 5352000    261.95918   -3913.7867   -3464.7977   -3913.7867            0    6323.7302    17.113117    20.156991    20.877963    7201.8311    6467.1492    5107.2279    7396.8136    40.951401    521.40283   -436.00605   -2800.6079 
 5353000    257.09071   -3899.8933   -3459.2486   -3899.8933            0    6100.1196      17.1194    20.164392    20.885628    7209.7667    5522.1031    4580.9762    8197.2796    157.46716   -573.33569   -675.27555    -2817.839 
 5354000    242.35579   -3892.8063   -3477.4168   -3892.8063            0    8345.4124    17.059544     20.09389    20.812604    7134.4067    7547.3698    8522.3478    8966.5197    1114.4516   -608.97364    1129.1583   -2609.0933 
 5355000    263.09068   -3906.4173   -3455.4889   -3906.4173            0    6111.4831     17.09357    20.133968    20.854115    7177.1812    6127.2895    4988.0526    7219.1072   -359.54873    189.93069    61.424155   -2815.7888 
 5356000    240.46013   -3910.2409   -3498.1004   -3910.2409            0    5921.7634    17.089311    20.128951    20.848919    7171.8174    6424.8769    5700.2233    5640.1901   -170.53703   -554.65304   -1039.9169   -2878.7219 
 5357000    249.54264   -3943.9199   -3516.2124   -3943.9199            0    5997.0267    17.123799    20.169574    20.890995    7215.3262    6945.0301    4583.7198    6462.3304    404.51954    1298.3196   -2216.9868   -2885.1564 
 5358000    246.92973   -3907.8945   -3484.6654   -3907.8945            0    4087.4785    17.199445    20.258675    20.983283    7311.3726    4567.4332    4546.7709    3148.2315      434.461    2220.9789    618.69864   -3048.8222 
 5359000    249.71612   -3919.8775   -3491.8726   -3919.8775            0    8048.3978     17.09338    20.133744    20.853884    7176.9418     7378.551     8174.621    8592.0213   -768.35036    158.08648   -937.65463   -2649.4602 
 5360000    246.86973   -3909.9559   -3486.8297   -3909.9559            0    5352.7231    17.157025     20.20871    20.931531    7257.4085    5563.1784    4725.4146    5769.5763    524.76962     -2617.09    800.03386   -2920.2875 
 5361000    266.01267   -3927.9564   -3472.0198   -3927.9564            0    7146.9861    17.130563    20.177541    20.899247    7223.8797    7260.5557    6962.7412    7217.6615    -69.53845   -1236.7444   -1087.8792   -2719.0642 
 5362000    253.88214   -3919.9424   -3484.7971   -3919.9424            0    5386.4097    17.214078    20.275911    21.001136    7330.0498    5174.2765    6119.4556    4865.4969    369.99098   -336.36902   -569.85946   -2908.9831 
 5363000    247.43273   -3913.6339   -3489.5426   -3913.6339            0    4935.1999    17.198666    20.257756    20.982332    7310.3784      4326.21    4568.7811    5910.6088    620.98818   -873.50975    1049.7037   -2963.3794 
 5364000    265.79002   -3900.4411   -3444.8861   -3900.4411            0    5588.6293     17.22725    20.291425    21.017205    7346.8889    6698.4672    4374.2036    5693.2172    604.00472   -122.87268   -288.13633   -2846.0821 
 5365000    266.47064   -3897.8715   -3441.1499   -3897.8715            0    4564.1319    17.180338    20.236169    20.959973    7287.0327    5502.0952     3026.162    5164.1385    104.84727    586.09028    316.09621   -2956.1018 
 5366000    252.52039   -3925.0321   -3492.2208   -3925.0321            0    4223.3379    17.223672     20.28721    21.012839    7342.3115    4348.0599     3882.717     4439.237    623.91906    -1073.537   -760.01048   -3039.9854 
 5367000    242.40114    -3924.399   -3508.9317    -3924.399            0    5493.3565    17.210704    20.271936    20.997019    7325.7398    4587.5183     6088.876    5803.6752    374.09972    434.36133    355.83488   -2922.0303 
 5368000    233.69926   -3895.2573   -3494.7048   -3895.2573            0      6035.85    17.169696    20.223633    20.946988    7273.4988    5536.5648    6420.2734     6150.712   -1199.4898    656.53001    45.482626   -2854.4428 
 5369000    259.58368   -3908.6287   -3463.7112   -3908.6287            0     6744.624    17.183442    20.239825    20.963759    7290.9831    8152.0202    5541.6413    6540.2106    1549.0112   -594.02289     562.5078   -2746.5451 
 5370000    248.15047   -3897.9722   -3472.6508   -3897.9722            0    5502.3451    17.222225    20.285507    21.011075    7340.4619    6289.3278    4414.9455     5802.762    354.58299    859.06355    1098.3041   -2883.6077 
 5371000     249.9809   -3870.9493   -3442.4906   -3870.9493            0    5139.7843    17.173105    20.227649    20.951148    7277.8326    6455.5497    5125.9913    3837.8119   -832.52526    374.73882   -602.12969   -2896.9553 
 5372000    261.16542   -3870.1356    -3422.507   -3870.1356            0    4774.3021    17.218319    20.280905    21.006309    7335.4681    5042.9891    5530.5528    3749.3642   -119.92314    426.62383   -186.43977   -2911.7508 
 5373000    236.12114   -3898.3618   -3493.6583   -3898.3618            0    6345.6596    17.249842    20.318035    21.044766    7375.8303     5655.096     6567.941    6813.9418   -253.93592    380.31044    7.1593843   -2811.0625 
 5374000     245.0006   -3863.1616    -3443.239   -3863.1616            0    3175.5627    17.342214    20.426838    21.157461    7494.9585    4423.0746    2578.0112    2525.6024   -494.54595   -676.56646    601.64639     -3096.13 
 5375000    261.07146   -3859.6757   -3412.2081   -3859.6757            0    5201.0465    17.275408    20.348149    21.075957    7408.6745    4770.1772    6141.7558    4691.2066    1445.1881    1071.8798    122.14987   -2850.2459 
 5376000    235.71379   -3866.0054        -3462   -3866.0054            0    6688.7379     17.24371    20.310813    21.037286    7367.9677    7728.3834    6876.5481    5461.2823    92.481026    1045.6927    347.30385   -2743.2667 
 5377000    255.12514   -3886.7409   -3449.4652   -3886.7409            0    4766.6563     17.26336    20.333958    21.061259    7393.1849    3825.5105    4754.1841    5720.2743    43.537883   -713.06215   -1093.6178   -2935.5147 
 5378000     246.1779   -3882.9108   -3460.9703   -3882.9108            0    6849.4664    17.214962    20.276952    21.002214    7331.1788    5650.8522    7614.4197    7283.1272    725.56577    979.22542   -1087.9531   -2728.6409 
 5379000    256.64979   -3868.9602   -3429.0713   -3868.9602            0    4977.9036    17.197083    20.255892    20.980401    7308.3598    4785.9096    5223.6227    4924.1785    356.83238   -410.27884    792.43345   -2898.5018 
 5380000    238.05794   -3871.0491    -3463.026   -3871.0491            0    5138.6298    17.230411    20.295148    21.021061    7350.9337    5015.9718    6794.2423    3605.6752   -546.74028   -347.64376   -320.05446   -2912.1349 
 5381000     248.4808   -3906.6047   -3480.7171   -3906.6047            0    6336.5043    17.214515    20.276425    21.001668    7330.6075    6658.0955    7263.7273    5087.6902    1821.2482   -1479.6815     1062.592   -2803.2853 
 5382000     249.5945   -3842.1648   -3414.3684   -3842.1648            0    6673.0097    17.249388    20.317501    21.044213    7375.2485    7554.6477    6934.2033    5530.1781    573.51014    1150.9167    877.54312   -2696.6166 
 5383000    240.22826   -3876.9855   -3465.2425   -3876.9855            0     6341.694    17.204571    20.264712    20.989536    7317.9107    5769.0441    6729.5266    6526.5114    1168.1869     1169.783    285.39724   -2788.4301 
 5384000    262.63384    -3941.806   -3491.6606    -3941.806            0     5636.096    17.201982    20.261663    20.986378    7314.6081    5427.6424    5679.5968    5801.0487    1688.2159    298.10484    -349.0088   -2890.4241 
 5385000    252.08247   -3929.3872   -3497.3265   -3929.3872            0    6517.2108    17.096907    20.137898    20.858186    7181.3852    6568.0252     6226.894    6756.7132    174.68409    110.95426    796.93781   -2814.7586 
 5386000    262.75876   -3926.3654   -3476.0058   -3926.3654            0    5606.9386    17.188916    20.246273    20.970438    7297.9531    4594.7809    7521.1797    4704.8551   -370.52878   -806.36216   -528.81419   -2879.2417 
 5387000    243.23455   -3924.4053   -3507.5097   -3924.4053            0    7013.2526    17.143494    20.192772    20.915023     7240.251    6866.8799    6446.0418     7726.836    502.85768   -306.99997     116.0761   -2766.9689 
 5388000    265.72746   -3930.1104   -3474.6626   -3930.1104            0    7709.8107    17.080432    20.118493    20.838087     7160.645    7687.7666    6819.3964    8622.2692    50.203655    -190.5307    362.29703    -2669.522 
 5389000    235.56278   -3921.7615   -3518.0149   -3921.7615            0    7116.8223    17.115888    20.160255    20.881344    7205.3306    6982.0073    6747.0825     7621.377    1268.0314   -172.52192    86.861059   -2770.1625 
 5390000    254.67074   -3929.4001   -3492.9032   -3929.4001            0    6366.8194    17.132528    20.179855    20.901644    7226.3656    6677.2631    7567.2711     4855.924    773.70585    775.74194    963.83857   -2821.9096 
 5391000     249.0294   -3940.4941   -3513.6663   -3940.4941            0     5215.241    17.166782    20.220202    20.943434    7269.7967    5993.6571    4945.4738     4706.592    494.94521   -339.50347    647.07672   -2960.7332 
 5392000    247.38036   -3949.9607   -3525.9592   -3949.9607            0    6174.8942    17.162542    20.215208    20.938262    7264.4118    5423.3791     6310.472    6790.8315    59.244199   -668.05984    1571.8591   -2871.7662 
 5393000    243.14343   -3944.7386   -3527.9991   -3944.7386            0    4702.8292    17.202096    20.261797    20.986517    7314.7537    3048.1472    6317.1984    4743.1421    133.80029   -605.65843    830.58875   -3026.3098 
 5394000      247.222   -3934.9081   -3511.1781   -3934.9081            0    6107.9476    17.136873    20.184973    20.906945    7231.8652    7950.7971    5626.5979     4746.448    151.80687    347.89173   -59.510627   -2866.9769 
 5395000    253.82451   -3924.2399   -3489.1934   -3924.2399            0    3611.4292    17.191773    20.249638    20.973923    7301.5929    2286.8404    5099.8829    3447.5642   -201.69984   -1652.9463    2511.0401   -3104.6258 
 5396000     249.2685   -3946.8951   -3519.6574   -3946.8951            0    6651.4359    17.147451    20.197432     20.91985    7245.2655    6213.4429    7571.4602    6169.4045    218.35652    724.13723    684.10369    -2816.835 
 5397000    242.37509   -3929.7392   -3514.3166   -3929.7392            0    7376.6054    17.151424    20.202112    20.924698    7250.3031    6643.2203    7104.3527    8382.2432    1173.6813   -656.45467    40.702532   -2734.3274 
 5398000    243.47465   -3951.9201   -3534.6129   -3951.9201            0    5463.6506    17.126424    20.172665    20.894197    7218.6448    5385.5481     4991.814    6013.5897   -225.76162   -300.74977    65.193719   -2959.4187 
 5399000    261.79479   -3915.5127   -3466.8054   -3915.5127            0    4725.3442    17.210036    20.271149    20.996204    7324.8871    3032.8011    5891.9864    5251.2453    257.72395    1156.0514   -1111.0925    -2962.016 
 5400000    233.09865   -3900.0914   -3500.5683   -3900.0914            0    4298.6955    17.231961    20.296974    21.022953     7352.918    6249.0992    2695.2304     3951.757   -40.969649    397.75278   -320.70405   -3039.5987 
 5401000    256.19169   -3905.9841   -3466.8803   -3905.9841            0     5957.001    17.134358     20.18201    20.903877    7228.6815    5455.4744    5509.9515    6905.5771    245.07546   -661.64383   -112.35721   -2838.8759 
 5402000    233.51829   -3926.3541   -3526.1118   -3926.3541            0    7143.9018    17.187023    20.244043    20.968128    7295.5417     5466.368    7349.2026    8616.1347   -672.64554    1004.4383   -543.40992    -2766.015 
 5403000    246.50208   -3899.5359   -3477.0397   -3899.5359            0     7157.194    17.167771    20.221367    20.944641    7271.0536    7016.1988     6347.289    8108.0941   -1069.0873     133.5253    -1987.339   -2718.0848 
 5404000    239.44456   -3924.2772   -3513.8774   -3924.2772            0    6268.3369    17.207847    20.268571    20.993533    7322.0921    7577.2305    5364.4612    5863.3191    1197.8631   -1124.9402    85.241203   -2844.5118 
 5405000    250.45847   -3941.2711   -3511.9938   -3941.2711            0      7005.94    17.236603    20.302442    21.028615    7358.8615    8576.9946    5717.7191    6723.1062    748.27908   -722.79221    198.71826   -2760.1062 
 5406000    239.69024   -3953.6316   -3542.8108   -3953.6316            0    7138.6074    17.188024    20.245222    20.969349    7296.8169    8249.3342    7909.0864    5257.4017    2177.9604   -280.75672   -1328.5063   -2783.1445 
 5407000    250.48046   -3932.5009    -3503.186   -3932.5009            0    6397.5382    17.216897    20.279231    21.004575    7333.6515    5171.9456    7641.1407    6379.5283    6.8962645    836.52232    656.04112   -2818.9451 
 5408000    259.11362   -3946.9823   -3502.8704   -3946.9823            0    8636.9227    17.144241    20.193652    20.915934    7241.1977    6242.1963    9055.6716      10612.9    1564.2279    185.33733    1284.9655   -2590.7644 
 5409000    253.27501   -3933.5752   -3499.4705   -3933.5752            0    4023.3328    17.228454    20.292843    21.018674    7348.4291    3872.5732    4191.5186    4005.9067     1057.136    409.69781    889.95494   -3068.2927 
 5410000     247.7566   -3887.1683    -3462.522   -3887.1683            0    5527.8555    17.229208    20.293732    21.019594    7349.3943    4630.1448    7631.0913    4322.3303   -299.12076   -881.51998    634.80424   -2870.0277 
 5411000    244.47086   -3946.1813   -3527.1666   -3946.1813            0    6504.8451    17.113652    20.157621    20.878615    7202.5066    6330.8459    6170.8994    7012.7901    518.74643    -1503.998    1188.2167   -2843.8901 
 5412000    255.24214   -3941.9916   -3504.5153   -3941.9916            0     5095.565    17.152997    20.203964    20.926616    7252.2973    4371.8184    5613.7356    5301.1408    711.42262    59.784861    620.16533    -2965.571 
 5413000    256.85603   -3928.8798   -3488.6373   -3928.8798            0    3868.9589    17.128074    20.174609    20.896211    7220.7315     3511.008    4033.2374    4062.6312    194.62209    259.73152     1636.343    -3081.209 
 5414000    255.22327   -3925.2048   -3487.7608   -3925.2048            0    6015.2862    17.180508    20.236369     20.96018     7287.249    5305.8431    6610.8517    6129.1638    1510.7735    337.48349   -1396.0466   -2848.4739 
 5415000     241.4537   -3906.9665   -3493.1231   -3906.9665            0    5015.1248    17.225868    20.289797    21.015519    7345.1206    5542.7499     4395.384    5107.2404    567.42492    1005.9306      573.982   -2955.8977 
 5416000    261.82476    -3924.933   -3476.1744    -3924.933            0    5952.6815    17.269437    20.341115    21.068672    7400.9949    6103.9345     7628.051     4126.059    1351.4371   -608.73174   -1863.6335   -2833.6662 
 5417000    233.66108   -3920.8635   -3520.3764   -3920.8635            0    8294.0759    17.111607    20.155212     20.87612    7199.9246    8518.5961    8013.2937    8350.3378   -753.27242    281.61894   -1822.5422   -2649.4692 
 5418000    262.16239   -3884.3757   -3435.0383   -3884.3757            0    6704.7896    17.101817    20.143681    20.864177    7187.5742    7169.1879    7314.2263    5630.9547   -989.24024    422.12344    417.33096   -2732.2195 
 5419000    257.22661   -3879.5348   -3438.6572   -3879.5348            0    5462.7268    17.220022    20.282911    21.008386    7337.6445    6296.9029    5388.2929    4702.9847   -306.69242    1568.1956   -573.98754   -2854.0798 
 5420000    248.52423   -3881.9036   -3455.9416   -3881.9036            0    6132.6489     17.12689    20.173214    20.894765    7219.2336    5764.0715    6623.6473    6010.2279    901.94162    172.01504    -1018.457    -2810.265 
 5421000    264.87895    -3936.565   -3482.5715    -3936.565            0    5513.6342    17.096601    20.137538    20.857813         7181    5159.6988    6152.9713    5228.2325    1448.2068    1821.7372    867.73148   -2905.1423 
 5422000    248.84539   -3923.2604   -3496.7479   -3923.2604            0    5558.2383    17.222926    20.286332    21.011929    7341.3578    6777.1851    3526.6114    6370.9183    1143.0876      -694.46    -497.6782   -2901.6486 
 5423000    255.88478   -3941.4464   -3502.8687   -3941.4464            0    4640.2456    17.226457    20.290491    21.016237    7345.8738    3798.0394    4383.9777    5738.7198    668.01826   0.91791766    861.02362   -3005.7497 
 5424000    255.35726   -3939.3541   -3501.6805   -3939.3541            0    6078.5308    17.154662    20.205926    20.928648    7254.4101    3991.8106    6881.1892    7362.5925   -925.92912     104.6419   -760.44219   -2858.5833 
 5425000    254.76895   -3913.1316   -3476.4664   -3913.1316            0    7320.1077    17.132996    20.180406    20.902215    7226.9582    8016.0004    7454.0761    6490.2464   -328.13063   -1521.6173    1128.0716   -2704.9433 
 5426000    239.97427   -3921.9738   -3510.6661   -3921.9738            0    5072.9065    17.170151     20.22417    20.947544    7274.0778    3637.3483    4949.5361    6631.8352    973.50371   -762.32468   -741.97122    -2972.507 
 5427000    262.81349   -3896.0836   -3445.6303   -3896.0836            0    5025.7789    17.202311    20.262051     20.98678    7315.0282    5061.9493    4409.0714    5606.3161    17.229117   -1641.0604   -138.72427   -2909.4692 
 5428000    249.95488   -3895.1149   -3466.7008   -3895.1149            0     5030.054    17.157566    20.209346     20.93219     7258.094    6171.9955    5372.1586    3546.0078    140.85976   -2524.6192   -142.08037   -2934.2602 
 5429000    243.07374   -3893.2248   -3476.6048   -3893.2248            0    5006.8499    17.224462    20.288141    21.013803    7343.3219    4613.6432    5429.9557    4976.9509   -714.15814   -772.69744     510.3119   -2940.3971 
 5430000    251.57452   -3923.1309   -3491.9408   -3923.1309            0    4325.9503    17.235848    20.301552    21.027694     7357.894    5330.0623    3116.2537    4531.5349    512.57862   -727.34519    1376.6026   -3027.7346 
 5431000    252.27767   -3895.0967   -3462.7014   -3895.0967            0    6798.8408    17.172979    20.227501    20.950995    7277.6729    6148.1789    6416.4973    7831.8461   -339.10815   -301.70314    139.75451   -2741.0902 
 5432000    267.96415   -3906.6771   -3447.3957   -3906.6771            0    4426.7087    17.228666    20.293093    21.018933     7348.701    5586.3777    1981.9992    5711.7492    -1154.517    -72.92967    444.06531   -2972.9709 
 5433000    243.64436   -3901.2527   -3483.6546   -3901.2527            0    8268.5991    17.168841    20.222627    20.945946    7272.4125    8757.9293    8649.8533    7398.0148     573.0546   -992.99529   -783.76079   -2606.6813 
 5434000    245.17895   -3903.0713   -3482.8429   -3903.0713            0    6334.7525    17.159131     20.21119    20.934099    7260.0806    9417.9431    5125.7075     4460.607    166.80554    -666.0322   -421.31632   -2812.1141 
 5435000    256.41914   -3905.3303   -3465.8367   -3905.3303            0     5902.773    17.268216    20.339677    21.067183    7399.4254    5506.1188     6364.782    5837.4182    -37.18102    499.23197   -51.661132   -2828.8506 
 5436000    252.98678   -3881.1247    -3447.514   -3881.1247            0    6345.5095    17.237974    20.304056    21.030288    7360.6174     6619.544    5558.8551    6858.1295   -211.76682    808.69262   -694.47626   -2766.3422 
 5437000    254.16033   -3886.4047   -3450.7826   -3886.4047            0    8476.2554    17.148422    20.198576    20.921035    7246.4964    9014.8599    7343.7969    9070.1095    137.67066   -1793.5724    84.508605   -2554.9889 
 5438000    258.57039   -3876.6117   -3433.4309   -3876.6117            0    5881.4951    17.168764    20.222536    20.945852    7272.3149    6318.1109     7271.403    4054.9714   -298.50887   -1839.1274   -950.09706   -2809.6439 
 5439000    241.95965   -3893.6575    -3478.947   -3893.6575            0    5204.1846    17.199945    20.259264    20.983893    7312.0102    6048.7958    3891.9051    5671.8528   -103.26654   -912.23468    854.70066   -2923.9823 
 5440000    262.70948   -3842.7834   -3392.5084   -3842.7834            0    6114.8111    17.180113    20.235903    20.959697    7286.7455     6083.717    5228.8215    7031.8947   -452.96201   -1209.4416   -847.05289   -2742.6892 
 5441000    258.19358   -3909.4306   -3466.8956   -3909.4306            0    3657.5558    17.260799    20.330942    21.058135    7389.8955     2303.189    4266.6257    4402.8527    180.73577   -1161.0497   -39.622194    -3072.706 
 5442000    254.98546   -3888.5546   -3451.5182   -3888.5546            0    6379.3711    17.189188    20.246593     20.97077    7298.2998    6332.6155    8150.0435    4655.4544     1651.706   -643.38485    1252.8495   -2772.5093 
 5443000    260.41834   -3913.0416   -3466.6935   -3913.0416            0    3770.1826    17.229615     20.29421     21.02009    7349.9147    4350.4444    3581.7619    3378.3414    1206.8467   -712.59564   -256.28105    -3062.564 
 5444000    257.79384   -3880.0943   -3438.2445   -3880.0943            0    6497.9265    17.166417    20.219772    20.942989    7269.3333    7411.9316    7252.4796    4829.3683   -521.12376    670.34879   -398.79289   -2749.3618 
 5445000    242.02771   -3892.7106   -3477.8834   -3892.7106            0    5453.4222    17.157143    20.208848    20.931675     7257.558    6222.3518    6056.4064    4081.5083    1269.7065    945.19383   -828.15857   -2900.6712 
 5446000    258.87754    -3927.394   -3483.6868    -3927.394            0    4849.2628    17.204672    20.264831    20.989659    7318.0399    2960.4585    5906.3217    5681.0081    2105.3597    2009.6736    1429.9257   -2966.1439 
 5447000    254.47718    -3910.708   -3474.5428    -3910.708            0    5119.8841    17.203887    20.263906    20.988702    7317.0381    5264.4817     5906.152    4189.0185   -389.49755    -224.1069   -947.02702   -2928.1923 
 5448000    240.51376   -3862.7356   -3450.5033   -3862.7356            0    5861.6201    17.289747    20.365039    21.093452    7427.1388    4824.6439    7212.8768    5547.3396    510.92271   -1598.6746   -917.05013    -2815.589 
 5449000    259.69342   -3882.3837    -3437.278   -3882.3837            0     4130.093     17.22832    20.292685     21.01851    7348.2572    4154.0017    4170.1389    4066.1384   -1029.4374   -379.55053    131.98192   -2994.6692 
 5450000    245.21793   -3896.8933   -3476.5981   -3896.8933            0    5438.3958    17.217913    20.280428    21.005814    7334.9498    5348.9094    5058.2651    5908.0129   -777.76725   -1118.6842   -1627.1568   -2894.8381 
 5451000     243.4586   -3890.3927    -3473.113   -3890.3927            0    6327.3171    17.262033    20.332395     21.05964    7391.4806    6634.9644    7516.9896    4829.9972    1648.6746   -1991.9944    177.38715   -2791.0461 
 5452000    251.74677   -3886.1578   -3454.6725   -3886.1578            0    4367.1747    17.257652    20.327235    21.054296    7385.8543    4066.6077    3782.7137    5252.2028   -270.71698     823.8733    1181.3436   -2984.2618 
 5453000    250.31689    -3922.098   -3493.0634    -3922.098            0    7516.7129    17.107817    20.150749    20.871497    7195.1425    7481.5488    7425.0651    7643.5249    852.13457    146.51552    463.07973   -2704.3064 
 5454000    244.56847   -3906.9625   -3487.7805   -3906.9625            0    4956.8574    17.222039    20.285287    21.010847    7340.2235    6506.6221    3604.7097    4759.2403   -1113.2981   -1056.1368   -29.284095   -2957.1508 
 5455000    246.50675   -3931.4911    -3508.987   -3931.4911            0    7290.2461    17.142284    20.191347    20.913547    7238.7183    5161.4255    9689.1442    7020.1685     1000.395   -1490.9336   -818.89699    -2739.361 
 5456000    253.58482   -3957.0945   -3522.4588   -3957.0945            0    6328.7517     17.20221    20.261931    20.986656    7314.8991    4623.8187    6503.0779    7859.3584    184.72743   -405.34143   -120.49901   -2847.3056 
 5457000      251.342   -3945.4906    -3514.699   -3945.4906            0    4084.4571    17.217758    20.280245    21.005625    7334.7518    4602.9259    4129.4554    3520.9901   -379.65632   -1014.1234   -476.00064   -3077.7853 
 5458000    251.22491   -3909.4447   -3478.8538   -3909.4447            0    5736.9343    17.217039    20.279397    21.004747    7333.8318    5842.5717    5694.0174    5674.2138     1058.562   -579.27374   -744.17983   -2865.2519 
 5459000     245.9292   -3909.2436   -3487.7294   -3909.2436            0    8123.8449    17.098977    20.140336    20.860712    7183.9939    8741.0575    6730.7608    8899.7162    1080.8537    14.778638   -341.97177   -2636.5845 
 5460000    262.35463   -3917.6271   -3467.9603   -3917.6271            0    4575.4292    17.191996      20.2499    20.974194    7301.8761    3662.4728     4660.751    5403.0639    324.56404    175.02454   -434.15432   -2980.7211 
 5461000    256.84073   -3940.0949   -3499.8787   -3940.0949            0    5783.2783    17.099182    20.140577    20.860962    7184.2523     6672.197    5182.9561    5494.6817    569.59075    -375.0283    527.17179    -2893.936 
 5462000    267.83976   -3946.9632    -3487.895   -3946.9632            0    4678.3593    17.163233    20.216021    20.939104    7265.2889     3112.582    5357.1599     5565.336    1134.4284    374.44377      1165.33   -2992.1911 
 5463000    256.62711   -3921.4334   -3481.5833   -3921.4334            0    4843.9161    17.166846    20.220277    20.943512    7269.8785    4161.5583    3684.6686    6685.5215    869.52182    119.71686    1753.1044   -2968.0133 
 5464000    251.72766   -3926.0989   -3494.6463   -3926.0989            0    6233.3661    17.150135    20.200593    20.923124    7248.6679    7286.4425    5897.5844    5516.0715    -465.5115   -1774.7784    793.52424   -2835.6899 
 5465000    239.62751   -3954.1143   -3543.4009   -3954.1143            0    7722.8686    17.080029    20.118018    20.837595    7160.1379    6810.9618    8576.7536    7780.8904    1824.8738    1374.7109    733.70666   -2736.9537 
 5466000    252.67293   -3950.0123   -3516.9396   -3950.0123            0    6132.3595    17.110186    20.153539    20.874387    7198.1314    5389.9507    6495.8952    6511.2327     555.8651   -417.89707   -115.11845   -2873.1806 
 5467000    237.93525   -3938.2179    -3530.405   -3938.2179            0    5543.9954    17.142841    20.192002    20.914226    7239.4232    5512.4387    4192.1942    6927.3532   -90.085076   -104.94296   -1667.5511   -2945.0724 
 5468000    250.44117   -3916.4325   -3487.1849   -3916.4325            0    5448.0981    17.121968    20.167417    20.888761    7213.0118    7311.1431    3560.3458    5472.8055   -535.02794    2451.3574    1519.8385   -2914.0756 
 5469000    257.30953   -3916.0692   -3475.0494   -3916.0692            0     5348.082    17.153583    20.204655    20.927331    7253.0406    4577.6675    5883.1139    5583.4644    18.419381    895.65484    1715.4225   -2909.3392 
 5470000     240.2121   -3917.2566   -3505.5413   -3917.2566            0    7848.3304    17.062347    20.097191    20.816023    7137.9235    7081.4479    8581.3832      7882.16    1072.8205    1866.4967   -225.00101   -2688.5356 
 5471000    248.77062    -3917.802   -3491.4177    -3917.802            0    5929.5278    17.123355     20.16905    20.890453    7214.7644    6563.1648    6478.9729    4746.4459   -1403.2464   -854.42149   -233.83041   -2867.5131 
 5472000    249.11416    -3936.986   -3510.0128    -3936.986            0    4970.7069    17.148284    20.198413    20.920866    7246.3211    6071.8653    3682.5574    5157.6981   -1340.4926   -1014.3924    78.694029   -2984.7077 
 5473000       253.49   -3934.0493   -3499.5761   -3934.0493            0    6052.3666    17.134046    20.181643    20.903496    7228.2865    7827.4083     6277.536    4052.1556   -1857.8021    1550.2608    303.56551   -2861.5529 
 5474000    254.80768   -3925.0809   -3488.3493   -3925.0809            0    4572.6169    17.192825    20.250877    20.975206    7302.9331    4488.0682    4681.1449    4548.6375    -793.1283   -728.87327   -1270.7019   -3001.3391 
 5475000    249.91826   -3943.3115   -3514.9601   -3943.3115            0    4961.4842    17.127398    20.173812    20.895385    7219.8761    4867.1363    5561.1906    4456.1259   -591.13948   -200.34334   -565.43092   -2992.5432 
 5476000    259.58007   -3939.2674    -3494.356   -3939.2674            0    5275.0602    17.153412    20.204453    20.927122    7252.8237    4963.4733     4345.788    6515.9192   -956.61418   -573.50631   -234.28128   -2936.3866 
 5477000    266.71475   -3884.1589    -3427.019   -3884.1589            0    5368.1831    17.212672    20.274254    20.999419     7328.253    4244.1868     4630.497    7229.8654   -462.71836   -114.09566    162.58101   -2853.2941 
 5478000    266.50069   -3904.2574   -3447.4844   -3904.2574            0    6048.2624    17.211778    20.273201    20.998329    7327.1111    7274.4566    4799.7897    6070.5407   -1096.4501    -139.9827    -1961.294   -2801.1767 
 5479000    264.63316   -3918.1348   -3464.5626   -3918.1348            0    5588.2486    17.233556    20.298852    21.024897    7354.9589    5768.2843    6428.1792    4568.2823    178.24404   -1497.5448   -1296.0929   -2865.1418 
 5480000    244.69256   -3853.3366   -3433.9419   -3853.3366            0    5455.7362    17.155392    20.206786    20.929538    7255.3358    4790.4398    6659.5105    4917.2584    852.48543    128.87176   -1042.1713   -2856.6616 
 5481000    253.24252   -3892.7746   -3458.7256   -3892.7746            0    5797.1483    17.199901    20.259211    20.983839    7311.9534    6295.6579    5766.4853    5329.3018   -928.38349   -71.529826    1172.2976   -2840.5331 
 5482000    253.39101   -3911.0778   -3476.7743   -3911.0778            0    4825.0873     17.25675    20.326172    21.053195     7384.696    5630.0845    4097.2094    4747.9681   -120.78647    746.50609    21.169178    -2957.121 
 5483000    246.83566   -3900.7532   -3477.6853   -3900.7532            0    5863.5043    17.165766    20.219005    20.942194    7268.5057     4528.995    7163.8749    5897.6432    799.59066    515.11525   -1322.8462   -2856.1322 
 5484000    254.26485   -3890.9574   -3455.1562   -3890.9574            0    4339.7897    17.190888    20.248596    20.972844    7300.4656    4918.1678    5056.3995    3044.8019   -219.13132   -446.91151   -672.73669   -2993.0997 
 5485000    243.80153   -3910.8769   -3493.0094   -3910.8769            0       7340.1    17.118883    20.163783    20.884997    7209.1133    5512.0056    8260.0277    8248.2668    155.43336   -443.21869    364.40665   -2721.2894 
 5486000    249.73018   -3911.4788   -3483.4498   -3911.4788            0    4535.4413    17.187667    20.244802    20.968914    7296.3624    7178.4609    3389.0928    3038.7701    193.09273   -1203.6226   -198.76066   -3000.8337 
 5487000    253.70058   -3907.3541     -3472.52   -3907.3541            0    5574.5112    17.197438    20.256311    20.980835    7308.8133    6387.7941    3527.9369    6807.8026    -1292.964    123.84649    1172.1171   -2878.3242 
 5488000    261.75791   -3925.3754   -3476.7313   -3925.3754            0    4332.2167    17.181049    20.237007     20.96084    7287.9376     5260.338    3669.1945    4067.1177   -424.17468    164.95243   -132.41911   -3016.2726 
 5489000    233.66402   -3907.2492    -3506.757   -3907.2492            0    6411.9894    17.217015     20.27937    21.004718    7333.8019    8809.3544    4141.9648    6284.6488   -306.68429    2147.8539    349.05253   -2820.9564 
 5490000     247.1426   -3924.9201   -3501.3261   -3924.9201            0    6068.4612    17.202601    20.262391    20.987133    7315.3971    5718.5384    6609.8999    5876.9453   -1284.0615   -474.81247     1901.231   -2853.8968 
 5491000    250.47307   -3952.3753    -3523.073   -3952.3753            0    3887.8841     17.21995    20.282827    21.008299    7337.5533    3048.6296    3793.9122    4821.1104   -880.72671   -3173.8386   -1445.5385   -3107.0279 
 5492000    255.15308   -3945.7883   -3508.4646   -3945.7883            0    6469.1993    17.190871    20.248575    20.972822    7300.4433    4768.3708    8613.4765    6025.7505   -625.34358    1196.6877   -132.30683   -2819.6923 
 5493000    263.38438   -3935.8373   -3484.4055   -3935.8373            0    6570.1895    17.181792    20.237882    20.961746    7288.8828    6424.0342     6970.748    6315.7861    497.72529    826.90118    1047.2816   -2785.9886 
 5494000    256.54269   -3933.7594    -3494.054   -3933.7594            0     7318.051    17.185572    20.242333    20.966357     7293.694    5497.1191    8853.3507    7603.6832   -1347.8242    482.19115   -1774.1916   -2715.6253 
 5495000    263.18162   -3943.7115   -3492.6272   -3943.7115            0     4796.123    17.227679     20.29193    21.017728    7347.4377    4351.1619    4418.9018    5618.3052   -387.32737     1490.734   -43.006554   -2978.6994 
 5496000    247.01984   -3944.9053   -3521.5217   -3944.9053            0    2493.9158    17.348211    20.433901    21.164777    7502.7358     3975.071    2495.4764    1011.1998   -966.67091    1093.6078   -959.10344   -3248.6382 
 5497000    241.48737   -3908.3108   -3494.4097   -3908.3108            0    4944.9988    17.214097    20.275932    21.001158    7330.0731    3732.7641    3869.9534    7232.2788   -422.72229    377.98392   -1080.9967   -2965.7814 
 5498000    254.53204   -3897.9373   -3461.6781   -3897.9373            0    4575.0294    17.220518    20.283496    21.008992    7338.2796    5365.4196    3234.4132    5125.2554   -814.38792    1026.7327    231.09957   -2972.0526 
 5499000    240.26543   -3902.2361   -3490.4294   -3902.2361            0    5915.5648    17.188809    20.246147    20.970307    7297.8166    5930.9114    7032.4013    4783.3817    428.92242   -44.627828    415.24574   -2860.8289 
 5500000    259.32063   -3876.9016   -3432.4349   -3876.9016            0    4623.5834    17.235527    20.301174    21.027303    7357.4833    5773.4439     4537.184    3560.1223    644.29655    346.64079    393.55456   -2936.3182 
Loop time of 579.696 on 64 procs for 250000 steps with 864 atoms

Performance: 74.522 ns/day, 0.322 hours/ns, 431.260 timesteps/s
99.2% CPU use with 64 MPI tasks x 1 OpenMP threads

MPI task timing breakdown:
Section |  min time  |  avg time  |  max time  |%varavg| %total
---------------------------------------------------------------
Pair    | 21.129     | 25.871     | 31.888     |  48.1 |  4.46
Bond    | 0.28416    | 0.29665    | 0.31047    |   1.2 |  0.05
Kspace  | 243.25     | 257.53     | 283.8      |  71.7 | 44.43
Neigh   | 4.9949     | 6.4159     | 9.3471     |  52.4 |  1.11
Comm    | 120.53     | 148.22     | 162.51     | 106.4 | 25.57
Output  | 2.097      | 2.1004     | 2.1429     |   0.6 |  0.36
Modify  | 131.74     | 134.5      | 136.6      |  10.1 | 23.20
Other   |            | 4.769      |            |       |  0.82

Nlocal:        13.5000 ave          18 max           8 min
Histogram: 1 1 1 7 12 7 12 14 7 2
Nghost:        2176.02 ave        2213 max        2133 min
Histogram: 3 5 3 10 4 10 10 10 4 5
Neighs:        4196.98 ave        5948 max        2060 min
Histogram: 1 1 4 8 8 13 19 4 4 2

Total # of neighbors = 268607
Ave neighs/atom = 310.88773
Ave special neighs/atom = 2.0000000
Neighbor list builds = 12927
Dangerous builds = 0

unfix		3
unfix		2
unfix		1

write_data	data.final.${pid}
write_data	data.final.0
System init for write_data ...
PPPM initialization ...
  extracting TIP4P info from pair style
  using 12-bit tables for long-range coulomb (../kspace.cpp:340)
  G vector (1/distance) = 0.37456653
  grid = 24 24 25
  stencil order = 5
  estimated absolute RMS force accuracy = 0.0030382372
  estimated relative force accuracy = 9.1495611e-06
  using double precision FFTW3
  3d grid and FFT values/proc = 2730 288
Last active /omp style is kspace_style pppm/tip4p/omp
WARNING: Not all mixed pair coeffs generated from mixing. Use write_data with 'pair ij' option to store all pair coeffs. (../write_data.cpp:312)

write_restart   restart.lmp.${pid}
write_restart   restart.lmp.0
System init for write_restart ...
PPPM initialization ...
  extracting TIP4P info from pair style
  using 12-bit tables for long-range coulomb (../kspace.cpp:340)
  G vector (1/distance) = 0.37456653
  grid = 24 24 25
  stencil order = 5
  estimated absolute RMS force accuracy = 0.0030382372
  estimated relative force accuracy = 9.1495611e-06
  using double precision FFTW3
  3d grid and FFT values/proc = 2730 288
Last active /omp style is kspace_style pppm/tip4p/omp
Total wall time: 0:09:44
