LAMMPS (30 Jul 2021)
  using 1 OpenMP thread(s) per MPI task
package omp 0
using multi-threaded neighbor list subroutines
echo both

include		in.partitions
variable        pid world 0
include		in.temp
variable        temperature equal 249.71
variable	tempDamp equal 100.0
include		in.pressure
variable        pressure equal 6750.0
variable        pressureDamp equal 1000.0 # This is 1 ps
include		in.seed
variable        seed world 745823

units		real
atom_style	full
read_restart	restart.lmp.${pid}
read_restart	restart.lmp.0
Reading restart file ...
  restart file = 30 Jul 2021, LAMMPS = 30 Jul 2021
  restoring atom style full from restart
  orthogonal box = (0.56483142 1.7568281 0.68909301) to (17.642741 21.872350 21.524103)
  4 by 4 by 4 MPI processor grid
  restoring pair style lj/cut/tip4p/long/omp from restart
  restoring bond style harmonic/omp from restart
  restoring angle style harmonic/omp from restart
  864 atoms
  576 bonds
  288 angles
Finding 1-2 1-3 1-4 neighbors ...
  special bond factors lj:    0        0        0       
  special bond factors coul:  0        0        0       
     2 = max # of 1-2 neighbors
     1 = max # of 1-3 neighbors
     1 = max # of 1-4 neighbors
     2 = max # of special neighbors
  special bonds CPU = 1.591 seconds
  read_restart CPU = 1.903 seconds
include 	in.setup
variable	out_freq equal 1000
variable	out_freq2 equal 10000
variable	out_freq3 equal 1000

timestep	2.0

neigh_modify    delay 7 every 1

include		in.tip4p
# This is TIP4P/Ice

# create groups ###
group ox type 2
288 atoms in group ox
group hy type 1
576 atoms in group hy

# set charges - beside manually ###
set group ox charge -1.1794
Setting atom values ...
  288 settings made for charge
set group hy charge 0.5897
Setting atom values ...
  576 settings made for charge

# ### TIP3P Potential Parameters ###
pair_style lj/cut/tip4p/long/omp 2 1 1 1 0.1577 8.5
pair_coeff 1 1*2 0.000 0.000
pair_coeff 2 2 0.21084 3.1668
bond_style  harmonic
bond_coeff  1 450 0.9572
angle_style harmonic
angle_coeff 1 55 104.52
kspace_style pppm/tip4p/omp 1.0e-5
pair_modify tail yes

thermo          ${out_freq}
thermo          1000
thermo_style    custom step temp pe etotal epair emol press lx ly lz vol pxx pyy pzz pxy pxz pyz enthalpy

restart 	${out_freq3} restart.lmp.${pid} restart2.lmp.${pid}
restart 	1000 restart.lmp.${pid} restart2.lmp.${pid}
restart 	1000 restart.lmp.0 restart2.lmp.${pid}
restart 	1000 restart.lmp.0 restart2.lmp.0


include         in.dump
dump            myDump all atom ${out_freq2} dump.water.${pid}
dump            myDump all atom 10000 dump.water.${pid}
dump            myDump all atom 10000 dump.water.0
dump            myDump2 all dcd ${out_freq2} dump.dcd
dump            myDump2 all dcd 10000 dump.dcd
dump_modify     myDump append yes
dump_modify     myDump2 append yes


variable natoms 	equal  "count(all)"                        # NUMBER ATOMS
variable H      	equal  "enthalpy/v_natoms"                 # ENTHALPY-per-atom
variable Vol      	equal  "vol/v_natoms"                 # volume-per-atom
fix AVG all 		ave/time ${out_freq} 1 ${out_freq} v_Vol v_H file vol_enthalpy.dat
fix AVG all 		ave/time 1000 1 ${out_freq} v_Vol v_H file vol_enthalpy.dat
fix AVG all 		ave/time 1000 1 1000 v_Vol v_H file vol_enthalpy.dat


timer           timeout 23:50:00 every 1000
New timer settings: style=normal  mode=nosync  timeout=23:50:00

fix 		1 all shake 1e-6 200 0 b 1 a 1
       0 = # of size 2 clusters
       0 = # of size 3 clusters
       0 = # of size 4 clusters
     288 = # of frozen angles
  find clusters CPU = 0.002 seconds
fix             2 all nph iso ${pressure} ${pressure} ${pressureDamp}
fix             2 all nph iso 6750 ${pressure} ${pressureDamp}
fix             2 all nph iso 6750 6750 ${pressureDamp}
fix             2 all nph iso 6750 6750 1000
fix             3 all temp/csvr ${temperature} ${temperature} ${tempDamp} ${seed}
fix             3 all temp/csvr 249.71 ${temperature} ${tempDamp} ${seed}
fix             3 all temp/csvr 249.71 249.71 ${tempDamp} ${seed}
fix             3 all temp/csvr 249.71 249.71 100 ${seed}
fix             3 all temp/csvr 249.71 249.71 100 745823

run             250000
PPPM initialization ...
  extracting TIP4P info from pair style
  using 12-bit tables for long-range coulomb (../kspace.cpp:340)
  G vector (1/distance) = 0.37376243
  grid = 24 24 24
  stencil order = 5
  estimated absolute RMS force accuracy = 0.0032184264
  estimated relative force accuracy = 9.6921955e-06
  using double precision FFTW3
  3d grid and FFT values/proc = 2535 216
Last active /omp style is kspace_style pppm/tip4p/omp
Neighbor list info ...
  update every 1 steps, delay 7 steps, check yes
  max neighbors/atom: 2000, page size: 100000
  master list distance cutoff = 10.8154
  ghost atom cutoff = 10.8154
  binsize = 5.4077, bins = 4 4 4
  1 neighbor lists, perpetual/occasional/extra = 1 0 0
  (1) pair lj/cut/tip4p/long/omp, perpetual
      attributes: half, newton on, omp
      pair build: half/bin/newton/omp
      stencil: half/bin/3d
      bin: standard
Per MPI rank memory allocation (min/avg/max) = 9.236 | 9.238 | 9.241 Mbytes
Step Temp PotEng TotEng E_pair E_mol Press Lx Ly Lz Volume Pxx Pyy Pzz Pxy Pxz Pyz Enthalpy 
23000000    270.10251   -3903.6742   -3440.7277   -3903.6742            0    7606.9136     17.07791    20.115522     20.83501     7157.473    6490.0686    8432.4989    7898.1733   -1010.9255   -833.63263   -1364.7531   -2646.6846 
23001000    247.01137   -3901.2189   -3477.8498   -3901.2189            0    7270.5248    17.014875    20.041276    20.758108    7078.5109    8381.6873    6420.8885    7008.9986   -1255.2363   -407.32955    -2.701996    -2727.293 
23002000    246.92573   -3908.8642    -3485.642   -3908.8642            0    6139.8004    17.077091    20.114557    20.834011    7156.4432    5531.9338    5767.7596    7119.7076   -864.98777    1186.3316   -181.84103   -2844.8348 
23003000    248.78278   -3924.3782   -3497.9731   -3924.3782            0    4444.6063    17.104195    20.146483    20.867078    7190.5736     2088.658    4158.6867    7086.4742    2074.4093    575.21018    195.37993   -3031.8799 
23004000     237.9734   -3941.4121   -3533.5338   -3941.4121            0    6176.0641    17.071014      20.1074    20.826598     7148.807    5761.1013    6912.8079    5854.2831    1001.7104   -369.70983    616.87699   -2889.6296 
23005000     259.4118   -3927.1945   -3482.5715   -3927.1945            0    4469.2098     17.17316    20.227715    20.951216    7277.9031    4000.4872    3808.7376    5598.4047    435.08422   -439.72045   -99.427724   -3008.2062 
23006000    246.63222    -3886.376   -3463.6568    -3886.376            0    7216.1559    17.141379     20.19028    20.912442    7237.5708    7758.3881    6252.6295    7637.4501   -803.82529    256.86996   -682.93352   -2701.9732 
23007000    259.41014   -3905.4309   -3460.8108   -3905.4309            0    6496.2281    17.078321    20.116006    20.835512    7157.9905    6755.9412     7071.645    5661.0981    -571.3995    640.36189     643.0032   -2782.6569 
23008000    259.27972   -3912.3168   -3467.9202   -3912.3168            0    4951.0364    17.185745    20.242538    20.966569    7293.9148    4930.0437    4106.3481    5816.7173    1509.2747   -316.79571    174.95298   -2941.2574 
23009000    268.11058   -3894.7009   -3435.1685   -3894.7009            0    8307.9519    17.016826    20.043574    20.760488     7080.946    9023.0294    7661.8699    8238.9564    1268.9717    926.62036    400.40071   -2577.2202 
23010000    253.99274   -3895.3841   -3460.0492   -3895.3841            0    6949.5252    17.045608    20.077475    20.795602    7116.9362    6777.1929    7327.8855    6743.4971   -977.61657    782.23801   -833.39771   -2738.7356 
23011000    250.85596   -3877.0772   -3447.1187   -3877.0772            0    6636.1522    16.997838    20.021208    20.737323    7057.2686    6941.1558    7130.7749     5836.526   -176.94411    1434.7468    486.62534   -2764.1058 
23012000    260.26914   -3874.3237   -3428.2314   -3874.3237            0     7719.432    17.045139    20.076922    20.795029    7116.3483    8568.9427    5969.2637    8620.0895    899.37451    76.921231   -1561.7328   -2627.0729 
23013000    248.95814   -3855.1932   -3428.4875   -3855.1932            0    6887.1509    17.030072    20.059175    20.776648    7097.4941    6733.3373    5942.8963    7985.2192   -1356.9785   -1502.7208   -1265.7111   -2715.6008 
23014000    244.70918   -3904.6279   -3485.2047   -3904.6279            0     5783.456    17.102645    20.144657    20.865187    7188.6182    5673.5016     5010.512    6666.3543    385.90175    1207.7405   -50.195523   -2878.8752 
23015000    257.36348   -3899.0861   -3457.9739   -3899.0861            0    6724.3196    17.080556    20.118639    20.838239     7160.801    6559.0327    7452.4209    6161.5052    624.89255    460.34059   -641.77917   -2755.7334 
23016000    246.83706   -3887.8986   -3464.8283   -3887.8986            0    5231.9057    17.100095    20.141654    20.862076    7185.4039    5238.6262    3795.8313    6661.2596   -1690.2834   -680.01942   -338.05103   -2916.5678 
23017000    256.11171   -3887.0182   -3448.0514   -3887.0182            0    8436.3519    17.011568     20.03738    20.754073    7074.3835    8116.4598    7912.2482    9280.3477   -66.921737    1026.6711     460.4175   -2577.6509 
23018000    237.99403   -3886.3842   -3478.4706   -3886.3842            0    5777.7142    17.079446    20.117331    20.836884     7159.405    6198.6774    5264.5487    5869.9164   -1068.6425    438.44244   -374.55007   -2875.2045 
23019000    256.63425   -3908.0179   -3468.1556   -3908.0179            0     5238.787    17.091488    20.131515    20.851576    7174.5591    5254.2051    4267.1366    6195.0192    689.26857    112.96412   -1084.4422   -2920.0025 
23020000     248.3347   -3906.0351   -3480.3979   -3906.0351            0    4892.7323    17.080436    20.118498    20.838092    7160.6503    4397.2251    4575.7837     5705.188   -468.00292     159.4907   -249.49231   -2969.4463 
23021000    233.86351   -3880.8112   -3479.9772   -3880.8112            0    5414.5758    17.105186    20.147649    20.868287    7191.8228    3672.2239     5890.477    6681.0265    -139.6123    768.20656   -881.34718   -2912.0674 
23022000    261.07669   -3909.7753   -3462.2988   -3909.7753            0    7986.8447    17.122922     20.16854    20.889925    7214.2172    7054.1995    8414.5344    8491.8002    1609.6002    687.87752   -1780.1193   -2621.9872 
23023000    244.91747   -3919.5579   -3499.7777   -3919.5579            0    8911.9597    17.053847    20.087179    20.805653    7127.2612    8565.4696    7328.7896     10841.62    496.06677    -1336.863    88.514981   -2573.4348 
23024000    260.16433   -3863.3901   -3417.4774   -3863.3901            0    9047.3905    17.117377    20.162009     20.88316    7207.2112    11590.803    7345.1514    8206.2174   -1472.3412    809.15306    309.19235   -2466.5081 
23025000    240.28506   -3884.5277   -3472.6874   -3884.5277            0     8192.696    17.104764    20.147153    20.867772    7191.2907    9221.2089    7405.3186    7951.5607    2569.3836   -1466.1516   -1638.1371   -2613.4571 
23026000    257.00671   -3905.3152   -3464.8145   -3905.3152            0    6556.9912    17.138318    20.186675    20.908708    7233.6946    7356.5445    5664.0156    6650.4133   -107.34524    380.50306   -371.47799   -2773.0781 
23027000    258.36134   -3907.1557   -3464.3332   -3907.1557            0    8286.4981    17.108175     20.15117    20.871933    7195.5937     8062.854     9484.918    7311.7225   -575.87256    -238.5475   -189.67596   -2594.7451 
23028000     252.8632   -3931.9036   -3498.5048   -3931.9036            0    7313.4316     17.07345    20.110269    20.829569    7151.8672    7074.7923    8388.0628    6477.4396    263.31257    116.72609     179.9393   -2735.6945 
23029000    245.58529   -3942.0029   -3521.0781   -3942.0029            0    8321.9456    17.060348    20.094837    20.813585    7135.4154    8056.6654    10496.399     6412.772    421.99559    -490.7743    804.32852   -2655.0738 
23030000    248.88244   -3890.1494   -3463.5734   -3890.1494            0     7492.754    17.095419    20.136145    20.856371    7179.5102    6454.8053    7313.2327    8710.2239   -743.64157    1005.6115    1027.5653   -2679.0386 
23031000     264.6566   -3906.2791   -3452.6668   -3906.2791            0    4240.7535    17.124888    20.170856    20.892323    7216.7025    4949.8237    4002.8876    3769.5493    966.13721    119.07647    991.96448   -3006.3351 
23032000    248.78656   -3911.8653   -3485.4536   -3911.8653            0    6295.7762    17.155591     20.20702    20.929781    7255.5881    5835.8472    7711.4254    5340.0561   -148.08933   -987.28312    252.77088   -2819.2641 
23033000    247.03343   -3902.6015   -3479.1946   -3902.6015            0    6927.7276    17.133298    20.180762    20.902584    7227.3406     4681.082    7590.1154    8511.9852    2201.6032   -179.71458    -441.4041   -2748.9889 
23034000    233.47532   -3898.8788   -3498.7101   -3898.8788            0    6896.8121    17.094246    20.134763     20.85494    7178.0323    7307.6987     5521.753    7860.9845    195.26643   -590.21125    2140.0164   -2776.7226 
23035000    233.79186   -3935.9449   -3535.2337   -3935.9449            0    4899.0073    17.117357    20.161985    20.883136    7207.1857    5228.5577    7236.2427    2232.2216   -1334.2231   -444.54333    997.39679   -3020.3019 
23036000    237.89379   -3903.2765   -3495.5346   -3903.2765            0    7647.4825    17.053848     20.08718    20.805655    7127.2623    8997.8644    7071.1593    6873.4238   -129.18383   -677.60591    128.11815   -2700.6262 
23037000    243.22758   -3894.5514   -3477.6677   -3894.5514            0     7948.469    17.080664    20.118766    20.838371    7160.9371    8522.2917    7096.3078    8226.8073   -217.28156    -2161.118    725.67573     -2647.57 
23038000    250.44597   -3895.7341   -3466.4783   -3895.7341            0    7216.5752     17.04601    20.077948    20.796093    7117.4401    8167.4267    6618.9394    6863.3594    -161.2626    424.34075   -1032.5173   -2717.3937 
23039000    239.39459   -3873.9738   -3463.6597   -3873.9738            0    6666.4544    17.108569    20.151635    20.872415    7196.0915    6105.3161    5551.6155    8342.4315   -1229.7077   -287.29385   -1278.1039   -2764.0312 
23040000    248.28576    -3911.636   -3486.0827    -3911.636            0    4875.9306    17.077429    20.114956    20.834424    7156.8691    5101.2612    4702.4594    4824.0713    903.57717    1501.6906   -1309.2054   -2977.1545 
23041000    249.15628   -3907.7385   -3480.6931   -3907.7385            0    6727.1076    17.103273    20.145397    20.865953    7189.4106    4729.6371      8228.84    7222.8457    113.24103   -427.50179    647.73296   -2775.3547 
23042000    237.49423   -3876.2203   -3469.1633   -3876.2203            0    5824.5155    17.138785    20.187225    20.909278    7234.2865    6807.6208    5767.4676    4898.4581    1416.0521   -905.68466    210.75129   -2854.6498 
23043000    259.50556   -3911.6562   -3466.8726   -3911.6562            0    7165.4642    17.032057    20.061514     20.77907    7099.9768    8130.8921    7876.0938    5489.4068   -781.64902    674.02608    465.61478   -2724.9183 
23044000    252.84443    -3905.045   -3471.6783    -3905.045            0    7067.9943    17.004275     20.02879    20.745176    7065.2895    8455.4651    7444.8334    5303.6844   -194.75394    1620.9895   -1409.8162   -2743.3922 
23045000    236.32506   -3950.0166   -3544.9636   -3950.0166            0    6212.2604    17.110838    20.154307    20.875182     7198.954    4670.0089    6250.1212    7716.6512   -856.35859   -1770.3978    1590.3275   -2892.7423 
23046000    254.48652   -3920.6902    -3484.509   -3920.6902            0    7956.4228    17.091619    20.131669    20.851735    7174.7235    8734.3837    8529.6218     6605.263    571.07525    214.44514    669.74042   -2651.9809 
23047000    246.36334   -3921.6276   -3499.3693   -3921.6276            0    9410.3082    17.026239    20.054661    20.771972    7092.7032     9873.919    9469.2524    8887.7532     175.9392    1312.0911   -479.40155   -2525.9689 
23048000    259.28923   -3914.5149    -3470.102   -3914.5149            0    5367.3793    17.094773    20.135384    20.855583    7178.6965    7240.0389    3617.3337    5244.7653   -193.08937    1936.7651   -812.82819     -2908.17 
23049000    249.53477   -3890.7132   -3463.0191   -3890.7132            0    8267.7514    17.044705    20.076412    20.794501    7115.8059     8524.934    10160.468    6117.8524    40.202792   -174.30106   -921.49408   -2605.0189 
23050000    241.44569   -3937.4279   -3523.5982   -3937.4279            0    6104.7163    17.100411    20.142025    20.862461    7185.8014    5806.0168    5895.0763    6613.0558   -255.59415    1214.1464   -696.66818   -2883.8389 
23051000    252.83714   -3911.0741   -3477.7199   -3911.0741            0    5665.1833    17.110475     20.15388     20.87474    7198.4968     3669.322    6722.2199     6604.008    100.22352    55.823463   -1221.3386   -2882.9737 
23052000    251.46443   -3929.6624    -3498.661   -3929.6624            0    6040.8899    17.055869    20.089561    20.808121    7129.7971    5804.2127    6340.4469    5978.0102   -731.08171   -42.519462   -138.87918   -2870.5246 
23053000    243.27571    -3932.446   -3515.4798    -3932.446            0    7735.1062    17.115395    20.159675    20.880742    7204.7081    8336.2254    6593.8473    8275.2459    188.43055   -317.66992    605.61821   -2702.7268 
23054000     261.9055   -3932.2164   -3483.3193   -3932.2164            0    5310.1962    17.119847    20.164918    20.886173    7210.3313    5727.0862    4139.9802    6063.5223    1024.2694    378.10762    13.331143   -2924.9241 
23055000    250.57021    -3946.437   -3516.9682    -3946.437            0    6057.0645    17.158756    20.210748    20.933643    7259.6053     5945.523    6604.6529    5621.0175    554.29301   -927.84799    345.51698   -2875.6832 
23056000    259.61147   -3921.3549   -3476.3897   -3921.3549            0    8679.5457    17.134307     20.18195    20.903814    7228.6168    7795.4875    10000.793    8242.3566    592.82902   -496.15424   -318.80521    -2561.375 
23057000    243.30627   -3915.0808   -3498.0622   -3915.0808            0    8979.1938    17.057322    20.091273    20.809893    7131.6194    7629.9595    9653.4798     9654.142   -517.49506    50.359673    1331.2659     -2564.16 
23058000    253.79035   -3919.7809    -3484.793   -3919.7809            0    9240.6188     17.07842    20.116122    20.835632    7158.1144    8322.4001    9715.8553    9683.6008    969.21471    457.25917    548.10546   -2520.1301 
23059000    255.69626   -3934.2086    -3495.954   -3934.2086            0    6726.8088    17.093779    20.134214    20.854371    7177.4447    8497.6477    5068.5101    6614.2687   -140.60514   -525.44408   -1079.7815   -2791.8208 
23060000    244.38352   -3949.0044   -3530.1394   -3949.0044            0     5790.119    17.125842     20.17198    20.893487    7217.9088    4914.5346    5407.9987    7047.8236   -386.97383   -1287.1301     1336.096   -2920.6379 
23061000    235.61925   -3921.8827   -3518.0394   -3921.8827            0    7549.3013     17.10877    20.151872     20.87266    7196.3452    6742.1179     8451.654    7454.1318    22.714876   -551.43853   -967.66185   -2725.7303 
23062000    252.07672   -3929.0769    -3497.026   -3929.0769            0    6514.0538     17.14875    20.198963    20.921435    7246.9127    5849.2509    5716.7168    7976.1936    577.90834    745.17478     -48.4864   -2808.5635 
23063000    251.28927    -3911.854   -3481.1528    -3911.854            0     5356.228     17.14869    20.198892    20.921362    7246.8364    5981.4593    2988.9476     7098.277   -75.490719    1066.4454   -1364.1502   -2915.0655 
23064000    245.68829   -3912.1397   -3491.0384   -3912.1397            0    6687.5262    17.149199    20.199491    20.921982     7247.481    5538.8779    7079.4552    7444.2455    309.13403   -1335.2058   -13.465871   -2784.1864 
23065000    240.81425   -3955.3722   -3542.6248   -3955.3722            0    5654.0736    17.162456    20.215106    20.938156     7264.302     6246.965    6095.2047     4620.051    724.30941    285.77073    1082.9685   -2943.6187 
23066000    253.26943   -3916.4738   -3482.3787   -3916.4738            0    7141.4378    17.125744    20.171865    20.893368    7217.7852    7952.5507    6210.3699    7261.3928   -425.49617    16.483639   -214.63764   -2730.6424 
23067000    241.94327   -3939.9857   -3525.3032   -3939.9857            0    5477.9259    17.139503    20.188071    20.910154    7235.1954    3738.6957    5173.4587    7521.6232    1283.9197   -916.35577   -1780.1797    -2947.284 
23068000    248.25962    -3928.076   -3502.5676    -3928.076            0    5549.1452     17.14661    20.196441    20.918824     7244.199    6199.2829    5330.5834    5117.5693    148.16817    119.80725   -1622.8707   -2916.3047 
23069000    248.67523   -3951.0298   -3524.8089   -3951.0298            0    8052.3152    17.013185    20.039285    20.756047     7076.402     7599.888    9493.2089    7063.8488   -790.72069   -760.71631    299.53589   -2693.7934 
23070000    246.17463   -3913.3372   -3491.4023   -3913.3372            0    7186.0339    17.097249    20.138301    20.858604     7181.817    7175.2315     7359.027    7023.8432    -361.7679   -151.05605    91.412563   -2738.7412 
23071000    245.77504   -3907.3617   -3486.1117   -3907.3617            0    6200.5348      17.1413    20.190187    20.912345    7237.4708    5776.0707    4719.4165    8106.1172    1706.9346   -162.49868   -1748.6917   -2831.6385 
23072000    264.52946   -3866.6686   -3413.2741   -3866.6686            0    6283.3236    17.134313    20.181957    20.903822    7228.6245    5272.4266    6667.3714    6910.1727    889.64708    203.61353    661.63116   -2750.8731 
23073000    243.81468   -3900.2676   -3482.3776   -3900.2676            0    6934.1915    17.078566    20.116295    20.835811    7158.2989    6198.1203    6738.8364    7865.6177    1060.4912    542.05306   -1863.8547   -2758.4727 
23074000    260.02643   -3918.7778   -3473.1014   -3918.7778            0    6113.3792    17.149926    20.200347    20.922869    7248.4029    6391.6916    6735.8038    5212.6423   -1124.8622   -963.20072   -1868.1862   -2826.8529 
23075000    243.99114   -3901.8357   -3483.6433   -3901.8357            0    6929.9017    17.130826     20.17785    20.899568    7224.2122    6762.0974    8349.1305    5678.4771    -301.3268    -843.5451   -198.10838   -2753.5246 
23076000    262.35452   -3948.9417    -3499.275   -3948.9417            0    6002.7175    17.113019    20.156876    20.877843    7201.7078    7245.2661     5032.674    5730.2123     -1645.49    427.41789    703.58323   -2868.8124 
23077000    242.62353   -3921.5071   -3505.6587   -3921.5071            0    8490.7695     17.02895    20.057853    20.775279     7096.091    6696.5288     9838.673    8937.1066     224.5734   -171.53017    428.59586   -2626.9557 
23078000    256.87648   -3875.0476   -3434.7701   -3875.0476            0    9732.9948    16.994606    20.017401     20.73338    7053.2442     10371.16    9000.3431    9827.4813   -1653.8247   -1088.0396    13.880536   -2433.5921 
23079000    245.00917   -3908.2505   -3488.3132   -3908.2505            0    7248.2569    17.024425    20.052524    20.769759    7090.4362    6220.1683    6935.1549    8589.4474   -1782.8573    1878.5414   -172.62794   -2738.7946 
23080000    254.13297    -3894.152   -3458.5768    -3894.152            0    6954.1504    17.079271    20.117125    20.836671    7159.1851    7814.6229    6474.9763    6572.8519   -385.97601    821.40889    524.76627   -2732.4983 
23081000    245.36105   -3934.4727   -3513.9322   -3934.4727            0    5887.9098    17.125101    20.171107    20.892583    7216.9721    4525.1494    6169.6343    6968.9457   -1025.8863    161.07191   -436.72704   -2894.2171 
23082000    250.84098   -3954.1632   -3524.2303   -3954.1632            0    6780.2728    17.078894    20.116681     20.83621    7158.7103      4420.82    7647.2677    8272.7308    846.55592    657.58657    89.326545   -2816.3532 
23083000    247.31892   -3947.0135   -3523.1173   -3947.0135            0    5639.4632    17.145826    20.195518    20.917867    7243.2056    5864.4903    6566.6845    4487.2149   -673.27452    264.08052    1266.8653   -2927.3942 
23084000    260.60947   -3906.8954   -3460.2197   -3906.8954            0    7056.2928    17.100124    20.141687    20.862111    7185.4397    6312.6482    7636.9405    7219.2898   -1660.5697     483.2319    1289.7162   -2720.7747 
23085000     262.2508   -3935.6993   -3486.2104   -3935.6993            0    7236.7923    17.062074    20.096869     20.81569     7137.581    7247.3528    7430.5245    7032.4995   -795.26611   -204.40167   -1280.9871   -2732.9016 
23086000    249.00151   -3897.8065   -3471.0265   -3897.8065            0     8581.654    17.024197    20.052255     20.76948    7090.1508    5862.3276    9317.5502    10565.084   -522.93711   -1435.0425   -24.444796   -2583.6613 
23087000    241.88046   -3927.0168   -3512.4419   -3927.0168            0    6887.3331    17.065503    20.100909    20.819874    7141.8856     7710.202    5810.7853    7141.0121   -409.02192   -106.34405   -129.02757   -2795.0774 
23088000    261.56802   -3900.7013   -3452.3827   -3900.7013            0    5489.2586    17.146228    20.195992    20.918358    7243.7152    6105.1812    5210.3279    5152.2668   -140.71205    908.22104    439.34299   -2872.4855 
23089000    238.46744   -3949.0954   -3540.3704   -3949.0954            0    5903.0201    17.107655    20.150558    20.871299    7194.9375    7220.7025    5591.7743    4896.5835   -1651.1859    105.69243    821.63779   -2920.9619 
23090000    250.27751   -3929.5226   -3500.5555   -3929.5226            0    5643.5386    17.131206    20.178298    20.900031     7224.693    5948.6968    5173.1921     5808.727   -926.14753   -276.12059    922.01604   -2905.9256 
23091000    243.56972    -3935.891   -3518.4209    -3935.891            0    7265.9958    17.056236    20.089993    20.808568    7130.2567    8237.6312    4495.2277    9065.1285    678.31719   -6.2085595    457.47015   -2762.8483 
23092000    257.57033   -3902.0877    -3460.621   -3902.0877            0    7287.2398    17.043293    20.074748    20.792777    7114.0368     6742.028    7571.6377    7548.0536    1842.4339    1140.0204    424.52258   -2704.5631 
23093000       237.92   -3894.0839   -3486.2972   -3894.0839            0     7457.479    16.979588    19.999712    20.715058    7034.5617    7170.1557    6204.8522    8997.4291   -568.33375   -2554.8557     -6.89472   -2721.2205 
23094000    240.28533   -3901.2623   -3489.4215   -3901.2623            0    7157.0714    17.090112    20.129895    20.849897    7172.8264    6751.2505    6997.5882    7722.3755   -1005.6164   -375.97303   -95.425691   -2740.7323 
23095000    248.09897   -3930.2059   -3504.9727   -3930.2059            0    5874.0285    17.074146    20.111088    20.830418    7152.7414     7048.322    5362.9357    5210.8277   -90.600012    355.73648   -853.57026   -2892.2211 
23096000    250.13877   -3917.9713    -3489.242   -3917.9713            0    4752.0062    17.129038    20.175745    20.897387     7221.951    4102.4612    4859.7094     5293.848    999.83102   -494.58691    479.94114   -2988.7382 
23097000    243.58457   -3927.6542   -3510.1586   -3927.6542            0    6189.4824    17.138813    20.187258    20.909312    7234.3218    7653.3234    6750.4176    4164.7064    1314.1286   -201.48093    213.06186   -2857.1362 
23098000    239.61986   -3934.6445   -3523.9442   -3934.6445            0    7780.8759    16.999346    20.022985    20.739163    7059.1475    8291.3824    7536.0798    7515.1656   -767.21792    25.920088    917.88632   -2722.8997 
23099000    261.77721   -3938.7672     -3490.09   -3938.7672            0    6035.1699    17.086376    20.125494    20.845339    7168.1232    5528.4087    6201.1875    6375.9135   -990.89645    253.08663    469.80247    -2859.175 
23100000    250.42688   -3943.6022    -3514.379   -3943.6022            0    7105.1953     17.12989    20.176748    20.898426    7223.0288    7414.9819    6752.4867    7148.1171   -358.87107    1570.4088    -49.67642   -2765.9145 
23101000    242.64663   -3932.2732   -3516.3852   -3932.2732            0    6876.7079    17.099387    20.140819    20.861212    7184.5106    7323.3017    7831.5961    5475.2258   -280.30395    384.87696   -94.059599   -2795.8526 
23102000     251.2371   -3911.5245   -3480.9127   -3911.5245            0    5210.5632    17.114061    20.158104    20.879115    7203.0235    5211.0761     7548.378    2872.2356    -331.3523   -955.96429    669.41118   -2933.5498 
23103000    244.19219   -3880.1578   -3461.6208   -3880.1578            0    8169.8766     16.98107    20.001458    20.716866     7036.404    7016.7465    8754.8124     8738.071   -676.17927    1308.7426   -909.62819   -2623.2384 
23104000    248.42118   -3915.0346   -3489.2492   -3915.0346            0    6255.5463    17.030792    20.060023    20.777526    7098.3939      6911.72    5100.2879     6754.631    -329.1985    1759.2694    534.48759   -2841.6575 
23105000    250.92293    -3878.026   -3447.9527    -3878.026            0      8279.12    17.036443    20.066679     20.78442    7105.4624       9027.2    6853.0151    8957.1449   -418.79271   -1014.8219    760.83997   -2590.0216 
23106000     236.4113   -3915.9354   -3510.7345   -3915.9354            0    6956.3849    17.107232    20.150059    20.870783    7194.4038    6229.0265    9070.3406    5569.7875   -247.47177   -446.64164   -786.52944   -2780.8498 
23107000    241.73895   -3924.5727   -3510.2404   -3924.5727            0    8055.4904    17.100981    20.142697    20.863157     7186.521    8436.1816    7030.6032    8699.6864    995.18868   -1365.9622     78.24907   -2665.9602 
23108000    256.06526   -3933.0944   -3494.2074   -3933.0944            0     5413.892    17.165335    20.218497    20.941668     7267.958      4477.49    5459.9797    6304.2062   -795.43345    686.60756   -658.32635    -2920.358 
23109000    249.66569   -3916.6159   -3488.6975   -3916.6159            0    6305.4489    17.157663    20.209461    20.932309    7258.2182    4394.0188    7978.0402    6544.2876    986.22225   -10.952952   -918.95317   -2821.2426 
23110000    241.11322   -3901.4443   -3488.1845   -3901.4443            0    6603.8521    17.123868    20.169655    20.891079    7215.4132    6628.2105    7827.4653    5355.8805    1597.3955   -2336.6335   -417.55269   -2793.2651 
23111000    265.61147   -3927.8904   -3472.6414   -3927.8904            0    6649.3683    17.097752    20.138894    20.859218    7182.4506    7519.5503    7585.3481    4843.2066    17.707548   -701.93719   -811.21738   -2776.1289 
23112000    246.68286   -3924.2346   -3501.4286   -3924.2346            0    5120.9565    17.154759     20.20604    20.928766    7254.5328    4431.8156    6024.1669    4906.8869   -105.55969      268.034   -660.82272   -2959.6318 
23113000    250.77215   -3934.0752   -3504.2603   -3934.0752            0    5374.6912    17.094176    20.134681    20.854854    7177.9442    4845.1315    3596.4907    7682.4514    425.87522   -1346.8407   -195.20523   -2941.6218 
23114000    257.45956   -3878.4831   -3437.2063   -3878.4831            0     6431.906    17.041823    20.073017    20.790985    7112.1968    5016.2566    6133.7813    8145.6801    -277.0547    962.91172   -600.74983   -2770.0626 
23115000    252.82346   -3886.9192   -3453.5885   -3886.9192            0    6970.1799    17.070054    20.106269    20.825426    7147.6009     6494.651    7278.1934    7137.6954   -1001.4232   -353.04527   -499.08745   -2727.0139 
23116000    252.46827   -3909.8545   -3477.1325   -3909.8545            0    7269.3379    17.036601    20.066865    20.784613    7105.6599    6002.7677    7737.0818    8068.1643    554.17993    722.11748   -541.75419     -2723.82 
23117000    242.01362   -3924.7777   -3509.9746   -3924.7777            0    7483.1442    17.043872     20.07543    20.793484     7114.762    8010.7988    6172.0944    8266.5394   -195.17879   -689.06293     1539.097   -2733.5123 
23118000    244.19883   -3930.5168   -3511.9683   -3930.5168            0    5585.3077    17.167705    20.221288     20.94456    7270.9689    5725.9745    7128.4948    3901.4538   -1110.8453   -473.19096   -1081.4832   -2919.7044 
23119000    256.16684    -3903.023   -3463.9618    -3903.023            0    5553.8694     17.15496    20.206277    20.929011    7254.7882    5851.3686    5404.5869    5405.6527   -321.28731     681.4765    566.89922   -2876.3422 
23120000    249.02469   -3901.4479   -3474.6281   -3901.4479            0    6265.4637    17.085139    20.124037    20.843829    7166.5663    6724.8046    6072.3082    5999.2783    1264.8187    210.19342   -1162.9242   -2819.7805 
23121000    240.81429   -3892.3396   -3479.5922   -3892.3396            0    7165.7488    17.068864    20.104867    20.823974    7146.1054    7681.7564    5871.1009    7944.3892   -1669.4875     307.1417   -927.88232   -2732.7877 
23122000     241.7882   -3848.1288   -3433.7121   -3848.1288            0    7443.7852    17.115587      20.1599    20.880976    7204.9498    6770.4995    9049.5622     6511.294   -1046.7605    982.50925    224.04516    -2651.543 
23123000    244.75425    -3922.487   -3502.9866    -3922.487            0    7611.3694    17.035153     20.06516    20.782846    7103.8482    7891.9082    6359.2341    8582.9659   -2063.9448   -87.521108    -1058.829   -2714.4309 
23124000    255.92939   -3873.3055   -3434.6513   -3873.3055            0     5818.261    17.116359     20.16081    20.881918    7205.9251    5164.6823    8134.1855    4155.9152    361.24392   -1225.5378     143.9908   -2823.2043 
23125000    264.36368   -3871.0631   -3417.9528   -3871.0631            0    8100.8905    17.153742    20.204843    20.927525     7253.243    8965.9168    8873.9147    6462.8399    62.270391    183.64952   -781.01322   -2561.0317 
23126000    247.47216   -3879.1802   -3455.0214   -3879.1802            0      7173.95    17.001614    20.025655    20.741929    7061.9725    6983.4399    7538.4782     6999.932    2.7828116   -723.57028    405.34784   -2716.1646 
23127000    257.54437   -3903.2301   -3461.8079   -3903.2301            0    6060.9056    17.056941    20.090824    20.809428    7131.1412    5645.6221    5067.6879    7469.4068   -85.250855    717.13682     1068.786   -2831.4714 
23128000    254.58759   -3886.0239   -3449.6695   -3886.0239            0    5406.5389    17.122858    20.168465    20.889847    7214.1368    5469.1437    5547.7486    5202.7244    58.432422    878.49861    1563.2846   -2880.8433 
23129000    257.20893   -3891.3639   -3450.5166   -3891.3639            0    7424.9525    17.120268    20.165415    20.886687    7210.8638    6295.3426     7998.573    7980.9419   -634.10624    1244.6658    839.82432   -2669.6859 
23130000    240.23297   -3913.2776   -3501.5266   -3913.2776            0    6908.9474    17.146897    20.196779    20.919174    7244.5626    6080.3678    9307.4914     5338.983    1394.9119    536.49576    138.19586   -2771.5651 
23131000    246.93659   -3934.9813   -3511.7405   -3934.9813            0    6555.4127    17.113403    20.157328    20.878312    7202.1923    7873.0491    7225.6628    4567.5262    1714.8417   -341.96453    66.211428   -2823.1823 
23132000    261.16667   -3915.2235   -3467.5928   -3915.2235            0    7043.3592    17.112987    20.156839    20.877804    7201.6675    7694.0785    7032.2481    6403.7509    1149.8778   -247.24503    405.07147   -2727.8363 
23133000    239.95009   -3918.8594   -3507.5932   -3918.8594            0    6168.9202    17.083313    20.121886    20.841602     7164.269    6534.5958    7135.2991    4836.8658     630.6019   -1070.8846    1039.1021   -2863.0427 
23134000     231.4243   -3933.5143    -3536.861   -3933.5143            0     5647.533     17.17147    20.225724    20.949153    7275.7542    4162.5955    6489.2128    6290.7905    144.46636   -1134.8256   -1308.9397   -2937.6046 
23135000    241.39103   -3960.7035   -3546.9675   -3960.7035            0    5354.3185    17.156338      20.2079    20.930692    7256.5359    4128.5918     5677.589    6256.7748    1033.3342    77.037203   -151.94929   -2980.3246 
23136000    255.87781   -3960.2699   -3521.7041   -3960.2699            0    5232.1406    17.117179    20.161776    20.882918    7206.9607    6179.3393    4522.0675    4995.0149     893.5548   -493.98718    97.032426    -2971.774 
23137000    243.32432   -3936.3972   -3519.3477   -3936.3972            0    7169.3806    17.061075    20.095693    20.814472    7136.3272    6960.5586     8068.192    6479.3913    599.32834    2047.6299   -844.61443   -2773.1871 
23138000     256.8349   -3931.9035   -3491.6973   -3931.9035            0    8482.0276    17.086792    20.125984    20.845847    7168.6472    8268.9698    8315.0874    8862.0257    -290.6202    822.05066    292.34523   -2604.9236 
23139000    233.29679   -3948.4061   -3548.5434   -3948.4061            0    5936.7117    17.105417    20.147921    20.868568    7192.1141    6897.3506    6308.9667    4603.8176    609.15584    -522.1904   -313.77068   -2925.8441 
23140000    246.41552   -3954.1574   -3531.8096   -3954.1574            0    5539.1038    17.180225    20.236036    20.959835    7286.8891    4274.4509    5948.4696     6394.391   -953.49563     -591.813    1522.5164    -2943.159 
23141000    242.00949   -3969.0927   -3554.2967   -3969.0927            0    8509.1584    17.087756     20.12712    20.847023    7169.8606    8391.2598    8029.5679    9106.6473    482.89463     40.93024    595.34302    -2664.536 
23142000    244.85771   -3950.4416   -3530.7639   -3950.4416            0    8427.7597    17.038824    20.069484    20.787325    7108.4418    8939.3111    7421.9149    8922.0532    731.41814   -1917.0629    2313.9787   -2657.0637 
23143000    242.71724   -3944.8987   -3528.8896   -3944.8987            0    6883.4867    17.132863     20.18025    20.902053    7226.7902    6711.9707    6539.2406    7399.2487   -1015.3768    -519.9079    220.83743   -2803.4023 
23144000     240.2684   -3914.5199   -3502.7081   -3914.5199            0    6907.2597    17.055268    20.088853    20.807387    7129.0432    7336.5806    5489.0541    7896.1442    576.82224    111.15019   -221.69461   -2784.5618 
23145000    259.89441   -3914.9331    -3469.483   -3914.9331            0    6460.7946    17.152903    20.203854    20.926501    7252.1781    7339.0263    5147.5426    6895.8151   -659.20375    191.09315   -938.15397   -2786.1533 
23146000    246.98552   -3924.8472   -3501.5225   -3924.8472            0    7993.2215    17.036476    20.066719    20.784461    7105.5042    7348.3169    7278.9258    9352.4218    899.86608   -652.61333   -679.77806    -2673.213 
23147000    240.09248   -3922.3029   -3510.7926   -3922.3029            0    7453.8328    17.065754    20.101204     20.82018    7142.2007    8611.7611    7591.0311     6158.706    1257.1815   -115.42614   -1376.5802   -2734.3889 
23148000    238.98694   -3935.7227   -3526.1073   -3935.7227            0    7746.9711    17.052424    20.085503    20.803918    7125.4774    6958.7428    7801.5786    8480.5919    26.615196   -240.82465   -321.11326   -2721.0593 
23149000    259.19567   -3909.6197   -3465.3672   -3909.6197            0    5821.9587     17.09766    20.138785    20.859106    7182.3348    4256.4373    6573.5842    6635.8547    483.38824   -170.23422   -861.88111   -2855.5346 
23150000    250.64983   -3935.6566   -3506.0513   -3935.6566            0    6133.7907    17.064466    20.099687    20.818609    7140.5838    7487.2894    5290.2183    5623.8645   -106.01471   -422.98511   -327.05896   -2867.2901 
23151000    255.70723   -3921.1707   -3482.8973   -3921.1707            0    7762.3121    17.083127    20.121667    20.841375    7164.0352    6276.0533    7919.7513    9091.1317   -195.14074    -1334.567    567.34977   -2671.8901 
23152000    242.48642   -3942.8063   -3527.1929   -3942.8063            0    7216.0073    17.044689    20.076392    20.794481    7115.7853    7582.3303    6733.7725    7331.9191   -1107.9535   -1636.7717   -39.844674   -2778.3414 
23153000    252.87803   -3917.2083    -3483.784   -3917.2083            0    8728.7272     17.03721    20.067583    20.785356    7106.4223    9410.5878    8417.9193    8357.6745    610.03114   -486.37059   -1087.9394   -2579.1397 
23154000    239.12195   -3915.2049   -3505.3581   -3915.2049            0    5931.1482    17.021329    20.048877    20.765982    7086.5686    4791.7491    5467.8142    7533.8815   -515.31611   -153.74086    1471.7086   -2892.3719 
23155000     251.9116   -3932.2122   -3500.4444   -3932.2122            0    4242.4446    17.047079    20.079208    20.797397    7118.7794    5790.0429    2372.9724    4564.3185   -42.697939    704.77905    173.80284   -3059.9934 
23156000    238.89137   -3958.5296    -3549.078   -3958.5296            0    7275.8749     17.02293    20.050763    20.767934    7088.5679    7223.2311    7816.3591    6788.0345   -96.377616    483.94927     1024.446   -2796.9018 
23157000    238.99272   -3927.7428   -3518.1175   -3927.7428            0    5695.1861    17.085552    20.124523    20.844333     7167.086    6950.0593    5663.4441    4472.0549    909.02745    1037.4819    -380.4125   -2922.8305 
23158000    248.82418   -3955.5756   -3529.0995   -3955.5756            0    6031.2991    17.131297    20.178405    20.900143    7224.8084    6201.8953    6442.3403    5449.6618    1061.4052   -299.16508   -1594.6053   -2893.6031 
23159000    247.49885   -3935.6096    -3511.405   -3935.6096            0      5335.01    17.064744    20.100014    20.818948    7140.9325    6878.4389     5302.119     3824.472    762.92521    36.245401   -707.20206   -2955.8001 
23160000    257.92089   -3911.7169   -3469.6493   -3911.7169            0    9050.3301    17.045657    20.077532    20.795662    7116.9976    9880.8372    9621.7805    7648.3725   -635.14337     625.6004    373.54475   -2530.2784 
23161000    241.58599   -3954.6322   -3540.5621   -3954.6322            0    6451.2532    17.111736    20.155365    20.876278    7200.0879    8425.3055    5042.9471    5885.5071   -785.77191    466.36336   -736.93637   -2863.1425 
23162000    249.81795   -3934.3656   -3506.1862   -3934.3656            0     6490.879    17.087641    20.126984    20.846882    7169.7151    6696.8019    7001.1893    5774.6456    291.02882    507.01481   -1450.1721   -2827.4808 
23163000    249.84439   -3917.7038    -3489.479   -3917.7038            0    6659.8562    17.031098    20.060384      20.7779     7098.777    7944.8695    5999.5444    6035.1546   -1127.2906   -423.85743   -1040.9418   -2799.9949 
23164000    243.73885   -3936.3487   -3518.5886   -3936.3487            0    6407.2292    17.048324    20.080674    20.798915    7120.3386    6601.5827    7139.9645    5480.1405   -1929.8807   -520.23708   -742.93827   -2853.2438 
23165000    258.51139   -3947.8202   -3504.7405   -3947.8202            0    5032.2146    17.096514    20.137435    20.857707    7180.8896    7473.9718    3820.0869    3802.5851   -108.68626    212.12378    164.36851   -2977.7372 
23166000    245.32923   -3900.6064   -3480.1205   -3900.6064            0    5659.4041    17.144015    20.193385    20.915658    7240.9104    5987.3189    4626.9377    6363.9556   -506.40578    659.81888    921.85818   -2882.4803 
23167000    241.66003   -3953.5341    -3539.337   -3953.5341            0    6429.2184    17.086486    20.125623    20.845473    7168.2614    6138.7017    6622.3259    6526.6276    1152.8615     609.4253    823.96274   -2867.2154 
23168000      254.693   -3914.8562   -3478.3211   -3914.8562            0    6892.5752    17.126957    20.173293    20.894848    7219.3189    4589.9409    9376.9276     6710.857   -63.338906    120.74937    112.77782   -2752.6269 
23169000    252.88761   -3892.1049   -3458.6642   -3892.1049            0    7398.0749    17.112179    20.155886    20.876818    7200.6471     6681.381    7981.2102    7531.6335    917.00026    46.636132   -895.38082   -2681.7624 
23170000    251.23832   -3913.6467   -3483.0328   -3913.6467            0    6275.1564    17.107365    20.150216    20.870945    7194.5712    5789.6438    7932.3203    5103.5051    841.66206    963.86682   -395.54403   -2824.6092 
23171000     247.9908    -3903.643   -3478.5953    -3903.643            0    7264.6092     17.12374    20.169504    20.890923    7215.2514    7196.7649    7358.1886    7238.8741   -769.68517     501.0782    599.99181   -2714.1619 
23172000    248.20145   -3928.8373   -3503.4286   -3928.8373            0    6291.7027    17.130299     20.17723    20.898925    7223.5457      7230.23     4115.801     7529.077   -1061.4324    510.76777    52.231932   -2840.6102 
23173000    245.65517   -3933.0662   -3512.0216   -3933.0662            0    9254.2452      17.0517     20.08465    20.803034    7124.5692      10193.6    9450.8043    8118.3313    85.535744   -811.70336    -87.02494   -2550.4636 
23174000    248.17337   -3968.0901   -3542.7294   -3968.0901            0     5846.809    17.119817    20.164884    20.886137     7210.294    5769.3284    6964.6209    4806.4778   -916.73002     225.0965   -858.35744   -2927.9097 
23175000    263.68874   -3952.1813   -3500.2279   -3952.1813            0    6431.0079    17.111793    20.155432    20.876348    7200.1602    6328.2328    7472.4242    5492.3668      60.0591   -1006.2942    1603.8143   -2824.9273 
23176000    247.69683   -3934.8052   -3510.2614   -3934.8052            0    9716.1158    17.047738    20.079984    20.798201    7119.6048    9654.1636    10255.011    9239.1727    -752.0687    739.69705    188.73629   -2501.4163 
23177000    262.72377   -3944.3938   -3494.0943   -3944.3938            0    5826.9865    17.125356    20.171407    20.892894    7217.2943    5816.0377    6155.3985    5509.5232     1911.988   -991.20099    311.43273   -2880.7641 
23178000    257.24851   -3946.4023   -3505.4871   -3946.4023            0    6073.1549    17.074647    20.111679    20.831029    7153.3714    7159.4031    5417.3498    5642.7117    575.64022   -112.44728   -80.266688   -2871.9078 
23179000    249.53819   -3943.7539    -3516.054   -3943.7539            0    6092.7239    17.080017    20.118004    20.837581    7160.1227    6591.6833    4652.3513    7034.1372   -527.66188    167.00195     212.4149   -2879.8332 
23180000    241.99788   -3945.1796   -3530.4035   -3945.1796            0    5399.0274    17.096312    20.137198    20.857461     7180.636    8270.8897    2863.9348    5062.2576   -881.53422    597.00815   -326.20505   -2965.0054 
23181000    249.76235    -3929.465   -3501.3809    -3929.465            0    6444.7874    17.106381    20.149057    20.869744    7193.3298    5552.2622    8202.7464    5579.3537    225.32009   -1475.0939   -964.78783   -2825.2754 
23182000    264.28932   -3931.6147   -3478.6318   -3931.6147            0    6735.6199    17.050428    20.083152    20.801482     7122.975     7786.174    5287.9718    7132.7138    96.891134   -152.38503   -79.128212    -2778.927 
23183000    243.09063   -3942.4563   -3525.8073   -3942.4563            0    8653.6411    17.016528    20.043222    20.760124    7080.5735    10810.599    8278.2169    6872.1072   -629.51516   -94.627743   -2808.3547   -2632.2072 
23184000    237.81929   -3949.1234   -3541.5093   -3949.1234            0    4397.3639    17.146537    20.196355    20.918735    7244.1065    4060.2468    5193.6087    3938.2364     117.7889    1085.0186   -855.75678   -3076.9372 
23185000    256.92428   -3925.4383   -3485.0789   -3925.4383            0    5476.7754    17.169091    20.222921    20.946251    7272.7305    6421.4246    5458.5132    4550.3882    -661.7348   -996.95644    5.4856439    -2904.183 
23186000    259.67878   -3919.3503   -3474.2698   -3919.3503            0     5991.988    17.172284    20.226682    20.950147    7276.7891    6416.1486    5376.3798    6183.4357    496.67252    613.50569   -1268.7144    -2838.373 
23187000    243.75391   -3898.2362   -3480.4503   -3898.2362            0    6763.1299    17.028321    20.057113    20.774512    7095.3051    7109.4968    8013.8963    5165.9966    886.65498    635.58983   -1872.4711   -2780.6168 
23188000    247.25508   -3869.1987   -3445.4119   -3869.1987            0    7722.6867    17.036296    20.066506    20.784241    7105.2785    8150.1783     7855.569    7162.3126    797.33975    515.99955    -176.3797   -2645.1624 
23189000    240.91567   -3911.7022    -3498.781   -3911.7022            0    8207.6261    17.012549    20.038536     20.75527     7075.608    7878.7872     7254.429     9489.662     619.7894    806.89131   -1617.3327   -2651.8321 
23190000    260.09346   -3891.6708   -3445.8795   -3891.6708            0    7107.8658    17.028142    20.056902    20.774293    7095.0811     6089.369    8725.6173    6508.6111   -1401.3478   -287.42407   -1332.6473   -2710.3968 
23191000    256.78518    -3898.745    -3458.624    -3898.745            0    7540.4681    17.046889    20.078983    20.797164    7118.5405    8678.3717      6719.48    7223.5525    346.24811    1428.7727   -148.99964   -2675.7982 
23192000    255.35728   -3916.9649   -3479.2913   -3916.9649            0    6979.1168    16.992577    20.015011    20.730904     7050.718    9009.0502    4703.5958    7224.7045   -347.03199    446.92052     665.2349   -2761.6462 
23193000    250.41751   -3882.5016   -3453.2946   -3882.5016            0     6340.695    17.094726    20.135329    20.855525     7178.637    5614.9836    7498.3388    5908.7626   -1187.7292    -740.6786   -459.89394   -2789.4678 
23194000    258.62242   -3884.9462   -3441.6762   -3884.9462            0    7241.1479    17.048216    20.080546    20.798784    7120.2034    7219.5345     7912.037    6591.8721    406.48229   -1511.8217   -187.20282   -2689.7492 
23195000     252.3217   -3908.5182   -3476.0475   -3908.5182            0    6761.4813    17.071458    20.107922    20.827139    7149.3642    6753.4913    6571.9213    6959.0313   -998.61105    439.16914   -47.699214   -2771.0539 
23196000     246.7471   -3890.6026   -3467.6865   -3890.6026            0    6992.9202    17.026226    20.054645    20.771956    7092.6865    8074.7486    4534.6833    8369.3287    1465.5491   -1525.6186   -98.418693   -2744.3419 
23197000    248.38315   -3898.2942   -3472.5739   -3898.2942            0    5900.6446    17.138034    20.186341    20.908362    7233.3355    5534.3597     5646.227    6521.3471   -1254.7266   -1393.9121    1283.0095   -2850.1104 
23198000    242.04063   -3892.3119   -3477.4625   -3892.3119            0    6420.4379    17.142597    20.191714    20.913928    7239.1137    5248.4465    8110.1318    5902.7354   -1559.6597    -848.7503   -676.91534   -2799.6245 
23199000    257.19397   -3916.7606   -3475.9389   -3916.7606            0    6446.8271    17.122861    20.168469    20.889851    7214.1407    7835.4029    6307.1686      5197.91   -245.27013    985.65322   -633.88899   -2797.6628 
23200000    247.50982   -3902.6776   -3478.4542   -3902.6776            0    6871.2929    17.065606     20.10103    20.819999    7142.0144     7183.086    6250.3861    7180.4065    275.09715    684.95304     294.8122   -2762.7475 
23201000    255.25624   -3922.2292   -3484.7287   -3922.2292            0    6413.1508    17.095174    20.135857    20.856073    7179.2025     6194.945    5107.7455    7936.7619    488.99044   -46.955907   -1636.7955   -2813.2635 
23202000    251.49519   -3932.3369   -3501.2827   -3932.3369            0    3788.8874    17.133668    20.181197    20.903034    7227.8078    3805.9712    2857.5564    4703.1348   -674.35051   -121.02945   -866.50013   -3101.8955 
23203000    245.92671   -3937.6304   -3516.1204   -3937.6304            0    6538.8643    17.041842    20.073039    20.791007    7112.2201    7053.1196    7164.6244     5398.849   -532.44153   -725.56058   -457.03608   -2837.8804 
23204000    248.83003   -3961.3003   -3534.8142   -3961.3003            0    4993.7766    17.085109    20.124001    20.843793    7166.5283    5333.0519    6299.2161    3349.0618    273.76756    41.980898    858.82335   -3012.8823 
23205000    248.61456   -3940.2041   -3514.0872   -3940.2041            0    6276.4897    17.045799    20.077699    20.795835    7117.1754    6447.3513    5358.2395    7023.8782   -2066.0972     1460.313    437.48167   -2862.6083 
23206000    249.02694    -3930.393   -3503.5693    -3930.393            0    6740.0499    17.031111    20.060399    20.777915    7098.7927    7450.8543    6627.0718    6142.2237   -446.02605    1572.4977   -533.40643   -2805.7813 
23207000    255.13522    -3936.779    -3499.486    -3936.779            0    5568.4902    17.128387    20.174978    20.896592    7221.1274    2098.3445    6231.8502    8375.2759    247.24263    500.87171     590.0662    -2913.053 
23208000    242.99564   -3900.3022    -3483.816   -3900.3022            0    6180.1892    17.149819    20.200221    20.922739    7248.2671    3725.1613    5815.3029    9000.1035    1776.9336    25.022652     -1256.43   -2830.5172 
23209000    244.21884    -3911.927   -3493.3443    -3911.927            0    7619.2556    17.096636    20.137579    20.857856    7181.0443    6718.1783    7421.1047    8718.4838    609.97995    -1311.968   -1864.7631   -2695.3936 
23210000    256.67626   -3912.1025   -3472.1682   -3912.1025            0    6123.7906    17.088734    20.128271    20.848215     7171.091    6323.1876    5582.4356    6465.7485     225.3189   -666.37979    5.7421011   -2831.7238 
23211000    247.53134   -3946.5125   -3522.2523   -3946.5125            0    6274.3575    17.105346    20.147838    20.868482    7192.0245    7070.1857     4558.792    7194.0947    648.47657    409.10549    1258.5403   -2864.1456 
23212000    256.81885   -3925.6882   -3485.5095   -3925.6882            0    7247.4204    17.015179    20.041633    20.758479    7078.8897    6974.0458    7085.1518    7683.0636    1163.1519    622.66353   -616.20706   -2737.2978 
23213000    261.99235   -3908.2349    -3459.189   -3908.2349            0    7914.8839    17.003863    20.028305    20.744673     7064.776    8218.6848     7739.496    7786.4708    1252.3749   -400.96724    1281.3847   -2643.6986 
23214000     248.4937   -3922.2713   -3496.3616   -3922.2713            0    6369.7929    17.047226     20.07938    20.797576    7118.9632    5857.0564    6398.1683     6854.154    136.32906   -513.72042    262.87294    -2835.032 
23215000    236.75879   -3964.5922   -3558.7957   -3964.5922            0    7456.7225    16.992181    20.014545    20.730421    7050.2248    8011.9137    7491.5694    6866.6844   -399.92094   -656.94823   -241.07193   -2792.0933 
23216000    246.20526   -3938.3658   -3516.3784   -3938.3658            0    6243.8036    17.014806    20.041194    20.758023    7078.4239    7983.2059    6858.8964    3889.3084   -142.05262   -1024.1499   -1076.0156   -2871.8208 
23217000    243.47109   -3950.2836   -3532.9825   -3950.2836            0    7357.6589     17.01539    20.041881    20.758736    7079.1528    5977.7929    7912.2813    8182.9024     82.11814    557.39172    1495.2283   -2773.3618 
23218000    255.45546   -3930.2783   -3492.4364   -3930.2783            0    7775.1731    17.032132    20.061601    20.779161    7100.0697    7868.6728    8062.7459    7394.1006   -2084.3342    211.48818   -907.85094   -2687.3387 
23219000    254.83984   -3937.4909   -3500.7042   -3937.4909            0    6379.1584     17.07345    20.110268    20.829569    7151.8669    6460.1382    5291.8408    7385.4964    689.55515    1859.3345   -650.38611   -2835.3411 
23220000    232.45142   -3914.4022   -3515.9884   -3914.4022            0    6531.2166    17.045305    20.077118    20.795232    7116.5566    4234.8724    8632.4488    6726.3286   -605.70662   -869.95818   -524.55291   -2838.1286 
23221000    249.24706   -3928.2691   -3501.0682   -3928.2691            0    6474.1868    17.099728    20.141221    20.861629    7184.9412    5862.0868    6701.5986     6858.875   -639.55187    54.117903   -247.46761   -2822.6706 
23222000    238.20635   -3928.3049   -3520.0274   -3928.3049            0    6809.7316    17.079845    20.117802    20.837372    7159.9072    4450.8785    7799.4844    8178.8319    -795.9765    1181.2614   -384.47208   -2808.9559 
23223000    250.25833   -3947.1031   -3518.1689   -3947.1031            0    5750.6309    17.067269    20.102989    20.822029    7144.1032    7272.3941    3885.4538    6094.0448   -115.62307   -536.51008    515.30259    -2919.014 
23224000    235.83045   -3883.3514   -3479.1461   -3883.3514            0    8949.4881    17.043181    20.074616    20.792641    7113.8963    6593.7991    11041.508    9213.1574    1088.3519    579.82323   -841.20974   -2550.6467 
23225000    241.26479   -3919.9227   -3506.4031   -3919.9227            0    7608.6284    17.008753    20.034064    20.750639    7070.8722    7163.9962    7521.6216    8140.2675   -1498.8739    924.92589    25.408651   -2721.7905 
23226000    239.75943   -3899.7906   -3488.8511   -3899.7906            0    5332.2095    17.091905    20.132007    20.852084    7175.0845    5467.0803    5999.7768    4529.7715    831.35407    1942.4464    1036.5058   -2930.8821 
23227000    251.33738   -3875.0702   -3444.2865   -3875.0702            0    5883.0116    17.161229     20.21366    20.936659    7262.7436    4615.6354    6292.4682    6740.9311   -62.808967   -210.73631    -1057.228   -2821.1599 
23228000    247.52152   -3897.6898   -3473.4464   -3897.6898            0    6679.0541    17.051466    20.084375    20.802749    7124.2763     7511.106     6244.454    6281.6023   -526.70031   -221.46842    2371.0959    -2779.491 
23229000    252.67055   -3910.8683   -3477.7996   -3910.8683            0    6005.6254    17.167422    20.220956    20.944215      7270.61    5599.7429    6243.0881     6174.045   -248.18661   -149.15203    646.67083   -2840.9968 
23230000    251.28449   -3880.2301   -3449.5371   -3880.2301            0    6357.2198    17.071126    20.107531    20.826733    7148.9468    5105.9527    7290.2369    6675.4697    583.61332   -590.81853     661.2091    -2786.733 
23231000    251.17166   -3900.6593   -3470.1597   -3900.6593            0    7749.9143    17.070301    20.106559    20.825727    7147.9103    6742.1607    8130.2881    8377.2942   -738.99334    393.42366    665.11222   -2662.2703 
23232000     251.4815   -3903.1615   -3472.1309   -3903.1615            0    6341.2422    17.041684    20.072853    20.790815    7112.0225    6654.9941    6331.5631    6037.1695   -125.50743     534.6322    792.55959   -2814.4074 
23233000    243.72166   -3892.0333   -3474.3027   -3892.0333            0    7575.7598    17.030907    20.060159    20.777667    7098.5382    7803.6863    6818.0021    8105.5909   -1106.9996   -454.48721   -508.91165   -2690.0229 
23234000    252.14833   -3897.6173   -3465.4437   -3897.6173            0    6245.5955     17.09933    20.140753    20.861143    7184.4396    6486.0406    6017.9478    6232.7982    720.40883    797.77121    530.72687   -2811.0446 
23235000    248.47812   -3924.9213   -3499.0383   -3924.9213            0    7075.2588    17.046539    20.078571    20.796738    7118.1025    6643.7358    7482.1782    7099.8625    1003.0376   -542.67703    165.18523   -2764.5541 
23236000    241.93932   -3887.8889   -3473.2132   -3887.8889            0    6533.9035    17.063929    20.099055    20.817954    7139.9098    7788.0458    6116.9883    5696.6764   -193.39421    337.46229   -451.85265   -2792.8492 
23237000    245.87477   -3911.6224   -3490.2014   -3911.6224            0    5775.2889    17.124085     20.16991    20.891344    7215.6874    5901.6657    5814.5179    5609.6832   -1178.6589   -1164.6503   -185.76555   -2882.4481 
23238000    252.97016   -3886.6896   -3453.1075   -3886.6896            0    7579.7035    17.054745    20.088237    20.806749    7128.3876    7049.2702    8482.2009    7207.6395   -64.679967    -614.0282    -1549.109   -2665.1198 
23239000    250.29583   -3926.8336   -3497.8351   -3926.8336            0    5699.0387    17.092682    20.132922    20.853033    7176.0633    6148.9331    5543.3967    5404.7862   -936.53631   -52.440473   -1585.3725   -2901.3992 
23240000    251.09628   -3912.2377   -3481.8672   -3912.2377            0    4621.4499    17.150915    20.201513    20.924077    7249.6578    4630.4531    5850.3721    3383.5246    11.527192    107.89821   -639.77599   -2993.2468 
23241000    238.24278    -3918.836    -3510.496    -3918.836            0    6238.2142    17.066282    20.101826    20.820824    7142.8629    7107.7941    4887.6751    6719.1734     672.9738   -910.99108   -486.79349   -2860.6529 
23242000    253.49803   -3928.6509    -3494.164   -3928.6509            0    6646.2362    17.082495    20.120922    20.840604    7163.2394    5236.9233    6601.3967    8100.3888    1334.1709   -720.75913   -978.03832   -2799.8417 
23243000    255.21048   -3892.7552   -3455.3332   -3892.7552            0    7774.2586    17.088942    20.128516    20.848469     7171.353    6432.3927    6975.5976    9914.7856    271.38448   -936.50401   -62.974062   -2642.2481 
23244000    258.17146   -3915.3972   -3472.9002   -3915.3972            0    7408.6395    17.020166    20.047507    20.764563     7085.116    6127.5118    7032.4295    9065.9772   -66.665924    97.338731   -856.05621   -2707.3718 
23245000    256.05437   -3900.7405   -3461.8721   -3900.7405            0    6489.6469    17.128322      20.1749    20.896512    7221.0444    6079.0784    7306.2708    6083.5913    656.02276   -347.42221    -1426.165   -2778.4375 
23246000    239.14347   -3882.4958   -3472.6121   -3882.4958            0    4374.2161     17.14636    20.196147    20.918519    7243.8827      6814.35    3631.1751    2677.1232   -520.51504    760.79124   -511.96307   -3010.4998 
23247000    242.41744   -3891.0164   -3475.5212   -3891.0164            0    8442.3016    17.075053    20.112157    20.831525    7153.8818    8217.1875    7417.8238    9691.8936   -1419.7993    46.838275   -897.67069   -2594.7188 
23248000    255.75116   -3869.1053   -3430.7566   -3869.1053            0    6942.3125    17.041303    20.072404     20.79035    7111.5456     6293.325    6862.4827      7671.13   -1660.7039    107.74288   -413.41002   -2710.7374 
23249000    241.13409   -3881.7867   -3468.4911   -3881.7867            0    6806.9171    17.000404    20.024231    20.740454    7060.4658    7343.9281    6736.9035    6339.9198   -2009.6429    469.58145   -459.01594   -2767.5852 
23250000    262.12306   -3873.4322   -3424.1623   -3873.4322            0     6312.495    17.092329    20.132506    20.852602    7175.6182    4989.6078    8335.7951    5612.0821   -246.22757   -1516.8052    728.49532   -2763.5658 
Loop time of 434.001 on 64 procs for 250000 steps with 864 atoms

Performance: 99.539 ns/day, 0.241 hours/ns, 576.035 timesteps/s
99.1% CPU use with 64 MPI tasks x 1 OpenMP threads

MPI task timing breakdown:
Section |  min time  |  avg time  |  max time  |%varavg| %total
---------------------------------------------------------------
Pair    | 20.168     | 26.104     | 29.879     |  49.4 |  6.01
Bond    | 0.27019    | 0.28112    | 0.29138    |   0.9 |  0.06
Kspace  | 188.45     | 195.22     | 212.4      |  32.0 | 44.98
Neigh   | 4.9206     | 5.4458     | 6.9129     |  18.1 |  1.25
Comm    | 83.752     | 98.502     | 105.82     |  40.8 | 22.70
Output  | 1.1301     | 1.1304     | 1.1317     |   0.0 |  0.26
Modify  | 100.18     | 102.42     | 105.73     |  16.0 | 23.60
Other   |            | 4.894      |            |       |  1.13

Nlocal:        13.5000 ave          20 max           8 min
Histogram: 2 3 5 10 13 18 9 3 0 1
Nghost:        2224.34 ave        2256 max        2197 min
Histogram: 3 7 7 9 7 14 10 2 4 1
Neighs:        4294.69 ave        6729 max        2119 min
Histogram: 1 1 9 9 20 11 7 5 0 1

Total # of neighbors = 274860
Ave neighs/atom = 318.12500
Ave special neighs/atom = 2.0000000
Neighbor list builds = 12653
Dangerous builds = 1

unfix		3
unfix		2
unfix		1

write_data	data.final.${pid}
write_data	data.final.0
System init for write_data ...
PPPM initialization ...
  extracting TIP4P info from pair style
  using 12-bit tables for long-range coulomb (../kspace.cpp:340)
  G vector (1/distance) = 0.37369265
  grid = 24 24 24
  stencil order = 5
  estimated absolute RMS force accuracy = 0.0032265298
  estimated relative force accuracy = 9.7165987e-06
  using double precision FFTW3
  3d grid and FFT values/proc = 2535 216
Last active /omp style is kspace_style pppm/tip4p/omp
WARNING: Not all mixed pair coeffs generated from mixing. Use write_data with 'pair ij' option to store all pair coeffs. (../write_data.cpp:312)

write_restart   restart.lmp.${pid}
write_restart   restart.lmp.0
System init for write_restart ...
PPPM initialization ...
  extracting TIP4P info from pair style
  using 12-bit tables for long-range coulomb (../kspace.cpp:340)
  G vector (1/distance) = 0.37369265
  grid = 24 24 24
  stencil order = 5
  estimated absolute RMS force accuracy = 0.0032265298
  estimated relative force accuracy = 9.7165987e-06
  using double precision FFTW3
  3d grid and FFT values/proc = 2535 216
Last active /omp style is kspace_style pppm/tip4p/omp
Total wall time: 0:07:17
