LAMMPS (30 Jul 2021)
Processor partition = 1
  using 4 OpenMP thread(s) per MPI task
using multi-threaded neighbor list subroutines
variable        pid world 0 1
variable        phase world IceIh Liquid

shell cd ${phase}
shell cd Liquid
include Restart.lmp
echo both
log log.lammps
#include		in.partitions
include		in.temp
variable        temperature equal 273.20
variable	tempDamp equal 100.0
include		in.pressure
variable        pressure equal -500.0
variable        pressureDamp equal 1000.0 # This is 1 ps
include		in.seed
variable        seed equal 745823

units		real
atom_style	full
read_restart	restart.lmp.${pid}
read_restart	restart.lmp.1
Reading restart file ...
  restart file = 30 Jul 2021, LAMMPS = 30 Jul 2021
  restoring atom style full from restart
  orthogonal box = (-0.10332245 0.96983107 -0.12605315) to (18.310895 22.659347 22.339249)
  2 by 2 by 4 MPI processor grid
  restoring pair style lj/cut/tip4p/long/omp from restart
  restoring bond style harmonic/omp from restart
  restoring angle style harmonic/omp from restart
  864 atoms
  576 bonds
  288 angles
Finding 1-2 1-3 1-4 neighbors ...
  special bond factors lj:    0        0        0       
  special bond factors coul:  0        0        0       
     2 = max # of 1-2 neighbors
     1 = max # of 1-3 neighbors
     1 = max # of 1-4 neighbors
     2 = max # of special neighbors
  special bonds CPU = 0.001 seconds
  read_restart CPU = 0.006 seconds
include 	in.setup
variable	out_freq equal 1000
variable	out_freq2 equal 10000
variable	out_freq3 equal 1000

timestep	2.0

neigh_modify    delay 7 every 1

include		in.tip4p
# This is TIP4P/Ice

# create groups ###
group ox type 2
288 atoms in group ox
group hy type 1
576 atoms in group hy

# set charges - beside manually ###
set group ox charge -1.1794
Setting atom values ...
  288 settings made for charge
set group hy charge 0.5897
Setting atom values ...
  576 settings made for charge

# ### TIP3P Potential Parameters ###
pair_style lj/cut/tip4p/long/omp 2 1 1 1 0.1577 8.5
pair_coeff 1 1*2 0.000 0.000
pair_coeff 2 2 0.21084 3.1668
bond_style  harmonic
bond_coeff  1 450 0.9572
angle_style harmonic
angle_coeff 1 55 104.52
kspace_style pppm/tip4p/omp 1.0e-5
pair_modify tail yes

thermo          ${out_freq}
thermo          1000
thermo_style    custom step temp pe etotal epair emol press lx ly lz vol pxx pyy pzz pxy pxz pyz enthalpy

restart 	${out_freq3} restart.lmp.${pid} restart2.lmp.${pid}
restart 	1000 restart.lmp.${pid} restart2.lmp.${pid}
restart 	1000 restart.lmp.1 restart2.lmp.${pid}
restart 	1000 restart.lmp.1 restart2.lmp.1


include         in.dump
dump            myDump all atom ${out_freq2} dump.water.${pid}
dump            myDump all atom 10000 dump.water.${pid}
dump            myDump all atom 10000 dump.water.1
dump            myDump2 all dcd ${out_freq2} dump.dcd
dump            myDump2 all dcd 10000 dump.dcd
dump_modify     myDump append yes
dump_modify     myDump2 append yes


variable natoms 	equal  "count(all)"                        # NUMBER ATOMS
variable H      	equal  "enthalpy/v_natoms"                 # ENTHALPY-per-atom
variable Vol      	equal  "vol/v_natoms"                 # volume-per-atom
fix AVG all 		ave/time ${out_freq} 1 ${out_freq} v_Vol v_H file vol_enthalpy.dat
fix AVG all 		ave/time 1000 1 ${out_freq} v_Vol v_H file vol_enthalpy.dat
fix AVG all 		ave/time 1000 1 1000 v_Vol v_H file vol_enthalpy.dat


timer           timeout 23:50:00 every 1000
New timer settings: style=normal  mode=nosync  timeout=23:50:00

fix 		1 all shake 1e-6 200 0 b 1 a 1
Finding SHAKE clusters ...
       0 = # of size 2 clusters
       0 = # of size 3 clusters
       0 = # of size 4 clusters
     288 = # of frozen angles
  find clusters CPU = 0.000 seconds
fix             2 all nph iso ${pressure} ${pressure} ${pressureDamp}
fix             2 all nph iso -500 ${pressure} ${pressureDamp}
fix             2 all nph iso -500 -500 ${pressureDamp}
fix             2 all nph iso -500 -500 1000
fix             3 all temp/csvr ${temperature} ${temperature} ${tempDamp} ${seed}
fix             3 all temp/csvr 273.2 ${temperature} ${tempDamp} ${seed}
fix             3 all temp/csvr 273.2 273.2 ${tempDamp} ${seed}
fix             3 all temp/csvr 273.2 273.2 100 ${seed}
fix             3 all temp/csvr 273.2 273.2 100 745823

run             250000
PPPM initialization ...
  extracting TIP4P info from pair style
  using 12-bit tables for long-range coulomb (../kspace.cpp:340)
  G vector (1/distance) = 0.37297732
  grid = 24 25 27
  stencil order = 5
  estimated absolute RMS force accuracy = 0.0029974575
  estimated relative force accuracy = 9.0267543e-06
  using double precision FFTW3
  3d grid and FFT values/proc = 6300 1200
Last active /omp style is kspace_style pppm/tip4p/omp
Neighbor list info ...
  update every 1 steps, delay 7 steps, check yes
  max neighbors/atom: 2000, page size: 100000
  master list distance cutoff = 10.8154
  ghost atom cutoff = 10.8154
  binsize = 5.4077, bins = 4 5 5
  1 neighbor lists, perpetual/occasional/extra = 1 0 0
  (1) pair lj/cut/tip4p/long/omp, perpetual
      attributes: half, newton on, omp
      pair build: half/bin/newton/omp
      stencil: half/bin/3d
      bin: standard
Setting up Verlet run ...
  Unit style    : real
  Current step  : 2000000
  Time step     : 2
  Walltime left : 23:49:59.95
Per MPI rank memory allocation (min/avg/max) = 12.22 | 12.24 | 12.26 Mbytes
Step Temp PotEng TotEng E_pair E_mol Press Lx Ly Lz Volume Pxx Pyy Pzz Pxy Pxz Pyz Enthalpy 
 2000000    285.88316   -3822.8252   -3332.8312   -3822.8252            0   -404.84877    18.414217    21.689516    22.465302    8972.5396   -1625.8963    224.86454    186.48545    -824.7614    24.209483    1145.1575   -3385.8078 
 2001000    279.10164   -3836.1496   -3357.7789   -3836.1496            0    391.90385    18.342243     21.60474    22.377494    8867.7394    964.86232   -45.191597    256.04082    648.61147   -170.64687    211.61117   -3307.0952 
 2002000    268.19974   -3813.7101   -3354.0249   -3813.7101            0    668.67997    18.453942    21.736306    22.513766    9030.7338    920.72762    347.22027    738.09203    1140.8904    586.08469    869.59014   -3265.9571 
 2003000    272.78751   -3830.5865   -3363.0381   -3830.5865            0   -755.77391    18.484928    21.772803    22.551568    9076.3002   -421.89581   -1095.0521   -750.37386   -385.58698   -365.87171    286.16421   -3463.0788 
 2004000    270.63551   -3870.7712   -3406.9112   -3870.7712            0   -351.18147    18.391546    21.662811    22.437643    8939.4393   -476.65248     -321.429   -255.46291    616.74932   -665.67062    622.89943   -3452.6956 
 2005000    269.84325   -3837.9327   -3375.4307   -3837.9327            0   -1.6177447    18.322755    21.581786    22.353719     8839.505   -1246.7104    1759.9417    -518.0846    782.44643    72.707275   -200.74219   -3375.6392 
 2006000    281.62248    -3828.237   -3345.5457    -3828.237            0   -371.15969    18.312862    21.570132    22.341648    8825.1933   -953.93281   -381.22292    221.67665   -582.08202    1194.3805     889.8065   -3393.3163 
 2007000    263.53753   -3795.8007   -3344.1064   -3795.8007            0   -941.56325    18.404423     21.67798    22.453354    8958.2307   -1971.6144   -920.83952    67.764212    760.32447    457.92626    927.50499   -3467.1184 
 2008000    271.35818   -3785.3213   -3320.2226   -3785.3213            0   -1162.1718    18.415818    21.691401    22.467255    8974.8795   -2095.8268   -1477.3286    86.639988   -463.21862    361.73534    1245.4869   -3472.3386 
 2009000    292.25558   -3828.2879   -3327.3719   -3828.2879            0    -57.57194    18.455585    21.738241     22.51577    9033.1456    1051.4907   -1040.7484   -183.45818   -228.66094    169.84911    165.42873   -3334.9563 
 2010000    264.84792   -3770.8138   -3316.8735   -3770.8138            0    24.760343    18.421831    21.698483     22.47459    8983.6734    626.55713   -138.56868   -413.70742    767.17915   -141.05647    2025.1367   -3313.6295 
 2011000    272.48958   -3791.5676   -3324.5298   -3791.5676            0    820.62446    18.394261    21.666009    22.440955    8943.3987    714.80782    631.32636    1115.7392   -719.69206     288.1633    281.96067   -3217.4955 
 2012000    298.81585    -3794.484   -3282.3239    -3794.484            0    425.19143    18.302117    21.557476     22.32854    8809.6685    1999.7358   -955.29432    231.13275   -699.93028     185.4995   -693.79837   -3227.6953 
 2013000    283.32406   -3806.8365   -3321.2287   -3806.8365            0    1613.5943    18.221374    21.462371    22.230033    8693.5853    1055.1908    2018.3986    1767.1934   -102.04038    1620.7077    -665.1369   -3116.6459 
 2014000    255.00712   -3807.0117   -3369.9383   -3807.0117            0    650.47777    18.121012    21.344158    22.107592    8550.7248    183.93909    1193.3696    574.12461   -256.38302    1370.5072    690.15251   -3288.8214 
 2015000    266.88074   -3801.2776   -3343.8532   -3801.2776            0    156.73461    18.154581    21.383699    22.148547    8598.3339   -541.78106    604.28638    407.69849    435.95663   -61.453801    76.696922    -3324.199 
 2016000    284.34015   -3805.7326   -3318.3833   -3805.7326            0   -2194.4288    18.210673    21.449767    22.216978    8678.2782   -4192.1346   -137.91363    -2253.238   -567.52872   -522.61649    638.75867   -3596.1185 
 2017000    275.26253   -3794.9089   -3323.1184   -3794.9089            0    904.28697    18.207119    21.445581    22.212642     8673.198    681.68255    675.19379    1355.9846   -7.8703023     382.4779   -638.41651   -3208.7354 
 2018000    264.22261   -3835.7222   -3382.8537   -3835.7222            0   -1457.1533    18.200395    21.437661    22.204439    8663.5925    358.03871   -3187.9667    -1541.532   -1345.9923    264.84288   -1126.7442   -3566.9644 
 2019000    265.08978   -3830.3907   -3376.0359   -3830.3907            0   -1469.9248    18.269828    21.519445    22.289148    8763.1246   -2320.0645   -3256.5912    1166.8814    237.44037   -148.90925    1658.1151    -3563.894 
 2020000    257.56289   -3829.2112   -3387.7572   -3829.2112            0   -522.76005    18.354094    21.618698    22.391952    8884.9388   -1119.1729   -1603.1431    1154.0358    1764.1041    1422.5392   -944.29149   -3455.4953 
 2021000    264.77195   -3865.8959   -3412.0859   -3865.8959            0   -719.65419    18.339709    21.601754    22.374402     8864.064   -1231.3969   -1000.6126    73.046883   -1223.5936   -504.33957   -765.54179   -3505.1179 
 2022000     265.7132   -3817.1848   -3361.7615   -3817.1848            0   -543.56875    18.426862     21.70441    22.480729    8991.0367   -660.03998   -1649.1102    678.44396   -1023.7319    74.114219   -1433.4299   -3433.0369 
 2023000    261.64333   -3860.4837   -3412.0359   -3860.4837            0   -77.727666    18.361898     21.62789    22.401473    8896.2771    645.90445    488.95633   -1368.0438   -176.72914    -7.262115    1480.8253   -3422.1206 
 2024000    288.67488   -3809.9744   -3315.1955   -3809.9744            0    315.10049      18.4493    21.730839    22.508103    9023.9209   -1767.7964    510.26342    2202.8344    510.33561    685.79076    424.08635   -3273.7268 
 2025000    273.42294   -3829.2126    -3360.575   -3829.2126            0    862.77712    18.512535     21.80532    22.585249     9117.027     30.98383    2077.8824    479.46519   -628.96893   -629.30856   -343.80477    -3245.858 
 2026000    277.44357   -3819.0025   -3343.4737   -3819.0025            0    701.00269    18.386447    21.656805    22.431422    8932.0059    912.19011    -1448.022      2638.84    353.86775   -721.92919   -251.18986   -3252.1582 
 2027000    276.36978   -3816.0393   -3342.3509   -3816.0393            0   -954.41929    18.393176    21.664732    22.439632    8941.8166   -917.83491   -1184.5775   -760.84543   -1137.1816   -1143.8146    76.442418   -3466.8141 
 2028000    271.98028   -3843.0812   -3376.9163   -3843.0812            0   -191.43127    18.342436    21.604967     22.37773    8868.0198   -646.20173   -806.57861    878.48652   -254.21721    410.12423    805.50836   -3401.6743 
 2029000    277.21023     -3854.49   -3379.3611     -3854.49            0   -1267.1338    18.454054    21.736437    22.513902    9030.8976   -1862.2397   -774.25164     -1164.91   -288.99992     674.8764   -459.09531   -3546.2508 
 2030000    261.47813   -3777.6626   -3329.4981   -3777.6626            0    168.79808    18.290026    21.543235    22.313789    8792.2201    106.91381    1186.6085   -787.12807   -200.71451    611.48407   -707.13934   -3307.8538 
 2031000    267.36828   -3774.9899   -3316.7298   -3774.9899            0    997.23209    18.254334    21.501195    22.270245    8740.8484   -607.19158    2333.3229    1265.5649   -223.05142    1349.3382    161.52491   -3189.6064 
 2032000    262.22451   -3809.3672   -3359.9234   -3809.3672            0   -897.93364    18.361202     21.62707    22.400623    8895.2653    -1197.741   -623.55732   -872.50258   -752.67869    556.26824    353.60829   -3476.4108 
 2033000    282.45895   -3843.6677   -3359.5427   -3843.6677            0   -814.54637    18.279456    21.530784    22.300893    8776.9851   -1657.1347   -183.68877   -602.81565    -584.7736   -767.20818    257.34562   -3463.8073 
 2034000    280.85823   -3872.2209   -3390.8395   -3872.2209            0   -1659.8041    18.314682    21.572277     22.34387    8827.8259   -2115.5999   -1135.5599   -1728.2524    339.40182    15.517342   -267.88729   -3604.5306 
 2035000    266.29451   -3863.7395   -3407.3198   -3863.7395            0    -130.8191    18.328112    21.588095    22.360254    8847.2598     616.0687   -520.53068   -487.99533    -319.1354   -110.09877   -1115.8681   -3424.1991 
 2036000    263.24286   -3813.9535   -3362.7642   -3813.9535            0   -476.95194    18.289005    21.542033    22.312544    8790.7486   -1987.9857    292.29068    264.83923    402.89786   -1007.3108   -455.58541   -3423.9114 
 2037000    273.19281   -3820.6644   -3352.4212   -3820.6644            0    1375.9102    18.424744    21.701915    22.478145    8987.9361    1825.8584    565.17437    1736.6979    615.38209    355.02138   -8.1357729   -3172.0672 
 2038000    280.62854   -3853.9316   -3372.9439   -3853.9316            0   -872.95066    18.516849    21.810403    22.590513    9123.4031   -1428.4533   -1087.3135   -103.08511    998.17977    232.48938   -345.98718   -3489.0947 
 2039000    276.76737   -3826.1154   -3351.7456   -3826.1154            0     5.746682    18.463716    21.747819    22.525691    9045.0908   -1155.4038    521.17598    651.46786   -2.6208676    578.11262    782.91841   -3350.9875 
 2040000    280.68602   -3834.0805   -3352.9943   -3834.0805            0   -210.00944    18.416627    21.692354    22.468242    8976.0629    385.97946   -460.67431   -555.33345   -815.88125   -309.09607   -3.3919699   -3380.4859 
 2041000    265.48648   -3790.3017   -3335.2669   -3790.3017            0   -1618.3827    18.399709    21.672427    22.447602    8951.3482   -1748.6444   -1140.5392   -1965.9644    446.14306     340.9435   -463.74364   -3546.5407 
 2042000    282.73563   -3832.4063   -3347.8071   -3832.4063            0   -456.35625    18.191791    21.427526    22.193942    8651.3113    -1183.872    41.277847   -226.47461   -529.61964     425.1895    679.52151   -3405.3858 
 2043000     279.2506   -3818.2399   -3339.6139   -3818.2399            0   -1318.5412    18.259218    21.506946    22.276203    8747.8651    -890.0417   -2721.8883   -343.69365    978.74444   -323.56015    342.07295   -3507.8316 
 2044000    277.42371   -3826.3341   -3350.8394   -3826.3341            0   -1310.6785    18.340791     21.60303    22.375723    8865.6341   -1674.3917   -1252.7253   -1004.9184    711.96025   -689.15097    231.55456   -3520.3051 
 2045000    264.03202   -3880.4644   -3427.9225   -3880.4644            0   -534.93672    18.169382    21.401132    22.166604    8619.3807      546.247   -594.75297   -1556.3042   -290.46673    135.40255    246.36166   -3495.1666 
 2046000     298.1748   -3883.9318   -3372.8704   -3883.9318            0    365.41387    18.315787    21.573577    22.345217    8829.4228    995.79896   -1068.0348    1168.4775    491.68931   -308.62007   -229.75525   -3325.8167 
 2047000    276.92316   -3872.9614   -3398.3246   -3872.9614            0   -1569.5729    18.392483    21.663915    22.438786    8940.8061    524.56492   -2457.7078   -2775.5758   -408.24366   -912.97672   -318.48122   -3602.9851 
 2048000    282.28828   -3858.8014   -3374.9689   -3858.8014            0    645.45429    18.228118    21.470315    22.238261     8703.242     602.9551    675.15492    658.25286    777.26425   -579.62085    22.084334   -3293.0428 
 2049000     278.5166   -3827.8476   -3350.4796   -3827.8476            0    300.96503    18.344165    21.607003    22.379838    8870.5267    658.25634    1162.5154   -917.87662    836.80602    232.48656   -13.665318   -3311.5445 
 2050000    273.17679   -3851.2113   -3382.9956   -3851.2113            0   -1095.8924    18.365402    21.632017    22.405747    8901.3704   -951.65638   -659.40058   -1676.6201   -821.39502    690.93818   -195.72081   -3525.2615 
 2051000    284.46983   -3844.6683   -3357.0967   -3844.6683            0   -219.57562    18.331781    21.592416     22.36473    8852.5738    787.59445   -467.78759   -978.53371    432.15294   -613.18666    839.24703   -3385.4452 
 2052000    280.58716   -3864.9041   -3383.9874   -3864.9041            0   -42.627857    18.334516    21.595639    22.368067    8856.5376    1027.6725   -1404.4436    248.88749    428.24618    1209.0607    362.24233   -3389.4933 
 2053000    274.39823   -3862.6048   -3392.2956   -3862.6048            0   -36.050986    18.307395    21.563693    22.334979    8817.2928    515.60041    77.887135    -701.6405   -61.483561   -512.88484   -1882.0522   -3396.9314 
 2054000    292.35959   -3843.9253   -3342.8309   -3843.9253            0   -1340.9882    18.452048    21.734075    22.511456    9027.9538   -1168.3064   -264.93716   -2589.7211    298.84414   -125.15569   -822.62418   -3519.3901 
 2055000     271.0664   -3816.3609   -3351.7624   -3816.3609            0    336.84727      18.4376    21.717057    22.493829    9006.7629    673.93496    -238.6483    575.25515   -1813.6633   -1187.9408    377.39503    -3307.516 
 2056000    287.26421   -3828.3771    -3336.016   -3828.3771            0    673.87682    18.208841    21.447609    22.214743    8675.6592    326.57456    1546.1215     148.9344    -628.3742   -717.70663    1267.6192   -3250.7534 
 2057000    288.50942   -3859.5599   -3365.0647   -3859.5599            0   -347.34855    18.265934    21.514858    22.284397    8757.5228    104.68182   -710.08373   -436.64372   -5.2642391    1609.4775    211.91023   -3409.4278 
 2058000    275.71192   -3840.8207   -3368.2599   -3840.8207            0   -1657.8695    18.395677    21.667678    22.442683    8945.4651    56.098169   -2476.9886   -2552.7179    1244.4629    36.727407     426.7777   -3584.5463 
 2059000    278.23899   -3830.1396   -3353.2475   -3830.1396            0    -254.5728    18.301619     21.55689    22.327933    8808.9497    1405.8037   -1498.4282   -671.09397    58.938611    164.22206   -96.639677   -3385.9523 
 2060000    264.22747   -3829.8359   -3376.9591   -3829.8359            0   -2393.5573    18.509213    21.801408    22.581197    9112.1206   -2718.9337   -2044.7984     -2416.94    470.70359    589.60165     471.9972   -3695.0412 
 2061000    272.65541   -3809.7449   -3342.4228   -3809.7449            0   -399.25823    18.269247     21.51876    22.288438    8762.2879    486.62485   -1691.4952    7.0956713    399.15373    39.047885    830.69957   -3393.4436 
 2062000    275.05249   -3792.1569   -3320.7263   -3792.1569            0   -818.50668    18.333844    21.594846    22.367247    8855.5631   -583.73194   -2022.8644    151.07625    423.71881    607.69756   -114.62716   -3426.4359 
 2063000    290.33311   -3812.3933   -3314.7723   -3812.3933            0    1464.5938    18.272847       21.523    22.292831    8767.4691    366.78496    1898.9448    2128.0516    348.87434    683.74972   -621.10586   -3127.5027 
 2064000    279.91708   -3818.8837   -3339.1154   -3818.8837            0   -595.73808    18.355571    21.620438    22.393754    8887.0839   -335.82648   -804.88514   -646.50262   -422.26736    145.87941    101.77029   -3416.3284 
 2065000     259.9973   -3830.3894    -3384.763   -3830.3894            0    634.15477    18.235437    21.478936    22.247191    8713.7304    2085.4751   -407.40654    224.39574    597.40901   -53.189048    910.78267   -3304.1741 
 2066000    278.75356   -3799.2212   -3321.4471   -3799.2212            0   -119.85061    18.398482    21.670982    22.446106    8949.5582     615.5603   -1497.5119    522.39972    99.809947   -997.64595    70.446021   -3337.0901 
 2067000    266.32424   -3844.3624   -3387.8918   -3844.3624            0   -12.146362    18.290553    21.543856    22.314432    8792.9805   -745.36721    412.44263    296.48549   -432.38901   -1450.4805    589.73223   -3389.4494 
 2068000    265.99178   -3831.6956   -3375.7948   -3831.6956            0   -1340.2131     18.29772    21.552298    22.323176    8803.3212   -2258.8601   -682.50388   -1079.2753   -14.150778    353.35998    1099.1816   -3547.8612 
 2069000    264.50457   -3851.6295   -3398.2777   -3851.6295            0   -612.18683    18.434011     21.71283     22.48945    9001.5043   -220.99481   -1839.9681    224.40244   -669.04652    1406.8945    452.59126   -3478.6442 
 2070000    275.36879     -3803.51   -3331.5373     -3803.51            0   -820.37956    18.424947    21.702154    22.478393    8988.2337   -1591.0123   -189.37668   -680.74975    370.80489    7.2768897   -943.23902   -3439.0761 
 2071000    275.58844   -3818.9313   -3346.5821   -3818.9313            0   -1443.5015    18.417298    21.693144     22.46906    8977.0434   -993.28352   -1490.6976   -1846.5235    1242.3911   -412.87719    559.26721   -3535.5667 
 2072000    286.13781   -3778.4344    -3288.004   -3778.4344            0   -985.15144    18.419729    21.696008    22.472027    8980.5992   -1811.2233    9.4727101   -1153.7037   -335.00668    459.12474    601.91088   -3417.0321 
 2073000    268.19493   -3844.6204   -3384.9434   -3844.6204            0   -1372.9576    18.327195    21.587015    22.359135    8845.9316   -1652.1103   -1238.0532   -1228.7092   -233.12644    484.68813    238.05837   -3562.0671 
 2074000    275.87388   -3843.5998   -3370.7614   -3843.5998            0    326.52323    18.298094    21.552738    22.323633    8803.8612    296.61683    380.57669    302.37618     613.3036    277.52751   -346.35632   -3328.8374 
 2075000    275.85812   -3817.7689   -3344.9575   -3817.7689            0   -970.15817    18.445453    21.726308     22.50341    9018.2774   -1023.9543   -1762.7854   -123.73486    403.25296    -203.7192    742.90658    -3472.555 
 2076000    277.59153   -3834.5233   -3358.7409   -3834.5233            0     1129.421    18.396006    21.668065    22.443085    8945.9452    440.78065     2207.615    739.86725    312.78748    565.51558   -585.45613   -3211.3883 
 2077000    266.73159   -3847.5833   -3390.4144   -3847.5833            0     51.18874    18.370144    21.637603    22.411533    8908.2677   -108.15034    16.123745    245.59281    410.15256     208.1737   -842.86385   -3383.7641 
 2078000    291.70892    -3806.979   -3306.9999    -3806.979            0    203.18375    18.317575    21.575684    22.347399    8832.0094   -69.829297   -531.18292    1210.5635    1098.6301    568.34114    454.29458   -3280.8287 
 2079000    278.33332   -3834.3248    -3357.271   -3834.3248            0    277.39115    18.284062     21.53621    22.306513    8783.6222    605.67159   -219.51038    446.01225     -477.213   -632.22545   -302.15377   -3321.7372 
 2080000    272.45007   -3772.2423   -3305.2722   -3772.2423            0   -2297.9739    18.473538    21.759388    22.537674    9059.5338   -3014.1303   -1524.6439   -2355.1474    603.73825    775.00885    -524.8832   -3608.8897 
 2081000    278.10077   -3839.8479   -3363.1927   -3839.8479            0   -1459.8165    18.349636    21.613448    22.386514    8878.4669   -1180.1813   -2108.5799   -1090.6885    343.49415     695.1394    677.21305   -3552.2146 
 2082000     277.2919   -3864.0236   -3388.7547   -3864.0236            0   -153.20224    18.275202    21.525774    22.295704    8770.8591   -867.66176    901.03138   -492.97634   -68.615964   -600.25132   -971.46409   -3408.3515 
 2083000    256.40733   -3844.3594    -3404.886   -3844.3594            0   -885.60288     18.30192    21.557244    22.328299    8809.3838    -714.4552   -687.42542    -1254.928   -140.86056    884.83097      308.938   -3518.6646 
 2084000    284.38471   -3838.2998   -3350.8742   -3838.2998            0   -1122.1326    18.383272    21.653066    22.427549    8927.3805   -1052.0524   -1414.0369   -900.30845   -185.10791   -808.07794   -220.35221   -3496.9721 
 2085000    279.36704   -3877.3975    -3398.572   -3877.3975            0    672.21624    18.300596    21.555685    22.326685     8807.473    676.58123    1542.3844   -202.31688    47.674607    1412.4468   -1910.1806   -3312.2272 
 2086000    277.98133   -3857.6335    -3381.183   -3857.6335            0    451.60627    18.346398    21.609634    22.382563    8873.7672    1228.7676    485.32766   -359.27647    752.93764   -1879.1079    149.84243   -3322.7385 
 2087000    260.47836   -3840.2768   -3393.8258   -3840.2768            0    54.161846    18.309301    21.565938    22.337304    8820.0461    822.54859   -1484.6683    824.60527   -7.1116356     598.4502    163.07066   -3386.8589 
 2088000    280.65827   -3835.1483   -3354.1097   -3835.1483            0   -1295.2038    18.343269    21.605948    22.378745    8869.2275   -1983.7716   -1331.3934   -570.44628    635.08099   -897.46788   -185.93918   -3521.6424 
 2089000    256.73159   -3853.1521   -3413.1229   -3853.1521            0   -800.36236    18.396069    21.668139    22.443161    8946.0364   -420.47945   -974.28479   -1006.3228   -792.84346   -1222.9422   -1027.9419   -3517.5452 
 2090000    265.45542   -3810.4646   -3355.4831   -3810.4646            0    1237.9536    18.399474     21.67215    22.447316    8951.0058    1560.9709    824.79566    1328.0943    401.18016    730.81556   -967.08368   -3193.8791 
 2091000    262.42877   -3836.4721   -3386.6781   -3836.4721            0   -633.86982    18.286174    21.538697    22.309089    8786.6661   -1786.6033    1031.9465   -1146.9527   -935.98262   -631.29571    1499.8025   -3467.9051 
 2092000    280.44676   -3813.1895   -3332.5133   -3813.1895            0   -682.71113    18.366653    21.633491    22.407274    8903.1906   -1260.1061   -600.95002   -187.07724   -454.95811    571.13124    180.78619   -3421.1592 
 2093000    258.56159   -3804.7055   -3361.5398   -3804.7055            0    330.78277    18.248249    21.494027    22.262821    8732.1099    806.00902   -433.19773    619.53703    1308.1334    1087.9381     434.9399    -3319.415 
 2094000    266.73827   -3844.9821   -3387.8018   -3844.9821            0   -542.16802    18.296524    21.550889    22.321717    8801.5948   -84.097905   -1842.0077    299.60155   -386.36936   -767.17814   -58.138787   -3457.3957 
 2095000    282.02921   -3889.7287   -3406.3403   -3889.7287            0   -176.90184    18.282442    21.534302    22.304537    8781.2882   -826.74647   -662.94394    958.98489   -834.24467   -293.09843   -773.34188   -3428.9954 
 2096000    277.91963   -3812.2824   -3335.9377   -3812.2824            0   -1598.0442    18.419887    21.696194    22.472219    8980.8303   -1255.9004   -1957.4849   -1580.7471      331.587    530.81672    428.50688   -3545.2434 
 2097000    282.27076    -3835.729   -3351.9266    -3835.729            0   -221.44679    18.338517    21.600351    22.372948    8862.3361    -715.4629   -19.842904    70.965416    135.18927    316.54947     1129.792   -3380.5482 
 2098000    267.53639    -3847.509   -3388.9608    -3847.509            0   -1462.1354    18.500979     21.79171    22.571152    9099.9654   -1105.6365   -1688.5588   -1592.2108    916.39933    1205.1796    209.31248   -3583.0061 
 2099000    264.45839   -3833.0478   -3379.7751   -3833.0478            0   -1083.9309    18.428123    21.705895    22.482267    8992.8821   -903.51477     -2409.78    61.502014    176.21272     608.1604   -324.78732   -3521.9348 
 2100000    279.27561   -3877.3362   -3398.6674   -3877.3362            0    106.56867    18.288732    21.541711     22.31221    8790.3544    690.54097   -187.49589   -183.33906   -665.94845    548.38226    405.78746   -3385.0055 
 2101000    286.17387   -3884.4225   -3393.9303   -3884.4225            0    -572.7654    18.294789    21.548845      22.3196    8799.0911    264.55413   -2376.9648    394.11445    776.28263   -118.20595     1196.835   -3467.4308 
 2102000    279.39518   -3807.7721   -3328.8983   -3807.7721            0    203.57345     18.25349      21.5002    22.269216    8739.6361    990.51598   -8.4908994   -371.30473   -324.73589     166.4859    672.34548   -3302.9511 
 2103000    275.62081   -3808.2749   -3335.8703   -3808.2749            0   -1158.1022    18.371185    21.638829    22.412803    8909.7822   -2184.4199   -1003.6216   -286.26506    735.51687   -874.87855   -330.46497   -3486.3541 
 2104000    285.17665   -3846.5372   -3357.7542   -3846.5372            0   -726.67335    18.408058    21.682261    22.457788     8963.539    1002.3438   -2100.2377   -1082.1262    834.83756    449.60645    395.23604   -3452.7478 
 2105000    279.90818   -3824.8851    -3345.132   -3824.8851            0   -204.06886    18.359069    21.624558    22.398021    8892.1654   -1657.0888   -401.99105    1446.8733   -590.26268     16.61548   -730.90756   -3371.5963 
 2106000    262.89273   -3852.8485   -3402.2594   -3852.8485            0    73.208553    18.395456    21.667417    22.442413    8945.1422    873.87399    660.91469    -1315.163    110.81786   -842.38044   -771.62638   -3392.7089 
 2107000    261.32276    -3853.003   -3405.1048    -3853.003            0   -561.72784    18.434879    21.713853     22.49051    9002.7766   -17.007342    66.720487   -1734.8967    72.041446   -1191.5703    608.54211   -3478.8575 
 2108000    269.80749   -3832.8635   -3370.4227   -3832.8635            0   -1367.3092    18.477063     21.76354    22.541974     9064.721   -1470.3444   -930.59599   -1700.9871   -174.54319   -152.71854    201.04964   -3551.1805 
 2109000    274.03161   -3848.9452   -3379.2644   -3848.9452            0   -928.17761    18.436988    21.716337    22.493083    9005.8672   -1542.2107   -244.67797    -997.6442    107.95759    1077.9414     465.7958   -3501.1725 
 2110000    274.14797   -3851.3907   -3381.5105   -3851.3907            0   -890.54987     18.31343    21.570801    22.342342    8826.0148   -1256.2185    43.943307   -1459.3744    69.992866   -789.28807   -830.72849   -3496.1406 
 2111000    269.31519   -3803.3412   -3341.7442   -3803.3412            0    911.99529    18.351539    21.615689    22.388835    8881.2287    849.25995     2202.349    -315.6231    1644.6017   -183.82683   -179.71422   -3223.6193 
 2112000     268.1508   -3818.3907   -3358.7894   -3818.3907            0   -846.52023     18.39229    21.663688    22.438551     8940.525   -498.48139   -365.91525   -1675.1641    703.57409    384.26708   -1643.3589   -3469.1658 
 2113000    270.61444   -3847.2831   -3383.4592   -3847.2831            0    -1357.492    18.347308    21.610705    22.383673    8875.0877   -1320.7833   -1025.2323   -1726.4605     186.9822    502.58192   -225.62887   -3559.1649 
 2114000    293.10024   -3832.4289   -3330.0651   -3832.4289            0   -773.10931     18.24371    21.488681    22.257284    8725.5959    688.72278   -524.54796   -2483.5027   -499.73498   -146.99124    -808.4082   -3428.4462 
 2115000    272.55257   -3794.7376   -3327.5918   -3794.7376            0   -242.14483    18.317188    21.575229    22.346927    8831.4503   -107.90868    730.87085   -1349.3966   -217.86152   -201.52178   -479.99755   -3358.7795 
 2116000    274.86125   -3820.6894   -3349.5867   -3820.6894            0    311.98724    18.329966    21.590279    22.362516    8849.9448    155.61988    1964.1673   -1183.8255   -244.20996    167.23011   -67.262956   -3309.3193 
 2117000    257.06445   -3849.7944   -3409.1947   -3849.7944            0   -943.35513    18.358294    21.623645    22.397076    8891.0395   -1664.6913   -845.96705     -319.407    726.31593   -531.80996    365.12731   -3531.5165 
 2118000    271.81189   -3863.2219   -3397.3456   -3863.2219            0   -738.32698     18.30687    21.563075    22.334339    8816.5342   -1625.8632   -99.096652   -490.02111   -43.132404   -1018.1372   -1124.5937   -3492.2798 
 2119000    288.18433   -3849.2965   -3355.3584   -3849.2965            0    306.47063    18.274718    21.525203    22.295113    8770.1619   -45.309873   -319.80991    1284.5317    1033.2115   -329.07012   -316.23004   -3316.1596 
 2120000    270.20536   -3848.6367    -3385.514   -3848.6367            0   -69.444755    18.376513    21.645105    22.419303    8917.5366   -2193.9145   -414.74643    2400.3267   -1264.9057   -159.78623    -340.2793   -3394.5455 
 2121000    273.42406   -3870.8444   -3402.2049   -3870.8444            0    81.077764    18.334528    21.595652    22.368081     8856.554    792.07156    489.53386   -1038.3721    10.619801   -226.14744     458.0582   -3391.7326 
 2122000    280.79401   -3836.6517   -3355.3804   -3836.6517            0   -1379.7379    18.391956    21.663294    22.438143    8940.0371   -2641.5384   -1177.5942   -320.08103   -904.96915    297.82687    -119.5559   -3535.2724 
 2123000    262.59029   -3877.0997    -3427.029   -3877.0997            0   -550.87468    18.380722    21.650063    22.424438    8923.6663   -353.03839   -2200.9966      901.411   -242.45599    335.38501    409.91709   -3498.7212 
 2124000    281.04644   -3821.3632   -3339.6593   -3821.3632            0    47.259939    18.340768    21.603003    22.375695    8865.6008   -1123.7277   -4.9987938    1270.5063   -73.367779    596.65639   -1623.6546   -3333.5487 
 2125000    285.10878   -3803.1187    -3314.452   -3803.1187            0    1059.5578    18.337547    21.599208    22.371764    8860.9295    1061.0519     609.2294    1508.3923    736.21377   -1040.7003   -1674.2464    -3177.528 
 2126000    277.10308    -3804.402   -3329.4568    -3804.402            0    512.74377    18.168557    21.400161    22.165598    8618.2071    168.50739   -619.26858    1988.9925   -507.21282   -256.87041   -86.973211   -3265.0112 
 2127000    281.71492   -3814.7647   -3331.9149   -3814.7647            0   -1195.2028    18.257494    21.504917    22.274101    8745.3887   -1008.1952   -943.12461   -1634.2886   -303.82404   -187.68066   -421.09617   -3484.3541 
 2128000    272.96476   -3827.2043    -3359.352   -3827.2043            0   -111.44082    18.256533    21.503784    22.272927    8744.0069    1257.5926   -1512.1718   -79.743316   -543.91447    1695.5533    673.87438   -3373.5632 
 2129000    278.74924   -3815.7261   -3337.9594   -3815.7261            0   -92.019719    18.424268    21.701354    22.477564    8987.2391    217.55338   -677.76075    184.14821   -831.86234   -918.87633    312.79564   -3350.0204 
 2130000    266.50569   -3849.0825   -3392.3008   -3849.0825            0   -17.166303    18.249239    21.495193    22.264029    8733.5313    294.60199   -7.7671989    -338.3337    1134.8165    65.288076    248.70584   -3394.4873 
 2131000    261.56113   -3842.6534   -3394.3466   -3842.6534            0   -734.32998    18.347407    21.610822    22.383793    8875.2309   -1166.9968   -715.46535    -320.5278     360.5248    386.82701   -414.19573   -3489.3954 
 2132000    277.57869   -3782.6966   -3306.9362   -3782.6966            0   -1541.4875     18.38961    21.660532    22.435282    8936.6176   -1549.7933   -2743.5756   -331.09367     551.0807   -150.65933   -541.05082   -3507.8405 
 2133000    269.68897    -3830.442   -3368.2043    -3830.442            0    184.00353    18.238649    21.482719    22.251109    8718.3357    1037.9049   -763.24647    277.35212    -771.8009    482.61362    800.11639   -3344.8087 
 2134000    256.18724    -3829.026   -3389.9298    -3829.026            0   -1114.5304    18.242612    21.487387    22.255944    8724.0197   -820.07038   -152.13655   -2371.3843    -495.5203    1681.3259     209.1922   -3531.7325 
 2135000    268.37917   -3863.4626   -3403.4699   -3863.4626            0   -1362.2919    18.399595    21.672293    22.447463    8951.1819   -2295.2281   -696.14989   -1095.4979    692.29734    251.14662    1275.0162   -3581.3086 
 2136000    276.87359   -3821.0579    -3346.506   -3821.0579            0   -980.61001    18.291773    21.545293    22.315921    8794.7403   -1662.8422   -114.21737   -1164.7705    791.48134    480.26531    448.77831   -3472.2813 
 2137000    272.98049   -3870.3222    -3402.443   -3870.3222            0   -897.85408    18.276958    21.527843    22.297847    8773.3885   -1555.7121    -100.8613   -1036.9888   -313.26328   -30.603349   -280.20562   -3517.3242 
 2138000    277.42728   -3857.3004   -3381.7996   -3857.3004            0   -948.97394    18.354702    21.619414    22.392693    8885.8217   -425.83471   0.76224974   -2421.8493    72.564467    438.67865    773.42909   -3504.7777 
 2139000    273.19039   -3922.0655   -3453.8265   -3922.0655            0    457.71087    18.347396    21.610809     22.38378    8875.2151   -369.23866    1903.2237   -160.85239   -1053.5134   -447.14502   -360.23243   -3394.5823 
 2140000    276.08871   -3842.7012   -3369.4945   -3842.7012            0    932.14153    18.257362    21.504761    22.273939    8745.1989    1991.3515    -47.68144     852.7545   -194.47196   -285.55442     564.3384   -3250.6094 
 2141000    272.51526   -3887.3624   -3420.2806   -3887.3624            0   -270.75363    18.333243    21.594138    22.366513     8854.692   -674.49992   -453.18193    315.42096   -921.46687   -887.74656    370.85217   -3455.2448 
 2142000    271.63802    -3847.279   -3381.7007    -3847.279            0    101.82014    18.287039    21.539716    22.310145    8787.9132   -1821.9664     16.87686      2110.55    -405.3783    126.33482   -1074.9084   -3368.6512 
 2143000    254.43689   -3798.4345   -3362.3384   -3798.4345            0   -1343.9986    18.439083    21.718804    22.495638    9008.9363   -1290.0278   -1810.8901   -931.07805   -80.794837   -75.307837   -21.018967   -3538.9211 
 2144000    275.34663   -3830.7602   -3358.8255   -3830.7602            0    175.14578    18.231948    21.474826    22.242934    8708.7292    709.17643   -193.78481    10.045729   -1244.7737   -86.484068   -235.66051   -3336.5806 
 2145000    285.94665   -3849.3353   -3359.2326   -3849.3353            0    842.59528    18.296973    21.551417    22.322264    8802.2424    1071.6417    535.97948    920.16464    731.92299   -2177.6924    -1218.475   -3251.0672 
 2146000    271.35429   -3865.0855   -3399.9935   -3865.0855            0   -618.33046    18.349202    21.612936    22.385984    8877.8364   -213.26773   -481.08444   -1160.6392   -1363.6521   -795.47523    366.65753   -3480.0513 
 2147000    252.46873   -3833.3287   -3400.6059   -3833.3287            0   -4.6723047    18.354783     21.61951    22.392792    8885.9394    870.43478   -500.80411   -383.64759   -1526.2113    611.27474   -14.074789   -3401.2114 
 2148000    255.61262     -3857.88   -3419.7687     -3857.88            0   -1758.1628    18.404506    21.678077    22.453454    8958.3513   -1880.1281   -2626.1738   -768.18658   -594.89691    533.86612    526.60383   -3649.4698 
 2149000    284.04424   -3824.6045   -3337.7624   -3824.6045            0    298.42216    18.388429     21.65914     22.43384    8934.8947    889.10155    697.25038   -691.08546   -849.85164   -75.746051    1235.5717   -3298.8762 
 2150000    268.55246   -3852.0184   -3391.7287   -3852.0184            0   -29.110267    18.360943    21.626766    22.400308    8894.8896   -266.35004   -418.17275      597.192    448.14701   -339.07816    337.47768    -3395.505 
 2151000    273.20329   -3790.7648   -3322.5037   -3790.7648            0   -1619.6411    18.493968    21.783452    22.562598    9089.6238   -2430.0213   -1388.8055   -1040.0966    496.21358    -765.5379    566.80947   -3537.2079 
 2152000    273.88805   -3842.0678   -3372.6331   -3842.0678            0   -326.83871     18.45881     21.74204    22.519705    9037.8826    1179.7001   -755.85168   -1404.3645   -226.77553      148.499    -1265.367   -3415.7131 
 2153000    278.31454   -3833.7005    -3356.679   -3833.7005            0    295.35573    18.501384    21.792187    22.571645    9100.5628    318.16428    1202.4274    -634.5245   -484.03379    108.54664   -889.06829   -3317.4786 
 2154000    262.86859   -3841.2417    -3390.694   -3841.2417            0    -703.4777    18.511354     21.80393    22.583809    9115.2833    367.73349   -1247.5005   -1230.6661    5.4543019    287.77631   -476.18191   -3484.2122 
 2155000    277.17222   -3838.2642   -3363.2005   -3838.2642            0    383.84621    18.421217    21.697761    22.473842    8982.7757    517.25001    532.02609    102.26253   -349.76192    477.39571   -711.37177   -3312.9149 
 2156000     270.0857   -3885.9622   -3423.0446   -3885.9622            0   -931.15457    18.582678     21.88794    22.670824    9221.0524   -539.52314   -1319.4949   -934.44569   -530.97349    296.94199    10.555331   -3548.2659 
 2157000    262.26852   -3843.2814   -3393.7621   -3843.2814            0   -140.22509    18.509588     21.80185    22.581654     9112.674   -500.35985    767.10855   -687.42397    92.249792    490.99495   -631.04071   -3412.3979 
 2158000    280.52557    -3873.335   -3392.5238    -3873.335            0   -169.26374     18.46824    21.753148     22.53121    9051.7415    613.06957      33.9408   -1154.8016   -78.176413     133.0423    446.96002   -3414.8684 
 2159000    267.39835   -3824.7107   -3366.3991   -3824.7107            0   -197.91472    18.491467    21.780506    22.559547    9085.9368    161.46162   -1062.9306    307.72481    124.55266   -828.96834   -1100.6506   -3392.6246 
 2160000    288.51365   -3830.2741   -3335.7716   -3830.2741            0   -304.75437    18.490081    21.778873    22.557855    9083.8928   -787.44542   -1157.7221    1030.9044   -419.21469   -403.49995   -391.81405   -3376.1452 
 2161000    257.18494   -3848.0566   -3407.2504   -3848.0566            0   -12.965287    18.443106    21.723542    22.500546    9014.8345   -1151.8766    788.70648    324.27425   -625.71042    122.13058    315.86253   -3408.9549 
 2162000     268.8306   -3862.8009   -3402.0345   -3862.8009            0   -882.41892    18.410931    21.685645    22.461293    8967.7371   -1276.8701   -1730.1961     359.8094    133.50787   -150.37747    133.64967   -3517.4419 
 2163000    267.42635   -3835.7034   -3377.3438   -3835.7034            0   -729.60393    18.350914    21.614953    22.388072    8880.3213    -750.3138    652.50192   -2090.9999   -817.32986    73.712169    3.7830538   -3471.8351 
 2164000    267.29271   -3844.0283   -3385.8978   -3844.0283            0    760.78017    18.329238    21.589422    22.361628    8848.8912    1411.0711    1610.5288   -739.25935   -577.05705   -537.06065    831.15558   -3287.7176 
 2165000     272.8431   -3845.2852   -3377.6415   -3845.2852            0    585.84837    18.268323    21.517671    22.287311    8760.9587    900.09085    1727.4852   -870.03099    70.550569    42.331491   -482.00723   -3302.7878 
 2166000    269.90628   -3816.2518   -3353.6417   -3816.2518            0   -257.67925    18.328298    21.588314    22.360481    8847.5291    919.89237    -471.4903   -1221.4398   -582.31682    127.00377   -169.96271   -3386.8906 
 2167000    262.37773   -3868.2208   -3418.5144   -3868.2208            0   -825.13098    18.317943    21.576118    22.347848    8832.5421   -692.42787   -893.81025   -889.15481    556.75787    126.85974   0.58763054   -3524.8024 
 2168000    281.61669   -3835.7887   -3353.1073   -3835.7887            0    238.78054    18.397765    21.670138    22.445231    8948.5119   -624.22635   -545.23021    1885.7982   -225.14404   -213.26279    1296.1756   -3321.9453 
 2169000    288.50781   -3846.9064   -3352.4139   -3846.9064            0   -1088.0078     18.32523    21.584701    22.356738    8843.0876   -1989.6191   -596.06337   -678.34086    391.95794    1176.0147    824.88966   -3492.7314 
 2170000    270.83061   -3833.2971   -3369.1027   -3833.2971            0    -783.2317    18.265206       21.514    22.283508    8756.4748   -1218.5021   -414.20247   -716.99058   -107.89057   -325.89522    339.97754   -3469.1247 
 2171000    263.36955   -3838.9635   -3387.5571   -3838.9635            0   -2281.1736    18.391741    21.663041    22.437881    8939.7239   -3372.4588   -2515.8866   -955.17531    242.65721    1036.8958    409.74672   -3684.9689 
 2172000    268.87567   -3857.1792   -3396.3355   -3857.1792            0   -187.94943    18.396726    21.668914    22.443963    8946.9957    481.88336   -338.61498   -707.11667    136.95906   -64.073906    245.30624   -3420.8597 
 2173000    273.09922   -3894.6706   -3426.5879   -3894.6706            0   -715.90774    18.480957    21.768126    22.546724    9070.4524   -1011.4858   -474.77742   -661.45997   -440.62327   -875.51719    807.18593   -3521.2905 
 2174000    262.21026   -3877.9547   -3428.5353   -3877.9547            0    173.19964    18.482995    21.770527    22.549211    9073.4539     1073.606   -1236.7553     682.7482   -777.00037    411.26302   -163.73552   -3405.6163 
 2175000    279.00968   -3853.9106   -3375.6976   -3853.9106            0    210.05121    18.388196    21.658866    22.433556    8934.5553     372.9078    1035.8036   -778.55777   -119.80497     118.5961    -1393.144   -3348.3276 
 2176000     265.6351    -3864.567   -3409.2775    -3864.567            0   -1632.0824    18.483288    21.770872    22.549568    9073.8851   -2765.5086   -657.46256    -1473.276   -585.31808    731.26721    134.64953   -3625.2564 
 2177000    269.96926   -3840.0734   -3377.3553   -3840.0734            0   -476.00299    18.296824    21.551242    22.322083    8802.0281   -1168.6008    -508.8199    249.41168    82.339181   -133.83055   -1180.7612   -3438.4591 
 2178000     282.0943   -3853.9446   -3370.4446   -3853.9446            0    215.83157    18.386652    21.657047    22.431672    8932.3049    845.32517   -281.16798     83.33752     1266.256    128.95588   -535.28929   -3342.3286 
 2179000    261.39982   -3842.5728   -3394.5425   -3842.5728            0    -883.3107    18.329604    21.589852    22.362074      8849.42   -613.53084   -1429.2496   -607.15167    240.94471    131.92691    88.384576   -3508.5423 
 2180000    264.81065   -3831.0885   -3377.2121   -3831.0885            0   -689.25498    18.396857    21.669068    22.444123    8947.1867   -341.89304    719.16284   -2445.0347    603.74335     1069.588    515.75839   -3467.1499 
 2181000    279.15973   -3844.9501   -3366.4799   -3844.9501            0   -376.23481    18.447658    21.728904    22.506099    9021.5112     -1005.73   -100.57279   -22.401649   -1120.3546   -383.14731    206.84296   -3415.9809 
 2182000    283.49011   -3810.7393   -3324.8469   -3810.7393            0   -424.72261    18.515036    21.808267    22.588301    9120.7236    1073.9201   -2048.7689   -299.31905    403.78591    243.08728   -83.104164    -3381.342 
 2183000    283.19111   -3871.9047   -3386.5248   -3871.9047            0   -479.03482    18.380333    21.649604    22.423963    8923.0989    574.40758   -589.62505    -1421.887   -831.77845    706.40832    447.16379   -3448.8636 
 2184000    275.90742   -3883.5341   -3410.6382   -3883.5341            0    110.74003    18.407657    21.681789    22.457299    8962.9535    1157.2543    736.66927   -1561.7034   -559.74432   -114.07968   -644.26626   -3396.1628 
 2185000    273.16753   -3824.0197   -3355.8199   -3824.0197            0    1828.8439    18.333756    21.594743     22.36714     8855.436    2495.2365    1600.7726    1390.5225   -809.28643    168.77015   -1484.5354   -3119.6293 
 2186000    285.51633   -3817.9025   -3328.5373   -3817.9025            0    1293.4306    18.337957    21.599691    22.372265    8861.5249    2202.5628    704.17376     973.5552    1196.5734    911.95984   -133.57517   -3161.3792 
 2187000    276.27137   -3846.8258   -3373.3062   -3846.8258            0     -472.327    18.370597    21.638136    22.412085    8908.9265   -1191.7428    555.12286   -780.36105   -221.20292    774.04567   -175.68009   -3434.6745 
 2188000    287.34081   -3808.2293    -3315.737   -3808.2293            0    622.29806    18.277385    21.528346    22.298367    8774.0031    1213.0389   -173.37497    827.23027    518.18318   -756.45263   -220.27015   -3236.1078 
 2189000    257.67502   -3854.6207   -3412.9746   -3854.6207            0   -1499.6981    18.443962    21.724552    22.501591    9016.0909   -1468.6378   -504.10491   -2526.3517    345.67182    -350.8178    95.642399   -3610.1705 
 2190000      276.483   -3786.8152   -3312.9328   -3786.8152            0    88.040138    18.404393    21.677944    22.453316    8958.1862    373.95403    916.27015   -1026.1038    964.63904   -212.37469   -30.370045   -3301.4307 
 2191000    270.76108   -3822.3565   -3358.2813   -3822.3565            0    338.77962    18.349261    21.613005    22.386055    8877.9214   -542.70558    -96.17657     1655.221    1232.7359   -500.37839    1670.7789   -3314.4177 
 2192000    259.46347   -3798.5821   -3353.8706   -3798.5821            0   -354.70345     18.39093    21.662086    22.436892    8938.5414   -1208.6767    551.82236   -407.25601    450.67525   -414.18987   -325.41152   -3400.1095 
 2193000    260.08071   -3784.6718   -3338.9024   -3784.6718            0   -481.31007    18.427756    21.705463     22.48182    8992.3453    -1476.714    -1155.956    1188.7399     60.63038    231.90331    162.52354   -3402.0234 
 2194000    278.04235   -3833.1067   -3356.5517   -3833.1067            0   -195.63277    18.429036     21.70697    22.483381    8994.2183     758.3083    -531.2737   -813.93291   -739.36811    213.53815    662.31108   -3382.2131 
 2195000    268.67809   -3868.9217   -3408.4166   -3868.9217            0   -620.25349    18.484268    21.772026    22.550763    9075.3282   -790.08766    324.35306   -1395.0259    -34.95435    585.60136   -315.65634   -3490.5099 
 2196000    264.55512   -3853.9137   -3400.4752   -3853.9137            0   -1639.7113    18.548196    21.847325    22.628756    9169.8156   -1695.2055    -1219.461   -2004.4674   -89.456126   -536.86624   -765.07414   -3619.7577 
 2197000    279.10388   -3866.3135    -3387.939   -3866.3135            0   -482.59923    18.410796    21.685486    22.461128    8967.5396   -1553.1443    1276.7666     -1171.42    458.27435    560.61456    904.80304   -3451.0545 
 2198000    264.70191   -3840.5656   -3386.8756   -3840.5656            0   -1670.1854    18.497227     21.78729    22.566574    9094.4296   -1770.0097   -1018.5021   -2222.0444    306.06024    173.37173    885.03135   -3608.3972 
 2199000     270.2011   -3844.3161   -3381.2007   -3844.3161            0   -797.20296    18.480325    21.767381    22.545953    9069.5216   -972.55071   -313.22097   -1105.8372   -283.06874   -546.73838    -1085.847   -3486.6464 
 2200000    271.30048   -3841.3756   -3376.3759   -3841.3756            0   -1344.8393    18.487094    21.775355    22.554211    9079.4915   -2714.2754   -1453.9584    133.71585   -53.585196   -130.91759    -537.5566   -3554.4529 
 2201000    265.61247   -3819.3087    -3364.058   -3819.3087            0   -1220.8614    18.477557    21.764122    22.542577    9065.4481   -876.17971   -1816.6156   -969.78903    730.03178    784.18641   -1976.9281   -3525.4684 
 2202000    271.23341   -3856.2334   -3391.3486   -3856.2334            0    484.46859    18.406737    21.680705    22.456176    8961.6096    -978.4822    310.49563    2121.3923    373.46432   -1263.8783   -546.29703   -3328.0306 
 2203000    268.12221   -3894.4254   -3434.8731   -3894.4254            0   -359.57235    18.482557    21.770011    22.548677    9072.8089    105.57986    331.39257   -1515.6895   -526.79685    332.05202   -741.09398   -3482.4508 
 2204000     273.1171   -3903.6131   -3435.4998   -3903.6131            0   -128.42912    18.441869    21.722086    22.499037    9013.0213   -275.69149    911.43986   -1021.0357   -1150.0058   -106.63426    1155.2614   -3452.3812 
 2205000     264.5833    -3900.821   -3447.3343    -3900.821            0    68.459442    18.466158    21.750695     22.52867    9048.6806   -536.84003    284.75347    457.46489   -799.38222    222.23114    820.42836      -3438.3 
 2206000    268.73634   -3887.7503   -3427.1454   -3887.7503            0   -570.96295    18.419208    21.695394    22.471391    8979.8366    1073.9846   -745.02648    -2041.847   -268.82486    214.67771    1134.9976   -3501.9196 
 2207000    270.15416   -3865.1498   -3402.1148   -3865.1498            0   -1166.7235    18.490895    21.779832    22.558849    9085.0935   -2188.0132   -1506.3644    194.20696    442.92288   -95.117751    145.82196   -3556.7019 
 2208000    299.96259   -3887.1411   -3373.0155   -3887.1411            0   -95.579385    18.338207    21.599986     22.37257     8861.887    1028.7792   -676.35603    -639.1613   -72.422902     -654.126    130.35225   -3385.3683 
 2209000    281.30865   -3873.0927   -3390.9393   -3873.0927            0   -1333.7273    18.356952    21.622064    22.395438    8889.0895    -1042.805   -1058.5008   -1899.8763   -1246.3792     199.8126    38.374257   -3563.8414 
 2210000    287.09874   -3823.0405   -3330.9631   -3823.0405            0    564.36694    18.263402    21.511875    22.281307    8753.8802    848.99992    1968.3545   -1124.2536    237.80268    -738.0409    754.85817   -3258.9124 
 2211000     264.7563   -3833.8654   -3380.0821   -3833.8654            0    -986.7594    18.380392    21.649674    22.424035    8923.1845   -1240.7596   -436.66843   -1282.8502    165.26614    1545.3137   -433.04502   -3508.4946 
 2212000    282.83977    -3846.311   -3361.5333    -3846.311            0    -2485.495    18.453453     21.73573    22.513169    9030.0159    -2912.687   -1904.3969   -2639.4011    1178.0255    608.51739    223.18407   -3688.8569 
 2213000    282.27327   -3850.8482   -3367.0415   -3850.8482            0   -1298.1994    18.361272    21.627153    22.400708    8895.3667   -1744.5326   -58.018244   -2092.0474    310.09968    772.78491    506.94799   -3535.4566 
 2214000    260.67977    -3829.685   -3382.8888    -3829.685            0   -1051.8503    18.454049    21.736433    22.513897    9030.8917   -901.30383   -374.25743   -1879.9896    1438.5266   -19.351103    495.72508   -3521.4241 
 2215000    259.75662   -3876.4743   -3431.2603   -3876.4743            0   -1196.5362     18.47997    21.766963     22.54552    9068.9992   -1524.2675   -506.97451   -1558.3666    84.112658    521.92423    -96.61555   -3589.5167 
 2216000    271.17282   -3870.9368   -3406.1559   -3870.9368            0    -1287.133    18.409066    21.683448    22.459017    8965.0113   -1668.5812   -175.33271    -2017.485    687.89954    605.12803    1001.6203   -3574.4428 
 2217000    269.84083   -3883.4674   -3420.9695   -3883.4674            0   -829.84657     18.40588    21.679695    22.455131    8960.3577    728.62786   -2339.0973   -879.07027   -186.93718    1055.8541    337.43151   -3529.4118 
 2218000    280.63937   -3851.6579   -3370.6516   -3851.6579            0   -229.28983    18.443264    21.723729    22.500739    9015.0666    74.565169   -873.78173    111.34707   -123.62037   -242.57171   -171.71828   -3400.7976 
 2219000    272.08846   -3842.0009   -3375.6506   -3842.0009            0    308.24147    18.412357    21.687325    22.463033    8969.8208   -940.51439    1896.4181   -31.179291   -319.16342    1664.4841    934.91235   -3335.3278 
 2220000    253.89366   -3835.6119   -3400.4468   -3835.6119            0   -114.00996    18.439762    21.719603    22.496466    9009.9315   -671.62539    415.14151   -85.545995    1447.4442    286.27211    935.55607   -3415.4278 
 2221000    275.62609   -3865.8073   -3393.3936   -3865.8073            0   -158.82195    18.412671    21.687694    22.463415    8970.2792   -1373.1907    686.37227    210.35255   -814.06729    664.40489    244.33327    -3414.171 
 2222000    275.40864   -3867.8404   -3395.7994   -3867.8404            0   -234.79746    18.437291    21.716693    22.493452    9006.3102    465.71559   -1289.4151    119.30718   -164.82857    933.21957    696.29522   -3426.6395 
 2223000    280.73018   -3879.5981   -3398.4362   -3879.5981            0    -944.4946    18.380001    21.649214    22.423559    8922.6162   -2542.6712   -296.46392    5.6513404    791.98477   -698.20778   -27.889741   -3521.3406 
 2224000    280.24005   -3858.6268    -3378.305   -3858.6268            0   -465.71913    18.278409    21.529551    22.299616    8775.4777   -1677.4488     283.2178   -2.9263835    168.00639   -1382.7596    308.66261   -3437.9083 
 2225000    272.91032   -3885.9286   -3418.1697   -3885.9286            0     910.2003    18.316607    21.574544    22.346218    8830.6092    1065.7602   -199.43511    1864.2758    782.62698   -883.15932   -120.33751   -3300.9492 
 2226000    267.94436   -3844.7544    -3385.507   -3844.7544            0     512.2969    18.467232     21.75196     22.52998    9050.2594    495.83058    1532.2635   -491.20334   -910.51519   -648.45868   -811.96149   -3317.8895 
 2227000    279.77595   -3783.6089   -3304.0825   -3783.6089            0   -1247.9271    18.448916    21.730386    22.507634    9023.3572   -2600.0182    329.88468   -1473.6477   -533.91988    618.22224     943.5112   -3468.3052 
 2228000    282.84434   -3834.5287   -3349.7432   -3834.5287            0   -73.955286    18.425817    21.703179    22.479454    8989.5068   -759.72984    482.36787    55.496109   -331.15615   -449.45444   -93.898251   -3359.4389 
 2229000    274.77564   -3819.7103   -3348.7542   -3819.7103            0   -716.85858     18.54413    21.842536    22.623796    9163.7873   -1190.9229   -633.60095   -326.05193    497.97715    1187.2385    271.76078   -3444.5584 
 2230000    277.80739   -3804.0052   -3327.8528   -3804.0052            0   -1857.4928    18.445905     21.72684    22.503961      9018.94   -1986.7585    -2031.579   -1554.1408    468.32828   -585.67601    814.50789   -3572.1725 
 2231000    267.39789   -3803.9566   -3345.6458   -3803.9566            0   -195.54641    18.408708    21.683026    22.458581    8964.4884   -1554.5228    375.32068    592.56287   -310.60159    477.67312    1658.3249   -3371.2111 
 2232000    276.83478   -3839.3963    -3364.911   -3839.3963            0   -385.54417    18.391001    21.662169    22.436978    8938.6445   -920.52516   -34.850817   -201.25655   -769.99848   -318.58317   -666.51347   -3415.1709 
 2233000    253.30778   -3824.9872   -3390.8263   -3824.9872            0   -2054.1004    18.474878    21.760966    22.539308    9061.5054    -2205.362   -1208.6199   -2748.3193   -341.57217    1056.3874    1008.2765   -3662.2813 
 2234000    279.28665   -3835.5497   -3356.8619   -3835.5497            0   -211.53382     18.45256    21.734678     22.51208    9028.7052   -97.416603     -1396.01    858.82509     430.6182    210.98614    378.11963   -3384.7155 
 2235000    271.05287   -3875.1695   -3410.5942   -3875.1695            0   -752.43289    18.388281    21.658966     22.43366    8934.6795   -458.67328   -966.18755   -832.43786   -902.34072   -413.76732   -545.31011   -3508.6385 
 2236000    279.45073   -3887.5068   -3408.5378   -3887.5068            0   -1473.1427    18.551878    21.851661    22.633248    9175.2776   -1600.5761   -1133.9096   -1684.9424    638.38117   -382.20623    -131.9583    -3605.662 
 2237000    276.47763   -3877.9977   -3404.1245   -3877.9977            0     1016.676    18.321076    21.579808     22.35167    8837.0747    231.34798    2031.7026     786.9774    988.12705     -538.535   -420.47573   -3273.0957 
 2238000    278.24972   -3855.7202   -3378.8097   -3855.7202            0   -1224.9208    18.475323     21.76149     22.53985     9062.159   -1284.7753   -948.19697   -1441.7902    970.32547   -52.870692   -5.7594565   -3540.6981 
 2239000     273.7505   -3862.6097   -3393.4107   -3862.6097            0   -923.57778    18.544975    21.843531    22.624827      9165.04    72.391583   -972.69656   -1870.4284   -372.06248   -286.28114     231.0744   -3516.8586 
 2240000    277.35888   -3855.7406    -3380.357   -3855.7406            0   -596.36413    18.448206    21.729549    22.506768     9022.315    249.58846   -544.50224   -1494.1786   -290.72648   -769.15713    8.1581407   -3458.8273 
 2241000    263.87066   -3877.4934   -3425.2281   -3877.4934            0    692.50949     18.35959    21.625172    22.398657    8892.9235    824.74916    1021.1118    231.66753    391.74049   -663.16253    -199.8013   -3335.4137 
 2242000    262.62687   -3855.7852   -3405.6517   -3855.7852            0   -1633.5001    18.545022    21.843586    22.624884    9165.1093   -2879.3209    -441.6326   -1579.5467   -231.04108   -580.60861    464.20781   -3623.9914 
 2243000    278.35853   -3878.0316   -3400.9346   -3878.0316            0   -1100.1911    18.469916    21.755121    22.533254     9054.205   -1574.0775   -1386.5558    -339.9399    -155.7774   -1195.3131    610.97349   -3546.2108 
 2244000    271.86904   -3869.3199   -3403.3456   -3869.3199            0   -622.40123    18.415893    21.691489    22.467346    8974.9887   -1301.8098    594.24067   -1159.6345    300.85236    556.36643   -64.105256   -3484.8124 
 2245000    267.14516   -3806.4187    -3348.541   -3806.4187            0   -1226.3598    18.416185    21.691833    22.467703    8975.4163   -421.01199   -1631.0039   -1627.0634    987.11089   -359.95477   -119.74911   -3509.0682 
 2246000    274.72509   -3858.0323   -3387.1629   -3858.0323            0   -603.17202    18.296215    21.550524    22.321339    8801.1479    54.024476    55.334957   -1918.8755   -291.20054   -927.88325    208.21806   -3464.5835 
 2247000    269.63484   -3858.4241   -3396.2792   -3858.4241            0    1135.0944    18.263801    21.512345    22.281795    8754.4547    2409.7487    99.531476    896.00299    423.64167    -510.7084   -521.20687   -3251.3564 
 2248000    273.34646   -3801.2777   -3332.7713   -3801.2777            0   -1111.3064     18.38085    21.650213    22.424594    8923.8521    30.447583   -1469.1141   -1895.2527     166.5963    50.201501    152.78303   -3477.4025 
 2249000    250.33243   -3840.7546   -3411.6934   -3840.7546            0   -2325.9074    18.401364    21.674377    22.449622    8953.7646   -1521.8004   -3712.9421   -1742.9796    630.52983    755.28948    996.75349   -3715.4138 
 2250000    285.87477   -3831.4923   -3341.5127   -3831.4923            0    262.63082    18.334227    21.595297    22.367714    8856.1177    181.31171    852.74915   -246.16839    392.81414   -442.54225    408.87329    -3307.592 
Loop time of 347.024 on 64 procs for 250000 steps with 864 atoms

Performance: 124.487 ns/day, 0.193 hours/ns, 720.412 timesteps/s
375.0% CPU use with 16 MPI tasks x 4 OpenMP threads

MPI task timing breakdown:
Section |  min time  |  avg time  |  max time  |%varavg| %total
---------------------------------------------------------------
Pair    | 26.966     | 28.69      | 33.034     |  25.0 |  8.27
Bond    | 1.6852     | 1.8879     | 2.7977     |  22.2 |  0.54
Kspace  | 175.56     | 182.14     | 185.84     |  20.2 | 52.49
Neigh   | 3.2575     | 3.4709     | 3.6735     |   6.8 |  1.00
Comm    | 52.241     | 56.623     | 60.383     |  31.4 | 16.32
Output  | 0.83054    | 0.83085    | 0.83224    |   0.0 |  0.24
Modify  | 53.116     | 60.055     | 65.165     |  45.3 | 17.31
Other   |            | 13.32      |            |       |  3.84

Nlocal:        54.0000 ave          65 max          47 min
Histogram: 1 2 3 5 0 2 1 1 0 1
Nghost:        2589.81 ave        2646 max        2529 min
Histogram: 2 0 2 3 1 1 3 0 2 2
Neighs:        13928.5 ave       17063 max       11691 min
Histogram: 1 1 3 3 4 0 3 0 0 1

Total # of neighbors = 222856
Ave neighs/atom = 257.93519
Ave special neighs/atom = 2.0000000
Neighbor list builds = 14657
Dangerous builds = 3

unfix		3
unfix		2
unfix		1

write_data	data.final.${pid}
write_data	data.final.1
System init for write_data ...
PPPM initialization ...
  extracting TIP4P info from pair style
  using 12-bit tables for long-range coulomb (../kspace.cpp:340)
  G vector (1/distance) = 0.37333551
  grid = 24 25 27
  stencil order = 5
  estimated absolute RMS force accuracy = 0.0029590512
  estimated relative force accuracy = 8.9110949e-06
  using double precision FFTW3
  3d grid and FFT values/proc = 6300 1200
Last active /omp style is kspace_style pppm/tip4p/omp
WARNING: Not all mixed pair coeffs generated from mixing. Use write_data with 'pair ij' option to store all pair coeffs. (../write_data.cpp:312)

write_restart   restart.lmp.${pid}
write_restart   restart.lmp.1
System init for write_restart ...
PPPM initialization ...
  extracting TIP4P info from pair style
  using 12-bit tables for long-range coulomb (../kspace.cpp:340)
  G vector (1/distance) = 0.37333551
  grid = 24 25 27
  stencil order = 5
  estimated absolute RMS force accuracy = 0.0029590512
  estimated relative force accuracy = 8.9110949e-06
  using double precision FFTW3
  3d grid and FFT values/proc = 6300 1200
Last active /omp style is kspace_style pppm/tip4p/omp
Total wall time: 0:05:47
