LAMMPS (30 Jul 2021)
Processor partition = 1
  using 2 OpenMP thread(s) per MPI task
using multi-threaded neighbor list subroutines
variable        pid world 0 1
variable        phase world IceV IceIII

shell cd ${phase}
shell cd IceIII
include Restart.lmp
echo both
log log.lammps
#include		in.partitions
include		in.temp
variable        temperature equal 86.47
variable	tempDamp equal 100.0
include		in.pressure
variable        pressure equal 6882.3
variable        pressureDamp equal 1000.0 # This is 1 ps
include		in.seed
variable        seed equal 745823

units		real
atom_style	full

read_restart	restart.lmp.${pid}
read_restart	restart.lmp.1
Reading restart file ...
  restart file = 30 Jul 2021, LAMMPS = 30 Jul 2021
  restoring atom style full from restart
  orthogonal box = (0.079918229 0.14823389 0.12001433) to (19.920083 19.851767 20.579984)
  4 by 2 by 4 MPI processor grid
  restoring pair style lj/cut/tip4p/long/omp from restart
  restoring bond style harmonic/omp from restart
  restoring angle style harmonic/omp from restart
  972 atoms
  648 bonds
  324 angles
Finding 1-2 1-3 1-4 neighbors ...
  special bond factors lj:    0        0        0       
  special bond factors coul:  0        0        0       
     2 = max # of 1-2 neighbors
     1 = max # of 1-3 neighbors
     1 = max # of 1-4 neighbors
     2 = max # of special neighbors
  special bonds CPU = 0.002 seconds
  read_restart CPU = 0.008 seconds
include 	in.setup
variable	out_freq equal 1000
variable	out_freq2 equal 10000
variable	out_freq3 equal 1000

timestep	2.0

neigh_modify    delay 7 every 1

include		in.tip4p
# This is TIP4P/Ice

# create groups ###
group ox type 2
324 atoms in group ox
group hy type 1
648 atoms in group hy

# set charges - beside manually ###
set group ox charge -1.1794
Setting atom values ...
  324 settings made for charge
set group hy charge 0.5897
Setting atom values ...
  648 settings made for charge

# ### TIP3P Potential Parameters ###
pair_style lj/cut/tip4p/long/omp 2 1 1 1 0.1577 8.5
pair_coeff 1 1*2 0.000 0.000
pair_coeff 2 2 0.21084 3.1668
bond_style  harmonic
bond_coeff  1 450 0.9572
angle_style harmonic
angle_coeff 1 55 104.52
kspace_style pppm/tip4p/omp 1.0e-5
pair_modify tail yes

thermo          ${out_freq}
thermo          1000
thermo_style    custom step temp pe etotal epair emol press lx ly lz vol pxx pyy pzz pxy pxz pyz enthalpy

restart 	${out_freq3} restart.lmp.${pid} restart2.lmp.${pid}
restart 	1000 restart.lmp.${pid} restart2.lmp.${pid}
restart 	1000 restart.lmp.1 restart2.lmp.${pid}
restart 	1000 restart.lmp.1 restart2.lmp.1


include         in.dump
dump            myDump all atom ${out_freq2} dump.water.${pid}
dump            myDump all atom 10000 dump.water.${pid}
dump            myDump all atom 10000 dump.water.1
dump            myDump2 all dcd ${out_freq2} dump.dcd
dump            myDump2 all dcd 10000 dump.dcd
dump_modify     myDump append yes
dump_modify     myDump2 append yes


variable natoms 	equal  "count(all)"                        # NUMBER ATOMS
variable H      	equal  "enthalpy/v_natoms"                 # ENTHALPY-per-atom
variable Vol      	equal  "vol/v_natoms"                 # volume-per-atom
fix AVG all 		ave/time ${out_freq} 1 ${out_freq} v_Vol v_H file vol_enthalpy.dat
fix AVG all 		ave/time 1000 1 ${out_freq} v_Vol v_H file vol_enthalpy.dat
fix AVG all 		ave/time 1000 1 1000 v_Vol v_H file vol_enthalpy.dat


timer           timeout 02:55:00 every 1000
New timer settings: style=normal  mode=nosync  timeout=02:55:00

fix 		1 all shake 1e-6 200 0 b 1 a 1
Finding SHAKE clusters ...
       0 = # of size 2 clusters
       0 = # of size 3 clusters
       0 = # of size 4 clusters
     324 = # of frozen angles
  find clusters CPU = 0.000 seconds
fix             2 all nph aniso ${pressure} ${pressure} ${pressureDamp}
fix             2 all nph aniso 6882.3 ${pressure} ${pressureDamp}
fix             2 all nph aniso 6882.3 6882.3 ${pressureDamp}
fix             2 all nph aniso 6882.3 6882.3 1000
fix             3 all temp/csvr ${temperature} ${temperature} ${tempDamp} ${seed}
fix             3 all temp/csvr 86.47 ${temperature} ${tempDamp} ${seed}
fix             3 all temp/csvr 86.47 86.47 ${tempDamp} ${seed}
fix             3 all temp/csvr 86.47 86.47 100 ${seed}
fix             3 all temp/csvr 86.47 86.47 100 745823


run             250000
PPPM initialization ...
  extracting TIP4P info from pair style
  using 12-bit tables for long-range coulomb (../kspace.cpp:340)
  G vector (1/distance) = 0.3722939
  grid = 24 24 24
  stencil order = 5
  estimated absolute RMS force accuracy = 0.0034962634
  estimated relative force accuracy = 1.0528893e-05
  using double precision FFTW3
  3d grid and FFT values/proc = 3211 432
Last active /omp style is kspace_style pppm/tip4p/omp
Neighbor list info ...
  update every 1 steps, delay 7 steps, check yes
  max neighbors/atom: 2000, page size: 100000
  master list distance cutoff = 10.8154
  ghost atom cutoff = 10.8154
  binsize = 5.4077, bins = 4 4 4
  1 neighbor lists, perpetual/occasional/extra = 1 0 0
  (1) pair lj/cut/tip4p/long/omp, perpetual
      attributes: half, newton on, omp
      pair build: half/bin/newton/omp
      stencil: half/bin/3d
      bin: standard
Setting up Verlet run ...
  Unit style    : real
  Current step  : 35000000
  Time step     : 2
  Walltime left : 2:54:59.93
Per MPI rank memory allocation (min/avg/max) = 10.19 | 10.19 | 10.19 Mbytes
Step Temp PotEng TotEng E_pair E_mol Press Lx Ly Lz Volume Pxx Pyy Pzz Pxy Pxz Pyz Enthalpy 
35000000    93.056413   -5060.6915   -4881.2243   -5060.6915            0    5797.9785    19.840165    19.703533    20.459969    7998.2387    5063.5881    5564.6599    6765.6876    -185.2625   -450.53653    636.55765   -4204.9127 
35001000    86.147749   -5071.8036   -4905.6604   -5071.8036            0    5604.3648    19.735768    19.794034    20.436827    7983.6562    7326.6601    4339.8807    5146.5535   -542.42295   -311.97244   -243.14929    -4253.125 
35002000    87.717461    -5071.209   -4902.0385    -5071.209            0     6735.744    19.847464    19.779367    20.284608    7963.1344    6095.5532    7038.1939    7073.4849    16.832297   -524.64222    -322.3668   -4119.7886 
35003000     88.28586   -5077.5026   -4907.2359   -5077.5026            0    7657.1622    19.732511    19.809651    20.389999    7970.3313    7311.2983    7496.0017    8164.1864   -144.31868      138.938    106.18199   -4017.1742 
35004000    82.751741   -5074.9628   -4915.3691   -5074.9628            0    6719.6132    19.574323    19.915115    20.436907    7966.8148    7380.1183    6482.8967    6295.8245   -15.175635   -129.30776    368.46317   -4134.6319 
35005000     84.80918   -5067.6105   -4904.0488   -5067.6105            0    6008.1228    19.823687    19.704393    20.451268    7988.5461    6679.0938    5297.0811    6048.1936    135.17516    255.10148   -287.36544    -4204.074 
35006000    85.889227   -5066.2695   -4900.6249   -5066.2695            0     6489.251    19.691476    19.813304    20.488382    7993.6082    6626.3281    6599.1279    6242.2972   -5.4774646    281.68808    120.84338   -4144.1173 
35007000    86.887033   -5071.1209    -4903.552   -5071.1209            0    6464.9991    19.731752     19.83512    20.353732    7966.0774    6433.8025    6411.1381    6550.0567   -393.15082    87.754483     1291.594   -4152.4673 
35008000    85.629034   -5066.0333   -4900.8905   -5066.0333            0    6364.9205     19.85291    19.632668    20.472439    7979.4522    6091.4493    7574.0794    5429.2328    16.121959    -613.8272   -54.384804   -4160.1912 
35009000    92.423155   -5073.6462   -4895.4004   -5073.6462            0    6352.2322    19.680766    19.921508    20.390461    7994.4989    7146.4759    5732.6568    6177.5641    464.22469    171.23201    -335.4723   -4154.7837 
35010000    84.050954   -5061.1609   -4899.0616   -5061.1609            0    7527.0778    19.830755    19.800513    20.350075    7990.6428    6962.4552    8102.6573    7516.1209   -369.74715   -173.24224    109.39211   -4021.8911 
35011000    87.654754   -5070.7814   -4901.7319   -5070.7814            0    6777.7702    19.618747      19.7398     20.50112    7939.4715    5923.3331    7651.0192    6758.9582   -224.81142    266.27727    118.65345   -4116.9403 
35012000    91.325866   -5067.3928   -4891.2632   -5067.3928            0    5506.7794    19.684185    19.965909    20.383333    8010.9077    5831.0624    5021.1564    5668.1193   -393.82745    294.79194    -1347.748   -4247.9013 
35013000    88.792867    -5064.302   -4893.0575    -5064.302            0    6998.9423    19.890736    19.710243    20.396548    7996.4919    5493.4349    7516.0163    7987.3758   -315.06172    419.45945      785.219   -4076.8364 
35014000    87.499074   -5077.4635   -4908.7142   -5077.4635            0    6748.1498    19.779579    19.786405    20.410553     7988.012    6104.5014    7029.3018    7110.6461   -138.86101    287.62522     907.5242   -4122.5753 
35015000    86.270069   -5076.5714   -4910.1924   -5076.5714            0     5631.915    19.739942    19.785931    20.559922    8030.1532    6149.3067     5962.945    4783.4934   -106.66202    725.65427   -96.412232   -4250.6301 
35016000    86.638145   -5068.6609    -4901.572   -5068.6609            0    7625.5922    19.577083     19.79482    20.497084    7943.1287    7881.7869    7757.5408     7237.449   -388.51093    85.149927    292.01733   -4018.2052 
35017000     87.12479   -5066.1116   -4898.0841   -5066.1116            0    7850.2909    19.706435     19.76721     20.36006     7931.083    7704.7304    7553.1915    8292.9509   -15.069033    284.90985    780.99947   -3990.0668 
35018000    83.833589   -5073.7502   -4912.0701   -5073.7502            0    6395.9198    19.806465    19.938077    20.212812    7982.0966    5677.3313    6578.0342     6932.394   -365.20111   -646.54692    185.12495   -4167.5166 
35019000    86.433295   -5066.4345   -4899.7406   -5066.4345            0    8018.4015    19.596982    19.809219    20.435617    7933.1251    8386.8316    8064.3989    7603.9739      162.626    181.12334    698.11096   -3972.0397 
35020000    85.169726   -5064.9814   -4900.7244   -5064.9814            0    7224.8025    19.543655    19.921536    20.380095    7934.7781    7660.2542    6927.4267    7086.7267   -326.43716   -235.73545   -227.84315   -4064.6659 
35021000    86.551428   -5076.9133   -4909.9916   -5076.9133            0    7810.5158    19.772382    19.774166    20.340125    7952.6298    6724.8436     8156.106    8550.5978   -260.66923    348.10121    760.14553   -4004.1206 
35022000    85.084002   -5063.3568   -4899.2652   -5063.3568            0     7424.186    19.670355    19.807915    20.408502    7951.7382    7213.7873    7622.1179    7436.6527   -75.660972    236.80909    103.44351   -4038.2976 
35023000    84.979701   -5079.6157   -4915.7252   -5079.6157            0    6404.6454    19.798657    19.848673    20.400791    8017.0429    4917.1731    7474.9727    6821.7905   -56.166618     142.8795   -779.30374   -4166.8918 
35024000    92.600431   -5066.7926   -4888.2048   -5066.7926            0    6442.1679    19.576566    19.952022    20.407176    7970.8814    6858.5108    5649.9642    6818.0287    -197.5589    558.84917   -49.591858   -4139.3213 
35025000    90.479327   -5067.8693   -4893.3723   -5067.8693            0    6969.5509    19.748172    19.783316      20.4003    7970.0776    7013.8715    6496.1661     7398.615    246.33882    1055.4137    316.18551   -4083.2637 
35026000    91.713574   -5068.5352   -4891.6578   -5068.5352            0    7468.2898    19.798171     19.75476    20.367098    7965.7372    7304.0084    8120.5722    6980.2889   -520.05372    1286.0668      681.183   -4024.0509 
35027000    90.624542   -5062.6442   -4887.8672   -5062.6442            0    7325.1169    19.706254    19.765577    20.400075     7945.941    6667.6216    7668.7838    7638.9453   -204.09661    -167.2733     343.0423   -4039.0077 
35028000      85.4415   -5074.0988   -4909.3177   -5074.0988            0    6327.2936     19.78126    19.774867     20.43643    7994.1549    5064.5421    7472.0118    6445.3269    307.86525     157.4983    166.91561   -4171.6404 
35029000    89.316464   -5066.1387   -4893.8844   -5066.1387            0    7713.9632     19.83192    19.705307    20.266555    7920.0494    7968.5579    7225.3651    7947.9667   -291.63382   -441.77875    602.62741   -4002.8769 
35030000    88.393278   -5064.2784   -4893.8046   -5064.2784            0    6815.9993    19.622044    19.714609    20.517914    7937.1687    7401.7793    6220.9278    6825.2907     60.62914    68.560018   -598.01786   -4104.8154 
35031000    86.546394   -5055.1756   -4888.2636   -5055.1756            0    7846.4849    19.783281    19.753769    20.278504    7924.7252    7438.8997    8080.1174    8020.4376    153.76333    218.46438   -1619.3454   -3981.4141 
35032000    88.790767   -5065.1892   -4893.9487   -5065.1892            0    7985.1293    19.844289    19.753755    20.243316    7935.3643    6896.6705    8586.8329    8471.8844   -16.680224    447.08125    247.95391   -3969.8365 
35033000    87.327784   -5071.1426   -4902.7236   -5071.1426            0    6728.4518     19.78382    19.709841    20.496524    7992.3315    5740.5105    7452.1839    6992.6611   -140.58404    269.98886   -705.59089   -4118.4556 
35034000    87.081213   -5079.9741   -4912.0307   -5079.9741            0    5627.2843    19.694261    19.818382    20.467235    7988.5335    5709.8701    5927.0485    5244.9342    -100.3749    -369.8596   -123.70953   -4256.4264 
35035000    84.770709   -5084.1348   -4920.6474   -5084.1348            0    5883.5803    19.699128     19.82152    20.460131     7988.999    6808.2326    5203.2711    5639.2373    60.799794   -292.70848    580.59634   -4235.1435 
35036000    81.494119   -5069.0093   -4911.8411   -5069.0093            0    6912.1621    19.705004    19.910613    20.283975    7958.1887     7550.152    5888.6597    7297.6746    66.567786    38.243908    -894.8909   -4109.6016 
35037000    82.192193   -5059.8879   -4901.3734   -5059.8879            0    6983.0124    19.709655    19.752743    20.428064    7953.0486    6936.1649    7647.0211    6365.8513   -717.77224   -410.32954    255.24291   -4091.4343 
35038000    90.180198   -5069.0965   -4895.1764   -5069.0965            0    6977.7367    19.824919    19.851933    20.249528    7969.4645     7080.587    6483.5046    7369.1186    5.2518136    286.45985   -4.0500919   -4084.1787 
35039000    83.133192    -5070.669   -4910.3397    -5070.669            0    6424.5039    19.684592    19.796875    20.437277    7964.2718    5989.4176    7258.2183    6025.8758    288.34413     92.44885    410.88551   -4164.1288 
35040000    84.080016    -5065.125   -4902.9696    -5065.125            0    7067.9283    19.582676    19.825753    20.477198     7950.094    6617.7553    7677.1956     6908.834   -658.30412    424.57338   -262.20285    -4083.486 
35041000    88.523219   -5070.7465    -4900.022   -5070.7465            0    7170.7267    19.829708    19.700921    20.403283    7970.8179    7397.9718    6532.8102    7581.3983   -163.16532     251.3635    656.51706   -4066.4523 
35042000    87.183585   -5065.9965   -4897.8556   -5065.9965            0    8328.9736    19.695055    19.791433    20.249877    7893.2679    7489.9897    9314.4906    8182.4404   -26.513353   -3.1005885    99.251208    -3939.064 
35043000    89.294134   -5069.5655   -4897.3543   -5069.5655            0    6858.9745    19.760125    19.802862    20.441916    7999.0655    7466.3562    6236.8252    6873.7423   -478.33058    571.88614   -255.28892   -4097.1989 
35044000    85.801344   -5077.2707   -4911.7955   -5077.2707            0    7389.6802    19.702017    19.742768    20.421067    7943.2305    8551.3531    6300.8431    7316.8445    132.03837    440.08065     305.5291   -4055.7464 
35045000    85.582741   -5081.2194   -4916.1659   -5081.2194            0    5612.4298    19.735814    19.747611    20.432947    7963.4381    4373.2266    6172.8556    6291.2073   -577.30175     626.2245   -690.49394   -4264.3463 
35046000    86.311616   -5074.3659   -4907.9067   -5074.3659            0    7062.5748    19.760161    19.718484    20.426109    7958.8373    6139.1691    8424.0445    6624.5108    32.011607   -441.74152   -328.07616   -4088.1432 
35047000     87.94595   -5077.2259   -4907.6147   -5077.2259            0    6676.6563     19.73021    19.811207    20.438679    7989.0557    7515.0612    6247.9794    6266.9283   -6.3380575    652.12271    809.98653   -4129.7029 
35048000     83.73398   -5073.8366   -4912.3486   -5073.8366            0    6861.0517    19.831206    19.721679    20.374544    7968.5794    6972.1919    7541.3162    6069.6468     37.05895   -655.09242    708.75575   -4115.0014 
35049000    90.645863   -5073.0477   -4898.2296   -5073.0477            0    6831.8216    19.727459    19.796721    20.351774    7948.1614    7509.6511     6438.899    6546.9149   -160.99041    -606.8685    131.53458   -4106.3136 
35050000    83.546128   -5072.8385   -4911.7128   -5072.8385            0    7355.4603    19.815397     19.72621    20.346797    7953.2106    6906.7179    7911.3763    7248.2867   -4.7664259    40.529415    33.018771   -4058.5572 
35051000    88.334591    -5052.628   -4882.2673    -5052.628            0    5990.5607    19.690437    19.804166    20.465798    7980.6928    4987.9019    6733.5872     6250.193   -416.36694    1013.4267    1176.4311   -4185.0246 
35052000     86.21895   -5074.8449   -4908.5644   -5074.8449            0    6755.8761    19.688102    19.788659    20.422858    7956.7685    7309.0336    5881.7555    7076.8391    190.26105    294.28163   -875.99219   -4124.6037 
35053000    82.294783   -5075.1533   -4916.4409   -5075.1533            0    6675.2371    19.803797    19.750286    20.362083    7964.2349    7211.1303    5886.3472    6928.2338    318.28529    299.76755    541.54527   -4141.1108 
35054000     90.52846   -5071.5231   -4896.9314   -5071.5231            0    6363.6944     19.96825    19.667939    20.338012    7987.4356     6033.608    7431.5855    5625.8898    184.28868    932.45273   -542.99373   -4155.6338 
35055000    86.247318     -5068.32   -4901.9848     -5068.32            0    7218.5835      19.7451    19.814626    20.396501    7979.9634    6524.9234    8041.6256    7089.2014   -109.14738    533.03832   -947.48317    -4061.889 
35056000    89.403616   -5055.9794    -4883.557   -5055.9794            0     7919.892    19.628308    19.759323    20.443116    7928.7006    8431.9186    7569.3716    7758.3859   -377.60902    303.69581   -133.37449   -3967.7644 
35057000    80.379823   -5069.6475   -4914.6283   -5069.6475            0    6628.2665    19.744107    19.691315    20.515592    7976.2044    6524.3014    7288.1151     6072.383   -274.18169    289.63437    1280.6473   -4143.5968 
35058000    88.373094   -5078.0946   -4907.6597   -5078.0946            0    5767.2681    19.731387    19.839073     20.43727    8000.2193    5690.4058    6115.4012    5495.9973   -403.75174    1287.3495    221.28865   -4234.7637 
35059000    87.050457   -5073.5111    -4905.627   -5073.5111            0    7296.2752    19.786676      19.7944     20.32853    7961.9812    8166.0889    6355.5864    7367.1502    17.591915   -113.71098    383.34504    -4058.403 
35060000    84.681643   -5064.1715   -4900.8558   -5064.1715            0    7141.0424    19.771914    19.833194    20.256211    7943.2749    7461.3274    6601.1097    7360.6902   -77.231556    493.43543   -124.74448   -4073.6052 
35061000    87.705001   -5074.4174   -4905.2709   -5074.4174            0    5819.3917    19.883878    19.787847    20.375484    8016.9202    4686.3663    6468.7462    6303.0625    6.9396182    90.136396   -233.87519    -4224.876 
35062000    91.508988   -5061.7599   -4885.2771   -5061.7599            0    7684.8184    19.672584    19.808595    20.376995    7940.6344     7658.205    7416.0342     7980.216    280.72317    548.02615    535.45769    -3995.329 
35063000    87.890844   -5065.0551   -4895.5502   -5065.0551            0    5776.7436    19.635939    19.748149     20.54735    7967.7169    6115.6417    6136.1722     5078.417   -364.71151    138.31346    184.63147    -4224.287 
35064000    81.572122   -5057.8791   -4900.5604   -5057.8791            0    7390.3165    19.761881    19.661262    20.454188    7947.3421    7209.2745    8007.3943    6954.2806   -85.760779    379.71172    1041.2102   -4043.9944 
35065000    85.663739     -5073.42   -4908.2103     -5073.42            0    7687.3268    19.746024    19.682616    20.493806    7964.9875    8497.0934    7624.1731     6940.714   -178.06012    933.48831    759.29866   -4015.2414 
35066000    89.476687   -5064.7791   -4892.2158   -5064.7791            0    5620.8063    19.715264    19.955004    20.342444    8003.0869    4932.1667    5835.4177    6094.8345   -371.13743    301.97499   -354.83949   -4236.1732 
35067000    84.304361   -5070.3092   -4907.7211   -5070.3092            0    7111.7752    19.523135    19.856476    20.532074    7959.4775    8058.1441     6380.859    6896.3225   -112.35468   -373.66058    101.29899   -4082.1804 
35068000    81.315063   -5061.8973   -4905.0744   -5061.8973            0    6382.8073    19.878538    19.837357    20.282058    7997.9793    5490.6293    7544.4006    6113.3918   -453.18131    295.51249    1417.9392   -4160.5689 
35069000    84.078569   -5077.5455   -4915.3929   -5077.5455            0    7268.4282    19.607984    19.839984    20.442026    7952.3994    7055.4902    7213.4066    7536.3879   -165.83143    307.44623    207.86367   -4072.4181 
35070000     88.78827   -5069.7754   -4898.5397   -5069.7754            0    7079.8432    19.580354    19.735785    20.590975    7957.0456    6610.9116    7632.5049     6996.113   -48.399522     560.2631    646.01889   -4076.9568 
35071000    87.418666   -5066.1153   -4897.5211   -5066.1153            0     7496.745    19.726804    19.704862    20.500197    7968.7125    7914.9199    7135.7751      7439.54   -228.44397    -490.3679   -279.05608   -4026.2831 
35072000    90.155725   -5058.6837   -4884.8108   -5058.6837            0    7728.8348    19.777794    19.768948    20.384007    7969.8653    7538.0564    7341.8901     8306.558   -3.6886225   -149.57753    694.15692   -3986.4705 
35073000    82.806486   -5073.2397   -4913.5404   -5073.2397            0     7613.016    19.773469    19.795977    20.303163    7947.3713    7613.4795    7702.9282    7522.6402   -428.72243    453.44451   -423.96972   -4031.1594 
35074000    83.156301   -5070.7899    -4910.416   -5070.7899            0    7227.7447    19.739242    19.805967    20.393337    7972.8725    6925.0109    7101.8295    7656.3936    193.16853    629.31737    466.48138   -4070.0015 
35075000    85.835069   -5070.1433   -4904.6032   -5070.1433            0    7608.0444    19.726725    19.707828    20.466878    7956.9266    7150.9533     7629.252    8043.9278    127.25396   -228.93487   -95.555126   -4021.7382 
35076000    87.835744   -5076.4716   -4907.0729   -5076.4716            0    6614.0241    19.768859    19.909934    20.298771     7989.529    6525.8857    6540.8361    6775.3503    202.53623   -1055.7947     619.0395   -4136.4129 
35077000    83.125116    -5078.023   -4917.7092    -5078.023            0     6735.811    19.730431    19.759405    20.438864     7968.328    5909.8823    8130.2343    6167.3163    31.202433    -490.8048   -475.62771   -4134.9414 
35078000    87.260484   -5057.8357   -4889.5465   -5057.8357            0    6886.3416    19.703679    19.802178    20.397269    7958.5196     6996.062    6289.7593    7373.2035   -167.14389   -69.743142    357.80589   -4090.2706 
35079000    85.656262   -5070.7235   -4905.5282   -5070.7235            0    6633.9856    19.709408    19.735302    20.404969    7936.9436    6859.9972    6156.1624    6885.7971   -153.43632    1094.1107    95.706263   -4137.6299 
35080000     85.79523   -5060.7441   -4895.2808   -5060.7441            0    6454.8528    19.616772    19.776963    20.558154    7975.7454    7107.9904    6447.7122    5808.8559    44.824104    702.28436     474.3226   -4144.4648 
35081000    86.137343   -5067.3506   -4901.2275   -5067.3506            0    5638.2334    19.693739    19.905135    20.381931    7989.8498    5725.8508    5668.2546    5520.5947   -52.312632   -559.61514   -657.26051   -4244.2393 
35082000     87.57488    -5083.386   -4914.4904    -5083.386            0    6700.1174    19.869081    19.805755    20.353245    8009.4525    5933.3332    7036.4032    7130.6158    36.605398    990.76089   -139.40079   -4131.8521 
35083000    86.326612   -5066.4469   -4899.9588   -5066.4469            0    7272.7177    19.624791    19.777956    20.525157    7966.5984    8060.0058    6123.3759    7634.7715   -710.88704    859.83368    286.30878   -4054.9805 
35084000      91.3767   -5069.3794   -4893.1517   -5069.3794            0    6625.7003    19.774141    19.818411    20.399898    7994.5582    6633.6043    6985.2283    6258.2684   -407.25288    501.77947    -50.12006   -4120.6452 
35085000    85.928962   -5077.8523   -4912.1311   -5077.8523            0     6215.473    19.719245    19.920096    20.324674    7983.7201    7099.6012    5277.3656    6269.4521   -167.45119    13.319353    459.54562   -4188.4364 
35086000    85.477671    -5074.762   -4909.9111    -5074.762            0    6749.1979    19.757069    19.862391    20.381363    7998.1078    6914.5365    6397.9676    6935.0897   -83.086054    757.92236    -224.9003   -4122.6564 
35087000    85.758783    -5069.919    -4904.526    -5069.919            0    7097.2015    19.822032    19.695844    20.373277    7953.9646    7447.0463    6812.4725    7032.0856    49.378404    1084.5166     -219.556   -4081.2477 
35088000    89.004557    -5074.105   -4902.4523    -5074.105            0    7366.4074    19.724593    19.764098    20.379358    7944.6641    7353.1915    7854.3828    6891.6479   -426.97786    1007.3242    -930.0583   -4048.9451 
35089000    80.948034   -5073.7599   -4917.6448   -5073.7599            0    6960.5525    19.664878    19.746286     20.44032    7937.1459    6127.0336    7447.8342    7306.7896   -414.71996    432.83616    90.077179   -4111.9252 
35090000    83.184883   -5060.4338   -4900.0047   -5060.4338            0    7994.8229    19.768463    19.711761    20.350935    7930.1734    8515.9228    7831.2939    7637.2519   -524.61455   -219.54579    254.48881   -3975.3759 
35091000    80.688063   -5063.2817    -4907.668   -5063.2817            0    6794.2179    19.751056    19.784643    20.380875    7964.1851    6882.5899    6719.6681    6780.3958   -629.99543    877.69035   -46.079305   -4118.5232 
35092000    88.419167   -5077.0166   -4906.4928   -5077.0166            0    6820.8167    19.785711    19.739379    20.417741     7974.305    5966.4178    7286.4826    7209.5498   -384.13872    8.9307796    718.51626   -4113.2519 
35093000    89.466549   -5065.4339   -4892.8902   -5065.4339            0    6811.9883    19.828201    19.789911    20.291861    7962.4924    5212.5283    7701.0668    7522.3699   -154.49989     112.9452    1013.6387   -4101.8495 
35094000    88.790574   -5067.8725   -4896.6324   -5067.8725            0    6985.6833    19.581089    19.889833    20.323934    7915.4526    8381.7844    5028.1048    7547.1608    89.024875    65.300811   -1116.6264   -4090.2138 
35095000     82.52954    -5077.315   -4918.1498    -5077.315            0    7125.9596    19.790736    19.801962    20.339777    7971.0649    7547.8802    6229.9939    7600.0048    24.418662    983.74389    105.66716   -4089.7584 
35096000    89.448024   -5074.3896   -4901.8816   -5074.3896            0    6695.9779    19.656306    19.834589    20.476194    7983.1511    7345.8281    6164.0916     6578.014    202.81936    722.89827   -56.929494   -4122.2952 
35097000     87.91602   -5067.6741   -4898.1206   -5067.6741            0    7320.9031    19.716897    19.645278    20.421377    7910.0964    6588.8245    7244.1864    8129.6985   -772.16708    100.97286    50.980819   -4053.5765 
35098000    84.479591   -5071.1747   -4908.2487   -5071.1747            0    5865.2132    19.759599    19.863697    20.421959    8015.5919    5305.5237    6714.2701    5575.8458    321.19426    864.41053    643.70631     -4222.61 
35099000    84.887578   -5068.5779    -4904.865   -5068.5779            0    7359.3337    19.807752     19.69068    20.402415    7957.5153    7578.4318    6947.3254    7552.2439    99.087199     874.7358    592.61115   -4050.7982 
35100000     85.05152   -5071.7245   -4907.6955   -5071.7245            0    5436.0077    19.653918    19.715668    20.607564    7985.2277    5841.9403    5782.8776    4683.2053   -164.65453   -98.039261   -319.18167   -4274.6379 
35101000    82.202555   -5076.6455    -4918.111   -5076.6455            0    6257.2317    19.693797    20.013129    20.273833    7990.6171    7387.1138    4510.8667    6873.7146    376.54542    404.80794   -16.037864   -4188.9247 
35102000    85.040243   -5071.5686   -4907.5613   -5071.5686            0     5186.043    19.820054    19.768005    20.449719      8012.26    4708.3912    5458.0799     5391.658    -228.5778    427.16189   -177.96101   -4301.5691 
35103000    88.430023    -5072.066   -4901.5213    -5072.066            0     6365.764    19.664666    19.913949    20.427751    7999.5309     6198.031    5919.8617    6979.3994   -250.50168    368.58974    625.38683   -4158.8597 
35104000    92.555613   -5079.0041   -4900.5029   -5079.0041            0    6239.6183    19.751312    19.906756    20.331427    7994.0029    6456.3966    5180.2341    7082.2243   -57.119478    90.652016    439.35339   -4173.0611 
35105000    88.192422   -5064.8409   -4894.7543   -5064.8409            0    5710.7809    19.844657    19.770482    20.462673    8028.2932    5150.5599    6079.1622    5902.6206   -378.25004   -413.21123      440.157   -4226.1109 
35106000    83.074832   -5071.1226   -4910.9058   -5071.1226            0    7339.6878    19.731818    19.752729    20.413327    7956.2424    6071.6377    8698.7116    7248.7141    59.810961   -4.7027533    149.54281   -4059.2552 
35107000    87.379754   -5064.8345   -4896.3153   -5064.8345            0     6801.207    19.716023    19.731597    20.361906    7921.3645    6687.4409    7248.7578    6467.4221   -248.53891    931.59386    559.90711    -4110.606 
35108000    84.466039   -5064.1481   -4901.2483   -5064.1481            0    7221.7687    19.832667    19.819981    20.411535    8023.4288    7637.7876     6278.942    7748.5767   -387.82761    299.28151    111.06428    -4056.204 
35109000    85.966754   -5069.5736   -4903.7795   -5069.5736            0    7041.8902    19.726145    19.782602    20.404851     7962.676    6334.1373    8059.4415    6732.0917   -351.99939   -238.47203   -177.87795   -4086.0226 
35110000    89.176329   -5061.9054   -4889.9214   -5061.9054            0    7637.3278    19.847917    19.705173    20.282693     7932.696    7679.1841    7316.8465    7915.9528    303.74132    338.70454   -15.168196   -4006.3572 
35111000    90.813244   -5073.9561   -4898.8152   -5073.9561            0    5644.2548    19.826082    19.841379    20.405727    8027.1397    5424.1464    5774.8494    5733.7686    78.330119     779.2489   -328.79118   -4238.0558 
35112000    86.820496   -5067.6361   -4900.1955   -5067.6361            0    6694.4063    19.923506    19.760671    20.288984    7987.8102    6726.6945    6983.9594     6372.565    293.70005     1187.904    139.64944   -4120.3372 
35113000    82.933671    -5072.328   -4912.3834    -5072.328            0    6441.3126    19.665397    19.733371    20.543493    7972.2018    6353.8524    6183.0877    6786.9976   -360.87483   -172.55685    640.30256   -4163.4753 
35114000    83.103414   -5058.7321   -4898.4602   -5058.7321            0    7163.5358    19.809522    19.697416      20.4139    7965.4303    6428.1675    7556.3761    7506.0639    48.780279    340.57227    292.99183   -4066.2892 
35115000    85.547424   -5069.5031   -4904.5177   -5069.5031            0    7103.8381    19.788981    19.728692    20.445985    7982.3315    6999.7514    7651.4808    6660.2822   -241.72826   -187.56955    588.15224   -4077.5307 
35116000    85.628379   -5072.6751   -4907.5336   -5072.6751            0    7484.9482    19.563543    19.743948    20.501962    7919.1201    8172.1869     6717.383    7565.2746    41.887512    72.002387    861.93415   -4043.0801 
35117000    83.593962   -5075.8901   -4914.6722   -5075.8901            0    5601.0429    19.849712     19.75579    20.380877    7992.2943    4285.7258    6407.6547    6109.7482   -314.58922    629.94205   -1196.6573   -4261.8179 
35118000    83.842465   -5069.8567   -4908.1595   -5069.8567            0    7463.2157    19.866155    19.690628    20.331617    7953.2627    7249.5978    7463.4904     7676.559   -224.07464      579.649    106.20424   -4042.4998 
35119000    83.673831   -5076.9066   -4915.5345   -5076.9066            0    6555.8165    19.715121    19.759484    20.514658    7991.7029    5879.5592    6963.0058    6824.8845    14.287745    23.199445    830.59957   -4151.4489 
35120000    85.934319    -5067.897   -4902.1654    -5067.897            0    7500.7847    19.715764    19.670632    20.552929    7970.8686    6799.0253    9149.7479    6553.5809   -82.670661    629.30892   -285.70314   -4030.2221 
35121000    84.329734   -5074.4357   -4911.7987   -5074.4357            0    6852.1433    19.784652    19.709865    20.371796    7944.0393    6180.7837     7490.597    6885.0492   -203.74516    87.620123     570.8526   -4117.9391 
35122000    88.155906   -5061.4281    -4891.412   -5061.4281            0    7385.7089    19.699507    19.848686    20.323482     7946.671    7755.3601    7250.5826    7151.1841   -701.05666    513.38797    1180.0084   -4035.4523 
35123000    84.110728   -5061.6984   -4899.4838   -5061.6984            0    7544.1244    19.637219    19.762929    20.422084    7925.5854    9074.4735     7272.169    6285.7308    143.55448   -442.66788   -441.37095   -4027.4846 
35124000    87.006811   -5069.3534   -4901.5535   -5069.3534            0    6122.7715    19.714124     19.73956    20.459985    7961.9647    6625.1849     6214.681    5528.4485   -154.36902   -179.00772    -486.9559   -4190.5951 
35125000    89.239377   -5068.2922   -4896.1866   -5068.2922            0    6342.4538    19.750523    19.776653    20.436842    7982.6148    5512.9584    7362.4729      6151.93   -563.82764   -990.35578    869.73599   -4157.8092 
35126000     83.52643   -5077.0368   -4915.9491   -5077.0368            0    6619.8308    19.692512    19.776031    20.469423    7971.6065    6882.0179     5910.643    7066.8317    -374.4517    712.66434     643.0113   -4146.3427 
35127000    89.932098   -5078.0281   -4904.5865   -5078.0281            0    7748.0059    19.746987    19.704428    20.390271     7933.917    7196.5434    7823.1682    8224.3061    -259.2489     1331.068   -224.20512   -4008.0799 
35128000    83.748702   -5065.5152   -4903.9988   -5065.5152            0    7721.2899    19.661929    19.835131     20.29491    7914.9528    6850.8307     8116.326    8196.7129    -549.5564   -782.57438   -382.58874   -4012.7189 
35129000    88.143231    -5063.803   -4893.8114    -5063.803            0    6063.7761     19.81813    19.706881    20.516114    8012.6409    6120.2115    6156.6636     5914.453    130.77468    204.05086    307.02302   -4185.2219 
35130000    85.160158   -5080.1116   -4915.8731   -5080.1116            0    7237.1852    19.785883    19.705621    20.390541    7950.1316     7170.268    7334.6552    7206.6324    94.168526    360.90809    747.67247   -4076.7612 
35131000    82.811563   -5075.9449   -4916.2358   -5075.9449            0    7802.1264    19.565948     19.87103    20.438028     7946.214     7971.351    7584.8249    7850.2032   -8.5051184    874.06592    912.60181   -4012.0678 
35132000    90.874297   -5072.7515   -4897.4927   -5072.7515            0    5690.6029    19.670805    19.888093    20.509834    8023.7509    6879.5389    4610.3872    5581.8825   -316.89778    105.45906   -69.302565   -4231.5888 
35133000    92.640631   -5072.3295   -4893.6642   -5072.3295            0    6649.2772    19.782308    19.874004    20.299367    7980.7707    6924.3578    5571.5187     7451.955    171.33436    748.71599   -372.55577   -4119.7459 
35134000    83.041783   -5070.1588   -4910.0058   -5070.1588            0     6717.718    19.745073     19.67932     20.52552    7975.5935    6470.9756    7285.0388    6397.1394    163.54849    637.84373   -27.643051   -4128.6287 
35135000    84.489783   -5070.4708   -4907.5251   -5070.4708            0    6914.8702    19.724665    19.735382    20.529075    7991.4308    8259.7698    6014.3489    6470.4918    605.44418   -248.96912    556.44226    -4101.619 
35136000     88.79517   -5074.4977   -4903.2488   -5074.4977            0     6833.739    19.792872    19.774535    20.411682    7989.0274     6506.841    7139.1338    6855.2421   -256.01419   -970.45232    993.51468   -4107.0378 
35137000    86.761913   -5078.5309   -4911.2033   -5078.5309            0    6919.9817    19.779241    19.742126    20.447256    7984.3314    6666.1783    7172.3557    6921.4109    57.423297   -303.53361    69.321421   -4105.4179 
35138000    84.062009   -5071.8067    -4909.686   -5071.8067            0    6684.8374    19.727694    19.825103    20.395526    7976.7629    7270.8512    5766.4849    7017.1761   -123.81714   -339.16658      393.913   -4132.0195 
35139000    82.374636   -5076.6931   -4917.8267   -5076.6931            0    7150.1823    19.747792    19.810256    20.377304    7971.7809    7330.0273    6623.5698    7496.9498    161.68688   -19.948998    840.96738   -4086.5447 
35140000    89.562693   -5073.9491   -4901.2199   -5073.9491            0    5895.9399    19.801517    19.834681    20.375628    8002.6659    5083.6265    5802.4438    6801.7495   -302.34064   -304.99207    80.611703   -4213.1008 
35141000      86.9091   -5073.0107   -4905.3992   -5073.0107            0    6844.1187    19.582086    19.822354    20.526727    7967.7167    8683.4351    6650.2608    5198.6603   -100.08853   -340.44809     341.7311   -4110.1059 
35142000    88.785188   -5072.9928   -4901.7631   -5072.9928            0    7345.4025    19.649172    19.749492    20.452574    7936.8499     10066.44      5500.53    6469.2375   -416.06965    95.947031    435.23579   -4051.5268 
35143000    86.580364   -5074.2936   -4907.3161   -5074.2936            0    6288.5849    19.728317     19.91374    20.304357    7976.8625    4998.1378    7213.8504    6653.7666    35.379942   -374.03888   -715.00156   -4175.7376 
35144000    88.364673   -5077.6663   -4907.2476   -5077.6663            0     5394.363    19.576802    19.891489    20.509505    7986.6424    5895.7185    4375.2524    5912.1182   -288.98999    94.555637    155.07676   -4278.9285 
35145000     86.96523   -5067.7523   -4900.0326   -5067.7523            0    7657.1198    19.702863    19.769763    20.345242    7924.8977    8060.0353    7459.4832     7451.841    22.591457    625.52741    690.86721   -4015.0495 
35146000    82.862037    -5068.659   -4908.8526    -5068.659            0    6911.7098    19.901452    19.745802    20.290134    7973.4164    6693.5294    6674.6982    7366.9019    172.52859    437.84478   -39.188802   -4105.1306 
35147000    83.135994    -5073.607   -4913.2722    -5073.607            0    7531.4534    19.662104    19.697367    20.499425    7939.2566    7671.4878    8281.2051    6641.6672    78.870588     1098.169     240.0628    -4041.236 
35148000    83.728179    -5072.166   -4910.6892    -5072.166            0    7731.2021    19.698656    19.705903    20.454485    7940.0181    7316.9649    8574.2333     7302.408    278.17561    93.929867    840.64624    -4015.439 
35149000    90.481857   -5071.9464   -4897.4445   -5071.9464            0    7054.5448    19.685977     19.84687    20.421985    7978.9724    7735.6156    6418.8089    7009.2099   -31.583502    1025.4506   -156.04801   -4076.5415 
35150000    84.678034   -5072.9401   -4909.6314   -5072.9401            0    6527.2691    19.822589    19.754089    20.429999    7999.9215    6669.0286    5861.7609    7051.0177    -220.3787    453.07126   -397.56731   -4148.0907 
35151000    91.076698    -5070.242   -4894.5929    -5070.242            0    6564.5939    19.774959    19.836927    20.387444    7997.4726     6472.189    6311.6673    6909.9253   -1.3679129    -287.4131   -502.69459   -4128.9319 
35152000     87.71309   -5068.1262   -4898.9642   -5068.1262            0    6646.5337    19.669529    19.728785    20.534584    7968.5668    6058.0634    7027.9133    6853.6244   -560.63843    613.68612    402.13009   -4126.5481 
35153000    87.835257   -5071.3734   -4901.9758   -5071.3734            0    7425.5305    19.755908    19.684628    20.417472    7940.1035    8451.2355    6777.8951     7047.461   -179.38588    106.26897   -5.3197244   -4042.1122 
35154000     84.91061    -5065.948   -4902.1907    -5065.948            0     6476.361    19.651893     19.80653    20.408704    7943.7983    5326.2358    6772.0104    7330.8367    204.55057    593.06072   -172.23723   -4151.8904 
35155000     87.66243   -5076.4708   -4907.4065   -5076.4708            0    5827.4509    19.849305    19.783461    20.316782    7978.1553    5761.6777    5711.3276    6009.3473   -197.11812     1006.778   -63.183989   -4229.3638 
35156000    83.215699   -5067.1153   -4906.6269   -5067.1153            0     6851.604    19.777461    19.666046    20.389899    7930.5383    7246.1223    6788.8865    6519.8032    26.782252   -992.54926    -509.1962   -4114.1788 
35157000    86.648244   -5068.3206   -4901.2122   -5068.3206            0    6890.1231    19.729661    19.741925    20.438549    7960.8452     7148.762    6345.8674    7175.7398    244.05289    887.69055   -170.97795   -4101.2637 
35158000    82.306077   -5075.7925   -4917.0583   -5075.7925            0    6584.7161    19.789999    19.904653    20.255124    7978.7576    6919.1222    5457.4692    7377.5567    112.73381    96.975568    231.50258   -4150.8476 
35159000    85.988766    -5072.845   -4907.0085    -5072.845            0    7405.9122    19.587395    19.742675    20.526724    7937.8396     7888.854    7856.8205    6472.0622    -278.9679    246.52649    630.01888   -4049.6612 
35160000    87.424683   -5068.1332   -4899.5274   -5068.1332            0    6689.5661    19.739159    19.739767    20.388212    7944.1935    6325.5353    6802.3899    6940.7729    -158.3964    335.83347   -308.12925   -4124.4882 
35161000    84.682303   -5073.4515   -4910.1345   -5073.4515            0    7477.3414    19.902144    19.587766    20.461585    7976.7144    5769.3452    10372.117    6290.5623    24.358197     968.7781   -324.31358    -4040.279 
35162000     82.77472   -5062.4015   -4902.7634   -5062.4015            0    6711.0273    19.714366    19.862108    20.417878     7995.005    7319.5964    6540.4902    6272.9953   -396.11989    421.60715    836.97021   -4120.2647 
35163000    87.134556   -5070.5235   -4902.4772   -5070.5235            0    7496.1853    19.733863    19.759814    20.442808    7971.4169    7581.3217     7481.329    7425.9052    77.526116    360.64689    -126.1723   -4031.0086 
35164000    83.994987   -5068.5178   -4906.5264   -5068.5178            0    7388.6253    19.627756    19.836494    20.326232    7913.9345    7315.6203     7174.761    7675.4946   -576.32992   -222.76336     475.4779   -4053.7563 
35165000    88.790306     -5070.96   -4899.7205     -5070.96            0    7604.8687    19.723503    19.742288    20.376811     7934.467    7883.5132    7786.3872    7144.7056   -335.42611    258.56543    184.19041    -4019.715 
35166000     83.91972   -5057.8308   -4895.9846   -5057.8308            0    6796.4568    19.744189    19.840426    20.320549    7960.2323    7454.5049    6182.9272    6751.9382    358.97463    146.40004    170.78047   -4106.9715 
35167000    87.698631   -5067.7028   -4898.5686   -5067.7028            0    7578.6734    19.755028    19.699351    20.402671    7939.9286    7322.9237    7877.2977    7535.7988    366.17523    904.68719    7.2233243   -4020.9907 
35168000    89.881968   -5065.1529    -4891.808   -5065.1529            0    7040.4591    19.632783    19.814609    20.495867    7973.2187    6239.0332    7582.2617    7300.0826   -438.91045    697.16931   -96.801381   -4073.1348 
35169000    89.241271   -5068.2254   -4896.1161   -5068.2254            0    6588.1888    19.741972    19.726296    20.513733    7988.7855    5799.2258    7248.2367    6717.1039    120.69072    -17.33771   -89.676259   -4128.5378 
35170000     88.25835   -5075.2894   -4905.0758   -5075.2894            0    6161.7209    19.662698    19.863279    20.503489    8007.9584    7119.6083     4555.243    6810.3115    284.91062    158.70303    183.34666   -4185.4616 
35171000    89.878067   -5072.7946   -4899.4572   -5072.7946            0    5585.1958    19.745627    19.799356    20.415022    7981.2671    6484.2411    5077.9846    5193.3616   -594.27675    158.70706    1418.2655   -4249.3483 
35172000    85.332336   -5072.2851   -4907.7146   -5072.2851            0    6843.5791    19.758668    19.755608     20.41631    7969.3943    7744.0392    6875.8615    5910.8366   -134.65565   -402.00842    220.31542   -4112.3165 
35173000    85.119716   -5073.4067   -4909.2461   -5073.4067            0     7479.638     19.66912    19.825801    20.344502    7933.4621    7615.9797    7369.4277    7453.5066   -280.61105    232.04733   -131.60814   -4043.8415 
35174000     85.38331   -5066.6898   -4902.0209   -5066.6898            0    7345.6424    19.706255    19.604193    20.545514    7937.2504    7090.6487    8164.9678    6781.3107     24.21928   -85.579232     120.1252   -4051.7139 
35175000    86.723363   -5071.5486   -4904.2953   -5071.5486            0    7860.2138    19.822822    19.704286    20.346673    7947.2996    5859.6145    9463.5723    8257.4547   -339.58036   -558.45709    336.82538   -3993.2712 
35176000    84.349818   -5072.3478    -4909.672   -5072.3478            0    6884.4677    19.677314    19.819655    20.362818    7941.4499     7432.964    6343.2963    6877.1428   -141.61545    1445.6964    575.77278   -4112.3274 
35177000    87.637974   -5068.4482    -4899.431   -5068.4482            0    6887.2942    19.818204    19.732602    20.344903    7956.1743    6171.3531    7085.5721    7404.9574    185.35909   -95.322001   -823.35712   -4100.2801 
35178000    85.290444   -5069.2395   -4904.7497   -5069.2395            0    7595.1379    19.694678    19.827012    20.418272     7973.062    7406.0094    7159.1311    8220.2732    36.256064    420.93523    554.77241   -4021.5952 
35179000    89.535724   -5066.7951   -4894.1179   -5066.7951            0    6683.0458    19.771055    19.685656    20.486401    7973.4341    6967.5292    6489.6169    6591.9913   -266.64579   -195.64246    228.67841   -4116.9842 
35180000    86.031812   -5059.9524   -4894.0328   -5059.9524            0    7196.3398    19.629907    19.820159    20.379224    7928.9013    6630.0628      7442.84    7516.1165    115.86498    1522.9297    115.52141   -4061.8848 
35181000    85.655624   -5070.8973   -4905.7033   -5070.8973            0    6870.7772    19.595028    19.907546    20.345617    7936.5996     7107.056    5863.8228    7641.4528    8.8646971   -247.31566    179.50573   -4110.4303 
35182000    84.536045   -5072.6079    -4909.573   -5072.6079            0    6065.1423    19.786269    19.858617    20.394498    8013.5677    6631.8293    4513.8272    7049.7705    51.996702    208.13212   -220.72515   -4200.7419 
35183000    84.851592   -5081.5971   -4917.9537   -5081.5971            0    7247.5371    19.819515    19.716017    20.439473    7986.9671    7609.2594    7187.1709    6946.1811   -569.23699   -355.13362   -574.59008   -4073.7481 
35184000    84.536078   -5079.2303   -4916.1953   -5079.2303            0    6353.2928    19.688542    19.851535    20.430822    7985.3412    6038.2538    6008.0428    7013.5819   -356.04351    812.89752   -37.670133   -4176.3035 
35185000    87.876082   -5064.4687   -4894.9923   -5064.4687            0    7930.2216    19.717016    19.680703    20.509412    7958.5693    8697.3877    7510.6496    7582.6276    356.51869    357.36064   -679.80092   -3974.5507 
35186000    88.128012   -5064.7137   -4894.7514   -5064.7137            0    7836.6864    19.712636    19.698508    20.470925     7949.055    7267.7541    8550.5252    7691.7801    59.480588    651.11911   -298.05553   -3986.2536 
35187000    85.552356   -5071.7141   -4906.7192   -5071.7141            0    7348.8849    19.693011    19.756411    20.402567    7937.8883    7645.4257    6542.6588    7858.5702    118.89876    473.36589    35.443043   -4055.9685 
35188000    87.650243   -5069.5126   -4900.4718   -5069.5126            0      6614.23    19.915919    19.802971    20.245002    7984.5147    5340.6589    7298.5603    7203.4708   -153.88133    690.89669    871.10427   -4130.2714 
35189000    83.117703   -5077.6827   -4917.3833   -5077.6827            0    6605.0846    19.709536    19.869329    20.451729     8009.209    6863.9747    5579.1392    7372.1398   -177.97977   -307.07707   -967.82597   -4145.8691 
35190000    89.521278   -5066.2519   -4893.6026   -5066.2519            0     5697.404    19.647793    19.772906    20.600815    8003.2925    6772.1077    4996.5096    5323.5948    10.203154   -246.75558    358.39959   -4228.6027 
35191000     82.56198   -5063.5808   -4904.3531   -5063.5808            0    5831.5335    19.698003    19.935163    20.382306    8003.7831    5730.7375    5419.4137    6344.4493   -110.53126    633.17663     -133.282   -4223.6559 
35192000    85.535996   -5064.5976   -4899.6342   -5064.5976            0    7379.2252    19.785424    19.645507     20.43725    7943.8503    7895.8541    6581.5224    7660.2992    1.8883513    419.95016    359.58126   -4044.7295 
35193000    85.174969   -5068.0576   -4903.7905   -5068.0576            0    6666.2407    19.694387    19.800683    20.453458    7976.0777    7236.4481    6019.3946    6742.8794    129.97587    -476.6315    693.38154    -4128.354 
35194000    91.014719   -5072.8998   -4897.3702   -5072.8998            0    6518.7819    19.739165    19.739688     20.50761    7990.6869    7207.1032    6991.4938    5357.7488   -109.92159    515.38827   -349.40353   -4137.6976 
35195000    83.492155   -5064.0201   -4902.9984   -5064.0201            0    7117.9093    19.655322    19.709426    20.544758    7958.9392    7294.2124    7146.3864    6913.1292   -14.042296    244.23932    203.71214   -4076.8016 
35196000    88.459229   -5079.9786   -4909.3775   -5079.9786            0    6198.4298    19.652163    19.885776    20.480535    8003.7629    6909.3167    5093.4791    6592.4936   -729.84304    462.93643    1083.3765   -4185.8554 
35197000    84.824072   -5063.8896   -4900.2993   -5063.8896            0    7856.8297    19.746714    19.759878    20.355954    7942.7436    6476.7853    9555.2161    7538.4876   -136.71546   -231.40993   -650.70047   -3990.1895 
35198000    87.015666   -5069.1557   -4901.3386   -5069.1557            0    6337.3853    19.844461    19.632711    20.472007    7975.9054    5084.4838    7782.0828    6145.5894   -303.11089    1211.8913   -1077.0784   -4164.1714 
35199000    87.642015   -5062.7561   -4893.7311   -5062.7561            0    7229.6497    19.653614    19.924692    20.298697    7948.8116     8021.891    5853.9357    7813.1225   -332.95607   -174.25823    446.23923    -4055.632 
35200000    86.718065   -5073.2846   -4906.0415   -5073.2846            0    7464.2218    19.806516    19.590705    20.504112    7956.0794    7658.7631    7851.8989    6882.0034    267.95051    473.65747    732.38056   -4039.9585 
35201000    86.098922   -5075.7469   -4909.6978   -5075.7469            0    6346.0552    19.693093     19.81314    20.461065    7983.5392    6741.9643    5488.9177    6807.2838   -497.94553   -395.74655    548.95923   -4170.8157 
35202000    86.413392   -5073.4897   -4906.8342   -5073.4897            0    6167.1959    19.729821    19.850713    20.406104    7992.0715    5082.2873     6490.192    6929.1086   -126.29222   -255.67502    559.49698   -4188.0095 
35203000    86.588844   -5076.5291   -4909.5352   -5076.5291            0    7055.1273    19.820038    19.819989    20.263197    7960.0511     6964.288    6802.4568    7398.6369    138.17778   -155.76182    -753.2151   -4090.5113 
35204000    82.945448   -5071.9521   -4911.9848   -5071.9521            0    6918.3947     19.82581    19.706527    20.420715    7978.3295    6896.2097    7000.6647    6858.3096   -229.56463    -148.2105   -164.37587   -4106.9898 
35205000    87.956324   -5085.2573   -4915.6262   -5085.2573            0     7464.648    19.688997    19.831382    20.375751    7955.9164    8518.1087    6971.6392    6904.1961   -508.80838    190.90438    199.23999   -4049.5114 
35206000    87.455779    -5075.254   -4906.5881    -5075.254            0    7393.4996    19.552022    19.825394    20.383268     7901.096    7230.3143    7025.0768    7925.1076   -330.03746   -533.22419   -204.71036   -4054.6398 
35207000    85.447741   -5067.3974   -4902.6043   -5067.3974            0    7545.8162    19.722403    19.893857     20.21574    7931.7401     8374.074    5792.1597    8471.2147    463.94301    627.57877   -11.438944   -4029.7322 
35208000    86.762226   -5068.7925   -4901.4642   -5068.7925            0    6153.4991    19.748865    19.839213    20.359522    7976.9002    5779.8104     6491.002     6189.685    137.28802    927.61019    530.42589   -4185.5975 
35209000     87.30751   -5068.1705   -4899.7906   -5068.1705            0    7156.2358    19.681351    19.765548    20.400642    7936.1083     6423.437    8533.1198    6512.1507   -522.65599   -655.64022   -469.90958   -4071.5279 
35210000     89.53548    -5066.016   -4893.3393    -5066.016            0    6151.4091    19.751097     19.73295    20.416229    7957.1723    5966.2269    5494.6918    6993.3084   -123.54121   -347.44749    155.04037   -4179.4855 
35211000    88.278963   -5072.8334     -4902.58   -5072.8334            0    5726.3359    19.721812    19.784169    20.446603    7977.8488    6195.4998    4969.3531    6014.1547   -597.58006     167.4619   -405.81074    -4236.328 
35212000    86.773887   -5071.4764   -4904.1256   -5071.4764            0    6984.1554    19.717711    19.765801    20.436036    7964.6659    6690.7103    7640.4088    6621.3469     126.0626   -517.34473    632.45788   -4092.8707 
35213000    86.489853   -5060.5084   -4893.7054   -5060.5084            0    7507.1296    19.752467     19.84554    20.314859    7963.3918    8197.8297    7189.2992    7134.2599   -545.04193     1367.672   -544.82228   -4021.8431 
35214000    86.352885   -5068.7879   -4902.2491   -5068.7879            0    6989.9961    19.636288    19.790795    20.498705    7966.1604    7705.2007    6728.9961    6535.7915   -16.334885    124.88512   -100.05752   -4090.1634 
35215000    84.236873   -5083.9941   -4921.5362   -5083.9941            0    5876.9982    19.720532     19.78918    20.441357    7977.3039    6357.0697    5929.2372    5344.6878   -51.224717    1.3695493    419.73689   -4237.8016 
35216000    87.430857   -5079.8309   -4911.2131   -5079.8309            0    6033.3432    19.832942    19.806778    20.365235    8000.0078    5101.7131    6173.3378    6824.9786    166.51599   -217.35227    -507.5704   -4207.2915 
35217000    82.094409   -5074.5344   -4916.2084   -5074.5344            0    6752.3731    19.865875    19.625421     20.42098     7961.653    6177.8361    8004.8804    6074.4027    203.88771    1182.9623   -738.37966   -4132.1732 
35218000    89.592391   -5065.8302   -4893.0437   -5065.8302            0    7257.2516    19.675509    19.746146    20.400582    7925.9416    7248.0645    7113.0055    7410.6849    -159.6311    555.36703   -166.19201   -4054.1654 
35219000    85.961402   -5064.5305   -4898.7467   -5064.5305            0    6096.6104    19.654096    19.784851    20.490976    7967.9846    7467.9732    5300.4939     5521.364   -212.20615   -4.7883461    273.76481   -4190.2908 
35220000     83.10209   -5073.5067   -4913.2373   -5073.5067            0    6295.0175    19.778379    19.688422     20.48199    7975.7912    6159.6397    6704.1903    6021.2225   -313.28296   -140.46145     350.0106   -4181.0088 
35221000    82.200223    -5067.127    -4908.597    -5067.127            0    6213.0458    19.727233    19.815032    20.467636    8000.7121    6370.8386    6250.8934    6017.4055   -184.47973     12.77959   -918.94655   -4183.6453 
35222000    83.692828   -5070.9626   -4909.5539   -5070.9626            0    7694.7922    19.790112    19.712064     20.39261    7955.2377     7999.393    7698.5479    7386.4357   -299.20836    363.56939   -578.36512    -4016.812 
35223000    87.574464   -5072.4405   -4903.5458   -5072.4405            0    7890.9949    19.713186    19.757974    20.323648    7915.9107    8139.6568    7608.0875    7925.2404    -160.9783    402.06215    606.20897   -3992.5664 
35224000    83.993068   -5066.6185   -4904.6309   -5066.6185            0    6734.7894    19.680176    19.749596    20.495088    7965.9389    6122.7114    7616.8008    6464.8558   -427.88232    497.69586   -595.60365   -4122.2164 
35225000    84.756942   -5081.8837   -4918.4228   -5081.8837            0    5548.2174     19.88392    19.748689    20.464556    8036.0495    5855.8373    5710.5531    5078.2617    154.40984    370.66258     125.1901   -4268.1854 
35226000    83.713611   -5066.2706   -4904.8219   -5066.2706            0    7363.9955    19.745042    19.766942    20.416211    7968.4289    6328.9098    8149.4454    7613.6313   -7.8066936   -731.47267    692.16442   -4049.0419 
35227000    89.368693   -5055.1951   -4882.8401   -5055.1951            0    6513.7182     19.73652    19.787616    20.421182    7975.2614     5852.012    6903.5496     6785.593   -46.106599    717.87065     314.8007    -4125.223 
35228000    86.952887   -5060.1528   -4892.4568   -5060.1528            0     6591.876    19.759062    19.723482    20.408554     7953.571    5449.0543    7316.4581    7010.1155    128.89678    762.19162    377.94542   -4127.8343 
35229000    82.514696   -5057.9861   -4898.8496   -5057.9861            0    6639.5056    19.686008    19.755361    20.489473    7968.4421    5869.1818    7054.4374    6994.8976    250.01819   -591.24389    943.95252   -4127.2623 
35230000    85.107939   -5054.3807   -4890.2429   -5054.3807            0    7098.2742    19.661342    19.795626    20.397959    7939.0609    8207.1385    6383.0358    6704.6482    102.77292    98.398636    58.001131    -4068.383 
35231000    88.976201   -5069.6007   -4898.0026   -5069.6007            0    6465.4024    19.782642    19.793405    20.395435    7986.1561    5732.6627    7026.5179    6637.0268   -370.10601   -162.34675    521.56866   -4144.9778 
35232000      86.2589   -5068.5989   -4902.2414   -5068.5989            0    6714.7553    19.630005    19.936087    20.390184    7979.6063    6735.8297    6298.0077    7110.4284    366.16584   -530.78304    -5.423535    -4120.816 
35233000    85.488134   -5074.4841   -4909.6131   -5074.4841            0    7408.2183      19.8887    19.668424    20.403267    7981.3374    4857.6131    10815.402      6551.64   -508.03571    384.94222   -60.855114   -4047.2993 
35234000    87.519468   -5066.5011   -4897.7125   -5066.5011            0    6782.0207    19.720506    19.896407    20.283039    7958.3993    6912.9734    6412.2745    7020.8144   -532.31638    520.78391   -525.83073   -4110.5566 
35235000    81.855705   -5067.4012   -4909.5356   -5067.4012            0    7495.0623    19.720009    19.743367    20.347636    7922.1359    8021.6663    6599.6546     7863.866   -94.184999    224.67853    323.79456   -4043.5844 
35236000    84.262415   -5074.7191    -4912.212   -5074.7191            0    6833.0166    19.757403    19.841501    20.311943    7962.6177    7175.9891    6623.1041    6699.9565    -75.13468    -227.1664    498.27898   -4118.7169 
35237000    82.507951   -5065.9613   -4906.8377   -5065.9613            0    6219.9451    19.641579    19.711099    20.639434    7990.7039    5620.7644    7131.5572    5907.5136   -34.548768    495.26701   -1175.2937   -4181.9888 
35238000    85.866169   -5061.5926   -4895.9925   -5061.5926            0    7251.7013    19.670439    19.794764    20.351726    7924.3858    6534.1379    7659.0367    7561.9292   -407.58854    686.26971   -582.69766   -4057.9203 
35239000    84.785293   -5070.2931   -4906.7775   -5070.2931            0    6829.2906     19.85311    19.714443    20.352266    7965.7345    7163.6421    6156.1921    7168.0376   -132.98699    1033.4261   -151.97248   -4113.4047 
35240000    87.400073   -5068.0437   -4899.4853   -5068.0437            0    6762.5538    19.504892    19.972613    20.432518    7959.7665    8824.8347    5113.3034    6349.5234   -509.53449    41.941056     111.8662    -4114.454 
35241000    84.578692   -5070.4022   -4907.2851   -5070.4022            0    7663.2326    19.731765    19.762791    20.363265    7940.7521    8353.2098    6811.9451    7824.5429   -189.27822   -111.04787    38.863603   -4019.8236 
35242000    84.522866   -5068.8538   -4905.8443   -5068.8538            0    6987.6414    19.708717    19.812315     20.47747    7995.9462    8176.4711    6243.6418    6542.8114   -231.68529    483.18426   -136.59981   -4090.9968 
35243000    85.988892   -5064.9911   -4899.1543   -5064.9911            0    6269.1337    19.751175    19.691189    20.579056    8003.6911    5832.7446    7403.3563    5571.3004    80.842763     461.6723   -360.90017   -4167.3857 
35244000    86.876243   -5067.1385   -4899.5903   -5067.1385            0    6732.9702    19.699515    19.801391    20.430644    7969.5408    6898.5108    6655.7506    6644.6493   -358.22906     19.23018    -195.2372   -4117.0335 
35245000    94.096374   -5066.9631   -4885.4903   -5066.9631            0    8212.3983    19.690115    19.832084    20.311013    7931.3695    8610.2571    7524.1797    8502.7581   -147.09711   -439.14714  -0.31952033   -3935.5549 
35246000    86.172083   -5069.2026   -4903.0125   -5069.2026            0    5957.4268    19.771097    19.790094    20.446409    8000.1047    6466.1261    6119.3304    5286.8238   -61.101517    55.011008   -239.15636   -4207.9397 
35247000    87.268158   -5069.8525   -4901.5485   -5069.8525            0     7843.939    19.854966    19.640836    20.296904    7915.1456    6554.9797    8446.0179    8530.8194   -229.65194   -508.89987   -161.12332   -3996.0891 
35248000    87.891749   -5070.4503   -4900.9436   -5070.4503            0    6524.8438    19.780537    19.821423    20.432186    8011.0187    7518.4115    5953.3152    6102.8047   -26.726643    392.99951     357.2065   -4138.6299 
35249000     82.50999   -5071.4027   -4912.2753   -5071.4027            0      5816.46     19.79558    19.701077    20.457078    7978.1426    5375.1346    5792.8415     6281.404   -279.42957     46.09569    -469.1269   -4235.5126 
35250000    89.743059   -5061.6141    -4888.537   -5061.6141            0    8225.1342    19.766225    19.764639     20.34606    7948.6423    8560.6564    7760.8598    8353.8865   -458.15194   -76.072498   -862.27741   -3935.0565 
Loop time of 389.703 on 64 procs for 250000 steps with 972 atoms

Performance: 110.854 ns/day, 0.217 hours/ns, 641.514 timesteps/s
195.2% CPU use with 32 MPI tasks x 2 OpenMP threads

MPI task timing breakdown:
Section |  min time  |  avg time  |  max time  |%varavg| %total
---------------------------------------------------------------
Pair    | 25.956     | 35.794     | 47.364     |  89.2 |  9.18
Bond    | 1.0256     | 1.2264     | 1.5658     |  12.4 |  0.31
Kspace  | 169.69     | 185.41     | 198.71     |  50.5 | 47.58
Neigh   | 0.33139    | 0.37557    | 0.41447    |   4.5 |  0.10
Comm    | 64.167     | 70.955     | 77.113     |  42.5 | 18.21
Output  | 0.51393    | 0.51426    | 0.51572    |   0.0 |  0.13
Modify  | 76.527     | 79.12      | 83.044     |  18.3 | 20.30
Other   |            | 16.31      |            |       |  4.19

Nlocal:        30.3750 ave          35 max          24 min
Histogram: 4 1 2 2 4 2 2 5 4 6
Nghost:        2747.28 ave        2768 max        2732 min
Histogram: 3 1 3 10 3 5 4 1 1 1
Neighs:        9883.16 ave       12558 max        6927 min
Histogram: 1 3 2 4 5 2 9 1 2 3

Total # of neighbors = 316261
Ave neighs/atom = 325.37140
Ave special neighs/atom = 2.0000000
Neighbor list builds = 825
Dangerous builds = 0

unfix		3
unfix		2
unfix		1

write_data	data.final.${pid}
write_data	data.final.1
System init for write_data ...
PPPM initialization ...
  extracting TIP4P info from pair style
  using 12-bit tables for long-range coulomb (../kspace.cpp:340)
  G vector (1/distance) = 0.37248933
  grid = 24 24 24
  stencil order = 5
  estimated absolute RMS force accuracy = 0.003470407
  estimated relative force accuracy = 1.0451028e-05
  using double precision FFTW3
  3d grid and FFT values/proc = 3211 432
Last active /omp style is kspace_style pppm/tip4p/omp
WARNING: Not all mixed pair coeffs generated from mixing. Use write_data with 'pair ij' option to store all pair coeffs. (../write_data.cpp:312)

write_restart   restart.lmp.${pid}
write_restart   restart.lmp.1
System init for write_restart ...
PPPM initialization ...
  extracting TIP4P info from pair style
  using 12-bit tables for long-range coulomb (../kspace.cpp:340)
  G vector (1/distance) = 0.37248933
  grid = 24 24 24
  stencil order = 5
  estimated absolute RMS force accuracy = 0.003470407
  estimated relative force accuracy = 1.0451028e-05
  using double precision FFTW3
  3d grid and FFT values/proc = 3211 432
Last active /omp style is kspace_style pppm/tip4p/omp
Total wall time: 0:06:29
