LAMMPS (30 Jul 2021)
Processor partition = 1
  using 1 OpenMP thread(s) per MPI task
using multi-threaded neighbor list subroutines
variable        pid world 0 1
variable        phase world IceII IceIII

shell cd ${phase}
shell cd IceIII
include Restart.lmp
echo both
log log.lammps
#include		in.partitions
include		in.temp
variable        temperature equal 137.05
variable	tempDamp equal 100.0
include		in.pressure
variable        pressure equal 10918.8
variable        pressureDamp equal 1000.0 # This is 1 ps
include		in.seed
variable        seed equal 745823

units		real
atom_style	full

read_restart	restart.lmp.${pid}
read_restart	restart.lmp.1
Reading restart file ...
  restart file = 30 Jul 2021, LAMMPS = 30 Jul 2021
  restoring atom style full from restart
  orthogonal box = (0.26570577 0.17687125 0.16229653) to (19.734295 19.823130 20.537701)
  4 by 4 by 4 MPI processor grid
  restoring pair style lj/cut/tip4p/long/omp from restart
  restoring bond style harmonic/omp from restart
  restoring angle style harmonic/omp from restart
  972 atoms
  648 bonds
  324 angles
Finding 1-2 1-3 1-4 neighbors ...
  special bond factors lj:    0        0        0       
  special bond factors coul:  0        0        0       
     2 = max # of 1-2 neighbors
     1 = max # of 1-3 neighbors
     1 = max # of 1-4 neighbors
     2 = max # of special neighbors
  special bonds CPU = 0.010 seconds
  read_restart CPU = 0.021 seconds
include 	in.setup
variable	out_freq equal 1000
variable	out_freq2 equal 10000
variable	out_freq3 equal 1000

timestep	2.0

neigh_modify    delay 7 every 1

include		in.tip4p
# This is TIP4P/Ice

# create groups ###
group ox type 2
324 atoms in group ox
group hy type 1
648 atoms in group hy

# set charges - beside manually ###
set group ox charge -1.1794
Setting atom values ...
  324 settings made for charge
set group hy charge 0.5897
Setting atom values ...
  648 settings made for charge

# ### TIP3P Potential Parameters ###
pair_style lj/cut/tip4p/long/omp 2 1 1 1 0.1577 8.5
pair_coeff 1 1*2 0.000 0.000
pair_coeff 2 2 0.21084 3.1668
bond_style  harmonic
bond_coeff  1 450 0.9572
angle_style harmonic
angle_coeff 1 55 104.52
kspace_style pppm/tip4p/omp 1.0e-5
pair_modify tail yes

thermo          ${out_freq}
thermo          1000
thermo_style    custom step temp pe etotal epair emol press lx ly lz vol pxx pyy pzz pxy pxz pyz enthalpy

restart 	${out_freq3} restart.lmp.${pid} restart2.lmp.${pid}
restart 	1000 restart.lmp.${pid} restart2.lmp.${pid}
restart 	1000 restart.lmp.1 restart2.lmp.${pid}
restart 	1000 restart.lmp.1 restart2.lmp.1


include         in.dump
dump            myDump all atom ${out_freq2} dump.water.${pid}
dump            myDump all atom 10000 dump.water.${pid}
dump            myDump all atom 10000 dump.water.1
dump            myDump2 all dcd ${out_freq2} dump.dcd
dump            myDump2 all dcd 10000 dump.dcd
dump_modify     myDump append yes
dump_modify     myDump2 append yes


variable natoms 	equal  "count(all)"                        # NUMBER ATOMS
variable H      	equal  "enthalpy/v_natoms"                 # ENTHALPY-per-atom
variable Vol      	equal  "vol/v_natoms"                 # volume-per-atom
fix AVG all 		ave/time ${out_freq} 1 ${out_freq} v_Vol v_H file vol_enthalpy.dat
fix AVG all 		ave/time 1000 1 ${out_freq} v_Vol v_H file vol_enthalpy.dat
fix AVG all 		ave/time 1000 1 1000 v_Vol v_H file vol_enthalpy.dat


timer           timeout 02:55:00 every 1000
New timer settings: style=normal  mode=nosync  timeout=02:55:00

fix 		1 all shake 1e-6 200 0 b 1 a 1
Finding SHAKE clusters ...
       0 = # of size 2 clusters
       0 = # of size 3 clusters
       0 = # of size 4 clusters
     324 = # of frozen angles
  find clusters CPU = 0.001 seconds
fix             2 all nph aniso ${pressure} ${pressure} ${pressureDamp}
fix             2 all nph aniso 10918.8 ${pressure} ${pressureDamp}
fix             2 all nph aniso 10918.8 10918.8 ${pressureDamp}
fix             2 all nph aniso 10918.8 10918.8 1000
fix             3 all temp/csvr ${temperature} ${temperature} ${tempDamp} ${seed}
fix             3 all temp/csvr 137.05 ${temperature} ${tempDamp} ${seed}
fix             3 all temp/csvr 137.05 137.05 ${tempDamp} ${seed}
fix             3 all temp/csvr 137.05 137.05 100 ${seed}
fix             3 all temp/csvr 137.05 137.05 100 745823


run             250000
PPPM initialization ...
  extracting TIP4P info from pair style
  using 12-bit tables for long-range coulomb (../kspace.cpp:340)
  G vector (1/distance) = 0.37297541
  grid = 24 24 24
  stencil order = 5
  estimated absolute RMS force accuracy = 0.0034141201
  estimated relative force accuracy = 1.0281521e-05
  using double precision FFTW3
  3d grid and FFT values/proc = 2197 216
Last active /omp style is kspace_style pppm/tip4p/omp
Neighbor list info ...
  update every 1 steps, delay 7 steps, check yes
  max neighbors/atom: 2000, page size: 100000
  master list distance cutoff = 10.8154
  ghost atom cutoff = 10.8154
  binsize = 5.4077, bins = 4 4 4
  1 neighbor lists, perpetual/occasional/extra = 1 0 0
  (1) pair lj/cut/tip4p/long/omp, perpetual
      attributes: half, newton on, omp
      pair build: half/bin/newton/omp
      stencil: half/bin/3d
      bin: standard
Setting up Verlet run ...
  Unit style    : real
  Current step  : 35750000
  Time step     : 2
  Walltime left : 2:54:59.90
Per MPI rank memory allocation (min/avg/max) = 9.228 | 9.230 | 9.233 Mbytes
Step Temp PotEng TotEng E_pair E_mol Press Lx Ly Lz Volume Pxx Pyy Pzz Pxy Pxz Pyz Enthalpy 
35750000    150.06179   -4948.3168     -4658.91   -4948.3168            0    10614.435    19.468589    19.646259    20.375405    7793.2856    10558.572    9981.2676    11303.464    18.275277    62.593396    600.65467   -3452.5044 
35751000     136.8559   -4939.6758   -4675.7376   -4939.6758            0    11884.728    19.588166    19.473125    20.298437    7742.6927    11245.341    12907.283     11501.56   -760.84876    453.70258    69.014845   -3333.7233 
35752000    135.51606   -4946.1179   -4684.7638   -4946.1179            0    11210.217    19.573746     19.71541     20.26111    7818.8518    9857.4473    12031.962    11741.241   -1120.1817    30.609149   -349.65847   -3406.4635 
35753000    133.93917   -4941.4278   -4683.1149   -4941.4278            0     12019.18    19.580493    19.792097    20.085191    7783.7951    13939.884    9670.4022    12447.254   -139.45381     48.32033   -284.05272   -3318.7136 
35754000    128.35879   -4953.2357   -4705.6849   -4953.2357            0    10278.861    19.570874    19.693494    20.271468    7813.0064    9938.7719    10551.012    10346.801    646.33833    132.68571   -193.38706   -3534.4633 
35755000    132.77421   -4948.2378   -4692.1716   -4948.2378            0    9376.1394    19.476452    19.789132    20.363829    7848.6696    10843.936    8036.5724      9247.91   -893.22686    46.533809   -247.05067   -3618.9337 
35756000    138.69432    -4941.683   -4674.1993    -4941.683            0    10096.094    19.341871    19.725808    20.473776    7811.4427    11128.705    10149.582    9009.9962    367.75209    197.64517   -288.16094   -3524.0333 
35757000    137.66562   -4951.4752   -4685.9754   -4951.4752            0    10872.513    19.649314     19.60805    20.361158    7844.8436    9652.1485    12232.317    10733.075    258.98514    1321.7972   -391.32996   -3442.0621 
35758000    139.95891   -4954.5007   -4684.5782   -4954.5007            0    11251.641    19.673105    19.607329    20.365384     7855.683    10922.217    11813.836     11018.87    3.5192842    1657.9583   -444.12035   -3395.5106 
35759000     141.7162   -4941.3724   -4668.0608   -4941.3724            0      11669.8    19.571727    19.659573    20.266372    7797.9282    13353.445    10711.786    10944.168    -275.6869   -605.18589    382.49655   -3340.9154 
35760000    140.14866   -4950.6081   -4680.3196   -4950.6081            0    10187.262    19.410112    19.763691    20.426069     7835.756    10532.327    9860.4511    10169.007   -598.97857     843.9032    644.64326   -3516.1554 
35761000    138.50048   -4956.3987   -4689.2889   -4956.3987            0    10711.506    19.537751    19.740288    20.298757    7828.8416    10371.919    10607.617    11154.982   -307.49593   -812.15981    179.40386    -3466.296 
35762000    136.98215   -4921.7965   -4657.6149   -4921.7965            0    11192.821    19.631183    19.629563    20.227477    7794.6895    10109.376    12162.803    11306.284    216.44667    -429.5336     119.8459   -3385.2425 
35763000    144.79634    -4948.033   -4668.7811    -4948.033            0    9750.0636    19.549831    19.706565    20.340181    7836.2583    10595.872    8796.1055    9858.2135   -26.596529    298.56063   -475.07749   -3554.5069 
35764000    134.50033   -4942.8797   -4683.4845   -4942.8797            0    11717.623    19.427648    19.627414    20.369111    7767.0368    9879.0752    12884.711    12389.084    294.70843    159.74349   -533.94364   -3356.1793 
35765000    135.56975   -4956.0604   -4694.6027   -4956.0604            0    10796.526    19.636281    19.724339    20.260514     7847.154    9719.7599    11849.362    10820.457   -314.94559    1095.3553    834.41991   -3459.0192 
35766000    131.36539   -4932.7713   -4679.4221   -4932.7713            0    12237.443    19.526252     19.61275    20.349665    7793.1787     12443.97    11903.611    12364.747    637.10582    322.40427   -1740.7817   -3288.5692 
35767000    135.10933   -4950.2564   -4689.6867   -4950.2564            0    10974.069    19.570058    19.778973     20.28893    7853.3502    11970.898    9431.1112    11520.198    13.852579    343.94458    506.28369    -3432.793 
35768000    135.68393   -4947.6912   -4686.0134   -4947.6912            0    12123.721    19.714837    19.290698     20.34392    7737.0564    11817.558    12202.818    12350.788   -78.801927   -442.62376   -354.87128   -3318.0086 
35769000    134.31454   -4938.2532   -4679.2163   -4938.2532            0    11385.754    19.611473    19.328343    20.459025    7755.1422    9967.9617    12165.549    12023.752    16.031111    650.75343    189.91504   -3391.4785 
35770000     140.1905    -4960.582   -4690.2128    -4960.582            0    11372.118    19.785545    19.375175    20.388239    7815.7987     10800.65    12587.755    10727.949    788.20565    1007.3006   -672.72381   -3393.9573 
35771000    141.84273   -4971.4916   -4697.9359   -4971.4916            0    9752.8062    19.816335    19.410209    20.279847    7800.4239    9233.6816    9682.0898    10342.647    41.894379    1058.2734   -150.10781   -3588.4452 
35772000    138.72091   -4947.0429    -4679.508   -4947.0429            0     11412.55    19.800462    19.509581     20.16854     7791.081     11091.47    11193.112    11953.068   -857.24011   -646.96921   -755.22199   -3382.7578 
35773000    138.21127   -4956.8292   -4690.2772   -4956.8292            0    10420.544      19.6098    19.466256    20.357309    7770.9831    10505.959    9883.4304    10872.242   -830.50888    1236.9834    451.77046    -3509.298 
35774000    143.47295   -4934.3595   -4657.6598   -4934.3595            0    10458.473    19.752433    19.536456    20.206613    7797.5815    10031.029    10994.081    10350.308   -84.879008   -293.52342   -240.65991   -3468.3252 
35775000    140.59952    -4949.169   -4678.0111    -4949.169            0    8289.9861    19.822356    19.533855    20.391773    7895.8376    7253.1209    9339.4063    8277.4313   -195.49858   -323.26389     218.9021   -3723.3968 
35776000    141.58545   -4938.3385    -4665.279   -4938.3385            0    10298.543    19.688066    19.382819    20.418107    7791.7581     10241.56    10258.834    10395.233   -340.94207     540.6557    676.26317   -3495.0062 
35777000    145.22282   -4949.3514    -4669.277   -4949.3514            0    9117.1983    19.793129    19.592408    20.245152    7850.9699    8827.9967    8787.8529    9735.7453   -271.93316    251.98615    181.97367   -3625.3729 
35778000    133.67682   -4946.3479   -4688.5409   -4946.3479            0    11309.963    19.720706    19.411248    20.370027     7797.718    11527.115    10514.672    11888.103   -7.6687372    201.53454   -825.35963   -3402.3524 
35779000    142.19874   -4948.2461   -4674.0039   -4948.2461            0    11147.821    19.776369    19.348998     20.33072    7779.6096    10570.814    11526.057    11346.592    196.15968    330.04108    955.22539   -3409.1986 
35780000    142.07994   -4939.2045   -4665.1914   -4939.2045            0    13258.848    19.696596    19.318824    20.352072    7744.2699    11312.351    14218.483    14245.711   -295.21486    82.568559   -1970.1906   -3167.7075 
35781000    146.44509   -4948.1247    -4665.693   -4948.1247            0     10010.76    19.550324    19.574416    20.378191     7798.452     10909.32    7941.3107    11181.649   -182.48711   -138.42065    189.02679   -3527.1451 
35782000    139.83721   -4938.6548    -4668.967   -4938.6548            0    11243.641    19.716675    19.401933    20.286182    7760.3089    11772.326    9837.5516    12121.046    417.31683   -901.03025   -588.88181    -3396.455 
35783000    139.89769   -4944.3527   -4674.5482   -4944.3527            0    11605.216     19.82909    19.434212    20.190567    7780.6924    11127.028    11342.069     12346.55    280.63159   -426.72835   -661.95268   -3357.6648 
35784000      132.328   -4947.9281   -4692.7224   -4947.9281            0    10226.082    19.688159    19.395362    20.452596    7810.0072    10386.935    10060.424    10230.886    344.77479    783.56488    99.729226    -3527.962 
35785000    133.63053   -4963.1457    -4705.428   -4963.1457            0    10392.761    19.683027    19.487477     20.27934    7778.5976      9661.36    9951.2368    11565.687   -387.62744   -858.92514    319.31741   -3526.4433 
35786000    133.79208   -4956.1561   -4698.1268   -4956.1561            0    10149.778    19.699849    19.529504    20.304556    7811.7369    9868.2028    8954.3874    11626.744   -208.27628   -634.04724   -98.440313   -3541.8015 
35787000    137.39602   -4944.9867    -4680.007   -4944.9867            0    11557.131    19.640501    19.355362    20.519039    7800.2921    10253.356    13237.431    11180.607   -488.02561    933.35996   -1.9025174   -3365.2763 
35788000    138.56117   -4940.5111   -4673.2842   -4940.5111            0    11923.344    19.750973    19.464196    20.286175    7798.7523    11440.519    12861.742    11467.771   -147.57083    1447.9217   -471.36444   -3317.1612 
35789000    130.77959   -4943.5187   -4691.2993   -4943.5187            0    12485.186    19.565199    19.459336    20.447387    7784.8471    13199.581    11784.216    12471.762   -139.41609    780.26873    -277.2504    -3273.806 
35790000    135.06715   -4940.4633    -4679.975   -4940.4633            0    10786.023    19.544382    19.601031    20.310776    7780.8562    13125.925    9017.1842     10214.96    908.95715    38.857209    331.90414   -3456.0223 
35791000    137.30922   -4940.6914    -4675.879   -4940.6914            0    10760.054    19.546534    19.451123     20.45252    7776.0898    10800.441    10067.175    11412.545    171.77871    639.44263   -309.28216   -3455.6212 
35792000    135.91443   -4946.0576   -4683.9352   -4946.0576            0    10071.507    19.512072    19.525153    20.389306    7767.8401    9719.0769    9788.2093    10707.234   -377.87603    346.62673    686.62377   -3542.9747 
35793000    140.46111   -4942.6629   -4671.7718   -4942.6629            0    11825.066    19.655254    19.471679    20.386328    7802.2715    12918.282    11115.687    11441.228    511.78426    -262.8606    161.57223   -3326.2198 
35794000    128.59839   -4940.3615   -4692.3487   -4940.3615            0    12348.363    19.685739     19.51759    20.213861    7766.5326    12770.119    12527.147    11747.823    684.30985   -8.2142806   -174.66498   -3293.6877 
35795000    132.72097   -4954.9129   -4698.9493   -4954.9129            0    12255.376    19.594802    19.584433    20.243944    7768.6758    12662.637     11162.84    12940.651   -713.57261    178.70191   -40.689563   -3310.4377 
35796000    137.88673   -4944.4065   -4678.4803   -4944.4065            0     12313.96      19.4838    19.510223    20.337106    7730.8107    13927.809    10921.196    12092.875    431.80167   -365.89249    581.15209   -3290.1313 
35797000    136.54648   -4951.6757   -4688.3343   -4951.6757            0    10962.737    19.694397    19.431227    20.422632    7815.4615    10548.723    11661.606    10677.881    20.630563    593.29868   -1074.8426   -3438.7962 
35798000    135.59885    -4958.731   -4697.2173    -4958.731            0    11052.417    19.544028    19.447601    20.427645    7764.2302    13139.015      9719.71    10298.527   -467.39306   -663.71489   -2585.6953   -3445.7152 
35799000     142.1947   -4943.1113   -4668.8769   -4943.1113            0     12091.31    19.485052    19.421648    20.499247    7757.5676    13623.049    10472.244    12178.638   -693.44773    126.28251   -1035.9565   -3300.9124 
35800000    131.70999   -4955.0109   -4700.9971   -4955.0109            0    10253.985    19.480875    19.576116    20.526148     7827.849    12241.552    9347.6086    9172.7944    210.53099   -308.74989    360.02257   -3530.3904 
35801000    149.90996   -4932.0206   -4642.9066   -4932.0206            0    9796.8619    19.596604    19.463809    20.473187    7808.9765    11239.711    8953.1715    9197.7033   -208.70819    117.18193    1127.2243   -3527.1821 
35802000    130.90775   -4945.9807   -4693.5141   -4945.9807            0    10894.595    19.660286    19.534532    20.275246    7786.7991    11065.795    10358.132    11259.858   -1009.0576    606.92217   -243.79853   -3456.2969 
35803000    126.66479   -4951.8796   -4707.5959   -4951.8796            0    9515.5862     19.72307    19.468705    20.362524    7818.8553    10376.589    9107.1738     9062.996     428.1346   -301.41506   -25.899308   -3622.5337 
35804000    143.36411   -4942.4829   -4665.9932   -4942.4829            0    11651.942    19.702296    19.271296    20.558458     7805.816    11438.384     12345.87    11171.571    1026.0042   -426.98686   -687.95537   -3339.5382 
35805000    135.40079   -4936.4266   -4675.2948   -4936.4266            0    11655.301    19.706385    19.405175    20.359959    7785.7675    12448.866    12391.053    10125.984   -122.50453    600.97668   -29.796181   -3351.8653 
35806000    144.61822   -4937.9952   -4659.0868   -4937.9952            0    12506.016    19.705923    19.461123    20.321269    7793.1944    12834.136    12489.441    12194.471    80.400485    666.74791   -556.39624   -3237.7063 
35807000    129.43431   -4943.7293   -4694.1044   -4943.7293            0     12315.09    19.648431    19.448668     20.34989    7776.4216    12949.143    12248.367    11747.762    498.79429    939.05656    779.67143    -3297.436 
35808000    137.65711    -4951.098   -4685.6147    -4951.098            0    9563.1478     19.61676    19.600496    20.360983    7828.7619    11840.879    7650.1454    9198.4194    129.57868    519.54874   -44.155242   -3593.7475 
35809000    132.19941   -4937.8674   -4682.9098   -4937.8674            0    9725.0159    19.473658    19.573264    20.462696    7799.6238      10880.5    9087.6653    9206.8822    130.43013   -369.44545   -629.36734   -3576.6939 
35810000     136.2267   -4942.4395   -4679.7149   -4942.4395            0    11605.942    19.593861    19.445924    20.393202    7770.2326    11595.222    11593.487    11629.117    -2.470401   -462.05058   -768.18723   -3364.5194 
35811000    141.57366   -4952.1486   -4679.1119   -4952.1486            0    9939.0867    19.751306    19.548639     20.26984    7826.4111    10004.395    9499.0241    10313.841    119.90565   -319.13782   -1166.4435   -3544.6627 
35812000    144.27328    -4934.464   -4656.2209    -4934.464            0    10973.962    19.638924    19.372136    20.479332    7791.3187    10527.822    12894.534     9499.531    163.21389    1300.0637      788.015   -3409.2672 
35813000    142.09004   -4940.0783   -4666.0457   -4940.0783            0    11611.555    19.613258    19.404797    20.483069    7795.6777    12231.997      11787.1    10815.568    243.18805   -541.69925    829.08922   -3345.9053 
35814000    135.55234   -4945.6371    -4684.213   -4945.6371            0    9820.1022    19.565702    19.597455    20.433598    7835.0172    11356.286    8857.9026    9246.1183   -900.38125   -145.62424   -1328.4882   -3562.1123 
35815000    137.95693    -4951.726   -4685.6644    -4951.726            0    11228.611    19.599116    19.392694    20.492103    7788.6312    11057.772     11348.37    11279.691     567.3218    211.30845   -388.79727   -3410.2155 
35816000    144.73502   -4941.3909   -4662.2573   -4941.3909            0    9970.0942    19.678428    19.389979    20.447963     7802.213    9702.7662    10619.938    9587.5784    247.21633    971.47775   -575.29891   -3527.7874 
35817000    138.21184   -4955.9895   -4689.4363   -4955.9895            0    11706.633    19.769198    19.530052    20.177506    7790.4028    10784.644    11959.764     12375.49   -274.06263    369.44211   -501.47348   -3359.3868 
35818000    134.64067   -4934.6298   -4674.9639   -4934.6298            0    11683.364    19.664691    19.301344    20.422948    7751.6308    10614.812    12764.683    11670.597   -173.56712    643.27016      86.5351   -3354.1645 
35819000    131.16356   -4955.1204   -4702.1605   -4955.1204            0    10420.926    19.547629    19.535524    20.441416    7806.0285    12067.135    9270.9918    9924.6503   -623.35461   -255.77526    350.82093   -3515.8119 
35820000    139.13413   -4945.7073   -4677.3754   -4945.7073            0    10193.029    19.624616    19.475672    20.409763     7800.664    9883.3027    10824.019    9871.7664   -511.74002    -30.41741   -448.17355   -3517.7687 
35821000      135.521   -4937.6684   -4676.3048   -4937.6684            0     10815.14    19.799322    19.569774    20.123393    7797.1756    9939.7152    10696.386    11809.319   -201.97005    449.06553    892.43367    -3446.474 
35822000    145.20115   -4935.8975   -4655.8649   -4935.8975            0    10613.731    19.855928    19.507493    20.253632    7845.0293    10004.441    10865.834    10970.919   -325.60824    375.31698   -1123.5069   -3441.5298 
35823000    131.06457   -4955.8417   -4703.0727   -4955.8417            0    11126.584    19.741406    19.461849    20.305313    7801.3874     11325.65    9421.8559    12632.246    399.45655   -141.79913   -2024.1425    -3437.143 
35824000    133.87974    -4949.384   -4691.1857    -4949.384            0    10233.272    19.784551       19.501    20.182739    7786.8745    10505.472    9097.2393    11097.105    545.22078   -59.766663    650.49583   -3529.0587 
35825000     132.1331   -4935.7957   -4680.9659   -4935.7957            0    10890.983    19.643664    19.380952    20.386233    7761.3022    9631.6435    11529.462    11511.844    816.92714    906.70944    816.35633   -3448.2087 
35826000    138.66948   -4958.7844   -4691.3486   -4958.7844            0     8893.422    19.717677    19.429377    20.478265    7845.2678    7622.0246     9832.728    9225.5133   -123.34398    1122.6662   -911.28465   -3673.8061 
35827000     127.0198      -4946.9   -4701.9316      -4946.9            0    11220.258    19.718027    19.278109    20.488406    7788.1813     10259.61    12553.904    10847.259    205.92734   -636.62371    407.88645   -3427.5052 
35828000    148.14147   -4955.4113   -4669.7081   -4955.4113            0    10616.643    19.689566    19.502368    20.405234    7835.4701    10519.098    10897.479    10433.352   -248.18322   -1091.7975    838.45034   -3456.5199 
35829000    134.51062   -4955.3845   -4695.9695   -4955.3845            0    10321.914    19.669636     19.49222    20.375768    7812.1685    11086.439    9747.2916    10132.011   -454.78606   -176.11139    664.76122   -3519.9684 
35830000    139.00525   -4939.6174   -4671.5341   -4939.6174            0     10679.89    19.732943    19.432464    20.334664    7797.5242    12233.036    10319.813    9486.8199    559.06285    1082.8401   -444.59242   -3457.0289 
35831000    139.16106   -4941.4914   -4673.1076   -4941.4914            0     11722.91    19.753459    19.435871     20.28329     7787.276    11843.483    12329.268    10995.978   -168.56325   -36.411549    213.35172   -3341.7434 
35832000    137.25707   -4962.1764   -4697.4646   -4962.1764            0    11750.279     19.78745    19.438091    20.271966    7797.2114     10358.56     12674.35    12217.926   -1092.9837    501.80777    1443.1465   -3361.2895 
35833000    139.26222   -4942.2929    -4673.714   -4942.2929            0    11621.011    19.802477     19.33094    20.389744     7805.204    9859.7783    13110.342    11892.914   -134.15746    150.58204    99.193437   -3350.8839 
35834000    142.22398   -4931.5869    -4657.296   -4931.5869            0    11940.524     19.58952    19.375363    20.489283    7776.7905    12313.625    11649.707     11858.24    229.16384   -172.92192   -507.97028   -3303.0434 
35835000    133.47723   -4945.3326   -4687.9105   -4945.3326            0     11557.14    19.613069    19.416423    20.399325    7768.3823    12757.617    10052.789    11861.014   -803.93945   -84.649938   -118.59179   -3378.5572 
35836000    131.22353   -4947.0274   -4693.9518   -4947.0274            0    10260.436    19.747338    19.526405    20.290869    7824.0479    10109.905    9701.8583    10969.545   -304.05142    343.65811    269.75871   -3523.1774 
35837000    133.36713   -4944.2396   -4687.0299   -4944.2396            0    11379.215    19.745446    19.581639     20.14557    7789.2481    10791.395    10915.575    12430.676   -553.41072    961.91268    327.21548   -3394.3716 
35838000    138.81588   -4946.5784   -4678.8603   -4946.5784            0    10882.821    19.583792    19.380846    20.525741    7790.5547    8477.0988    13277.248    10894.116   -541.84802   -409.98367   -290.06113   -3442.3842 
35839000    135.12273   -4972.4926    -4711.897   -4972.4926            0    10502.546    19.796961    19.561241    20.238307    7837.3477    10645.136    9297.3457    11565.156   -221.45104    80.200411    522.41091   -3511.4594 
35840000    133.32088   -4939.5522   -4682.4317   -4939.5522            0    12293.815    19.685637    19.505962    20.214551    7762.1308    12750.261    12128.008    12003.176   -675.37225   -188.18921    961.96077   -3290.7385 
35841000    139.17428   -4967.8032   -4699.3939   -4967.8032            0    10400.209    19.737576    19.518395    20.314287    7825.9938     10549.52    9080.9189    11570.188   -743.27893   -134.87714    1145.6837   -3512.3755 
35842000     135.7646   -4952.3857   -4690.5523   -4952.3857            0    10767.628    19.808846    19.406294     20.27772    7795.0858    10387.698    10512.709    11402.478   -235.81457    1360.8122   -677.37408   -3466.4524 
35843000    138.99589    -4935.848   -4667.7828    -4935.848            0    10375.811    19.615503    19.395214    20.460236    7784.0328    11871.685    9160.6088    10095.137   -251.11084    1121.4039    394.80492   -3489.8986 
35844000    139.61515   -4947.5922   -4678.3327   -4947.5922            0    11549.816    19.639502     19.58785    20.214271    7776.3412    13106.023    9135.0998    12408.324    -115.1488   -5.4550747    664.24633   -3368.4685 
35845000    126.57851   -4943.5797   -4699.4623   -4943.5797            0    11049.766    19.577753    19.473346    20.380108    7769.8012    13083.894    9051.4639    11013.941   -359.67408   -283.83079    -654.5808   -3447.3627 
35846000    140.79661    -4941.887   -4670.3489    -4941.887            0    11536.589    19.600507    19.502048    20.312112    7764.3051    11423.631    10832.954    12353.183     119.1663    1489.0627   -926.24239   -3364.0099 
35847000    135.17059    -4947.102   -4686.4142    -4947.102            0    10163.017    19.697512    19.587783    20.291914    7829.2414    11278.907    8728.4441    10481.699   -117.99348    311.29454    172.77977   -3525.9862 
35848000    137.76238   -4950.7636   -4685.0773   -4950.7636            0    10269.005    19.617763    19.390721    20.488971    7794.0568     11342.69    9351.7493    10112.576    61.032416   -544.88948   -350.71815   -3517.8167 
35849000    138.31868   -4962.4492     -4695.69   -4962.4492            0    9065.1247    19.552253    19.614708    20.544087    7878.8981    10092.996    8654.1181    8448.2604   -303.30208     797.7584    345.73197    -3654.056 
35850000    136.38937   -4950.4345   -4687.3961   -4950.4345            0    10495.367    19.562742    19.569873    20.390551    7806.3261    12412.352    9113.9426     9959.807    176.07597     219.4763     918.5402   -3492.5273 
35851000    131.75637   -4956.2238   -4702.1206   -4956.2238            0    11661.138    19.545448    19.489766    20.481416    7802.1129    14174.423    11223.289    9585.7036    30.666344    56.555127    98.776177   -3375.2485 
35852000    137.57449   -4947.2747   -4681.9507   -4947.2747            0    11177.606    19.624497    19.415058    20.443695    7789.2676    10417.991    12177.733    10937.093    193.30096    353.74644   -113.79765   -3412.1917 
35853000     138.8748    -4940.145   -4672.3133    -4940.145            0    10081.716    19.588793    19.479351    20.457019    7805.9275    10665.104    9908.3264    9671.7172   -595.25092     144.7426    584.03227   -3524.5962 
35854000    136.98275   -4932.7294   -4668.5467   -4932.7294            0    10821.348     19.62273    19.444489    20.387454    7778.9141    10410.202    10956.243      11097.6    587.63526   -129.80332    578.80336    -3440.892 
35855000    141.39966    -4935.225   -4662.5238    -4935.225            0    11034.563    19.667047    19.412831    20.434262    7801.6597    11551.837    10252.613    11299.238      195.634    2051.8311   -973.10685   -3407.0201 
35856000    134.26857   -4964.5181   -4705.5699   -4964.5181            0    9831.1414     19.73464    19.609171    20.256605    7838.8995    10292.309    8631.1129    10570.003    14.495472    243.07884    166.41566   -3581.6511 
35857000     143.3136    -4949.086   -4672.6936    -4949.086            0    11222.077    19.677332    19.394943     20.31254    7752.0928    9942.0535    11351.023    12373.156    162.41397     1102.999   -533.88114   -3403.9668 
35858000    142.84382    -4946.103   -4670.6167    -4946.103            0    10718.989    19.718369    19.384607    20.367826    7785.2522    9714.1316    11100.272    11342.562    544.63892   -685.71591     1572.551   -3453.5836 
35859000    137.87338   -4946.0382   -4680.1377   -4946.0382            0    11369.808    19.664503    19.369754    20.381898    7763.3951    10602.605    11990.698    11516.122    174.79687   -68.551122   -46.062233   -3392.8349 
35860000    141.14878   -4945.9924   -4673.7751   -4945.9924            0    10204.664    19.762884     19.52374    20.295073    7830.7606    10579.763    9000.7889     11033.44   -84.196406   -306.40264   -1411.3515   -3508.3656 
35861000    139.54919   -4932.0113    -4662.879   -4932.0113            0    11189.761    19.733483    19.392418    20.318995    7775.6718    11994.296    10079.311    11495.677    35.622279    771.97726    1024.7837   -3393.9578 
35862000    137.69289   -4944.0163    -4678.464   -4944.0163            0    10303.388    19.711531    19.532841    20.303878    7817.4437    10517.241    9889.2166    10503.706   -403.89003   -547.02483   -1026.8873    -3503.781 
35863000    136.11035   -4955.8148   -4693.3146   -4955.8148            0    11004.409    19.507098    19.465135    20.475294    7774.6387    12773.358    9862.9613    10376.906    1112.6133    -18.82057   -1980.8502   -3445.5783 
35864000     140.0788   -4946.1792   -4676.0254   -4946.1792            0    10513.332    19.511895    19.555434    20.454155    7804.5609    12438.504    8738.9866    10362.506    -51.97834   -1291.6933   -1358.1559    -3479.382 
35865000    135.87516   -4948.9153   -4686.8686   -4948.9153            0    10222.898    19.536645    19.494698    20.565111    7832.4485     11368.07    9623.5297    9677.0932    145.08297    941.16326   -433.89005   -3519.1251 
35866000    136.53385   -4958.1766   -4694.8596   -4958.1766            0     10915.04    19.634821    19.410019    20.381089     7767.483    10411.727    11853.351    10480.041    87.612427   -48.647903    42.951657   -3458.3954 
35867000    138.38537    -4963.145   -4696.2571    -4963.145            0    12424.229    19.734062    19.380384    20.317655    7770.5627    12714.774    12540.829    12017.085     506.9794    823.01821    220.68077   -3288.2728 
35868000    136.39657   -4957.3572    -4694.305   -4957.3572            0    12837.098    19.713516    19.460611    20.320868    7795.8382    12577.255    11308.454    14625.585   -426.49691     433.8623   -663.47596      -3234.8 
35869000    132.65736   -4949.9166   -4694.0757   -4949.9166            0    9651.6498    19.598936    19.388033    20.509347    7793.2402    10250.351    9027.8116    9676.7865   -638.56705     99.46769    147.13896   -3597.1038 
35870000    143.31226   -4952.7935   -4676.4037   -4952.7935            0    11213.561    19.616376    19.666078    20.161417    7777.8147    10825.436    10438.299    12376.949    85.805347   -8.6377035    215.28276   -3404.4332 
35871000    130.73163    -4954.875   -4702.7481    -4954.875            0    10381.724    19.581143    19.451392    20.469997    7796.6224    10855.665    9631.9325    10657.575   -9.3426569    564.45066   -261.34552   -3522.2865 
35872000    142.39078   -4941.4477   -4666.8352   -4941.4477            0    11323.112    19.790133    19.541078    20.165913    7798.5723    9744.1599    10975.893    13249.284   -676.84832   -770.80674   -853.97836   -3379.0103 
35873000    133.19536   -4925.9116   -4669.0332   -4925.9116            0    11721.192    19.730721    19.240425    20.373407    7734.3046    11368.308    12540.106    11255.164    481.60979    430.11686   -169.18069    -3346.919 
35874000    141.40434   -4947.2535   -4674.5434   -4947.2535            0    11201.278     19.64823    19.450576    20.311105    7762.2826    11398.754    10689.175    11515.906    594.64675    28.122354    -981.2167   -3406.5034 
35875000    138.07844   -4937.1213   -4670.8254   -4937.1213            0    10933.059    19.696596    19.574149    20.253217    7808.5087    11008.242    9496.2096    12294.725    130.03849   -103.39997   -383.24339   -3425.7786 
35876000    129.53155   -4947.6464   -4697.8339   -4947.6464            0    10793.282    19.502657    19.555284    20.362754    7765.9469    11802.492    10127.798    10449.557   -771.30393   -1022.2875    115.81876   -3475.4043 
35877000    135.25107   -4952.0039   -4691.1608   -4952.0039            0    10783.402     19.82646    19.340489    20.461519    7846.0395    11041.231    10892.319    10416.655   -102.27412     192.8481   -179.62771   -3457.2545 
35878000    131.94772   -4941.9086   -4687.4363   -4941.9086            0    11109.563      19.6858    19.252106    20.503689    7770.7568     11278.59     11629.79     10420.31    434.71817   -291.90333   -461.84806   -3428.4059 
35879000    144.43878   -4939.3291   -4660.7668   -4939.3291            0    10854.319    19.688584    19.447804    20.359081    7795.4863     9717.891    11135.958    11709.109    45.871652   -147.06459   -29.150596   -3426.7482 
35880000    132.08848   -4964.1117   -4709.3679   -4964.1117            0    9795.0555    19.616371    19.474001    20.481152    7823.9894    10410.346    9488.4546    9486.3656   -30.721509    626.19105     679.3631   -3591.7045 
35881000    134.46956   -4962.3386   -4703.0028   -4962.3386            0    10708.638    19.777075     19.39609    20.333825    7800.0132    11490.922    10361.659    10273.332    150.89242    1224.8576    882.44217   -3484.8396 
35882000    143.87505   -4941.1859   -4663.7107   -4941.1859            0     10135.91    19.606198    19.371243    20.510936    7789.9801     9673.045    10648.504     10086.18    147.88516    159.18989   -277.04229   -3512.1815 
35883000    140.96161   -4944.9628   -4673.1065   -4944.9628            0    10935.835    19.616796    19.549041    20.416356    7829.4592    11468.453    10951.815    10387.238    148.69531    1278.1927   -291.47886   -3424.4022 
35884000    134.38945   -4955.7842   -4696.6029   -4955.7842            0    11207.441    19.776151    19.490427    20.306378    7827.0043    10786.137    11370.237     11465.95   -407.05007    821.37281   -434.95907   -3417.2866 
35885000      133.615   -4941.7965   -4684.1087   -4941.7965            0    10994.858    19.647843      19.4346    20.355203    7772.5926    11665.336    9839.5339    11479.703   -92.426678    395.18384    228.62036   -3437.7834 
35886000    142.62549   -4952.6581   -4677.5928   -4952.6581            0    11270.589    19.695491    19.523551     20.30722    7808.6527    10140.758    12693.086    10977.924   -90.340802    -559.8326    775.61483   -3394.0847 
35887000    137.19591   -4953.3981   -4688.8042   -4953.3981            0    10389.394    19.473742    19.341288    20.660883    7781.8648    10885.646    9431.8301    10850.708    326.26597    1576.1472    90.920265   -3509.7065 
35888000    136.71212   -4955.1142   -4691.4534   -4955.1142            0    11143.523    19.731021     19.39901     20.37707    7799.5737    11607.991    11700.569    10122.008    247.59799    470.59781   -38.919437   -3423.8913 
35889000    127.65657   -4958.2851   -4712.0887   -4958.2851            0    10163.924    19.686651    19.364728    20.468781    7803.2446    10334.918    11369.975    8786.8784    261.30031    281.27353    678.32902   -3555.4106 
35890000    141.83225   -4957.9764    -4684.441   -4957.9764            0    8666.0631    19.795808    19.433702    20.453408    7868.5456     8228.785    8638.0922     9131.312   -624.20835    595.60341   -850.03865   -3689.9698 
35891000     136.8478   -4947.1505    -4683.228   -4947.1505            0    11807.452    19.766266    19.317836    20.374689    7779.9019    13367.375    10360.357    11694.623   -768.16132   -592.83614   -426.60284   -3343.5323 
35892000    134.06258   -4946.3224   -4687.7714   -4946.3224            0    10014.309    19.799548    19.481043    20.286434     7824.799    10036.263    8589.1154    11417.548   -457.83712   -66.271806   -32.379336   -3544.9719 
35893000    130.79685   -4940.6384   -4688.3856   -4940.6384            0    11016.256    19.808479    19.421215    20.223799     7780.191    10317.421    11310.507     11420.84    516.97732     499.4673     202.2385   -3438.4139 
35894000    140.70541   -4950.1446   -4678.7824   -4950.1446            0    10924.303    19.722336     19.47741    20.223487    7768.6509    11200.342    10353.175    11219.392   -108.57408    1040.4938    1401.9759   -3441.0829 
35895000    131.60071   -4944.7555   -4690.9525   -4944.7555            0    10649.528    19.601696    19.464213    20.542303    7837.5372    10038.426    11373.366    10536.792    85.902139   -2523.4018     67.43241   -3473.6854 
35896000    132.28772   -4945.9377   -4690.8097   -4945.9377            0    11487.354    19.607065    19.380863    20.484668    7784.2118    11723.703    10897.289    11841.071   -136.59385    694.02103   -374.55676   -3386.7107 
35897000    135.01644    -4958.293   -4697.9025    -4958.293            0     12317.24    19.576801    19.427265    20.399861    7758.5505    13427.137    11210.131    12314.453   -221.35881     453.1927   -340.01372   -3304.2006 
35898000    132.83823   -4946.5496   -4690.3599   -4946.5496            0    12888.997    19.633308    19.360997    20.467587    7780.1476     13480.03    12678.468    12508.492   -247.43389    869.84218    -461.0641   -3227.9038 
35899000    141.20356   -4948.7357   -4676.4128   -4948.7357            0     9756.061    19.660645    19.404965    20.517697     7827.791    10406.418    9811.3135    9050.4512   -22.456208   -378.85923     700.7025   -3562.6579 
35900000    138.05068   -4957.9648   -4691.7224   -4957.9648            0    10310.204    19.730264    19.406012    20.402052    7811.6548    9243.5883    11387.019    10300.006    419.65619    243.47282   -128.59613   -3517.1327 
35901000    145.23617   -4948.0329   -4667.9328   -4948.0329            0    10563.008    19.693153    19.512544    20.373359    7828.7386    10494.872    10327.161    10866.992   -458.87953    485.78759    815.24342   -3461.9106 
35902000    139.59258   -4939.9698   -4670.7538   -4939.9698            0    12484.448    19.580809    19.471088    20.416399    7783.9495    12629.924     12590.81    12232.611   -886.84795    924.34361    946.32841   -3253.5078 
35903000    137.68317    -4952.699   -4687.1654    -4952.699            0    11057.968    19.714995    19.410304    20.418302    7813.5541    10672.007    12026.374    10475.522    170.55599   -180.71232   -770.99751   -3427.0805 
35904000    136.49849   -4954.0891   -4690.8403   -4954.0891            0    10049.811     19.73078     19.42585    20.497533    7856.4416    10569.599    10185.916    9393.9174   -59.364416     783.5757   -740.76123   -3539.3517 
35905000    133.20836   -4943.1742   -4686.2707   -4943.1742            0    10463.305     19.69826    19.469745    20.325845    7795.3702    9654.0891    10506.593    11229.233   -336.28761    1424.3068    294.04548   -3496.7239 
35906000    133.28749   -4951.5114   -4694.4553   -4951.5114            0    10600.538    19.659565      19.4963    20.318142    7787.7159    10190.868    11064.542    10546.204    480.63508   -303.37997    726.45605   -3490.4902 
35907000    141.07675   -4951.0034   -4678.9251   -4951.0034            0    11284.968    19.794209    19.385048    20.342973    7805.8364    9857.8629     11861.07     12135.97   -1099.2846    -74.86836   -67.539726    -3394.243 
35908000    131.45683   -4955.3503   -4701.8247   -4955.3503            0     11098.11    19.802601    19.394612    20.304208    7798.1103    9858.0153    11233.259    12203.055    252.05683    79.899989    1000.0975   -3439.6651 
35909000    131.86963    -4944.818   -4690.4963    -4944.818            0    10775.558     19.75505    19.372052    20.314684    7774.3454    10466.241    10547.603    11312.828    81.252037    324.24613   -1041.2693   -3468.7544 
35910000    140.85554   -4950.3515   -4678.6997   -4950.3515            0    11094.885    19.695772    19.323791    20.419992    7771.7874    10201.957     11676.46    11406.238   -119.34958    -389.8171    89.113473   -3421.1661 
35911000    136.71632   -4958.9538   -4695.2849   -4958.9538            0     10446.13    19.624361    19.584271    20.288096    7797.2995    10897.139    10039.234    10402.019   -78.736199   -396.99167   -866.14518   -3507.3967 
35912000    136.76158   -4945.3692    -4681.613   -4945.3692            0    11479.416    19.668024    19.441611    20.356856    7784.0152     11083.38    11241.333    12113.534   -135.37158    639.14284    1430.9441   -3378.4482 
35913000     137.9987   -4933.3063   -4667.1642   -4933.3063            0    11573.612    19.672827    19.288135    20.355059     7723.771    10530.829    12649.666    11540.342   -448.30704    379.28698   -1208.1124   -3363.4746 
35914000    136.57589   -4958.3996   -4695.0015   -4958.3996            0     10100.03    19.782402    19.419115    20.339032    7813.3762    9459.7269    9368.8637    11471.499    262.17962   -267.03565   -220.05948   -3544.1023 
35915000    132.69224   -4940.7432    -4684.835   -4940.7432            0    10929.163    19.635391    19.531908    20.336682    7799.4561     9816.263    12023.201    10948.025   -630.06353    41.352287   -510.96014   -3441.6748 
35916000    139.60458     -4945.83   -4676.5908     -4945.83            0    9655.8526     19.73062    19.484925    20.337139    7818.6058    9731.9616    9596.3447    9639.2515    332.90945   -706.17166    22.221473   -3575.5693 
35917000    130.86398   -4924.8686   -4672.4865   -4924.8686            0    12498.745      19.7579    19.299509    20.317337     7747.362    12025.746    13276.884    12193.604   -440.76804     840.1675    1002.8048   -3260.2867 
35918000    133.73011   -4928.3257    -4670.416   -4928.3257            0    9768.0919    19.717569    19.590966    20.322043    7850.1253    11239.819    7969.9685    10094.488    865.01241   -467.92613   -848.34803    -3552.106 
35919000     143.4722    -4940.487   -4663.7888    -4940.487            0    10229.225    19.590941     19.54573    20.373173    7801.2798    11281.766    9730.9685    9674.9406    241.14488    66.365395   -1300.2605   -3499.9724 
35920000    135.16767   -4942.0307   -4681.3485   -4942.0307            0    10613.059     19.56639     19.51669    20.476096    7819.2306    12769.097    9675.8074    9394.2711    67.168325    559.38677   -248.05448   -3471.0835 
35921000    135.96044    -4939.744   -4677.5328    -4939.744            0    10566.725    19.637309    19.463699    20.480301    7827.8714    9891.5942    12068.682    9739.8981    384.52202    237.79812   -295.42465   -3471.2199 
35922000    143.47162   -4973.3062   -4696.6091   -4973.3062            0    10097.436    19.832226    19.301567    20.473929    7837.2778    11183.876     9972.374    9136.0588    329.12076    289.47777    102.92752   -3542.4857 
35923000    130.41223   -4949.5484   -4698.0375   -4949.5484            0    11587.914    19.807861    19.562725    20.145956    7806.4721    11130.447    11136.066    12497.231    85.774563    502.65915    153.64506   -3378.7605 
35924000    136.30558   -4936.4435   -4673.5667   -4936.4435            0    12880.937    19.773886    19.446497    20.166935    7754.8482    12518.189    12862.667    13261.954    509.98374    388.32017    14.331231   -3216.7778 
35925000    134.47511   -4938.0317   -4678.6852   -4938.0317            0    11795.272     19.58429    19.390093    20.399273    7746.4447     11257.89    11663.662    12464.265   -242.21625     1205.319    -466.5304   -3346.1267 
35926000    134.81558    -4956.808   -4696.8048    -4956.808            0    10379.036    19.545576     19.71287    20.261216    7806.6341    10771.625    9854.0681    10511.415    826.95495    444.18087   -427.02208   -3515.1334 
35927000    139.21384   -4945.6826    -4677.197   -4945.6826            0    9810.3605     19.62534     19.43416    20.416253    7786.7997    8350.4341     10970.32    10110.327   -328.50286    124.09544   -158.35734   -3563.1081 
35928000    137.07538   -4943.8419   -4679.4805   -4943.8419            0    11108.375    19.663362    19.474996    20.283427    7767.4146    10155.732    11814.316    11355.076    537.08568   -19.721344   -1864.6808   -3421.1264 
35929000    138.46901   -4938.1044   -4671.0553   -4938.1044            0    10867.712    19.697625    19.493354    20.347166    7812.7576     11651.05    10405.498    10546.588   -12.551975    42.034542   -667.95071   -3432.7767 
35930000     144.0255   -4940.6637   -4662.8984   -4940.6637            0    11409.175    19.748086    19.343943     20.26194    7740.1794    9233.5393    13029.613    11964.372   -36.696683   -802.96842    553.21911   -3375.0013 
35931000    138.29797   -4961.7593   -4695.0401   -4961.7593            0    9742.3173    19.645187    19.534783    20.418425    7835.8657    9641.6866    9917.2864    9667.9789   -56.420052   -48.212625    37.729348   -3581.7069 
35932000     132.4826   -4937.4441   -4681.9403   -4937.4441            0    10844.961    19.479369    19.310498    20.727929    7796.9411    13085.556    10016.651    9432.6773    531.38374   -140.03973   -447.02952   -3448.7555 
35933000    135.63764    -4958.794   -4697.2054    -4958.794            0    11020.251    19.708099    19.420905    20.330162    7781.3515    10805.352    11460.807    10794.595    299.10757    104.37362   -1267.6709   -3446.5939 
35934000    135.64021   -4947.2959   -4685.7024   -4947.2959            0    11659.058    19.768954    19.301906    20.275594    7736.7305    12029.143     11342.16    11605.871    110.02202    204.64013   -311.43491   -3370.1843 
35935000     145.2223   -4958.2729   -4678.1994   -4958.2729            0     10134.18    19.698488     19.38258    20.530378    7838.6526    8983.1794    11181.743    10237.619    245.52148    432.61145    153.86403    -3519.673 
35936000    142.40755   -4947.9577   -4673.3128   -4947.9577            0    10958.158    19.620202    19.450975    20.476811    7814.6075    12318.264     10654.72    9901.4903     655.9553   -982.73484   -341.12038   -3424.4331 
35937000    138.16484   -4957.4544   -4690.9919   -4957.4544            0    10817.824     19.79435    19.294604     20.47585    7820.2214    8223.6289    13743.843    10485.999     35.65112   -1190.9834   -104.53616   -3457.2201 
35938000    139.53167   -4942.4897   -4673.3912   -4942.4897            0    12701.576    19.751797    19.417213    20.279345    7777.6325    12340.276    12620.984    13143.469   -79.686527    1011.3879    125.57372   -3232.6667 
35939000    129.64925   -4944.7584   -4694.7189   -4944.7584            0     10160.49    19.763904    19.296659    20.382934    7773.5886    9837.2431    9891.9743    10752.254   -224.82712    1151.5198    545.72218    -3542.826 
35940000    144.31226   -4937.8539   -4659.5355   -4937.8539            0     12184.03    19.788465    19.519412    20.207026    7805.1496    11343.035    13535.484     11673.57    81.616523   -571.23636   -467.47045   -3272.6262 
35941000    138.12606   -4953.1853   -4686.7976   -4953.1853            0    10779.143    19.724975    19.581683    20.324757    7850.4009    10574.497    10971.539    10791.391    377.56537   -238.10238   -37.210276   -3452.6931 
35942000    140.01118    -4944.078   -4674.0546    -4944.078            0    10736.648    19.637334    19.476635    20.343845    7780.8941     10642.94    11155.181    10411.822    118.49692    185.19489   -860.25137   -3455.6989 
35943000    137.97919   -4950.9065    -4684.802   -4950.9065            0    10392.946    19.700337    19.523678    20.351302    7827.5794     10404.52    10367.631    10406.688   -1.3024237    408.59702    238.40138   -3498.3722 
35944000    139.58792   -4934.3456   -4665.1386   -4934.3456            0    11909.102    19.612978    19.463045    20.372015    7776.5739    11661.153    11970.163     12095.99     44.25716   -1178.6538    -474.2891   -3314.4874 
35945000    135.44449   -4936.3754   -4675.1593   -4936.3754            0    10887.739     19.77967    19.457387    20.181658    7767.1267    10068.394    10992.524    11602.299    171.00017    275.52275    -584.6022   -3441.8444 
35946000    140.52565   -4954.4865    -4683.471   -4954.4865            0    11466.627     19.71584      19.4986    20.248087    7783.9978    11338.384    11331.285    11730.211   -547.01941     1333.848   -786.33359   -3381.7609 
35947000    139.62643    -4955.397   -4686.1157    -4955.397            0    9657.2138    19.700506    19.468785    20.397738     7823.449    9747.4938    9562.7174    9661.4302    -26.17632     675.2489   -204.88839   -3584.2568 
35948000    137.98659   -4951.1001   -4684.9814   -4951.1001            0    10080.959    19.724037    19.379567    20.465218    7822.6922    10558.398    10013.576    9670.9026   -138.44517    799.83556   -472.11694   -3534.8857 
35949000    137.09069   -4932.1735   -4667.7826   -4932.1735            0    11068.296    19.667169    19.496885    20.304721    7785.8153    11315.732    10192.455    11696.702    197.18061     292.6129    38.463142   -3410.9983 
35950000    134.22156   -4945.4456   -4686.5881   -4945.4456            0    11197.519     19.63383    19.529518    20.323823     7792.951    14362.304     7596.651    11633.603   -390.20253    275.63614    848.00043   -3413.9654 
35951000    136.86111   -4951.1869   -4687.2387   -4951.1869            0    10248.452    19.643318    19.494862    20.353755    7794.3435    11008.918    8897.6113    10838.828   -1396.3543    21.725834    -876.2799   -3522.2715 
35952000    136.33417   -4948.2716   -4685.3397   -4948.2716            0    10741.326    19.580322    19.560167    20.377625    7804.5158    10968.887    10644.209    10610.882    1.2573569    284.80612    1234.5376   -3462.7528 
35953000    129.23652   -4937.5583   -4688.3148   -4937.5583            0    11812.348    19.621225    19.312646    20.427081    7740.5923    11967.441    11351.078    12118.523   -174.27598   -295.20105    112.93751   -3354.8354 
35954000    133.07276   -4957.8859   -4701.2439   -4957.8859            0    9346.0785     19.73795    19.543775    20.284614    7824.8723    9517.6378    8666.1063    9854.4913      32.7175    225.13989   -336.09991   -3634.6906 
35955000    131.14345   -4949.4871   -4696.5659   -4949.4871            0    10998.101    19.720347    19.384278    20.322563     7768.598    10149.792     12247.99     10596.52   -1084.9859   -116.90749   -676.19889   -3450.5137 
35956000    131.37473   -4953.2472     -4699.88   -4953.2472            0    10304.705    19.638872    19.380897    20.488429    7798.2847    10092.442    11088.961    9732.7108    102.44422   -913.39378   -755.28673   -3527.9261 
35957000    138.66169   -4947.0364   -4679.6157   -4947.0364            0    10896.257    19.706727    19.513594    20.287306    7801.4646    9311.8239    11580.962    11795.985    -540.0644    460.09971   -679.42912   -3439.8792 
35958000     139.9096   -4948.7312   -4678.9038   -4948.7312            0    10653.992    19.837557    19.333614    20.322209    7794.2111    9665.9602    11723.442    10572.573    587.36215    726.41071    -150.6323   -3467.8584 
35959000    134.73655   -4952.9134   -4693.0626   -4952.9134            0     9982.571    19.870211    19.280877    20.468785    7841.9005    8416.4541    11509.579     10021.68    -17.27808    786.00482    1186.8075   -3551.3951 
35960000    142.76062    -4941.999   -4666.6731    -4941.999            0    12285.579    19.572369    19.455352    20.431017     7779.872    14657.969    10313.284    11885.484    809.07321    1142.9555     1244.649   -3272.7335 
35961000    134.21269   -4933.0368   -4674.1964   -4933.0368            0    11703.384    19.662353    19.282714    20.441542    7750.2788    11594.443     12177.87    11337.838   -53.481543    682.87853     148.1595   -3351.3645 
35962000    135.22385   -4944.8647   -4684.0742   -4944.8647            0    10680.104    19.737167    19.549221    20.245523     7811.659    11395.018    10276.695    10368.599   -340.00491     1072.178   -902.30579    -3467.343 
35963000    141.75408   -4945.3497    -4671.965   -4945.3497            0    11140.831    19.599832    19.446923    20.475214    7804.2594    11286.935    11142.186    10993.373   -374.19454      842.579    295.64814   -3403.9477 
35964000    137.35139    -4939.389   -4674.4953    -4939.389            0    12337.353    19.444708    19.617639    20.406819    7784.3701    15013.013    9859.7255     12139.32   -123.14228    25.190948   -93.483235    -3273.872 
35965000    134.33489   -4963.7767   -4704.7005   -4963.7767            0    11339.669     19.57079    19.439085    20.434652     7774.123    11362.799    10817.611    11838.597    198.00731    474.71801   -452.70275    -3419.036 
35966000     135.5139   -4951.5617   -4690.2118   -4951.5617            0    10919.391    19.627372    19.389936    20.476235    7792.7117    11029.561    11447.111    10281.501   -153.09513    -555.3628    123.35401   -3449.2371 
35967000     129.0436   -4950.3273   -4701.4558   -4950.3273            0    10980.508    19.590929    19.396706    20.509219    7793.4928    10890.312     11447.96    10603.251    32.550265     823.1069   -1017.2911   -3453.4102 
35968000    139.21566   -4946.6076   -4678.1185   -4946.6076            0    10393.472    19.698214    19.407202    20.473709    7826.8372    10406.857    9933.3697    10840.188    222.85747    350.05573   -557.77517   -3491.7412 
35969000    138.83596   -4951.1854   -4683.4286   -4951.1854            0    10152.347     19.73713    19.471944      20.3432    7818.3049    9542.1293     10106.73    10808.181    809.11938    36.715792   -452.68927   -3525.8381 
35970000    131.87213   -4943.6815    -4689.355   -4943.6815            0    11574.934    19.670942    19.353343    20.367717    7753.9591    10221.081    13641.796    10861.926   -415.46205    974.14753   -68.517049   -3380.4205 
35971000    135.56047   -4946.6037   -4685.1639   -4946.6037            0    12232.528    19.797435    19.406278    20.304108     7800.727    11392.413     12840.07    12465.102    264.03553    825.15603   -384.14682    -3293.523 
35972000     133.6484   -4954.9269   -4697.1747   -4954.9269            0    11093.195    19.790073    19.412132    20.340878    7814.3042    10185.971    10727.317    12366.297    145.86569   -565.69921   -29.347059   -3432.9541 
35973000    126.37979   -4931.4206   -4687.6866   -4931.4206            0    11787.001     19.74641    19.564245    20.136097    7779.0499    9699.3997    11966.018    13695.585   -475.33444    460.92194   -498.99885   -3350.4576 
35974000    138.55663   -4950.3739   -4683.1558   -4950.3739            0    10544.996    19.783227     19.24543    20.440426    7782.4208    9744.0211    11377.001    10513.966    246.78366    1519.9669    721.25235   -3486.3132 
35975000    135.46687    -4958.006   -4696.7467    -4958.006            0    9656.6945    19.731633    19.365133    20.433739    7807.8481    8456.9765    10782.645    9730.4624   -284.73782   -1001.6255    935.90874   -3597.1442 
35976000    137.41574    -4942.303   -4677.2852    -4942.303            0    12037.457    19.565712    19.337517    20.504859    7758.0605    13977.135    10941.258     11193.98   -289.57821   -579.66773   -473.71587   -3315.3268 
35977000    149.06806    -4941.613   -4654.1227    -4941.613            0    11684.831    19.773062    19.408616    20.365676    7815.6897    10842.732    13098.655    11113.104   -97.405322    448.72747   -1559.4585   -3322.2411 
35978000    142.83803   -4951.5028   -4676.0276   -4951.5028            0    10229.297     19.78179    19.455962    20.327984    7823.7076    10566.526    9804.6946    10316.671    -309.3664    1279.8063   -403.47312   -3508.8571 
35979000    139.45873   -4938.3205   -4669.3626   -4938.3205            0    10840.905    19.826372    19.296682    20.308056    7769.5208    9096.1846    12165.761    11260.769    492.46799   -768.89938    421.83785   -3440.9743 
35980000    145.11506    -4950.254   -4670.3874    -4950.254            0    10928.536    19.832004    19.434337    20.352589    7844.3326    11395.861    10378.875    11010.871    548.19957   -426.66625    252.77023   -3420.1461 
35981000    142.93038   -4948.6542   -4673.0009   -4948.6542            0    11195.062    19.728064    19.411268    20.428358    7822.9732    11259.461    10060.236    12265.489    473.29475   -402.05086   -558.10713   -3395.7558 
35982000    139.19462   -4948.0315   -4679.5829   -4948.0315            0    11076.461    19.865283    19.227393    20.411615    7796.3717    8694.7892    13537.945    10996.648   -73.690109    567.06478    29.420071   -3420.1663 
35983000    138.63336   -4958.1506   -4690.7845   -4958.1506            0    11272.882    19.743668    19.489544    20.322987    7820.1855    9445.3827    12805.461    11567.803    139.01129    1756.4561    213.44607   -3405.1192 
35984000    144.41406   -4965.3148   -4686.8001   -4965.3148            0    9518.3781    19.709275    19.573919    20.448076    7888.6177    10515.614    8916.0454    9123.4752     29.59619   -544.62547    1451.8175   -3591.7355 
35985000    132.19809   -4947.0472   -4692.0921   -4947.0472            0    11753.883    19.597267    19.509481    20.345948    7778.9176    12724.047    10553.758    11983.843   -33.153389    797.84144    238.77865   -3358.6431 
35986000    131.88105   -4941.5814   -4687.2377   -4941.5814            0    11770.568    19.698591    19.425856    20.222766     7738.484    10653.176     11436.46    13222.068    368.99759   -35.578627   -79.963819   -3358.8367 
35987000    135.68648   -4941.0643   -4679.3815   -4941.0643            0    11434.273     19.66018    19.372076    20.374832    7759.9277    12094.361    11026.087    11182.369    412.67671   -1145.7195    1136.1815   -3385.3582 
35988000    133.67263   -4934.2643   -4676.4654   -4934.2643            0    11293.667    19.691536    19.465208    20.370053     7807.838    11251.714    11467.822    11161.465   -771.41052    433.65535   -895.80201   -3390.4634 
35989000    138.85327   -4957.2841   -4689.4939   -4957.2841            0    8449.9777    19.757989    19.343402    20.521039    7842.8688    7984.3664    8623.3919    8742.1748     104.1621    892.74453   -1128.4916   -3722.9838 
35990000    139.13709    -4945.234   -4676.8964    -4945.234            0    10592.653    19.709303    19.456411     20.35956    7807.3273     10612.03    10628.062    10537.867    283.39485    115.48746    -1123.257   -3470.7972 
35991000     131.3412   -4947.9626   -4694.6601   -4947.9626            0    11499.705    19.737835    19.497775    20.289476    7808.2801    10520.108    12212.088    11766.919     304.1884     368.3554    654.61112   -3385.1225 
35992000      137.027   -4953.3182   -4689.0501   -4953.3182            0    11430.522    19.704372    19.451827    20.370876    7807.8721    11915.134    10580.755    11795.677    348.83919    486.79027    -596.0935   -3387.4587 
35993000    139.78375   -4944.8941   -4675.3093   -4944.8941            0    11207.456    19.716204    19.490997    20.293439    7798.5345    11109.179    10331.998    12181.191     122.7881    185.47764    18.674177   -3400.6448 
35994000    141.48971   -4942.6242   -4669.7494   -4942.6242            0    10324.176    19.720674     19.49551    20.246788    7784.1735    9432.8924    10019.068    11520.569   -298.22832    621.71189    10.168655   -3497.7057 
35995000    148.76912   -4943.5171   -4656.6033   -4943.5171            0    11737.598    19.822751    19.418803    20.218945    7782.9612    11492.125     12404.08     11316.59    522.91245   -215.35287   -147.33984   -3324.3095 
35996000    138.61952   -4933.9567   -4666.6173   -4933.9567            0    11754.753    19.675411    19.465132    20.265463    7761.3574    13148.468        11068    11047.791    -242.3571   -1953.4562    -543.2339   -3336.0799 
35997000    135.84055   -4946.2658   -4684.2859   -4946.2658            0    11536.225    19.751542    19.257129    20.469864    7785.8761     11083.55    12705.915     10819.21     458.6386   -405.25403   -1228.7176   -3374.3589 
35998000    137.88168   -4935.8375   -4669.9211   -4935.8375            0    10960.969    19.668143    19.429323    20.408675    7798.9447    9150.2202    12078.233    11654.453   -186.18169   -514.05923    295.51904   -3423.2248 
35999000    134.55748   -4954.6844    -4695.179   -4954.6844            0    11287.593    19.741289    19.444291    20.302552    7793.2436    11172.255    10591.544    12098.978    239.41383    765.57961    150.48163   -3412.2712 
36000000    148.18889   -4949.2929   -4663.4981   -4949.2929            0    10629.531    19.700987    19.446957     20.41455    7821.3094    12163.643    10277.446    9447.5033    43.413659   -339.82167   -653.67713   -3451.0325 
Loop time of 353.956 on 64 procs for 250000 steps with 972 atoms

Performance: 122.049 ns/day, 0.197 hours/ns, 706.302 timesteps/s
99.1% CPU use with 64 MPI tasks x 1 OpenMP threads

MPI task timing breakdown:
Section |  min time  |  avg time  |  max time  |%varavg| %total
---------------------------------------------------------------
Pair    | 19.818     | 29.167     | 38.504     |  83.7 |  8.24
Bond    | 0.25766    | 0.27519    | 0.28503    |   0.9 |  0.08
Kspace  | 136.88     | 146.12     | 155.49     |  37.6 | 41.28
Neigh   | 0.94211    | 0.95523    | 0.96826    |   0.7 |  0.27
Comm    | 84.384     | 85.588     | 86.497     |   5.6 | 24.18
Output  | 0.47829    | 0.47852    | 0.47989    |   0.0 |  0.14
Modify  | 84.893     | 86.047     | 87.071     |   6.1 | 24.31
Other   |            | 5.326      |            |       |  1.50

Nlocal:        15.1875 ave          19 max          11 min
Histogram: 1 7 10 9 0 9 5 11 9 3
Nghost:        2386.86 ave        2411 max        2371 min
Histogram: 5 10 10 10 6 8 7 4 2 2
Neighs:        5005.66 ave        6879 max        3358 min
Histogram: 5 5 5 13 7 12 5 3 7 2

Total # of neighbors = 320362
Ave neighs/atom = 329.59053
Ave special neighs/atom = 2.0000000
Neighbor list builds = 2901
Dangerous builds = 0

unfix		3
unfix		2
unfix		1

write_data	data.final.${pid}
write_data	data.final.1
System init for write_data ...
PPPM initialization ...
  extracting TIP4P info from pair style
  using 12-bit tables for long-range coulomb (../kspace.cpp:340)
  G vector (1/distance) = 0.37286714
  grid = 24 24 24
  stencil order = 5
  estimated absolute RMS force accuracy = 0.0034279772
  estimated relative force accuracy = 1.0323252e-05
  using double precision FFTW3
  3d grid and FFT values/proc = 2197 216
Last active /omp style is kspace_style pppm/tip4p/omp
WARNING: Not all mixed pair coeffs generated from mixing. Use write_data with 'pair ij' option to store all pair coeffs. (../write_data.cpp:312)

write_restart   restart.lmp.${pid}
write_restart   restart.lmp.1
System init for write_restart ...
PPPM initialization ...
  extracting TIP4P info from pair style
  using 12-bit tables for long-range coulomb (../kspace.cpp:340)
  G vector (1/distance) = 0.37286714
  grid = 24 24 24
  stencil order = 5
  estimated absolute RMS force accuracy = 0.0034279772
  estimated relative force accuracy = 1.0323252e-05
  using double precision FFTW3
  3d grid and FFT values/proc = 2197 216
Last active /omp style is kspace_style pppm/tip4p/omp
Total wall time: 0:05:54
