#include		in.partitions
include		in.temp
variable        temperature equal 191.47
variable	tempDamp equal 100.0
include		in.pressure
variable        pressure equal 7486.4
variable        pressureDamp equal 1000.0 # This is 1 ps
include		in.seed
variable        seed equal 745823

units		real
atom_style	full
read_restart    restart.lmp.${pid}
read_restart    restart.lmp.0
Reading restart file ...
  restart file = 30 Jul 2021, LAMMPS = 30 Jul 2021
  restoring atom style full from restart
  triclinic box = (-3.1933532 -0.063199230 -0.0050336790) to (14.803352 22.643198 19.235032) with tilt (0.0030839151 -6.7475302 0.030040630)
  2 by 4 by 4 MPI processor grid
  restoring pair style lj/cut/tip4p/long/omp from restart
  restoring bond style harmonic/omp from restart
  restoring angle style harmonic/omp from restart
  1008 atoms
  672 bonds
  336 angles
Finding 1-2 1-3 1-4 neighbors ...
  special bond factors lj:    0        0        0       
  special bond factors coul:  0        0        0       
     2 = max # of 1-2 neighbors
     1 = max # of 1-3 neighbors
     1 = max # of 1-4 neighbors
     2 = max # of special neighbors
  special bonds CPU = 0.002 seconds
  read_restart CPU = 0.010 seconds

include 	in.setup
variable	out_freq equal 1000
variable	out_freq2 equal 10000
variable	out_freq3 equal 1000

timestep	2.0

neigh_modify    delay 7 every 1

include		in.tip4p
# This is TIP4P/Ice

# create groups ###
group ox type 2
336 atoms in group ox
group hy type 1
672 atoms in group hy

# set charges - beside manually ###
set group ox charge -1.1794
Setting atom values ...
  336 settings made for charge
set group hy charge 0.5897
Setting atom values ...
  672 settings made for charge

# ### TIP3P Potential Parameters ###
pair_style lj/cut/tip4p/long/omp 2 1 1 1 0.1577 8.5
pair_coeff 1 1*2 0.000 0.000
pair_coeff 2 2 0.21084 3.1668
bond_style  harmonic
bond_coeff  1 450 0.9572
angle_style harmonic
angle_coeff 1 55 104.52
kspace_style pppm/tip4p/omp 1.0e-5
pair_modify tail yes

thermo          ${out_freq}
thermo          1000
thermo_style    custom step temp pe etotal epair emol press lx ly lz vol pxx pyy pzz pxy pxz pyz enthalpy

restart 	${out_freq3} restart.lmp.${pid} restart2.lmp.${pid}
restart 	1000 restart.lmp.${pid} restart2.lmp.${pid}
restart 	1000 restart.lmp.0 restart2.lmp.${pid}
restart 	1000 restart.lmp.0 restart2.lmp.0


include         in.dump
dump            myDump all atom ${out_freq2} dump.water.${pid}
dump            myDump all atom 10000 dump.water.${pid}
dump            myDump all atom 10000 dump.water.0
dump            myDump2 all dcd ${out_freq2} dump.dcd
dump            myDump2 all dcd 10000 dump.dcd
dump_modify     myDump append yes
dump_modify     myDump2 append yes


variable natoms 	equal  "count(all)"                        # NUMBER ATOMS
variable H      	equal  "enthalpy/v_natoms"                 # ENTHALPY-per-atom
variable Vol      	equal  "vol/v_natoms"                 # volume-per-atom
fix AVG all 		ave/time ${out_freq} 1 ${out_freq} v_Vol v_H file vol_enthalpy.dat
fix AVG all 		ave/time 1000 1 ${out_freq} v_Vol v_H file vol_enthalpy.dat
fix AVG all 		ave/time 1000 1 1000 v_Vol v_H file vol_enthalpy.dat



fix 		1 all shake 1e-6 200 0 b 1 a 1
       0 = # of size 2 clusters
       0 = # of size 3 clusters
       0 = # of size 4 clusters
     336 = # of frozen angles
  find clusters CPU = 0.001 seconds
fix             2 all nph tri ${pressure} ${pressure} ${pressureDamp}
fix             2 all nph tri 7486.4 ${pressure} ${pressureDamp}
fix             2 all nph tri 7486.4 7486.4 ${pressureDamp}
fix             2 all nph tri 7486.4 7486.4 1000
fix             3 all temp/csvr ${temperature} ${temperature} ${tempDamp} ${seed}
fix             3 all temp/csvr 191.47 ${temperature} ${tempDamp} ${seed}
fix             3 all temp/csvr 191.47 191.47 ${tempDamp} ${seed}
fix             3 all temp/csvr 191.47 191.47 100 ${seed}
fix             3 all temp/csvr 191.47 191.47 100 745823


run             250000
PPPM initialization ...
  extracting TIP4P info from pair style
  using 12-bit tables for long-range coulomb (../kspace.cpp:340)
  G vector (1/distance) = 0.37912602
  grid = 24 27 32
  stencil order = 5
  estimated absolute RMS force accuracy = 0.0024788902
  estimated relative force accuracy = 7.4651041e-06
  using double precision FFTW3
  3d grid and FFT values/proc = 5355 672
Last active /omp style is kspace_style pppm/tip4p/omp
Neighbor list info ...
  update every 1 steps, delay 7 steps, check yes
  max neighbors/atom: 2000, page size: 100000
  master list distance cutoff = 10.8154
  ghost atom cutoff = 10.8154
  binsize = 5.4077, bins = 5 5 4
  1 neighbor lists, perpetual/occasional/extra = 1 0 0
  (1) pair lj/cut/tip4p/long/omp, perpetual
      attributes: half, newton on, omp
      pair build: half/bin/newton/tri/omp
      stencil: half/bin/3d/tri
      bin: standard
Per MPI rank memory allocation (min/avg/max) = 10.31 | 10.32 | 10.33 Mbytes
Step Temp PotEng TotEng E_pair E_mol Press Lx Ly Lz Volume Pxx Pyy Pzz Pxy Pxz Pyz Enthalpy 
14000000    199.72622    -4965.253   -4565.7759    -4965.253            0    7927.7674    17.996705    22.706397    19.240065     7862.267    8183.4259    8012.3115    7587.5649   -668.45584     688.0385    1813.9123   -3656.7535 
14001000    192.90059   -4990.5799   -4604.7549   -4990.5799            0    6285.4337    17.863507    22.800893    19.336983    7876.0288    5594.6844    7367.8308     5893.786     50.39801     836.1642   -172.27974    -3882.786 
14002000    189.34448   -4980.9379   -4602.2256   -4980.9379            0    7453.4378    18.076084    22.668858    19.221153    7876.1402    6883.8874    8318.3055    7158.1204   -344.78593    738.44088     -283.475   -3746.0833 
14003000    185.45427   -4977.8535    -4606.922   -4977.8535            0    7372.2823    17.992179    22.643009    19.291831    7859.4355    8204.9388    7427.7496    6484.1586     1319.749   -601.41969    1616.5765   -3761.8977 
14004000    182.70801   -4998.2567   -4632.8181   -4998.2567            0    6889.9445    17.995204       22.645    19.327648    7876.0438    6485.4985    6596.1373    7588.1978   -84.754357   -158.72154    399.97983   -3841.4114 
14005000    184.74697    -4973.056   -4603.5392    -4973.056            0     7535.631    17.897464     22.93337    19.198353    7879.9479    7764.8735    7520.9614    7321.0581    232.91699    436.27108   -26.117199   -3737.5373 
14006000    194.09964   -4981.5118   -4593.2885   -4981.5118            0    6546.1168    17.908898    22.968704    19.153732     7878.776    5821.5312    6634.4398    7182.3794    -633.7481    1117.8944   -1558.1586   -3841.1144 
14007000    189.96278   -4992.8152   -4612.8662   -4992.8152            0    6177.9021    18.058621    22.566478    19.394371    7903.5842    6569.5478    6355.5419    5608.6167   -407.49275    -47.96301     77.89538   -3900.7662 
14008000     188.8899   -4972.8981    -4595.095   -4972.8981            0    8452.1242    17.904761    22.647777    19.366654    7853.2366    8695.2695    9568.0636    7093.0395   -275.34684    791.93157    1031.6443   -3627.0614 
14009000    204.55712   -4986.4543   -4577.3148   -4986.4543            0    8425.7589    17.770257    22.901988    19.292048    7851.3659    9746.6731    8620.4166    6910.1871   -233.13457   -16.156453    486.97278   -3612.5307 
14010000    194.22144   -4981.6848    -4593.218   -4981.6848            0    6860.8905    17.809306    23.184268    19.084634    7879.9639     6133.693    6183.2476    8265.7308    950.48462   -269.15079    -1285.845   -3804.7563 
14011000    193.53637    -4996.673   -4609.5763    -4996.673            0    6623.8076    17.928508    22.807459     19.25974    7875.3789    6601.3354     6462.344    6807.7432    360.47692    181.04568    2050.9335   -3848.8034 
14012000    193.96972   -4954.6925   -4566.7291   -4954.6925            0    6868.0979    18.097369    22.482487    19.473289    7923.1725    6235.1424    7641.0222    6728.1292    725.26463   -109.59798    78.870993   -3773.1112 
14013000    197.66991   -4964.7587   -4569.3945   -4964.7587            0    8080.6522    18.069865    22.653624    19.216017    7866.0366    7076.3869    9033.8444    8131.7253   -570.17268    295.10895    494.54902   -3642.3976 
14014000    191.15536   -4984.1646   -4601.8303   -4984.1646            0    8087.0585    17.783392    22.937348    19.192874     7828.847    7897.0937    8439.5907    7924.4911    104.05746   -385.52779    786.86614   -3678.4847 
14015000    198.19825   -5003.6248   -4607.2038   -5003.6248            0    6586.0893    17.742717    23.043006    19.289139    7886.2783    7290.8278    6538.9671     5928.473   -240.38135    394.06412    114.64383   -3849.7161 
14016000     190.8432    -4982.508    -4600.798    -4982.508            0    6888.0631    17.844696    22.861117    19.352507    7894.8493    9116.5931    5854.1654    5693.4307   -1098.3127    254.15032   -193.81729   -3807.7183 
14017000     201.1316   -4998.3238   -4596.0358   -4998.3238            0    7735.2309    18.062671    22.723544    19.136638    7854.5926    8079.2299    6665.9068     8460.556    846.10758   -867.72674   -254.48807    -3709.956 
14018000    182.87788   -4983.1577   -4617.3793   -4983.1577            0    6529.5754    17.987884    22.763896    19.253662    7883.8799    7386.4901    6246.1812     5956.055    312.23514   -1074.4473    1224.5558   -3866.6198 
14019000    195.93845    -4991.284   -4599.3829    -4991.284            0    7147.9461    17.885237    22.657252    19.400566    7861.6975    6944.4474    7097.3824    7402.0086    808.95772    484.97422    1989.0108   -3779.8366 
14020000    194.58502   -4993.2667   -4604.0726   -4993.2667            0    7449.3665    17.990439    22.620858    19.354649    7876.5518    6831.4204    7654.9143    7861.7648   -219.86505   -1079.7415    519.69889   -3748.3532 
14021000    193.14793   -4999.3374   -4613.0177   -4999.3374            0    7450.4862    17.812788    22.820101    19.307742    7848.3968    7742.1857    7624.3036    6984.9693    1129.5656    6.6868714    51.439215    -3760.229 
14022000    191.92666   -4974.2663   -4590.3893   -4974.2663            0    9493.0266    17.745883    22.962049    19.161784    7808.0788    9578.9478    8511.1193    10389.013   -280.45937    -911.6543   -795.39213   -3509.3916 
14023000    190.17925   -4993.4659   -4613.0839   -4993.4659            0    8258.8952    17.735858    22.809597    19.321414    7816.4351     10315.57    7216.3743    7244.7413    15.690064    -459.8213    546.41676   -3671.6137 
14024000     204.9078   -4970.2618   -4560.4209   -4970.2618            0    9025.1883    17.939667    22.618379    19.284281    7824.9091    8269.7432    9250.9609    9554.8608    896.37015   -314.18835    373.74583    -3530.482 
14025000    202.13597   -4985.6922   -4581.3952   -4985.6922            0    7421.2015    18.026075    22.776083    19.233115    7896.4126    7277.6216    7717.6215    7268.3616   -238.93614   -349.26842   -1022.0325   -3726.7617 
14026000    194.25126   -4974.4734   -4585.9469   -4974.4734            0    9023.5717    17.976132    22.757864    19.180617    7846.7588    10783.169    7735.4711    8552.0753   -1196.1762   -338.77603   -1102.1379   -3553.3171 
14027000    187.07082   -4955.4963   -4581.3316   -4955.4963            0    5622.9824    17.866684    22.959755    19.341288    7934.0807    6424.3846    5589.5649    4854.9977    872.74264   -403.77386    2781.7415   -3930.6939 
14028000    185.30214    -4981.333   -4610.7058    -4981.333            0    7068.1084    17.950077    22.835067    19.220772    7878.4254    5394.6931    8112.4881    7697.1439    1589.3211     502.7887    1785.3479    -3798.589 
14029000    195.38142   -4981.3311   -4590.5442   -4981.3311            0    9479.4459    17.952531    22.759029    19.119953    7812.0715    10659.416    8736.1634    9042.7583   -1391.9682   -55.776851   -699.46299   -3510.5409 
14030000    193.50864    -4974.323   -4587.2818    -4974.323            0    7542.1804     17.95737    22.703375    19.308466    7871.9246     7865.505    7260.9561      7500.08   -204.35842   -661.75666   -1938.0923   -3721.4098 
14031000    201.75194   -4975.2047   -4571.6759   -4975.2047            0    9038.7945    17.849119     22.61548    19.471907    7860.1547    10822.833    8891.2722     7402.278    619.24356    674.83437     2495.555   -3535.5382 
14032000    195.66115   -4985.0248   -4593.6784   -4985.0248            0    6601.0738    17.882985    22.934619    19.270574    7903.6228     7454.413    5988.0382    6360.7701   -270.18644   -435.22439     148.1198   -3832.7975 
14033000    186.09266   -4960.0877   -4587.8794   -4960.0877            0     7896.921    17.896626    22.996226    19.049595    7839.9533    7123.0109    7985.0539    8582.6982    529.47454    98.261871    301.58653   -3684.9637 
14034000    186.80393   -5001.0429    -4627.412   -5001.0429            0    7090.0794    17.877141    22.846578    19.285388      7876.76    6300.9615    6975.6635    7993.6134    -1257.325   -637.10349    1863.7196   -3812.9429 
14035000    180.83565   -4993.8412   -4632.1476   -4993.8412            0    5718.1548    17.997156    22.768028    19.317745    7915.6346     5901.207    6542.0313     4711.226   -566.35806    540.38704    1448.6462   -3972.0357 
14036000    190.01258   -5000.3271   -4620.2785   -5000.3271            0    8079.7224    17.931857    22.760827    19.274093    7866.6034    5864.5781    9434.5873    8940.0018   -345.94554    813.16953    -571.5646   -3693.3215 
14037000    194.84724   -4986.7704   -4597.0518   -4986.7704            0    8322.5054    17.866822    23.014944    19.068986    7841.2415    9353.9516    6343.0101    9270.5546   -649.76163   -782.83818   -286.55108   -3645.3195 
14038000    187.46873   -4975.3158   -4600.3552   -4975.3158            0    7276.6307    17.807337    23.044264    19.109979    7841.9131    8251.7762     6503.668    7074.4477    2116.1266   -289.55517    722.74784   -3768.1542 
14039000    188.63705    -4980.794   -4603.4966    -4980.794            0    8395.5336    17.850647    22.750585    19.284744    7831.7788    7777.0771    8555.1651    8854.3586   -945.11816    806.70155   -551.81873   -3644.5717 
14040000    197.40776   -4990.8198   -4595.9798   -4990.8198            0    7931.7349    17.894024    22.599021    19.433004    7858.4622    9095.9144    8911.8074    5787.4829   -348.94473   -207.58421    724.65081   -3686.9427 
14041000     192.9691   -4979.9104   -4593.9483   -4979.9104            0    7682.2387    17.897903    22.694661    19.358506    7863.1703    7743.2359    7190.9816    8112.4988   -733.00217   -759.58485   -558.89991   -3712.9778 
14042000    189.21222   -4982.0548    -4603.607   -4982.0548            0    6576.9058    17.991858    22.895863    19.148047    7887.8295     5404.857    6734.8416    7591.0187   -387.57475   -687.01569   -562.82333   -3847.0267 
14043000    190.25953   -4963.1291   -4582.5866   -4963.1291            0    7733.9616     17.90444    22.967641    19.089005    7849.8334    8650.9165    6637.3951    7913.5733    1559.8003   -804.01097    119.45715    -3697.189 
14044000    195.57538   -5008.9586   -4617.7836   -5008.9586            0    8998.2293    17.790885    22.727751    19.333536    7817.4533    8615.7197     9489.013    8889.9551    244.07295   -841.82058    1916.4321   -3591.8997 
14045000    186.79178   -4999.4515   -4625.8448   -4999.4515            0    7701.7465    17.918182    22.447984    19.580586    7875.8418    9044.6303    8160.3566    5900.2525   -694.13527   -620.44305    534.68853    -3741.214 
14046000    191.86109   -5002.5298   -4618.7839   -5002.5298            0    7336.6519    18.070759    22.655467    19.259718    7884.9568      6951.59    7833.6127     7224.753   -1901.5709    1038.8362   -2172.1704   -3775.1129 
14047000    194.09125   -4992.7256   -4604.5191   -4992.7256            0    8667.2937     17.73124    23.054093    19.191724    7845.1482    10303.582     7109.846     8588.453   -1014.2778    260.51676    353.12191   -3612.8642 
14048000    192.18115   -4997.9669   -4613.5808   -4997.9669            0    7338.6226    17.711616    23.124746    19.165846    7849.8826    9359.8153    6302.5432    6353.5094   -168.60676    594.39492   -2708.8117   -3773.4371 
14049000    196.96755   -4979.9373   -4585.9778   -4979.9373            0    6003.9564    17.875283    22.797348    19.373869    7895.0266    7070.2932    5667.5896    5273.9863   -1315.3095   -1248.9859    -887.9761   -3894.6771 
14050000    188.57686   -4985.2139   -4608.0368   -4985.2139            0    9307.5665    17.960125    22.606362    19.250366    7815.9002    9771.4945    10434.203    7717.0021    114.70523    908.04685    1894.7757   -3547.0963 
14051000    210.41959   -4968.1834   -4547.3182   -4968.1834            0    9403.3041    17.988578    22.613471    19.228692    7821.9277    9634.4871    9426.2751    9149.1503   -138.42051    692.97457    2536.3932   -3474.6382 
14052000    185.84152   -4989.3621   -4617.6561   -4989.3621            0    6228.3012    17.784579    22.975111    19.269403    7873.5298    6439.9183    6370.5242    5874.4612    807.82224     1069.677    441.78042   -3902.4767 
14053000    183.38241   -4995.6654   -4628.8779   -4995.6654            0    6878.4283    17.775369     23.14485    19.087715    7852.8436    7211.4251    5717.5291    7706.3306   -287.52783     396.7121   -397.65961   -3841.1213 
14054000    201.84457   -4989.1807   -4585.4666   -4989.1807            0    6620.8591    17.957569    22.903174    19.221138     7905.372    7446.8881     6531.398    5884.2914   -291.09352    -805.2948     1432.503   -3822.1363 
14055000    191.07231   -4968.5906   -4586.4224   -4968.5906            0    8586.5556    18.089583    22.401339    19.381598    7854.0222    8755.0028    9097.2789    7907.3852   -1270.4961   -525.60534   -1733.3159   -3602.8937 
14056000    193.37293   -4960.2167   -4573.4469   -4960.2167            0    7226.2889    18.029436     22.66429     19.36052    7911.1803    7383.1002     7133.032    7162.7344   -40.376677   -285.95239    -178.3467   -3739.7034 
14057000    184.59149   -4995.6882   -4626.4824   -4995.6882            0    6498.3041    17.881186    23.281032    18.948588    7888.1544    5344.5075    5957.7213    8192.6835    1066.4933    879.76024   -245.13837   -3878.9133 
14058000    188.52308   -4982.9633   -4605.8939   -4982.9633            0    6673.5139    17.860543    23.083527    19.138316    7890.4276    5734.8566    6658.5636    7627.1216    898.77885    2.0278698   -479.64893   -3837.9473 
14059000    190.88576   -4989.8749   -4608.0798   -4989.8749            0    7201.2868    18.014832    22.672031     19.31849    7890.3055    5752.4499    7696.8805    8154.5301    72.996294    570.38771   -1285.1112   -3779.4132 
14060000    193.38738   -4991.4063   -4604.6076   -4991.4063            0     6290.155    18.043703    22.466905    19.470728    7893.1639    5484.6492    7730.0404    5655.7755   -810.62242   -277.36885   -496.61293   -3880.5246 
14061000    198.72705   -4982.6968   -4585.2182   -4982.6968            0    7391.3814    17.822627    22.887913    19.318026    7880.2622    7946.4292     6770.645    7457.0699    781.32921    717.53923    822.37537   -3735.7597 
14062000    212.16805   -4989.9419   -4565.5796   -4989.9419            0    6776.7354    17.815399     23.07643    19.207358    7896.4481    7358.1161    6051.6624    6920.4278    1477.7322      106.897    106.28281   -3785.1599 
14063000     202.1746   -4978.9207   -4574.5465   -4978.9207            0    9259.7611    17.875855    22.865379    19.194646    7845.5855    8814.3733    10199.722    8765.1881   -2078.7629   -602.38628   -2020.0741   -3515.0464 
14064000    185.45715   -4983.1757   -4612.2385   -4983.1757            0    6837.5191    18.012644    22.735875    19.289159    7899.5513    6892.9937    5693.1779    7926.3858    610.88057   -1195.0259    831.33553   -3824.5094 
14065000    182.43464    -4984.246   -4619.3542    -4984.246            0    9188.0383    17.990162    22.710648    19.238654    7860.3025    9993.3644    8999.1494    8571.6012    740.03436    -360.0878    1540.8546   -3566.0885 
14066000    192.24364   -4966.6297   -4582.1187   -4966.6297            0    7003.9056     18.02492    22.820357    19.257599    7921.3264    6020.3686    7016.4776    7974.8706   -1115.8741   -513.63491    -99.69657   -3772.9965 
14067000    193.91702   -5000.0395   -4612.1815   -5000.0395            0    7227.7291    17.979941    22.809901    19.194996    7872.2649    6748.9767    7373.6151    7560.5955   -1595.8489    161.64213   -2642.9858   -3782.3738 
14068000    194.19816   -4983.6373   -4595.2169   -4983.6373            0    8798.8175    17.884966    22.800339    19.210694    7833.8002    7742.0664    9199.8641     9454.522   -791.19813   -195.00866   -1567.3504   -3589.9702 
14069000    194.63065   -5015.6202   -4626.3349   -5015.6202            0    8171.0179    17.887129    22.865644    19.132985    7825.4049    9273.7754     6667.088    8572.1902   -721.58052   -1613.6616    1816.0479   -3693.8134 
14070000    195.87307   -4981.7522   -4589.9819   -4981.7522            0    8320.9998    17.938976    22.857807    19.127048     7842.963     8300.705    7823.0395    8839.2548    185.58352   -476.60212    520.00291   -3638.2129 
14071000    189.80066   -4978.0557   -4598.4309   -4978.0557            0    7547.7419    17.843497    22.853808    19.374324    7900.6916    9100.9519    7121.5619    6420.7121    244.25724    613.27937    354.22631   -3728.7538 
14072000    191.44445   -4942.4751   -4559.5625   -4942.4751            0    7473.4124    17.980788    22.801353    19.285451    7906.7706    6507.6281    7819.9886    8092.6205    1023.9518   -15.059799   -2447.1252   -3697.7874 
14073000    185.55676   -5006.9768   -4635.8403   -5006.9768            0    4488.7528    18.052193     22.84572    19.188069    7913.4542    3024.4336    4676.3962    5765.4287   -534.15364    349.37574   -604.04588   -4117.7951 
14074000    189.60901   -5007.5889   -4628.3475   -5007.5889            0    7661.6283     18.01319    22.641496    19.308988    7875.0852    7188.9046    8434.2811    7361.6992    1852.3999   -306.14552    1390.8101   -3748.4091 
14075000    184.13659   -4980.9675   -4612.6716   -4980.9675            0    7732.4667    18.166339    22.625516    19.175089    7881.3986    5277.8654    9352.1419    8567.3928   -235.04462    617.89726    154.94632   -3723.8855 
14076000    191.51708   -4976.8375   -4593.7797   -4976.8375            0     8180.343    17.982353     22.81175    19.169255    7863.3998    8201.2752    7419.2266    8920.5271     553.8196   -517.78774   -738.82629   -3655.6611 
14077000    179.88116   -4996.0637   -4636.2792   -4996.0637            0    7634.0151    17.769079    22.899609    19.302824    7854.4149     8633.824    6844.7954    7423.4259    845.16574   -482.16173     721.2431   -3761.8135 
14078000    204.28061    -4975.751   -4567.1645    -4975.751            0    8192.8469    18.003962     22.70737     19.27688     7880.825    7515.4046    9238.0435    7825.0928   -243.72845    975.35716   -594.25552   -3625.5299 
14079000    190.11428   -4995.5334   -4615.2814   -4995.5334            0    8181.2944    17.951043    22.782227    19.214018    7857.8556     7527.491    8076.0498    8940.3423   -786.00441    971.12542   -1203.4061   -3677.7151 
14080000    196.20325   -4970.6752   -4578.2445   -4970.6752            0     7298.451    17.942658    22.807642    19.222392    7866.3738    7874.2503    6145.0559    7876.0467    294.87318    666.89941    628.39721   -3740.9444 
14081000    186.99973   -4969.7594   -4595.7368   -4969.7594            0    8088.9393    17.810374    22.862843    19.308942    7862.5196     9047.417    7985.9645    7233.4365    1275.1678    380.76727    718.49333   -3668.2042 
14082000    190.36885   -5006.4375   -4625.6762   -5006.4375            0    7694.6669    17.928053    22.836346    19.207118    7863.6099    7816.0462      7895.42    7372.5344    1098.0799    206.30587   -837.70556   -3743.2312 
14083000    193.77557   -4981.9461   -4594.3711   -4981.9461            0    6914.8874    17.974205    22.806545    19.282144    7904.3199    5032.9321    8188.4285    7523.3016   -901.55211    643.42997    708.17336   -3797.2477 
14084000    195.55462   -4960.0989   -4568.9655   -4960.0989            0    8372.9304     17.89889    22.756236    19.291711    7857.7333    8693.6839    7830.9252    8594.1822   -869.10863   -1012.6268   -1658.5439   -3609.4529 
14085000    189.56113   -4995.2161   -4616.0704   -4995.2161            0     6783.916    17.912159    23.035995    19.134702    7895.4451    6181.4428    6410.9669    7759.3384    715.07402   -117.15502   -1561.2582   -3834.9231 
14086000    183.41917   -4984.1263   -4617.2653   -4984.1263            0    6055.4987    17.951987    22.959917     19.14019    7889.1294    5072.5976    6019.3093    7074.5892    732.52101   -1596.3181    985.63366   -3920.5508 
14087000    189.34722   -4988.8107   -4610.0929   -4988.8107            0     8670.906    17.931689    22.718401    19.209345    7825.4898    8622.4313    9430.0512    7960.2356   -1029.7154   -116.39694   -1395.2813   -3620.5106 
14088000    185.37781   -4967.6655    -4596.887   -4967.6655            0    6738.7741    17.971019    22.682449    19.318229    7874.6263    6194.4179     7898.222    6123.6824    70.079458    121.27959    553.51725   -3822.9836 
14089000    179.84696    -4996.803   -4637.0869    -4996.803            0    7819.3063     17.89896    22.529631    19.487462    7858.4548    8061.3117    9105.0581    6291.5491    372.72148   -1183.2084   -82.233225   -3740.9357 
14090000    188.38805   -4989.5211   -4612.7217   -4989.5211            0    6443.8696    17.874152    22.855029    19.336917    7899.4063    6861.7222    6001.4289    6468.4576    264.40205   -1906.9169    1539.1158   -3870.3574 
14091000    188.29825   -4993.3156   -4616.6959   -4993.3156            0    7244.4812    17.874487    23.092999    19.066004    7869.9792     8102.148      5433.64    8197.6556   -1123.8952   -566.21685   -570.59818   -3785.2064 
14092000    180.56206   -4972.0523   -4610.9058   -4972.0523            0    7233.8448     17.84335    22.936726      19.2857    7893.0205    8259.7798    5598.4059    7843.3487   -888.08855   -1042.7511   -1067.8132   -3778.2063 
14093000    194.35494    -4971.699   -4582.9651    -4971.699            0    7876.0577    18.047284    22.570394    19.318635     7869.143     6699.739    8140.5342    8787.8999    1225.6689   -796.37424    447.88919   -3679.0821 
14094000    189.15569   -4989.5614   -4611.2266   -4989.5614            0    7540.2725    18.031999    22.637533    19.325565    7888.6949    8575.7923    7505.5442    6539.4809    268.61997    3.0821991   -678.51541   -3743.7294 
14095000    180.73229   -4990.2361   -4628.7492   -4990.2361            0     8182.248    17.924715    23.002957    19.005791    7836.4953    7880.5369    7603.5456    9062.6616    -192.1953   -1012.9299    668.39097   -3693.6226 
14096000    197.13443   -4986.9989   -4592.7057   -4986.9989            0    6396.6088    17.822417    23.120452      19.1325    7883.7824    7076.6842    5585.8451    6527.2972   -160.61615    393.86468   -744.52816   -3857.2435 
14097000    180.38035   -4971.7566   -4610.9737   -4971.7566            0    6579.2604    17.946491    22.868721    19.289927    7916.8425    5621.2663    6539.6245    7576.8904    2.1721962    712.74137   -494.82637   -3851.3387 
14098000    184.05074    -4973.599   -4605.4748    -4973.599            0    7165.1247    18.108176    22.473236    19.430916    7907.3978    7024.1369    8114.8928    6356.3444    432.69525    15.671502    583.22784   -3779.1834 
14099000    192.65433   -4994.5532   -4609.2208   -4994.5532            0    6423.5665    17.992224    22.692328    19.342784    7897.3772    5421.6425    7148.6946    6700.3624    925.68278    1310.8665   -147.37922   -3869.3855 
14100000    189.42546    -4984.639   -4605.7646    -4984.639            0    7628.4096    17.900792    23.000464    19.111923    7868.8854    7952.9925    7267.9005    7664.3358    588.98146    20.717611    284.91098   -3730.3312 
14101000    184.77113   -5005.9815   -4636.4164   -5005.9815            0    5989.3723    17.914986    23.146882    19.032433    7892.2945    5677.5789    5071.8295    7218.7086   -422.55747    37.848101    40.175843   -3947.0335 
14102000    195.44305   -4989.2817   -4598.3715   -4989.2817            0    8551.2578    17.837945    22.768608    19.305191    7840.7103    7743.7978    9604.2177    8305.7578    852.05781     405.1546    1461.5957   -3620.5461 
14103000    189.73852   -4972.1398   -4592.6393   -4972.1398            0    7458.3501    17.945567    22.650193    19.438339    7901.1124    7592.9789    8385.8011    6396.2704   -789.54418    1514.5761   -2.2307102   -3733.2165 
14104000    193.20794   -4984.6216   -4598.1818   -4984.6216            0    6767.7208    17.882728    22.879372    19.341058    7913.3086    6952.9354    6338.5878    7011.6393   -121.54583   -686.74521   -148.49456   -3817.1362 
14105000    204.39151   -4970.3567   -4561.5484   -4970.3567            0    9141.9166    17.900002    22.928052     19.12671    7849.8346     9738.531    8066.4874    9620.7314     940.1206    521.83854   -23.157003   -3514.9655 
14106000    180.86154   -4992.3243   -4630.5789   -4992.3243            0    7562.4735    17.834467    23.011856    19.175576     7869.737     9807.306    6672.5683    6207.5463    1358.4155     226.9204   -722.34267   -3762.6184 
14107000    190.76978   -4977.9629   -4596.3998   -4977.9629            0    8036.4746    18.021107    22.499859     19.36251    7850.9625    7870.7815    8114.5305    8124.1118    617.64597   -291.66045   -39.224955   -3676.2376 
14108000    194.42231   -4978.2877   -4589.4191   -4978.2877            0    7744.8846    17.999784     22.71451    19.274157      7880.36    7153.1581    7170.0299    8911.4658    3.6020055   -1402.3159     1338.608    -3699.323 
14109000    187.31893    -4986.098    -4611.437    -4986.098            0    7145.2799    17.930965    22.833165    19.249987    7881.3423    8460.3183    6488.1397    6487.3818    -1953.325    373.90096    1187.8694   -3790.1493 
14110000    199.12489     -4981.49   -4583.2156     -4981.49            0    9654.7854     17.73084    22.969993    19.233571    7833.3963    11953.318    9086.7137    7924.3243    615.05765    70.634187    1358.8655   -3480.2331 
14111000    208.07326   -4987.7996   -4571.6274   -4987.7996            0    8670.8818    17.805737    22.773013    19.312609    7831.0753    10044.774    8964.9059    7002.9659     488.0093    1192.3938    -2088.098   -3581.3416 
14112000        195.8   -4996.0035   -4604.3793   -4996.0035            0    7023.8019    18.073723    22.497891    19.407833    7891.6259    7975.0645     7129.673    5966.6681   -811.72617   -714.65246   -412.62669    -3796.001 
14113000    195.04609    -5004.529   -4614.4127    -5004.529            0    8435.4142    18.003386    22.679182    19.183926    7832.8366     7923.106    8157.9153    9225.2212    346.61524   -939.80801    1645.7509   -3650.8025 
14114000    200.16119   -4995.5824   -4595.2353   -4995.5824            0    7047.3301     18.01811    22.824666    19.169741    7883.6968    7747.0413    5881.3708    7513.5782     923.0466    591.23259    258.20667   -3784.9641 
14115000    183.17195   -4969.8537   -4603.4872   -4969.8537            0    6835.3656    18.033149     23.02836    19.039752    7906.7109    6823.2929    5844.2098     7838.594    1209.0242   -277.48848   -1088.1812   -3815.2925 
14116000    194.45902    -5011.878   -4622.9359    -5011.878            0    8797.9818    17.815619    22.763561    19.266581    7813.5025    9832.9371    9068.9333     7492.075    256.26041     -331.242     188.3048    -3620.389 
14117000    182.83408   -4989.8614   -4624.1707   -4989.8614            0    8232.6173    17.859495    22.661396    19.369388       7839.2    9572.3799    7899.0812    7226.3908    526.70517   -376.68487   -15.019866   -3682.9628 
14118000     187.8216   -4993.9746   -4618.3082   -4993.9746            0    7818.0567    18.036966    22.536955     19.28813    7840.5918    7211.8981    8523.3579    7718.9141   -337.25982    278.74414   -682.07735    -3724.337 
14119000      185.802    -4985.213    -4613.586    -4985.213            0    7473.2262    17.847688    22.975672    19.104518    7834.0489    9472.0264     6636.992    6310.6602   -2157.1094     15.15277   -694.65652   -3759.7582 
14120000    192.33667   -4995.7278   -4611.0307   -4995.7278            0    8507.8698    17.903348    22.884255     19.17512    7856.1388    9049.1386    7613.5244    8860.9464   -534.38771   -315.74307     665.5833   -3636.2523 
14121000    180.25031    -4978.524   -4618.0011    -4978.524            0    8987.6144    17.826741    22.804787    19.257023    7828.6544    10008.944    8689.6293    8264.2695    1329.1933    27.352836    1236.3414   -3591.8592 
14122000    202.25737   -4981.4785   -4576.9387   -4981.4785            0    8329.7474    17.979022    22.420245    19.446762    7838.8748    7987.3417    9288.2262    7713.6743    1302.6718   -310.06678   -467.58436   -3624.6658 
14123000    195.54717    -4995.639   -4604.5205    -4995.639            0    6136.8964    17.976429    22.574889    19.439524    7888.8676    5667.3495    6630.1145    6113.2252    1489.5118    -391.5372    132.22375   -3898.4642 
14124000    197.55049   -4990.5794    -4595.454   -4990.5794            0    7067.4896    17.932047    22.886488    19.212592    7884.8781    6148.3004    6138.8132    8915.3551    1341.2741    30.607065   -467.23201   -3782.7432 
14125000     199.0024   -4982.5929   -4584.5635   -4982.5929            0    6388.9047    17.921359    22.908664    19.221873    7891.6243    5965.7574    7001.4903    6199.4665    796.90207    62.475148    886.10145   -3849.2565 
14126000    193.36306   -5002.1992   -4615.4492   -5002.1992            0    7199.7105    17.929185    22.815134    19.227856    7865.2846    8421.3219     6879.157    6298.6525    1476.6428     786.1203    972.01758   -3789.5912 
14127000    195.55485   -5010.9378   -4619.8039   -5010.9378            0    7327.0588    18.087075    22.661818    19.177983    7860.7864    5232.1472    8166.5259    8582.5033   -417.55169    1014.8069   -1278.7481   -3779.8188 
14128000    198.01986    -5011.967   -4615.9029    -5011.967            0     7761.412    18.012103    22.593523    19.258119    7837.2237    6682.0586    8691.6135    7910.5639    235.72905   -336.02991    833.01582     -3728.79 
14129000    202.86494   -4977.9431   -4572.1881   -4977.9431            0    5744.9705    17.803084    23.047398    19.379378    7951.6447    6452.7485    6212.9683    4569.1947    225.83813    466.64397   -1111.5125   -3905.9635 
14130000    182.57454   -4997.4967    -4632.325   -4997.4967            0      7761.08    17.830735    23.010921    19.188305    7872.9929     7857.422    7504.3032    7921.5148   -472.81889    78.556917    241.17694   -3741.2015 
14131000    184.73882   -5001.2967   -4631.7963   -5001.2967            0    7078.3097    18.012522      22.7715    19.160263    7859.0062    5790.7231    7034.2119    8409.9941   -1918.8895   -655.63335   -1127.1256    -3820.512 
14132000     197.6381   -4979.7692   -4584.4686   -4979.7692            0    6998.6749    18.065683    22.632924    19.348349    7911.1382    5983.5739    7145.8754    7866.5754   -783.39118   -326.43636   -2053.3532   -3776.9906 
14133000    189.71608   -4964.6084   -4585.1528   -4964.6084            0    6911.1871    17.820505    22.843669    19.360923    7881.5553    7926.0763    6196.4093    6611.0756   -85.433429   -375.33947    2020.6588   -3790.7506 
14134000    184.27856   -4986.9039    -4618.324   -4986.9039            0     7766.903    17.748005    22.951113    19.263551    7846.7469    7496.9311    8056.1416    7747.6362    193.67777    775.51284    888.14562   -3729.5048 
14135000    190.74261   -4993.4625   -4611.9537   -4993.4625            0    8153.7645    17.943605    22.875466     19.12152    7848.7783    8669.0302    7115.8867    8676.3768    84.628116    696.30917   -411.21568   -3678.6218 
14136000    207.50682   -5003.0545   -4588.0152   -5003.0545            0    7684.5325    18.049538    22.655494    19.263272      7877.16    8558.0097    6498.5637    7997.0241    530.66718   -1030.0167   -1133.6479   -3705.2138 
14137000    184.96832   -4982.9336   -4612.9741   -4982.9336            0    7477.2593    18.043448    22.745463    19.221255    7888.5294     7729.862    6414.8558    8287.0603    2047.4915    535.74738    3418.7117   -3752.7445 
14138000    197.71944   -5000.8147   -4605.3514   -5000.8147            0    8110.7051    17.872408    22.832954    19.232771     7848.507      7325.23    8559.5578    8447.3276   -698.90618    513.65378     187.5737   -3676.9805 
14139000    180.02436    -4982.452    -4622.381    -4982.452            0    9408.6347    17.950575    22.734415    19.167482    7822.1696       9942.6    9214.8707    9068.4334   -888.47634   -476.58934   -600.05169   -3549.0598 
14140000    192.71406   -4974.0367   -4588.5848   -4974.0367            0    8155.2265    18.005862    22.487365     19.42166    7863.9153    8145.1832    9488.3971    6832.0993    361.30171    972.51413   -730.77355   -3653.2852 
14141000    187.02989   -4985.2177   -4611.1348   -4985.2177            0    7421.3145    17.987052    22.801773     19.26604      7901.71    7433.0075    6688.6754    8142.2607     414.9123   -356.54038   -792.63496   -3755.9149 
14142000    192.39547   -4994.1186   -4609.3039   -4994.1186            0    7105.1194     17.94982    22.914617    19.181941    7889.7866    7651.0638    6821.8307    6842.4638    -377.7569    308.75006   -650.61995   -3791.7572 
14143000    183.95261     -4985.36    -4617.432     -4985.36            0    7387.3306    18.028748    22.834647    19.129581    7875.2679     6458.938    6831.6363    8871.4174    630.21468    480.65988    673.49874   -3768.9772 
14144000    198.68779   -5002.6492   -4605.2491   -5002.6492            0    7128.0422    17.870367    22.733609    19.411065    7885.8991    7823.4932    7149.6743    6410.9593   -407.46374    538.91111    847.11701    -3785.469 
14145000    192.02637   -4985.9623   -4601.8858   -4985.9623            0    8344.2753    17.706423    22.818343    19.404382    7839.9765    8845.1837    7829.4341    8358.2081   -243.56089   -255.47322    584.54219   -3647.8179 
14146000    191.41584   -4995.6007   -4612.7453   -4995.6007            0     7916.649     18.01562    22.736289    19.166929    7850.9341     7520.342    8146.9556    8082.6493    337.68598   -758.25518    585.72062   -3706.3063 
14147000    186.47071   -5002.9329   -4629.9684   -5002.9329            0    7342.8709    18.066597    22.731027    19.141426    7860.8534    6452.9564    7122.1941    8453.4623    877.16745   -129.04431     374.4245   -3788.1635 
14148000    188.67217   -4989.2331   -4611.8655   -4989.2331            0    8380.9037    17.948968    22.751946    19.232281    7853.9624    8691.4433    8293.3227    8157.9453    142.27067    317.45516   -731.73363   -3651.9001 
14149000    193.13649   -4969.7997   -4583.5029   -4969.7997            0    5836.4288    17.808508    22.929862     19.35294    7902.7081    4705.6233    6884.8885    5918.7748   -781.79385    187.79226   -207.58146   -3910.8376 
14150000    186.90649   -4984.6937   -4610.8576   -4984.6937            0    8186.0906    17.782944     22.75085    19.394641    7846.6276    8181.7468     8768.143    7608.3819   -915.05888    1528.1662    861.30824   -3674.0822 
14151000    198.01315   -4964.2609   -4568.2102   -4964.2609            0    8078.6613    17.951928    22.659237    19.360148    7875.2627    7438.6355    9044.8069    7752.5414   -780.98657    620.38253   -547.26502   -3640.3547 
14152000    192.63231   -4978.0758   -4592.7874   -4978.0758            0    10809.896    18.070393    22.541913    19.104134    7781.9016    8597.0773    12697.891    11134.721   -2.1982024    748.44119   -671.49987   -3365.9608 
14153000    192.81432   -4974.8531   -4589.2007   -4974.8531            0    8813.4005    17.925571    22.767183    19.229868    7847.9931     9813.821     8722.017    7904.3635    317.60475   -586.17239    331.07047   -3580.4635 
14154000    192.82126   -4996.3859   -4610.7196   -4996.3859            0    7128.8668    17.798324    22.769946    19.387109    7856.9533    8271.4551    7927.5411    5187.6041    193.60682   -88.232177   -386.10966   -3793.8541 
14155000    181.92278   -4977.6018   -4613.7338   -4977.6018            0    6579.2977    17.816165    22.957063     19.33453    7907.9549    6657.5465    6577.7577    6502.5887    309.29392    36.919872    520.41422   -3854.9473 
14156000    188.24394   -5005.8332    -4629.322   -5005.8332            0    7021.2924    17.950977    22.875179    19.123496    7852.7162    6608.1435    6546.1902    7909.5435    1016.4087    -714.2708    982.50428   -3825.2169 
14157000    197.81383   -5004.0723   -4608.4202   -5004.0723            0     8712.331    17.964294    22.736384     19.21254    7847.2291     8163.605    9543.7049    8429.6831   -1015.1424    936.30751    588.16643    -3611.348 
14158000    183.80808   -4996.6202   -4628.9813   -4996.6202            0    6578.8271    17.978406    22.829443    19.207083    7883.2978    6211.9285    6142.5376    7382.0152   -1890.0659    115.57516   -61.593859   -3872.6148 
14159000    186.11129    -4996.933   -4624.6874    -4996.933            0    7075.5306    17.930039    22.903303    19.168355    7871.6214    5638.3605    7186.4156    8401.8157   -451.91993    307.49633    206.83957   -3812.4199 
14160000    192.18516   -4979.8513   -4595.4572   -4979.8513            0    7586.6156    17.843531    22.821936    19.294718     7857.271    8407.5909     7187.356       7164.9    1023.2609    447.36826    669.11708   -3726.1051 
14161000    180.29291   -4978.0741    -4617.466   -4978.0741            0    7677.2931    17.900554    22.700148    19.307186    7845.3827    6968.2365    8432.5086    7631.1341    761.56249    173.91227   -1125.0448   -3739.0542 
14162000    192.88889   -4989.8581   -4604.0565   -4989.8581            0    6580.6833    17.925073    22.724126    19.387077    7896.9693    7516.0243     6203.669    6022.3567     297.1626    98.673661   -1157.9906   -3846.1645 
14163000    189.88085   -4995.1255   -4615.3403   -4995.1255            0    6129.7723    17.947254    22.964923    19.171096    7901.5068    6493.8567    6385.7803      5509.68   -560.26871    10.731935    1033.4484   -3908.9738 
14164000     186.8296   -4991.6679   -4617.9856   -4991.6679            0    6799.8164    18.003536    22.898951     19.17057    7903.2993    6538.5911    6811.4225    7049.4355   -220.48106    -240.3675   -421.31254   -3834.2285 
14165000    188.69412   -4990.4923   -4613.0807   -4990.4923            0    7101.5487    18.069091    22.884714    19.058828    7880.9397    4741.3557    7363.4342     9199.856   -599.00372    3.9251608    388.81317   -3796.8612 
14166000    195.12565   -4963.2802   -4573.0048   -4963.2802            0    8367.6324    17.883807    22.856042    19.240547     7864.632    10125.427    7489.0274    7488.4428    2508.3598    1585.6801    1008.7829   -3613.2575 
14167000    186.43787   -4989.5224   -4616.6236   -4989.5224            0    6546.4208    17.999999     22.80674    19.262888     7907.826    6532.4875    6926.4342    6180.3406    1013.2875    885.49294     1871.652   -3861.6411 
14168000    187.32132   -4964.7797   -4590.1139   -4964.7797            0    7863.2161    18.045425    22.762122    19.208361    7889.8756    7249.7239    8443.3337    7896.5907    1098.0185    702.67678    -1113.408   -3685.3271 
14169000    201.43664   -4979.1811   -4576.2829   -4979.1811            0    7076.2511    17.941397    22.794267    19.326966    7903.9751    9222.9368    6519.4329    5486.3837   -1808.5362   -501.19049   -567.38648   -3760.5938 
14170000    193.52855   -4986.8614   -4599.7804   -4986.8614            0    7521.3091    17.952262    22.762381    19.230403    7858.2391    7599.0681    7363.4076    7601.4514    -1810.772   -323.79662   -518.56624   -3737.8056 
14171000    193.53629    -4973.715   -4586.6185    -4973.715            0    8912.1455    17.799905    22.829099    19.233775    7815.7555    10243.815    8773.1172    7719.5041    643.82579   -351.01432    -1348.697   -3570.7696 
14172000    186.84657   -4987.6521   -4613.9358   -4987.6521            0    9618.9538    17.802537    22.804977    19.225331    7805.2239    10681.871    8823.1868    9351.8038    888.30442   -535.32385    -793.4889   -3518.9989 
14173000    187.22991   -5003.0509   -4628.5679   -5003.0509            0    6857.4224    17.889656    22.982684    19.189592    7889.8454    8213.3335    6270.0035    6088.9301   -478.58164   -235.51298   -598.44296   -3839.5166 
14174000    194.92591   -4999.0305   -4609.1546   -4999.0305            0    9249.5638    17.946631    22.733261     19.21198    7838.2083    9530.7439    9801.9105     8416.037    639.40354    855.09526    250.47919   -3551.8164 
14175000    194.55741   -5003.4942   -4614.3553   -5003.4942            0     6293.188    18.122521    22.573398    19.261807    7879.7524    5136.8346    6341.6169    7401.1125   -899.45091   -563.88834   -502.23711   -3891.1541 
14176000    192.99261   -4992.9342   -4606.9251   -4992.9342            0    8683.1739    17.841536    22.811189    19.287011     7849.556    9146.2789    8444.9778    8458.2649   -876.03464   -96.903552   -683.90789   -3612.8952 
14177000    191.98815   -4970.4242   -4586.4241   -4970.4242            0    7278.7495    17.787291    22.960417    19.315118    7888.3643    6585.3359    6514.5248    8736.3878   -388.08407    416.69854   -691.45108   -3749.0499 
14178000    196.15346   -4988.7303   -4596.3992   -4988.7303            0    6675.5736    17.877395    22.843595    19.350187    7902.3064    7132.5538    7073.1193    5821.0476   -518.65208    359.01146     698.4822   -3827.0592 
14179000    193.38989   -4972.3112   -4585.5075   -4972.3112            0    9744.2158    18.086444    22.661978    19.149474    7848.8832    9748.3742    9463.5198    10020.753   -737.85668    859.28198   -2018.1097   -3470.1075 
14180000     184.5898   -4973.0677   -4603.8653   -4973.0677            0    5572.6297    18.091534    22.684159    19.326847    7931.5687    4508.6894    5825.7921    6383.4075    243.33598   -754.72761   -1047.1561   -3959.2581 
14181000    190.82392   -4992.2469   -4610.5755   -4992.2469            0    8166.9087    17.878072    22.690528    19.353467    7850.9836    9094.8304     8109.971    7295.9246   -470.66228   -268.52839    1582.8532   -3675.4764 
14182000    186.12097   -4969.4276   -4597.1626   -4969.4276            0    9363.1095    17.845385    22.921856    19.135002    7827.1602    9847.7037    9435.8815    8805.7434   -570.42631   -586.16481    -115.3538   -3528.3534 
14183000    197.56964   -5017.5378   -4622.3741   -5017.5378            0    8388.2291    17.897063    22.996286    19.077236    7851.5416     9162.544    7153.1512    8848.9922    -929.4576   -1052.0527    293.12233   -3661.8659 
14184000    188.46672   -5001.1107    -4624.154   -5001.1107            0    7565.7133    17.864152    22.648151    19.338323    7824.0921    8146.4988    8656.9009    5893.7403    216.76367    635.77516    1511.0619    -3760.858 
14185000    199.01496    -4979.543   -4581.4885    -4979.543            0    8767.0725     17.84726    22.769915    19.330272    7855.4472    8219.7835    9244.7304    8836.7036    20.189164    219.62358   -404.56547   -3577.1007 
14186000    199.49049   -4994.9522   -4595.9466   -4994.9522            0    6305.1764    18.014584    22.748414    19.311818    7914.0455    6561.5527    6213.4812    6140.4954    -29.19439    181.60101    1113.7199   -3868.2143 
14187000    187.65304   -4984.2902   -4608.9609   -4984.2902            0    7927.2222    17.830679    22.871616    19.274505      7860.46    8206.4962    8297.1055    7278.0649    653.70881   -321.15293    1661.2758   -3700.2099 
14188000    194.17114    -4970.764   -4582.3978    -4970.764            0    8756.8367    17.791154    23.003935    19.133779    7830.8156    7550.9861    9495.4628    9224.0613   -735.89389   -405.34933    415.84121   -3582.3284 
14189000    186.67545   -4998.8408   -4625.4668   -4998.8408            0    8076.1898    17.766244    22.916375    19.208667    7820.5768    8086.8797     7509.516    8632.1737   -1068.0549   -1087.9854    -1070.824   -3704.3362 
14190000    202.53612   -4980.6407   -4575.5434   -4980.6407            0    6833.5687    17.968135    22.789291     19.29806    7902.1898    7664.3358    6017.1762     6819.194   -89.788686   -416.64263    173.86493   -3788.0065 
14191000    191.76801   -4975.4077   -4591.8479   -4975.4077            0    7641.6018    17.976275    22.911133    19.106933    7869.3206    7660.8539     7311.312    7952.6394    -341.6882   -610.88097   -606.18828   -3714.8521 
14192000    190.59513    -4979.791   -4598.5772    -4979.791            0    7831.0505    17.915894     22.76963    19.293032    7870.3663    6535.7812    8134.3795    8822.9908   -607.14872     73.87584   -510.94294   -3699.7197 
14193000     194.1842   -5001.1706   -4612.7783   -5001.1706            0    6629.6092     17.80994    23.145927    19.147526    7893.1378    8074.0569    5259.8397    6554.9311     -328.805   -802.25449   -1169.1233   -3849.6219 
14194000    189.97839   -4984.6779   -4604.6977   -4984.6779            0    6487.7068    17.928361    23.074632    19.151602    7922.8325    7367.4288    6311.3343    5784.3572    437.18974    173.30045    -1435.191   -3855.0666 
14195000    197.12989   -4993.5701    -4599.286   -4993.5701            0    7255.3795    18.060289    22.633457    19.290954    7885.5013    7052.7464    7955.5361    6757.8561   -2000.5274    1019.1969   -521.70521   -3764.9032 
14196000    191.20961   -4996.7595   -4614.3166   -4996.7595            0    7352.9544    18.131099    22.433257    19.373558    7879.9933     6679.735    7703.2078    7675.9204   -126.48111   -833.67135     34.14942   -3769.3032 
14197000    200.33564   -5000.4441   -4599.7481   -5000.4441            0    8077.5242    18.020073    22.857931    19.068314    7854.2687    7937.8574     8119.482    8175.2333    684.85196    721.90077    686.12236   -3674.4964 
14198000    186.66704    -4978.698   -4605.3408    -4978.698            0    8505.5977    17.953527     22.90213    19.190332    7890.5656    8247.2354    8643.6136    8625.9441    231.87149     416.2623    292.34751   -3626.5523 
14199000    196.14738   -4975.9211   -4583.6021   -4975.9211            0     8715.846    17.801126    22.907323    19.252842    7850.8499    9264.7372    8686.3185    8196.4822    1144.5144    484.82933    787.08728   -3585.6674 
14200000    185.35309   -4983.6001    -4612.871   -4983.6001            0     7288.605    17.923761    22.880674    19.173244    7863.0956    7362.3812    7299.2272    7204.2065    2817.1722    888.33216   -844.37378   -3777.0489 
14201000    196.94381   -4998.8153   -4604.9034   -4998.8153            0    7238.0482    18.116133    22.867138    19.105016    7914.5227    7087.1737    7317.1574    7309.8134     821.6692    847.74764    1494.6841   -3769.4503 
14202000    185.21067   -4965.5005   -4595.0563   -4965.5005            0    8277.6471     17.92649    22.800824    19.178785    7839.1125    5625.3138    9534.3694    9673.2581   -371.53764    1087.2393   -994.99743   -3648.7109 
14203000    190.54773   -5011.0715   -4629.9524   -5011.0715            0    8008.9113    17.909367    22.735711    19.274846    7848.3743    7186.6396    8838.1524    8001.9417   -877.02469    524.70837    133.60967   -3713.2485 
14204000    181.35061   -4988.3793   -4625.6556   -4988.3793            0    7685.7534    18.039047    22.662812    19.231991    7862.3364    7618.2298    7921.4077    7517.6226     235.2353     -880.546    382.86641   -3744.3756 
14205000     186.4181   -4995.7915   -4622.9322   -4995.7915            0    8443.9035    17.879054    22.913341    19.139284    7840.7684     7614.305    8415.1019    9302.3035    998.93201   -573.87724   -1093.8269   -3657.3756 
14206000    184.01305   -4984.2576   -4616.2087   -4984.2576            0    7475.3643    17.919341     22.88741     19.21315    7879.8375    6390.7611    8750.6564    7284.6752    229.60563     529.2718    161.20264   -3757.1448 
14207000    183.82183   -4963.9926   -4596.3262   -4963.9926            0    9789.0607    17.873479    22.832583    19.145783    7813.3501    9602.3827     9468.962    10295.837   -1586.9611    -695.9965   -641.51362   -3480.8657 
14208000    188.92236   -4961.6276   -4583.7596   -4961.6276            0    7675.5505    17.915326    22.640918    19.320339    7836.7046    8698.9517    7251.4392    7076.2608   -537.05418   -1291.7406    -271.6266   -3706.5186 
14209000    194.39546   -4995.2138   -4606.3988   -4995.2138            0    5524.8843    18.004226    22.805174     19.29437    7922.0661    6643.0935    5177.7634     4753.796    50.655638   -844.73251    194.08038   -3968.0802 
14210000    191.88221   -4967.4546   -4583.6664   -4967.4546            0    9117.2942    17.890659    22.955484    19.088542    7839.4493    7607.8576    10003.218    9740.8074    1081.6331    887.08687   -111.37506   -3541.2832 
14211000    194.98822   -4985.1498   -4595.1492   -4985.1498            0    8497.4167    17.818364    22.911841    19.260292    7863.0434    8559.6928    8504.2421    8428.3152   -456.65937    1369.3929   -1298.1327   -3620.7129 
14212000    183.58027   -4980.3052    -4613.122   -4980.3052            0    7213.6998    17.915161     22.80343    19.331584    7897.4764    7198.9134    6896.7057    7545.4802   -980.77796    692.44956    -113.7696   -3782.2726 
14213000    181.97636   -4972.5627   -4608.5875   -4972.5627            0     6277.622    18.047103    22.690347    19.331424    7916.1219    6960.3326    6264.4437    5608.0895   -279.03556   -299.64129    268.46039   -3883.8454 
14214000    183.15578   -4973.4509   -4607.1167   -4973.4509            0    7592.5165    17.897473    22.823583    19.275828    7873.8762    7753.3022    8194.5671    6829.6803    474.03319    513.62403   -563.41932   -3735.2497 
14215000    185.84908   -5010.8476   -4639.1265   -5010.8476            0    9939.9948    17.743357    22.873031      19.2688    7820.1336     11384.45    9412.1891    9023.3455   -385.44882    1618.2357   -462.52464   -3505.4837 
14216000    196.72738   -5007.4403   -4613.9613   -5007.4403            0    6414.8176    17.987965    22.879635    19.192318    7898.7535    6883.8021    6124.0005    6236.6501    942.75716     687.2519    1144.9426    -3875.005 
14217000    185.72769   -4999.8892   -4628.4109   -4999.8892            0    8551.9411    17.961795    22.811319    19.156895    7849.1978    8490.2018    8550.7106    8614.9108   -1537.5138    825.14486    94.232439   -3649.4488 
14218000    197.98095   -4990.6759   -4594.6895   -4990.6759            0    6084.3659    17.975559    22.998137    19.137709    7911.6125    5981.9356    6233.0144    6038.1476    514.87321    1273.3753   -411.31611   -3892.6586 
14219000    188.63542   -4987.8939   -4610.5998   -4987.8939            0    7534.8144    17.923648    22.927304    19.149097    7869.1474    8092.8119    7173.2766    7338.3546   -1631.2635    300.22682   -1544.8868   -3745.8785 
14220000    183.17346   -4998.4825   -4632.1129   -4998.4825            0    6733.3783    17.956125    22.756352    19.296075    7884.6832    7338.1644    6344.3905    6517.5801    109.85673    121.00053    -464.2407   -3857.8417 
14221000    186.67653   -4990.7228   -4617.3467   -4990.7228            0    7625.9577      17.9653    22.704297     19.31524    7878.4837    9189.3415    6566.9766    7121.5549   -318.30807   -156.57494   -989.66938   -3741.1272 
14222000    183.52927   -5003.4179   -4636.3367   -5003.4179            0    6750.8453    18.041113    22.730118     19.25826    7897.3622    5919.4232     6552.506    7780.6068    11.547659    109.51152   -391.02597   -3858.8085 
14223000    185.27208   -5001.9869   -4631.4198   -5001.9869            0     7558.236    17.903306    22.811716    19.271346    7870.5165    8050.5085    7690.8512    6933.3484    236.35136    1063.2942   -895.13611   -3763.8597 
14224000    199.58702   -5004.7909   -4605.5922   -5004.7909            0     6830.233    18.008206      22.8249    19.178574     7883.075    5676.9266    6913.2465    7900.5259    755.73734    793.35279    769.13415   -3820.3438 
14225000     187.6467   -4989.8321   -4614.5155   -4989.8321            0    8435.2594    18.096958    22.601363    19.133927    7826.0804    6914.4759    10095.981     8295.321   -397.94433    1420.3136   -1337.7588   -3651.7542 
14226000    178.77847   -4966.4409   -4608.8619   -4966.4409            0    8159.6668    17.965577    22.804132    19.170837    7854.0884    7586.1414    8320.1789    8572.6799   -27.601586    692.62406   -1560.6238   -3674.2224 
14227000    202.32231   -4968.0964   -4563.4268   -4968.0964            0    7008.6632    17.919565    22.966466    19.195534    7899.9047    5668.7406    7371.3467    7985.9023    883.36663    227.43446   -70.444289   -3755.9447 
14228000    192.28565   -4972.5871    -4587.992   -4972.5871            0    6955.8018    17.871383    23.022083    19.175262     7889.402    7051.6803    6553.1603    7262.5649    238.44907   -564.75417    65.702644   -3787.6655 
14229000    195.64995     -4979.81   -4588.4859     -4979.81            0    8472.2283     17.89794    22.654546    19.395676    7864.3592    9186.8833    8792.4249    7437.3769   -588.00216    789.83708    45.855416   -3616.7754 
14230000    202.55125   -4982.5965   -4577.4689   -4982.5965            0    6275.3797    18.074106    22.602573    19.425494    7935.7282    5042.2099    6843.6715    6940.2576   -265.09842   -1070.6046    9.8879654   -3851.1913 
14231000    204.53681   -4990.4624   -4581.3635   -4990.4624            0    7217.9834    17.669229    23.124928    19.190093     7841.065    8797.5292    5883.4136    6973.0074   -237.60893   -981.55567    846.71236    -3755.959 
14232000    193.99256   -4989.3515   -4601.3424   -4989.3515            0    7757.8057    17.762171    23.036281    19.190476    7852.2507    9169.6637     6652.112    7451.6413    -269.9012   -1104.4811   -536.96726   -3712.9416 
14233000    186.48116   -4986.5722   -4613.5869   -4986.5722            0    8160.3097    17.801915    22.837686    19.295152    7844.5318    7773.3924    9078.0761    7629.4606    1066.5314    368.72116    852.28569   -3680.0111 
14234000    196.48065   -4982.1554   -4589.1698   -4982.1554            0    6429.2895    18.018901    22.635761    19.405101    7914.7883    5685.7411    7999.8712    5602.2562   -504.44888    1131.6024   -1806.7057   -3847.0429 
14235000    189.86894   -5002.6123    -4622.851   -5002.6123            0    8235.4575    17.960932    22.575553    19.360365    7850.2017    10211.231    8272.5414    6222.5998    245.90594    832.82715    562.73434    -3679.997 
14236000    189.85193   -4995.5151   -4615.7878   -4995.5151            0    6450.5672    17.768416    23.154805    19.146968    7877.5265     6950.324    5173.4505     7227.927    2.2663173   -582.04959    197.81862   -3874.7102 
14237000    190.67907   -4998.4272   -4617.0455   -4998.4272            0    6644.9847    17.941882    22.947701    19.086636    7858.4442    6670.0695    6335.9778    6928.9068   -206.01172   -162.50779   -799.20303   -3855.4815 
14238000    193.69962   -4980.2963   -4592.8731   -4980.2963            0    8145.5552    17.988773    22.575278    19.351115    7858.5174     8554.507    7422.3225     8459.836    300.58519   -1058.3487    441.01207    -3659.324 
14239000    191.70945   -4985.4781   -4602.0355   -4985.4781            0    7278.3984    18.082036    22.359035    19.492167    7880.6226     6763.974    8267.8955    6803.3258    154.19633   -292.75793   -463.58834   -3765.5234 
14240000    194.26149   -4976.6611   -4588.1142   -4976.6611            0    8023.6347    17.979365    22.841829    19.146871    7863.2674    7290.7983    7652.3228    9127.7829      1099.36    1107.8422    824.05273   -3667.9823 
14241000     183.0603   -4973.4185   -4607.2753   -4973.4185            0    8254.6642    17.835225    23.115844    19.024145     7843.204    8433.2036    6727.7836    9603.0053   -721.88366   -119.30124   -302.36806   -3663.0648 
14242000    196.97082   -5008.7417   -4614.7757   -5008.7417            0    8080.7354    17.885268    22.788452    19.269231    7853.7062    7881.7973    7798.9972    8561.4118   -117.69936    1.6079244   -310.01129   -3689.2224 
14243000    191.02519    -4964.781   -4582.7071    -4964.781            0    6779.1985    18.011454    22.517002    19.455398    7890.4077    6348.2832    7796.9884    6192.3238   -923.08209   -1309.1428   -584.12135   -3802.6009 
14244000    186.41615   -4961.1542   -4588.2988   -4961.1542            0    7406.0035    18.089238    22.664898    19.202533    7872.8606    7503.5247    7254.3184    7460.1675   -267.93223   -1169.6128    21.591411   -3737.9593 
14245000    189.92313    -4959.618   -4579.7483    -4959.618            0    7405.8107    17.842423    23.098398    19.121405    7880.5312     7932.284    7177.1132     7108.035   -89.318613   -411.06042    2161.4078   -3728.6025 
14246000    185.14816   -4977.6608   -4607.3417   -4977.6608            0    5901.4029    17.875973    22.986739    19.202095    7890.3391     5684.737    5598.4641    6421.0077   -195.56786   -766.16779   -135.69648   -3928.2524 
14247000    192.05702     -4986.76   -4602.6222     -4986.76            0    8350.9913    17.929781    22.604644     19.30985     7826.211     8168.089    8544.1712    8340.7137    1023.4582    250.81986   -390.92518    -3649.463 
14248000    192.43938   -4971.6777   -4586.7752   -4971.6777            0    7467.7539    18.124829    22.689188    19.230517    7908.3129     6028.687    7661.8548      8712.72    926.69487   -99.980682    396.67615   -3725.4845 
14249000    193.58837   -5008.6005   -4621.3999   -5008.6005            0    6532.4551    18.042579    22.662483    19.368273    7919.4865    6326.8067    6582.3755    6688.1833   -872.17585   -7.6819968   -723.05957   -3866.9171 
14250000     209.1535   -4992.8322   -4574.4994   -4992.8322            0    8652.7035    17.857988    22.684251    19.388925    7854.3582    9536.8412    8320.7146    8100.5549    304.82786   -407.98399    1576.6518   -3583.3516 
Loop time of 487.284 on 64 procs for 250000 steps with 1008 atoms

Performance: 88.655 ns/day, 0.271 hours/ns, 513.048 timesteps/s
195.9% CPU use with 32 MPI tasks x 2 OpenMP threads

MPI task timing breakdown:
Section |  min time  |  avg time  |  max time  |%varavg| %total
---------------------------------------------------------------
Pair    | 37.474     | 40.762     | 45.005     |  30.0 |  8.37
Bond    | 0.96732    | 1.2721     | 1.6283     |  12.9 |  0.26
Kspace  | 235.85     | 246.28     | 256.25     |  35.0 | 50.54
Neigh   | 2.1076     | 2.4277     | 2.7797     |  15.4 |  0.50
Comm    | 78.691     | 87.412     | 96.608     |  53.5 | 17.94
Output  | 0.46379    | 0.46542    | 0.46749    |   0.1 |  0.10
Modify  | 94.057     | 96.057     | 97.652     |  10.6 | 19.71
Other   |            | 12.61      |            |       |  2.59

Nlocal:        31.5000 ave          37 max          27 min
Histogram: 2 2 3 3 5 5 6 4 1 1
Nghost:        2927.78 ave        2949 max        2905 min
Histogram: 3 1 4 2 4 7 1 4 3 3
Neighs:        10636.0 ave       12445 max        9007 min
Histogram: 2 3 2 3 5 6 6 3 1 1

Total # of neighbors = 340351
Ave neighs/atom = 337.64980
Ave special neighs/atom = 2.0000000
Neighbor list builds = 5412
Dangerous builds = 0

unfix		3
unfix		2
unfix		1

write_data	data.final.${pid}
write_data	data.final.0
System init for write_data ...
PPPM initialization ...
  extracting TIP4P info from pair style
  using 12-bit tables for long-range coulomb (../kspace.cpp:340)
  G vector (1/distance) = 0.37983133
  grid = 24 27 36
  stencil order = 5
  estimated absolute RMS force accuracy = 0.0023860765
  estimated relative force accuracy = 7.1855985e-06
  using double precision FFTW3
  3d grid and FFT values/proc = 5670 1296
Last active /omp style is kspace_style pppm/tip4p/omp
WARNING: Not all mixed pair coeffs generated from mixing. Use write_data with 'pair ij' option to store all pair coeffs. (../write_data.cpp:312)

write_restart   restart.lmp.${pid}
write_restart   restart.lmp.0
System init for write_restart ...
PPPM initialization ...
  extracting TIP4P info from pair style
  using 12-bit tables for long-range coulomb (../kspace.cpp:340)
  G vector (1/distance) = 0.37983133
  grid = 24 27 36
  stencil order = 5
  estimated absolute RMS force accuracy = 0.0023860765
  estimated relative force accuracy = 7.1855985e-06
  using double precision FFTW3
  3d grid and FFT values/proc = 5670 1296
Last active /omp style is kspace_style pppm/tip4p/omp
Total wall time: 0:08:07
