LAMMPS (30 Jul 2021)
Processor partition = 0
  using 2 OpenMP thread(s) per MPI task
using multi-threaded neighbor list subroutines
variable        pid world 0 1
variable        phase world IceVI Liquid

shell cd ${phase}
shell cd IceVI
include Restart.lmp
echo both
log log.lammps
#include		in.partitions
include		in.temp
variable        temperature equal 279.63
variable	tempDamp equal 100.0
include		in.pressure
variable        pressure equal 10750.0
variable        pressureDamp equal 1000.0 # This is 1 ps
include		in.seed
variable        seed equal 745823

units		real
atom_style	full
read_restart	restart.lmp.${pid}
read_restart	restart.lmp.0
Reading restart file ...
  restart file = 30 Jul 2021, LAMMPS = 30 Jul 2021
  restoring atom style full from restart
  orthogonal box = (-0.11471250 -0.022566120 -0.11803319) to (24.844714 24.752567 22.928033)
  4 by 4 by 2 MPI processor grid
  restoring pair style lj/cut/tip4p/long/omp from restart
  restoring bond style harmonic/omp from restart
  restoring angle style harmonic/omp from restart
  1920 atoms
  1280 bonds
  640 angles
Finding 1-2 1-3 1-4 neighbors ...
  special bond factors lj:    0        0        0       
  special bond factors coul:  0        0        0       
     2 = max # of 1-2 neighbors
     1 = max # of 1-3 neighbors
     1 = max # of 1-4 neighbors
     2 = max # of special neighbors
  special bonds CPU = 0.002 seconds
  read_restart CPU = 0.009 seconds
include 	in.setup
variable	out_freq equal 1000
variable	out_freq2 equal 10000
variable	out_freq3 equal 1000

timestep	2.0

neigh_modify    delay 7 every 1

include		in.tip4p
# This is TIP4P/Ice

# create groups ###
group ox type 2
640 atoms in group ox
group hy type 1
1280 atoms in group hy

# set charges - beside manually ###
set group ox charge -1.1794
Setting atom values ...
  640 settings made for charge
set group hy charge 0.5897
Setting atom values ...
  1280 settings made for charge

# ### TIP3P Potential Parameters ###
pair_style lj/cut/tip4p/long/omp 2 1 1 1 0.1577 8.5
pair_coeff 1 1*2 0.000 0.000
pair_coeff 2 2 0.21084 3.1668
bond_style  harmonic
bond_coeff  1 450 0.9572
angle_style harmonic
angle_coeff 1 55 104.52
kspace_style pppm/tip4p/omp 1.0e-5
pair_modify tail yes

thermo          ${out_freq}
thermo          1000
thermo_style    custom step temp pe etotal epair emol press lx ly lz vol pxx pyy pzz pxy pxz pyz enthalpy

restart 	${out_freq3} restart.lmp.${pid} restart2.lmp.${pid}
restart 	1000 restart.lmp.${pid} restart2.lmp.${pid}
restart 	1000 restart.lmp.0 restart2.lmp.${pid}
restart 	1000 restart.lmp.0 restart2.lmp.0


include         in.dump
dump            myDump all atom ${out_freq2} dump.water.${pid}
dump            myDump all atom 10000 dump.water.${pid}
dump            myDump all atom 10000 dump.water.0
dump            myDump2 all dcd ${out_freq2} dump.dcd
dump            myDump2 all dcd 10000 dump.dcd
dump_modify     myDump append yes
dump_modify     myDump2 append yes


variable natoms 	equal  "count(all)"                        # NUMBER ATOMS
variable H      	equal  "enthalpy/v_natoms"                 # ENTHALPY-per-atom
variable Vol      	equal  "vol/v_natoms"                 # volume-per-atom
fix AVG all 		ave/time ${out_freq} 1 ${out_freq} v_Vol v_H file vol_enthalpy.dat
fix AVG all 		ave/time 1000 1 ${out_freq} v_Vol v_H file vol_enthalpy.dat
fix AVG all 		ave/time 1000 1 1000 v_Vol v_H file vol_enthalpy.dat




fix 		1 all shake 1e-6 200 0 b 1 a 1
Finding SHAKE clusters ...
       0 = # of size 2 clusters
       0 = # of size 3 clusters
       0 = # of size 4 clusters
     640 = # of frozen angles
  find clusters CPU = 0.001 seconds
fix             2 all nph aniso ${pressure} ${pressure} ${pressureDamp}
fix             2 all nph aniso 10750 ${pressure} ${pressureDamp}
fix             2 all nph aniso 10750 10750 ${pressureDamp}
fix             2 all nph aniso 10750 10750 1000
fix             3 all temp/csvr ${temperature} ${temperature} ${tempDamp} ${seed}
fix             3 all temp/csvr 279.63 ${temperature} ${tempDamp} ${seed}
fix             3 all temp/csvr 279.63 279.63 ${tempDamp} ${seed}
fix             3 all temp/csvr 279.63 279.63 100 ${seed}
fix             3 all temp/csvr 279.63 279.63 100 745823


run             250000
PPPM initialization ...
  extracting TIP4P info from pair style
  using 12-bit tables for long-range coulomb (../kspace.cpp:340)
  G vector (1/distance) = 0.37456824
  grid = 30 30 30
  stencil order = 5
  estimated absolute RMS force accuracy = 0.0032553605
  estimated relative force accuracy = 9.8034213e-06
  using double precision FFTW3
  3d grid and FFT values/proc = 5400 960
Last active /omp style is kspace_style pppm/tip4p/omp
Neighbor list info ...
  update every 1 steps, delay 7 steps, check yes
  max neighbors/atom: 2000, page size: 100000
  master list distance cutoff = 10.8154
  ghost atom cutoff = 10.8154
  binsize = 5.4077, bins = 5 5 5
  1 neighbor lists, perpetual/occasional/extra = 1 0 0
  (1) pair lj/cut/tip4p/long/omp, perpetual
      attributes: half, newton on, omp
      pair build: half/bin/newton/omp
      stencil: half/bin/3d
      bin: standard
Setting up Verlet run ...
  Unit style    : real
  Current step  : 3250000
  Time step     : 2
Per MPI rank memory allocation (min/avg/max) = 10.54 | 10.55 | 10.56 Mbytes
Step Temp PotEng TotEng E_pair E_mol Press Lx Ly Lz Volume Pxx Pyy Pzz Pxy Pxz Pyz Enthalpy 
 3250000    279.68032   -8988.9897   -7922.7208   -8988.9897            0    11435.559    24.959426    24.775133    23.046066    14251.068    10537.376     12835.84     10933.46    478.92688    762.63947    363.60452   -5545.9863 
 3251000    283.32501   -9042.1711   -7962.0069   -9042.1711            0    10899.709    24.974499    24.986629    22.818545    14239.424    10302.914     10616.15    11780.063    345.64203   -319.35731    274.27808   -5698.4927 
 3252000    277.00726   -9011.0311   -7954.9531   -9011.0311            0    11050.424    24.915341    24.900137    22.985734    14260.244    11677.735    10780.905    10692.631   -360.43246     260.1709   -305.84718   -5656.7852 
 3253000    283.56713    -9031.864   -7950.7767    -9031.864            0    11190.351    24.753379    24.977022    23.032035    14239.917     12940.22    10678.774      9952.06    1148.8952    600.79889    1295.0503   -5626.8252 
 3254000    270.22745   -9034.6049   -8004.3746   -9034.6049            0    10948.877    24.930592    24.977877    22.921571    14273.567    11254.848     10532.39    11059.394    248.83525   -113.57929   -538.68275   -5725.1979 
 3255000    276.66203   -8995.9701   -7941.2083   -8995.9701            0    9370.9725    24.851012    25.023571    23.074979    14349.431     10737.99    9019.3678    8355.5595   -924.59618   -37.967509   -810.53435   -5980.1286 
 3256000    285.07166   -8998.0431     -7911.22   -8998.0431            0    11138.957    24.903824    24.999042    22.943719    14284.112    12014.053    9757.3264    11645.492   -767.39279   -88.380786    945.74298   -5590.7622 
 3257000    280.34304   -9055.3355     -7986.54   -9055.3355            0    9354.0716    24.974436    24.970391    22.966226    14322.231    10016.108    7951.1198    10094.987   -1068.3224   -156.39537    1407.2783   -6032.7079 
 3258000    273.57227   -9029.1519   -7986.1696   -9029.1519            0    9797.1752    24.931157    24.957612    22.974867    14295.471    10749.809    8993.8845    9647.8317    797.11158    -821.7239    708.49821   -5943.6077 
 3259000    276.47977    -8974.069   -7920.0021    -8974.069            0    9705.7805    24.913253    24.955592    23.117142    14372.504     10501.47    10138.085    8477.7862    1095.0828   -614.99306    -226.1982   -5885.5906 
 3260000     275.2906   -8997.9466   -7948.4133   -8997.9466            0    9145.8506     24.97005    25.111523    22.893199     14354.86    9325.2017    8419.7721    9692.5779    433.51814   -468.44926    114.43368   -6033.7212 
 3261000    278.21932   -9037.7275   -7977.0285   -9037.7275            0    10010.293    24.907607     25.02935    22.959389     14313.37    10690.057    10130.139    9210.6831   -480.86432    668.98084    1533.7355   -5887.4217 
 3262000     286.4259   -9008.7956   -7916.8095   -9008.7956            0    8557.2333     24.91731    24.913987    23.158339    14376.454    8453.9005    9469.3875    7748.4119    328.20828   -565.40545     1014.652     -6122.65 
 3263000    276.57189   -8983.4495   -7929.0314   -8983.4495            0    10519.179    25.003397    25.010344     22.87266    14303.271    10220.645    9206.0252    12130.867   -746.92882   -404.14238     257.8224    -5734.746 
 3264000    276.82881   -9057.3064   -8001.9088   -9057.3064            0    10798.975    24.899802    24.831275    23.044789    14248.451    9948.2449    11603.414    10845.266    800.06116    447.02533    715.17493   -5757.8921 
 3265000    281.90677   -9016.3187   -7941.5616   -9016.3187            0     11404.67    24.848162    24.893364    23.052847    14259.438    10964.596     11560.53    11688.884   -634.94809   -1060.1966    729.23075   -5569.8546 
 3266000    282.09958   -9016.6639   -7941.1716   -9016.6639            0    10600.242     24.93107    24.943643    22.925726    14256.861    11435.696    10160.655    10204.375     215.8381    677.85169    425.47998   -5737.1514 
 3267000    285.78572   -9048.5433   -7958.9978   -9048.5433            0    10559.916    24.819817    25.009994    23.018665    14288.686    11178.146    9812.5376    10689.065   -754.35643   -1091.0279    585.31648   -5758.4609 
 3268000    281.79336   -9075.1738    -8000.849   -9075.1738            0    9902.9168    24.773203    24.990874    23.061988    14277.769    11783.319    9731.2512      8194.18   -151.49994   -157.55546    1321.3999   -5938.7982 
 3269000    271.01863   -9001.4606    -7968.214   -9001.4606            0    10939.346    24.836363    25.066687    22.895641    14254.033    11313.069    10349.564    11155.404    -625.6718    246.08195   -871.15645   -5694.1379 
 3270000    276.00378   -9040.1034   -7987.8512   -9040.1034            0    11819.943    24.767441    24.881596    23.114357    14244.303    13621.095    11041.647    10797.086   -243.93131    865.61898    1113.5939   -5532.3935 
 3271000    279.56817   -9046.5479   -7980.7065   -9046.5479            0    10885.568    24.998389    24.971547    22.818997    14244.723     10956.05    10703.508    10997.147   -105.07736   -526.22615   -186.56728   -5719.2877 
 3272000     283.7414   -9008.6196   -7926.8679   -9008.6196            0    10403.898    24.997955    24.986505    22.895346    14300.697    9792.2643    10500.192    10919.239    88.516264    39.397595    1027.2127   -5757.0206 
 3273000    275.91523   -9066.5431   -8014.6284   -9066.5431            0    11338.158    24.889705    24.899826    22.991486    14248.958    11043.782    10655.992    12314.701   -648.41511    1780.0425    197.87373   -5658.4862 
 3274000    285.64636   -8980.5612    -7891.547   -8980.5612            0    10283.983    24.871541    25.192478    22.847754    14315.849    12168.364    9082.6004    9600.9848     303.0027   -618.95226    67.493072   -5744.4368 
 3275000    277.00332   -9022.1499   -7966.0869   -9022.1499            0    9481.2428    24.898588    24.942388    23.064177    14323.551    9890.5649    8942.2402    9610.9232    18.838902    325.69956   -806.81559   -5985.5093 
 3276000    276.49477   -8977.7753   -7923.6511   -8977.7753            0    9970.9203    25.015899    24.935767     22.93734    14308.098    9730.4399     10204.13    9978.1913   -112.69066   -641.32843    405.69455   -5843.0299 
 3277000    275.48776   -8997.8484   -7947.5634   -8997.8484            0    11004.248    24.955851    24.834962    23.064429    14294.817    10987.511    11339.453    10685.782    1221.8418    -470.4993   -1164.3768     -5653.45 
 3278000     281.0664    -9054.161   -7982.6077    -9054.161            0    10159.237    24.942243    24.821481     23.04705    14268.508    10043.379    11254.754    9179.5769   -351.70567   -389.51281   -514.82476   -5868.5564 
 3279000    276.05254   -9043.1742    -7990.736   -9043.1742            0    9385.7327    25.117484    24.935008    22.884415    14332.616    10111.556    8665.4609     9380.181   -470.27603   -290.73214    165.56615   -6028.8691 
 3280000    281.75402   -9009.0275   -7934.8527   -9009.0275            0    9509.9635     24.94487    24.910359    23.111502    14361.156    7838.3868    10919.189    9772.3147   -705.17847    88.080811   -579.79098     -5943.06 
 3281000    286.57802   -8998.1643   -7905.5982   -8998.1643            0    8322.9661    25.069675    25.038771    22.946861    14404.063    8429.3563    8368.1754    8171.3665    817.95265   -47.786519    351.50985   -6157.2054 
 3282000     279.5049   -8994.0307   -7928.4306   -8994.0307            0    9859.5351    24.932028    25.024096    22.990287    14343.673    10695.647    9056.1666    9826.7914    388.95555    210.13167    -598.8834   -5865.9365 
 3283000    273.80308   -9001.9896   -7958.1274   -9001.9896            0     9304.711    24.913796      24.9714    23.104425    14374.011    10329.831    9129.4082    8454.8934   -189.15812   -204.88629   -488.39463   -6007.5788 
 3284000    269.65646   -9050.2689   -8022.2155   -9050.2689            0    9388.8187    24.991734    24.994041    22.906401    14308.355    9875.0243    7897.5429    10393.889   -212.78519   -1029.3876    1417.4544   -6063.0255 
 3285000    268.54145   -9051.6693   -8027.8669   -9051.6693            0    9752.1334    24.867556    24.970882    23.025442    14297.989    9329.0592    10243.969    9683.3725   -688.04588    458.96003   -463.89891   -5994.3373 
 3286000    281.91598   -9052.2597   -7977.4674   -9052.2597            0    10505.648    24.923374    25.039613    22.908796     14296.73    10598.602    10964.484    9953.8573    118.38083    223.71609    431.78288   -5787.0068 
 3287000     277.8785   -9028.1483   -7968.7487   -9028.1483            0    10426.806    24.979855    24.956491    22.951781    14308.359    10439.842    10525.597     10314.98    248.47268   -603.87064     129.8276   -5792.9585 
 3288000    281.60608   -9012.3235   -7938.7127   -9012.3235            0    10783.476    24.959225    24.842228    23.024205    14275.991    10752.297    12209.006    9389.1243   -567.76715    1365.4645    1043.1727   -5693.5856 
 3289000    271.05714   -9028.7031   -7995.3097   -9028.7031            0    10849.896    24.980667    25.021963    22.801121     14252.19    9287.1089    10961.368     12301.21    753.76278    187.34738    612.94223   -5740.1201 
 3290000    276.03279   -9016.3249    -7963.962   -9016.3249            0    12961.079    24.641198    24.939132    23.038725     14157.99    14363.225    13320.537    11199.475   -297.33935   -261.53094    455.49149   -5287.7616 
 3291000    264.69953    -9013.156   -8004.0007    -9013.156            0    11581.348    24.934987    24.895106    22.890932    14209.755    12091.955    11052.959    11599.129    208.50226    970.53493   -231.26365   -5603.9435 
 3292000    280.60894   -9037.4302   -7967.6209   -9037.4302            0    11280.549    24.992299    24.997809    22.806436    14248.383    10137.841    11379.926    12323.879   -881.04833   -224.16448    417.86261   -5623.5449 
 3293000    279.22031   -8991.2427   -7926.7276   -8991.2427            0    10368.682    24.920796    24.859167    23.067315    14290.437    10757.354    10656.292    9692.3991    -631.5016    395.72308   -54.049416   -5765.7764 
 3294000    285.28147   -9043.0096   -7955.3865   -9043.0096            0    11432.985    24.906977    24.823219    23.003159    14222.194    11777.086    11683.304    10838.565    228.90109   -1807.9876    773.37544   -5584.0012 
 3295000    270.62742   -9063.6792   -8031.9241   -9063.6792            0    10538.663    24.958446    24.936368    22.879913     14239.84     9817.689    11348.667    10449.634    823.43061   -1226.1312   -1247.2055   -5843.3233 
 3296000    283.82158   -8984.2206   -7902.1633   -8984.2206            0    11468.526     24.83725    24.837786    23.120249    14262.935    12644.473    11104.476    10656.628   -72.776162    676.12878   -542.86191   -5516.5922 
 3297000    281.57803   -9047.0801   -7973.5762   -9047.0801            0    12278.412    24.928112    24.962974    22.790622    14182.144    12731.447    11898.412    12205.376   -926.14251   -180.39682   -197.71901   -5434.0074 
 3298000    281.20278   -9044.1173   -7972.0441   -9044.1173            0    10857.014    24.933527    24.887427    22.966089    14251.178    11013.917    10683.251    10873.874   -1033.2771   -1240.7389   -614.61542   -5715.5353 
 3299000     283.2945   -9024.5239    -7944.476   -9024.5239            0    9823.3357    25.015284    24.856875    23.036902    14324.387    10390.918    9815.9933    9263.0956    729.88065    1016.6711    532.16421   -5892.3174 
 3300000    279.29272    -8988.747   -7923.9558    -8988.747            0    12086.761     25.03327      24.8824    22.821812     14215.43    11776.375    11076.661    13407.248   -161.23918   -392.14934    1734.1385   -5418.1592 
 3301000    279.16641   -9014.8605   -7950.5508   -9014.8605            0    10388.556    24.947789    24.859937    23.049845    14295.525    10688.779    11227.672    9249.2168    187.98986    897.78394    377.65918   -5784.6868 
 3302000    286.21369    -9055.968   -7964.7909    -9055.968            0    10641.984    24.958196    24.935657    22.929277    14270.013    10148.119    10365.462    11412.372   -375.27336   -548.11727    709.22655   -5750.0503 
 3303000    269.81842    -8992.987   -7964.3162    -8992.987            0    12038.755    24.979654    24.863677    22.899931    14222.828    11401.634    12002.656    12711.976    1560.7639    542.46122   -408.63899   -5467.1731 
 3304000    281.56447   -9028.1987   -7954.7465   -9028.1987            0    10219.611    24.975167    24.924251    22.964377    14295.033    9663.6322    10209.493    10785.706   -539.91154   -906.50425    118.08136   -5824.1785 
 3305000    282.80952   -9004.6822   -7926.4833   -9004.6822            0    11882.002    24.858997    24.834474    23.089451    14254.506    12411.674    10915.705    12318.628   -571.30257   -363.89303   -883.55914   -5456.3654 
 3306000    284.44253   -8999.0732   -7914.6485   -8999.0732            0    11541.648    24.947203    24.958486      22.8486    14226.553     10057.29    12010.002    12557.652   -879.90294   -365.41192    -102.8048    -5519.991 
 3307000    283.55242   -9040.7558   -7959.7246   -9040.7558            0    11108.225    24.971106     25.05363    22.772597    14246.921    10513.464    10300.549    12510.661    170.77836    711.42624    971.53918   -5651.6941 
 3308000     280.6795   -9058.6966   -7988.6183   -9058.6966            0    10356.546    24.848858    24.939168    23.059349    14290.105    11528.494    9173.0145    10368.131    32.489388   -95.784595   -522.17434   -5830.2464 
 3309000     276.1886   -9007.2008   -7954.2439   -9007.2008            0    11295.259    24.837526     25.07845    22.882359    14253.116    12000.795     10791.97    11093.013    131.05204    208.92047    889.43666   -5606.3314 
 3310000    280.59392   -9079.6362   -8009.8842   -9079.6362            0    10401.013    24.875842    25.040578    22.911064    14271.427    10611.116     9817.444    10774.479    773.59267    385.06424    431.28928   -5845.0784 
 3311000    281.74881   -9057.6306   -7983.4757   -9057.6306            0    10143.886    24.764876    25.087547    22.959408     14264.45    11817.901    8636.5014    9977.2564   -359.84295    797.74048   -405.20941   -5873.2189 
 3312000    288.60252   -9054.7099   -7954.4254   -9054.7099            0    11295.492    24.795541    24.946217    23.009821    14232.838    13468.932    9738.4508    10679.092    54.982864   -67.540355    313.03262    -5609.805 
 3313000    287.96869   -8986.2681   -7888.4001   -8986.2681            0    12807.003    24.936929    24.851195    22.896863    14189.472      12891.4    13018.238    12511.371    476.76408   -1015.0955    1424.9019   -5238.1331 
 3314000     282.5572   -9023.2054   -7945.9685   -9023.2054            0    11273.223    24.899475    24.920939    22.950427     14241.16    12418.711    10143.391    11257.566   -353.31963   -900.90738    596.33554   -5604.6023 
 3315000    271.12107   -9049.2105   -8015.5733   -9049.2105            0    10132.992    24.856315    24.962555     23.02569    14286.914    11540.722    9681.3276    9176.9261    31.879301   -488.50272   -1290.1208   -5904.2632 
 3316000    287.11442    -8979.949   -7885.3379    -8979.949            0    10384.299    25.019939    25.067483    22.813001    14308.015    10227.709    9858.3701    11066.819    71.885627    -1048.897     1299.181   -5718.4697 
 3317000    274.66908   -9047.6451   -8000.4813   -9047.6451            0    11146.358    24.880157    24.905774    22.944598    14217.839    11638.156    11271.219    10529.699    522.91977   -57.973049   -457.91923    -5689.255 
 3318000    281.39117   -9062.3958   -7989.6044   -9062.3958            0    10664.182     24.86345    24.971749     22.95223    14250.669    10038.101    11708.795     10245.65   -988.99453    513.95022   -1108.0407   -5773.2525 
 3319000    272.84562   -9033.1163   -7992.9044   -9033.1163            0    11888.334    24.877029     25.12237    22.726722    14203.517    10962.536     11639.07    13063.398    783.09503   -40.560246    1230.3804   -5530.3105 
 3320000    278.11189   -9038.5935   -7978.3041   -9038.5935            0    11122.171    24.768111    24.974275    23.004887    14230.033    12007.008    10782.788    10576.716   -461.16487    996.38515   -118.31075   -5670.1152 
 3321000    280.58685   -9030.2502   -7960.5252   -9030.2502            0    9808.5215    24.870453    25.093312    22.911828     14298.86    10830.136    9025.6128     9569.816   -163.47246   -229.15662    384.58683   -5915.1129 
 3322000    288.46931   -9015.7275   -7915.9509   -9015.7275            0    10784.884    24.762497    25.129585    22.980983    14300.406    12199.623    9738.9044    10416.123   -20.062796   -1048.2265   -340.66269   -5666.6907 
 3323000    271.96443    -9072.264   -8035.4116    -9072.264            0    10182.969    24.771731    25.019511    22.986538    14246.519    10963.514    10934.064    8651.3304    -406.1813   -476.69936   -221.14492   -5919.6872 
 3324000    288.02152   -9032.1297   -7934.0603   -9032.1297            0    11230.245     24.78643     25.01795     22.99158    14257.209     11188.86    11405.374      11096.5   -953.22834    225.45223    1225.8096   -5598.9918 
 3325000    293.87342   -9040.0686   -7919.6891   -9040.0686            0    10782.406    24.968447    25.005817    22.841949    14261.518    9863.5213    10228.002    12255.695     31.34606    946.39737   -235.41092   -5677.0607 
 3326000    286.79511   -9044.8002   -7951.4064   -9044.8002            0    11571.472     24.84943    24.934365    22.981207    14239.266     11436.25    11947.041    11331.125    898.46587   -156.69609    1101.2455   -5548.4157 
 3327000     282.8955   -9087.3702   -8008.8435   -9087.3702            0    11310.208    24.789041    25.025876    22.912997    14214.478    12672.075     10531.74    10726.809    884.51355   -157.32068   -900.80472   -5664.1969 
 3328000    281.17162   -8994.2044   -7922.2499   -8994.2044            0    10489.755    24.934511     24.98496    22.947296    14295.884    10363.476    10378.357    10727.432   -1234.0174    23.371799    991.12433   -5735.2324 
 3329000    276.74861   -9035.1404   -7980.0485   -9035.1404            0    11131.536    24.937884    24.848171    22.997973    14250.942    10886.292    12201.439    10306.878   -175.76396     292.0954   -1375.5701   -5666.5215 
 3330000    275.89121   -9029.6739   -7977.8508   -9029.6739            0     9628.657     24.96832    24.872008    23.063088     14322.46     9086.311    9844.9723    9954.6878   -226.23726   -1471.4669   -260.30342   -5966.6324 
 3331000    285.15297   -9020.3927   -7933.2595   -9020.3927            0    9912.6036    25.018361    24.958057    22.929068    14317.132    8671.4928    10038.572    11027.746   -279.88503   -685.96174   -561.17158   -5863.5011 
 3332000    276.62101   -9024.9998   -7970.3944   -9024.9998            0    10963.825    24.896337    24.915857    23.024044    14282.127    11105.451    10676.198    11109.826    83.887941   -397.58223   -385.96883   -5686.7373 
 3333000    277.37276    -9078.535   -8021.0635    -9078.535            0    10036.415    24.961897    24.972191    22.895803    14272.174     9596.507    10457.368    10055.369   -65.706186   -568.93237    267.37535   -5932.0338 
 3334000    281.68967   -8983.8689   -7909.9394   -8983.8689            0     10136.51    24.960069    25.060602    22.906415    14328.291    11608.732    8656.8223    10143.977   -595.00005   -541.93734    -540.4254   -5791.7795 
 3335000    274.39895   -9034.9756   -7988.8416   -9034.9756            0    10877.342    24.940682     24.99511    22.869199    14256.546    10152.874    11562.414    10916.739   -426.81175   -225.21525    913.85206   -5727.2561 
 3336000     289.1267   -9055.7417   -7953.4588   -9055.7417            0    10646.152    24.733863    24.897478    23.169051    14267.752    12026.779    11538.649    8373.0275   -93.658006   -747.58252   -847.05863    -5738.202 
 3337000    278.42252   -9023.8448   -7962.3712   -9023.8448            0     10991.78    24.936029     25.01505    22.845754    14250.633    10338.663    10509.412    12127.267    304.26704   -840.10183    1324.2565     -5677.94 
 3338000    291.16014   -9025.1253   -7915.0901   -9025.1253            0    10786.524    24.801593    24.951204    23.108335    14300.121    10714.274    10992.275    10653.022    304.44816   -429.05256   -192.81088   -5665.5325 
 3339000    273.92935   -9062.4876    -8018.144   -9062.4876            0     11397.98    24.854611    24.969496    22.860036    14187.101    13477.305    9889.9485    10826.686     70.07476   -436.90875   -1151.1741   -5659.8528 
 3340000    290.01118   -9053.4738    -7947.819   -9053.4738            0    10363.396    24.871349    25.061803    22.862648    14250.765    10745.158    10039.656    10305.375   -627.33629   -297.40244    1492.3689   -5793.9654 
 3341000    269.44889   -9023.6913   -7996.4292   -9023.6913            0    11295.308    24.949983    24.814934    22.982161    14228.995    10172.304    12183.234    11530.385    241.73998   -81.530311   -401.86407     -5652.48 
 3342000    284.66345   -9029.3501   -7944.0832   -9029.3501            0    11274.301    24.928863    24.911368    22.884121    14211.315    11414.444    10202.778    12205.681     1119.295   -49.361135    1657.3596   -5607.4003 
 3343000     282.4612   -9019.1845   -7942.3136   -9019.1845            0    11193.874    24.968056    24.830371    22.962702    14236.096    10623.828    12142.344     10815.45    140.86708   -818.85422    11.771117   -5618.2542 
 3344000    276.59313   -9021.4941    -7966.995   -9021.4941            0    11580.901     24.96469    24.801173    23.024722    14255.839    12053.041    11690.887    10998.776   -1076.8001   -433.73861   -138.51855   -5559.2469 
 3345000    263.85377   -9036.6444   -8030.7134   -9036.6444            0    11321.781    24.949586     24.92382    22.884595    14230.534    11614.366    11916.721    10434.256    706.15203    1712.1001   -1451.6243   -5681.0167 
 3346000    276.68611   -9018.9512   -7964.0975   -9018.9512            0    10165.035    25.050548    24.838634    22.978042    14297.429    9190.5422    11925.307    9379.2568    446.86597   -994.39191    1037.4366    -5844.552 
 3347000    289.25114   -9051.8355   -7949.0782   -9051.8355            0    9881.9303     24.99164    24.867941    23.005395    14297.638    9035.0386    10519.467    10091.286   -357.21987   -723.71861   -473.00272   -5888.5338 
 3348000    269.51768   -9062.5965   -8035.0722   -9062.5965            0    9683.2419    24.880119    24.971616     22.99831    14288.775    10199.313     9067.914    9782.4984   -396.85541   -205.67295    305.63344   -6017.2092 
 3349000     279.1994   -9002.2697   -7937.8342   -9002.2697            0    9760.0442    24.822647     25.12025    22.985154    14332.418    10223.482    9211.0404    9845.6104    657.86907    690.61399   -119.34677   -5897.7545 
 3350000    274.05437   -9036.0755   -7991.2552   -9036.0755            0    11062.065    24.893764    24.996217    22.903001    14251.391    11495.183    10677.808    11013.203    68.628183   -158.63759    409.49304   -5692.0945 
 3351000    276.98384   -9024.5023   -7968.5136   -9024.5023            0    11629.559     24.77517    24.851563    23.077192    14208.667    13173.034    11387.971    10327.671    1562.5583    -1670.234   -234.33846   -5558.6501 
 3352000    287.06293   -9026.6034   -7932.1886   -9026.6034            0    9946.8592    24.971679    24.995481    22.905929    14297.403    10159.378    9132.2485    10548.951   -643.23515    151.09585    1531.5522   -5858.1396 
 3353000      279.035   -9013.4154   -7949.6067   -9013.4154            0    10622.828    24.956281    24.884953     23.00239     14285.31    10233.867    10787.946     10846.67    319.52563     137.8422   -722.56399    -5736.483 
 3354000     278.5255   -9039.0937   -7977.2275   -9039.0937            0      9774.29    25.017706    24.938794    22.985742    14341.067    9884.3987     9648.085    9790.3864   -482.31354   -646.59302   -31.473905   -5932.9372 
 3355000    280.77134   -9020.1964    -7949.768   -9020.1964            0    9442.7908     25.00351    24.944072    23.006396    14348.844    10347.824    8830.6231    9149.9256   -189.69424   -749.65751    800.16012   -5973.7397 
 3356000    283.45042    -9074.781   -7994.1387    -9074.781            0    10269.269    24.832207    24.923731     23.03106    14254.183    10867.363    10464.714    9475.7299    1065.1754    -524.3462   -44.705014   -5859.3361 
 3357000      289.169   -9064.5796   -7962.1355   -9064.5796            0    10608.936    24.919588    25.047009    22.858349    14267.293    11339.766     9232.273    11254.769   -447.08725   -417.10067    1.7844041   -5754.6935 
 3358000    282.70331   -9036.8103   -7959.0164   -9036.8103            0    11618.024    24.715554    24.902705    23.132696    14237.808    13211.305    12671.764    8971.0024    358.24933   -1435.5582    993.32111   -5546.6054 
 3359000    277.47741   -9042.6426   -7984.7722   -9042.6426            0    9847.7985    24.925703    24.941419    23.010694    14305.344    9611.0845    10945.205    8987.1056   -70.822885    1151.5031    241.52594   -5930.2381 
 3360000    281.13119   -9068.9475   -7997.1472   -9068.9475            0    9386.4753    24.981307    25.022475    22.905801    14318.282    9458.7536     9229.623    9471.0494   -79.311899   -903.68508   -241.28762   -6037.0872 
 3361000    285.45865   -9050.7931   -7962.4945   -9050.7931            0    9923.1922    24.958083    24.994685     22.89827    14284.385    9431.2606    9825.0585    10513.257   -616.19232   -1596.6168    -870.0827   -5895.2643 
 3362000    280.48909   -9022.4971   -7953.1447   -9022.4971            0    8465.3951    24.972092    24.829898     23.12794    14340.584    7920.5125    9815.3113    7660.3615    485.01518    238.47962    71.173216   -6182.6691 
 3363000    277.78389    -9021.161   -7962.1221    -9021.161            0    9888.6676    25.014374     24.90517    22.961147    14304.502    9757.3392     8411.949    11496.715   -467.42687    183.86739   -1466.4678    -5899.183 
 3364000    295.51405   -9026.5864    -7899.952   -9026.5864            0    10602.836    25.057038     24.82849    22.932268    14266.815    11102.588    10822.163    9883.7575    -518.4249    32.999336    -172.2224   -5693.8531 
 3365000    293.93536   -9028.0732   -7907.4575   -9028.0732            0    11034.774    24.962816    24.924044     22.89592    14245.254     10802.11    10803.227    11498.985   -937.83841   -1676.3631    0.2422141   -5614.9565 
 3366000    281.85658   -9068.9349   -7994.3691   -9068.9349            0    10789.805    24.806438    24.910154    23.044743    14240.088    11940.931    11011.789    9416.6941   -459.79596    325.10908   -864.87624    -5753.574 
 3367000    274.10081   -9081.7604   -8036.7631   -9081.7604            0    9458.1348    24.884888    25.012871    22.965019    14294.403    10620.283    8270.3255    9483.7956    598.82891   -294.52676   -335.19593   -6065.0333 
 3368000    275.75494   -9089.9921   -8038.6885   -9089.9921            0    10182.052    24.918692    25.032111    22.925389    14300.112    9901.0619    9907.0791    10738.014   -227.56435   -177.80602    632.30305   -5915.1966 
 3369000     277.5179   -9034.0724   -7976.0476   -9034.0724            0    10261.085    24.747108    25.006387    23.096553    14292.973    11183.649    9767.6791    9831.9272   -514.36568   -295.71741   -709.25139   -5837.1413 
 3370000    277.17095    -9041.654   -7984.9519    -9041.654            0    10599.073    24.863463     25.05922    22.903238    14270.068    10637.096    9797.6581    11362.464   -951.74949    447.91687    306.70858   -5779.1333 
 3371000    273.89417   -9027.9667   -7983.7572   -9027.9667            0    9998.3142    24.867656    25.105747    22.902403    14298.453    10056.756    9610.9667     10327.22    -712.1531    152.51029   -239.23784    -5898.826 
 3372000    272.42432   -8979.4963   -7940.8906   -8979.4963            0    11404.815    24.847102    24.979483    23.023546    14289.973    12522.258    10555.861    11136.327    790.06882   -917.39979    1721.6657   -5564.0747 
 3373000    280.09268   -9070.2284   -8002.3873   -9070.2284            0    9271.6613    24.954176    25.057799    22.897369     14317.65    9583.6379    8526.3253    9705.0208    565.06834   -312.20147   -995.72025   -6066.3881 
 3374000    291.09802   -9046.4626   -7936.6642   -9046.4626            0    8900.9783    24.845733    24.968684    23.119223    14342.362    9545.6975    8430.6658    8726.5716   -535.73674    11.495339   -1009.0502   -6074.8587 
 3375000    283.47357   -8985.5378   -7904.8073   -8985.5378            0    10771.823    24.909496    24.979227    22.956465     14283.97    10737.354    11624.794    9953.3202     1148.494    77.911289    80.394191   -5660.8529 
 3376000    279.40796    -9029.136   -7963.9054    -9029.136            0    12292.383    24.986388    24.973654    22.759338    14201.859    11886.694    11342.961    13647.495   -912.51378   -117.18802   -192.86408   -5417.9126 
 3377000    283.75612   -9020.4739   -7938.6661   -9020.4739            0    11490.813    24.848764    24.825341    23.076507    14235.413    12491.716    12088.565    9892.1582   -332.41812   -1130.2008   -962.71662    -5553.071 
 3378000     280.8506   -9051.8666    -7981.136   -9051.8666            0    9820.7262    25.053646    25.091195    22.695144    14266.756    9521.9819    8910.5085    11029.688    261.18069   -621.60414   -126.95371   -5937.7769 
 3379000    280.46548   -9014.9256   -7945.6633   -9014.9256            0    11314.887    24.830189    24.959718    23.020577    14267.107    12900.081    10502.514    10542.066   -137.79829   -1421.1945   -502.04757    -5591.362 
 3380000    283.05536    -9084.786   -8005.6499    -9084.786            0    10713.007    24.931429    24.992258    22.852857    14239.449     9331.772    11731.615    11075.634   -252.00227    428.13078    1485.7548   -5780.9038 
 3381000    274.03518   -9034.8928   -7990.1457   -9034.8928            0    11733.215    24.702485    25.061138    22.939831    14201.416    12331.804     10591.84        12276     116.8348   -324.48456    260.39158   -5560.0434 
 3382000    266.85963   -8982.6911   -7965.3005   -8982.6911            0    9928.7149    24.847428    25.106336    22.956954    14321.187    10996.033    8125.2676    10664.844   -326.07382   -108.90759    1107.8837   -5891.5908 
 3383000    279.53264   -9055.4106   -7989.7047   -9055.4106            0    9306.7543    24.924976    24.898524    23.074704    14320.048    9609.2509    10337.877    7973.1352   -545.40711   -208.36742    544.89176   -6046.0522 
 3384000    269.25707   -9045.7995   -8019.2687   -9045.7995            0    9937.5684     24.95733    24.968387    22.960832    14307.911    9800.2349    8963.7736    11048.697   -245.81436   -87.317504   -839.15822    -5945.634 
 3385000    273.05165    -9071.701   -8030.7036    -9071.701            0    10169.461    24.977848    24.958463    22.869214    14256.867    10087.207     10005.27    10415.906   -1.5530904    1355.5325    625.80335   -5916.2511 
 3386000    279.02685   -9017.1943   -7953.4167   -9017.1943            0    10145.494    24.898469    24.839546    23.080975    14274.813    10592.035     11206.38    8638.0666   -98.668239   -1054.7749   -350.83552   -5841.2921 
 3387000    273.21242   -9040.1048   -7998.4944   -9040.1048            0    10504.669    24.928161     24.79779    23.079283    14266.766     10069.63     11910.03    9534.3456   -501.62308   -1731.7811    490.70818   -5812.8286 
 3388000    273.17605   -8999.0724   -7957.6007   -8999.0724            0    10742.292    25.017367    25.017445    22.802279    14271.276    11061.123    9287.7534    11877.998   -325.19334    33.390286    626.92607    -5721.787 
 3389000    278.05754   -9069.4739   -8009.3918   -9069.4739            0    10922.639    24.930031    24.908287      22.8843    14210.335    10538.041    10368.142    11861.734    704.96339    46.395099    57.439652   -5745.7496 
 3390000      279.659   -9016.8162   -7950.6286   -9016.8162            0    12140.422    24.857327    24.822551    23.021895    14205.022    12165.104    12753.075    11503.088   -56.493596    101.47932    356.04689   -5435.5499 
 3391000    274.86229   -9041.7811   -7993.8807   -9041.7811            0    10533.108    25.052793    24.936356     22.82771     14261.05    9985.2684    10262.272    11351.784    158.57474    1141.6705    564.47434   -5803.1756 
 3392000    275.50362   -9055.7084    -8005.363   -9055.7084            0    11365.441    24.950555    24.917721    22.855024    14209.219    12682.628    10416.487    10997.209     315.2677   -142.97333    246.57455   -5650.1379 
 3393000    281.57232   -9037.9953   -7964.5132   -9037.9953            0    10993.118    24.882828    24.908147    23.013236    14263.261    11746.801    10395.829    10836.724    41.430133   -109.35494   -906.46515   -5677.7793 
 3394000    277.49339   -9022.1338   -7964.2024   -9022.1338            0    10197.952    24.919868    25.013721    22.917294    14285.235    10217.902     10284.21    10091.744    367.93112   -315.09623    422.68796   -5839.6071 
 3395000    295.38098   -9021.5101   -7895.3831   -9021.5101            0    11342.046    24.843239    24.974365    22.940208    14233.117    12206.286    10739.047    11080.804    95.082637   -332.34292    135.03721   -5541.0532 
 3396000    276.23262   -9033.4075   -7980.2828   -9033.4075            0    10407.075    24.958892    25.031661    22.847149    14274.042    11141.386    9042.7541    11037.085   -340.98421   -646.93508    120.70975   -5813.8184 
 3397000    278.48612   -9050.0352   -7988.3192   -9050.0352            0    10443.922    24.858185    24.913456    23.069728    14287.159    10410.525     10557.17    10364.073   -282.04182    254.96799   -694.92953   -5812.1864 
 3398000    274.84024   -9050.6179   -8002.8015   -9050.6179            0    11423.154    24.927776    24.892013    22.904041    14212.015      10575.3    12162.575    11531.588   -459.15243   -47.629945   -307.77584    -5635.151 
 3399000    285.53507     -9031.52   -7942.9301     -9031.52            0    10361.353    25.035787    24.934277    22.844611    14260.731    10903.086    10879.738    9301.2333    34.808438   -235.35215    104.58318   -5787.9953 
 3400000    279.04113   -9057.8363   -7994.0043   -9057.8363            0    10192.362    24.967064    24.774301    23.086675    14280.068     9417.935    12323.435    8835.7157   -580.26735   -38.556451    1229.4466   -5871.3415 
 3401000    281.19498   -9029.2825    -7957.239   -9029.2825            0    10715.175     24.98709    24.917685    22.940685    14283.339    9241.5819    11512.884     11391.06   -912.72817   -319.65336    63.889322   -5725.1838 
 3402000    278.07705   -9063.1605    -8003.004   -9063.1605            0    9301.6583    25.014341    24.943073     22.93614     14310.65    9324.7979    8927.7336    9652.4434   -43.209028   -122.58139   -658.00359   -6061.6907 
 3403000    292.38434   -9069.8613   -7955.1589   -9069.8613            0    9588.2821     24.94611    24.899157    23.029858      14304.7    9946.3197    9883.8245    8934.7021   -797.23959    260.14461   -623.35441   -5954.8575 
 3404000     274.8339   -9065.6342   -8017.8421   -9065.6342            0    9250.7583    24.916449    25.007607    22.984974    14321.955    9249.0811    9184.3518    9318.8421   -998.94392   -481.95152    97.134119   -6085.6268 
 3405000    274.33826   -9030.3898   -7984.4872   -9030.3898            0    10721.567    24.963692    24.955996    22.955672    14301.242    10004.345    10505.892    11654.465   -436.03451    389.98335   -948.91434   -5748.3013 
 3406000    270.03183   -9106.5845      -8077.1   -9106.5845            0    9849.3826    24.808082    24.918759    23.030678    14237.257     9985.599    9992.8039    9569.7449   -1105.5235   -1171.4301   -702.70124   -6032.0157 
 3407000    273.39999   -9031.1496   -7988.8241   -9031.1496            0    10020.015     24.88896    25.093199    22.924756    14317.511    11365.813    8061.7418    10632.491   -560.83872   -194.17103   -387.78055   -5896.5828 
 3408000    273.90192   -9019.3597   -7975.1207   -9019.3597            0    9854.6361    24.992739    24.940881    22.967875    14316.816    9756.1291    9676.1398    10131.639   -1194.5201    697.80267    -392.2132   -5917.5113 
 3409000    287.82137   -9043.3916   -7946.0852   -9043.3916            0    8878.9287    24.861801    24.870243    23.186974    14336.947    9270.7846    9993.6428    7372.3587     332.5032     895.8464    835.47803    -6089.593 
 3410000     277.3093   -9032.5607   -7975.3312   -9032.5607            0    11342.497    25.005313    24.893429    22.843406    14219.289    11227.014     10890.12    11910.357    -1063.342   -416.20607    316.21644   -5623.1952 
 3411000    280.11884   -9086.5191   -8018.5783   -9086.5191            0    11977.728    24.877741    24.805714    22.957532    14167.325    11526.514    13142.756    11263.914   -692.13685   -523.21551   -36.208448   -5543.7891 
 3412000    275.61551   -9025.9434   -7975.1713   -9025.9434            0    10456.424    24.966071    24.815853    23.054716     14283.65    9642.5468    11651.055    10075.669     561.9993   -254.50131    1696.2667   -5796.9687 
 3413000    291.45764   -9071.0945   -7959.9251   -9071.0945            0     10383.27    25.008012     24.94045    22.893942    14279.205    9397.2231    11566.217    10186.371    461.00544   -210.15422    -70.48158   -5797.6343 
 3414000    278.51857   -9062.5787   -8000.7388   -9062.5787            0    9302.4925    24.931294    24.919626    23.016783    14299.832    9436.8687    10067.955    8402.6536     225.1804   -80.576519   -144.47124   -6060.7191 
 3415000    275.96793   -9029.1884   -7977.0728   -9029.1884            0     10149.91    24.954165    25.064202    22.877969    14309.169    10574.726    8590.1863    11284.817   -600.28263   -568.98293    445.38112   -5858.9435 
 3416000    284.00185   -9021.3633   -7938.6187   -9021.3633            0    10115.129    24.867165    25.023299    22.951092    14281.513    10133.818    9856.8614    10354.706    171.53072   -101.92715   -680.18443   -5831.8275 
 3417000     269.0409    -9075.221   -8049.5144    -9075.221            0    9187.8178    24.810855    25.003843    23.075943    14315.547    10940.447    8321.1993    8301.8068    220.55229   -365.55931   -76.422575   -6131.3042 
 3418000    280.10003   -8974.5471    -7906.678   -8974.5471            0    9950.5623    24.948512    25.163807    22.850227    14345.362    10767.328    8488.6469    10595.712   -590.21882   -506.83244    800.06723    -5824.897 
 3419000    266.55546   -8986.2578   -7970.0268   -8986.2578            0    10930.388    24.893123    24.969231    23.020103    14308.424    10507.698    10425.365    11858.101   -587.45787   -1151.4653    341.32983   -5689.1424 
 3420000    278.15132   -9021.8564   -7961.4167   -9021.8564            0    12360.217    24.702907    25.001819    22.981371    14193.699    12463.374    11801.254    12816.023    -133.4579   -541.38837    78.933442   -5402.8449 
 3421000    280.26408   -9050.1798   -7981.6853   -9050.1798            0    11298.119    24.837507    24.977183    22.912179    14214.051    11051.156    11770.216    11072.983    747.91222   -497.80152   -465.72241   -5639.6153 
 3422000    284.32127   -9057.5243   -7973.5619   -9057.5243            0    11467.804     24.81063    25.087553     22.84055    14216.826    12635.734     10045.33     11722.35   -335.16686    483.09646   -1122.1701   -5595.8523 
 3423000    280.97785   -9038.4762   -7967.2605   -9038.4762            0    12256.439    24.808374    24.952817    22.978977    14224.879    11813.663    12271.149    12684.504    182.91327    -1126.831   -31.799826   -5424.5978 
 3424000    279.68842   -9051.8083   -7985.5085   -9051.8083            0    11045.642    24.797131    24.988757    22.951815     14222.08    12056.335    9739.8224     11340.77   -520.56678    491.44317    2502.9211   -5694.4827 
 3425000     268.9019   -8999.0683   -7973.8916   -8999.0683            0    11896.524    24.886882    24.967659    22.866855    14208.714    12655.453    10798.523    12235.595    406.49347   -1191.1283   -1252.2103   -5508.6997 
 3426000    277.48521   -9052.8883   -7994.9882   -9052.8883            0    11605.348    24.837731    24.826286    23.057638        14218    12277.232    12506.237    10032.576    96.812235   -500.31636     1095.419   -5588.5618 
 3427000    276.05685   -9011.4502   -7958.9956   -9011.4502            0    11472.816    24.919557    24.864592    22.962221    14227.728    11418.141    12402.712    10597.596     108.7027    64.574839   -5.3753047   -5578.4228 
 3428000    281.53798   -9054.7287   -7981.3775   -9054.7287            0     9398.483    25.121137    24.900153    22.855735    14296.723    7442.0681    10036.393    10716.988   -508.47192    328.64594   -662.60966   -6021.7652 
 3429000    282.31462   -9065.9125   -7989.6004   -9065.9125            0    9535.0649    24.992484    24.872216    22.978792    14284.041    10218.358    8739.9382    9646.8987   -489.09874   -402.46077   -2390.0565   -6003.2739 
 3430000     266.3033   -9018.3197   -8003.0501   -9018.3197            0    10036.493     24.98345    24.943024    22.982388    14321.769    9849.6041    9224.6039    11035.271   -589.28502   -872.69093     356.9775   -5906.7447 
 3431000    275.04833   -9018.4502   -7969.8405   -9018.4502            0    11711.925    24.944431    25.025963    22.802869    14234.882    11614.338    10700.246     12821.19    736.66367     447.7652    718.46543   -5538.4314 
 3432000    284.00949   -9017.3861   -7934.6124   -9017.3861            0     11327.53    24.852015    24.906355    22.985741    14227.556    12570.274     10597.79    10814.526   -212.37759    920.04966   -201.28899   -5584.2144 
 3433000    280.63004   -9031.9554   -7962.0657   -9031.9554            0    10952.335    24.858875    25.008601    22.948116    14266.515    11395.786     11450.13    10011.091   -493.41789    985.46015    1072.6104   -5683.2955 
 3434000    276.88251   -9003.7805   -7948.1781   -9003.7805            0    12721.312    24.854379    24.858198    23.004688    14213.103    12140.211     13284.12    12739.604   0.52870307   -310.07645     204.1657   -5311.2597 
 3435000    291.63945   -9012.8147   -7900.9521   -9012.8147            0    12501.907     24.89952    25.023398    22.784982    14196.653    12963.507    10601.413    13940.801   -635.67279   -805.80369    10.479231   -5312.5121 
 3436000    280.48399   -8999.4374   -7930.1045   -8999.4374            0    10952.395    24.852955    24.962702    23.046087    14297.721    12098.171    10641.463     10117.55    304.02506   -920.99948    694.07355   -5646.3375 
 3437000    267.85686   -9047.4341   -8026.2416   -9047.4341            0    10433.972    24.929678    24.933862    22.991835    14291.567    10729.403    11003.747    9568.7664    584.78331   -37.075556   -1024.3163   -5851.5114 
 3438000    287.52631   -9036.1691   -7939.9877   -9036.1691            0    10842.974    25.006121    24.933283    22.872256    14260.502    9127.9438    11229.679    12171.298   -471.70598   -765.04305    1952.9139   -5684.9225 
 3439000    274.52294   -9087.4926    -8040.886   -9087.4926            0    9655.0652    24.913956    24.835552    23.080072    14280.837    9466.4025    10384.752    9114.0415    731.85825    197.69667    -377.2676   -6030.0124 
 3440000    292.26165   -9043.8477    -7929.613   -9043.8477            0    9852.1183    24.980586    24.968051    22.940042    14308.084    9473.2802    10401.212    9681.8626   -458.47513   -841.78054   -491.60461   -5873.7841 
 3441000    277.90329   -9027.8082   -7968.3142   -9027.8082            0    9408.9842    25.051549    24.943058    22.932028    14329.359    8462.6202    9990.4941    9773.8382     435.5794    40.151446    452.98636   -6002.0341 
 3442000     282.7513   -9012.7602   -7934.7833   -9012.7602            0    10549.645    24.895825    24.835577    23.091703     14277.65    10248.633    11580.213    9820.0889    -653.4214   -1144.2558    206.11331   -5738.0847 
 3443000    274.37436   -9030.4383   -7984.3981   -9030.4383            0    11154.074    24.936727    24.894198    22.947897    14245.592    10317.915    11662.984    11481.322   -1513.0007   -1488.1883    382.22371   -5667.0575 
 3444000    275.37136   -9033.0941   -7983.2529   -9033.0941            0     10399.82    25.058399    24.892165    22.892237    14279.211    9613.7427    11159.552    10426.166   -771.30644   -1067.8231    143.36118   -5817.5148 
 3445000    277.78018   -9032.2979   -7973.2731   -9032.2979            0    10884.884    24.926441    24.853757    23.011064    14255.716    11581.156    10463.528    10609.968       383.58    263.75834    1135.2212   -5710.2514 
 3446000    281.43296   -9012.0193   -7939.0685   -9012.0193            0    12193.889    24.863064    24.874372    22.961936    14200.881    11854.586     12833.69     11893.39    126.72604   -429.66452   -29.683417   -5413.6497 
 3447000    272.25732   -9004.5532   -7966.5841   -9004.5532            0    10554.622    24.992933    24.889989    22.968963    14288.391    9624.1575    11862.805    10176.902   -910.68625    1064.4535    728.27435   -5767.1961 
 3448000    276.71998   -8991.4298   -7936.4471   -8991.4298            0    10220.847    24.949389    24.941963    22.960801    14288.202    11342.725    10816.864    8502.9534   -469.71057   -705.68231   -157.21465   -5806.6395 
 3449000    290.63079   -9037.8134   -7929.7963   -9037.8134            0    10249.378    24.878971    25.020861    22.967405    14297.055    11824.076     8254.367     10669.69   -488.31296    604.40319    852.55341   -5792.7202 
 3450000    282.25953   -9039.3688   -7963.2668   -9039.3688            0    10901.716    24.808889    25.008892    22.964909    14248.413    10134.696    10932.167    11638.284   -462.18192   -855.73969    328.32216   -5697.9068 
 3451000    278.28112   -8961.2694   -7900.3348   -8961.2694            0    13239.389    24.696656    24.962088    22.998657    14178.214    14134.411    12771.488    12812.269   -956.43091   -157.00332   -2154.4583   -5162.7638 
 3452000     278.6192   -9041.2259   -7979.0024   -9041.2259            0    12004.915    24.823127     24.91945    22.937209    14188.468      11941.9    12360.836     11712.01    471.70838    866.86089    1774.6185   -5494.8943 
 3453000    282.36836    -9095.478    -8018.961    -9095.478            0    11031.505    24.978482    24.934427    22.840256    14225.463    10951.088     10848.22    11295.207   -735.63455    161.91727    353.62631   -5730.3232 
 3454000    284.69202   -9039.5194   -7954.1436   -9039.5194            0    10100.445     24.85005    24.904718     23.10839    14301.401    9563.8644    11188.343    9549.1269   -151.06485     228.2366    1363.7581   -5847.4811 
 3455000    270.52093   -9033.3288   -8001.9797   -9033.3288            0    10037.022    24.882796    25.058531    22.878793    14265.529    10542.257    9383.4221    10185.387   -1381.8121   -1582.7533     63.29064   -5913.7962 
 3456000    268.61234   -9075.4747   -8051.4019   -9075.4747            0    10567.965    24.999526    24.909482    22.857101    14233.694     9294.545     10997.06    11412.291    415.06711   -204.48472   -629.32374   -5857.6633 
 3457000    276.00976   -9024.6446   -7972.3695   -9024.6446            0    11281.292    24.886861    24.833851    23.079482    14263.965    11315.942    11815.809    10712.126    141.45296    1548.2534    352.25297   -5625.5753 
 3458000    284.08478   -9049.6534   -7966.5927   -9049.6534            0    11305.089     25.03426    24.902663    22.817426    14224.834    10689.178    11440.707    11785.381   -236.69006   -1048.8679    -859.6165   -5621.2999 
 3459000    279.51557   -9003.4933   -7937.8525   -9003.4933            0    9519.8838    25.024184    24.808131    23.107654    14345.306     8868.536    10520.144    9170.9716    -489.8371   -1.4251294    304.82788   -5946.1826 
 3460000    278.17684   -9014.8788   -7954.3418   -9014.8788            0    10599.255    24.963873    24.931614    22.978626    14301.659    10563.259    10458.036     10776.47   -259.86064   -891.55313   -1.7195861   -5743.6019 
 3461000    284.04398   -9015.4098   -7932.5046   -9015.4098            0    10358.924    24.915378    24.920453    22.993065    14276.451    10803.708    9924.7751    10348.289   -1111.5243   -993.06003    582.21241      -5775.7 
 3462000    276.08176   -9047.4515   -7994.9019   -9047.4515            0    9821.3312    24.962114     24.94442    22.960986    14297.013    9328.5814    9525.8175    10609.595   -312.15408    154.91155    674.84487   -5947.0829 
 3463000    263.82111   -8993.3429   -7987.5365   -8993.3429            0    10847.618    24.921464    25.023949    22.918031     14292.45    9874.2508    10473.114    12195.488    57.113669    1134.9821    604.26204   -5726.4512 
 3464000    283.46474   -9033.6559    -7952.959   -9033.6559            0     10655.93    24.846459    24.965914    22.980374    14255.061    10878.455    9914.6047     11174.73   -23.457149    -229.7627    228.72582   -5737.6397 
 3465000    276.66446   -9047.6769   -7992.9058   -9047.6769            0    11155.159    24.859346    25.103992    22.819635    14241.023    11642.224    9701.2577    12121.995   -141.63305   -949.20276    569.43899   -5676.0829 
 3466000    268.52076    -9033.011   -8009.2874    -9033.011            0    10336.548    24.914155    25.020492    22.933008    14295.621    10482.909    9788.2362      10738.5   -125.23946   -236.33451    1027.9254   -5854.2517 
 3467000    285.65736   -9031.1043   -7942.0482   -9031.1043            0    11713.366    24.776199     25.01915    22.923058    14209.532    12336.632    11499.887    11303.578    483.83553    43.347441   -415.92946   -5514.6704 
 3468000    279.43231   -9025.2049   -7959.8815   -9025.2049            0    10181.834    24.865703    24.953989    23.011614    14278.671    9836.2798    10274.984    10434.238    398.88204   -237.40546    30.947464   -5839.6187 
 3469000    278.27615   -9063.0725   -8002.1569   -9063.0725            0    9656.2595    24.950327    25.111589    22.819893    14297.629    9974.0405    7640.3245    11354.414    448.06832   -1876.1741   -128.43512   -5988.6698 
 3470000    272.03665   -9018.8792   -7981.7514   -9018.8792            0    10676.363    24.910067    24.952988    22.990541    14290.474    10932.974    10357.743    10738.373   -435.08779    1015.3864   -901.53427   -5756.6702 
 3471000    279.15386   -9035.6197   -7971.3578   -9035.6197            0    10451.831    24.918912    24.966129    22.937614     14270.15    11218.167    9525.8521    10611.474   -865.37301    227.03301    454.66555   -5796.1698 
 3472000    265.77653   -9011.0197   -7997.7584   -9011.0197            0    12374.725    24.942425    24.881806    22.858819    14186.471    11078.546    14055.596    11990.034    6.3910695   -247.16243    655.98228    -5437.488 
 3473000    279.86617   -9039.3653   -7972.3878   -9039.3653            0    10069.131    25.008099    24.944415    22.893115    14281.009    10477.343    10088.985    9641.0649    177.37384   -695.88542    -328.0521   -5875.2509 
 3474000    281.53157   -8966.5265   -7893.1997   -8966.5265            0    11329.966    24.935288    24.827924    23.052739    14271.754     11758.29    12431.938    9799.6691   -735.84692    717.96249    -125.4114   -5534.9932 
 3475000    279.54476   -9055.4327   -7989.6806   -9055.4327            0    10483.121    25.088147    24.851932    22.877919    14264.129    10311.393      10759.1    10378.872   -14.510234   -659.33958   -636.55765   -5808.9011 
 3476000    284.64879   -9049.5442   -7964.3332   -9049.5442            0    10896.543    25.016202    24.745967    23.036881    14260.983    10261.015     12603.76    9824.8544    519.28851   -356.81698    162.44937   -5698.0504 
 3477000    271.67427   -8982.0754   -7946.3291   -8982.0754            0    9488.5738      25.1176    24.986426    22.849925    14340.591    9639.3805    7967.8528    10858.488   -113.36167   -1168.4643    765.47324   -5961.8621 
 3478000    285.01609   -9031.0494   -7944.4381   -9031.0494            0    9266.5785    25.042471    24.893126    23.033257    14358.596    8697.0205     9772.301     9330.414    404.46036   -562.16265   -362.12404   -6003.9666 
 3479000    277.36651   -9050.5803   -7993.1326   -9050.5803            0    9295.0515    24.927877    24.948636      23.0512    14335.922    9924.3471    8474.1517    9486.6558    159.58998   -401.54427    555.51796   -6049.7723 
 3480000    285.98998   -9044.2594   -7953.9352   -9044.2594            0    9406.0574    24.964118    24.904562    23.036542    14322.289    9271.3931    10478.528     8468.251    121.63347   -653.41191    359.59237   -5989.2365 
 3481000    292.09653   -9041.1117   -7927.5066   -9041.1117            0    9024.6012    25.197774    25.006976    22.725051    14319.512    7372.0834    8607.0298     11094.69    161.10124   -526.58698   -683.92841   -6042.8504 
 3482000    282.01394   -9030.8768   -7955.7111   -9030.8768            0    8980.5973    24.842739    24.974187    23.120539    14344.612    9444.6763    8967.3344    8529.7814    721.34982   -906.30104    549.91053   -6076.9571 
 3483000    291.01107   -9041.5405   -7932.0735   -9041.5405            0    11103.312    24.833467    24.951946    22.973202    14235.191    11318.759    11023.794    10967.384    700.77024   -1181.5961   -1.5977368    -5626.963 
 3484000    267.21953   -8963.9134   -7945.1507   -8963.9134            0    11824.781    24.760345    24.986186    23.025955    14245.389    13669.741    10906.524    10898.076    785.99703    1225.9688    585.33232   -5488.5006 
 3485000    271.07156    -9028.659   -7995.2106    -9028.659            0    12026.133    24.776422    25.051533    22.877827    14199.978    13262.017    11161.205    11655.177   -1401.4284   -379.28609   -289.71081   -5504.6933 
 3486000     296.1871   -9069.9448   -7940.7445   -9069.9448            0    12117.928    24.809826    24.953419    22.951966    14209.332    12808.169    10404.111    13141.503     355.4029    -1012.068    1445.1054   -5429.5641 
 3487000    273.51881   -9027.3382   -7984.5597   -9027.3382            0    11755.187    24.917634    24.908023    22.928892    14230.794    11361.386    12588.296     11315.88   -355.78088    378.29009    1484.1075   -5544.8701 
 3488000    283.66971   -8989.2698   -7907.7915   -8989.2698            0    10000.751    25.017283    24.965557    22.962075    14341.433    8725.4367    11734.479    9542.3383    -748.3906   -131.95322    1759.7033   -5816.0834 
 3489000    282.16134   -9042.9894   -7967.2617   -9042.9894            0    9254.3547    24.943413    25.002667    22.969696    14325.094     8813.064    9739.3553    9210.6447   -292.88579   -532.63154    325.58516   -6033.8716 
 3490000    280.32747   -9002.2078   -7933.4716   -9002.2078            0    10650.519    24.888412     25.01261    22.974388    14302.112    12379.639    10747.937    8823.9801   -260.72244   -1105.4046    371.14622   -5711.9691 
 3491000    281.28721   -9031.8793   -7959.4842   -9031.8793            0    10572.546    24.887189    25.034125    22.942178    14293.642    10296.409    11411.908    10009.322    29.029332   -271.83369   -366.36776   -5755.5512 
 3492000    281.87271    -9009.523   -7934.8956    -9009.523            0    9993.2458    24.851035    25.014818    23.008091    14302.844    11380.128     9165.536    9434.0735   -608.45309   -233.05508     924.8818   -5850.3815 
 3493000    275.61762   -9026.4746   -7975.6946   -9026.4746            0    10217.403    24.941209    25.099356     22.83293    14293.603    10656.015    9424.3538    10571.841   -192.69885   -194.79157   -63.745635   -5845.7999 
 3494000    271.87648    -9039.321   -8002.8038    -9039.321            0    9746.5332    24.821958    25.017325    23.086288    14336.099    10560.403    9947.3679    8731.8289    -104.9269    166.96775    306.21039    -5965.025 
 3495000    284.68678   -9036.7004   -7951.3446   -9036.7004            0    11577.052      24.8763    24.919552    22.963521     14235.23    11574.399    11630.843    11525.915    -265.5501   -202.78845   -486.47448   -5547.8764 
 3496000    276.56602   -9027.7174   -7973.3216   -9027.7174            0     12263.37    24.883036    25.010256    22.756539    14162.102    11778.865    12039.788    12971.456   -524.96611    214.30198    123.54409   -5440.4484 
 3497000    284.95403    -8990.374   -7903.9993    -8990.374            0    11148.835    24.840429    24.957765    22.975904    14244.178    10647.128    11713.375    11086.003   -328.53008    150.14243   -174.18373   -5587.9768 
 3498000    271.74739   -9049.3255   -8013.3005   -9049.3255            0    10439.612    24.941861    24.894805     22.96449    14259.175    11345.269    11257.481    8716.0869   -640.00027    356.97024   -274.83791   -5842.3264 
 3499000    266.18372   -9043.0575   -8028.2437   -9043.0575            0    11015.213    25.026446    24.999815    22.718336    14213.875    10296.924    10370.951    12377.765    165.38194    489.89728   -260.00537   -5744.8474 
 3500000    283.09955   -8999.6298   -7920.3252   -8999.6298            0     11117.12    24.858611      24.9161    23.032684    14265.975    11769.889    10856.523    10724.949    309.33925    594.74077   -698.21691    -5607.357 
Loop time of 555.425 on 64 procs for 250000 steps with 1920 atoms

Performance: 77.778 ns/day, 0.309 hours/ns, 450.106 timesteps/s
196.1% CPU use with 32 MPI tasks x 2 OpenMP threads

MPI task timing breakdown:
Section |  min time  |  avg time  |  max time  |%varavg| %total
---------------------------------------------------------------
Pair    | 68.161     | 73.185     | 81.146     |  28.7 | 13.18
Bond    | 0.78636    | 1.0541     | 1.6653     |  17.2 |  0.19
Kspace  | 251.86     | 264.03     | 276.25     |  48.2 | 47.54
Neigh   | 5.3206     | 6.7215     | 8.1371     |  36.4 |  1.21
Comm    | 83.748     | 99.943     | 113.23     |  87.1 | 17.99
Output  | 0.57774    | 0.5781     | 0.5796     |   0.0 |  0.10
Modify  | 91.324     | 98.378     | 103.04     |  26.0 | 17.71
Other   |            | 11.53      |            |       |  2.08

Nlocal:        60.0000 ave          65 max          55 min
Histogram: 1 0 5 0 6 6 7 4 2 1
Nghost:        3384.69 ave        3429 max        3348 min
Histogram: 1 5 3 6 6 4 2 1 1 3
Neighs:        21296.9 ave       23219 max       19800 min
Histogram: 2 4 1 7 7 4 3 3 0 1

Total # of neighbors = 681502
Ave neighs/atom = 354.94896
Ave special neighs/atom = 2.0000000
Neighbor list builds = 13180
Dangerous builds = 2

unfix		3
unfix		2
unfix		1

write_data	data.final.${pid}
write_data	data.final.0
System init for write_data ...
PPPM initialization ...
  extracting TIP4P info from pair style
  using 12-bit tables for long-range coulomb (../kspace.cpp:340)
  G vector (1/distance) = 0.37453104
  grid = 30 30 30
  stencil order = 5
  estimated absolute RMS force accuracy = 0.0032602371
  estimated relative force accuracy = 9.8181072e-06
  using double precision FFTW3
  3d grid and FFT values/proc = 5400 960
Last active /omp style is kspace_style pppm/tip4p/omp
WARNING: Not all mixed pair coeffs generated from mixing. Use write_data with 'pair ij' option to store all pair coeffs. (../write_data.cpp:312)

write_restart   restart.lmp.${pid}
write_restart   restart.lmp.0
System init for write_restart ...
PPPM initialization ...
  extracting TIP4P info from pair style
  using 12-bit tables for long-range coulomb (../kspace.cpp:340)
  G vector (1/distance) = 0.37453104
  grid = 30 30 30
  stencil order = 5
  estimated absolute RMS force accuracy = 0.0032602371
  estimated relative force accuracy = 9.8181072e-06
  using double precision FFTW3
  3d grid and FFT values/proc = 5400 960
Last active /omp style is kspace_style pppm/tip4p/omp
Total wall time: 0:09:15
