#include		in.partitions
include		in.temp
variable        temperature equal 276.42
variable	tempDamp equal 100.0
include		in.pressure
variable        pressure equal -3000.0
variable        pressureDamp equal 1000.0 # This is 1 ps
include		in.seed
variable        seed equal 745823

units		real
atom_style	full
#include		in.box
read_restart	restart.lmp.${pid}
read_restart	restart.lmp.0
Reading restart file ...
  restart file = 30 Jul 2021, LAMMPS = 30 Jul 2021
  restoring atom style full from restart
  orthogonal box = (-0.051767799 -0.27266429 -0.012891434) to (18.259340 23.901842 22.226087)
  2 by 4 by 2 MPI processor grid
  restoring pair style lj/cut/tip4p/long/omp from restart
  restoring bond style harmonic/omp from restart
  restoring angle style harmonic/omp from restart
  864 atoms
  576 bonds
  288 angles
Finding 1-2 1-3 1-4 neighbors ...
  special bond factors lj:    0        0        0       
  special bond factors coul:  0        0        0       
     2 = max # of 1-2 neighbors
     1 = max # of 1-3 neighbors
     1 = max # of 1-4 neighbors
     2 = max # of special neighbors
  special bonds CPU = 0.001 seconds
  read_restart CPU = 0.005 seconds
include 	in.setup
variable	out_freq equal 1000
variable	out_freq2 equal 10000
variable	out_freq3 equal 1000

timestep	2.0

neigh_modify    delay 7 every 1

include		in.tip4p
# This is TIP4P/Ice

# create groups ###
group ox type 2
288 atoms in group ox
group hy type 1
576 atoms in group hy

# set charges - beside manually ###
set group ox charge -1.1794
Setting atom values ...
  288 settings made for charge
set group hy charge 0.5897
Setting atom values ...
  576 settings made for charge

# ### TIP3P Potential Parameters ###
pair_style lj/cut/tip4p/long/omp 2 1 1 1 0.1577 8.5
pair_coeff 1 1*2 0.000 0.000
pair_coeff 2 2 0.21084 3.1668
bond_style  harmonic
bond_coeff  1 450 0.9572
angle_style harmonic
angle_coeff 1 55 104.52
kspace_style pppm/tip4p/omp 1.0e-5
pair_modify tail yes

thermo          ${out_freq}
thermo          1000
thermo_style    custom step temp pe etotal epair emol press lx ly lz vol pxx pyy pzz pxy pxz pyz enthalpy

restart 	${out_freq3} restart.lmp.${pid} restart2.lmp.${pid}
restart 	1000 restart.lmp.${pid} restart2.lmp.${pid}
restart 	1000 restart.lmp.0 restart2.lmp.${pid}
restart 	1000 restart.lmp.0 restart2.lmp.0


include         in.dump
dump            myDump all atom ${out_freq2} dump.water.${pid}
dump            myDump all atom 10000 dump.water.${pid}
dump            myDump all atom 10000 dump.water.0
dump            myDump2 all dcd ${out_freq2} dump.dcd
dump            myDump2 all dcd 10000 dump.dcd
dump_modify     myDump append yes
dump_modify     myDump2 append yes


variable natoms 	equal  "count(all)"                        # NUMBER ATOMS
variable H      	equal  "enthalpy/v_natoms"                 # ENTHALPY-per-atom
variable Vol      	equal  "vol/v_natoms"                 # volume-per-atom
fix AVG all 		ave/time ${out_freq} 1 ${out_freq} v_Vol v_H file vol_enthalpy.dat
fix AVG all 		ave/time 1000 1 ${out_freq} v_Vol v_H file vol_enthalpy.dat
fix AVG all 		ave/time 1000 1 1000 v_Vol v_H file vol_enthalpy.dat


timer           timeout 23:50:00 every 1000
New timer settings: style=normal  mode=nosync  timeout=23:50:00

fix 		1 all shake 1e-6 200 0 b 1 a 1
       0 = # of size 2 clusters
       0 = # of size 3 clusters
       0 = # of size 4 clusters
     288 = # of frozen angles
  find clusters CPU = 0.000 seconds
fix             2 all nph aniso ${pressure} ${pressure} ${pressureDamp}
fix             2 all nph aniso -3000 ${pressure} ${pressureDamp}
fix             2 all nph aniso -3000 -3000 ${pressureDamp}
fix             2 all nph aniso -3000 -3000 1000
fix             3 all temp/csvr ${temperature} ${temperature} ${tempDamp} ${seed}
fix             3 all temp/csvr 276.42 ${temperature} ${tempDamp} ${seed}
fix             3 all temp/csvr 276.42 276.42 ${tempDamp} ${seed}
fix             3 all temp/csvr 276.42 276.42 100 ${seed}
fix             3 all temp/csvr 276.42 276.42 100 745823


run             250000
PPPM initialization ...
  extracting TIP4P info from pair style
  using 12-bit tables for long-range coulomb (../kspace.cpp:340)
  G vector (1/distance) = 0.37007253
  grid = 24 27 25
  stencil order = 5
  estimated absolute RMS force accuracy = 0.0033466689
  estimated relative force accuracy = 1.0078394e-05
  using double precision FFTW3
  3d grid and FFT values/proc = 6300 1296
Last active /omp style is kspace_style pppm/tip4p/omp
Neighbor list info ...
  update every 1 steps, delay 7 steps, check yes
  max neighbors/atom: 2000, page size: 100000
  master list distance cutoff = 10.8154
  ghost atom cutoff = 10.8154
  binsize = 5.4077, bins = 4 5 5
  1 neighbor lists, perpetual/occasional/extra = 1 0 0
  (1) pair lj/cut/tip4p/long/omp, perpetual
      attributes: half, newton on, omp
      pair build: half/bin/newton/omp
      stencil: half/bin/3d
      bin: standard
Per MPI rank memory allocation (min/avg/max) = 12.24 | 12.28 | 12.30 Mbytes
Step Temp PotEng TotEng E_pair E_mol Press Lx Ly Lz Volume Pxx Pyy Pzz Pxy Pxz Pyz Enthalpy 
12000000    286.46226   -4139.2856   -3648.2991   -4139.2856            0   -3531.7905    18.311108    24.174506    22.238979    9844.3507   -4941.1447   -4232.9151   -1421.3117   -1053.8847     317.0753    215.80764   -4155.3574 
12001000    275.99206   -4150.2862   -3677.2452   -4150.2862            0   -3385.2927    18.263603    23.804503    22.693111    9865.9656   -3644.8115    -2922.611   -3588.4557    191.14221   -946.08041   -787.74555    -4164.338 
12002000    267.08202   -4135.7153   -3677.9458   -4135.7153            0    -3901.076    18.576032    23.796038    22.392087    9898.1079   -3775.1202   -3875.9985   -4052.1093   -312.00623   -227.44595    101.49747   -4241.0808 
12003000    277.77282   -4160.5346   -3684.4415   -4160.5346            0   -3590.4864    18.426029    23.778271    22.552949    9881.3289   -3477.2248   -2418.7846   -4875.4497   -713.57879   -635.23352   -574.91532   -4201.8631 
12004000    270.16219   -4187.2716   -3724.2228   -4187.2716            0   -4027.4565    18.352985    24.038442    22.317977    9846.1823   -4145.0268   -4930.3201   -3007.0226   -507.02528    136.59437    191.04329   -4302.5513 
12005000    272.27764   -4126.8357   -3660.1611   -4126.8357            0   -4227.8233    18.408116    24.016271    22.514339     9953.461   -4421.1716   -4339.9832    -3922.315    -574.2456   -184.28455   -106.00326   -4273.8762 
12006000    274.28506   -4137.5195   -3667.4043   -4137.5195            0   -3345.5978    18.424029    23.698195    22.477968    9814.2459   -2939.4656   -2808.0599   -4289.2678    565.93745    20.363889   -760.74567    -4146.262 
12007000       273.12   -4143.5649   -3675.4465   -4143.5649            0    -2308.403    18.495795    23.563043    22.359099    9744.4803   -2641.8788   -2608.2347   -1675.0954    503.29343    -33.63804    538.28424   -4003.5012 
12008000     300.9291   -4181.1007   -3665.3185   -4181.1007            0   -2913.7866     18.20816    24.022412    22.446393    9818.1403   -4064.7594   -1753.8746   -2922.7257    -293.4609   -325.41122    107.80387   -4082.5363 
12009000    290.03562    -4148.685   -3651.5738    -4148.685            0   -3364.2561    18.145137    24.154918    22.359075     9799.855   -1972.2335   -4697.1004   -3423.4343    146.30039   -180.33756   -64.825337   -4132.3961 
12010000      283.301   -4165.1958   -3679.6275   -4165.1958            0   -3944.5761     18.53504    23.776024    22.453655    9895.0912   -4970.1551   -5241.1178   -1622.4554    722.28315    57.645996    98.408237   -4248.8684 
12011000    277.97316   -4165.7954   -3689.3589   -4165.7954            0   -1735.9287    18.345405    23.577196    22.551627    9754.3277   -2148.0895   -1925.2008   -1134.4957    703.45323    177.18441    202.84877   -3936.3067 
12012000    284.14709     -4116.74   -3629.7216     -4116.74            0   -2594.1313    18.221001    24.203572    22.348737    9856.0907   -1706.3473   -3171.2191   -2904.8275   -468.97021    -164.5936    273.87733   -4002.6046 
12013000    291.55486   -4157.7283   -3658.0133   -4157.7283            0   -2520.7583    18.343693    23.768171    22.475171    9799.0856    -2410.354   -1893.4204   -3258.5004   -477.38792    527.46461   -415.47154   -4018.2538 
12014000    281.43206    -4191.713   -3709.3481    -4191.713            0   -2879.0344    18.342503    23.578173    22.616041    9781.0465   -3479.9707   -2501.0771   -2656.0553    -819.1593   -541.60785   -135.06822   -4120.0324 
12015000    266.52984   -4127.3332   -3670.5102   -4127.3332            0   -3631.1548    18.636538    23.832319    22.326314    9916.2751   -4487.8673   -3253.8693   -3151.7277    22.075001   -74.983062    877.19397   -4195.6431 
12016000    268.33438   -4134.3362   -3674.4203   -4134.3362            0   -3684.7122    18.211758    23.945598    22.695194    9897.1796    -2535.146   -3716.4571   -4802.5336    65.602692    -344.2971   -145.27867   -4206.2724 
12017000    269.32961   -4127.5071   -3665.8853   -4127.5071            0   -3422.7351    18.398913    24.059331    22.314704    9877.9502   -3006.5831   -3840.1425   -3421.4797    25.207213    18.763709    886.54155   -4158.9638 
12018000    270.10778   -4182.3357   -3719.3802   -4182.3357            0   -2911.8276    18.395802     23.54103    22.491132    9739.9226   -3675.0637   -2509.6176   -2550.8015    223.47027   -3.5822047    -182.3949   -4132.9959 
12019000    269.02725   -4148.5405    -3687.437   -4148.5405            0   -2732.5931    18.458949    23.701409    22.293369    9753.4178   -3156.4943   -2917.6719   -2123.6132     85.19914    37.010156   -349.98648   -4076.1309 
12020000    279.87305   -4183.7902   -3704.0974   -4183.7902            0    -3644.083    18.098561    24.269204    22.453998    9862.6417    -3805.193   -4347.5101   -2779.5461   -325.51168   -315.80668   -169.72762   -4228.2496 
12021000    277.77332   -4180.0834   -3703.9894   -4180.0834            0   -2806.6385    18.283731    23.943557    22.453415    9829.6015   -2449.9717   -2906.9732   -3062.9705   -621.47531   -970.97405   -31.171873   -4106.3341 
12022000    284.18632   -4154.0153   -3666.9297   -4154.0153            0   -1578.8923    18.448859    23.676706    22.244045    9716.3816   -563.34979   -2807.1433   -1366.1839   -5.3824906   -814.75275   -198.87979   -3890.6642 
12023000    267.82805   -4172.1187   -3713.0706   -4172.1187            0    -2894.454    18.434318    23.667582    22.429679    9785.9734   -3144.1285   -2342.6842   -3196.5494    499.14616    49.684418    500.10318   -4126.1624 
12024000    272.16428   -4077.4109   -3610.9306   -4077.4109            0   -3096.6522    18.403229    24.123985    22.278666    9890.8191   -3778.6377   -3910.9121   -1600.4069   -356.08936   -785.97514    466.01724   -4057.6148 
12025000    279.19717   -4145.2864    -3666.752   -4145.2864            0   -2802.3492    18.185135    23.813753    22.573649     9775.661   -2840.7578   -2065.8486   -3500.4414    328.13052   -192.43661   -834.36484   -4066.2773 
12026000    287.24694    -4135.566   -3643.2346    -4135.566            0   -2911.1877    18.513067    23.757641    22.224093    9774.7515   -3696.5668   -3941.9031   -1095.0932   -197.91129   -423.22584    1170.0003   -4058.2381 
12027000    279.64931   -4140.2951   -3660.9857   -4140.2951            0   -2241.9859    18.271926    23.685209    22.544481     9756.674   -1896.2705   -2323.3296   -2506.3576   -609.54784    -1246.365    -178.5519   -3980.0003 
12028000    276.09098   -4176.8173   -3703.6068   -4176.8173            0    -2855.892    18.344494    23.825798    22.308744    9750.5323   -3204.6167   -2941.7724   -2421.2869     1046.707   -798.05603   -12.792567   -4109.7189 
12029000    281.23424   -4210.0941   -3728.0683   -4210.0941            0   -3219.5808    18.301024    23.809286    22.348894    9738.1802   -3895.7058   -4431.7598   -1331.2769    413.15894    127.23739     -233.663   -4185.3175 
12030000    292.74047   -4154.9543   -3653.2072   -4154.9543            0   -2800.9868    18.408847    23.665264     22.55648    9826.7358   -1108.3878   -2150.1051   -5144.4676   -729.23281    471.83778   -1178.6198   -4054.6246 
12031000    283.41899   -4132.8559   -3647.0854   -4132.8559            0   -2639.3007    18.470347    23.901083    22.211204     9805.387   -3504.6852   -2693.0303   -1720.1866   -638.01191    69.668523   -127.82855   -4024.5094 
12032000    274.78845   -4128.0693   -3657.0913   -4128.0693            0   -4235.5303    18.344279    23.838722    22.715463    9933.5667   -4293.2664   -4505.9392   -3907.3854    910.16676   -614.69659   -211.71133   -4270.6963 
12033000     290.0049   -4177.0308   -3679.9723   -4177.0308            0   -2875.3876    18.366392    23.966158    22.278017    9806.1559   -3212.5423   -3855.5691   -1558.0515   -867.11645   -21.841676    511.34885   -4091.1893 
12034000    277.59112   -4202.1257    -3726.344   -4202.1257            0   -1344.1116      18.1942    23.642729    22.280644    9584.2538   -1331.1135    -1891.934   -809.28746   -1056.2954   -1016.6934   -22.186204   -3914.2192 
12035000    266.61284   -4187.2238   -3730.2585   -4187.2238            0   -1269.6694    18.368169    23.630317    22.306327    9681.9645   -1921.8024   -896.37815   -990.82777   -1223.8987   -324.96696   -126.85855   -3909.5378 
12036000    271.63526    -4169.391   -3703.8175    -4169.391            0   -3752.0257    18.436563    23.755333    22.413082    9816.1834   -2933.0221   -4268.7484   -4054.3064    869.74014    176.40892    650.38275   -4240.9536 
12037000    275.74646   -4154.2087   -3681.5887   -4154.2087            0   -2516.6688    18.119035    23.963572    22.527139    9781.2116   -1881.3195   -1798.1461   -3870.5407   -197.37439   -93.678609    446.23879   -4040.5889 
12038000    272.17183   -4144.0468   -3677.5536   -4144.0468            0   -3300.8728    18.510667    23.869858    22.377557    9887.4569   -3369.1005    -2102.766   -4430.7518   -618.18347   -7.4114957    505.46346   -4153.5343 
12039000    277.19536    -4149.886   -3674.7827    -4149.886            0   -3572.7323    18.512096    23.486924     22.55504    9806.7555   -3641.7842   -2745.3757   -4331.0371    499.97375    303.09245    167.45897   -4185.7601 
12040000    271.64565   -4166.8767   -3701.2854   -4166.8767            0   -2581.3281    18.367723    23.946106    22.196855    9762.9633   -917.27853   -3706.8397   -3119.8661   -136.78535    652.98542   -309.03211   -4068.8221 
12041000    263.09543   -4140.9018   -3689.9653   -4140.9018            0   -3145.8557    18.174903    24.031225    22.595364    9868.8683   -1406.9314   -4584.7466   -3445.8892    964.08745   -45.463726     199.4385   -4142.7398 
12042000    287.44241   -4184.3455    -3691.679   -4184.3455            0   -3757.7556    18.391964    23.836703    22.539831    9881.5474   -4221.6978    -3090.904   -3960.6649   -60.985663   -422.47776    433.14715   -4233.2176 
12043000    277.29721   -4140.4038   -3665.1258   -4140.4038            0   -3531.7899    18.660279    23.707824    22.278711    9855.9812   -4395.1452    -3752.971   -2447.2536   -37.688465    165.98847   -304.90135   -4172.7831 
12044000    278.37565    -4158.235   -3681.1086    -4158.235            0   -3251.5028    18.278328    23.999512    22.426431     9837.824   -3079.2382   -4138.2874    -2536.983   -587.56925    142.79739    79.292088   -4147.6166 
12045000    263.41211   -4185.7293     -3734.25   -4185.7293            0   -4281.2977    18.286777    24.004216    22.567653    9906.2908   -4281.9779   -4583.7498   -3978.1654    -33.78409   -568.32588     79.75314   -4352.7823 
12046000    274.80744   -4140.8487   -3669.8382   -4140.8487            0   -3728.7299    18.509652    23.706368     22.44925    9850.6549    -3747.049   -3360.9441   -4078.1965   -321.22917    469.46495    522.09531   -4205.5138 
12047000    263.21349   -4143.7104   -3692.5715   -4143.7104            0   -3433.8245    18.455648    23.965302      22.3151    9869.8609   -3929.2671   -2858.3055    -3513.901   -548.50471   -45.812066    153.81633   -4186.8424 
12048000      279.152   -4159.4071   -3680.9502   -4159.4071            0   -2532.3674    18.227146    23.970819    22.567205    9860.0544    -3163.409   -2488.4541   -1945.2391     257.0236   -415.76973   -274.15217   -4045.1015 
12049000    283.38829   -4143.8308    -3658.113   -4143.8308            0   -3567.1674    18.343318    24.129819    22.364524    9899.0069   -4967.7785     -4110.51   -1623.2138   -346.15611   -186.39697   -288.20057   -4173.0937 
12050000    276.14177   -4166.5181   -3693.2206   -4166.5181            0   -2315.3454    18.470959    23.657848    22.377343    9778.5213   -2984.2928   -2137.8195   -1823.9238   -609.05787   -20.014595   -751.87892   -4023.4113 
12051000    283.21429   -4138.7465   -3653.3269   -4138.7465            0   -3528.0053    18.491438    23.673331    22.462543    9833.0666   -2852.8771   -1832.0084   -5899.1305    241.75027    160.58988   -184.51627   -4159.2612 
12052000    282.29515   -4170.8565   -3687.0123   -4170.8565            0   -3862.4964    18.285124      24.3161    22.255953     9895.506   -4177.5232   -4519.4962   -2890.4698   -44.866746    187.89867   -69.289385   -4244.4315 
12053000    275.55964   -4173.9263   -3701.6266   -4173.9263            0   -2296.9101    18.201821    23.822208    22.524654    9766.8601   -1888.6612   -2046.0995   -2955.9696     463.7319   -85.401274      -200.67   -4028.7976 
12054000    276.64958   -4127.1519    -3652.984   -4127.1519            0    -3199.423    18.590268    23.759813    22.274627    9838.7315   -4788.9178   -2587.9547   -2221.3965    723.71311    828.24768    220.26375   -4112.0622 
12055000    278.65999   -4164.2597   -3686.6461   -4164.2597            0   -3495.1982    18.410395    23.748311     22.55284    9860.4577   -4338.5388   -2119.6237   -4027.4322   -272.56421    443.64314   -334.81269   -4189.2719 
12056000    282.70573   -4133.6555   -3649.1076   -4133.6555            0   -2981.4646    18.257911    23.853585    22.463909    9783.4059   -3797.6324   -1886.3871   -3260.3744    318.94125    258.19921   -12.753681   -4074.5058 
12057000     271.9472   -4153.1355   -3687.0273   -4153.1355            0   -2439.3187    18.289744    23.971745    22.243017    9752.1638   -1617.7058   -3505.4198   -2194.8304    -366.9561    175.47977   -188.37243   -4033.9602 
12058000    278.36744   -4157.3354   -3680.2231   -4157.3354            0   -3678.0057     18.31897    23.672582    22.700226    9844.1191   -3024.2426   -4163.2632   -3846.5115    43.478945    -475.0439   -115.10029   -4208.2611 
12059000    269.35492   -4143.3705   -3681.7054   -4143.3705            0   -2797.3235    18.353789    24.049537    22.195776     9797.218   -2427.8121   -3020.8454   -2943.3131    -1198.454      2.60944     119.9942   -4081.3937 
12060000    285.23728   -4213.3561   -3724.4691   -4213.3561            0   -4430.0947    18.287122    23.873148    22.619667    9875.0945   -3912.0204   -3777.8357   -5600.4281   -259.07962   -265.09487     357.9869   -4362.4831 
12061000    282.66844   -4158.7007   -3674.2167   -4158.7007            0   -5025.5834    18.605085    23.916445    22.435296    9982.9776   -6089.9464   -5436.8109   -3549.9929   -470.39958    310.59673    45.532766   -4405.8988 
12062000    272.25748   -4130.0091   -3663.3691   -4130.0091            0   -3654.0789    18.427447    23.885807    22.529769    9916.5784   -4196.9143   -3392.0724     -3373.25    21.943017    282.64992    1130.2683   -4191.8334 
12063000     274.9059    -4116.073   -3644.8937    -4116.073            0   -4179.3111    18.332737    23.903565    22.465979    9844.9918   -4591.3546   -3641.1215   -4305.4571   -675.69022    -699.5295    -761.9526   -4244.9555 
12064000    276.50994   -4165.0554   -3691.1269   -4165.0554            0   -2796.0239      18.4549    23.848009    22.296305    9812.8848   -2251.3998   -3405.8267   -2730.8451   -123.44356    103.16489     214.7843   -4091.2683 
12065000    265.83123   -4173.3586   -3717.7329   -4173.3586            0    -2925.295    18.317568    23.622608    22.640302    9796.6564   -2146.9745   -2485.8826   -4143.0281   -374.51878   -262.19489   -322.96628   -4135.6821 
12066000    294.61303   -4152.1104   -3647.1538   -4152.1104            0   -3350.5832    18.426513    24.048872    22.320046     9890.835   -3478.2326   -3694.3544   -2879.1625    499.66894     108.9156   -355.12201   -4130.4676 
12067000    265.74933    -4177.836   -3722.3508    -4177.836            0   -3623.0062    18.250708    24.015809    22.362833    9801.7536   -3464.2339   -3404.1839    -4000.601   -857.38197   -642.03422   -49.112955   -4240.2542 
12068000    271.11412   -4162.7766   -3698.0963   -4162.7766            0   -3293.4937    18.288801    23.753806    22.551463    9797.0012   -3984.3285   -1983.6607   -3912.4918    643.32103   -619.13845    583.32687   -4168.6681 
12069000     261.0521   -4184.4018   -3736.9674   -4184.4018            0   -3473.3656    18.383748    23.860172    22.394591    9823.1495   -4224.3307   -2228.8968   -3966.8693   -519.89662   -56.429823   -132.61445   -4234.5637 
12070000    270.56809   -4147.6584    -3683.914   -4147.6584            0   -3983.9326    18.255344    23.746583    22.716941    9847.8402   -3838.6892   -3608.1762   -4504.9323   -837.32286    569.30368   -388.56857   -4256.0889 
12071000    272.03294   -4154.1829   -3687.9278   -4154.1829            0    -2792.691     18.52271    23.780296    22.053014    9713.8129   -3261.8731   -2556.8513   -2559.3486   -411.21229    46.191802   -201.95611   -4083.5571 
12072000     297.8526   -4134.6616   -3624.1524   -4134.6616            0   -2389.5222    18.369141    23.754708    22.555442    9842.1478   -2813.9818    -1602.046   -2752.5389    834.68014    114.58832     96.01707   -3967.1388 
12073000    253.09511   -4149.2732   -3715.4768   -4149.2732            0   -3760.1977    18.370031    24.109636    22.272644    9864.4374   -4118.9553   -4115.5945   -3046.0434    -474.3852   -213.39253     3.553823    -4256.429 
12074000    279.37726   -4172.0425   -3693.1994   -4172.0425            0   -3486.9428    18.235116    23.947149    22.548353    9846.3929   -2685.7954    -4144.539   -3630.4941    135.63102    482.16059    588.38098   -4193.9228 
12075000    288.48054    -4174.814   -3680.3683    -4174.814            0   -3741.9076    18.455821    23.778419    22.472745      9862.17   -3454.1721   -3432.1913   -4339.3592   -39.258513   -453.45996     15.11648   -4218.5655 
12076000    273.68069   -4160.4739   -3691.3946   -4160.4739            0   -2793.5639    18.393004     23.84705     22.32811    9793.5308   -2192.4729   -3826.7153   -2361.5034    883.62836    4.5769258   -126.72892   -4090.3954 
12077000    266.65965   -4164.1435    -3707.098   -4164.1435            0    -2450.546    18.180952    23.897683    22.575057    9808.4699   -2529.3593    -2597.647   -2224.6318    766.78725     9.159752    163.90101     -4057.64 
12078000    293.53947   -4131.9364   -3628.8198   -4131.9364            0   -2711.6444    18.482564    23.955153    22.253205    9852.6654   -3065.4369   -2976.9001   -2092.5961   -130.25674   -161.43423   -638.58558   -4018.4587 
12079000    275.35464   -4166.7786   -3694.8301   -4166.7786            0   -1942.7485    18.344336    23.557961    22.604151    9768.5001    -2006.472   -524.98183   -3296.7916    14.808585    25.170394    230.65547    -3971.601 
12080000    288.33755   -4137.9221   -3643.7214   -4137.9221            0   -2529.4065    18.295698    24.093328     22.20654    9788.7371   -2095.3666   -2289.9201   -3202.9327   -194.05625    95.427061    -10.99132   -4004.8162 
12081000    275.88435   -4157.3956   -3684.5392   -4157.3956            0   -2935.6243    18.250521    23.881212    22.476283    9796.1653   -2205.7974   -3710.9495   -2890.1261    641.97678     595.5021    105.25866   -4103.9431 
12082000    267.38273   -4167.1592   -3708.8743   -4167.1592            0   -3781.3233    18.470842     23.83474    22.439906    9879.1175   -5155.2075   -1997.3496   -4191.4128   -474.49473     349.7093   -347.21235   -4253.6753 
12083000    257.87749   -4143.8066   -3701.8135   -4143.8066            0   -3034.6016    18.497987    23.595026    22.415868    9783.6404    -3756.189   -1637.8672   -3709.7484    503.71664   -302.48643    441.12674   -4134.8036 
12084000    296.99776   -4141.3011   -3632.2572   -4141.3011            0   -2893.5971    18.222338     23.97054    22.547411    9848.6926   -2532.7626   -3020.1608    -3127.868    -569.8361    309.72124   -308.61489   -4047.8734 
12085000    285.20486   -4175.5167   -3686.6854   -4175.5167            0   -3292.1504    18.402781    24.077239    22.237493    9853.1696   -3176.8187    -3807.071   -2892.5615    934.21166   -7.4666509   -288.57656    -4159.762 
12086000    276.68951   -4152.7238   -3678.4875   -4152.7238            0    -3209.905    18.484451    23.652866    22.608233    9884.5513   -1743.6886   -2641.0853    -5244.941    558.10401     143.8195   -134.62277   -4141.2147 
12087000    272.76744   -4176.2726   -3708.7585   -4176.2726            0   -3310.8547    18.507656    23.820089     22.23621    9802.9225   -3739.1695   -2764.4304    -3428.964   -168.20421   -69.997632   -295.95057   -4182.0967 
12088000    286.78703   -4134.1184   -3642.5752   -4134.1184            0   -3549.9877     18.32602    23.934562    22.635976     9928.711   -3891.2516   -2859.6219   -3899.0897    -296.1303   -736.78696    -361.9849   -4156.6137 
12089000    269.78554   -4181.7191   -3719.3159   -4181.7191            0   -4370.9448    18.385869    23.922578    22.501113    9896.8306   -4746.6925    -4443.194   -3922.9479    183.09226    339.37036    692.40938   -4350.1968 
12090000    274.46033   -4158.5149   -3688.0992   -4158.5149            0   -1942.7946    18.401077    23.622183    22.342322    9711.6175   -1914.9567   -1661.7612   -2251.6658    1674.9936    220.92126    651.39906    -3963.265 
12091000    264.99559   -4176.6811   -3722.4877   -4176.6811            0    -780.5147    18.155035    23.659472    22.385141    9615.2809   -721.53239   -1209.8634   -410.14835   -64.972516   -168.84719   -9.6686464   -3831.9385 
12092000    276.82845   -4142.6338   -3668.1593   -4142.6338            0   -1660.8722    18.235619    23.886332    22.352308    9736.2641   -535.31025   -1915.5284    -2531.778   -710.54137    -131.9254   -188.69543   -3903.9923 
12093000    269.14602   -4179.3004   -3717.9934   -4179.3004            0   -2198.6817    18.315047    23.548699    22.603999    9749.0037   -2140.4783   -2199.2484   -2256.3185   -900.25652   -101.99301     258.9621   -4030.6002 
12094000    275.54549   -4166.2437   -3693.9681   -4166.2437            0    -2820.268     18.49829    23.639782    22.291274    9747.8744   -3423.5481   -2864.5082   -2172.7478   -542.93067    494.53881     185.6122   -4094.9052 
12095000    276.62101   -4181.6203   -3707.5014   -4181.6203            0   -3510.2506    18.230392    24.018673    22.441039    9826.2538   -2967.3162   -3663.8607   -3899.5748    23.532027    783.11788   -194.60215   -4210.5407 
12096000    279.93336    -4151.181   -3671.3848    -4151.181            0   -3324.5274    18.173086    23.964009    22.493477    9795.9089   -4285.7456   -3507.7543   -2180.0824    691.04443   -694.54004    210.80902   -4146.3377 
12097000    279.81768   -4165.0218   -3685.4239   -4165.0218            0   -3910.1502    18.586839    23.501338    22.462091    9811.7917   -3706.9419   -2991.3871   -5032.1217   -455.03597    542.14443   -442.61724   -4244.9465 
12098000    257.04624   -4156.8837   -3716.3152   -4156.8837            0   -3596.7714    18.419557    23.735302    22.542355    9855.3764   -2781.5663   -1768.3378   -6240.4101   -206.80553   -337.99207     44.93009   -4233.2811 
12099000    267.34407    -4138.595   -3680.3764    -4138.595            0   -3710.0019    18.340024    24.111951    22.311793    9866.5818    -3140.878    -4853.102   -3136.0257   -187.26778    426.00883   -252.83357   -4214.2234 
12100000    270.90339   -4176.6768   -3712.3577   -4176.6768            0    -2496.111    18.173729    23.733492    22.480307    9696.3422   -1161.2938   -3844.5291   -2482.5101    223.48145    570.43628     884.8021   -4065.3357 
12101000    279.55299   -4211.7983    -3732.654   -4211.7983            0   -1550.8658    18.436459    23.544293    22.184812    9629.8363   -1858.2939   -1292.4447   -1501.8589    457.01497   -459.79023   -40.820655   -3950.4596 
12102000    283.10121   -4154.4355   -3669.2097   -4154.4355            0   -3169.1578    18.428678    23.756588    22.374632    9795.6704   -3050.0083   -2640.0353   -3817.4297    394.06783    46.679993     -112.067   -4121.9549 
12103000    289.44764   -4170.3976   -3674.2943   -4170.3976            0   -3206.5127    18.111767    23.997642    22.536981    9795.4666   -2442.5197   -3463.8731   -3713.1454    -330.9398    234.29841    611.24888   -4132.3665 
12104000    274.66133   -4165.7457   -3694.9856   -4165.7457            0   -3643.8497    18.333564    23.851418    22.441425      9813.22   -3107.9055   -4411.0135   -3412.6301    5.1522819    866.89073   -125.24118   -4216.4779 
12105000    274.07991   -4129.3881   -3659.6245   -4129.3881            0   -3060.9112    18.528259    23.502566    22.462583     9781.593   -4142.2003   -833.09697   -4207.4364   -811.49764    446.98485   -1011.8389   -4096.2773 
12106000    259.56627   -4157.6278   -3712.7401   -4157.6278            0    -3710.346    18.326011    24.030279    22.438196    9881.3142   -3359.5932   -5295.1592   -2476.2855    1107.3383    61.501364    354.68016   -4247.4337 
12107000    272.14374    -4165.405   -3698.9599    -4165.405            0   -4642.9678    18.217139    23.978562    22.655815    9896.5312   -3599.2122    -5569.571   -4760.1201    522.87087    585.49678   -329.04742    -4369.083 
12108000    278.95118   -4145.9542   -3667.8415   -4145.9542            0    -3552.991    18.547075    23.954351    22.355058    9931.9756   -2929.8291   -3704.8653   -4024.2786    153.38722   -407.29987    792.56607    -4182.484 
12109000    291.79945   -4195.9512   -3695.8169   -4195.9512            0   -3984.9313    18.402993    23.764019    22.479861    9831.0971   -4182.5941   -3317.2134   -4454.9864    157.59941    137.00727   -355.65586   -4267.1623 
12110000    271.14286   -4158.8448   -3694.1152   -4158.8448            0   -2404.4106    18.220889    23.932689    22.325264    9735.4864   -1963.9524   -4317.6531   -931.62616   -815.83011   -183.52585    89.048731   -4035.4984 
12111000    271.72144   -4144.8115   -3679.0903   -4144.8115            0   -2896.8603    18.341139    23.851881    22.448176    9820.4185   -4680.0768   -1762.7713   -2247.7327   -597.66248   -261.02744    -23.01668   -4093.9807 
12112000    280.34163   -4163.1991   -3682.7032   -4163.1991            0   -3443.1791    18.381053    23.715581    22.569678    9838.5141   -3468.4951   -2859.7308   -4001.3114    301.73357   -301.93643    321.30136   -4176.7465 
12113000    271.92052   -4167.2678   -3701.2053   -4167.2678            0   -3183.8257     18.38984    23.985131    22.210368    9796.6094   -2511.4722    -4151.295   -2888.7098   -362.61563   -169.15458    360.91222   -4156.0896 
12114000    269.16973   -4100.8129   -3639.4652   -4100.8129            0   -2517.7549    18.294057    23.876637    22.562677    9855.3896   -1594.2873   -2804.9838   -3153.9936   -841.96055   -699.65142    579.30874    -4001.344 
12115000     285.1263   -4138.2898    -3649.593   -4138.2898            0   -4707.6092    18.423581    23.976437    22.689473    10022.662   -4179.2786     -5381.79   -4561.7588   -1306.7569    208.55055    726.57986   -4337.7054 
12116000    264.76318   -4167.1168   -3713.3218   -4167.1168            0   -2967.7729    18.524379    23.763207    22.275492    9805.6413   -3521.8719    -2638.134   -2743.3127   -403.70728    65.481471    661.68553   -4137.7288 
12117000    267.59905   -4188.4356     -3729.78   -4188.4356            0   -2723.3431    18.192701    23.691536    22.668958    9770.6162   -3249.4217   -2499.9033   -2420.7044    120.60961    827.27626    62.189763   -4117.8412 
12118000    278.58244   -4197.2555   -3719.7747   -4197.2555            0   -3313.5878    18.213809    24.122388     22.25847    9779.4942   -2347.8961   -4118.3744   -3474.4931    812.44826    471.36688    158.55005   -4192.3715 
12119000    282.24458   -4159.5607   -3675.8031   -4159.5607            0   -3488.9741    18.432433    23.779565    22.512239    9867.4574   -3827.9563   -3427.7899   -3211.1763    429.69053    209.13644    874.39362   -4177.8901 
12120000     269.6375   -4158.5876   -3696.4382   -4158.5876            0   -3458.0513    18.525212    23.730101    22.468736    9877.3722   -3193.5762   -3081.5158    -4099.062    27.455342    337.27132    341.15171   -4194.5751 
12121000    275.68222   -4177.5469    -3705.037   -4177.5469            0   -2795.6509    18.292518    23.910574    22.441662    9815.6375   -2404.0304   -3844.6418   -2138.2805    259.22504    -1010.343    320.57774   -4105.2372 
12122000    288.91119   -4156.2543   -3661.0704   -4156.2543            0   -2764.7675    18.216293    23.835968    22.462383    9753.2336    -1852.712   -2400.5838   -4041.0066    529.73252    425.61617   -758.93546   -4054.3335 
12123000     258.2045   -4167.5117   -3724.9581   -4167.5117            0    -3519.842    18.569258    23.639677    22.299384    9788.7888   -4156.4391   -3489.1844   -2913.9026   -346.71789   -507.14823    -156.8289   -4227.4487 
12124000    285.67609   -4161.0237   -3671.3847   -4161.0237            0    -3251.536    18.435661    23.581038    22.552528    9804.3062   -3927.5218   -2322.5771   -3504.5091    1192.4624    599.53628    711.90128    -4136.308 
12125000    291.01009   -4137.2409   -3638.4596   -4137.2409            0   -3826.6988    18.220422    24.066679    22.462905     9850.097   -2109.7332   -3997.1684   -5373.1949    313.97891   -402.73335   -480.16265   -4188.1785 
12126000    271.68527   -4155.2328   -3689.5735   -4155.2328            0   -2759.3956    18.297159    23.907124    22.364962    9783.1603   -1698.6548   -3974.0511   -2605.4808     -379.218   -53.965199    441.87055   -4083.2768 
12127000    290.48151   -4182.5999   -3684.7245   -4182.5999            0   -2589.6987    18.460494    23.480678    22.570179    9783.3805   -2096.9433   -3028.0838   -2644.0688   -578.79409   -40.321247   -266.97214   -4054.2242 
12128000    282.76987   -4164.9579      -3680.3   -4164.9579            0   -2889.6774    18.296038    23.908076     22.38954    9793.7012   -2424.9234   -3844.5302   -2399.5787   -478.06912   -117.96106   -45.910226   -4093.0358 
12129000     290.9161   -4145.8439   -3647.2236   -4145.8439            0   -2484.1323     18.10704     24.05993    22.511538    9807.2441   -3146.5937    -2941.707   -1364.0962   -896.45881   -1014.3935    1153.6899   -4002.5256 
12130000    278.92339   -4189.7823   -3711.7171   -4189.7823            0   -3533.2869    18.400399    23.939103    22.380518    9858.3728   -4294.3928   -3247.8607   -3057.6073   -18.751021    140.52445   -642.29501   -4219.7128 
12131000    273.49567   -4186.7103   -3717.9481   -4186.7103            0   -3593.0864     18.36179    23.640715     22.48066    9758.5363   -4411.6564   -3269.3309    -3098.272   -259.56943   -311.77326   -1186.0831   -4229.3098 
12132000    287.11919   -4122.8524   -3630.7399   -4122.8524            0   -4068.5925    18.440303    23.930366    22.414287    9891.0482   -3740.2111   -3964.0513    -4501.515   -142.46041   -125.79748    422.15389   -4217.6376 
12133000    262.60629   -4138.8927   -3688.7946   -4138.8927            0   -3214.0405    18.151029     24.13859    22.468763    9844.4691   -3157.6987   -3567.8249   -2916.5979   -373.07201    1280.2497   -116.11966   -4150.2391 
12134000    276.48398   -4180.1169   -3706.2329   -4180.1169            0   -5017.4328    18.390672    24.014824    22.519387    9945.6596   -4833.7478   -4942.3056    -5276.245   -577.29896     14.66639    359.88763   -4433.9977 
12135000    262.17228   -4183.0685   -3733.7141   -4183.0685            0   -3027.6322    18.359856    23.774413    22.460817    9804.0301   -2387.9142   -2608.2271   -4086.7555    22.557207   -420.85774   -80.730525   -4166.6102 
12136000    279.62116   -4161.8986   -3682.6375   -4161.8986            0   -2862.2324    18.646561    23.630229    22.247326    9802.6725   -3320.4002   -2684.3082   -2581.9887   -4.8191265    510.18258    829.92412   -4091.8278 
12137000    270.76953   -4171.3268   -3707.2371   -4171.3268            0   -2613.2415    18.236554    23.893089    22.526194    9815.2844   -1103.7059   -2854.6884   -3881.3302   -585.86599    179.68567   -840.74135   -4081.3117 
12138000    279.19926   -4170.0831   -3691.5451   -4170.0831            0   -2947.4978    18.040176     24.12219    22.461251    9774.4299   -1306.2036    -3421.029   -4115.2609   -705.71637    381.63596    573.79887    -4111.711 
12139000    257.62677    -4180.442   -3738.8786    -4180.442            0    -3732.161    18.592883    23.712835    22.348675    9853.3063     -3571.46   -4929.7585   -2695.2647   -566.91862    610.34085   -24.450017   -4275.1915 
12140000    272.76649   -4157.5021   -3689.9897   -4157.5021            0   -2981.0666     18.49069    23.614442    22.507437     9827.812    -3552.481   -2814.3424   -2576.3764   -626.71077    370.27448    473.72236   -4117.2616 
12141000    263.81905   -4171.6699   -3719.4931   -4171.6699            0   -3333.2867    18.292973    23.856746    22.415365    9782.3073   -2449.1308   -2815.3658   -4735.3635    443.96205    426.76388   -337.78562   -4195.0362 
12142000    273.67253   -4178.6601   -3709.5948   -4178.6601            0   -2488.1904    18.326449    23.762403    22.434582    9769.8223   -3061.6497   -2010.5741   -2392.3474   -113.56979    303.33317   -1051.4386   -4064.1192 
12143000    271.35808   -4172.6976   -3707.5992   -4172.6976            0   -3112.6623    18.539639    23.778302    22.277461    9820.8212     -3018.63   -2347.9909   -3971.3659   -335.14698   -185.07318   -84.993521   -4153.4152 
12144000    265.93888    -4159.634   -3703.8239    -4159.634            0   -2372.7069    18.216841     23.60062    22.597397    9715.2701    -1714.597   -1336.0261   -4067.4975   -1033.7485   -314.98687   -432.08619   -4040.0062 
12145000     278.1787   -4142.9772   -3666.1884   -4142.9772            0   -3573.4041    18.245353    24.246057    22.250414    9843.0906   -3516.0064   -5178.9101   -2025.2958    75.293117   -1.2906912   -195.07923   -4179.1555 
12146000     274.9375   -4179.3802   -3708.1467   -4179.3802            0   -3763.4895    18.308161    23.829657    22.507409    9819.4695   -4263.7707   -3806.4671   -3220.2308   -110.84602   -644.37754   -204.52245   -4247.1043 
12147000    270.34574   -4188.5448   -3725.1815   -4188.5448            0   -2653.6635     18.60653    23.569661    22.322168    9789.3784   -4079.3095   -1815.7884   -2065.8926   -644.52246     218.3458   -241.76729   -4104.0398 
12148000    263.87442   -4191.3807    -3739.109   -4191.3807            0   -3278.5599    18.208733    23.869846    22.545971    9799.3729   -2365.5874   -4151.1348   -3318.9576   -608.23459    197.37314   -628.32925   -4207.6605 
12149000     294.7832   -4158.0081   -3652.7597   -4158.0081            0   -3496.8088    18.339046    24.029916     22.35564    9851.8118   -3080.2177   -3966.0841   -3444.1244    660.66492   -893.74364    636.34198   -4155.1762 
12150000     266.4821   -4150.7655   -3694.0243   -4150.7655            0   -3765.8197    18.403933    23.879829     22.48792    9883.0534   -3219.4499   -5931.9589   -2146.0503    689.46608   -535.54758    193.53737   -4236.8077 
12151000    273.94372   -4128.3762   -3658.8461   -4128.3762            0   -2836.5809     18.54447    23.640962    22.508669    9868.0056   -2396.1823   -2957.2763    -3156.284   -92.779346    85.922537    -570.1595   -4067.0719 
12152000    273.52172   -4181.2964   -3712.4896   -4181.2964            0   -4056.9491    18.475247    23.859255    22.393024    9870.9714   -5334.1122   -3291.3233   -3545.4119   -248.88309   -160.84412   -248.78821   -4296.5198 
12153000    278.55804   -4146.7553   -3669.3164   -4146.7553            0   -4598.8953    18.210835    24.085542    22.680021    9947.8614   -4169.6401   -4290.8555   -5336.1905   -1095.5795   -2.3181417    251.77548   -4336.5211 
12154000    265.89367   -4159.5392   -3703.8066   -4159.5392            0   -3256.9662    18.306059    23.835106    22.478143    9807.8175   -2571.4998   -2999.5463   -4199.8524   -628.78041   -343.66565    443.27616   -4169.6731 
12155000    267.91758   -4154.1938   -3694.9922   -4154.1938            0   -2309.7242    18.564145     23.56303    22.365159    9783.1356   -1783.5016   -1205.4505   -3940.2204   -962.52537    390.79673    619.84153   -4024.5367 
12156000    254.63753    -4184.775    -3748.335    -4184.775            0    -2118.061    18.108168    23.627823    22.640061    9686.6996    -1022.647   -3050.1737   -2281.3624    -80.07353    704.15026   -653.71715   -4047.5547 
12157000    265.83402   -4156.7225   -3701.0921   -4156.7225            0   -4301.7763    18.391621     23.98338    22.332379    9850.6613   -4376.6767   -3097.3549   -5431.2973    313.98023   -302.05982   -870.46903    -4319.093 
12158000    282.46639   -4176.8837    -3692.746   -4176.8837            0   -3544.3462    18.436251    23.651751    22.529283    9823.8856    -3764.824    -3122.396   -3745.8185   -106.10179   -981.65173     721.5521    -4200.549 
12159000    278.15952   -4165.8317   -3689.0759   -4165.8317            0   -3219.7476    18.529763    23.700986    22.387734    9832.1028   -2675.6036   -3954.0024   -3029.6368    965.73967    302.71991    522.02357   -4150.7591 
12160000    292.74418   -4148.5746   -3646.8211   -4148.5746            0   -4131.4717    18.586362    23.840977    22.489519    9965.4888   -3760.4967   -3924.9937   -4708.9248   -297.34305   -101.42127    572.82627   -4247.2745 
12161000    261.79782   -4170.5094   -3721.7969   -4170.5094            0   -4076.8302    18.314148    23.991375    22.457618    9867.4641   -5218.3815   -4046.4728   -2965.6361    533.53068    153.78175    88.753988   -4308.4806 
12162000    276.89723   -4163.4259   -3688.8336   -4163.4259            0   -4273.0292    18.437772    24.068011    22.322794    9905.9741   -4005.2041   -3836.9018   -4976.9817   -334.19371   -37.872678   -21.066408   -4306.1516 
12163000    261.87303   -4129.2505   -3680.4091   -4129.2505            0   -2890.8999    18.474853     23.50492    22.582368    9806.3919   -3474.1053   -2558.7068   -2639.8877    675.50408    82.628855   -239.95903   -4093.8545 
12164000    279.15282   -4179.2683   -3700.8099   -4179.2683            0   -2996.7823    18.397767    23.812874    22.295504    9767.7429   -2879.4383   -3906.9627   -2203.9458    278.10567   -271.05353   -184.88493    -4127.709 
12165000    278.54341   -4169.0081   -3691.5942   -4169.0081            0   -3016.1039    18.273229    23.893023    22.437858    9796.4287   -3001.5799   -2261.4952   -3785.2366    401.14693   -312.89142    966.05354   -4122.5076 
12166000    278.50325   -4145.7476   -3668.4026   -4145.7476            0   -2811.9549    18.283767     23.82341    22.497677     9799.576    -2318.659   -3098.3666    -3018.839   -603.62997     108.5151    719.96387   -4070.2781 
12167000    260.98093   -4164.1085   -3716.7962   -4164.1085            0   -2535.0287    18.521424    23.816174    22.136094    9764.4402   -3172.0969   -3511.1869   -921.80228   -902.27979   -256.58868     217.5346   -4077.7953 
12168000    288.61348    -4147.364   -3652.6904    -4147.364            0   -3040.0808    18.327002    23.644885    22.693268    9833.8978   -2110.5764   -3442.1847   -3567.4812    52.291667   -201.39216   -313.11968   -4088.6906 
12169000    289.65627   -4151.2105   -3654.7496   -4151.2105            0   -3279.7272    18.307337    24.243599    22.091712    9805.0917   -4295.6399    -4404.394   -1139.1478    274.46963   -587.93969   -75.860496   -4123.7414 
12170000    287.66076   -4177.9784   -3684.9377   -4177.9784            0   -3732.8797    18.338791    23.841559    22.599428    9881.0433   -2939.8815   -3898.9705   -4359.7872   -540.68288   -464.57186    615.09142   -4222.8639 
12171000    265.98585   -4150.1195   -3694.2288   -4150.1195            0   -4236.6507    18.586203    23.707567    22.453242     9893.654   -4510.7484   -2346.3337   -5852.8699   -173.51177   -203.87905   -42.501046   -4305.5301 
12172000    278.74454   -4173.7655   -3696.0069   -4173.7655            0    -3427.878    18.368385    23.771259    22.460275    9807.0464   -2687.9312   -2920.4575   -4675.2454   -368.06345    120.50134   -141.12873   -4186.2815 
12173000    268.30401   -4167.7726   -3707.9088   -4167.7726            0   -2949.4339    18.237271    23.909275    22.441805    9785.5231   -3200.8835    -3886.315   -1761.1033   -475.68742    240.92587    493.55386   -4128.8278 
12174000    260.45234   -4156.1794    -3709.773   -4156.1794            0   -3325.9538    18.625208    23.718972    22.176981    9797.1422   -3392.8378   -3018.0492   -3566.9744    146.56931   -114.47878   -37.446929   -4184.9895 
12175000    283.38347   -4163.6046    -3677.895   -4163.6046            0   -3464.8741    18.360578    23.734356    22.593189    9845.5805   -2284.5792   -2220.2422   -5889.8008    785.79883   -151.86824    77.232863   -4175.4083 
12176000     269.6138   -4148.1029   -3685.9941   -4148.1029            0    -3308.959    18.153135    24.248597    22.438513    9877.1654    -2526.714   -3841.4073   -3558.7555   -436.65308   -895.36072   -344.84102   -4162.6441 
12177000    281.45586   -4149.1288   -3666.7231   -4149.1288            0    -2998.028    18.330096    23.756195    22.347081     9731.111   -1960.2556   -3341.7086   -3692.1198   -189.29015   -84.652251   -701.86862    -4092.198 
12178000    273.68329   -4135.5686   -3666.4848   -4135.5686            0   -2736.1655    18.613745    23.480456    22.445088    9809.8326   -3425.3877   -2458.6473   -2324.4614    297.79435   -383.48022   -1015.1961    -4057.938 
12179000    268.61244    -4144.047   -3683.6545    -4144.047            0   -3785.7462    18.361648    24.038412     22.44068    9904.9765   -3984.4694   -3668.1129   -3704.6563    803.10574   -787.84352    518.15452   -4230.5204 
12180000    274.28056    -4168.558   -3698.4505    -4168.558            0   -3967.0079      18.2511    23.976791    22.545034    9865.7702    -3471.312   -4869.3895   -3560.3222   -941.69028    715.23967   -135.62111   -4269.2321 
12181000    278.32032   -4152.8358   -3675.8043   -4152.8358            0   -2695.8831     18.39143    23.693547    22.467605    9790.4432   -2114.4587   -2986.0277   -2987.1628    511.01263    261.65768    286.81254   -4060.7321 
12182000    291.27517   -4145.6096   -3646.3739   -4145.6096            0   -3695.4457    18.674303     23.66334    22.390542    9894.2993   -5088.2759   -3297.7735   -2700.2878   -100.88104   -380.49854    545.04034   -4179.6201 
12183000    267.26917   -4173.6208   -3715.5306   -4173.6208            0   -2822.7005    18.187328    23.869324    22.594855     9808.861   -1645.8116   -2250.2168   -4572.0732   -343.34912    197.64331   -856.39051   -4119.3241 
12184000    271.62325    -4180.107    -3714.554    -4180.107            0   -3886.0477     18.19251    24.120041    22.277742     9775.564    -3480.273   -4674.3057   -3503.5645    386.99268    52.016207    20.834815   -4268.5746 
12185000    278.28334    -4141.166   -3664.1978    -4141.166            0    -2902.213    18.372912    23.700673    22.544606    9817.0574    -2916.081   -2336.4555   -3454.1024   -1115.0091   -5.1908271    256.15572   -4079.7126 
12186000    276.41214   -4130.6572   -3656.8962   -4130.6572            0    -2961.856    18.652567    23.552309    22.349554    9818.4058   -3078.6092   -2154.4545   -3652.5043   -105.87901   -72.302855    60.044788   -4081.0085 
12187000    270.53461    -4157.603   -3693.9159    -4157.603            0   -4356.7812    18.232414    24.025147    22.600082    9899.6592   -3425.3875   -4639.7288   -5005.2272    365.82134   -975.87145     458.8307   -4322.9322 
12188000     280.4972   -4137.6287   -3656.8661   -4137.6287            0    -2486.116    18.219128    23.942712    22.462149    9798.3338   -1980.4026   -2222.1814   -3255.7639   -715.48534    273.26318   -244.32102   -4012.1287 
12189000    280.79867   -4197.2449   -3715.9656   -4197.2449            0   -3687.9128    18.496419    23.935514     22.19243    9825.0614   -4780.4626   -2614.9498   -3668.3259   -392.80861   -797.06944    -307.9816   -4244.4009 
12190000    289.27545   -4138.9783   -3643.1701   -4138.9783            0   -3532.8215    18.383012    23.820497    22.561796    9879.6408   -4160.7682   -4031.9506   -2405.7456   -364.24749    319.96205   -131.05134   -4152.1947 
12191000    275.00492   -4136.6356   -3665.2866   -4136.6356            0   -4476.4638    18.448638    23.899795    22.478067    9910.9998   -4933.5922   -5386.5818   -3109.2175    1303.7171   -139.70248     312.4435   -4312.3225 
12192000    266.55652   -4124.9587     -3668.09   -4124.9587            0   -4032.3988    18.375384     23.90641    22.517589    9891.7394   -4324.7557   -3186.4208     -4586.02   -304.71935   -128.72965   -217.97956   -4249.8073 
12193000    266.47366   -4125.9172   -3669.1904   -4125.9172            0   -4155.3761    18.326387    24.031782    22.571301    9940.7557   -3964.8669   -4086.3671   -4414.8944   -755.94015    104.15672    341.51075   -4271.6191 
12194000    268.92115   -4120.3791   -3659.4575   -4120.3791            0   -3103.3705    18.422568    23.829859    22.375698    9823.0923   -3927.9448   -2603.8651   -2778.3016   -110.87636     500.9579    437.49519   -4104.0455 
12195000    271.58351   -4161.9858   -3696.5009   -4161.9858            0   -3537.9223    18.299229    23.753161    22.614874    9829.8834   -3318.0341    -3688.602    -3607.131   -65.449847    171.34494   -52.369656   -4203.6931 
12196000    273.77329   -4147.5401   -3678.3021   -4147.5401            0   -3842.0634    18.377336     24.01607    22.394609    9883.8919   -4600.5223   -3305.9305   -3619.7374    502.64125   -299.70761    -579.1114   -4232.1218 
12197000    278.09613   -4163.2781   -3686.6308   -4163.2781            0   -3700.3194    18.433805    23.780959    22.405023    9821.7699   -3707.8876   -2862.2982   -4530.7723     209.3191    134.03933    800.99652   -4216.6662 
12198000     276.7401   -4147.4247   -3673.1017   -4147.4247            0    -3257.171    18.376147    23.561399    22.761644    9855.0574   -4117.0632   -2887.6555   -2766.7943   -641.36481   -639.51535    317.37766   -4141.2415 
12199000    293.54675   -4166.0473   -3662.9182   -4166.0473            0   -2717.6173    18.444041    24.043428    22.238453    9861.8193   -3115.7954   -2202.2151   -2834.8412   -3.5650359   -216.12072   -61.284676   -4053.7782 
12200000    276.44748   -4158.7842   -3684.9627   -4158.7842            0    -3793.439    18.184102    23.913364    22.653467    9850.7027   -3256.4965   -4929.8609   -3193.9595   -266.58938   -817.62657    582.95461   -4229.9372 
12201000    276.63985   -4154.9635   -3680.8123   -4154.9635            0   -3557.9483    18.550232    23.856154    22.301779    9869.3667   -4247.1586   -3909.0168   -2517.6697    583.01813    171.80307    162.23865   -4192.9241 
12202000    283.09528   -4142.5237    -3657.308   -4142.5237            0   -4878.7976    18.492481    23.825313    22.658103    9982.9143    -5121.319   -4253.8435   -5261.2302    807.43199    110.84476   -7.2990523   -4367.6149 
12203000    273.65312   -4179.4295   -3710.3974   -4179.4295            0   -4016.8895    18.325518    23.851161    22.485372    9828.0165   -2397.5931   -4727.1668   -4925.9086   -397.57828     -411.974    856.30275   -4286.1444 
12204000    260.95766   -4154.0816   -3706.8091   -4154.0816            0   -4514.7317    18.343523    24.048626    22.529918    9938.7699   -2694.4297   -5496.4171   -5353.3483   -226.26708      775.984    31.942613   -4361.2048 
12205000    266.53756   -4160.2134   -3703.3772   -4160.2134            0   -4370.8803    18.518547    23.755965    22.534795     9913.641   -3520.5275   -4354.7892   -5237.3242    1247.7175    234.26412    188.60989   -4335.3203 
12206000     263.1657   -4165.6467   -3714.5897   -4165.6467            0   -3966.8553    18.455991    23.683145     22.48817    9829.4869    -3997.759   -3520.3104   -4382.4965   -152.96885   -474.02575   -115.86078   -4283.2503 
12207000    290.02173   -4193.5449   -3696.4576   -4193.5449            0   -3079.8638     18.20804    23.904071    22.442666    9768.0868   -1709.1426   -3722.3176   -3808.1311   -617.34542   -466.95825    323.03812   -4135.2074 
12208000    281.07226    -4158.658   -3676.9098    -4158.658            0   -1972.1305    18.374611    23.759374    22.264332     9719.923     1210.743   -3064.0207   -4063.1138    1529.5751   -137.14647   -413.01773   -3956.4694 
12209000    284.10577   -4184.5154   -3697.5679   -4184.5154            0   -2790.9868    18.410913    23.603903    22.451518    9756.7429   -2703.1143   -2204.6429   -3465.2032    594.20067   -516.72652    471.28142   -4094.7032 
12210000    281.06147   -4134.9586   -3653.2289   -4134.9586            0    -2887.836    18.094331    24.129281    22.512148    9828.8759   -1874.4382   -2167.4333   -4621.6366   -155.06968    9.4996313    98.549645    -4067.183 
12211000    266.37332   -4159.6952   -3703.1405   -4159.6952            0   -3034.5201    18.328674    23.948941    22.314468    9794.9877   -2565.9559   -2526.8065   -4010.7979   -504.44381   -352.53449    170.82302   -4136.6212 
12212000    276.80624   -4164.0453   -3689.6089   -4164.0453            0   -1793.2699    18.500303    23.322422    22.564485    9735.9409   -1346.8314    -997.6094   -3035.3689    951.91801    238.14164    399.66081    -3944.233 
12213000    281.24605   -4146.4311    -3664.385   -4146.4311            0   -2805.6563    18.403972    23.747994    22.321223    9755.6563    -2184.995   -2630.1345   -3601.8394    579.98931    857.12493    351.67377   -4063.5633 
12214000    262.61836   -4137.3718   -3687.2529   -4137.3718            0   -3049.9926    18.249052     23.98939    22.320038    9771.3468   -2030.9628   -2007.0914   -5111.9237    485.23416   -300.91839    954.92082   -4121.8923 
12215000    256.97112   -4195.1089   -3754.6691   -4195.1089            0   -3833.8806    18.237533    24.032266    22.524463    9872.2298    -4610.465   -3286.7049   -3604.4718    138.54778   -172.94791    342.50664   -4306.6573 
12216000    274.25009   -4180.4267   -3710.3714   -4180.4267            0   -3360.4967    18.487265    23.717156    22.316285    9784.9177   -3553.2235   -3112.5733   -3415.6934   -594.62595      -1169.3    152.48001   -4189.9244 
12217000    265.40285   -4181.2678   -3726.3764   -4181.2678            0    -2024.762    18.401626    23.502615    22.500631    9731.2152   -2761.4905    -539.9989   -2772.7967   -903.63082    46.854685   -290.43229   -4013.7302 
12218000    273.72129   -4152.6987   -3683.5498   -4152.6987            0   -3781.9807    18.350076    24.124734    22.391214    9912.3822   -3600.8116   -4297.7927   -3447.3379    901.41707    681.47588    120.84827   -4230.2802 
12219000    276.97862   -4138.0213   -3663.2894   -4138.0213            0   -3102.9764    18.280107    24.077528    22.590957    9943.1787   -1932.1417   -3899.1229   -3477.6647   -365.40511    305.33263   -216.63546   -4113.2553 
12220000    266.73635   -4177.5902   -3720.4132   -4177.5902            0   -2856.8433    18.411196    23.695526    22.479494    9806.9708   -1914.4021   -3197.7594   -3458.3686   -1394.7463    -231.5162   -671.46023   -4129.0121 
12221000    275.23682   -4164.6112   -3692.8647   -4164.6112            0   -2529.9542    18.509431    23.658694    22.315909    9772.3364   -2462.0157   -3069.7941   -2058.0528    54.900586   -525.28683   -29.612472   -4053.4325 
12222000     272.3047   -4179.8467   -3713.1258   -4179.8467            0   -2361.1506    18.196819    23.736546    22.570752    9748.9764   -1055.4495   -2151.0739   -3876.9286    439.91656   -9.2801282    685.89158   -4048.8314 
12223000    270.98279   -4171.2619   -3706.8066   -4171.2619            0   -3872.0626    18.331552    23.954881    22.320531    9801.6179     -3556.94   -3406.2051   -4653.0427    417.74676   -498.69207    -121.8572   -4260.3046 
12224000    269.79658   -4144.9543   -3682.5322   -4144.9543            0   -3755.7043    18.519148     23.63326    22.619766    9899.9443   -2571.8213   -4130.7937    -4564.498   -212.53216    282.00061    198.64832   -4224.7828 
12225000     266.0562   -4161.8309   -3705.8197   -4161.8309            0   -2522.0104    18.519992    23.659568    22.395224    9813.0271   -3236.7541   -2148.0473   -2181.2298    34.733837     183.0696   -77.392442    -4066.752 
12226000    281.48029   -4166.4799   -3684.0323   -4166.4799            0    -2636.644    18.402451    23.816305    22.389288    9812.7409    -1568.536   -2897.9705   -3443.4255   -228.73326   -280.72744    496.59679   -4061.3592 
12227000      293.066   -4120.2217   -3617.9166   -4120.2217            0   -3431.9466    18.225357    24.072041    22.625434    9926.2655   -2692.4652   -3822.2392   -3781.1355    120.69749    234.89042   -243.10255   -4114.7403 
12228000     301.6661   -4179.1717   -3662.1263   -4179.1717            0    -2404.091    18.472997    23.738285    22.274017    9767.5409   -3149.0788   -3301.0997   -762.09436   -1507.5245   -331.91278    283.65376    -4004.588 
12229000    280.00278   -4151.4053   -3671.4902   -4151.4053            0   -3378.8326    18.425191    23.826935    22.496856    9876.4759   -2903.6605   -3619.8963    -3612.941   -450.52831    330.24701    320.73914   -4158.1714 
12230000    281.55867    -4123.057   -3640.4751    -4123.057            0   -3708.8152    18.507595    24.050224    22.215183    9888.2404   -2661.4117    -4545.986   -3919.0479    -1080.577   -186.57071    445.48348   -4175.3228 
12231000    291.47132    -4168.691   -3669.1192    -4168.691            0   -3658.8006     18.16057    23.954563    22.550298    9810.0231    -2169.338   -4244.3867    -4562.677   -317.76041    124.11023   -307.16299   -4192.5806 
12232000    283.35705   -4180.0391   -3694.3748   -4180.0391            0   -1760.7861    18.247682    23.766727    22.403565    9716.1503   -2109.5962   -2062.9528   -1109.8094    1325.0024    48.061918    174.64829   -3943.8783 
12233000    275.91806   -4185.6216   -3712.7075   -4185.6216            0   -2709.6705    18.451122    23.790994    22.261725    9772.2412   -2519.8573   -4320.1725   -1288.9817   -357.43527    349.54807   -169.25238   -4098.8846 
12234000      276.287   -4140.2255    -3666.679   -4140.2255            0   -1919.5252    18.277757    23.682118    22.668456    9812.1772    -1363.727   -2240.2725   -2154.5763    243.92124    233.04499   -415.22241   -3941.3641 
12235000    273.88495   -4183.1652   -3713.7358   -4183.1652            0   -2136.2987    18.347911    23.955676    22.145976    9733.9671   -3787.7213   -1308.5026   -1312.6722    238.23629   -58.702908    344.52753   -4017.0046 
12236000    273.60276   -4163.6369   -3694.6912   -4163.6369            0   -2626.0077     18.25604    23.535975    22.700625    9753.8615   -2622.9631   -1100.3014   -4154.7585   -34.146318   -643.26428   -5.1511225    -4068.241 
12237000    279.80405   -4174.0028   -3694.4282   -4174.0028            0   -3182.8403     18.49098    23.788197    22.235076    9780.4782   -3427.9687   -4255.0531   -1865.4992    159.70347   -891.18773    11.331201   -4148.4229 
12238000     281.4856   -4156.8973   -3674.4406   -4156.8973            0   -2546.1642    18.187961     23.81162    22.568599    9774.1175    -3499.753   -2395.1038   -1743.6358    716.61188    305.10703    320.99924   -4037.3848 
12239000    273.16437   -4156.6956   -3688.5013   -4156.6956            0   -1996.6835    18.223834    23.931523    22.229003     9694.604   -373.69004   -3086.4444    -2529.916    -136.0234    667.55399   -55.145084   -3970.8041 
12240000    281.37109   -4166.8938   -3684.6334   -4166.8938            0   -1802.7193    18.275802    23.758692    22.333533     9697.424   -3033.9599   -758.32277   -1615.8751    537.74908   -484.93985   -395.88876   -3939.5865 
12241000    264.88842   -4177.0518   -3723.0421   -4177.0518            0   -3337.0703    18.483645     23.52656    22.527115     9796.064   -1676.8674   -3406.6347   -4927.7089    243.22391    183.93379    651.61663   -4199.7945 
12242000    276.30563   -4162.0897   -3688.5113   -4162.0897            0   -2850.5444    18.471772    23.811583    22.302271    9809.4783   -2379.1158      -2572.6   -3599.9174    120.45291    245.41298    118.86293   -4096.3135 
12243000     272.5141   -4121.5964   -3654.5166   -4121.5964            0   -2957.5824    18.163335    23.912228    22.619871    9824.3935   -3066.2265   -2798.2718   -3008.2489   -40.778122    1.2308992    1499.2657   -4078.2751 
12244000    278.87702   -4153.8959   -3675.9102   -4153.8959            0   -2089.2731    18.334033    23.979589    22.217766    9767.8757   -2696.6901   -3497.3313   -73.798042   -450.35689   -616.74654    561.65916   -3973.5365 
12245000    285.85649   -4135.8978   -3645.9496   -4135.8978            0   -2627.3905    18.294024     23.71225    22.660169    9829.8104   -1901.7785   -1564.3887   -4416.0041    421.03467   -564.74812    762.37376   -4022.6062 
12246000      274.127   -4155.7578   -3685.9135   -4155.7578            0   -2811.2724    18.492019    23.757105    22.434228    9855.7343   -2798.5976   -3439.5219   -2195.6976   -593.61859    355.04396   -712.59946   -4089.9939 
12247000    266.29523   -4145.8029    -3689.382   -4145.8029            0   -3882.0305    18.226334    24.020655    22.514833     9857.185   -4307.6442   -3295.7079   -4042.7395     362.0908   -1010.3046    517.60647   -4247.4508 
12248000    283.72621   -4142.8788   -3656.5818   -4142.8788            0   -2399.4723    18.210757    23.840965    22.452479    9748.0137   -2433.7728   -2769.9867   -1994.6573   -255.70194    -112.1125    781.47516   -3997.7022 
12249000    279.67837   -4200.5743   -3721.2152   -4200.5743            0   -2584.1216    18.476099    23.515913    22.338146    9705.5302   -3154.4995   -1698.6239   -2899.2413    637.80389     318.7066    624.68512   -4086.9852 
12250000     280.3656    -4127.207   -3646.6699    -4127.207            0   -3657.2563    18.388548    23.798956    22.482909     9839.156   -3310.4452   -2136.5923   -5524.7314    47.106313    579.67115   -917.11241   -4171.4643 
Loop time of 320.509 on 64 procs for 250000 steps with 864 atoms

Performance: 134.785 ns/day, 0.178 hours/ns, 780.008 timesteps/s
381.6% CPU use with 16 MPI tasks x 4 OpenMP threads

MPI task timing breakdown:
Section |  min time  |  avg time  |  max time  |%varavg| %total
---------------------------------------------------------------
Pair    | 24.102     | 26.906     | 33.797     |  46.1 |  8.39
Bond    | 1.6627     | 1.959      | 3.0421     |  27.6 |  0.61
Kspace  | 164.05     | 173.42     | 179.92     |  30.9 | 54.11
Neigh   | 1.6622     | 1.8093     | 2.0048     |   8.3 |  0.56
Comm    | 40.975     | 45.598     | 48.46      |  32.4 | 14.23
Output  | 0.54361    | 0.54385    | 0.54524    |   0.1 |  0.17
Modify  | 49.106     | 55.872     | 63.061     |  59.0 | 17.43
Other   |            | 14.4       |            |       |  4.49

Nlocal:        54.0000 ave          62 max          43 min
Histogram: 1 1 1 4 1 0 0 2 4 2
Nghost:        2438.69 ave        2477 max        2396 min
Histogram: 1 2 2 1 1 3 0 3 1 2
Neighs:        12397.7 ave       14342 max        9895 min
Histogram: 1 1 2 2 2 0 1 1 3 3

Total # of neighbors = 198363
Ave neighs/atom = 229.58681
Ave special neighs/atom = 2.0000000
Neighbor list builds = 7733
Dangerous builds = 0

unfix		3
unfix		2
unfix		1

write_data	data.final.${pid} nocoeff
write_data	data.final.0 nocoeff
System init for write_data ...
PPPM initialization ...
  extracting TIP4P info from pair style
  using 12-bit tables for long-range coulomb (../kspace.cpp:340)
  G vector (1/distance) = 0.37264208
  grid = 24 27 27
  stencil order = 5
  estimated absolute RMS force accuracy = 0.0029138092
  estimated relative force accuracy = 8.77485e-06
  using double precision FFTW3
  3d grid and FFT values/proc = 6615 1296
Last active /omp style is kspace_style pppm/tip4p/omp

write_restart   restart.lmp.${pid}
write_restart   restart.lmp.0
System init for write_restart ...
PPPM initialization ...
  extracting TIP4P info from pair style
  using 12-bit tables for long-range coulomb (../kspace.cpp:340)
  G vector (1/distance) = 0.37264208
  grid = 24 27 27
  stencil order = 5
  estimated absolute RMS force accuracy = 0.0029138092
  estimated relative force accuracy = 8.77485e-06
  using double precision FFTW3
  3d grid and FFT values/proc = 6615 1296
Last active /omp style is kspace_style pppm/tip4p/omp
Total wall time: 0:05:20
