LAMMPS (30 Jul 2021)
  using 1 OpenMP thread(s) per MPI task
package omp 0
using multi-threaded neighbor list subroutines
echo both

include		in.partitions
variable        pid world 0
include		in.temp
variable        temperature equal 259.88
variable	tempDamp equal 100.0
include		in.pressure
variable        pressure equal 7375.0
variable        pressureDamp equal 1000.0 # This is 1 ps
include		in.seed
variable        seed world 745823

units		real
atom_style	full
read_restart	restart.lmp.${pid}
read_restart	restart.lmp.0
Reading restart file ...
  restart file = 30 Jul 2021, LAMMPS = 30 Jul 2021
  restoring atom style full from restart
  orthogonal box = (0.54003634 1.7276227 0.65884307) to (17.667536 21.901555 21.554353)
  4 by 4 by 4 MPI processor grid
  restoring pair style lj/cut/tip4p/long/omp from restart
  restoring bond style harmonic/omp from restart
  restoring angle style harmonic/omp from restart
  864 atoms
  576 bonds
  288 angles
Finding 1-2 1-3 1-4 neighbors ...
  special bond factors lj:    0        0        0       
  special bond factors coul:  0        0        0       
     2 = max # of 1-2 neighbors
     1 = max # of 1-3 neighbors
     1 = max # of 1-4 neighbors
     2 = max # of special neighbors
  special bonds CPU = 1.566 seconds
  read_restart CPU = 1.804 seconds
include 	in.setup
variable	out_freq equal 1000
variable	out_freq2 equal 10000
variable	out_freq3 equal 1000

timestep	2.0

neigh_modify    delay 7 every 1

include		in.tip4p
# This is TIP4P/Ice

# create groups ###
group ox type 2
288 atoms in group ox
group hy type 1
576 atoms in group hy

# set charges - beside manually ###
set group ox charge -1.1794
Setting atom values ...
  288 settings made for charge
set group hy charge 0.5897
Setting atom values ...
  576 settings made for charge

# ### TIP3P Potential Parameters ###
pair_style lj/cut/tip4p/long/omp 2 1 1 1 0.1577 8.5
pair_coeff 1 1*2 0.000 0.000
pair_coeff 2 2 0.21084 3.1668
bond_style  harmonic
bond_coeff  1 450 0.9572
angle_style harmonic
angle_coeff 1 55 104.52
kspace_style pppm/tip4p/omp 1.0e-5
pair_modify tail yes

thermo          ${out_freq}
thermo          1000
thermo_style    custom step temp pe etotal epair emol press lx ly lz vol pxx pyy pzz pxy pxz pyz enthalpy

restart 	${out_freq3} restart.lmp.${pid} restart2.lmp.${pid}
restart 	1000 restart.lmp.${pid} restart2.lmp.${pid}
restart 	1000 restart.lmp.0 restart2.lmp.${pid}
restart 	1000 restart.lmp.0 restart2.lmp.0


include         in.dump
dump            myDump all atom ${out_freq2} dump.water.${pid}
dump            myDump all atom 10000 dump.water.${pid}
dump            myDump all atom 10000 dump.water.0
dump            myDump2 all dcd ${out_freq2} dump.dcd
dump            myDump2 all dcd 10000 dump.dcd
dump_modify     myDump append yes
dump_modify     myDump2 append yes


variable natoms 	equal  "count(all)"                        # NUMBER ATOMS
variable H      	equal  "enthalpy/v_natoms"                 # ENTHALPY-per-atom
variable Vol      	equal  "vol/v_natoms"                 # volume-per-atom
fix AVG all 		ave/time ${out_freq} 1 ${out_freq} v_Vol v_H file vol_enthalpy.dat
fix AVG all 		ave/time 1000 1 ${out_freq} v_Vol v_H file vol_enthalpy.dat
fix AVG all 		ave/time 1000 1 1000 v_Vol v_H file vol_enthalpy.dat


timer           timeout 23:50:00 every 1000
New timer settings: style=normal  mode=nosync  timeout=23:50:00

fix 		1 all shake 1e-6 200 0 b 1 a 1
       0 = # of size 2 clusters
       0 = # of size 3 clusters
       0 = # of size 4 clusters
     288 = # of frozen angles
  find clusters CPU = 0.228 seconds
fix             2 all nph iso ${pressure} ${pressure} ${pressureDamp}
fix             2 all nph iso 7375 ${pressure} ${pressureDamp}
fix             2 all nph iso 7375 7375 ${pressureDamp}
fix             2 all nph iso 7375 7375 1000
fix             3 all temp/csvr ${temperature} ${temperature} ${tempDamp} ${seed}
fix             3 all temp/csvr 259.88 ${temperature} ${tempDamp} ${seed}
fix             3 all temp/csvr 259.88 259.88 ${tempDamp} ${seed}
fix             3 all temp/csvr 259.88 259.88 100 ${seed}
fix             3 all temp/csvr 259.88 259.88 100 745823

run             250000
PPPM initialization ...
  extracting TIP4P info from pair style
  using 12-bit tables for long-range coulomb (../kspace.cpp:340)
  G vector (1/distance) = 0.37352259
  grid = 24 24 24
  stencil order = 5
  estimated absolute RMS force accuracy = 0.0032463555
  estimated relative force accuracy = 9.7763033e-06
  using double precision FFTW3
  3d grid and FFT values/proc = 2535 216
Last active /omp style is kspace_style pppm/tip4p/omp
Neighbor list info ...
  update every 1 steps, delay 7 steps, check yes
  max neighbors/atom: 2000, page size: 100000
  master list distance cutoff = 10.8154
  ghost atom cutoff = 10.8154
  binsize = 5.4077, bins = 4 4 4
  1 neighbor lists, perpetual/occasional/extra = 1 0 0
  (1) pair lj/cut/tip4p/long/omp, perpetual
      attributes: half, newton on, omp
      pair build: half/bin/newton/omp
      stencil: half/bin/3d
      bin: standard
Per MPI rank memory allocation (min/avg/max) = 9.234 | 9.237 | 9.241 Mbytes
Step Temp PotEng TotEng E_pair E_mol Press Lx Ly Lz Volume Pxx Pyy Pzz Pxy Pxz Pyz Enthalpy 
 1750000    269.66469   -3873.0527   -3410.8566   -3873.0527            0    6853.9171      17.1275    20.173932     20.89551     7220.005    6737.1177    6444.4514    7380.1823    770.87944    996.31573   -563.37257   -2689.1641 
 1751000    256.28527   -3859.8652    -3420.601   -3859.8652            0    6727.3034    17.055203    20.088776    20.807308    7128.9613    8387.9762    6949.7977    4844.1364    237.38996    689.88841   -545.89023   -2721.1728 
 1752000    260.21698   -3860.1966   -3414.1936   -3860.1966            0    8807.9371    17.061155    20.095787     20.81457    7136.4281    10093.843    6955.6973    9374.2711   -263.24635    1677.3748    472.16368   -2497.4857 
 1753000     259.2767    -3858.762   -3414.3706    -3858.762            0    8050.7906    17.112924    20.156764    20.877728    7201.5881    7771.6295    8931.8366    7448.9056    177.48236   -804.52903   -940.90774    -2568.814 
 1754000    266.10313   -3925.8971   -3469.8054   -3925.8971            0    7275.4538    17.043293    20.074748    20.792778    7114.0375    6518.8543    7918.7128    7388.7944   -276.59192   -258.38546   -135.45163   -2714.9703 
 1755000    268.80723   -3879.7188   -3418.9924   -3879.7188            0     8168.551    17.109887    20.153187    20.874022    7197.7543    6302.3756    9732.7692    8470.5081    850.43488   -1523.2074    722.15764   -2561.5243 
 1756000    274.61585   -3888.4846   -3417.8025   -3888.4846            0    10108.977    17.087157    20.126414    20.846292    7169.1066    7765.1785    9208.5116    13353.241     66.18208   -902.49149    1400.7853   -2360.8678 
 1757000    258.33521   -3848.0235   -3405.2458   -3848.0235            0    7162.8675    17.075274    20.112417    20.831794    7154.1598    6055.8252    5877.1181    9555.6592   -296.32149   -960.40461   -503.57138   -2657.9003 
 1758000    259.91044   -3851.3201   -3405.8425   -3851.3201            0    5604.1509    17.156967    20.208641    20.931459    7257.3342     6984.141    6201.5302    3626.7816    944.30218   -379.56215   -640.83439   -2812.6948 
 1759000    271.56691   -3848.4336   -3382.9773   -3848.4336            0     8770.921    17.087811    20.127184     20.84709    7169.9295    8506.9386    8607.3068    9198.5176   -1463.3518   -848.49123   -1864.9942   -2465.8365 
 1760000    259.10969   -3852.2105   -3408.1054   -3852.2105            0    8437.3428     17.01219    20.038113    20.754833    7075.1604    6658.0493    9064.1026    9589.8764    1339.0459    -322.9503   -33.988752    -2537.507 
 1761000    257.40084   -3874.6154   -3433.4392   -3874.6154            0    7941.7001    17.081048    20.119218    20.838838    7161.4195    7738.7567    7698.5239    8387.8197    155.09682   -606.83866   -983.03515   -2603.9925 
 1762000    261.94571   -3853.2296   -3404.2637   -3853.2296            0    6705.7005    17.096028    20.136863    20.857114    7180.2776    6343.2588    8407.4466    5366.3962    18.366677    114.36772    -308.4948   -2702.0629 
 1763000    259.64134   -3849.6195   -3404.6032   -3849.6195            0    8268.8988     17.03561    20.065698    20.783404    7104.4204    7968.7083    8088.5153    8749.4729    1447.7666    171.98835    434.66275   -2547.8569 
 1764000    265.61012   -3916.5396    -3461.293   -3916.5396            0    6853.4865    17.045778    20.077675     20.79581    7117.1497    7169.8075    5566.2948    7824.3571     948.7547   -301.90483    220.50474   -2749.9262 
 1765000    260.31923   -3890.3882     -3444.21   -3890.3882            0    8606.6912    17.023002    20.050848    20.768023    7088.6586    9000.1905    8168.0051    8651.8779    459.93553   -883.13362    911.37743   -2554.4432 
 1766000    264.63368   -3889.8523   -3436.2792   -3889.8523            0    7325.2191    17.057812    20.091849    20.810491    7132.2336    7060.6435    8550.7759    6364.2379   -739.51605    292.92187   -386.78336   -2674.3369 
 1767000    268.74953   -3866.2806   -3405.6531   -3866.2806            0    8589.3384    17.048342    20.080695    20.798937    7120.3612    9560.2584    9267.3152    6940.4416    1806.8739   -245.69179    499.33181    -2513.709 
 1768000    256.43683   -3891.9349   -3452.4109   -3891.9349            0    6590.2076    17.006572    20.031495    20.747978    7068.1525    7105.2443    6897.4818    5767.8968   -1110.1925    1230.5722   -43.068434   -2773.0807 
 1769000     256.6291   -3863.8183   -3423.9648   -3863.8183            0    6048.7809    17.075454    20.112629    20.832014    7154.3861     5705.734    6572.6182    5867.9905   -1649.9501    88.422184    1091.1426   -2792.8388 
 1770000    244.35359   -3880.6903   -3461.8767   -3880.6903            0    8035.3703    17.088157    20.127592    20.847512     7170.365    8652.1347    7798.0607    7655.9153     90.71252    339.72743   -597.77262   -2621.5986 
 1771000    249.86078   -3876.5175   -3448.2647   -3876.5175            0    7792.1224    17.061522     20.09622    20.815018    7136.8889     7439.204    8771.4953     7165.668    166.13417    656.79655    389.42874   -2637.2279 
 1772000    263.03743   -3876.7671   -3425.9299   -3876.7671            0    7499.0421     17.07231    20.108926    20.828178    7150.4347    7339.0217    7518.8494    7639.2552    375.87237   -1877.2347     33.03545   -2643.9166 
 1773000     243.3152    -3886.205   -3469.1711    -3886.205            0    7180.2767      17.0234    20.051316    20.768508    7089.1551    6973.6165    6133.0955    8434.1181   -869.41855    2262.8686   -739.57112   -2726.8162 
 1774000    272.28312   -3823.7865   -3357.1025   -3823.7865            0     6822.791    17.086158    20.125237    20.845073    7167.8488    8458.1929    7062.8992    4947.2808   -1061.8445   -709.16839   -778.61277   -2643.8771 
 1775000    257.96423   -3857.3332   -3415.1913   -3857.3332            0    8119.8002    17.002859    20.027122    20.743449    7063.5247    10142.927    7049.3849    7167.0889   -564.10553    137.26978    479.34583   -2578.7361 
 1776000    277.51785   -3877.5291    -3401.873   -3877.5291            0    8873.1883    16.999162    20.022767    20.738937    7058.9173     9884.068    10037.273    6698.2237   -40.943627     829.6986    1685.4408   -2488.4043 
 1777000    274.75519   -3889.3058   -3418.3849   -3889.3058            0    7089.3388    17.024412    20.052508    20.769742    7090.4193    6959.5932    7422.4423    6885.9809     558.7859   -1630.5586   -475.67393   -2685.3012 
 1778000    252.24892   -3881.4708   -3449.1248   -3881.4708            0    7051.3624    17.047641    20.079869    20.798082     7119.483    5792.8776    7698.2897      7662.92    842.55152   -518.85153   -901.81337   -2716.9793 
 1779000    257.78514   -3901.0394   -3459.2045   -3901.0394            0    6815.7329    17.008634    20.033924    20.750494    7070.7241    6391.0673    7519.6538    6536.4777    236.02853    908.19331    92.698093   -2756.3712 
 1780000    271.91497   -3881.2759    -3415.223   -3881.2759            0     10182.69    17.000099    20.023871    20.740081    7060.0849     10601.52    11434.702     8511.849   -290.92362    1116.5796    1236.3786   -2366.7715 
 1781000    272.85544   -3859.7741   -3392.1092   -3859.7741            0    7423.4187     17.06294    20.097889    20.816747    7138.6677    6411.9289    7712.9628    8145.3643    1971.9074    810.82065   -351.19365    -2619.256 
 1782000    260.58919   -3858.9237   -3412.2828   -3858.9237            0    6808.9206    17.076364    20.113701    20.833124    7155.5302    4882.0517    8341.1716    7203.5385   -1356.0121   -825.48066   -18.181145   -2701.7306 
 1783000    256.33198   -3851.6117   -3412.2674   -3851.6117            0    8655.2322    17.130621    20.177609    20.899318    7223.9535    8755.9714    9214.2567    7995.4684    116.65076   -1952.6504    1209.9096   -2500.4045 
 1784000    246.28463   -3871.3142   -3449.1908   -3871.3142            0    7205.0262    17.096179     20.13704    20.857298     7180.468     5651.258    6145.5873    9818.2332    1090.9679    1372.0709   -660.81958   -2694.6822 
 1785000    253.67348   -3874.3008   -3439.5131   -3874.3008            0    8271.8515    17.019267    20.046449    20.763466    7083.9934    6910.2438    8822.0527    9083.2582    26.776907   -1175.2075   -995.80197   -2584.9252 
 1786000    256.52002   -3887.0606   -3447.3941   -3887.0606            0    8172.1322     16.98662    20.007995    20.723637    7043.3055      8549.45    7927.0667    8039.8799   -562.09618   -40.931613    -1903.397   -2607.9577 
 1787000    271.19931   -3913.4165   -3448.5902   -3913.4165            0    7139.1005    17.127746    20.174223    20.895811     7220.317    6293.5424      7429.36     7694.399     -108.675    1165.9471   -1103.0732   -2696.8364 
 1788000    256.77351   -3864.7851   -3424.6841   -3864.7851            0    5984.4093    17.095859    20.136664    20.856908    7180.0651    5098.7135    7401.7832    5452.7312    325.46802    1202.3016    1482.8147   -2798.0334 
 1789000    267.90372   -3883.4455   -3424.2677   -3883.4455            0    6392.0777    17.113619    20.157583    20.878575    7202.4653    6920.0107    6204.1686    6052.0538    106.77913   -266.22068   -1653.5045   -2752.8402 
 1790000    264.87969   -3893.1904   -3439.1956   -3893.1904            0    5566.2911    17.060649    20.095191    20.813952    7135.7927    5099.2773    6521.5888    5078.0073   -681.96569   -690.86129    847.67574   -2859.9216 
 1791000    252.40057   -3835.3458   -3402.7398   -3835.3458            0    6437.8725     17.05776    20.091788    20.810427    7132.1685    6785.4037    6682.1134    5846.1003    1086.1522   -383.52666    231.68952   -2733.1022 
 1792000    266.39091   -3903.5669    -3446.982   -3903.5669            0    7247.8673    17.006908    20.031891    20.748388    7068.5716     6905.247    6207.1842    8631.1707   -643.97724    1052.2485    158.36596   -2699.8148 
 1793000    265.40206   -3876.4157   -3421.5257   -3876.4157            0    8886.8219    17.078977    20.116779    20.836312    7158.8149     7509.363    11029.829    8121.2735    1019.2092   -552.55354    1.3115027   -2493.7062 
 1794000    271.17085   -3889.7604   -3424.9828   -3889.7604            0    8762.3149    17.029293    20.058258    20.775698    7096.5202    9299.3122    9903.9921    7083.6405      112.789   -171.39243   -1374.0871    -2518.123 
 1795000    236.35848   -3887.8285   -3482.7182   -3887.8285            0     7294.533    17.055888    20.089583    20.808143    7129.8204    7155.8713    6533.3867    8194.3409    1131.8777    -2061.734    893.83037   -2724.2245 
 1796000    271.87048   -3897.3406   -3431.3639   -3897.3406            0    6569.4782    17.107471    20.150342    20.871075    7194.7061    7252.0203    5999.5603    6456.8539   -1436.6424   -981.04028    83.678968   -2742.0455 
 1797000    250.57443   -3871.8225   -3442.3464   -3871.8225            0    7250.1387    17.006193    20.031049    20.747516    7067.6805     7169.096    8319.9986    6261.3214   -798.67836   -1232.2455   -1123.1621   -2695.0393 
 1798000    280.65679   -3888.6151   -3407.5789   -3888.6151            0    8246.2752    17.018068    20.045036    20.762003    7082.4957    8735.1601    8494.3966    7509.2689   -2300.4528   -371.19319   -332.27619   -2555.8135 
 1799000    266.45006   -3880.7743    -3424.088   -3880.7743            0    7582.1687    17.110762    20.154218     20.87509    7198.8587    8923.2368    9039.3031    4783.9663    73.247695   -167.14201   -259.00089   -2628.0515 
 1800000    259.90231   -3886.5093   -3441.0456   -3886.5093            0    8853.5296    17.018081    20.045051    20.762019    7082.5122    8991.7206    7967.5379    9601.3303   -441.32956   -807.05981    177.60637   -2526.5541 
 1801000    266.33398   -3858.8517   -3402.3643   -3858.8517            0    8886.8019    17.056346    20.090123    20.808703    7130.3955    8635.7112    8113.7484    9910.9462   -470.00851    359.84715   -2400.2278   -2478.2302 
 1802000    255.98982   -3861.4877   -3422.7299   -3861.4877            0    9379.3857    16.974247    19.993421    20.708542    7027.9259    7938.2875    9170.0993     11029.77    -1217.759    310.82007     508.7188   -2461.3889 
 1803000    260.37012   -3858.0687   -3411.8033   -3858.0687            0    4608.2725    17.161038    20.213436    20.936426    7262.5014    5790.0053    5188.5426    2846.2696    759.33946    542.95173    1388.7819   -2923.7129 
 1804000    263.82333   -3843.0184   -3390.8342   -3843.0184            0    5827.1658    17.130511     20.17748    20.899184    7223.8144    4608.9989     6734.547    6137.9516    270.54821   -739.82296   -327.66444   -2776.9311 
 1805000    261.90245   -3838.6115   -3389.7196   -3838.6115            0    7051.4084    17.028561    20.057396    20.774805    7095.6052    8608.9457     6828.933    5716.3465   -1989.6325    322.83583    886.37847   -2660.0249 
 1806000     270.8293   -3827.9308   -3363.7386   -3827.9308            0    6138.5258    17.054356    20.087779    20.806275       7127.9    8815.0288     4433.713    5166.8355   -394.44561    2022.9052    1205.4463   -2725.6198 
 1807000    263.10898   -3873.9997   -3423.0399   -3873.9997            0    6110.7674    17.058852    20.093074    20.811759    7133.5377    6752.1404    6211.5447    5368.6171    176.15918    1074.1421   -1531.8487   -2787.3042 
 1808000    255.96879   -3870.9038    -3432.182   -3870.9038            0    8630.0202    17.106373    20.149048    20.869735      7193.32    7742.2638    7536.1715    10611.625   -782.17244   -563.42934    775.68119   -2526.8308 
 1809000    267.02711   -3876.9765   -3419.3011   -3876.9765            0    6592.2741    17.088685    20.128214    20.848156    7171.0296    6566.1486    8149.5087    5061.1652    449.97609    1294.3424    341.78333   -2729.8672 
 1810000    253.49763   -3891.0635   -3456.5772   -3891.0635            0    7464.0722    17.117919    20.162647    20.883821    7207.8952    6674.0333    9094.1535    6624.0298   -490.89028   -327.86677   -397.67143   -2671.9557 
 1811000    258.18519   -3874.7054   -3432.1848   -3874.7054            0    5250.6263    17.127445    20.173868    20.895443     7219.936    5936.2602    4089.6032    5726.0155    1188.4574   -692.29709    407.37377   -2879.3183 
 1812000    250.03875   -3829.9639    -3401.406   -3829.9639            0    8725.5664    17.027233    20.055831    20.773184     7093.945    10294.161    8003.4116    7879.1267   -471.86481    284.99286    671.73537   -2498.6772 
 1813000    280.27008   -3866.1775   -3385.8041   -3866.1775            0    7091.6029    17.114415     20.15852    20.879546      7203.47    7580.0673    7095.7636    6598.9777   -2187.0793    600.54023   -525.48315   -2640.7942 
 1814000    255.86221   -3865.4332   -3426.8941   -3865.4332            0    7455.0364    17.038641    20.069269    20.787103    7108.2137    7088.6367    7978.4309    7298.0416    158.39944   -1606.3069    868.89201   -2654.0602 
 1815000    255.75483   -3886.2808   -3447.9257   -3886.2808            0    7692.8765    17.033898    20.063682    20.781316    7102.2793    6539.3625     8168.786    8370.4812   -248.29399   -154.00798    -588.5393   -2651.1018 
 1816000    266.64607   -3854.0238   -3397.0016   -3854.0238            0    8043.3332    17.082483    20.120908    20.840589    7163.2243    8446.2373    5757.9823    9925.7798   -1.5294519   -1549.4827   -337.74087   -2556.7284 
 1817000    253.08734   -3895.3856   -3461.6025   -3895.3856            0    5178.0922     17.16646    20.219823    20.943042    7269.3881    5978.7716    4988.3804    4567.1245   -432.14326   -841.49068    263.79845    -2912.639 
 1818000    247.21952   -3850.1572   -3426.4314   -3850.1572            0    10592.889    16.990457    20.012514    20.728318    7048.0789    8330.6523    12343.599    11104.414     3166.791    105.10422   -334.45162   -2337.5989 
 1819000    253.08392   -3915.3533   -3481.5762   -3915.3533            0    8049.9669    17.029051    20.057973    20.775403    7096.2181     5394.549    8398.8941    10356.458     29.75697    1080.4827    610.32594   -2648.4765 
 1820000    261.67695   -3883.5846   -3435.0793   -3883.5846            0    6464.5212    17.042425    20.073725    20.791718    7112.9497    4844.6213    7370.9785    7177.9638    464.78051    244.11554    1262.2216   -2764.4817 
 1821000    267.64357   -3863.7678   -3405.0359   -3863.7678            0    6509.6791    17.068541    20.104487     20.82358       7145.7    5527.4355     6255.733    7745.8689    820.08218    246.71602    281.66166   -2726.6446 
 1822000    283.29222   -3831.2536   -3345.7004   -3831.2536            0    8417.5907    17.061477    20.096167    20.814962    7136.8322    7919.5463    6811.3822    10521.844   -830.28545    168.71097    1311.2786   -2469.5691 
 1823000    256.18014   -3893.0838   -3453.9998   -3893.0838            0    7350.0062    17.111629    20.155239    20.876148    7199.9535    7144.0466    8239.2572    6666.7148    339.45767   -1873.2554     230.6156   -2682.2202 
 1824000    268.76895   -3892.2275   -3431.5667   -3892.2275            0    7217.0923    17.104372    20.146691    20.867294    7190.7967    5320.2785    7946.3463    8384.6521    1201.1431    802.76936   -1211.7754   -2674.7074 
 1825000    257.73113   -3848.6853    -3406.943   -3848.6853            0    7944.9675    16.993279    20.015838    20.731761    7051.5916    9858.0536    8487.6242    5489.2245    553.56055    1999.7177   -48.814237   -2589.8807 
 1826000    262.86114   -3875.6727   -3425.1377   -3875.6727            0    7480.7548    17.031688    20.061079     20.77862    7099.5149    5476.0344    7269.9145    9696.3156    735.38194   -2.0715508   -885.88555   -2650.5867 
 1827000    257.71537   -3869.2268   -3427.5115   -3869.2268            0      7513.97    16.999691     20.02339    20.739583    7059.5767    7358.0865    7611.5063    7572.3172   -1002.2608    864.60181    1122.7659    -2653.898 
 1828000    286.01201   -3857.6528    -3367.438   -3857.6528            0    7131.2333     17.01735    20.044191    20.761128    7081.6004     9235.736    6603.9615    5554.0023   -1671.7409    1546.8665    183.76431   -2630.9394 
 1829000    261.69425   -3887.9783   -3439.4433   -3887.9783            0    6999.5099    17.069433    20.105537    20.824668    7146.8205     5860.453    6174.8558     8963.221   -1085.4053    1026.4902   -839.46354   -2709.8911 
 1830000    266.63274   -3841.7178   -3384.7184   -3841.7178            0    6931.1444    17.051826    20.084798    20.803188    7124.7274    8232.0656     5527.685    7033.6826   -423.19918    -248.9928    352.94926   -2664.5251 
 1831000    261.75092   -3865.2907   -3416.6586   -3865.2907            0    7538.0543    17.069373    20.105467    20.824595    7146.7454    8426.8937    6105.0427    8082.2265    -296.0032   -356.31001    928.85482   -2630.9826 
 1832000    257.33138   -3888.7984   -3447.7412   -3888.7984            0    8549.4266    17.104593    20.146951    20.867563    7191.0748    9347.4058    8754.6449    7546.2289    582.94175     700.2539    1146.2899   -2551.1248 
 1833000    255.81081   -3868.8639   -3430.4129   -3868.8639            0    6620.2793     17.07564    20.112848     20.83224    7154.6194    8348.9042    6470.0519    5041.8818   -259.02973     414.5777    2096.8817   -2739.6345 
 1834000    274.64669   -3843.6929   -3372.9578   -3843.6929            0    6759.0342    17.063649    20.098725    20.817612     7139.558    7509.9622    6343.9359    6423.2044   -1379.6498      881.767   -532.86945    -2669.186 
 1835000    260.11896    -3878.814    -3432.979    -3878.814            0    6439.1591     17.03573     20.06584    20.783551    7104.5712    6556.1143    7742.8277    5018.5352    562.85907    669.31554    112.73759   -2765.7992 
 1836000    262.29168   -3876.1027   -3426.5437   -3876.1027            0     7608.575    17.028562    20.057397    20.774806    7095.6062    8544.8427    6691.5719    7589.3104    156.86183   -1113.0604   -631.25846   -2639.1921 
 1837000    260.80048   -3893.6856   -3446.6825   -3893.6856            0    6402.4359     17.00687    20.031847    20.748342    7068.5246    4067.8758    6830.8213    8308.6104   -52.777369   -719.93559     1235.201   -2786.6734 
 1838000    261.56453   -3845.9511   -3397.6385   -3845.9511            0    7772.3173    17.024126    20.052172    20.769394    7090.0624    9949.9683     5241.896    8125.0877   -1170.9248    384.17016   -1706.1278   -2593.9709 
 1839000    252.12981   -3883.2183   -3451.0765   -3883.2183            0    6737.3362    17.018139     20.04512     20.76209    7082.5852    7171.6525    6664.0248    6376.3311   -1267.4816   -916.52808    565.45634   -2755.1619 
 1840000    264.27274   -3868.6978   -3415.7433   -3868.6978            0    9892.6833    16.995988    20.019029    20.735066    7054.9645    12262.513    10081.203    7334.3341    643.95891    2262.3025   -2327.2429   -2397.8909 
 1841000    253.60884   -3914.8107   -3480.1339   -3914.8107            0    5298.2118    17.125821    20.171955    20.893462    7217.8825    4299.0338    6271.6184    5323.9834   -536.57464   -943.48361   -1004.8277   -2922.4154 
 1842000    269.41986   -3886.4507   -3424.6743   -3886.4507            0    8017.5969    17.046359    20.078359    20.796518    7117.8771    8704.0635    5745.3313     9603.396    -1191.208   -1011.0573   -780.16879   -2592.3921 
 1843000    248.92059   -3885.8649   -3459.2235   -3885.8649            0    8312.5578    17.030902    20.060153    20.777661    7098.5318    7840.7674    8559.9158    8536.9902    852.83903   -1301.4115    1117.6582   -2598.6676 
 1844000     257.3932    -3894.134   -3452.9709    -3894.134            0    7469.8945    17.034567     20.06447    20.782132    7103.1154    7253.9974    6935.6935    8219.9926    1259.4754   -1081.9402   -613.86701   -2679.1522 
 1845000    270.26332   -3944.2836   -3481.0615   -3944.2836            0    9306.0297    16.974224    19.993394    20.708514    7027.8969    11536.491    6571.7488    9809.8489    -1613.474   -57.797154   -360.53108   -2527.2431 
 1846000    264.62126   -3866.9002   -3413.3484   -3866.9002            0    8727.1618    17.029125     20.05806    20.775493    7096.3103    7140.0686    8001.4474    11039.969    890.40534    2610.2239    476.34373   -2510.1535 
 1847000    256.78316   -3901.7844   -3461.6669   -3901.7844            0    8459.2733    17.096948    20.137947    20.858237    7181.4376    9629.7608    6315.3885    9432.6707    45.038733   -520.36908   -1200.3277   -2575.6942 
 1848000    245.48813   -3923.2631   -3502.5048   -3923.2631            0    6589.8841     17.10278    20.144816    20.865352    7188.7889    7765.7991    6743.1855    5260.6677    710.80617    254.99801   -2246.0567   -2811.6141 
 1849000    262.00932    -3900.316    -3451.241    -3900.316            0     7591.597    17.049856    20.082478    20.800784     7122.258    7742.2121    7612.4952    7420.0839    271.22068    301.45085    1361.1421   -2662.6955 
 1850000    259.71879   -3896.9502    -3451.801   -3896.9502            0    7797.0417    17.057427    20.091395    20.810021    7131.7503    7257.8465    8425.8882    7707.3903    451.40002   -400.85129   -747.31292   -2640.8365 
 1851000    258.90326   -3908.4586   -3464.7073   -3908.4586            0    6823.6709    16.989814    20.011757    20.727534    7047.2792    6444.6539    6640.1649     7386.194   -1232.9559    223.79246     29.09706   -2763.3885 
 1852000    257.12191   -3848.3186   -3407.6205   -3848.3186            0    9070.4638    17.054559    20.088018    20.806522    7128.1537    10458.902    7691.6987    9060.7903   -927.05692    173.19643   -834.83174    -2464.684 
 1853000    262.53779   -3862.5732   -3412.5924   -3862.5732            0     5574.056    17.085239    20.124154    20.843951    7166.6921    6393.5935    2949.6985    7378.8761   -285.75596   -442.09809    288.61073   -2829.9985 
 1854000    263.91025    -3888.619   -3436.2859    -3888.619            0     5900.645    17.052401    20.085476     20.80389    7125.4486    4556.0154     6977.767    6168.1527   -447.98828   -148.09171   -1311.7157   -2823.1064 
 1855000    266.41978   -3863.7961   -3407.1618   -3863.7961            0    8723.8325    17.027344    20.055962     20.77332    7094.0841    7832.9079    8432.5409    9906.0488   -280.64911    64.307135     841.0159   -2504.5946 
 1856000    247.32697   -3875.9224   -3452.0125   -3875.9224            0     8571.154    17.027697    20.056378     20.77375    7094.5248    9246.2041     7469.749     8997.509    524.59281   -67.374331    446.59007   -2565.1863 
 1857000    265.53309   -3897.2675   -3442.1529   -3897.2675            0    6788.6191    17.025367    20.053633    20.770907    7091.6126    7527.8236    5278.1468    7559.8868     732.2854   -582.77583    1112.3919   -2740.0474 
 1858000    259.26718   -3864.8736   -3420.4986   -3864.8736            0    5329.9544     17.09042    20.130257    20.850272    7173.2136    5376.8052    4413.4948    6199.5631    1509.3204   -411.30516   -243.27245   -2862.9109 
 1859000    265.64571   -3911.1263   -3455.8187   -3911.1263            0    7440.9071    17.063754    20.098848     20.81774    7139.6897    7020.1347    7499.6623    7802.9243   -1508.7456   -65.747268   -1319.7168   -2681.0339 
 1860000    260.91566   -3875.5846   -3428.3841   -3875.5846            0    7434.0503    17.086355    20.125469    20.845313    7168.0963    8548.2351    7136.2826    6617.6332   -147.00937    -1384.263   -1678.3429   -2651.2335 
 1861000    259.56914   -3861.1802   -3416.2876   -3861.1802            0    5126.6596    17.125259    20.171293    20.892776    7217.1717    4349.5169    3322.7051    7707.7568    1723.5405    36.817311   -942.38111   -2876.6808 
 1862000     260.5205   -3867.7962    -3421.273   -3867.7962            0    8060.7901    17.046889    20.078984    20.797165    7118.5415     5960.133    9765.8988    8456.3383    251.83741    -1072.087   -36.632596   -2584.4289 
 1863000    258.41174   -3885.5378    -3442.629   -3885.5378            0    7041.2109     17.13279    20.180164    20.901964    7226.6974    6447.0202    6436.1254    8240.4873    -859.9392   -901.34796    -177.8944   -2700.5278 
 1864000    275.80458   -3888.0363   -3415.3167   -3888.0363            0    6933.6451    17.092172    20.132321     20.85241    7175.4209    6722.0008    7172.7652    6906.1694   -290.26066   -559.27473    161.98685   -2689.7374 
 1865000    256.08595   -3845.8604   -3406.9378   -3845.8604            0    7289.8073       17.096     20.13683     20.85708    7180.2428     7557.538    7510.2671    6801.6167    28.019735   -1477.3547    1844.0702   -2643.5749 
 1866000    262.33466     -3908.89   -3459.2574     -3908.89            0    6765.1114    17.101403    20.143194    20.863672    7187.0529    4767.5623    8697.0106    6830.7614   -1417.3989    557.94074    -479.4693   -2750.1669 
 1867000    252.58155   -3897.4414   -3464.5252   -3897.4414            0    7478.2167    16.979263    19.999329    20.714661    7034.1577    8895.8531    6966.7639     6572.033   -43.241824    588.21282    1258.2407   -2697.3651 
 1868000    247.66723    -3869.216   -3444.7228    -3869.216            0    7534.0464    17.042203    20.073463    20.791447    7112.6716    7744.7143    8889.0757    5968.3493   -1094.4289    631.20909     150.8539   -2663.2085 
 1869000    263.37792   -3873.5099   -3422.0891   -3873.5099            0     7187.191    17.087201    20.126466    20.846345    7169.1614    5898.9193    7925.6782    7736.9756   -648.72757   -415.48613    151.34811   -2670.6333 
 1870000    256.64043   -3869.8198   -3429.9469   -3869.8198            0    8681.3428    17.003234    20.027563    20.743905    7063.9913    7538.0474    8613.6014    9892.3798    -734.2001     547.5065    77.521284   -2535.5857 
 1871000     262.5782   -3879.7184   -3429.6684   -3879.7184            0    8051.5381    17.043385    20.074856     20.79289    7114.1523    7818.6214    7991.1475    8344.8454    734.03565   -2.4200846    484.22031   -2594.3002 
 1872000    287.81792   -3898.6213   -3405.3113   -3898.6213            0    5853.9905    17.119133    20.164077    20.885302    7209.4292    5086.1217    6627.8183    5848.0314    284.32456    569.29565     852.9916   -2789.8102 
 1873000    258.06045    -3897.132   -3454.8252    -3897.132            0     6826.012    17.095719    20.136498    20.856737    7179.8879    7649.4079    7834.0013    4994.6268    325.75749    326.55286    241.54089   -2740.0646 
 1874000    272.84164   -3897.9563    -3430.315   -3897.9563            0    8569.4839    17.058122    20.092214    20.810869    7132.6222    7669.0358    8409.3655    9630.0505   -814.67644    523.02013   -560.25548   -2538.9003 
 1875000    269.71744   -3844.3532   -3382.0667   -3844.3532            0    7162.3941    17.068946    20.104963    20.824074    7146.2085    5868.6302     4447.626    11170.926   -118.87812     1476.642   -343.05096   -2635.6012 
 1876000    256.72462   -3885.6394   -3445.6222   -3885.6394            0    7632.2987    17.039511    20.070293    20.788164    7109.3024    8398.8012    6140.6769    8357.4182   -170.60874    202.93374    282.61949   -2654.2911 
 1877000    250.82539   -3847.0334   -3417.1273   -3847.0334            0    6966.2234    17.037481    20.067902    20.785687    7106.7616    7171.6901    6225.8006    7501.1795    281.18329   -387.77978     570.8014   -2695.1142 
 1878000    264.25995   -3860.6839   -3407.7514   -3860.6839            0    8469.1989    17.029388     20.05837    20.775814    7096.6389    6968.0643    10358.184    8081.3482   -870.19689    -358.5707    821.52452    -2531.213 
 1879000    263.18172   -3867.0749   -3415.9904   -3867.0749            0     7420.742    17.100925    20.142631    20.863089    7186.4502    8211.6441    8951.9436    5098.6385    440.41422   -1300.7684    497.69297   -2638.2446 
 1880000    256.55355   -3912.1348   -3472.4108   -3912.1348            0    9275.4201    17.018545    20.045598    20.762585    7083.0919    9130.1946    10192.899    8503.1664   -1896.9045     916.2771   -845.97357   -2514.2633 
 1881000    263.97329   -3916.9539   -3464.5127   -3916.9539            0    8419.0342    17.008209    20.033424    20.749976    7070.1944    8368.6833    8859.3302    8029.0892    580.64553    645.83563    2039.6009   -2596.4132 
 1882000    254.65809   -3834.7997   -3398.3244   -3834.7997            0    7686.4714    17.035973    20.066125    20.783847    7104.8741    6745.8647    6427.9697    9885.5797   -1211.6319     449.0132   -278.09005    -2601.873 
 1883000    255.30701    -3844.778   -3407.1905    -3844.778            0    7092.7456    17.000334    20.024147    20.740367    7060.3774    8903.6839    5340.1355    7034.4173    368.26566    499.73151    804.86403   -2676.8621 
 1884000    247.79405   -3896.0593   -3471.3487   -3896.0593            0    8052.5623    17.076586    20.113963    20.833395     7155.809    8243.3328    8936.7539    6977.6001    929.15982    1573.6365    1101.6462   -2630.9822 
 1885000    249.86873   -3907.9615    -3479.695   -3907.9615            0    5070.3744    17.147598    20.197605    20.920029    7245.4513    3039.6188    5854.9202    6316.5844     22.71921   -379.24359   -2.6561227   -2943.9214 
 1886000    262.32721   -3898.1849   -3448.5651   -3898.1849            0    8352.8609    17.085713    20.124713     20.84453    7167.2891    8905.9191    8386.0361    7766.6275   -704.34938   -444.21228    1274.0453   -2575.4609 
 1887000    263.38844   -3906.4625   -3455.0237   -3906.4625            0    7533.9894    17.020001    20.047313    20.764362    7084.9101    8738.5464    7564.2163    6299.2056    426.01528    129.73758    1591.5446   -2676.5656 
 1888000    270.10982   -3906.5101   -3443.5511   -3906.5101            0    8457.2761    17.038404     20.06899    20.786814    7107.9172      7962.55    9023.0006    8386.2777    370.95254    527.75907   -74.753567   -2566.8557 
 1889000    247.88565   -3901.5225    -3476.655   -3901.5225            0    8408.5175    16.970641    19.989173    20.704142    7023.4473    9836.9364    8944.9554    6443.6607   -679.93389   -767.41513    128.75912   -2615.3724 
 1890000    260.31516   -3882.4843    -3436.313   -3882.4843            0    7578.7831    17.114048    20.158088    20.879099    7203.0069    6667.1425    9929.6973    6139.5095    1699.8212    909.35867    2124.7508   -2640.1735 
 1891000    261.57486    -3905.521   -3457.1907    -3905.521            0    6042.5612    17.016401    20.043073     20.75997    7080.4155    6261.1893    4624.7766    7241.7177    324.57848   -1605.1142   -719.28187   -2833.2322 
 1892000    254.28154   -3894.1818   -3458.3519   -3894.1818            0    7902.4439    17.072738    20.109431    20.828701     7150.973    8186.7542    7508.6051    8011.9725    661.99345    89.510757    560.04782   -2634.2091 
 1893000    239.42698   -3859.1203   -3448.7507   -3859.1203            0    7102.4597    17.054744    20.088236    20.806748    7128.3865    8715.4927    5860.6013    6731.2852    728.19278   -570.83426   -486.19416   -2710.3775 
 1894000    254.57726   -3876.8101   -3440.4733   -3876.8101            0    9081.1321    17.071888    20.108429    20.827664    7149.9047    9717.7337    8697.7868    8827.8759    722.83287    464.29732    112.77697   -2493.5471 
 1895000    253.61576   -3838.3208   -3403.6321   -3838.3208            0    7411.6661    17.082217    20.120595    20.840264    7162.8896    6886.2449    6613.9107    8734.8427    102.48274    234.87281    415.34881   -2629.3842 
 1896000    249.47918     -3872.99   -3445.3912     -3872.99            0    6371.1059    17.032151    20.061624    20.779185    7100.0942    7592.2477    7121.8327    4399.2372    36.992836    935.14694    631.06278   -2785.6785 
 1897000    243.20821   -3896.2405   -3479.3899   -3896.2405            0    5989.6649    17.096341    20.137232    20.857496    7180.6726    4907.1131    5541.2475    7520.6341    292.07499    746.98562   -64.757039   -2852.1358 
 1898000    249.44716   -3893.7922   -3466.2483   -3893.7922            0    7990.3062    17.067266    20.102985    20.822024    7144.0986    7557.0074     7742.645    8671.2662   -617.65149   -1.2072184   -792.68091   -2633.7435 
 1899000    273.44793   -3828.6946   -3360.0142   -3828.6946            0     7355.801    17.094508    20.135073     20.85526    7178.3634    7465.1766    7333.6511    7268.5752   -1328.2768    806.80145   -862.79003   -2589.9422 
 1900000    248.47661   -3873.7616   -3447.8811   -3873.7616            0    6442.1908    17.092244    20.132406    20.852498    7175.5109    5538.5665    7895.5556    5892.4502   -357.40572    1023.6562   -857.18945   -2773.7222 
 1901000    252.08412   -3831.0761   -3399.0126   -3831.0761            0    6391.9801    17.069035    20.105068    20.824183    7146.3204    7338.2621    4864.4908    6973.1875   -288.75942   -711.28774    1021.9015   -2732.8292 
 1902000    240.27118   -3860.0155    -3448.199   -3860.0155            0    7230.9342    17.072287      20.1089    20.828151    7150.4065    6728.4893    7027.2553    7937.0582    998.01146   -1061.2596   -96.158718   -2694.1474 
 1903000    264.04024   -3871.6941   -3419.1381   -3871.6941            0    6777.4093    17.079323    20.117187    20.836735    7159.2508    5954.2159    7454.9559     6923.056    352.35713   -28.469759   -37.415672   -2711.5066 
 1904000    252.74727   -3876.2716   -3443.0715   -3876.2716            0    8243.2869    17.029751    20.058798    20.776257    7097.0933    9961.2012    9232.7082    5535.9514    1408.3332    -411.3895    422.35948   -2589.8597 
 1905000    273.72096   -3891.1806   -3422.0323   -3891.1806            0    5955.7808    17.077808    20.115402    20.834886    7157.3453    7824.5697    3727.2266    6315.5462   -343.78739   -1093.2989   -1039.5105   -2800.3527 
 1906000    247.61398    -3913.156   -3488.7541    -3913.156            0    7928.7697    17.058629    20.092812    20.811488     7133.259    8995.0037     6686.862    8104.4433   -307.47485    437.17721   -735.03216   -2663.9142 
 1907000    262.62142   -3902.8778   -3452.7536   -3902.8778            0      9486.86    17.021912    20.049564    20.766693    7087.2963    9792.8303    8836.0485    9831.7012    515.47892    479.61307    1316.2091   -2472.1828 
 1908000    253.83137   -3898.0108   -3462.9525   -3898.0108            0    7802.7131    17.055368     20.08897    20.807509     7129.168    7890.6518    7409.0376    8108.4498       670.25    1227.4895   -12.619164   -2651.6919 
 1909000     261.2388   -3910.0965   -3462.3421   -3910.0965            0    6931.7547     17.05434     20.08776    20.806255    7127.8798    7883.0477    5394.9699    7517.2464   -223.97475    799.12924   -50.826388   -2741.7667 
 1910000    275.49473   -3888.5702   -3416.3817   -3888.5702            0    7379.4846    17.111104     20.15462    20.875507    7199.2901    7237.4686    7882.4827    7018.5025    1475.8662    -517.6256    236.99596   -2641.5782 
 1911000    254.38934   -3915.5948   -3479.5802   -3915.5948            0    7289.7062    17.060428    20.094931    20.813683    7135.5158     7983.027    6720.0865    7166.0052    -130.7056    473.66801   -281.10397   -2720.9829 
 1912000    239.63364   -3876.3898    -3465.666   -3876.3898            0    6307.0397    17.125323    20.171369    20.892854    7217.2527    6576.3037    5502.3762    6842.4393   -984.68441    981.33523    1001.6416   -2801.8108 
 1913000    258.58006   -3893.6263   -3450.4289   -3893.6263            0    7008.0061     17.10934    20.152543    20.873355    7197.0644    6796.3166    5805.4651    8422.2366   -1286.9848   -278.41569   -80.296982    -2714.856 
 1914000    253.57011   -3883.7812   -3449.1707   -3883.7812            0     9044.424    17.031641    20.061024    20.778563    7099.4565    8941.2234    9902.4607    8289.5879    77.685694   -96.795541   -31.916908   -2512.7265 
 1915000    243.56452   -3833.8136   -3416.3524   -3833.8136            0    6541.0403     17.08017    20.118184    20.837768    7160.3156    5695.9639    6297.5193    7629.6376   -1383.4006   -2244.5647   -56.812547   -2733.2986 
 1916000    270.90746   -3862.4444   -3398.1183   -3862.4444            0    7665.9279    17.017219    20.044036    20.760967     7081.436    7540.6047    6742.2173    8714.9616    1039.4865   -1414.0435    -407.8505   -2606.4159 
 1917000    251.11369   -3882.3134   -3451.9131   -3882.3134            0    8540.9506    16.984539    20.005543    20.721098    7040.7166    7678.0482    10512.508    7432.2953   -41.276985   -2541.1901   -1031.7352   -2574.9144 
 1918000    272.22007   -3846.7942   -3380.2183   -3846.7942            0     7716.113    17.016421    20.043097    20.759994    7080.4407    7979.2491     7730.225    7438.8648    514.57518   -266.80352    1656.0456    -2583.445 
 1919000    279.87955   -3888.9227   -3409.2188   -3888.9227            0    5932.5868    17.075586    20.112784    20.832174    7154.5514    5403.1791    5143.1048    7251.4766    712.06367   -2232.3822    -226.1491    -2790.202 
 1920000     267.1714   -3905.1156    -3447.193   -3905.1156            0    6304.1429      17.1086    20.151671    20.872452    7196.1298    6370.4937    6383.3303    6158.6045   -2013.1069    -32.00542    139.76546   -2785.5847 
 1921000    252.74886   -3882.3603   -3449.1574   -3882.3603            0    7676.0947    17.050617    20.083375    20.801713    7123.2124    8069.7522    6355.8442    8602.6877   -154.71523   -1586.8392   -1479.7356   -2651.7282 
 1922000    255.54325   -3886.8689   -3448.8765   -3886.8689            0    7692.5809    16.988821    20.010587    20.726322    7046.0431    11162.748    6676.8244    5238.1706    859.17515   0.83409958    381.79784   -2658.3922 
 1923000    262.96053   -3915.1222   -3464.4168   -3915.1222            0     7901.066    16.993499    20.016097    20.732029     7051.865    9912.5528    7930.7113    5859.9338    760.51004    1111.5254   -1319.9793   -2651.8378 
 1924000    244.01269   -3912.9745   -3494.7451   -3912.9745            0    6810.4815    17.023837    20.051831    20.769041     7089.701    7797.6815    6091.7164    6542.0467    1054.2013    897.92603   -1500.8045   -2790.5684 
 1925000    269.69034   -3911.9407   -3449.7007   -3911.9407            0    10019.575    16.994742    20.017561    20.733545    7053.4127    11248.179    9148.3972    9662.1477    1653.2263   -18.091955   -1798.1223   -2419.0192 
 1926000    261.88931   -3925.0323    -3476.163   -3925.0323            0    8819.1591    16.957454    19.973641    20.688055    7007.0878    8960.2666    8247.3168    9249.8939    933.45604   -1502.8153    -1287.497   -2574.9226 
 1927000    264.71184   -3882.5653   -3428.8583   -3882.5653            0    8868.7805    17.053913    20.087257    20.805734     7127.344     8973.103    9088.2966     8544.942     471.5871   -1024.8945    356.86383   -2506.9929 
 1928000     273.3757   -3920.5283   -3451.9717   -3920.5283            0     7504.669    17.028498    20.057322    20.774728    7095.5267    6955.8065    8784.2906    6773.9099   -760.83285   -300.76493    536.56057   -2675.3812 
 1929000    255.57992    -3878.044   -3439.9888    -3878.044            0    9937.9837    16.898357    19.904033    20.615957    6934.0834    9374.6553     9237.166     11202.13   -1540.1046   -2154.4162    762.14871   -2434.9953 
 1930000    250.23757   -3906.9173   -3478.0187   -3906.9173            0     8012.751    16.968668     19.98685    20.701736    7020.9983    9605.0463    6872.3296    7560.8771    614.90495   -572.65838    202.92738   -2657.5606 
 1931000    266.85222   -3898.9246    -3441.549   -3898.9246            0    7867.3808    16.992834    20.015314    20.731218    7051.0375    6971.8761    8530.8636    8099.4028   -2379.5401   -901.79096   -119.94107   -2632.5293 
 1932000    278.27291   -3894.9705   -3418.0203   -3894.9705            0    8837.4232    16.990569    20.012646    20.728454    7048.2183       8237.6    9160.9657     9113.704    126.09309   -32.770543   -671.79855   -2509.6124 
 1933000    250.87519   -3895.4854   -3465.4939   -3895.4854            0    8164.5322    16.988898    20.010678    20.726416     7046.139    8266.1132    8442.7291    7784.7544    114.91576    673.84534   -44.222732   -2626.5008 
 1934000    255.76071   -3902.3438   -3463.9787   -3902.3438            0    7477.7993    17.001538    20.025566    20.741836    7061.8779    8011.8613    6348.7476    8072.7891     10.87539    301.38852   -757.06874   -2693.8383 
 1935000    260.99585   -3850.6952   -3403.3573   -3850.6952            0    6865.2232    17.052008    20.085013     20.80341    7124.9556    7197.2292    6223.8646    7174.5757    355.62464    496.32509   -698.24443   -2689.9908 
 1936000    265.09527   -3853.8049   -3399.4407   -3853.8049            0     8229.965    17.007301    20.032355    20.748868    7069.0623    10194.078    7473.3939    7022.4225   -325.79866     475.3059   -1271.1126   -2550.9723 
 1937000     244.2256   -3866.8321   -3448.2378   -3866.8321            0    7538.9728    17.056926    20.090805    20.809409    7131.1218    8586.2388     4740.947    9289.7324    17.481407    -1412.869   -858.00481   -2664.1839 
 1938000    270.23343   -3850.0658    -3386.895   -3850.0658            0    7794.8259    17.009997     20.03553    20.752157    7072.4247    5847.8404     6701.683    10834.954   -357.08455   -800.81154    1670.0784    -2582.905 
 1939000    251.84178   -3894.4188   -3462.7706   -3894.4188            0    8237.4028    17.046146    20.078109    20.796259    7117.6106    7222.6268    7356.4542    10133.127    106.81967    115.12007    679.57514    -2607.703 
 1940000    271.50606   -3848.4832   -3383.1311   -3848.4832            0    6824.6031    17.023634    20.051592    20.768794    7089.4478    5469.0112    6649.7074    8355.0907   -29.506235    -164.8614    1307.9654   -2677.5196 
 1941000    264.39892   -3871.4242   -3418.2535   -3871.4242            0     5301.034    17.088445    20.127932    20.847864    7170.7282    5403.2722    5684.4702    4815.3597    1085.4221    359.20616   -634.82698   -2863.8835 
 1942000    260.39379   -3883.0566   -3436.7506   -3883.0566            0    8930.9353    17.101048    20.142776    20.863239    7186.6053     7270.704    8728.4265    10793.675    667.58905   -838.70414    280.19806   -2500.7058 
 1943000    264.95098   -3860.6088   -3406.4919   -3860.6088            0    7049.2197    17.048423     20.08079    20.799036    7120.4626      6989.22    7324.7367    6833.7024   -557.65962   -153.35737   -364.66225   -2674.4682 
 1944000    269.83937   -3851.0056   -3388.5102   -3851.0056            0    6907.7498    17.030378    20.059536    20.777022     7097.877     9141.007    5935.6224      5646.62    292.49778    980.84952    1.9394178   -2673.4527 
 1945000    251.28111   -3843.8405   -3413.1533   -3843.8405            0    7653.6022    17.063911    20.099033    20.817931    7139.8865    6900.7777    9461.4415    6598.5872   -1169.1654    -598.2267   -165.15933   -2616.1996 
 1946000    245.71306   -3843.0748    -3421.931   -3843.0748            0    6168.0325    17.031823    20.061237    20.778784    7099.6832     7426.492      6304.44    4773.1657    2312.0245    16.443988    837.38712   -2783.2831 
 1947000    247.96755   -3835.1405   -3410.1326   -3835.1405            0    7105.3667    17.007871    20.033025    20.749562    7069.7722    6790.4493    8564.4661    5961.1846   -560.57879   -838.45363   -1317.7513   -2677.5311 
 1948000    262.93469   -3851.9903   -3401.3292   -3851.9903            0    8011.6308    17.068552      20.1045    20.823593    7145.7139    9319.1013    6539.9501    8175.8411   -601.73574    834.19999   -1683.1503   -2566.4139 
 1949000    270.33913   -3870.2501   -3406.8981   -3870.2501            0    5997.8562    17.066729    20.102352    20.821369    7143.4242    8119.5931     6567.071    3306.9046   -818.56378    218.06883    514.84327   -2782.0444 
 1950000    275.30769   -3903.7867   -3431.9188   -3903.7867            0    8584.8684    17.029745     20.05879    20.776249     7097.085    10141.713    6875.6075    8737.2853   -943.95217   -1997.3218    660.66752   -2543.3531 
 1951000    265.15863   -3874.4096   -3419.9368   -3874.4096            0    7387.9081     17.01929    20.046475    20.763494    7084.0219    5961.9604    9369.1237    6832.6403    -508.0718   -516.07309   -658.55246   -2656.6684 
 1952000    255.00967   -3850.3513   -3413.2734   -3850.3513            0      7163.77    17.117037    20.161609    20.882745    7206.7818    6692.0637    7080.5987    7718.6477   -595.75446   -1075.3051    56.594191    -2660.336 
 1953000    266.77027   -3903.0402   -3445.8051   -3903.0402            0    6314.5571    17.099919    20.141445    20.861861     7185.181    5495.8155    6831.5598    6616.2959   -17.283496    112.83632   -29.636887   -2784.1121 
 1954000    250.35865   -3881.8628   -3452.7567   -3881.8628            0    8277.9125    17.077229     20.11472    20.834179    7156.6168    7976.4227    7397.4395    9459.8755    295.43628    887.16452    2157.0521   -2588.7751 
 1955000     259.5264   -3894.2051   -3449.3857   -3894.2051            0    7415.4934    17.017073    20.043864    20.760789     7081.254    7631.9193    5350.9759    9263.5851   -85.228217    864.10096   -1561.2131   -2683.5667 
 1956000    262.53789   -3888.1841   -3438.2032   -3888.1841            0    7988.5102    17.042708    20.074059    20.792064    7113.3045    7548.2889     7622.869    8794.3727    1771.0242   -1248.8842   -1084.6006   -2609.4731 
 1957000    261.99116   -3867.4778   -3418.4339   -3867.4778            0    6403.5789    17.069701    20.105853    20.824995    7147.1572    6296.7819    6487.1784    6426.7765    1584.2305    371.94138    -148.5495   -2750.9636 
 1958000    260.22504   -3854.9568     -3408.94   -3854.9568            0    7995.6462    17.023289    20.051185    20.768372    7089.0163    8170.4278    8691.4819    7125.0288    545.18731    622.71704    198.05588   -2582.3018 
 1959000    246.53483   -3852.0615   -3429.5093   -3852.0615            0    9465.7624    17.000862     20.02477    20.741012    7061.0356    8691.5762    9512.6288    10193.082   -24.683645    -1358.121    171.69336   -2454.7444 
 1960000     270.0452    -3858.604   -3395.7558    -3858.604            0    7072.2533    17.003971    20.028432    20.744805    7064.9103    8326.7098    6178.9392    6711.1108    1812.6791   -175.91746   -420.32792   -2667.0699 
 1961000    254.96813   -3877.3803   -3440.3736   -3877.3803            0    6586.6438    17.062398    20.097251    20.816085    7137.9874     4955.664    8316.2742    6487.9932   -965.02353    198.05305   -1653.5467   -2754.7025 
 1962000     258.8078   -3882.3161   -3438.7284   -3882.3161            0    8003.5579     17.01501    20.041434    20.758272    7078.6784    7459.4968    8664.6073    7886.5696    1320.9872   -1288.3849    447.94263    -2612.479 
 1963000    258.32954   -3878.3435   -3435.5755   -3878.3435            0     6684.915    17.131151    20.178233    20.899964    7224.6232     7411.607    5611.6094    7031.5286     1714.756   -2090.1397   -88.897619    -2731.228 
 1964000    251.63515   -3872.1297   -3440.8357   -3872.1297            0    6236.3895    17.064666    20.099923    20.818853    7140.8348    5542.1472    6543.8722    6623.1491    268.33915   -1811.4043   -652.60928   -2791.3672 
 1965000    247.88547   -3917.1484   -3492.2812   -3917.1484            0    7450.9893    17.065294    20.100662    20.819619    7141.6227    7463.7725     7648.744    7240.4514   -1100.4076   -320.74603   -792.59873   -2716.2365 
 1966000    254.04798   -3856.0244   -3420.5949   -3856.0244            0    7512.3829    17.030585     20.05978    20.777274    7098.1359    5834.7081    8416.7635    8285.6771   -1907.4281   -389.63547    2145.7855   -2642.9203 
 1967000     257.9421   -3885.7292   -3443.6252   -3885.7292            0    8136.4025    17.059585    20.093937    20.812653    7134.4574    7467.6136     8170.317     8771.277    1346.9935    870.02788    298.44908   -2597.0428 
 1968000    267.89228   -3885.4906   -3426.3324   -3885.4906            0    8288.1374    17.002884    20.027151    20.743479    7063.5554    7417.3135    8524.5734    8922.5251   -648.58758   -1397.6895   -680.04441   -2572.5323 
 1969000    259.69412    -3860.772   -3415.6652    -3860.772            0    6839.9285      17.0268    20.055321    20.772656     7093.404    6628.5131    6904.4276    6986.8447    1516.6486    285.77344   -1997.3923   -2708.0744 
 1970000    247.21132   -3873.0261   -3449.3144   -3873.0261            0    8786.6766    16.974468    19.993681    20.708811    7028.1994    9983.6984    8609.4293     7766.902    1158.1254    1108.0508   -171.47434   -2548.6882 
 1971000     261.3423   -3884.3916   -3436.4599   -3884.3916            0    6558.0034    17.078366    20.116059    20.835567    7158.0469    6335.2674    7816.5356    5522.2071    1490.6073   -559.76654    36.809401   -2751.8517 
 1972000    253.17664   -3888.2346   -3454.2985   -3888.2346            0    6676.1614    17.041299    20.072399    20.790345      7111.54    8541.9183    5482.5563    6004.0095   -958.20202    -1909.611    416.70336   -2761.8836 
 1973000    253.51822   -3890.7856    -3456.264   -3890.7856            0    7951.8806    17.058149    20.092247    20.810902    7132.6569    9750.8184    6063.8087    8041.0146    150.30023    251.96939     744.7045   -2629.0897 
 1974000    257.53619    -3848.625   -3407.2168    -3848.625            0    6395.5618    17.024224    20.052288    20.769514    7090.1854    8571.3915     4315.036    6300.2579    43.410424   -966.99554    977.02021    -2745.896 
 1975000    255.06282   -3866.1816   -3429.0127   -3866.1816            0    7891.0098    16.981641     20.00213    20.717562    7037.1135     6536.371    6967.5704    10169.088   -1212.0946    236.86255    119.47231   -2619.1656 
 1976000    260.89365   -3878.9943   -3431.8315   -3878.9943            0    6891.3356    17.056381    20.090164    20.808745    7130.4391      6790.05    6304.4868      7579.47   -589.89119   -330.78517    596.79314   -2715.2006 
 1977000    273.92046   -3820.6624   -3351.1721   -3820.6624            0     7912.894     17.03582    20.065945     20.78366    7104.6826    9273.7884    6604.2377    7860.6559   -60.959223    494.18325    829.98714   -2531.2815 
 1978000    270.96021   -3842.7658   -3378.3492   -3842.7658            0    8461.0021    16.960057    19.976707     20.69123    7010.3152    10012.392    7592.7342    7777.8797    456.26404   -475.74645     -850.447   -2513.3111 
 1979000    265.76889   -3870.4056   -3414.8868   -3870.4056            0    4978.6575    17.099369    20.140799    20.861191    7184.4888    5291.8321    2702.4729    6941.6674   -200.15723   -545.69572   -2482.2058    -2893.231 
 1980000    254.75546    -3824.946   -3388.3038    -3824.946            0    6363.8679    17.098983    20.140343    20.860719    7184.0017    8016.0584    5051.2286    6024.3169   -245.99927    2699.3625    670.34839   -2721.5531 
 1981000    267.35765   -3873.6685   -3415.4266   -3873.6685            0     7588.002    17.102528    20.144519    20.865044     7188.471    5935.4766    7696.1382    9132.3913   -636.38646   -185.71664   -709.88911   -2619.9272 
 1982000    260.62462   -3876.1713   -3429.4696   -3876.1713            0    7855.6615    16.980134    20.000355    20.715724    7035.2399    7918.3233    7163.3244    8485.3368   -877.24853   -218.72523   -365.64507   -2623.4649 
 1983000    260.59622   -3900.4684   -3453.8154   -3900.4684            0    6604.5849    17.052016    20.085022    20.803419    7124.9655    7875.3368    5523.4301    6414.9878   -527.08869      461.093   -507.13111   -2767.5309 
 1984000    266.11521   -3882.0572   -3425.9449   -3882.0572            0    8582.9989    17.094456    20.135012    20.855197    7178.2978    8082.6119    9374.3034    8292.0814   -373.96486   -498.81369    148.94668   -2527.4069 
 1985000    266.22754   -3926.3972   -3470.0923   -3926.3972            0    8495.1867    17.003332    20.027679    20.744025    7064.1137    10862.342    8330.5525    6292.6652     1097.206    930.05694    307.00173   -2594.8939 
 1986000    254.19157   -3900.3983   -3464.7226   -3900.3983            0    4873.3339    17.148768    20.198984    20.921457     7246.935     4144.709    4611.1049    5864.1879   -1584.1851   -312.90389   -330.68016   -2949.6643 
 1987000    259.50763     -3873.67   -3428.8828     -3873.67            0     9395.027    17.018645    20.045715    20.762707    7083.2161    10588.092    8853.4707    8743.5185    -45.99151   -338.39931    659.66648   -2458.3629 
 1988000    266.62633   -3871.3349   -3414.3465   -3871.3349            0    7094.3327    17.119058     20.16399    20.885211    7209.3352    6200.0056      8056.23    7026.7627    -1454.771    1927.6668   -755.35174    -2668.443 
 1989000    256.44695   -3874.0003    -3434.459   -3874.0003            0    5236.1603    17.171031    20.225206    20.948618    7275.1962    5362.2074    2876.4239    7469.8497   -51.057541    99.966289    1187.6373   -2878.8957 
 1990000    263.44153   -3880.7385   -3429.2087   -3880.7385            0    7874.8652    17.073276    20.110064    20.829357    7151.6486    7669.0246    8941.9361     7013.635   -543.43344   -451.65019   -1403.8303   -2607.8645 
 1991000    256.55918   -3893.9215   -3454.1878   -3893.9215            0    6979.9307    17.062339    20.097182    20.816014    7137.9139    8107.3533    7254.2218    5578.2169   -710.25469   -941.31441   -656.41541    -2727.583 
 1992000    265.66404   -3868.6685   -3413.3295   -3868.6685            0    6923.9787    17.064621    20.099869    20.818797    7140.7774    8729.6969    7201.9942     4840.245    192.70451   -513.78868   -680.61883     -2692.26 
 1993000    272.63149   -3875.4285   -3408.1475   -3875.4285            0    6956.3186    17.129183    20.175915    20.897564    7222.1343    8035.7507    3049.7129    9783.4921   -131.11405     2338.702   -130.88732   -2675.4564 
 1994000    265.54843   -3862.5432   -3407.4023   -3862.5432            0    7026.5837     17.02861    20.057454    20.774865    7095.6669    6439.2705    6550.9816    8089.4992    397.17569   -430.97433   -949.18578   -2680.2701 
 1995000    269.20418   -3853.7313   -3392.3245   -3853.7313            0     5660.803     17.12867     20.17531    20.896937    7221.4847    6078.4857    6255.3881    4648.5352    1242.1498    1974.3021    234.81232   -2796.1404 
 1996000    255.75253   -3861.3141    -3422.963   -3861.3141            0    7315.5275    17.039485    20.070262    20.788132    7109.2693    8059.6857    6300.5868    7586.3101    1029.3111    1245.5166    667.46698   -2664.4789 
 1997000    259.50314   -3880.4489   -3435.6694   -3880.4489            0    7595.5452    17.034491    20.064381     20.78204     7103.021    7826.9645    7668.4934    7291.1777    469.65395    1521.2536    899.71086   -2648.8447 
 1998000    271.62259   -3835.1615   -3369.6097   -3835.1615            0    8700.0509    17.082516    20.120947     20.84063    7163.2663    8746.7894    7477.5527    9875.8107   -637.11268    1590.1827    72.862436    -2460.725 
 1999000    258.12719   -3886.5056   -3444.0844   -3886.5056            0    6429.2381    17.084352     20.12311     20.84287    7165.5764    5745.4354    6517.2474    7025.0316    386.79585   -211.13183     705.5878   -2772.2124 
 2000000    258.55049   -3827.0819   -3383.9352   -3827.0819            0    6357.1208    17.054037    20.087403    20.805885    7127.4994    4142.7998    9461.0726      5467.49   -77.310431    -439.4033   -409.76532   -2723.1299 
Loop time of 432.527 on 64 procs for 250000 steps with 864 atoms

Performance: 99.878 ns/day, 0.240 hours/ns, 577.998 timesteps/s
99.1% CPU use with 64 MPI tasks x 1 OpenMP threads

MPI task timing breakdown:
Section |  min time  |  avg time  |  max time  |%varavg| %total
---------------------------------------------------------------
Pair    | 21.327     | 26.226     | 30.403     |  45.5 |  6.06
Bond    | 0.28905    | 0.29488    | 0.30268    |   0.6 |  0.07
Kspace  | 182.68     | 189.95     | 198.48     |  23.1 | 43.92
Neigh   | 5.3483     | 5.8254     | 6.5567     |  12.5 |  1.35
Comm    | 95.76      | 102.33     | 109.04     |  25.9 | 23.66
Output  | 1.1594     | 1.1656     | 1.1863     |   0.9 |  0.27
Modify  | 99.434     | 102.06     | 103.77     |  11.2 | 23.60
Other   |            | 4.672      |            |       |  1.08

Nlocal:        13.5000 ave          19 max           9 min
Histogram: 3 4 7 9 11 7 11 4 3 5
Nghost:        2229.80 ave        2259 max        2187 min
Histogram: 1 3 4 3 13 11 7 2 12 8
Neighs:        4324.08 ave        6561 max        2198 min
Histogram: 1 1 9 9 13 17 4 5 3 2

Total # of neighbors = 276741
Ave neighs/atom = 320.30208
Ave special neighs/atom = 2.0000000
Neighbor list builds = 13951
Dangerous builds = 1

unfix		3
unfix		2
unfix		1

write_data	data.final.${pid}
write_data	data.final.0
System init for write_data ...
PPPM initialization ...
  extracting TIP4P info from pair style
  using 12-bit tables for long-range coulomb (../kspace.cpp:340)
  G vector (1/distance) = 0.37387805
  grid = 24 24 24
  stencil order = 5
  estimated absolute RMS force accuracy = 0.0032050422
  estimated relative force accuracy = 9.6518895e-06
  using double precision FFTW3
  3d grid and FFT values/proc = 2535 216
Last active /omp style is kspace_style pppm/tip4p/omp
WARNING: Not all mixed pair coeffs generated from mixing. Use write_data with 'pair ij' option to store all pair coeffs. (../write_data.cpp:312)

write_restart   restart.lmp.${pid}
write_restart   restart.lmp.0
System init for write_restart ...
PPPM initialization ...
  extracting TIP4P info from pair style
  using 12-bit tables for long-range coulomb (../kspace.cpp:340)
  G vector (1/distance) = 0.37387805
  grid = 24 24 24
  stencil order = 5
  estimated absolute RMS force accuracy = 0.0032050422
  estimated relative force accuracy = 9.6518895e-06
  using double precision FFTW3
  3d grid and FFT values/proc = 2535 216
Last active /omp style is kspace_style pppm/tip4p/omp
Total wall time: 0:07:15
