LAMMPS (30 Jul 2021)
  using 1 OpenMP thread(s) per MPI task
package omp 0
using multi-threaded neighbor list subroutines
echo both

include		in.partitions
variable        pid world 0
include		in.temp
variable        temperature equal 255.23
variable	tempDamp equal 100.0
include		in.pressure
variable        pressure equal 6250.0
variable        pressureDamp equal 1000.0 # This is 1 ps
include		in.seed
variable        seed world 745823

units		real
atom_style	full
read_restart	restart.lmp.${pid}
read_restart	restart.lmp.0
Reading restart file ...
  restart file = 30 Jul 2021, LAMMPS = 30 Jul 2021
  restoring atom style full from restart
  orthogonal box = (0.54189800 1.7298155 0.66111430) to (17.665674 21.899362 21.552082)
  4 by 4 by 4 MPI processor grid
  restoring pair style lj/cut/tip4p/long/omp from restart
  restoring bond style harmonic/omp from restart
  restoring angle style harmonic/omp from restart
  864 atoms
  576 bonds
  288 angles
Finding 1-2 1-3 1-4 neighbors ...
  special bond factors lj:    0        0        0       
  special bond factors coul:  0        0        0       
     2 = max # of 1-2 neighbors
     1 = max # of 1-3 neighbors
     1 = max # of 1-4 neighbors
     2 = max # of special neighbors
  special bonds CPU = 1.536 seconds
  read_restart CPU = 1.784 seconds
include 	in.setup
variable	out_freq equal 1000
variable	out_freq2 equal 10000
variable	out_freq3 equal 1000

timestep	2.0

neigh_modify    delay 7 every 1

include		in.tip4p
# This is TIP4P/Ice

# create groups ###
group ox type 2
288 atoms in group ox
group hy type 1
576 atoms in group hy

# set charges - beside manually ###
set group ox charge -1.1794
Setting atom values ...
  288 settings made for charge
set group hy charge 0.5897
Setting atom values ...
  576 settings made for charge

# ### TIP3P Potential Parameters ###
pair_style lj/cut/tip4p/long/omp 2 1 1 1 0.1577 8.5
pair_coeff 1 1*2 0.000 0.000
pair_coeff 2 2 0.21084 3.1668
bond_style  harmonic
bond_coeff  1 450 0.9572
angle_style harmonic
angle_coeff 1 55 104.52
kspace_style pppm/tip4p/omp 1.0e-5
pair_modify tail yes

thermo          ${out_freq}
thermo          1000
thermo_style    custom step temp pe etotal epair emol press lx ly lz vol pxx pyy pzz pxy pxz pyz enthalpy

restart 	${out_freq3} restart.lmp.${pid} restart2.lmp.${pid}
restart 	1000 restart.lmp.${pid} restart2.lmp.${pid}
restart 	1000 restart.lmp.0 restart2.lmp.${pid}
restart 	1000 restart.lmp.0 restart2.lmp.0


include         in.dump
dump            myDump all atom ${out_freq2} dump.water.${pid}
dump            myDump all atom 10000 dump.water.${pid}
dump            myDump all atom 10000 dump.water.0
dump            myDump2 all dcd ${out_freq2} dump.dcd
dump            myDump2 all dcd 10000 dump.dcd
dump_modify     myDump append yes
dump_modify     myDump2 append yes


variable natoms 	equal  "count(all)"                        # NUMBER ATOMS
variable H      	equal  "enthalpy/v_natoms"                 # ENTHALPY-per-atom
variable Vol      	equal  "vol/v_natoms"                 # volume-per-atom
fix AVG all 		ave/time ${out_freq} 1 ${out_freq} v_Vol v_H file vol_enthalpy.dat
fix AVG all 		ave/time 1000 1 ${out_freq} v_Vol v_H file vol_enthalpy.dat
fix AVG all 		ave/time 1000 1 1000 v_Vol v_H file vol_enthalpy.dat


timer           timeout 23:50:00 every 1000
New timer settings: style=normal  mode=nosync  timeout=23:50:00

fix 		1 all shake 1e-6 200 0 b 1 a 1
       0 = # of size 2 clusters
       0 = # of size 3 clusters
       0 = # of size 4 clusters
     288 = # of frozen angles
  find clusters CPU = 0.145 seconds
fix             2 all nph iso ${pressure} ${pressure} ${pressureDamp}
fix             2 all nph iso 6250 ${pressure} ${pressureDamp}
fix             2 all nph iso 6250 6250 ${pressureDamp}
fix             2 all nph iso 6250 6250 1000
fix             3 all temp/csvr ${temperature} ${temperature} ${tempDamp} ${seed}
fix             3 all temp/csvr 255.23 ${temperature} ${tempDamp} ${seed}
fix             3 all temp/csvr 255.23 255.23 ${tempDamp} ${seed}
fix             3 all temp/csvr 255.23 255.23 100 ${seed}
fix             3 all temp/csvr 255.23 255.23 100 745823

run             250000
PPPM initialization ...
  extracting TIP4P info from pair style
  using 12-bit tables for long-range coulomb (../kspace.cpp:340)
  G vector (1/distance) = 0.37354058
  grid = 24 24 24
  stencil order = 5
  estimated absolute RMS force accuracy = 0.0032442526
  estimated relative force accuracy = 9.7699705e-06
  using double precision FFTW3
  3d grid and FFT values/proc = 2535 216
Last active /omp style is kspace_style pppm/tip4p/omp
Neighbor list info ...
  update every 1 steps, delay 7 steps, check yes
  max neighbors/atom: 2000, page size: 100000
  master list distance cutoff = 10.8154
  ghost atom cutoff = 10.8154
  binsize = 5.4077, bins = 4 4 4
  1 neighbor lists, perpetual/occasional/extra = 1 0 0
  (1) pair lj/cut/tip4p/long/omp, perpetual
      attributes: half, newton on, omp
      pair build: half/bin/newton/omp
      stencil: half/bin/3d
      bin: standard
Per MPI rank memory allocation (min/avg/max) = 9.234 | 9.238 | 9.241 Mbytes
Step Temp PotEng TotEng E_pair E_mol Press Lx Ly Lz Volume Pxx Pyy Pzz Pxy Pxz Pyz Enthalpy 
 9000000    259.97385    -3845.233   -3399.6467    -3845.233            0    5790.0104    17.123776    20.169547    20.890967    7215.2974    7497.9959     4365.811    5506.2244   -668.61353    601.64776    470.69008   -2790.3772 
 9001000    252.22939   -3867.6754   -3435.3629   -3867.6754            0    7469.0062    17.067914    20.103748    20.822815    7144.9124    7394.8542    9038.5577    5973.6067    594.52619   -640.15362    424.64521   -2657.0833 
 9002000    244.83941   -3861.9624    -3442.316   -3861.9624            0    5794.3835    17.169845     20.22381    20.947171    7273.6889    5733.2417     5956.781    5693.1276   -1282.5567   -405.19819    690.40353    -2827.652 
 9003000    252.99892   -3893.5342   -3459.9027   -3893.5342            0    5607.4958    17.176847    20.232057    20.955714    7282.5917    5212.4639     6983.834    4626.1897    76.475123    1066.8845    1038.5129   -2864.3355 
 9004000    251.25275   -3930.2606    -3499.622   -3930.2606            0    3887.5094    17.167729    20.221317    20.944589    7270.9994    3097.7685    4681.6463    3883.1132   -394.01518     513.4792   -48.904978   -3087.3902 
 9005000    262.70576   -3898.9606   -3448.6919   -3898.9606            0     6032.426     17.13117    20.178255    20.899987    7224.6469    5135.6977    6155.9972    6805.5831    685.58964    2377.5072    645.67303    -2813.091 
 9006000     265.9772   -3885.6036   -3429.7277   -3885.6036            0    5597.0014    17.106725    20.149462    20.870164    7193.7638    6626.3329    5847.4841     4317.187    433.28373    -1259.101    493.82258   -2842.5258 
 9007000    255.05414    -3876.041   -3438.8869    -3876.041            0    7799.8344    17.036849    20.067157    20.784916    7105.9703    7951.8506    7551.3716     7896.281   -811.06856   -1685.8862   -37.235303   -2630.5645 
 9008000    262.12278   -3885.9061   -3436.6366   -3885.9061            0    5804.3647    17.161553    20.214042    20.937054    7263.1553    6018.5888     4968.131    6426.3742    354.83216    383.70866   -962.37649   -2821.8054 
 9009000    264.48155   -3862.2687   -3408.9564   -3862.2687            0    6717.2108    17.158445    20.210382    20.933263    7259.2104    7647.5529    6198.0546    6306.0248   -155.44673    217.68777   -534.22464   -2697.8178 
 9010000    251.80701   -3871.2018   -3439.6133   -3871.2018            0    5005.6151    17.275366      20.3481    21.075907    7408.6211    4124.2845    6143.9727     4748.588   -208.55943   -643.31322     1588.903   -2898.7709 
 9011000    249.54823   -3859.3191    -3431.602   -3859.3191            0    7592.2641    17.084303    20.123053     20.84281     7165.515    6403.9347    9835.3096    6537.5481   -441.97576   -1061.4863   -1158.5907   -2638.1976 
 9012000    266.86527   -3882.1805   -3424.7826   -3882.1805            0    5768.1683    17.146299    20.196076    20.918445    7243.8057    5331.4034    5258.5987    6714.5028    757.06882    -884.2785    796.64107   -2815.4132 
 9013000     267.4952   -3891.9042   -3433.4266   -3891.9042            0    5926.5466    17.106037    20.148652    20.869325    7192.8967     5625.546    7181.8684    4972.2254   -47.912597   -1090.8369   -392.42664   -2811.7258 
 9014000    242.92005   -3912.0528   -3495.6961   -3912.0528            0     6515.358    17.203973    20.264007    20.988807    7317.1479    6250.8859    7242.5698    6052.6181    823.77894     589.0913    847.94727   -2800.4221 
 9015000    269.26112   -3920.0425   -3458.5381   -3920.0425            0    6868.3131    17.213651    20.275407    21.000613    7329.5031    7332.1913    6498.3792    6774.3689    1813.1816   -435.45121    931.54324   -2724.3616 
 9016000    257.57659   -3923.3644   -3481.8869   -3923.3644            0    4809.8413    17.248128    20.316017    21.042676    7373.6327    4746.0914    4506.7138    5176.7186     646.9829    1729.8387   -712.68105   -2964.6517 
 9017000    257.06182   -3898.0825   -3457.4873   -3898.0825            0     6825.061    17.190923    20.248637    20.972886    7300.5102    5879.9677    7044.9425    7550.2728    40.779594    658.79667   -514.25396     -2730.82 
 9018000    244.66986   -3933.3878    -3514.032   -3933.3878            0    4401.6632     17.22325    20.286713    21.012324    7341.7718    5957.9523    5239.9968    2007.0404    213.76335    522.10133    487.89934   -3042.7362 
 9019000    255.26212   -3920.9478   -3483.4373   -3920.9478            0      5884.27    17.159905    20.212101    20.935044     7261.063    4665.2389    4839.1315    8148.4397   -167.40182    1791.2321   -2792.2753   -2860.3216 
 9020000    251.33211   -3941.5036    -3510.729   -3941.5036            0     5465.804    17.210706    20.271939    20.997021    7325.7428    3893.5886    5888.7631    6615.0602    1269.5148    426.68253    984.90464    -2926.771 
 9021000    256.62314   -3915.4232     -3475.58   -3915.4232            0    5906.5553    17.133073    20.180497    20.902309    7227.0556    6381.0047    5613.9768    5724.6844   -1175.3203    1335.4835    -1370.967   -2853.0338 
 9022000    264.17242   -3904.3157   -3451.5332   -3904.3157            0     7183.169    17.134393    20.182052    20.903919    7228.7259    6950.2919    7562.7478    7036.4672   -213.43752    498.92993    634.49001   -2694.2581 
 9023000    249.40549   -3911.4241   -3483.9516   -3911.4241            0    7550.4644    17.060092    20.094535    20.813272    7135.0938    8361.3223    7297.6294    6992.4415   -986.75143   -718.77316   -347.52528   -2698.2652 
 9024000    274.28423   -3890.7326   -3420.6188   -3890.7326            0    4615.8302    17.210917    20.272187    20.997278    7326.0116    3598.4502    5069.4185    5179.6218   -756.48264     1726.989    773.01584   -2927.4526 
 9025000    242.00372   -3872.8248   -3458.0387   -3872.8248            0    4921.6894    17.188203    20.245432    20.969567    7297.0444    5599.3724    5034.0531    4131.6427    1307.4136   -722.73042    176.54239   -2934.2729 
 9026000    261.06616   -3887.5059   -3440.0474   -3887.5059            0    5548.8682    17.170293    20.224337    20.947717    7274.2577    4711.2317    6698.7527    5236.6202   -64.755913    690.74655    -792.3979   -2851.3814 
 9027000    274.96394   -3920.4719   -3449.1932   -3920.4719            0    6046.8324    17.133894    20.181464    20.903311    7228.0948    6535.7202    5293.3979    6311.3791   -1477.3088    12.852466      1105.44   -2811.7703 
 9028000     256.2286   -3930.3545   -3491.1874   -3930.3545            0    6972.5931    17.168597     20.22234    20.945648    7272.1028    7031.5099     7499.745    6386.5243   -712.19581     -893.362    98.376492    -2751.701 
 9029000    247.97362   -3915.6332   -3490.6149   -3915.6332            0    5177.2324    17.127351    20.173758    20.895329    7219.8174    5435.2361     3906.072    6190.3892    1317.7129   -982.36251     1804.459   -2945.4853 
 9030000    265.26928   -3885.2203   -3430.5579   -3885.2203            0    6212.5004    17.201472    20.261061    20.985755     7313.957    7376.4376    5158.2158    6102.8479   -235.43283   -357.77491    -448.9187   -2767.8918 
 9031000    255.76719    -3852.092   -3413.7158    -3852.092            0    5294.0878    17.211037    20.272328    20.997425    7326.1648     8182.858    4205.9995    3493.4059    1146.4929     946.7732   -352.95443   -2848.0711 
 9032000    259.72423    -3857.962   -3412.8036    -3857.962            0    5902.3593    17.200035    20.259369    20.984002    7312.1241    5487.1443    7133.9191    5086.0145   -141.54366    1300.4288   -973.59037    -2783.377 
 9033000    250.11378   -3864.7113   -3436.0248   -3864.7113            0    4923.7144      17.2355    20.301142    21.027269    7357.4482    3402.3972    5794.0989    5574.6473    207.66715    1135.0729   -2007.8708   -2907.7061 
 9034000    245.11856    -3894.844   -3474.7192    -3894.844            0    6792.9171    17.146858    20.196734    20.919127    7244.5136    7499.3851    7376.5349    5502.8312   -213.55356   -276.03647    -214.4126   -2757.0216 
 9035000    251.87219   -3918.6752   -3486.9749   -3918.6752            0     6147.433     17.24295    20.309918    21.036359    7366.9941    5104.5216    5001.3347    8336.4428   -686.67017    999.73085   -362.73306   -2826.4944 
 9036000     254.5298   -3891.8219   -3455.5665   -3891.8219            0    7035.0148    17.198935    20.258074     20.98266    7310.7217     5252.651     7147.987    8704.4064    935.64279    1259.4866    2479.8746   -2705.4977 
 9037000    253.43154   -3863.0695   -3428.6965   -3863.0695            0    4693.7254    17.219478    20.282271    21.007723    7336.9501    5200.0269    3875.9204    5005.2288     128.8965    1071.6174   -500.51266    -2926.459 
 9038000    252.59975   -3852.2438   -3419.2964   -3852.2438            0    6436.9437      17.1577    20.209504    20.932354    7258.2647    5904.1282    6835.4823    6571.2206    1270.0717    104.98615    1868.7676    -2737.918 
 9039000    258.38585   -3870.9848   -3428.1203   -3870.9848            0    5687.5304    17.241187    20.307841    21.034208    7364.7344    6058.0122    5067.3078    5937.2712    925.23895   -578.19207     1212.691   -2817.2391 
 9040000    252.24801   -3869.1058   -3436.7613   -3869.1058            0    8450.3625    17.072326    20.108945    20.828197    7150.4546    7606.6804    8170.4395    9573.9674   -337.19195   -144.03804   -1308.8928   -2555.5402 
 9041000    248.00935    -3862.539   -3437.4594    -3862.539            0    4969.1534    17.202418    20.262176     20.98691    7315.1643    5730.3386    3409.0446    5768.0769    259.79949    699.13398    1284.0892   -2907.3294 
 9042000     267.2006   -3921.3127     -3463.34   -3921.3127            0    7179.4969    17.197117    20.255933    20.980443    7308.4039    7027.2055    7009.3478    7501.9376    2074.4937    1221.0861    455.91279   -2698.1092 
 9043000    263.54554   -3879.4377   -3427.7296   -3879.4377            0    6658.5631    17.151308    20.201975    20.924555    7250.1551    7279.9162    6258.0349    6437.7381    487.72634   -13.643742   -250.05733   -2723.6793 
 9044000    259.82394   -3876.3649   -3431.0356   -3876.3649            0    7192.6395     17.09884    20.140175    20.860545    7183.8221    7076.8812    6949.3361    7551.7011    542.68984   -633.49281    538.66044   -2677.4723 
 9045000    239.63511   -3902.3326   -3491.6063   -3902.3326            0    4624.8636    17.115005    20.159216    20.880267    7204.2158      4507.36    4623.8499     4743.381    603.32808    816.01145     1218.611   -3005.6899 
 9046000    261.15946   -3868.1015   -3420.4831   -3868.1015            0    6998.2562    17.123098    20.168747    20.890139    7214.4396     5739.979     8038.094    7216.6956    1016.2628   -274.66802     990.9972   -2684.1602 
 9047000    247.58152   -3887.3377   -3462.9915   -3887.3377            0    8822.9755    17.072587    20.109253    20.828516    7150.7831    10147.317    6792.3656    9529.2443    1266.9394    11.068406    718.64563   -2542.8713 
 9048000    252.52031     -3869.64   -3436.8289     -3869.64            0    7282.9387    17.069462    20.105571    20.824704    7146.8567    7350.5704    6512.2422    7986.0034    1509.0996    101.99657    2156.7369   -2677.7313 
 9049000    260.01232    -3863.958   -3418.3058    -3863.958            0    6297.6732    17.126076    20.172255    20.893772    7218.2043    5987.6676    5348.6511    7556.7009    633.42117    104.60838    80.123904   -2755.3491 
 9050000    249.87125   -3867.4695   -3439.1987   -3867.4695            0    7313.8417      17.1152    20.159445    20.880504    7204.4617    7286.4001    7685.2655    6969.8596    1245.2437   -1333.1621    1925.1724   -2670.7357 
 9051000    269.96305   -3882.7877   -3420.0803   -3882.7877            0    4543.3732    17.134533    20.182217     20.90409    7228.9033     2596.998    4339.3042    6693.8173    1766.5071   -53.094786   -327.04207     -2941.09 
 9052000    252.62532   -3894.5687   -3461.5775   -3894.5687            0    6327.3877    17.187692    20.244831    20.968944    7296.3936    7266.0807    5408.0714    6308.0109    1111.0201   -490.78064    -741.2438   -2788.2776 
 9053000    250.01894   -3877.9249    -3449.401   -3877.9249            0    8575.9066    17.172257     20.22665    20.950113    7276.7543    8320.6104     8231.133    9175.9763    345.76593   -1319.4829   -1891.8331   -2539.2915 
 9054000    251.65826   -3867.0494   -3435.7158   -3867.0494            0    5047.8909    17.257708      20.3273    21.054363    7385.9257    5550.4426    4114.4288    5478.8014   -169.00242    548.95984    171.16997   -2891.9764 
 9055000    261.91297   -3936.4255   -3487.5156   -3936.4255            0    4998.7762    17.208385    20.269205     20.99419    7322.7793     4297.104    5628.2826     5070.942    311.91012      889.004    935.70848   -2953.6702 
 9056000    261.95912   -3892.7361   -3443.7471   -3892.7361            0    5298.4193    17.283877    20.358124    21.086289    7419.5759    6550.3347     4758.391    4586.5322   -241.31339   -392.85958    203.13209   -2870.4216 
 9057000    252.05628   -3909.0896   -3477.0738   -3909.0896            0     7886.369    17.168868    20.222659    20.945979    7272.4475    9287.2016    7451.3785    6920.5268   -225.10038   -644.54938   -1217.2234   -2640.6361 
 9058000    244.85446   -3887.6359   -3467.9637   -3887.6359            0    3453.8338    17.340643    20.424987    21.155544     7492.922    5600.0976    1058.9566    3702.4472    945.83633   -1167.7577   -876.76756   -3090.5406 
 9059000    261.32391   -3902.4828   -3454.5825   -3902.4828            0    5599.7681    17.155911    20.207397    20.930171    7255.9941    5161.9907    6543.5073    5093.8063    389.56271    1677.2106    -602.8018   -2862.0082 
 9060000     258.7518   -3935.1069   -3491.6152   -3935.1069            0    5101.2492    17.079487     20.11738    20.836934    7159.4565    6229.7289    5157.0729    3916.9457    764.82597    290.90279   -646.09849   -2958.9768 
 9061000     258.6036   -3905.7913   -3462.5536   -3905.7913            0    5072.2131    17.113388     20.15731    20.878293    7202.1734    4842.0193    5480.8901    4893.7299    844.70439    1015.3074    1018.8728   -2929.7871 
 9062000     244.2924   -3849.3212   -3430.6123   -3849.3212            0    3710.7618    17.203703     20.26369    20.988478     7316.804    2938.8099    4308.1614    3885.3142    1428.6992    130.41801    251.16231   -3034.6441 
 9063000    260.10281   -3866.3826   -3420.5753   -3866.3826            0    5990.2548    17.135777    20.183682    20.905608    7230.4781    6820.5372    5659.6442    5490.5829   -3.0151573    -567.3654   -681.66661   -2788.9082 
 9064000    264.93071   -3888.7865   -3434.7043   -3888.7865            0    8149.6556    17.053859    20.087193    20.805668    7127.2765    7712.1358    7181.4123    9555.4186   -2195.5499   -1433.3666    -814.7169   -2587.5964 
 9065000     246.2794   -3898.0047   -3475.8903   -3898.0047            0    6085.2979    17.130311    20.177244     20.89894     7223.561    3988.3456    7862.0783    6405.4697   -1223.7329    746.75529   -466.40573   -2834.8149 
 9066000    270.49861   -3882.1558   -3418.5305   -3882.1558            0    5345.6923    17.170185     20.22421    20.947585    7274.1206    7226.3062     3937.449    4873.3218    430.39302   -249.30433   -100.44356   -2851.4296 
 9067000    239.03664   -3875.5774   -3465.8767   -3875.5774            0    5664.8408    17.101914    20.143795    20.864295    7187.6963    6279.5186    5163.7077    5551.2962    359.32274    135.88648    847.88255   -2872.0588 
 9068000    255.74534   -3871.1104   -3432.7716   -3871.1104            0    4349.6456    17.142244    20.191299    20.913498    7238.6674    4309.7094    4004.8036    4734.4238   -48.745725   -109.28789    156.90848   -2973.5859 
 9069000    256.42425   -3899.4639   -3459.9615   -3899.4639            0    5565.3121    17.151652    20.202381    20.924976    7250.5924    5469.6606    5034.5356      6191.74   -1031.5739    30.362578   -741.32446   -2871.4717 
 9070000    262.69768   -3900.5972   -3450.3423   -3900.5972            0    5415.3793    17.171757    20.226062    20.949504    7276.1192    6601.2687    3168.7442    6476.1249   -574.39825   -230.92501   -960.30951   -2875.6908 
 9071000    252.77453   -3897.9451   -3464.6982   -3897.9451            0    6219.8211    17.119592    20.164619    20.885863    7210.0097    7415.6832    4149.7834    7093.9966    -427.7822    647.54918   -1268.7712   -2810.6803 
 9072000    263.67509   -3865.2721    -3413.342   -3865.2721            0     4274.224     17.24672    20.314358    21.040958    7371.8264     3700.141    4140.3072    4982.2237   -535.78922   -109.21805    617.14278   -2953.8179 
 9073000    249.44586   -3900.8572   -3473.3155   -3900.8572            0    8737.3328    17.058542    20.092709    20.811381    7133.1493    10769.648    8404.4171    7037.9331   -229.54995   -5.9335256    742.24374   -2564.3737 
 9074000    262.76042   -3930.0007   -3479.6383   -3930.0007            0    5855.5051    17.197131    20.255949     20.98046    7308.4219    4428.4181    4686.7362    8451.3609    1224.1344    969.34356   -444.22921   -2855.5244 
 9075000     262.6217   -3910.3742   -3460.2496   -3910.3742            0    6310.4376    17.213202    20.274878    21.000066    7328.9297    5721.8027    5152.2088    8057.3014    1836.1033    -556.9725    466.59142   -2785.7589 
 9076000    243.73449   -3897.4563   -3479.7037   -3897.4563            0    7059.0445    17.132067    20.179313    20.901082     7225.783    7380.8666    6260.7638    7535.5031    -421.2133    821.92241    119.01829   -2735.8171 
 9077000    259.13466   -3915.0868   -3470.9388   -3915.0868            0    8247.6357     17.11721    20.161812    20.882956    7207.0001     7877.257     7812.883    9052.7669    566.49206   -684.38819   -907.11372    -2604.057 
 9078000    268.71675   -3867.5289   -3406.9576   -3867.5289            0    4732.3268     17.20149    20.261083    20.985778    7313.9808    5548.5435    4692.5952    3955.8416   -349.17598    -222.9959    -1315.761    -2902.175 
 9079000    257.80085   -3885.7212   -3443.8594   -3885.7212            0     6852.263    17.138772    20.187209    20.909262    7234.2694    5455.4911    6530.2952    8571.0027   -459.69929     351.9168   -1051.2316   -2720.9155 
 9080000    261.90416   -3850.1819   -3401.2871   -3850.1819            0     4167.912    17.204051    20.264099    20.988902    7317.2472     4967.811    3391.7122    4144.2128   -1331.1634    426.81081   -506.78181   -2956.5103 
 9081000    255.66359   -3886.3531   -3448.1545   -3886.3531            0    6165.8836    17.077432     20.11496    20.834428     7156.873    6736.2082    6260.4128    5501.0298    1439.5081   -1002.1338    1728.2075   -2804.5864 
 9082000     252.2911   -3919.6953    -3487.277   -3919.6953            0    6363.1808    17.158944     20.21097    20.933872    7259.8441     5708.857    8264.4482     5116.237    1156.6402    1245.4631   -732.95237   -2813.5601 
 9083000    244.44208   -3901.1011   -3482.1357   -3901.1011            0    6562.4241    17.192512    20.250508    20.974825    7302.5343    6875.3418    6508.7677    6303.1629   -721.43018   -910.48159    534.40097   -2783.2377 
 9084000    272.04425   -3906.2892   -3440.0146   -3906.2892            0    4040.9726    17.284784    20.359193    21.087397    7420.7446    3773.0717     4039.536      4310.31   -723.18576    253.63238    -177.4213   -3002.6846 
 9085000    257.27273   -3896.6065   -3455.6498   -3896.6065            0    6075.8677    17.098078    20.139277    20.859615    7182.8606    7644.0144    5189.9983    5393.5904   -287.72942   -1143.6646   -119.81316   -2819.1744 
 9086000    253.29785   -3904.7602   -3470.6163   -3904.7602            0    5706.2126    17.200095     20.25944    20.984076    7312.2009    5160.7844    5819.5273    6138.3262   -964.28485    442.84685   -728.28457   -2862.1004 
 9087000    250.19112   -3923.2006   -3494.3815   -3923.2006            0    5494.1593    17.197716    20.256638    20.981174    7309.1679    5456.1943    6618.7116    4407.5721   -22.307023    1572.2479   -678.05004   -2908.7222 
 9088000    259.07628   -3881.1134   -3437.0655   -3881.1134            0    5484.7568    17.244228    20.311422    21.037917    7368.6314    5519.9157    6648.2752    4286.0795    433.27138   -1396.8117    595.54921    -2847.652 
 9089000    230.32008   -3906.5324   -3511.7716   -3906.5324            0     5794.299    17.170727    20.224848    20.948247    7274.8095    6279.5936    6892.8133      4210.49    97.257436   -341.52496   -260.41995   -2897.0218 
 9090000    263.84233   -3912.9676   -3460.7509   -3912.9676            0    6005.9164     17.13044    20.177396    20.899097    7223.7241    6113.9711    7298.0252     4605.753   -1089.6913   -19.252005   -869.52603   -2828.0239 
 9091000      236.994     -3893.21   -3487.0104     -3893.21            0    7848.8273     17.09676    20.137725    20.858007    7181.2001    8413.6792    8377.4674    6755.3354    477.96502    910.42163    2521.3696   -2664.9993 
 9092000    262.08754    -3890.112   -3440.9029    -3890.112            0    5651.0545    17.097374    20.138448    20.858756    7181.9737    6682.3936    5769.8437    4500.9261    253.34344    586.64811    -1200.383   -2849.0018 
 9093000    242.15647   -3903.6572   -3488.6093   -3903.6572            0    5762.5986    17.208461    20.269295    20.994283    7322.8766    6403.1486    5402.1818    5482.4654    720.12152    358.34822    815.67591   -2873.1832 
 9094000    253.98219   -3901.2449   -3465.9281   -3901.2449            0    5268.4355    17.194801    20.253204    20.977617    7305.4511    6460.2497    6295.5196    3049.5372    1486.8865   -1169.1695   -626.01162   -2904.6158 
 9095000    252.18906   -3911.0958   -3478.8524   -3911.0958            0    6904.6834    17.119415     20.16441    20.885647    7209.7859    6940.2794      8197.35    5576.4208     1563.406   -673.58336    115.29298   -2752.8434 
 9096000    258.71399   -3871.9876   -3428.5606   -3871.9876            0    5310.7896    17.220319    20.283261    21.008749    7338.0249    6185.2114    4513.8628    5233.2945    -684.0944    102.09569   -512.20481   -2860.2129 
 9097000    262.64546   -3875.1645   -3424.9991   -3875.1645            0    7095.2348    17.089111    20.128716    20.848676    7171.5664    7012.4467    6757.8482    7515.4097   -705.53136    1277.9286   -870.75314    -2682.909 
 9098000    256.46004   -3918.9888   -3479.4251   -3918.9888            0    7451.3701    17.138011    20.186313    20.908334    7233.3064    6633.3675    7407.1901    8313.5525   -1498.7723   -143.59113    2428.3967   -2693.3774 
 9099000    261.83386   -3901.7896   -3453.0153   -3901.7896            0    7214.1793    17.076894    20.114326    20.833771    7156.1965    8580.4463      6396.95    6665.1415   -1066.6423   -819.15097     1118.328   -2700.1018 
 9100000    261.04123   -3893.5878    -3446.172   -3893.5878            0    4789.1428    17.113528    20.157476    20.878464    7202.3504      4692.86    5224.3132    4450.2551    327.87506    -1096.723   -30.349745   -2943.1258 
 9101000    253.91616   -3901.5564   -3466.3528   -3901.5564            0    7184.3429    17.127208    20.173588    20.895153    7219.6356      6677.92      9752.29    5122.8187   -29.407607   -317.87721    1002.2714   -2709.9063 
 9102000    251.77298   -3859.5374   -3428.0071   -3859.5374            0    5302.5568    17.168182     20.22185    20.945141     7271.575    5010.1902    4112.6499    6784.8302    430.21593    455.30816     534.6662   -2865.6791 
 9103000    252.54562    -3894.385   -3461.5304    -3894.385            0     5184.793    17.204744    20.264916    20.989747    7318.1318    6450.3477    3758.8834    5345.1479   -121.29713    54.854258    985.30436   -2908.1707 
 9104000    246.63593   -3872.3368   -3449.6112   -3872.3368            0    6036.5971    17.122765    20.168355    20.889733    7214.0187    5817.1642     6319.173     5973.454   -610.36145   -346.18029     2015.019   -2814.5065 
 9105000    264.06276   -3856.5984   -3404.0039   -3856.5984            0    5231.2924    17.237499    20.303497    21.029708    7360.0089    3429.1588    5051.6522    7213.0663    136.09406   -332.14857    417.28008   -2842.4865 
 9106000    248.76007   -3869.9371   -3443.5708   -3869.9371            0    7227.8603    17.093591    20.133992    20.854141    7177.2077    5455.0193    8077.4623    8151.0993     856.0048    1662.1265   -304.69291   -2687.0147 
 9107000    237.32323   -3854.3642   -3447.6003   -3854.3642            0    6284.0589    17.166672    20.220073      20.9433    7269.6574    7779.1238    5008.3637    6064.6891   -358.98834   -2418.6714    466.76493   -2781.3613 
 9108000     247.8329   -3836.9417   -3412.1646   -3836.9417            0    4956.5275     17.19369    20.251896    20.976261    7304.0351    7065.1945    6261.5302    1542.8579    422.90266    949.45944   -152.42153    -2884.186 
 9109000    252.76248   -3860.8114   -3427.5852   -3860.8114            0    6660.2944    17.129928    20.176793    20.898472    7223.0766    6769.9811    5622.8925    7588.0096    813.88667    550.07889    516.85621    -2725.982 
 9110000    255.86938   -3863.3789   -3424.8275   -3863.3789            0    6660.7159    17.169036    20.222857    20.946184    7272.6606     6715.405    7572.6206    5694.1222    1233.3243    1348.2487    1416.0382   -2718.3634 
 9111000    252.20513   -3854.4628   -3422.1919   -3854.4628            0    6740.9035    17.104578    20.146933    20.867545    7191.0555    5941.0919    7690.5722    6591.0465    -2894.485    89.242395    255.94433   -2715.2452 
 9112000    243.79683   -3861.7086   -3443.8492   -3861.7086            0    4198.3276    17.164054    20.216988    20.940105    7266.3311    6343.6282    3616.0607    2635.2941    625.77223    769.33022    563.81145   -2998.9441 
 9113000    248.23654    -3874.136    -3448.667    -3874.136            0    7095.4306    17.111588     20.15519    20.876097    7199.9009    9352.2288    6385.0119     5549.051   -50.342317    53.416166    166.18408   -2703.6243 
 9114000    278.10294   -3872.0078   -3395.3489   -3872.0078            0    8532.9722    17.105256    20.147732    20.868372    7191.9108    7916.6618    8495.8124    9186.4424    106.04447    777.48858   -392.47453   -2500.3541 
 9115000     264.6498   -3878.4222   -3424.8215   -3878.4222            0    5890.6639    17.168979     20.22279    20.946115    7272.5888    4275.8342    7460.9957    5935.1619   -852.83154    748.09452   -867.65942   -2800.0386 
 9116000     248.6958   -3899.5013   -3473.2452   -3899.5013            0    5611.6875    17.154972    20.206291    20.929026    7254.8034    7974.6176    4247.1986    4613.2461   -1617.3155    301.71314    336.79448    -2879.507 
 9117000    245.06452   -3932.2736   -3512.2414   -3932.2736            0    7981.0215    17.172066    20.226425     20.94988    7276.5114    8654.5818    9288.3869    6000.0959   -1434.0389    951.51519   -646.17561   -2665.2918 
 9118000     248.1773   -3933.3129   -3507.9455   -3933.3129            0    5544.8141    17.152259    20.203096    20.925716    7251.3617     5150.288    8338.9764    3145.1778   -525.76768    398.10216   -893.23106    -2921.561 
 9119000    264.02197   -3918.0738   -3465.5492   -3918.0738            0      7710.47    17.116387    20.160843    20.881952    7205.9608     8141.715    9519.5985    5470.0965   -1650.6408     34.58145   -1366.8126    -2655.244 
 9120000    253.04258   -3909.6034    -3475.897   -3909.6034            0    6555.1838    17.127291    20.173686    20.895255    7219.7406    5454.2439    6035.1879    8176.1196    924.57095    397.71816    -524.1914   -2785.6853 
 9121000    255.19192   -3917.0745   -3479.6843   -3917.0745            0    6616.8225    17.096491    20.137409     20.85768    7180.8617    6065.3557     5695.978    8089.1339   -697.09525    835.24321    482.74044   -2786.7343 
 9122000    266.96274   -3885.6891   -3428.1241   -3885.6891            0    6735.3255    17.203783    20.263784    20.988575    7316.9054    7766.5504    6284.5406    6154.8856   -904.11435   -203.44738    558.69399   -2709.4004 
 9123000    256.83774   -3925.7244   -3485.5133   -3925.7244            0    6277.6031    17.142347    20.191421    20.913624    7238.7981    7487.9306    4091.1774    7253.7015    257.10085   -344.73368    1670.1018    -2822.784 
 9124000    261.35969   -3884.0188   -3436.0572   -3884.0188            0    5041.4603     17.20835    20.269163    20.994147    7322.7346    6158.9585    4584.1732    4381.2493   -1414.9746   -491.19723   -275.09362   -2897.6566 
 9125000    265.54968   -3876.2607   -3421.1177   -3876.2607            0    4980.1546    17.178074    20.233502    20.957211    7284.1523    5167.2364    3614.1387    6159.0887    -244.0357    538.87209    2530.9556   -2892.0664 
 9126000    263.93841   -3897.4151   -3445.0337   -3897.4151            0    7448.6745    17.070293     20.10655    20.825718    7147.9009    7080.8331    5051.4327    10213.758    311.48264    494.00922    1084.9524   -2668.5481 
 9127000    258.55922   -3890.7186   -3447.5569   -3890.7186            0    4771.0999    17.185738     20.24253    20.966561    7293.9062    4658.8623    4951.7928    4702.6447    -1287.363    331.54604   -114.90642   -2940.0353 
 9128000    258.79811   -3909.9713   -3466.4002   -3909.9713            0    5993.2142     17.11859    20.163438    20.884639     7208.743    7017.9117    4768.9982    6192.7328   -766.38303    877.45052   -19.195408   -2836.3209 
 9129000     256.2968   -3876.5526   -3437.2687   -3876.5526            0    6545.2592    17.071889     20.10843    20.827665     7149.906    7185.3145      5899.56    6550.9031   -323.39287    130.08377   -1514.4531    -2754.768 
 9130000    261.87623   -3954.4834   -3505.6365   -3954.4834            0    6264.5245     17.04006     20.07094    20.788834    7109.9897    7750.8819    4956.7757    6085.9157    481.28747    1226.4416     886.5859    -2856.056 
 9131000    250.27557   -3914.2113   -3485.2475   -3914.2113            0     7111.779    17.152144     20.20296    20.925576    7251.2157    6444.6634    7887.7264    7002.9471   -272.92443   -233.07267   -249.87981   -2733.1659 
 9132000    261.00766   -3875.2306   -3427.8724   -3875.2306            0    6204.5665    17.222592    20.285939    21.011522    7340.9309     5373.626    5749.8099    7490.2637   -350.87737   -1007.7196    227.28944   -2763.6118 
 9133000    240.24328   -3886.8559   -3475.0872   -3886.8559            0     4358.924    17.159222    20.211297    20.934211    7260.1965    5810.1943    3919.6137     3346.964     246.3358   -9.7706841   -635.34412   -3013.5533 
 9134000    247.19685   -3932.8676   -3509.1807   -3932.8676            0    5415.9934    17.145989    20.195711    20.918067     7243.413    5042.5112    6898.9906    4306.4785    142.14465   -25.305724    166.52088   -2937.0473 
 9135000    242.44163   -3927.5448   -3512.0082   -3927.5448            0     5221.909    17.125981    20.172143    20.893657    7218.0843     5204.702    6014.2828    4446.7423    383.64928    32.375757   -59.499963   -2962.3064 
 9136000    251.65039   -3917.8853   -3486.5652   -3917.8853            0    4457.3326    17.135978    20.183919    20.905853    7230.7324    5693.6544    2904.1651    4774.1781    799.27238      1359.78   -498.13097   -3016.5269 
 9137000    251.51613    -3920.992    -3489.902    -3920.992            0     7264.506    17.140485    20.189228    20.911352    7236.4397    7979.2321    7933.6947     5880.591    107.34092    1421.4215   -725.05142   -2723.2347 
 9138000    263.37822    -3910.458   -3459.0368    -3910.458            0    7587.0146    17.086165    20.125246    20.845082    7167.8579    5686.8482    8490.2755    8583.9201      786.885   -40.448247   -233.24964   -2665.9217 
 9139000    235.73263   -3913.3474   -3509.3097   -3913.3474            0    6072.4806    17.105392    20.147892    20.868538    7192.0825    4184.6798    6472.2146    7560.5475   -1411.2535    1663.5094    577.46214   -2872.3724 
 9140000     254.6363   -3917.8034   -3481.3655   -3917.8034            0    4513.8005    17.253392    20.322217    21.049098    7380.3855    7529.4071    3231.4762    2780.5183    483.89125     1729.021    177.08656    -2995.521 
 9141000    243.10403   -3902.1517   -3485.4797   -3902.1517            0    6147.3477    17.068602    20.104558    20.823654    7145.7765    6406.2332     7023.557    5012.2528    53.818211   -664.00062    419.59528   -2844.8411 
 9142000    246.20614   -3901.9305   -3479.9416   -3901.9305            0    6291.0111    17.212389    20.273921    20.999075    7327.8924    7060.7443    6676.7339     5135.555    171.21749   -67.388059    164.24686   -2807.6225 
 9143000    248.47478   -3893.5589   -3467.6817   -3893.5589            0     6548.473     17.09935    20.140775    20.861167    7184.4642    6984.6796    7389.5418    5271.1977    1904.0197   -2691.0793   -917.58192   -2781.5455 
 9144000    252.04135   -3906.1566   -3474.1663   -3906.1566            0    7539.5157    17.160328    20.212599     20.93556       7261.6    7534.3007    6519.5218    8564.7246   -921.59057   -561.09741   -1093.9375   -2675.7091 
 9145000    271.31393   -3922.3778    -3457.355   -3922.3778            0    7182.9499    17.160318    20.212588    20.935548    7261.5874    5536.9164    9641.9727    6369.9606   -606.64567    1709.8519     291.1612   -2696.6604 
 9146000    262.47711   -3934.4984   -3484.6216   -3934.4984            0    8812.2061    17.118282    20.163075    20.884264    7208.3537    7974.3427    8613.1614    9849.1142    2212.2463    -1546.603    58.230824   -2558.2257 
 9147000    248.20566   -3914.8662   -3489.4502   -3914.8662            0    6636.3455    17.107053    20.149849    20.870565    7194.1787     8484.746    4893.0077    6531.2827   -134.79038   -753.36935   -1623.6208   -2793.1667 
 9148000    249.39036   -3922.9986   -3495.5521   -3922.9986            0    5780.4276    17.118174    20.162948    20.884133    7208.2181    6736.7556     5445.857      5158.67   -200.72208    781.03043    1047.3999   -2887.8877 
 9149000    265.69309   -3880.0556   -3424.6667   -3880.0556            0    6652.2973    17.136454    20.184479    20.906434    7231.3346    7256.9002    6607.7007    6092.2909   -249.02239    2012.8064    1072.0508   -2723.1048 
 9150000    251.19012   -3907.8876   -3477.3564   -3907.8876            0    6302.6206    17.171039    20.225216    20.948628    7275.2064    7248.0217     5067.944    6591.8961    -173.1195   -1400.0693    737.38289   -2808.6394 
 9151000    253.72931   -3881.5935   -3446.7101   -3881.5935            0    6235.6022      17.1639    20.216807    20.939918    7266.1358     5257.639    5863.8401    7585.3276     364.8467   -413.34404    -367.8555   -2785.9287 
 9152000    235.61766   -3879.9478   -3476.1071   -3879.9478            0    4876.1317    17.179692    20.235408    20.959184    7286.2105    3948.5153    5537.7247    5142.1551    1271.2161   -1060.6074    -348.7841   -2957.9601 
 9153000    255.87361   -3879.8017   -3441.2431   -3879.8017            0    6648.2975    17.138991    20.187468    20.909529    7234.5472    8489.0774    5170.9535    6284.8615   -236.72746   -561.95762    1000.7607   -2739.7915 
 9154000    244.07952   -3915.9551   -3497.6111   -3915.9551            0    6631.1049    17.180308    20.236134    20.959936    7286.9947    6496.5937     7835.534     5561.187   -398.73362    -483.2089      160.372   -2792.9014 
 9155000    243.32389   -3883.7004   -3466.6516   -3883.7004            0    5861.3523    17.155516    20.206931    20.929689    7255.4927    8323.7455     3032.021    6228.2904   -880.65842    -334.9324   -156.84564    -2846.439 
 9156000    243.83648   -3922.0315   -3504.1042   -3922.0315            0    5051.9715    17.170438    20.224507    20.947894    7274.4418    5024.7341    6577.8132    3553.3672    456.61805    336.79741    145.68335   -2968.1391 
 9157000    243.37297   -3871.7845   -3454.6516   -3871.7845            0    4344.6502    17.225175    20.288981    21.014674    7344.2347    3166.0656    5338.3884    4529.4964    288.70117    266.11696   -907.41056   -2989.3042 
 9158000     258.9018    -3893.808   -3450.0592    -3893.808            0    6036.4861    17.206406    20.266874    20.991775    7320.2532    6807.8304    6138.0926    5163.5352   -166.07826   -1973.4907   -227.55587   -2805.6137 
 9159000    252.92906   -3877.8525   -3444.3408   -3877.8525            0    6968.1915    17.193927    20.252175    20.976551    7304.3379    6782.7389    6796.0186     7325.817   -82.288301   -891.28362    2193.4964   -2702.0453 
 9160000    264.41871   -3885.0656    -3431.861   -3885.0656            0    6369.9364    17.151482     20.20218    20.924767    7250.3757    4988.7295    7005.8846    7115.1949   -446.51969    1116.5844   -361.34633   -2758.3084 
 9161000    254.16359   -3927.6353   -3492.0076   -3927.6353            0    6929.2945    17.128232    20.174795    20.896403    7220.9311    7909.7639    6099.9861    6778.1334   -554.42635    13.422225   -1637.7617   -2762.2845 
 9162000    249.45631   -3906.8486    -3479.289   -3906.8486            0    5277.9033    17.148576    20.198758    20.921223    7246.6921    6459.0489    3955.2476    5419.4133   -795.85752    1066.9801     484.0494   -2921.4908 
 9163000     253.9591   -3907.3095   -3472.0323   -3907.3095            0    6547.3147    17.121613    20.166998    20.888327    7212.5624     8563.198    5851.6697    5227.0764   -343.22054   -961.18909    692.31551   -2783.3345 
 9164000    253.32082   -3908.3357   -3474.1525   -3908.3357            0    6790.4272    17.100246    20.141831     20.86226    7185.5938    4034.3636    8208.4553    8128.4627   -216.05263    1301.5984    412.49988   -2762.5529 
 9165000    249.61089   -3910.4919   -3482.6674   -3910.4919            0    4320.2863    17.140505    20.189251    20.911376    7236.4645    4781.9086     2312.781    5866.1694    100.15697   -1183.6052    811.63983   -3026.7199 
 9166000     257.3086   -3892.6288   -3451.6106   -3892.6288            0     5135.949    17.175751    20.230766    20.954376     7281.197    5497.0442    5538.0405    4372.7622   -351.33374   -1425.0914   -562.30699   -2906.2304 
 9167000    247.91522   -3926.9214   -3502.0032   -3926.9214            0    4640.6662    17.050341    20.083049    20.801376    7122.8659    4363.1252    4850.2051    4708.6682    1330.7205   -89.485769   -1455.9548   -3019.9323 
 9168000    260.17806   -3865.4736   -3419.5373   -3865.4736            0    5046.4171    17.169215    20.223068    20.946403    7272.8887    5436.8419    3660.9709    6041.4386    1895.4282    149.06274    883.73819   -2884.2758 
 9169000    255.23925   -3850.3906   -3412.9193   -3850.3906            0    5575.5314    17.175749    20.230763    20.954373    7281.1944    5817.3247    5685.9084    5223.3611    957.58167    847.36864    392.37391   -2820.8605 
 9170000    260.21357   -3888.6298   -3442.6326   -3888.6298            0    4671.9334    17.204847    20.265037    20.989873    7318.2629     6570.003    3333.2799    4112.5174   -135.86759    1073.4751    47.496855   -2944.0002 
 9171000    258.30335   -3888.2857   -3445.5626   -3888.2857            0    8848.7949    17.108496    20.151548    20.872325    7195.9987     7170.994    10175.591    9199.8002    1017.0457    436.02973   -197.60364   -2516.9147 
 9172000     254.2946   -3909.9598   -3474.1075   -3909.9598            0    5961.0059    17.235782    20.301474    21.027613    7357.8096    7377.5938    5933.1908    4572.2331   -437.35106    2676.6472    150.31569   -2834.4552 
 9173000    251.30615   -3884.2474   -3453.5172   -3884.2474            0    6492.2246    17.159302    20.211391    20.934308    7260.2979    5639.8834    7198.7643    6638.0262   -530.03041    864.19813    187.45471   -2766.0945 
 9174000    243.14563   -3889.6801   -3472.9368   -3889.6801            0    7556.4264    17.252416    20.321067    21.047907    7379.1333    8050.7662    6329.2371    8289.2758    1216.5916   -1306.2505    32.056094   -2659.7362 
 9175000    247.21756   -3876.8216   -3453.0991   -3876.8216            0    5268.6732    17.255692    20.324925    21.051903    7383.3372    4641.8908    5643.1787      5520.95   -9.6855257   -906.93322     1769.099   -2885.7768 
 9176000    255.40558    -3898.967   -3461.2106    -3898.967            0    6426.7461    17.195959    20.254569     20.97903    7306.9278    7194.4746    5625.3437    6460.4199    1057.2505    452.92484    924.57174   -2776.3505 
 9177000    253.57735   -3865.5634   -3430.9405   -3865.5634            0    6086.4883    17.224071    20.287681    21.013327    7342.8223    5322.2834     7124.693    5812.4885   -429.05781   -1256.4553   -588.46319   -2779.1535 
 9178000    256.97011   -3892.2782   -3451.8403   -3892.2782            0     4786.105    17.288332    20.363371    21.091724    7425.3144    4124.9112    6218.7202    4014.6837   -472.86284    1198.4353   -283.67316   -2933.5501 
 9179000    249.55804   -3885.4314   -3457.6974   -3885.4314            0    7113.8293    17.207588    20.268266    20.993218    7321.7621    5449.5105     10351.81    5540.1679   -1530.6711     4.741444    1157.5283     -2698.08 
 9180000    249.64329   -3903.6737   -3475.7937   -3903.6737            0    6408.2518    17.182803    20.239073     20.96298    7290.1699     6230.273    5673.2772    7321.2053    760.40532   -793.23959   -1047.7897   -2794.4706 
 9181000    256.39611   -3906.1962   -3466.7421   -3906.1962            0    6633.0232    17.208491    20.269329    20.994319    7322.9141    7265.2225    7234.0436    5399.8036   -760.15796   -438.61997   -173.03972   -2758.3538 
 9182000    273.31386   -3899.9758   -3431.5251   -3899.9758            0    8650.8716    17.150635    20.201183    20.923735    7249.3027    9593.3278    9096.2404    7263.0465    1267.3429     1371.454    990.57242   -2516.9235 
 9183000    252.99813   -3921.4685   -3487.8383   -3921.4685            0    5888.2591    17.212782    20.274384    20.999554    7328.3937    5530.5253     5073.423    7060.8291   -342.79806    127.67711   -826.92225   -2858.5182 
 9184000    247.44854   -3912.9131   -3488.7948   -3912.9131            0     8407.883    17.192886    20.250948     20.97528    7303.0105    9273.0838    7223.7071    8726.8581    313.34299   -161.53168    1133.0606   -2593.2971 
 9185000    269.46778   -3934.1249   -3472.2663   -3934.1249            0    7145.5347    17.208873     20.26978    20.994785    7323.4026    6169.5905    7654.1786     7612.835    179.25863    1157.5804   -59.652315   -2709.0924 
 9186000    264.27434   -3898.5993   -3445.6421   -3898.5993            0    7235.5605     17.13881    20.187254    20.909308    7234.3177    7058.0878    8830.3135    5818.2802   -1734.4278   -1070.2379   -116.65354   -2682.2536 
 9187000    250.98352   -3892.4354   -3462.2582   -3892.4354            0    6004.5607     17.09873    20.140045    20.860411    7183.6828    7967.5603    5625.0038     4421.118    116.17533    52.150949   -311.90995   -2833.1805 
 9188000    270.58752   -3887.3268   -3423.5491   -3887.3268            0    8068.4743    17.077465    20.114998    20.834467     7156.914    9539.9351    8444.9537     6220.534   -725.36377    789.26065    2237.1304    -2581.392 
 9189000    252.49294   -3900.3824   -3467.6182   -3900.3824            0    6420.6784    17.101499    20.143307    20.863789    7187.1735    5557.7166     6115.848    7588.4707   -243.48278    349.32069    410.99642   -2794.6184 
 9190000    267.35238   -3869.1348    -3410.902   -3869.1348            0    4216.9063    17.215572    20.277669    21.002957    7331.9574    4547.6243    3167.9534    4935.1411    733.16633   -73.444684    34.364356   -2959.9921 
 9191000    260.58286   -3893.9496   -3447.3195   -3893.9496            0    7058.5953    17.115553    20.159861    20.880935    7204.9079       6943.1    9773.9032    4458.7827   -152.46669   -457.25672    1049.4238   -2705.6292 
 9192000    250.69009   -3870.0748   -3440.4005   -3870.0748            0    4993.6489    17.177745    20.233114    20.956808    7283.7331    5323.2705    5498.3036    4159.3727    -1689.292   -796.76943    1156.1043   -2909.9463 
 9193000    239.94935   -3877.5333   -3466.2683   -3877.5333            0    7427.3869    17.143133    20.192347    20.914583     7239.794    6765.2859    7777.7198     7739.155    274.66548    505.19993   -56.226866   -2682.0479 
 9194000    263.14356   -3876.8557   -3425.8367   -3876.8557            0    5731.3764    17.083325      20.1219    20.841617    7164.2842    6492.9406    4613.9616    6087.2268    302.21837    568.40905   -1512.7751   -2827.0011 
 9195000    248.13004   -3885.0993   -3459.8129   -3885.0993            0    5736.5918    17.198012    20.256987    20.981535    7309.5452      6343.63    5764.3515     5101.794    -843.7494    579.55689    598.06148   -2848.2795 
 9196000    267.67074    -3905.969   -3447.1906    -3905.969            0    5963.1674    17.163038    20.215791    20.938866    7265.0409    7082.1497    5949.5725    4857.7799   -1313.7985    625.76847   -275.62869   -2815.3741 
 9197000    244.90533   -3860.4065   -3440.6472   -3860.4065            0    5992.7658    17.181319    20.237324    20.961169    7288.2803     4422.643    8529.9414     5025.713   -1012.1245     68.40189   -459.81637   -2803.6636 
 9198000    254.44687   -3882.2431   -3446.1299   -3882.2431            0     4948.045    17.205256    20.265519    20.990372    7318.7853     5992.498    4303.1021     4548.535    79.163138    287.17237    1912.2559   -2917.9905 
 9199000     265.8018   -3872.6856   -3417.1104   -3872.6856            0     5015.773    17.121688    20.167087    20.888419    7212.6577    4392.5507    5583.7318    5071.0366    1887.9001   -775.92822   -89.646889   -2889.5051 
 9200000    250.94576   -3883.0232   -3452.9107   -3883.0232            0    6025.4447    17.120188     20.16532    20.886589    7210.7617    5133.2408    4949.5036    7993.5898    2052.4347   -1174.1996   -1013.1626   -2819.2656 
 9201000    255.09891   -3886.7602   -3449.5294   -3886.7602            0      6976.36    17.113111    20.156984    20.877955    7201.8234     6891.763    6093.8054    7943.5117    1554.3615   -347.68684    2003.7708   -2716.7939 
 9202000    248.61697   -3876.1804   -3450.0594   -3876.1804            0    5578.8193     17.15617    20.207702    20.930487    7256.3225    3861.6308    7174.6995    5700.1276    201.22909   -332.58625   -52.645171   -2859.6752 
 9203000    246.34975   -3901.7579   -3479.5229   -3901.7579            0    5367.3491    17.160785    20.213138    20.936117    7262.1801     4666.508    5914.2172     5521.322    288.41949   -1069.3335   -1040.7902   -2911.0592 
 9204000    253.33677   -3914.3639   -3480.1534   -3914.3639            0    6712.4158    17.097881    20.139045    20.859375    7182.6128    7520.9346    7423.5733    5192.7395   -100.35474   -1537.5272    517.22702   -2777.0209 
 9205000    247.00828   -3900.8416   -3477.4778   -3900.8416            0     6917.016    17.182136    20.238286    20.962166    7289.3203    7239.3619    6688.7314    6822.9545    -167.1192    1104.6186    457.87235   -2742.1488 
 9206000    255.75913   -3908.2726   -3469.9103   -3908.2726            0     5973.509    17.128514    20.175127    20.896748    7221.2882    6467.3955    5026.6139    6426.5175   -1321.6572     367.8678    538.62658   -2840.8097 
 9207000    246.35319    -3879.114    -3456.873    -3879.114            0    5889.1756    17.207058    20.267641     20.99257    7321.0847    4294.4757    6349.9199     7023.131   -1331.8615   -706.97036    285.93171   -2828.0827 
 9208000    258.30394   -3916.7688   -3474.0447   -3916.7688            0    6015.5541    17.194205    20.252503     20.97689    7304.6923    5799.6856    5719.0886    6527.8881    673.62327   -1198.2635   0.35118082    -2833.199 
 9209000    257.77375    -3934.236   -3492.4206    -3934.236            0    4923.9325    17.229876    20.294518    21.020409     7350.249    4203.8616    3712.5712    6855.3648   -1089.3054    536.38928    1051.9278   -2964.5955 
 9210000     260.9626   -3907.3795   -3460.0986   -3907.3795            0    5869.4909    17.201258     20.26081    20.985495    7313.6845    5330.2894    6552.4572    5725.7263    666.07112    206.77007   -105.25845   -2834.0435 
 9211000    255.48492   -3919.1204    -3481.228   -3919.1204            0    6307.7598    17.141174    20.190039    20.912192    7237.3119    5774.9198    7270.3511    5878.0084    173.22175   -36.152257    317.38034   -2815.4517 
 9212000    260.30105   -3905.7286   -3459.5815   -3905.7286            0    5978.2484    17.031792    20.061201    20.778746    7099.6448    6124.4877    5501.1769    6309.0807   -252.86811    1739.7128    198.34183   -2840.5875 
 9213000    266.64614    -3924.259   -3467.2366    -3924.259            0     5342.991    17.105132    20.147586    20.868221     7191.755    6716.0572    4887.5313    4425.3846   -86.439786    450.80738    155.13822   -2906.8404 
 9214000     246.0139   -3919.6971   -3498.0377   -3919.6971            0    6045.5679    17.175319    20.230258     20.95385    7280.6484    7094.1121    4757.0739    6285.5177    120.87579    1277.9306   -280.15978   -2856.1146 
 9215000    252.15635   -3968.1524   -3535.9651   -3968.1524            0    7066.7645    17.062614    20.097505    20.816349    7138.2583    5985.1094    8127.5638    7087.6203   -1579.5873    290.72329   -1186.2777   -2800.2854 
 9216000    246.76632   -3916.2944   -3493.3454   -3916.2944            0    4713.2864     17.11967    20.164711    20.885958    7210.1084    3887.9551    5599.5122    4652.3919   -1034.5001   -635.95172    1170.7748   -2997.7337 
 9217000    238.78718   -3907.5109   -3498.2378   -3907.5109            0    6518.9663    17.147771    20.197809     20.92024    7245.6708    8124.5921    4675.4893    6756.8175    769.35813    -228.1399    945.66559   -2809.3742 
 9218000    266.14782   -3924.5409   -3468.3726   -3924.5409            0    6328.4805    17.127761     20.17424    20.895828    7220.3348    5908.7016    5474.8523    7601.8877   -1049.8759    174.70957    482.71437   -2801.9762 
 9219000    253.96974   -3888.4079   -3453.1125   -3888.4079            0    4602.1636    17.149951    20.200377      20.9229    7248.4352    3863.4762    4320.9066    5622.1079   -403.49994     -179.423   -243.61934   -2966.6132 
 9220000    249.00096   -3905.1581    -3478.379   -3905.1581            0    7544.6185     17.08698    20.126206    20.846076    7168.8839    9139.6003    8064.1957    5430.0594   -422.67325   -883.57504     1216.197    -2689.583 
 9221000     246.0035   -3878.2809   -3456.6393   -3878.2809            0    6033.9316    17.183352    20.239719     20.96365    7290.8686    5559.7035    7803.2576    4738.8337    208.16565    656.70395   -351.01684   -2815.0523 
 9222000    249.47826   -3897.9493   -3470.3521   -3897.9493            0    5813.9757    17.154269    20.205464    20.928169    7253.9119    4632.8186     6993.465    5815.6437    734.47261   -1133.0839   -595.72659   -2855.2866 
 9223000    243.90521   -3872.8775   -3454.8323   -3872.8775            0    5591.3782    17.164754    20.217812    20.940959    7267.2201    6561.2932     6457.677    3755.1644    355.75653    788.15434    573.38675   -2862.2304 
 9224000    248.35994    -3883.058   -3457.3776    -3883.058            0    6837.9833    17.153704    20.204797    20.927478    7253.1942    7338.0982    6638.4694    6537.3822    700.03821   -273.23987    274.73009    -2734.053 
 9225000    241.36283   -3879.5467   -3465.8591   -3879.5467            0     7017.362    17.106349     20.14902    20.869706    7193.2902    7946.2779    6969.4751     6136.333   -2191.6367    673.21561    525.58051   -2729.6904 
 9226000    253.25567   -3898.7454   -3464.6739   -3898.7454            0     8461.041    17.079083    20.116904    20.836441    7158.9486    7987.9789    9836.2034    7558.9407   -286.01062    584.59273   -319.62945   -2581.2911 
 9227000    269.60895   -3877.5822   -3415.4816   -3877.5822            0    6135.5324    17.228791     20.29324    21.019084    7348.8599    6346.5304     7756.426    4303.6407     146.4782   -572.16388    523.72717   -2757.9024 
 9228000    266.52565   -3897.8859   -3441.0701   -3897.8859            0    7902.5989    17.102333    20.144289    20.864806    7188.2246    7297.0837    9895.3615    6515.3515    268.15872   -510.68404    -349.6674   -2612.6178 
 9229000    269.51647    -3932.477    -3470.535    -3932.477            0    6786.6253    17.133876    20.181442    20.903288    7228.0712    5806.3543     9011.357    5542.1646    105.40249   -640.89633   -767.48033   -2755.1297 
 9230000    260.25344    -3896.524   -3450.4585    -3896.524            0    5372.4321    17.160304    20.212571     20.93553    7261.5694    6144.0317    5804.7754    4168.4893    -65.11057    720.81388   -432.21824   -2881.5043 
 9231000    260.14038   -3917.5593   -3471.6876   -3917.5593            0    4705.5521    17.188558    20.245851    20.970001    7297.4974    4536.0516    3577.7318    6002.8729   -165.02897   -505.15671   -483.06285   -2970.8921 
 9232000    263.47968   -3907.8366   -3456.2414   -3907.8366            0    6458.0241     17.08397     20.12266    20.842404    7165.0959    7345.3893    4949.4319    7079.2511   -1287.9161   -461.46564   -296.63787   -2781.4065 
 9233000    239.14414   -3867.0957   -3457.2109   -3867.0957            0    8321.7723    17.143298    20.192541    20.914784     7240.003    7412.6527      9305.73    8246.9342    997.68488    575.47373   -241.95387   -2578.5314 
 9234000     263.8968   -3868.3972   -3416.0871   -3868.3972            0    8607.3587    17.144803    20.194313    20.916619    7241.9092    6130.2546    9159.9147    10531.907   -1067.9736   -354.56792   -1214.7132   -2507.0139 
 9235000    245.69186   -3896.3437   -3475.2362   -3896.3437            0    6539.0634    17.201735    20.261371    20.986076    7314.2926    7578.8318    6039.7818    5998.5766    476.76676    659.28826    1001.0409   -2777.7048 
 9236000    256.92366   -3910.9225   -3470.5642   -3910.9225            0    5831.2428    17.122334    20.167848    20.889208    7213.4744    5082.4979    5345.0355    7066.1951    29.589352    1397.2384    999.98116   -2857.1108 
 9237000    254.66821   -3890.8528   -3454.3602   -3890.8528            0    6997.4882    17.177334    20.232631    20.956307    7283.2107    5875.5884    7599.2979    7517.5783    278.98628    1053.3945     480.2915   -2711.0999 
 9238000    252.55982   -3866.7706   -3433.8917   -3866.7706            0    5334.3296    17.180862    20.236786    20.960612    7287.6995    5005.5856     5191.723    5805.6802    -774.1727    1470.1331   -849.32966   -2866.9399 
 9239000    260.52217   -3902.0793   -3455.5532   -3902.0793            0    4210.8267    17.147027    20.196933    20.919333    7244.7283    4955.9971    3123.3295    4553.1536    58.053921    1457.2043   -1257.8605   -3010.6502 
 9240000    254.68258   -3889.3215   -3452.8043   -3889.3215            0    5372.7037    17.178295    20.233762    20.957479    7284.4328    3301.2008    7386.1937    5430.7165   -1171.1364   -1504.4044    1167.3278   -2882.0299 
 9241000    249.24639   -3917.2436   -3490.0438   -3917.2436            0    5291.8556    17.149746    20.200136     20.92265    7248.1752    5000.0652    6219.0095    4656.4921   -729.88767   -1491.6593    251.00155   -2930.6565 
 9242000    253.65468   -3870.0658   -3435.3103   -3870.0658            0    7524.5875    17.153124    20.204114    20.926771    7252.4584     7932.316    6415.3812    8226.0652    1011.9743   -1064.3459   -256.28495   -2639.4372 
 9243000    257.52745   -3830.3343   -3388.9411   -3830.3343            0    6643.9362    17.107174    20.149992    20.870713    7194.3311    6782.6964    6630.7134    6518.3989   -899.67738   -1859.3662   -313.06637   -2691.8464 
 9244000    261.57829   -3892.8052    -3444.469   -3892.8052            0    6974.3482    17.101148    20.142894    20.863361    7186.7311    7581.5313    6117.7424    7223.7711    874.10363   -184.68664   -237.52905   -2713.4799 
 9245000     262.5225   -3872.7934   -3422.8388   -3872.7934            0    7106.8947    17.118074     20.16283     20.88401    7208.0911    7393.7072    7105.2884    6821.6883    93.372558    920.79634   -1220.1243   -2675.7435 
 9246000    251.24687   -3890.5545    -3459.926   -3890.5545            0    4886.5559    17.175176    20.230089    20.953675    7280.4665    4836.9999     2717.483    7105.1849    1456.1077    1439.7653    316.39492   -2941.0806 
 9247000    241.01699   -3876.7542   -3463.6593   -3876.7542            0    6210.2469    17.130108    20.177004    20.898691    7223.3036     5765.489    7107.1839    5758.0679    1029.5785    1043.2029    1470.9199   -2809.4441 
 9248000    259.62057   -3850.2202   -3405.2394   -3850.2202            0    6529.0431     17.06181    20.096559    20.815368    7137.2499     5650.574    7247.2389    6689.3163    1567.9359    870.62993    1558.4929   -2725.6348 
 9249000    246.37242   -3904.7007   -3482.4268   -3904.7007            0    5657.1596    17.108053    20.151026    20.871784    7195.4396     6064.038    4190.8784    6716.5625    685.57754    367.96926    500.62977   -2888.7752 
 9250000    278.40943   -3905.6503   -3428.4661   -3905.6503            0    7040.1276    17.088644    20.128165    20.848105    7170.9776    7436.0026    7507.5313    6176.8489    73.291354    94.227695    1211.7569      -2692.2 
Loop time of 420.134 on 64 procs for 250000 steps with 864 atoms

Performance: 102.824 ns/day, 0.233 hours/ns, 595.048 timesteps/s
99.1% CPU use with 64 MPI tasks x 1 OpenMP threads

MPI task timing breakdown:
Section |  min time  |  avg time  |  max time  |%varavg| %total
---------------------------------------------------------------
Pair    | 21.504     | 26.112     | 31.13      |  48.2 |  6.22
Bond    | 0.27295    | 0.28342    | 0.29957    |   1.0 |  0.07
Kspace  | 177.46     | 186.98     | 198.02     |  35.9 | 44.50
Neigh   | 4.5516     | 5.3623     | 6.2663     |  22.5 |  1.28
Comm    | 88.08      | 97.705     | 104.93     |  44.6 | 23.26
Output  | 1.0506     | 1.052      | 1.0581     |   0.1 |  0.25
Modify  | 96.24      | 98.255     | 100.27     |  11.7 | 23.39
Other   |            | 4.388      |            |       |  1.04

Nlocal:        13.5000 ave          18 max          10 min
Histogram: 3 9 11 11 0 9 8 8 4 1
Nghost:        2226.05 ave        2285 max        2165 min
Histogram: 1 1 6 11 10 17 8 5 2 3
Neighs:        4305.48 ave        5979 max        3005 min
Histogram: 5 10 9 4 11 9 4 6 3 3

Total # of neighbors = 275551
Ave neighs/atom = 318.92477
Ave special neighs/atom = 2.0000000
Neighbor list builds = 13379
Dangerous builds = 0

unfix		3
unfix		2
unfix		1

write_data	data.final.${pid}
write_data	data.final.0
System init for write_data ...
PPPM initialization ...
  extracting TIP4P info from pair style
  using 12-bit tables for long-range coulomb (../kspace.cpp:340)
  G vector (1/distance) = 0.37371048
  grid = 24 24 24
  stencil order = 5
  estimated absolute RMS force accuracy = 0.0032244573
  estimated relative force accuracy = 9.7103574e-06
  using double precision FFTW3
  3d grid and FFT values/proc = 2535 216
Last active /omp style is kspace_style pppm/tip4p/omp
WARNING: Not all mixed pair coeffs generated from mixing. Use write_data with 'pair ij' option to store all pair coeffs. (../write_data.cpp:312)

write_restart   restart.lmp.${pid}
write_restart   restart.lmp.0
System init for write_restart ...
PPPM initialization ...
  extracting TIP4P info from pair style
  using 12-bit tables for long-range coulomb (../kspace.cpp:340)
  G vector (1/distance) = 0.37371048
  grid = 24 24 24
  stencil order = 5
  estimated absolute RMS force accuracy = 0.0032244573
  estimated relative force accuracy = 9.7103574e-06
  using double precision FFTW3
  3d grid and FFT values/proc = 2535 216
Last active /omp style is kspace_style pppm/tip4p/omp
Total wall time: 0:07:02
