#include		in.partitions
include		in.temp
variable        temperature equal 15.10
variable	tempDamp equal 100.0
include		in.pressure
variable        pressure equal 1994.9
variable        pressureDamp equal 1000.0 # This is 1 ps
include		in.seed
variable        seed equal 745823

units		real
atom_style	full
box tilt large
read_restart	restart.lmp.${pid}
read_restart	restart.lmp.0
Reading restart file ...
  restart file = 30 Jul 2021, LAMMPS = 30 Jul 2021
  restoring atom style full from restart
  triclinic box = (-10.578000 -9.1334717 0.13924748) to (12.558000 12.123470 21.720752) with tilt (-9.1180211 1.8923190 2.8212442)
  2 by 2 by 4 MPI processor grid
  restoring pair style lj/cut/tip4p/long/omp from restart
  restoring bond style harmonic/omp from restart
  restoring angle style harmonic/omp from restart
  1296 atoms
  864 bonds
  432 angles
Finding 1-2 1-3 1-4 neighbors ...
  special bond factors lj:    0        0        0       
  special bond factors coul:  0        0        0       
     2 = max # of 1-2 neighbors
     1 = max # of 1-3 neighbors
     1 = max # of 1-4 neighbors
     2 = max # of special neighbors
  special bonds CPU = 0.001 seconds
  read_restart CPU = 0.006 seconds
include 	in.setup
variable	out_freq equal 1000
variable	out_freq2 equal 10000
variable	out_freq3 equal 1000

timestep	2.0

neigh_modify    delay 7 every 1

include		in.tip4p
# This is TIP4P/Ice

# create groups ###
group ox type 2
432 atoms in group ox
group hy type 1
864 atoms in group hy

# set charges - beside manually ###
set group ox charge -1.1794
Setting atom values ...
  432 settings made for charge
set group hy charge 0.5897
Setting atom values ...
  864 settings made for charge

# ### TIP3P Potential Parameters ###
pair_style lj/cut/tip4p/long/omp 2 1 1 1 0.1577 8.5
pair_coeff 1 1*2 0.000 0.000
pair_coeff 2 2 0.21084 3.1668
bond_style  harmonic
bond_coeff  1 450 0.9572
angle_style harmonic
angle_coeff 1 55 104.52
kspace_style pppm/tip4p/omp 1.0e-5
pair_modify tail yes

thermo          ${out_freq}
thermo          1000
thermo_style    custom step temp pe etotal epair emol press lx ly lz vol pxx pyy pzz pxy pxz pyz enthalpy

restart 	${out_freq3} restart.lmp.${pid} restart2.lmp.${pid}
restart 	1000 restart.lmp.${pid} restart2.lmp.${pid}
restart 	1000 restart.lmp.0 restart2.lmp.${pid}
restart 	1000 restart.lmp.0 restart2.lmp.0


include         in.dump
dump            myDump all atom ${out_freq2} dump.water.${pid}
dump            myDump all atom 10000 dump.water.${pid}
dump            myDump all atom 10000 dump.water.0
dump            myDump2 all dcd ${out_freq2} dump.dcd
dump            myDump2 all dcd 10000 dump.dcd
dump_modify     myDump append yes
dump_modify     myDump2 append yes


variable natoms 	equal  "count(all)"                        # NUMBER ATOMS
variable H      	equal  "enthalpy/v_natoms"                 # ENTHALPY-per-atom
variable Vol      	equal  "vol/v_natoms"                 # volume-per-atom
fix AVG all 		ave/time ${out_freq} 1 ${out_freq} v_Vol v_H file vol_enthalpy.dat
fix AVG all 		ave/time 1000 1 ${out_freq} v_Vol v_H file vol_enthalpy.dat
fix AVG all 		ave/time 1000 1 1000 v_Vol v_H file vol_enthalpy.dat


timer           timeout 10:00:00 every 1000
New timer settings: style=normal  mode=nosync  timeout=10:00:00

fix 		1 all shake 1e-6 200 0 b 1 a 1
       0 = # of size 2 clusters
       0 = # of size 3 clusters
       0 = # of size 4 clusters
     432 = # of frozen angles
  find clusters CPU = 0.000 seconds
fix             2 all nph tri ${pressure} ${pressure} ${pressureDamp}
fix             2 all nph tri 1994.9 ${pressure} ${pressureDamp}
fix             2 all nph tri 1994.9 1994.9 ${pressureDamp}
fix             2 all nph tri 1994.9 1994.9 1000
fix             3 all temp/csvr ${temperature} ${temperature} ${tempDamp} ${seed}
fix             3 all temp/csvr 15.1 ${temperature} ${tempDamp} ${seed}
fix             3 all temp/csvr 15.1 15.1 ${tempDamp} ${seed}
fix             3 all temp/csvr 15.1 15.1 100 ${seed}
fix             3 all temp/csvr 15.1 15.1 100 745823


run             250000
PPPM initialization ...
  extracting TIP4P info from pair style
  using 12-bit tables for long-range coulomb (../kspace.cpp:340)
  G vector (1/distance) = 0.36801575
  grid = 30 40 32
  stencil order = 5
  estimated absolute RMS force accuracy = 0.0044023313
  estimated relative force accuracy = 1.325749e-05
  using double precision FFTW3
  3d grid and FFT values/proc = 11832 2400
Last active /omp style is kspace_style pppm/tip4p/omp
Neighbor list info ...
  update every 1 steps, delay 7 steps, check yes
  max neighbors/atom: 2000, page size: 100000
  master list distance cutoff = 10.8154
  ghost atom cutoff = 10.8154
  binsize = 5.4077, bins = 7 5 4
  1 neighbor lists, perpetual/occasional/extra = 1 0 0
  (1) pair lj/cut/tip4p/long/omp, perpetual
      attributes: half, newton on, omp
      pair build: half/bin/newton/tri/omp
      stencil: half/bin/3d/tri
      bin: standard
Per MPI rank memory allocation (min/avg/max) = 12.76 | 12.77 | 12.77 Mbytes
Step Temp PotEng TotEng E_pair E_mol Press Lx Ly Lz Volume Pxx Pyy Pzz Pxy Pxz Pyz Enthalpy 
45000000     17.88877   -6978.5006   -6932.4828   -6978.5006            0    2058.4624       23.136    21.256941    21.581504    10613.796    2105.2194    2188.8484    1881.3194   -19.372316   -88.370195      94.4835   -6613.8507 
45001000     15.06337   -6987.2806    -6948.531   -6987.2806            0    2124.2007    23.124055    21.257587    21.583303    10609.523    2082.9007    2159.0804     2130.621   -85.903768    200.11538   -43.733341   -6619.8555 
45002000    15.418442   -6987.9779   -6948.3149   -6987.9779            0     1989.311    23.113245    21.324069    21.531521    10612.207    2092.0508    1759.2804    2116.6019     199.8609    39.783579   -307.37311   -6640.4329 
45003000    15.443208   -6988.0886   -6948.3619   -6988.0886            0     1957.077    23.173903    21.250035    21.545613    10610.057    1921.2218    2033.6604    1916.3489    -279.0066    88.326402   -51.740346   -6645.5301 
45004000     14.48532   -6987.6218   -6950.3592   -6987.6218            0     1923.003    23.152103    21.278077    21.529606    10606.178    1737.1578    1877.3966    2154.4546   -235.85149   -244.11306    118.64618   -6652.9086 
45005000     14.90882   -6987.6059   -6949.2539   -6987.6059            0    2112.3099    23.153507    21.249076    21.563981    10609.276    2057.2913    2159.7123    2119.9262   -37.844039    41.688434   -38.697208   -6622.4258 
45006000    15.267977   -6986.2483   -6946.9724   -6986.2483            0    1960.6631    23.082513    21.303593    21.583608    10613.533    2109.0193    2110.3653    1662.6046    231.74412    149.09578   -153.63086   -6643.4863 
45007000    15.307595   -6989.0337   -6949.6558   -6989.0337            0    2069.5072    23.138707    21.248444    21.575314    10607.751     1954.132    2211.0183    2043.3714    145.52662    334.81439   -37.875226   -6629.4965 
45008000    15.288663   -6987.4848   -6948.1557   -6987.4848            0    2102.8572    23.134341    21.272153    21.549007    10604.638     1913.038    2238.3743    2157.1593    78.551692   -85.743542    136.37434   -6622.9325 
45009000    15.382465    -6985.204   -6945.6336    -6985.204            0    1874.2883    23.191468    21.256481    21.530423    10613.831    1526.4991    2081.0132    2015.3527   -138.04914   -161.19114   -44.310233   -6655.5091 
45010000    15.562055   -6987.5954   -6947.5629   -6987.5954            0    1902.3372    23.123965    21.282667    21.562116    10611.572    1860.2322    1963.9874    1882.7919    93.271332     231.1422    94.895631   -6653.1593 
45011000    15.414944   -6988.1531   -6948.4991   -6988.1531            0    1819.0435    23.098657    21.286009    21.592027     10616.33    1921.0035    1698.3976    1837.7292    118.88221    256.86999   -34.777559   -6666.8597 
45012000    15.579597   -6986.6918   -6946.6142   -6986.6918            0    1869.7623    23.116497    21.272421    21.591192    10617.336    2273.9949    1786.3498    1548.9422     31.50167   -99.443822    134.55142   -6657.0947 
45013000    15.163951   -6985.7524    -6946.744   -6985.7524            0    2071.5754    23.177284    21.247029    21.545024    10609.813    1729.4579    2161.4541    2323.8142   -122.16925   -148.34831    10.068635   -6626.2025 
45014000    14.802703   -6988.5015   -6950.4224   -6988.5015            0    2003.2505    23.134909    21.284388    21.535116    10604.158    2193.2829    1856.4341    1960.0344    -141.9712    112.60572   -144.73557   -6640.6182 
45015000    15.100377   -6986.6353   -6947.7905   -6986.6353            0    2138.9969    23.082576     21.28591    21.575722    10600.878    2431.5651     2149.122    1836.3036   -62.734212    207.74401    -205.8547   -6617.0953 
45016000    14.764161   -6987.0479    -6949.068   -6987.0479            0    1946.1074    23.145743    21.268177    21.561046    10613.808    1890.2663    1960.7599     1987.296    252.44699   -57.355345    217.65696   -6647.8271 
45017000    14.945745    -6987.271    -6948.824    -6987.271            0     1857.012    23.173573    21.223926    21.598343    10622.804    1946.5787    2012.6476    1611.8098   -136.98156    -204.8224    213.46653   -6661.1307 
45018000    14.651633   -6988.1603   -6950.4699   -6988.1603            0    2010.8686     23.15767    21.254868    21.548916    10606.661    1765.9508    1915.5165    2351.1387   -2.6588654    111.01003    196.03412   -6639.4141 
45019000    14.864145   -6986.7683   -6948.5312   -6986.7683            0    1915.8858    23.096779    21.319953    21.537079    10605.337    2144.9825    1651.5243    1951.1506     167.1524    351.86898   -104.69645    -6652.205 
45020000    15.399761   -6989.5264   -6949.9114   -6989.5264            0    1893.9385    23.121116    21.303341    21.545945    10612.606    1974.1286    1670.7191     2036.968    44.528121   -71.696522   -190.29072    -6656.779 
45021000    15.054422   -6988.7499   -6950.0233   -6988.7499            0     1890.954    23.175968    21.262661    21.539832    10614.457    1661.6495    1944.9723      2066.24   -70.373413   -19.914472    267.29045   -6657.3018 
45022000    15.539572   -6987.6865   -6947.7119   -6987.6865            0    2067.9021    23.158731    21.204858    21.596729     10605.67    1760.8155    2586.6881    1856.2026    190.17031   -57.289773    223.55411   -6627.8637 
45023000     14.68627   -6987.3034   -6949.5239   -6987.3034            0    2070.1136    23.126416    21.262404    21.573374    10608.128    1998.5777    2056.7656    2154.9975   -181.55918    127.11507   -7.3767422   -6629.2593 
45024000    16.010398   -6985.5107    -6944.325   -6985.5107            0    2057.2742    23.088304    21.317932    21.560095    10611.769    2431.8296    1693.0896    2046.9032    397.73814    16.247154     15.28246   -6625.9376 
45025000    15.099829    -6984.255   -6945.4117    -6984.255            0    1949.8697    23.150694    21.260011     21.55411    10608.588    1941.3766    2002.7249    1905.5076   -136.44627   -47.748682    36.185804   -6643.7368 
45026000    15.536593   -6986.2148   -6946.2479   -6986.2148            0    2052.9715    23.174667    21.253113    21.532854    10605.659    1702.7891    2033.7711    2422.3544    130.82943   -78.091106    255.57445   -6628.7093 
45027000    15.412173   -6987.7464   -6948.0995   -6987.7464            0    1826.2639    23.149566    21.260977     21.57672    10619.681    1757.5895    2015.9925    1705.2097   -122.28035   -103.62911   -266.91673   -6665.2529 
45028000    14.398323   -6987.3483   -6950.3095   -6987.3483            0    1881.8388    23.074365    21.307767    21.592914    10616.441    2192.3395    1694.5399    1758.6369    233.30396     272.3857    42.516726   -6658.9446 
45029000    14.916729   -6988.3654    -6949.993   -6988.3654            0    1947.2511    23.110724    21.275574    21.582677    10612.071    2077.5486    2067.1173    1697.0876    38.750319    76.345864    58.575059   -6648.6244 
45030000     15.62553   -6985.8112   -6945.6155   -6985.8112            0    1969.8485    23.170459    21.230586    21.566029    10608.813    1878.9014    2097.5101     1933.134   -168.28407   -293.46475    66.503001   -6640.8431 
45031000    15.457588    -6986.151   -6946.3873    -6986.151            0    2029.6467    23.175271    21.247627    21.537611     10605.54    1880.8036    2067.1047    2141.0319   -240.65941    40.729016   -55.184391     -6632.46 
45032000    15.400031   -6986.6437   -6947.0281   -6986.6437            0    2097.4746     23.09833    21.302928    21.559681    10608.701    2384.1283    1720.6763     2187.619     88.18003   -2.8822385    65.391605   -6622.5131 
45033000    14.472221   -6985.0758   -6947.8469   -6985.0758            0    1997.3399    23.081962    21.307641    21.578001    10612.539    2166.2061    1788.8748    2036.9388    91.686875    368.78564   -119.47739   -6638.7126 
45034000    14.949617   -6987.6928   -6949.2358   -6987.6928            0    2030.0336    23.147883    21.235643    21.573961      10604.9    2002.9748    2334.1971    1752.9289   -92.010882   -52.480816    -144.5823   -6635.2676 
45035000    14.911368   -6987.6966    -6949.338   -6987.6966            0    1948.9148    23.204236    21.241946    21.523055    10608.781    1668.8042    1992.1363     2185.804   -307.08598   -14.029991    192.36261   -6647.8054 
45036000     14.75509   -6988.0995    -6950.143   -6988.0995            0    1971.2304    23.120613    21.293649    21.557759    10613.364    1995.9758    2060.1657    1857.5496    -86.39066    209.61407   -104.70289    -6645.026 
45037000    15.256661   -6987.2129    -6947.966   -6987.2129            0    2010.7261      23.0531     21.29845    21.611191    10610.994    2247.2148    1872.6441    1912.3195    451.60495     219.1789     46.11688   -6636.8053 
45038000    15.005311   -6987.3463    -6948.746   -6987.3463            0    1947.5246    23.162068    21.250101    21.564285    10613.861    2050.2972    1953.0947     1839.182    112.77974    7.3054876    70.169855   -6647.2843 
45039000    14.970201   -6987.0657   -6948.5558   -6987.0657            0    1979.6518     23.19409    21.249892    21.525283    10609.207    1551.4075    2145.1828    2242.3652   -14.076173   -74.976841    26.913654   -6642.2553 
45040000    15.336016   -6988.7325   -6949.2815   -6988.7325            0    1993.7358    23.158105    21.238007    21.571771    10609.687     1990.508    2173.4072    1817.2922   -129.02711    19.743468     132.1194    -6640.788 
45041000    14.937678    -6987.565   -6949.1387    -6987.565            0    2056.6512    23.066783     21.32809    21.556915    10605.365    2499.9499    1482.3983    2187.6054    228.52087    213.03908   -95.334089   -6631.0398 
45042000    15.643906   -6989.3268   -6949.0838   -6989.3268            0    1926.5045    23.126145    21.287055    21.560457    10613.944     1898.192    1891.0245     1990.297   -52.923961    171.06836   -291.75882   -6650.8735 
45043000    15.132235   -6986.3922   -6947.4655   -6986.3922            0    1948.6748    23.188713    21.232583    21.559259    10614.836    1739.4774    2185.9348    1920.6123    74.061247   -131.88103    59.932549    -6645.798 
45044000    15.358355   -6987.4626   -6947.9541   -6987.4626            0    1959.0029      23.1575    21.263485     21.54749    10610.181    1808.8322    2017.2303    2050.9462   -225.23562   -131.57547    298.14027   -6644.8207 
45045000    13.880703   -6988.0998   -6952.3925   -6988.0998            0    2146.9643    23.109469    21.281987    21.563914    10605.466    2422.4611    2022.0507    1996.3812   -274.70374   -38.849321   -289.27732   -6620.3219 
45046000    15.295802   -6987.1653   -6947.8177   -6987.1653            0    2046.3581    23.096665    21.331493    21.527082      10606.1    2049.6408    1846.6505     2242.783     44.01623    456.62523   -59.279949   -6631.2889 
45047000    14.763064   -6987.9254   -6949.9483   -6987.9254            0    2022.6484      23.1619    21.231351    21.572216    10608.319    2092.1912    2106.3925    1869.3615   -78.118094   -365.88575   -96.649672   -6637.0214 
45048000    15.401164   -6986.8436    -6947.225   -6986.8436            0    1953.3439    23.137258    21.270071    21.563135     10611.89    2193.7601    1745.7573    1920.5143    -309.6876   -98.574364    379.76364   -6644.9186 
45049000    15.386944   -6986.5206   -6946.9387   -6986.5206            0    2005.4498    23.138304      21.2611    21.569011    10610.784    1823.9024    1969.9679    2222.4791  -0.41807119    218.07065    60.948084   -6636.6005 
45050000    14.875476   -6986.7101   -6948.4438   -6986.7101            0    1977.6236    23.079542    21.290046    21.594641     10610.84    2351.0233    1996.1125     1585.735   -175.45167    304.04638    -188.5953   -6642.4101 
45051000    15.685128   -6987.6755   -6947.3265   -6987.6755            0    2024.5314     23.11758    21.284214      21.5624    10609.553    2089.8968    1872.8631    2110.8342    151.48573    21.750106   -29.198183   -6634.0718 
45052000    15.085266   -6988.8464   -6950.0405   -6988.8464            0    1979.6102    23.181127      21.2143    21.571911    10608.448    1779.7669    2256.1205    1902.9431   -138.45172   -127.16473    118.86165   -6643.7684 
45053000    14.777871   -6987.7735   -6949.7584   -6987.7735            0    1944.7405    23.172047    21.243417    21.555564    10610.801    1715.0351    2130.4164    1988.7701    227.32799   -315.60732    107.19058   -6648.8143 
45054000    15.572794   -6987.9195   -6947.8594   -6987.9195            0    2007.9593    23.112422    21.280276    21.571505    10609.701    2217.4468    1882.0676    1924.3637    -41.92724    147.51616    -160.2216   -6637.1647 
45055000    15.446735   -6988.0647   -6948.3289   -6988.0647            0     1984.943    23.068795    21.306434    21.587932    10610.766    2237.7075    1722.1023    1995.0193   -95.012273    99.140532    22.323161   -6641.1647 
45056000    15.894224   -6987.8742   -6946.9873   -6987.8742            0    2105.6539    23.197417    21.224442    21.535484    10603.044     1709.118    2180.7384    2427.1054   -376.48691   -38.821402    343.46413   -6621.3805 
45057000    15.414033   -6988.2891   -6948.6374   -6988.2891            0    1957.7724    23.182378    21.247512    21.548387    10614.043    1563.5974    2163.8157    2145.9041    -29.33468   -138.02045    117.01236   -6645.5842 
45058000    14.646746   -6986.5725   -6948.8946   -6986.5725            0    1972.6064    23.117703    21.251249    21.601161     10612.22    1883.6008    2079.5829    1954.6356   -161.53258    297.60326    42.161078   -6643.5976 
45059000    14.929113   -6986.9064   -6948.5022   -6986.9064            0    1978.8626    23.060348    21.304379    21.597775    10610.693    2467.3367    1617.8798    1851.3714    84.435602   -8.0697659    152.95653    -6642.281 
45060000    14.527435   -6989.1599    -6951.789   -6989.1599            0    1860.6627    23.152972    21.249159    21.584624    10619.229    1597.8821    2056.9895    1927.1164    9.7980775    21.896194    40.980505   -6663.6271 
45061000    15.461813   -6988.5505   -6948.7759   -6988.5505            0    1944.2652    23.197619    21.243693    21.525138    10607.654    1677.8337    2060.7757    2094.1863   -216.95655   -158.97862    58.127716   -6647.9947 
45062000    16.057604   -6989.1017   -6947.7945   -6989.1017            0    1961.3789     23.15267    21.259645    21.543966    10604.319    1709.9884    2085.5414    2088.6068   -59.962193   -8.1485715     65.65139   -6644.4612 
45063000    15.320257   -6984.8786   -6945.4682   -6984.8786            0    2153.4858    23.073796    21.316486    21.555634    10602.187    2339.9132    2079.9894    2040.5548    58.819233    381.08894   -350.93314   -6612.4918 
45064000    15.211611   -6988.3735   -6949.2426   -6988.3735            0    1945.1974    23.105684    21.299078    21.558565    10609.612    2186.5902    1702.2661     1946.736   -36.714594    244.95804   -129.17474   -6648.2616 
45065000    14.647255    -6989.455   -6951.7759    -6989.455            0    1962.9541    23.175942    21.224733    21.574873    10612.749    2164.6459    1738.1162    1986.1003   -158.82004    -3.820306     222.4862   -6647.9576 
45066000      15.6733   -6986.8967   -6946.5781   -6986.8967            0    1912.2968    23.161814    21.248528    21.565364     10613.49     1650.953    2218.5326    1867.4046    171.71936   -167.22466    51.277886   -6650.5797 
45067000     14.53746    -6988.404   -6951.0073    -6988.404            0    2007.6686     23.09159    21.291658    21.577432    10608.722    2308.2859    1819.9799      1894.74   -156.92894    307.36203    78.263646   -6640.3862 
45068000    14.986989   -6988.7366   -6950.1835   -6988.7366            0    1989.3794    23.097409    21.290298    21.576187    10610.105    2129.8128     2040.625    1797.7004    344.25733    118.28061   -402.23902   -6642.3519 
45069000    14.560002   -6988.3222   -6950.8675   -6988.3222            0    2188.4077    23.169167    21.280423      21.5061    10603.575     1909.319    2174.9867    2480.9173    2.0569315   -18.530683    20.864457   -6612.4471 
45070000    15.304159   -6988.0884   -6948.7194   -6988.0884            0    1939.5945       23.194    21.230315    21.549105    10611.122    1836.3095    2112.1165    1870.3574   0.21035306   -454.97703   -83.067863   -6648.5626 
45071000    14.950568   -6986.7455   -6948.2861   -6986.7455            0    1843.0417    23.148227    21.241192     21.58367    10612.602    1829.9262    1833.7617    1865.4372    120.53291    193.00679     180.9764   -6663.0313 
45072000    15.751602   -6986.1993   -6945.6793   -6986.1993            0    1992.4992    23.110073    21.291131    21.571274    10613.921    2166.7188    1707.9109    2102.8679   -49.989785    200.96906   -177.71978   -6637.2541 
45073000    15.167756    -6989.212   -6950.1939    -6989.212            0    1983.4278    23.130453     21.28664    21.553187    10612.135    2112.2528    1846.3036    1991.7268   -335.36403     11.10103   -34.324253   -6643.2245 
45074000    15.415201   -6988.1849   -6948.5302   -6988.1849            0    2029.2703     23.15113    21.249051    21.554353    10603.439    1963.3834    1963.5579    2160.8696    38.939473   -467.55241    262.34642   -6634.7233 
45075000    14.837234   -6987.0246   -6948.8567   -6987.0246            0    1927.0514    23.150725    21.238508    21.573149    10607.234    1849.6277    2214.0459    1717.4807   -86.018399   -102.43805   -58.625645   -6650.7503 
45076000    15.509209   -6989.0175    -6949.121   -6989.0175            0     1893.917    23.099022    21.300341    21.574715    10615.127    1940.4801    1723.8508      2017.42    102.42487     237.8391    54.661869   -6655.9223 
45077000    15.426501   -6989.5533   -6949.8696   -6989.5533            0    2019.4132    23.099065    21.287904    21.579219    10611.164    1976.7513    1979.0812     2102.407   -57.407517    227.75522    282.74441   -6637.3594 
45078000    15.225397   -6984.7616   -6945.5952   -6984.7616            0    2077.0043    23.173926    21.225135    21.563576     10606.47    1812.3911    2320.7584    2097.8635   -207.21962   -117.20059     243.0955   -6624.3148 
45079000    14.584163   -6987.3077   -6949.7908   -6987.3077            0    1960.6035    23.152968    21.256371    21.555823    10608.657    2031.4259    1957.5715     1892.813    65.281828   -336.29363    242.79945   -6646.4534 
45080000    15.708071   -6986.8736   -6946.4656   -6986.8736            0    1991.7621     23.13511    21.282399    21.547606    10609.408    1848.9136    1894.9263    2231.4464    45.544083    295.52232   -200.30112   -6638.2855 
45081000    14.905336   -6987.7945   -6949.4514   -6987.7945            0    2146.8706    23.099557    21.283691    21.567317    10603.438    2502.2042    2174.3392    1764.0684   -158.25916    258.63009   -424.37742   -6617.4588 
45082000     15.20234   -6988.5861    -6949.479   -6988.5861            0    1889.2896    23.118687     21.28342     21.57369    10615.221    2035.0966     1730.051    1902.7212   -260.64129   -127.92529    155.47962   -6656.9941 
45083000    15.006414   -6987.5528   -6948.9498   -6987.5528            0    2029.1921    23.180977    21.211677    21.570297    10606.275     2006.871     2127.578    1953.1273    203.47146   -388.74552    321.02701    -6635.071 
45084000    15.610583   -6985.4194   -6945.2622   -6985.4194            0    2006.9167    23.145287    21.269599    21.550357    10609.046    2043.5154    2088.2245    1889.0103    158.89602   -161.09804    -37.70175   -6634.7479 
45085000    14.941376   -6987.6701   -6949.2343   -6987.6701            0    2113.1755    23.142171    21.265724    21.552899    10606.936    1951.1919    2138.5078    2249.8268   -98.857201    202.91293   -134.65852   -6622.3445 
45086000    14.785675   -6987.6079   -6949.5726   -6987.6079            0    2092.5754    23.103565    21.270082    21.577533    10603.518    2256.2887    2125.7786     1895.659    147.42874    52.131892     77.00795   -6625.9738 
45087000    14.375808   -6987.7488   -6950.7679   -6987.7488            0    2001.4471    23.164427    21.236125    21.557117    10604.435    2006.4538    1871.6373    2126.2501   -243.41389    11.462317     387.6999   -6641.2345 
45088000    14.575836   -6985.4552   -6947.9597   -6985.4552            0    2015.5419    23.192536    21.247224    21.531697    10610.325    1883.9775    2055.6332    2107.0151    191.31072   -134.06745   -80.935813   -6636.0733 
45089000    14.267019   -6987.5711   -6950.8701   -6987.5711            0     2132.176    23.090289    21.311365    21.548604    10603.757    2243.6249    2005.7741    2147.1289    112.41925    158.54979   -295.48786   -6621.1399 
45090000    14.514458    -6986.924   -6949.5864    -6986.924            0    2020.1548    23.097396    21.269898    21.596821     10610.07    2286.4112    1912.0716    1861.9815   -311.93557    188.70749    -214.7532   -6636.9938 
45091000    14.725529   -6988.6725   -6950.7919   -6988.6725            0    2052.7888    23.117963    21.272855    21.565945     10605.81    2094.1896    2168.2046    1895.9721     206.7679    -109.7777    268.76979   -6633.2771 
45092000    15.303591   -6987.6026   -6948.2351   -6987.6026            0    2044.7077    23.202783     21.20647    21.554144    10605.698    1619.7069    2322.6074    2191.8089   -248.55495   -185.45775     210.1483   -6631.9735 
45093000    14.914649   -6986.8328   -6948.4658   -6986.8328            0    2183.4081    23.124605    21.268427    21.549571    10598.596    2012.8347     2310.608    2226.7815    19.846374    315.12395   -39.650604   -6610.9772 
45094000    15.342962   -6987.1507   -6947.6819   -6987.1507            0    1950.0537    23.099558    21.294093    21.565955    10607.951    2244.4089    1544.8725    2060.8798   -24.147428    3.7130303   -82.190276   -6645.9967 
45095000    14.792825   -6988.9883   -6950.9347   -6988.9883            0    1958.7209      23.1335    21.264548    21.569821      10610.7    2070.2402    1693.8848    2112.0376   -85.206435    73.087062    179.87125   -6647.8301 
45096000    15.711716   -6987.1282   -6946.7107   -6987.1282            0     1930.824    23.164502    21.224299    21.584641    10612.096    1867.5422    2101.5761    1823.3536    24.119566   -240.25668    178.36867   -6647.8838 
45097000    14.430217   -6985.9663   -6948.8454   -6985.9663            0    1993.2663    23.164269    21.241903    21.566347    10611.789    1963.2432    1951.8884    2064.6673   -90.428018   -41.539454    121.86984   -6640.3634 
45098000    15.016617   -6989.7941   -6951.1647   -6989.7941            0    1902.9755    23.096419    21.294628    21.574225    10610.843    2058.2334    2002.9335    1647.7596    193.94564    135.00806   -250.19087   -6656.6826 
45099000    15.119982   -6986.9247   -6948.0295   -6986.9247            0    1765.9347    23.113576    21.297659    21.571901    10619.093    1937.3911    1616.4593    1743.9537    77.698485    314.33251    99.406673   -6674.5417 
45100000    15.027404   -6989.2849   -6950.6278   -6989.2849            0    1936.5279    23.146859    21.260626    21.565038    10612.516    1934.4624    1944.4208    1930.7003    49.723909   -307.34618    99.522579   -6650.9063 
45101000    15.176573   -6989.7686   -6950.7278   -6989.7686            0    2048.2757    23.204902     21.20909    21.555791    10608.787    1523.0283    2499.6573    2122.1416   -124.24551    101.00579    85.029279   -6633.8221 
45102000    15.064223    -6987.435   -6948.6832    -6987.435            0    2139.6806     23.10987    21.288659    21.551188    10602.714    2266.6311    1828.9959    2323.4148    97.357397    108.44116    113.55265    -6617.825 
45103000    15.215106   -6985.7655   -6946.6255   -6985.7655            0    2021.0063    23.100754    21.298409     21.56291    10609.152    2117.5431    1895.5302    2049.9457    166.13543    183.96958   -475.77425   -6633.9282 
45104000    14.986776   -6986.9073   -6948.3547   -6986.9073            0    2042.0812    23.134552    21.267056    21.565477    10610.297    2140.0005    1907.8501    2078.3931   -0.8743538    -48.94686    174.12051   -6632.3625 
45105000    15.283318   -6986.7827   -6947.4673   -6986.7827            0    2033.4938    23.170942    21.242485     21.54921    10606.702    1877.8325    2072.6816    2149.9674    -88.48866   -420.71573    120.74921   -6632.9105 
45106000    14.911044   -6988.5647   -6950.2069   -6988.5647            0    1998.0089    23.167567     21.25471    21.548456    10610.889    1827.7592    1980.5451    2185.7226   -50.953786    100.99832   -166.16083   -6641.0172 
45107000    15.279352   -6988.6874   -6949.3822   -6988.6874            0    1801.7189    23.081533    21.322285    21.572557    10616.956    1854.3866    1789.5664    1761.2038    135.95626    253.39496   -273.06445   -6670.4087 
45108000    15.115543   -6988.1493   -6949.2654   -6988.1493            0    2063.4378    23.147676     21.23988    21.575697    10607.775    2062.1465    2100.8481    2027.3186   -128.10663    35.134421   -11.099556   -6630.0444 
45109000    14.976935   -6987.7985   -6949.2712   -6987.7985            0    2162.1155    23.135771    21.255215     21.55886    10601.694    2171.7498    2284.8553    2029.7413   -154.51752   -289.92316    254.02836   -6614.9761 
45110000     14.74204    -6987.956    -6950.033    -6987.956            0    2010.0967    23.154472    21.245339    21.563102     10607.42    2032.2698    2180.9503      1817.07   -75.728718   -185.48462    43.865164   -6639.0744 
45111000    15.023156   -6985.9947   -6947.3485   -6985.9947            0     2045.382    23.073909    21.335282    21.543987    10605.854    2162.7859    1898.5396    2074.8204    89.050718     263.6474   -197.37352   -6630.9781 
45112000    15.247172   -6987.9692   -6948.7468   -6987.9692            0    1990.8805    23.139339    21.265826    21.565673    10611.975    2131.5869    1892.9506    1948.1039   -78.386698    83.695917   -108.49329   -6640.6286 
45113000    15.190956   -6987.1394   -6948.0616   -6987.1394            0    2017.8334    23.171578     21.24974    21.542355     10607.24    1730.8469    1984.3972    2338.2562    226.86308   -221.99115    324.44545   -6635.9114 
45114000    15.242726    -6986.377   -6947.1661    -6986.377            0    2028.1911    23.140581    21.235978    21.586646    10607.956    2007.4245    2226.3402    1850.8086   -15.370637    159.83905     215.0872   -6633.3924 
45115000    15.484918   -6988.3262   -6948.4922   -6988.3262            0    2018.3005    23.103955    21.267306     21.59713    10611.941    2293.4389    1831.2282    1930.2343    155.27967   -102.71141    137.44138   -6636.1314 
45116000    14.549251   -6989.0762   -6951.6491   -6989.0762            0    2062.1809    23.096595    21.314194    21.543147    10605.374    2246.7119    1801.3142    2138.5165   -76.284868    274.50977   -193.13657   -6632.6947 
45117000    13.947516   -6988.3449   -6952.4657   -6988.3449            0    2018.9475    23.173693    21.241411    21.543222    10604.477    2008.8566    2091.3535    1956.6323    48.232771   -213.93132   -290.48322   -6640.2246 
45118000    15.115009   -6989.1317   -6950.2492   -6989.1317            0    1942.1393    23.148354    21.267612    21.541756    10605.227    1976.9294    1798.2803    2051.2083   -139.26672   -171.42187    428.62981   -6649.8656 
45119000    15.189837   -6988.7754   -6949.7005   -6988.7754            0    1931.4161    23.155862    21.246594     21.57876    10616.387    1783.2501    1989.0103    2021.9879    34.018429    55.628126    151.53038    -6650.661 
45120000    15.118804   -6987.7702    -6948.878   -6987.7702            0    1993.2127    23.084711    21.282208    21.605581    10614.684    2002.8531    2002.7058    1974.0792    82.906606    484.51956    65.396033   -6640.3201 
45121000    14.718555   -6987.5761   -6949.7135   -6987.5761            0    2012.4458    23.130047    21.267406    21.569445    10610.357     2044.916    1896.0707    2096.3508   0.74258043   -6.9851045   -28.166898   -6638.3052 
45122000    15.378613   -6986.0379   -6946.4773   -6986.0379            0    2068.7511    23.165391    21.266472      21.5238    10603.617    1915.6307    2040.3568    2250.2657   -98.242997   -124.77521     32.07554   -6626.5597 
45123000    14.907592   -6987.9848   -6949.6359   -6987.9848            0    1990.7802    23.168343    21.280284    21.517327    10608.664    1942.7786    1774.1897    2255.3723    121.36784   -365.56033    118.87857   -6641.6294 
45124000    15.176033   -6986.9452   -6947.9058   -6986.9452            0    2038.6507    23.101274    21.302415    21.562138    10611.007    2146.4384    1764.7296    2204.7841   -19.881278    138.18267   -225.87211   -6632.4233 
45125000    15.263725    -6986.664    -6947.399    -6986.664            0    1972.2259     23.08162    21.278664    21.609759    10613.547    2357.1362    2021.5835    1537.9581    108.76998    132.09022   -308.80203   -6642.1227 
45126000    14.957448   -6987.6157   -6949.1386   -6987.6157            0    2138.9306    23.189137    21.214934     21.55702    10605.106    1811.8209    2323.4652    2281.5056   -69.271149   -148.67879    157.00635   -6618.3218 
45127000    15.230106   -6988.2824   -6949.1039   -6988.2824            0     1992.879    23.155499    21.270072    21.533329    10605.576    2113.9073    1893.4623    1971.2674   -45.838957   -239.35011    128.21647   -6640.8624 
45128000    15.239546   -6987.9207   -6948.7178   -6987.9207            0    1940.5789    23.114655      21.2872    21.566166    10611.552    2084.5914     1776.823    1960.3223    53.667411    49.999068   -52.003593   -6648.3966 
45129000    15.354676   -6985.1061   -6945.6071   -6985.1061            0    1991.6597    23.097929     21.27574    21.589383    10609.574    2216.8976    1852.2545    1905.8272   -2.1104222    64.765735   -100.25649   -6637.4381 
45130000    13.926832    -6986.996   -6951.1701    -6986.996            0    2087.1468     23.16033    21.217127    21.580415    10604.522    1822.1155    2331.5321    2107.7929    142.19607    10.939949    90.252049   -6628.3802 
45131000    14.325812   -6987.7753    -6950.923   -6987.7753            0    2017.3383    23.176825    21.209031    21.583379    10609.482    1895.3078    2448.1141    1708.5932   -263.74899   -207.64851   -14.672611   -6638.7834 
45132000    15.361227    -6986.554   -6947.0382    -6986.554            0    2048.3068    23.115853    21.303517    21.542734    10608.697    2467.6222     1607.137    2070.1613   -89.355047   -122.94348    180.25263   -6630.1304 
45133000    15.350939   -6987.1216   -6947.6322   -6987.1216            0    1961.9462    23.104983    21.287888     21.56865    10608.676     2045.832    1908.9965    1931.0103    13.616315    111.90684   -196.58344   -6644.0865 
45134000     14.78754   -6988.3934   -6950.3534   -6988.3934            0    2017.7717    23.139552    21.276991    21.537039    10603.547    1994.6137    1965.1167    2093.5848   -79.807243   -33.836584   -79.876821   -6638.3214 
45135000    14.436516   -6987.7481    -6950.611   -6987.7481            0    1943.6358    23.189463    21.237636    21.552403    10614.329    1734.2217    2019.6876    2076.9982    59.272387   -186.54403    78.639926   -6649.7379 
45136000    15.587691   -6987.4304    -6947.332   -6987.4304            0    1955.2296    23.141364    21.254868    21.581766     10615.35    1978.3347    1930.4506    1956.9036   -66.373386   -260.80688    112.41581   -6644.6351 
45137000    14.814501   -6987.6619   -6949.5525   -6987.6619            0    2114.4464    23.070412    21.321405     21.56198      10606.2    2423.8675    1784.6999    2134.7719   -58.837375    -46.70221    -302.7557   -6622.4888 
45138000    14.778124   -6988.4439    -6950.428   -6988.4439            0     1946.007    23.125281    21.291552    21.554929    10613.068    1849.8116    1988.6558    1999.5536    182.29194    121.39685   -206.00281   -6649.2237 
45139000    14.967206   -6987.7584   -6949.2562   -6987.7584            0    1999.1822    23.162634    21.270623    21.526111    10605.563    2149.9556    1785.3703    2062.2207    78.491424   -428.68403    239.97626   -6640.0402 
45140000    15.253385   -6988.0902   -6948.8518   -6988.0902            0    2020.9631    23.164803    21.247923    21.552853    10608.399    1994.4358    1796.4504    2272.0032   -160.22485   -16.692743     288.6322   -6636.1833 
45141000    14.889047   -6988.1068   -6949.8056   -6988.1068            0    2137.6097    23.090492    21.283113    21.581385    10605.903    2203.3455    2234.1357    1975.3478    4.1693359    191.83783   -197.01434   -6619.1683 
45142000    14.851721   -6987.1633   -6948.9581   -6987.1633            0    2142.6242    23.099723     21.29114    21.564508    10605.844    2309.4529    2024.3437     2094.076   -114.87783    260.14968   -20.693852    -6617.547 
45143000    14.865837   -6986.9361   -6948.6946   -6986.9361            0    2074.8148     23.13245    21.263846    21.558045    10604.076    2199.8168    2173.2588    1851.3689   -56.770488   -243.37477    38.887152   -6627.8254 
45144000    14.801407   -6987.1274   -6949.0516   -6987.1274            0    1985.4058     23.18855    21.218034    21.555074    10605.429    1822.8882    2164.8613    1968.4679   -127.01896   -242.76613    349.61837   -6641.9703 
45145000    15.310416   -6986.0815   -6946.6963   -6986.0815            0    1913.2403    23.115935    21.275905    21.576627    10611.653    2133.9135    1777.8149    1827.9926    83.662624    28.409602    122.08536   -6650.6031 
45146000    14.582695   -6987.3625   -6949.8494   -6987.3625            0    2013.6136    23.106203    21.284014    21.574708    10610.285    2212.7639    1967.5407    1860.5362   -46.043504    365.21907   -256.33308   -6638.2625 
45147000    15.213994   -6989.8298   -6950.6927   -6989.8298            0    1821.5635    23.111967    21.289885    21.579714    10618.322    1951.3197    1768.8155    1744.5554   -83.153539   -52.511056    16.429938   -6668.6102 
45148000    14.783558   -6988.9536   -6950.9238   -6988.9536            0    2022.4376    23.149889    21.247302    21.561953    10605.735    1946.5755    1992.5233    2128.2139    119.38557     -262.823    218.97079   -6638.1058 
45149000    15.275801   -6986.4157   -6947.1197   -6986.4157            0    2021.2035    23.181474    21.238509    21.543755    10606.851    1869.4582    2191.3169    2002.8355   -123.76381   -194.48344    52.570987   -6634.4596 
45150000    14.625822   -6987.5381   -6949.9141   -6987.5381            0    1935.3901    23.099795    21.317066    21.551408    10612.341    2243.9183    1602.4032    1959.8488   -75.427075    133.76325    -190.6874   -6650.3735 
45151000    15.405446   -6987.1393   -6947.5097   -6987.1393            0    2188.3432     23.11416    21.274111    21.566607    10605.016    2310.8252    2051.9911    2202.2133     54.50148    123.61164   -236.10158   -6609.0533 
45152000    14.603507   -6988.2227   -6950.6561   -6988.2227            0     2056.572    23.151151     21.24519    21.562983    10605.766    2045.4141    2286.8515    1837.4506   -67.830929    -501.5548    -44.39454   -6632.5574 
45153000    15.358387   -6986.0596   -6946.5511   -6986.0596            0    2089.6826    23.170778    21.240567     21.54812    10605.132    1927.9266     2164.459    2176.6621    92.770167   -93.900389    243.72615   -6623.3504 
45154000    14.716474    -6986.764   -6948.9067    -6986.764            0    1879.4333    23.116448    21.298721    21.557703    10613.952    1838.6415    1923.0766    1876.5819    48.178671     342.3049   -288.75843   -6657.9825 
45155000    14.534753   -6988.1448    -6950.755   -6988.1448            0    2041.0922    23.125201    21.281308    21.556659    10608.776    1917.8925    1983.5347    2221.8493    115.43143    216.00353   -141.45235   -6634.9611 
45156000    14.446517   -6989.0976   -6951.9348   -6989.0976            0    2154.0818    23.119124    21.270813    21.563059    10603.905    2329.5467    2106.3618    2026.3369    52.891441    -54.56695    234.41503   -6618.8124 
45157000    14.876723   -6988.1008   -6949.8313   -6988.1008            0     1947.432    23.166038    21.243626    21.561626    10611.137    1975.8783    2054.9204    1811.4974   -102.91907   -399.61207    181.40064   -6648.4613 
45158000    14.760034   -6988.1249   -6950.1556   -6988.1249            0    2025.8182     23.13024    21.272865    21.558312    10607.691    2021.3604    2075.8291    1980.2651    -120.2126    522.69818   -37.356479   -6636.7568 
45159000    15.676764   -6989.4867   -6949.1591   -6989.4867            0    1860.4604     23.10995     21.30501    21.552806     10611.69    1740.7934    1904.5961    1935.9916    83.188334     229.4385   -134.39771   -6661.2331 
45160000    14.816752   -6987.3552     -6949.24   -6987.3552            0    2122.6013    23.148589    21.276077    21.529907     10603.72     1962.145    1956.4903    2449.1687   -226.45941     108.0198    219.24995   -6620.9916 
45161000    14.481107   -6988.0557   -6950.8039   -6988.0557            0    1994.5812     23.16495    21.233969    21.567044     10608.48    1971.3724    2231.4768    1780.8944   -36.081097   -202.94881    187.45157   -6642.2147 
45162000     14.96697   -6987.8891   -6949.3875   -6987.8891            0    1964.0416    23.130137    21.241555    21.601165    10613.086    1960.8231    2249.9925    1681.3093    37.119352   -6.4834158    108.33589   -6645.3912 
45163000    14.899451   -6987.6996   -6949.3716   -6987.6996            0    1882.0164    23.079041    21.296307    21.603139    10617.907    2081.1047    1604.4964    1960.4483   -30.703368    448.05166    209.10111    -6657.939 
45164000    14.694814   -6988.4362   -6950.6347   -6988.4362            0    1966.9459    23.131175    21.282858    21.554348    10611.152    2291.0993    1702.4514    1907.2869    144.62786   -48.475221   -161.89624   -6646.2444 
45165000    15.067331   -6987.1048    -6948.345   -6987.1048            0    2061.7379    23.178696     21.25092    21.522563    10601.339     2020.722    2123.1697    2041.3219   -324.35041   -201.52818    28.227324   -6629.5804 
45166000    15.200492   -6985.8562   -6946.7539   -6985.8562            0    1977.9258    23.147872    21.248119    21.562993    10605.731    1884.2408    2084.3718    1965.1649    74.550876   -292.69039   -1.8788733   -6640.8208 
45167000    15.088966   -6988.6423   -6949.8268   -6988.6423            0    1984.5842     23.13432     21.25073     21.58964    10613.925     1961.514    2106.6544    1885.5842    45.260523    326.52408   -120.42685   -6642.6266 
45168000     15.38808   -6986.5149     -6946.93   -6986.5149            0    2111.7166    23.093824    21.283983    21.589472    10611.842    2263.8243    2019.6627    2051.6629    218.85476    190.39628   -41.902257   -6620.1147 
45169000    15.061755    -6984.833   -6946.0875    -6984.833            0    2050.9478    23.143766    21.253261    21.562324    10606.087    2188.9796    2103.4621    1860.4018    247.97364    -257.0355    63.590609   -6628.8492 
45170000    14.290458   -6985.5902   -6948.8289   -6985.5902            0    2019.2389    23.199619    21.235088    21.524943    10604.176    1721.3616    2186.3851      2149.97   -293.79514   -358.74537    13.708511   -6636.5515 
45171000     14.76016   -6987.0422   -6949.0726   -6987.0422            0    1954.7202    23.162783    21.263297    21.542218    10609.912     1805.262      1883.76    2175.1384     7.668058   -36.877054   -131.90681   -6646.6096 
45172000    15.222813   -6988.0339   -6948.8741   -6988.0339            0    1931.0595    23.067724    21.326775    21.572126    10612.627    2247.3478     1684.566    1861.2648    20.267396    301.84137   -239.48338   -6649.9958 
45173000    14.768892   -6987.6035   -6949.6115   -6987.6035            0    1930.2495    23.109124    21.269833    21.587971    10611.075    2105.9088    1953.9229    1730.9169    75.782693   -116.00483   -64.998085   -6650.9022 
45174000    14.581103   -6987.6728   -6950.1638   -6987.6728            0     1971.932    23.164367    21.239615    21.562404    10608.751    1779.0846    2045.7282    2090.9831   -289.98495   -65.438843    324.15773    -6645.071 
45175000    15.203651   -6987.7907   -6948.6803   -6987.7907            0    2043.0266    23.166928    21.248719    21.547069    10606.922    2076.0895    1917.3576    2135.6325    57.583273   -246.01248   -9.3816773   -6632.6423 
45176000    15.208862   -6989.3842   -6950.2603   -6989.3842            0    2033.3822    23.104039     21.30706    21.547264    10607.268    2186.3708    1819.2613    2094.5146   -82.152405    376.19531   -170.64322    -6635.704 
45177000    15.900328   -6987.2298   -6946.3272   -6987.2298            0    2085.5878    23.081173      21.3017    21.573172    10606.843    2310.5571    1883.7325    2062.4737     349.9686     185.7433   -5.2561807   -6623.7078 
45178000    15.445974   -6987.7956   -6948.0617   -6987.7956            0      1950.39    23.145419    21.249437    21.573491    10610.428    2085.3977     2052.706    1713.0661    3.1709476   -272.21955    100.19147   -6646.2541 
45179000     14.89427   -6987.3326    -6949.018   -6987.3326            0    2041.8258    23.193237    21.226207    21.550334    10609.325    1741.7398    2307.2062    2076.5314    -245.7472   -141.39605    138.47793   -6633.0942 
45180000    15.507026   -6988.2982   -6948.4073   -6988.2982            0    2004.6811    23.135489     21.26422    21.570483    10611.774    2017.1584    2160.0041    1836.8809   -15.048171    123.97009   -223.19164   -6638.1592 
45181000    14.647613   -6986.5759   -6948.8958   -6986.5759            0    2052.7446    23.087479    21.302534    21.572752     10609.95    2175.3408    1820.4461    2162.4468    234.57931     438.0061    92.110571   -6631.2638 
45182000    15.174133   -6986.8209   -6947.7863   -6986.8209            0    1996.5327    23.120697    21.276991    21.566994    10609.642    2228.7849    1958.3255    1802.4877    70.930912   -32.866474   -106.73659   -6638.8613 
45183000    15.077235   -6988.9688   -6950.1835   -6988.9688            0    1844.4683    23.191516     21.23544    21.552361    10614.151    1618.3689    2101.3265    1813.7095   -22.468423   -278.95338    21.763672   -6664.6663 
45184000    14.701703   -6987.9719   -6950.1526   -6987.9719            0     1924.812    23.163941     21.26713    21.538026     10610.29    1690.4805    1921.1179    2162.8376    30.022398    111.46482     198.2914   -6652.3068 
45185000    15.768297   -6987.6955   -6947.1325   -6987.6955            0    2002.5133    23.087858    21.285016    21.588322     10609.05    2275.9769     1980.038    1751.5251    10.138725     61.66234   -101.03791   -6637.2994 
45186000    15.586888   -6987.1306   -6947.0343   -6987.1306            0    2032.5554    23.095957    21.252626    21.615671    10610.046     2530.099    1885.0452    1682.5221    119.85613   -105.12464   -40.639844   -6632.5235 
45187000     14.74318   -6989.2127   -6951.2867   -6989.2127            0    2020.5316    23.168975     21.23343    21.563601     10608.36    1904.3911    2073.9108    2083.2929   -120.15686   -147.06152    66.942882   -6638.6862 
45188000    15.251209   -6986.4645   -6947.2317   -6986.4645            0    1993.4909    23.161527    21.259992    21.542558    10607.855    2077.6678    1924.1827    1978.6221   -127.01641   -241.37849   -154.77885   -6638.8293 
45189000    15.233746    -6990.723   -6951.5351    -6990.723            0    2194.3596    23.090695    21.304422    21.536603    10594.585    2266.3935    1982.5197    2334.1656   -214.29966    162.42392    -7.510546   -6612.4821 
45190000    15.890419   -6986.2251    -6945.348   -6986.2251            0    2192.2175    23.084788    21.290331    21.571167    10601.857    2177.8766    2059.1833    2339.5927    197.42355    224.55499   -120.31962   -6606.3934 
45191000    15.469421   -6987.0693   -6947.2752   -6987.0693            0     1891.336    23.145779    21.265215    21.571417    10617.451    1921.7208    2039.4029    1712.8844     97.39957   -22.006369   -131.15835   -6654.4119 
45192000    14.765363   -6985.8243   -6947.8413   -6985.8243            0    2050.1554     23.19325    21.220989    21.556017     10609.52    1692.9332     2206.082    2251.4511    362.88424   -345.23056    262.07693   -6630.6228 
45193000    14.783549   -6988.1384   -6950.1086   -6988.1384            0    1922.4615    23.125609    21.247643    21.591129    10609.118    1844.2736    2128.0573    1795.0536   -75.724782    68.065732    56.691915   -6652.6594 
45194000    14.277588   -6985.8231   -6949.0949   -6985.8231            0    1975.2251    23.115761    21.302436    21.547284    10610.357    1905.1853    1930.6469     2089.843    125.87062    188.50344   -215.97903   -6643.4463 
45195000    14.910639   -6985.7827    -6947.426   -6985.7827            0    2044.5628    23.127032    21.294276    21.543898    10609.797    2000.5273    1875.4448    2257.7163   -130.36604    368.18038    56.291459   -6631.0646 
45196000     15.19221   -6988.0666   -6948.9856   -6988.0666            0    1954.1959    23.181807    21.214026    21.570306    10607.833     2070.883    2021.6614    1770.0433   -112.10189   -472.22957     104.9517    -6646.663 
45197000    15.015626   -6986.8185   -6948.1917   -6986.8185            0    2115.0829    23.137673    21.247521    21.572734    10605.548    2049.1991    2305.0005     1991.049    -70.79747   -57.582109    162.06084   -6621.0496 
45198000    14.489036   -6985.0657   -6947.7935   -6985.0657            0    1861.2857    23.060622    21.289362    21.624342    10616.383    2066.1058    2052.0239    1465.7273    163.02557    100.27887   -17.849322   -6659.6124 
45199000    15.372044   -6987.2004   -6947.6568   -6987.2004            0    2028.8952    23.150012    21.266198    21.541495    10605.152    1737.6639    2268.1057     2080.916   -28.834429    330.60176   -25.650001   -6633.8571 
45200000    15.069347   -6988.7173   -6949.9523   -6988.7173            0     1976.473    23.157528     21.27973    21.523664    10606.559    1826.4552    1789.4138      2313.55    17.133223   -159.37687   -18.833216   -6644.2201 
45201000    15.399956   -6987.4914    -6947.876   -6987.4914            0    2017.1497    23.166346    21.234954    21.568617    10610.385    2199.6951    1741.8839    2109.8701   -315.49337   -144.75102    289.75264    -6635.739 
45202000    15.211824   -6988.6081   -6949.4766   -6988.6081            0    1879.4069    23.106232    21.289652     21.58039    10615.904     2070.913      1635.57    1931.7377    195.56794   -91.134496    21.083834    -6658.503 
45203000    14.201838   -6987.9607   -6951.4274   -6987.9607            0    2117.6033    23.121676    21.255383    21.584891    10608.112    2208.8063    2425.1703    1718.8331   -34.136718    318.40932   -231.67067   -6623.8163 
45204000    15.243989   -6989.0443   -6949.8301   -6989.0443            0    1964.3873    23.174614    21.259541    21.534541    10609.673    1561.2129    2159.2882    2172.6607    309.73196   -166.02703   -235.57643   -6645.8781 
45205000    15.275492   -6989.5613    -6950.266   -6989.5613            0    1994.3848    23.175472     21.25549    21.530377    10605.993    1977.2583    1948.9427    2056.9535   -29.478016   -339.74866    50.448532   -6641.7795 
45206000    14.560569   -6987.9609   -6950.5048   -6987.9609            0     2020.936    23.123468    21.269936    21.573306      10610.5    2145.6684    1908.0348    2009.1048    -83.73554    -182.2763    157.69096   -6637.7785 
45207000    14.598838   -6987.8093   -6950.2547   -6987.8093            0    1827.4309    23.103843    21.286567    21.592082    10619.018    1876.7232    1739.9327    1865.6369   -110.14828    302.65738   -104.99742   -6667.2451 
45208000    14.950645   -6987.3308   -6948.8712   -6987.3308            0    1929.3486    23.142747    21.262933    21.567879    10613.179    1618.4581    2217.5907     1951.997    133.19616    194.95364   -35.988577   -6650.2421 
45209000    15.846242   -6988.0822   -6947.3188   -6988.0822            0    2253.9582    23.173315    21.235391    21.535736    10597.615    1970.1052    2381.8607    2409.9088    140.54897   -80.637854    221.92699   -6598.9575 
45210000    14.968352   -6987.7251   -6949.2199   -6987.7251            0     2030.196    23.122304    21.276636     21.55781    10605.685    2360.6559    1834.9464    1894.9858   -363.29902   -192.84412    88.191493   -6635.2033 
45211000    15.177246    -6986.696   -6947.6535    -6986.696            0    2135.9704    23.118148    21.260654    21.579447    10606.448    2059.6541     2255.805     2092.452    164.00939    100.08926   -236.18936   -6617.2527 
45212000    14.596668   -6986.8942   -6949.3451   -6986.8942            0    1995.1257    23.107848    21.293551    21.565099    10611.067    2356.7661    1871.0787    1757.5324    -184.6269    189.89382   -273.30666   -6640.5964 
45213000    14.887287   -6987.7304   -6949.4337   -6987.7304            0    1992.3464    23.136695    21.232113    21.601141    10611.364    2087.1314    2224.5078    1665.4001   -18.048483   -268.68118    80.988679   -6641.1064 
45214000    14.927525   -6987.6849   -6949.2847   -6987.6849            0    2071.9023    23.165437    21.230616    21.561869    10604.483    1885.1085    2204.3969    2126.2016    22.419382   -58.608037    667.88145   -6628.8536 
45215000    14.689265   -6988.6478   -6950.8605   -6988.6478            0    1943.7184    23.143522    21.269956    21.554311    10610.361    1994.2426    1956.6592    1880.2535    37.551574    23.218334    19.430368   -6650.0871 
45216000    14.553402   -6986.2651   -6948.8274   -6986.2651            0     1950.012    23.130499    21.287267    21.556526    10614.113    1854.6658     1842.412    2152.9583   -124.56738    384.25513    -253.0712   -6646.9734 
45217000     15.15812    -6988.173   -6949.1796    -6988.173            0    1998.4797    23.118282    21.283189    21.558561    10607.475    2049.6516    1991.1706    1954.6169    171.27229    312.67758    19.024545   -6640.0165 
45218000     15.41207   -6986.9922   -6947.3456   -6986.9922            0    1986.8671    23.168933    21.240069    21.559857    10609.815    1913.3914    2088.9305    1958.2795    -165.5808   -332.08131    208.61892   -6639.9112 
45219000     15.10908   -6988.3398   -6949.4727   -6988.3398            0    1988.6666    23.158258    21.247764    21.566902    10612.236    2069.8305    2137.6563    1758.5129   -103.21639   -263.26064    171.75955   -6641.6896 
45220000    14.819887   -6990.0059   -6951.8827   -6990.0059            0    1946.8061    23.139722    21.281028    21.555429    10614.692    1731.5543    1996.9206    2111.9433   -44.967553    366.02456   -39.558599   -6650.5085 
45221000    14.504131   -6987.2072   -6949.8962   -6987.2072            0    2002.2355     23.11188    21.270264    21.586062    10611.617    2263.3135     2091.911     1651.482    42.458869    149.51629   -390.64353   -6640.0311 
45222000    15.080111   -6988.9095   -6950.1168   -6988.9095            0    2018.5365    23.131655    21.256864    21.571304    10606.749    2006.2573    2135.0553     1914.297    22.197822    115.43853    67.024417   -6637.8723 
45223000    15.003023   -6988.7986   -6950.2043   -6988.7986            0    1973.1658    23.148551    21.260905    21.554951    10608.466    2024.1964    1768.9868    2126.3142    206.18574    -405.5945    387.08053   -6644.9287 
45224000     15.64209   -6987.2214   -6946.9831   -6987.2214            0    2026.2921    23.149005    21.279674    21.534609    10608.019    2034.8873    1840.4063    2203.5827    50.615625   -123.78314    84.215361   -6633.5014 
45225000    14.748667   -6987.8857   -6949.9457   -6987.8857            0    1987.5989    23.105588    21.290744    21.568327    10610.218     2132.568    1810.8696     2019.359   -14.600152    227.18129   -372.88704   -6642.3863 
45226000    15.212084   -6988.3964   -6949.2643   -6988.3964            0    2008.1813    23.109947    21.258666    21.588646    10606.213    2198.7763    1923.4046     1902.363   -115.02959    208.87086   -118.03173   -6638.6373 
45227000     16.36251   -6987.7665   -6945.6749   -6987.7665            0     1932.963     23.17559    21.218684    21.580236      10612.2    2032.7988    2030.5357    1735.5544    -342.7509   -541.55808    245.04947    -6646.514 
45228000    15.688725   -6986.5616   -6946.2033   -6986.5616            0    2120.9887    23.148987    21.273969     21.54244    10609.024    1935.6376    2031.9443     2395.384    143.11049   -251.52372     203.9236   -6618.0403 
45229000     14.75965    -6985.835   -6947.8667    -6985.835            0      2033.76     23.12659     21.27343    21.558553    10606.418    2098.2575    2121.9169    1881.1057     52.83509    87.006628   -247.53935   -6633.2771 
45230000    15.180643   -6985.2967   -6946.2454   -6985.2967            0    2171.6018    23.044526     21.32216    21.571146    10599.178    2464.0603    2090.6795    1960.0654     25.85655    322.99967    -239.8893   -6610.5633 
45231000    15.133284   -6986.0959   -6947.1664   -6986.0959            0    2040.3999     23.17236    21.220445    21.575913    10609.476    1814.6172    2352.9606    1953.6218    176.70878   -1.5882856    62.391448   -6631.4588 
45232000     15.28948   -6987.9301   -6948.5988   -6987.9301            0    1886.1104    23.172181    21.240658    21.564449    10613.857    1835.4099    1918.1646    1904.7567   -235.12707   -150.35315    290.61231   -6656.6436 
45233000    15.077298   -6989.2839   -6950.4985   -6989.2839            0    1965.4842    23.125344    21.281597    21.562126    10611.677     1896.736    1893.6181    2106.0986     227.5957   -23.733208   -1.1780215   -6646.3193 
45234000    14.723316   -6986.5074   -6948.6326   -6986.5074            0    2004.1237    23.087541    21.305914    21.562603     10606.67     2212.519    1814.1641    1985.6881    29.328084    291.09515    -112.0956   -6638.6199 
45235000      15.0707   -6987.8273   -6949.0588   -6987.8273            0    2125.3083     23.15057    21.276428    21.516928    10598.409     2070.762    1954.9205    2350.2424    -51.44574    58.489606    213.68638   -6620.5565 
45236000    14.484523    -6986.388   -6949.1275    -6986.388            0    2043.1291    23.165222    21.256406     21.54325    10608.097    2077.8343    1984.1671    2067.3859   -114.82796   -256.46769    151.51962   -6633.0386 
45237000     14.36145   -6987.7832   -6950.8392   -6987.7832            0    2039.4833    23.118496    21.269933    21.583757    10613.356    1994.9665    2021.3358    2102.1476   -339.73652    274.17845   -273.27076    -6635.158 
45238000    15.450829   -6986.7086   -6946.9623   -6986.7086            0    1976.2806    23.098747    21.286238    21.579972    10610.558    2348.8302    1898.9651    1681.0466   -30.330773    114.84246   -112.19854   -6641.1445 
45239000    14.512435   -6986.4032   -6949.0708   -6986.4032            0    2059.6176    23.139963    21.255306    21.557644    10603.063    2285.6115    1945.5016    1947.7396   -137.26999   -3.9293064    40.789199   -6630.5823 
45240000    15.340965    -6987.232   -6947.7683    -6987.232            0    2130.6974    23.193106    21.227833    21.538709    10604.355     1826.302    2273.2542    2292.5359    153.11964   -162.03615    40.456595   -6618.2482 
45241000    15.022794    -6987.923   -6949.2778    -6987.923            0    2059.9562    23.126886     21.26411    21.575286    10610.136    1936.5003    2185.8102    2057.5581   -108.45079    184.02461   -8.8561017   -6630.5244 
45242000    14.144442   -6986.2526   -6949.8669   -6986.2526            0    1832.5703    23.113075      21.2711    21.599644     10619.26    1985.9421    1837.5422    1674.2267    375.87681   -220.64842   -233.67311   -6666.0549 
45243000    15.432406   -6988.0348   -6948.3359   -6988.0348            0    2091.7542     23.09563    21.306917    21.548433    10603.912    2343.2444    1866.4895    2065.5288   -94.357102    228.40635    39.371087    -6624.852 
45244000    15.059747   -6987.7471   -6949.0068   -6987.7471            0    1945.5364    23.183314    21.244648    21.537671    10607.763      1882.02    1970.2867    1984.3024    54.515288   -129.24341    68.159066   -6648.0259 
45245000     15.96987   -6987.2179   -6946.1364   -6987.2179            0    1921.8532    23.182893    21.262676     21.52947    10612.529    1632.3756    2046.4372    2086.7468   -83.138017   -272.09595   -24.189155   -6648.6857 
45246000     14.74731   -6987.7575   -6949.8209   -6987.7575            0    1842.6384    23.121892    21.286745    21.576775    10619.869    1746.9437    1923.9464    1857.0251    13.298659    181.38209   -113.91543   -6664.4333 
45247000     14.90162   -6987.6189   -6949.2854   -6987.6189            0    1770.6553    23.101357    21.281664    21.605694    10622.122    1941.0609    1856.1828    1514.7223    320.97644    328.10486   -218.28041   -6674.9883 
45248000    15.099725   -6986.9108   -6948.0677   -6986.9108            0    2008.7832    23.141698    21.268209    21.552047     10607.54    1992.9808    2015.6626    2017.7063    83.970833    39.158918    224.93765   -6637.3087 
45249000    15.194499   -6989.0285   -6949.9416   -6989.0285            0    1806.2215    23.222565    21.245375    21.517276    10616.024    1479.5491     1726.984    2212.1313    67.504636   -390.90778     308.5208   -6670.2955 
45250000    15.539925    -6985.512   -6945.5365    -6985.512            0    1993.7737    23.110708    21.318089    21.534092    10609.333    2048.7293    1894.3058    2038.2858   -366.29402    134.81774   -230.53108   -6637.0474 
Loop time of 643.824 on 64 procs for 250000 steps with 1296 atoms

Performance: 67.099 ns/day, 0.358 hours/ns, 388.305 timesteps/s
384.2% CPU use with 16 MPI tasks x 4 OpenMP threads

MPI task timing breakdown:
Section |  min time  |  avg time  |  max time  |%varavg| %total
---------------------------------------------------------------
Pair    | 39.257     | 50.318     | 64.464     |  87.9 |  7.82
Bond    | 1.5554     | 1.7974     | 2.4049     |  16.8 |  0.28
Kspace  | 327.94     | 346.93     | 361.29     |  43.3 | 53.89
Neigh   | 0.1266     | 0.13423    | 0.14157    |   1.2 |  0.02
Comm    | 68.651     | 75.504     | 81.192     |  34.1 | 11.73
Output  | 0.46659    | 0.46691    | 0.46836    |   0.1 |  0.07
Modify  | 142.14     | 146.79     | 151.23     |  26.6 | 22.80
Other   |            | 21.88      |            |       |  3.40

Nlocal:        81.0000 ave          98 max          63 min
Histogram: 2 1 1 0 3 3 2 1 1 2
Nghost:        3719.38 ave        3753 max        3698 min
Histogram: 3 3 2 1 1 1 2 2 0 1
Neighs:        26319.8 ave       31764 max       20450 min
Histogram: 2 1 1 0 3 3 2 1 1 2

Total # of neighbors = 421117
Ave neighs/atom = 324.93596
Ave special neighs/atom = 2.0000000
Neighbor list builds = 250
Dangerous builds = 0

unfix		3
unfix		2
unfix		1

write_data	data.final.${pid}
write_data	data.final.0
System init for write_data ...
PPPM initialization ...
  extracting TIP4P info from pair style
  using 12-bit tables for long-range coulomb (../kspace.cpp:340)
  G vector (1/distance) = 0.36789046
  grid = 27 40 32
  stencil order = 5
  estimated absolute RMS force accuracy = 0.0044335147
  estimated relative force accuracy = 1.3351398e-05
  using double precision FFTW3
  3d grid and FFT values/proc = 10353 2240
Last active /omp style is kspace_style pppm/tip4p/omp
WARNING: Not all mixed pair coeffs generated from mixing. Use write_data with 'pair ij' option to store all pair coeffs. (../write_data.cpp:312)

write_restart   restart.lmp.${pid}
write_restart   restart.lmp.0
System init for write_restart ...
PPPM initialization ...
  extracting TIP4P info from pair style
  using 12-bit tables for long-range coulomb (../kspace.cpp:340)
  G vector (1/distance) = 0.36789046
  grid = 27 40 32
  stencil order = 5
  estimated absolute RMS force accuracy = 0.0044335147
  estimated relative force accuracy = 1.3351398e-05
  using double precision FFTW3
  3d grid and FFT values/proc = 10353 2240
Last active /omp style is kspace_style pppm/tip4p/omp
Total wall time: 0:10:43
