LAMMPS (30 Jul 2021)
Processor partition = 1
  using 2 OpenMP thread(s) per MPI task
using multi-threaded neighbor list subroutines
variable        pid world 0 1
variable        phase world IceVI Liquid

shell cd ${phase}
shell cd Liquid
include Restart.lmp
echo both
log log.lammps
#include		in.partitions
include		in.temp
variable        temperature equal 265.56
variable	tempDamp equal 100.0
include		in.pressure
variable        pressure equal 8625.0
variable        pressureDamp equal 1000.0 # This is 1 ps
include		in.seed
variable        seed equal 745823

units		real
atom_style	full
read_restart	restart.lmp.${pid}
read_restart	restart.lmp.1
Reading restart file ...
  restart file = 30 Jul 2021, LAMMPS = 30 Jul 2021
  restoring atom style full from restart
  orthogonal box = (0.61402256 1.8147687 0.74910609) to (17.593550 21.814409 21.464090)
  2 by 4 by 4 MPI processor grid
  restoring pair style lj/cut/tip4p/long/omp from restart
  restoring bond style harmonic/omp from restart
  restoring angle style harmonic/omp from restart
  864 atoms
  576 bonds
  288 angles
Finding 1-2 1-3 1-4 neighbors ...
  special bond factors lj:    0        0        0       
  special bond factors coul:  0        0        0       
     2 = max # of 1-2 neighbors
     1 = max # of 1-3 neighbors
     1 = max # of 1-4 neighbors
     2 = max # of special neighbors
  special bonds CPU = 0.002 seconds
  read_restart CPU = 0.009 seconds
include 	in.setup
variable	out_freq equal 1000
variable	out_freq2 equal 10000
variable	out_freq3 equal 1000

timestep	2.0

neigh_modify    delay 7 every 1

include		in.tip4p
# This is TIP4P/Ice

# create groups ###
group ox type 2
288 atoms in group ox
group hy type 1
576 atoms in group hy

# set charges - beside manually ###
set group ox charge -1.1794
Setting atom values ...
  288 settings made for charge
set group hy charge 0.5897
Setting atom values ...
  576 settings made for charge

# ### TIP3P Potential Parameters ###
pair_style lj/cut/tip4p/long/omp 2 1 1 1 0.1577 8.5
pair_coeff 1 1*2 0.000 0.000
pair_coeff 2 2 0.21084 3.1668
bond_style  harmonic
bond_coeff  1 450 0.9572
angle_style harmonic
angle_coeff 1 55 104.52
kspace_style pppm/tip4p/omp 1.0e-5
pair_modify tail yes

thermo          ${out_freq}
thermo          1000
thermo_style    custom step temp pe etotal epair emol press lx ly lz vol pxx pyy pzz pxy pxz pyz enthalpy

restart 	${out_freq3} restart.lmp.${pid} restart2.lmp.${pid}
restart 	1000 restart.lmp.${pid} restart2.lmp.${pid}
restart 	1000 restart.lmp.1 restart2.lmp.${pid}
restart 	1000 restart.lmp.1 restart2.lmp.1


include         in.dump
dump            myDump all atom ${out_freq2} dump.water.${pid}
dump            myDump all atom 10000 dump.water.${pid}
dump            myDump all atom 10000 dump.water.1
dump            myDump2 all dcd ${out_freq2} dump.dcd
dump            myDump2 all dcd 10000 dump.dcd
dump_modify     myDump append yes
dump_modify     myDump2 append yes


variable natoms 	equal  "count(all)"                        # NUMBER ATOMS
variable H      	equal  "enthalpy/v_natoms"                 # ENTHALPY-per-atom
variable Vol      	equal  "vol/v_natoms"                 # volume-per-atom
fix AVG all 		ave/time ${out_freq} 1 ${out_freq} v_Vol v_H file vol_enthalpy.dat
fix AVG all 		ave/time 1000 1 ${out_freq} v_Vol v_H file vol_enthalpy.dat
fix AVG all 		ave/time 1000 1 1000 v_Vol v_H file vol_enthalpy.dat


timer           timeout 23:50:00 every 1000
New timer settings: style=normal  mode=nosync  timeout=23:50:00

fix 		1 all shake 1e-6 200 0 b 1 a 1
Finding SHAKE clusters ...
       0 = # of size 2 clusters
       0 = # of size 3 clusters
       0 = # of size 4 clusters
     288 = # of frozen angles
  find clusters CPU = 0.000 seconds
fix             2 all nph iso ${pressure} ${pressure} ${pressureDamp}
fix             2 all nph iso 8625 ${pressure} ${pressureDamp}
fix             2 all nph iso 8625 8625 ${pressureDamp}
fix             2 all nph iso 8625 8625 1000
fix             3 all temp/csvr ${temperature} ${temperature} ${tempDamp} ${seed}
fix             3 all temp/csvr 265.56 ${temperature} ${tempDamp} ${seed}
fix             3 all temp/csvr 265.56 265.56 ${tempDamp} ${seed}
fix             3 all temp/csvr 265.56 265.56 100 ${seed}
fix             3 all temp/csvr 265.56 265.56 100 745823

run             250000
PPPM initialization ...
  extracting TIP4P info from pair style
  using 12-bit tables for long-range coulomb (../kspace.cpp:340)
  G vector (1/distance) = 0.37423953
  grid = 24 24 24
  stencil order = 5
  estimated absolute RMS force accuracy = 0.0031635222
  estimated relative force accuracy = 9.5268532e-06
  using double precision FFTW3
  3d grid and FFT values/proc = 3549 432
Last active /omp style is kspace_style pppm/tip4p/omp
Neighbor list info ...
  update every 1 steps, delay 7 steps, check yes
  max neighbors/atom: 2000, page size: 100000
  master list distance cutoff = 10.8154
  ghost atom cutoff = 10.8154
  binsize = 5.4077, bins = 4 4 4
  1 neighbor lists, perpetual/occasional/extra = 1 0 0
  (1) pair lj/cut/tip4p/long/omp, perpetual
      attributes: half, newton on, omp
      pair build: half/bin/newton/omp
      stencil: half/bin/3d
      bin: standard
Setting up Verlet run ...
  Unit style    : real
  Current step  : 5750000
  Time step     : 2
  Walltime left : 23:49:59.93
Per MPI rank memory allocation (min/avg/max) = 10.20 | 10.20 | 10.20 Mbytes
Step Temp PotEng TotEng E_pair E_mol Press Lx Ly Lz Volume Pxx Pyy Pzz Pxy Pxz Pyz Enthalpy 
 5750000    272.58979   -3836.1194   -3368.9098   -3836.1194            0    10216.289    16.979527     19.99964    20.714984    7034.4861    10534.863    8903.6565    11210.349   -291.59495    2125.0577    -2039.932   -2320.8129 
 5751000    278.11769   -3872.8339   -3396.1497   -3872.8339            0    7793.1067    16.988065    20.009697      20.7254    7045.1031     8731.559    7544.8358    7102.9253   -730.90634    644.21541    582.92918   -2595.4423 
 5752000    253.98597   -3840.3798   -3405.0566   -3840.3798            0    8413.5099    16.997407      20.0207    20.736797    7056.7318     9083.201    7270.6635    8886.6653   -202.80639    720.57306   -741.55637   -2539.1785 
 5753000    268.25785   -3887.2834   -3427.4986   -3887.2834            0    5936.7099     17.03451    20.064403    20.782062    7103.0443    8054.4578    4378.5183    5377.1538     149.4446    756.96562    509.70171   -2812.5112 
 5754000    250.42192   -3908.7413   -3479.5267   -3908.7413            0    7460.6316    16.980555    20.000851    20.716237    7035.7634    8047.4815    7506.6628    6827.7506   -266.29793   -27.520231    -1361.096   -2713.9958 
 5755000    270.30307   -3876.0501   -3412.7599   -3876.0501            0    7546.2999    16.995632    20.018609    20.734631    7054.5209    6980.3057    8147.2554    7511.3386   -846.58432   -283.05413    -748.3164   -2636.3742 
 5756000    272.07118   -3887.7863   -3421.4656   -3887.7863            0    7972.3617    17.038223    20.068776    20.786592    7107.6898    5569.9859    7010.9439    11336.155   -211.31765   -165.65437   -836.13861   -2595.0636 
 5757000    266.37113   -3847.3426   -3390.7916   -3847.3426            0    9518.8102     16.96997    19.988383    20.703324    7022.6141    11335.511    9671.1732    7549.7466   -389.42626   -19.219262    1649.6409   -2415.8977 
 5758000    262.71884   -3851.7705   -3401.4794   -3851.7705            0    6631.2398    17.055166    20.088733    20.807263    7128.9149    4895.0718     7629.085    7369.5625   -694.49819   -377.81896    -443.5814   -2712.0432 
 5759000    274.96904   -3849.0859   -3377.7983   -3849.0859            0    11196.756     17.03019    20.059315    20.776792    7097.6421    10619.309    11811.067    11159.892    453.25313    210.17033    994.03347   -2218.8016 
 5760000    271.84409   -3874.4445    -3408.513   -3874.4445            0      9285.84    17.067997    20.103846    20.822917    7145.0172    8211.2742    9712.5017    9933.7441    115.40132   -103.02704    1800.0081    -2440.903 
 5761000    269.67986   -3875.7476   -3413.5255   -3875.7476            0    8337.1436    17.011932    20.037808    20.754517    7074.8377    7916.6637    8148.9281    8945.8391   -330.80221   -1028.1989   -865.16375   -2553.3053 
 5762000    283.81891   -3827.0341   -3340.5782   -3827.0341            0    8984.9991    16.966225    19.983973    20.698755    7017.9665    8065.5525     8935.795    9953.6497    795.87569    826.91606   -705.12226   -2420.9649 
 5763000    269.85534   -3846.3204   -3383.7976   -3846.3204            0    8323.9494    16.969503    19.987833    20.702754    7022.0348    8929.7761    8195.0651     7847.007   -1089.2345    -984.4563    -717.9812   -2531.3488 
 5764000    265.31133   -3878.4448   -3423.7103   -3878.4448            0    7216.8604    16.996929    20.020137    20.736213    7056.1359    7804.0637    6285.6281    7560.8893     334.6307   -140.81957   -860.18232   -2681.0484 
 5765000    268.73467   -3867.6729   -3407.0708   -3867.6729            0     7940.611    17.029078    20.058004    20.775435    7096.2509    8565.6773    6970.5179    8285.6377     479.4452   -690.13812    -1852.229   -2585.2848 
 5766000    271.47279   -3865.9583   -3400.6632   -3865.9583            0    8520.2555    17.008307    20.033539    20.750095    7070.3165    10517.145    6698.1373    8345.4839    -43.76254    721.04502    923.46011   -2522.1114 
 5767000    257.31576   -3823.7858   -3382.7554   -3823.7858            0    8150.3242    16.961831    19.978796    20.693394    7012.5141    6729.5102    8815.3607    8906.1016   -386.15946     1508.993    725.45674   -2549.2191 
 5768000    268.97059   -3887.7291   -3426.7228   -3887.7291            0    7306.6477    16.959315    19.975833    20.690324    7009.3942    6863.1483    7920.4309    7136.3637   -779.79883   -1119.7305    292.20378    -2679.802 
 5769000    253.92007    -3850.403   -3415.1927    -3850.403            0    8748.6862    16.950515    19.965468    20.679589    6998.4895    8988.7185     7918.291     9339.049    275.53727   -609.34902    646.17319   -2522.2512 
 5770000    267.69201   -3875.2919    -3416.477   -3875.2919            0    8700.3521    16.947274     19.96165    20.675634    6994.4748     7622.991    8751.4656    9726.5998    632.15726    30.968048    329.29479   -2528.9781 
 5771000    256.85156   -3869.9928    -3429.758   -3869.9928            0    9990.9471     16.92629    19.936933    20.650034    6968.5254    9406.4163    11418.311     9148.114    519.65615   -1232.5402    450.14051   -2414.3901 
 5772000    263.35885   -3826.5339   -3375.1458   -3826.5339            0    10569.733    16.925397    19.935882    20.648945    6967.4235    8778.5908    10004.264    12926.345    186.74635   -793.02637     175.5095   -2301.1264 
 5773000    261.99954   -3874.7487   -3425.6905   -3874.7487            0    7610.4005    16.901682    19.907949    20.620012    6938.1767    6516.3125    8015.1304    8299.7585     690.9159    1170.4524    65.694811    -2655.623 
 5774000    271.57402   -3826.8366    -3361.368   -3826.8366            0    8559.4819    16.963228    19.980442    20.695098    7014.2474    7720.7584    8034.2863     9923.401   -941.98448   -1593.3372   -446.52837   -2485.7707 
 5775000     271.8216   -3889.4043   -3423.5113   -3889.4043            0    9886.5212    16.997037    20.020264    20.736345    7056.2706    9410.8561    9593.3986    10655.309   -417.39872   -1005.7571    833.61852   -2406.1046 
 5776000    279.79587   -3854.9257   -3375.3652   -3854.9257            0    9243.6268    16.987413    20.008929    20.724605    7044.2922    12934.524    6468.4008    8327.9556     865.6266    959.92522    170.36768   -2425.7325 
 5777000    275.88042   -3825.0806    -3352.231   -3825.0806            0    11749.182     16.88579     19.88923    20.600624    6918.6236    10706.442    11688.864    12852.239   -2430.5763    94.063798    1852.9354   -2166.7265 
 5778000    263.60577   -3876.9939   -3425.1826   -3876.9939            0    7924.4721    16.971069    19.989677    20.704664    7023.9783    7343.3857    10824.041    5605.9897   -956.82624   -937.68153   -500.27241   -2613.4194 
 5779000    256.43127   -3872.9842   -3433.4698   -3872.9842            0    9170.6417    16.993558    20.016167    20.732101     7051.939     10700.86    9456.5656    7354.4995     807.4393     163.0222    647.42519   -2490.3124 
 5780000    270.61221   -3838.0304   -3374.2104   -3838.0304            0    9600.9182    16.971983    19.990754    20.705779    7025.1132    9903.1684     9056.923    9842.6632    102.41687     208.8199   -1009.4471   -2390.5572 
 5781000    275.32588    -3838.031   -3366.1319    -3838.031            0    7429.5409     16.98849    20.010197    20.725918    7045.6315    8033.1523    7032.6025     7222.868   -1232.1302   -297.95671   -341.04095    -2602.722 
 5782000    285.15242   -3854.9936   -3366.2521   -3854.9936            0     10037.52     16.94206    19.955509    20.669274    6988.0221    8317.8823    11035.036    10759.641    1526.2498   -1920.7847   -1100.5922    -2343.297 
 5783000    269.75973   -3846.5248   -3384.1658   -3846.5248            0    10371.708    16.978646    19.998603    20.713909    7033.3911    11134.833    9256.1441    10724.148     99.06091   -402.62723   -396.49436     -2320.29 
 5784000    257.52363   -3841.2998   -3399.9131   -3841.2998            0    8327.8879    16.910928    19.918839    20.631293    6949.5697    8830.8598    8193.1987    7959.6051   -253.44088    261.30678   -628.21799   -2555.8621 
 5785000    255.96146   -3841.9568   -3403.2476   -3841.9568            0    8185.6139    16.948276     19.96283    20.676857    6995.7159    8211.5564    8236.5923    8108.6929    93.024456     456.3502   -225.30362   -2568.1076 
 5786000    270.25544   -3829.1193   -3365.9108   -3829.1193            0    8683.8838     16.93997    19.953047    20.666724    6985.4355    9989.7685    8620.9225    7440.9603   -526.35551   -1316.0836     945.7306   -2481.2365 
 5787000    270.07028   -3823.8831   -3360.9918   -3823.8831            0    10483.208    16.873443    19.874687    20.585561    6903.4585    10721.353    12127.264    8601.0084   -1044.4933    187.55908    1510.8604   -2305.5439 
 5788000    261.58034   -3828.9805   -3380.6408   -3828.9805            0    7116.0305    17.040465    20.071417    20.789328    7110.4968    6466.3123    6980.3467    7901.4324    711.11814   -410.09591   -1192.2414   -2642.7134 
 5789000    265.74626   -3859.7623   -3404.2823   -3859.7623            0    7539.8652     17.02475    20.052907    20.770155    7090.8421    7817.2935    8611.5009    6190.8012    317.96748    301.84491    128.45507   -2624.5648 
 5790000    258.25114   -3850.9696    -3408.336   -3850.9696            0    8757.1395    16.949668     19.96447    20.678555    6997.4394    7781.3919    8373.2768     10116.75   -599.20895    189.10092   -1506.1113   -2514.6657 
 5791000    259.75351   -3864.3984   -3419.1898   -3864.3984            0    7030.3439    17.029969    20.059054    20.776522    7097.3651     7555.816     7062.412    6472.8038   -1242.4865     173.9804   -749.75243   -2691.4944 
 5792000    273.15426   -3894.9023   -3426.7252   -3894.9023            0    6807.8015    17.004851    20.029468    20.745878    7066.0072    6479.0706    7382.6221    6561.7119      2074.93    89.064048     168.2175   -2725.1781 
 5793000     282.7983    -3888.626   -3403.9194    -3888.626            0    9307.5421    16.933028    19.944871    20.658255    6976.8517    9013.2486    10049.099    8860.2784    782.71393    634.70889    1813.7706   -2456.8749 
 5794000    273.21455   -3868.3437   -3400.0633   -3868.3437            0    10177.946    16.953271    19.968714    20.682951    7001.9035    8689.4585    8216.2475    13628.132     933.6158   -965.04032    1986.8836   -2360.7364 
 5795000    261.16071   -3923.5544   -3475.9339   -3923.5544            0    8733.8217    16.992517     20.01494    20.730831    7050.6429     9923.331    8106.4317    8171.7023    927.67432   -1206.0013    1619.8844   -2577.8665 
 5796000    276.42984   -3888.6644   -3414.8732   -3888.6644            0    9136.3772    17.013501    20.039657    20.756431    7076.7957     8406.425    9801.0363    9201.6704   -1070.4808   -155.39403   -1524.2561   -2471.9277 
 5797000    255.98463   -3874.3011   -3435.5522   -3874.3011            0    7979.5634    16.976427    19.995989    20.711202    7030.6341    9371.9141    7811.9082    6754.8681    1093.6126   -347.65804    947.76566   -2617.3709 
 5798000    262.36471    -3870.895   -3421.2109    -3870.895            0    6982.7558    16.990511    20.012578    20.728384    7048.1466    7449.4446    7768.2899    5730.5328   -22.557269   -923.07086    1424.7867   -2703.4535 
 5799000    273.29386    -3864.855   -3396.4386    -3864.855            0    7690.7771     16.96418    19.981563    20.696259     7015.428     8333.132    9952.2294      4786.97   -589.50127    834.50954   -242.54577   -2609.5735 
 5800000    261.00278   -3853.3899     -3406.04   -3853.3899            0    8732.4598    16.943135    19.956774    20.670585    6989.3512    7323.3848    7874.8252     10999.17   -625.50872   -1361.7435   -16.824164   -2515.9184 
 5801000    272.49842    -3827.266    -3360.213    -3827.266            0    8024.6227    16.966121    19.983849    20.698628    7017.8365    9454.7296     7790.155    6828.9836   -1064.1023   -1625.5729    551.22145   -2538.9093 
 5802000    268.90805   -3858.6606   -3397.7614   -3858.6606            0    8921.8747     16.94681    19.961104    20.675069     6993.901    10830.837     6129.465    9805.3217    230.31236    357.47923   -215.33026   -2487.7402 
 5803000    264.83095   -3878.3999   -3424.4887   -3878.3999            0    7766.3661    16.952668    19.968004    20.682216    7001.1565    8181.0457    6383.8047    8734.2478   -887.32072   -172.90934   -558.01532   -2631.5064 
 5804000    269.11991    -3864.397   -3403.1347    -3864.397            0    8590.7888     16.99258    20.015015    20.730908    7050.7219    9100.8062    7572.9085    9098.6518   -575.32527    -341.6858   -388.34092    -2519.765 
 5805000    256.21991   -3867.2106   -3428.0585   -3867.2106            0      7933.47    16.980097    20.000312    20.715679    7035.1946    7736.7555    7212.1883    8851.4664   -1848.3787   -75.424477   -725.62513   -2614.0757 
 5806000    279.50348   -3866.2877   -3387.2283   -3866.2877            0    6630.1516    17.052955    20.086128    20.804565    7126.1425    4417.6541    6688.2237    8784.5769   -329.23552   -1289.6438    475.94348   -2698.1734 
 5807000    271.30744   -3869.7213   -3404.7096   -3869.7213            0    10601.178    16.950472    19.965418    20.679537    6998.4362    8662.0196    10348.596    12792.919   -1175.7838   -1789.2309    -1128.347   -2322.7002 
 5808000    263.48006   -3857.6994   -3406.1036   -3857.6994            0    8974.8901    16.967851    19.985887    20.700739     7019.984    6810.4453    10962.504    9151.7207   -1068.5249     2166.368   -1950.5328   -2487.2609 
 5809000    264.24202   -3854.7538    -3401.852   -3854.7538            0    8262.6326    16.954229    19.969842     20.68412    7003.0902    9160.0468    6445.1034    9182.7475    -237.0272   -779.23335    -1713.436   -2557.9655 
 5810000    262.39995    -3876.524   -3426.7795    -3876.524            0    8596.4124     16.93793    19.950644    20.664234    6982.9118    9005.9599    8166.5971    8616.6802   -636.03658   -471.36744    233.14811   -2551.3328 
 5811000    266.23847   -3849.4717    -3393.148   -3849.4717            0    9246.9267    16.921372    19.931141    20.644034    6962.4534    9057.3046    8292.7079    10390.768   -456.04506    405.05202    382.65645   -2454.2129 
 5812000    266.39395   -3815.6538   -3359.0637   -3815.6538            0    7553.0215    16.994216    20.016942    20.732904     7052.758    8482.7432    7683.6675    6492.6536    3076.6116    -436.2404     -107.149   -2582.1807 
 5813000     276.6291   -3808.2551   -3334.1223   -3808.2551            0    9934.9065    16.920136    19.929685    20.642526    6960.9278    7849.2709    12028.326    9927.1224   -332.20949   -430.33856    651.26179   -2325.5505 
 5814000    266.62336   -3837.9159   -3380.9326   -3837.9159            0    9808.3272     16.94558    19.959654    20.673568    6992.3776    7784.8503    11840.062    9800.0691   -131.73327    886.74255    2338.0336   -2380.7122 
 5815000    268.56839   -3881.4288   -3421.1118   -3881.4288            0     7363.265    16.963558    19.980831    20.695502    7014.6573    6227.1032    8228.0356    7634.6561    2128.2773    1734.7319   -446.06955   -2667.8381 
 5816000    273.23565   -3847.5312   -3379.2146   -3847.5312            0     7708.901    17.014717    20.041089    20.757915    7078.3132    7955.3565     7139.859    8031.4874   -43.783035    -1128.793    349.91547   -2583.4252 
 5817000    249.95076   -3871.2506   -3442.8435   -3871.2506            0    6341.5679    17.054531    20.087985    20.806488    7128.1187    7004.1721    5092.1129    6928.4186   -1300.9661   -311.12317    833.52449   -2783.5976 
 5818000    256.73243    -3856.109   -3416.0784    -3856.109            0     9887.495    16.953458    19.968934    20.683179     7002.135    9261.3802    10768.077    9633.0279   -1895.1662    66.814134    2302.6734   -2406.3777 
 5819000    265.22565   -3913.4891   -3458.9014   -3913.4891            0    6113.6975    16.988299    20.009973    20.725686    7045.3943    7834.6833    4724.6936    5781.7156    686.40451    1476.3061    1320.1796   -2830.7199 
 5820000    252.04666   -3835.0848   -3403.0855   -3835.0848            0    8070.0594    16.977307    19.997025    20.712275    7031.7268     7575.259    7819.8635    8815.0559   -46.499952   -1046.4986    680.85688   -2575.4967 
 5821000     260.2164   -3855.5775   -3409.5755   -3855.5775            0    9183.2686    16.973482     19.99252    20.707609    7026.9757    10045.983    10176.561    7327.2619    7.1036823    755.25872   -737.36665   -2468.4628 
 5822000    278.60923   -3811.9321   -3334.4054   -3811.9321            0    9533.2954    16.943486    19.957188    20.671013    6989.7858     12198.72    6819.3054    9581.8607    662.93664   -848.15488     749.2863   -2362.5922 
 5823000    247.10976   -3864.4221   -3440.8844   -3864.4221            0    8573.4161    16.949067    19.963762    20.677822    6996.6958    7808.8258    10517.768    7393.6545    -2499.944   -958.03717   -795.78251   -2566.0562 
 5824000    269.07884   -3853.7401   -3392.5481   -3853.7401            0    7800.8594     16.94038     19.95353    20.667224    6985.9428    7521.1857    10281.409    5599.9832    593.41524     857.7142    456.69797   -2597.7747 
 5825000    268.44551   -3833.4663   -3373.3599   -3833.4663            0    9990.1065    16.871815    19.872769    20.583575    6901.4603    8809.7197    10135.609    11024.991    104.94425   -896.73492    1579.5113   -2367.8485 
 5826000    252.70134   -3837.8883   -3404.7669   -3837.8883            0    7962.3591    16.967522      19.9855    20.700337    7019.5757    8404.4171    6883.7021    8598.9581   -1666.7814   -290.75003   -414.65942   -2589.6338 
 5827000     259.3432   -3890.0429   -3445.5376   -3890.0429            0    7932.4397    16.970201    19.988655    20.703605    7022.9009    6219.9525     10165.09    7412.2763   -339.82856    540.00927   -1663.3526   -2633.0828 
 5828000    279.58245   -3830.9857    -3351.791   -3830.9857            0    10306.209      16.8812    19.883824    20.595025    6912.9841    8865.6391    13265.204    8787.7828    -26.56317   -545.51018   -455.88579   -2312.7316 
 5829000    263.26663   -3851.1587   -3399.9287   -3851.1587            0    8020.3779    16.970906    19.989486    20.704466    7023.7763    8674.0962    8003.9005    7383.1371    -685.3414   -710.09908   -883.56723   -2578.3648 
 5830000     275.1259   -3813.4817   -3341.9253   -3813.4817            0    10115.436    16.916534    19.925443    20.638133    6956.4839    9758.2757    9970.9707    10617.063    -385.3466   -210.81995   -1097.6562   -2315.6821 
 5831000    265.80152   -3859.7554   -3404.1807   -3859.7554            0    6649.9206    16.982448    20.003081    20.718547    7038.1174     4333.553     6942.144    8674.0648   -417.70878    679.00041    1315.9788   -2721.6081 
 5832000    259.53977   -3857.5449   -3412.7026   -3857.5449            0    7302.1126    16.998961    20.022531    20.738693    7058.6673    6115.3576     8092.522    7698.4582    273.61019    485.59581   -1212.4612   -2660.9982 
 5833000    255.20723   -3836.6782   -3399.2618   -3836.6782            0    9879.3355     16.94558    19.959655    20.673569    6992.3787    9279.5933    11561.198     8797.215   -992.59393   -178.49242   -2650.1378      -2391.8 
 5834000    277.27923   -3831.6607   -3356.4136   -3831.6607            0    7122.0012    17.001997    20.026107    20.742397    7062.4501    6391.8984     8259.477    6714.6282    1130.6319    2120.9942    1154.6329   -2622.8575 
 5835000    272.23019   -3871.9516   -3405.3584   -3871.9516            0    7299.0759     16.94189    19.955308    20.669066    6987.8111    6496.2645    6688.7431    8712.2201   -127.37929   -267.37324    1198.9957   -2661.5091 
 5836000    269.58144   -3864.8506   -3402.7973   -3864.8506            0    8968.1319    16.901785    19.908071    20.620139    6938.3041    7242.2873    9019.6988     10642.41    557.74819    272.67068    1284.0078   -2495.3295 
 5837000    254.09827   -3866.7637   -3431.2479   -3866.7637            0    7939.4944    16.985915    20.007164    20.722776     7042.428    7157.3147     8246.192    8414.9764   -34.507485    409.48429    517.87615   -2615.8096 
 5838000     274.7249   -3844.3764   -3373.5073   -3844.3764            0    9584.4017    16.925643    19.936172    20.649245    6967.7274    8699.2673     11400.73    8653.2081     1722.878    954.42276   -218.65932   -2399.5676 
 5839000    264.45287   -3884.1542   -3430.8911   -3884.1542            0    7438.2254    16.935135    19.947352    20.660825    6979.4563    8847.4598    6362.6201    7104.5962    23.686697    164.80527   -93.712885   -2673.7674 
 5840000    267.50706    -3853.833   -3395.3351    -3853.833            0    10035.328    16.877873    19.879905    20.590966    6908.8975    13616.746     7365.312    9123.9259   -620.47882    598.27129   -1606.1028   -2384.1836 
 5841000    257.13541   -3890.7329   -3450.0116   -3890.7329            0     8711.941      16.9286    19.939655    20.652852    6971.3792    9202.9907    8913.5552    8019.2772   -1026.5315    2451.1622    1190.9116    -2564.265 
 5842000    263.91435   -3843.1181    -3390.778   -3843.1181            0    9913.3078    16.963321    19.980551    20.695212    7014.3624    12031.787    9954.5046    7753.6324    128.49423   -255.55863   -65.191809   -2376.6735 
 5843000    261.76535   -3889.9672   -3441.3103   -3889.9672            0    8724.9187    16.939591    19.952601    20.666262    6984.9669    9031.1694    8584.9694    8558.6172    1868.3736   -746.86766    459.28283   -2552.5153 
 5844000    264.97992    -3871.789   -3417.6225    -3871.789            0     9620.629    17.008813    20.034135    20.750713    7070.9479     10319.49    8842.7603    9699.6362    608.06308   -1448.0315    344.49035    -2425.519 
 5845000    263.53986   -3891.2336   -3439.5353   -3891.2336            0    8371.7061    17.031582    20.060954    20.778491    7099.3827    9696.3419    7896.0521    7522.7241    1230.6771   -146.80126    1143.8063   -2572.7521 
 5846000    273.77819   -3871.7372   -3402.4907   -3871.7372            0    9577.5264    17.033571    20.063296    20.780917    7101.8695    7801.4522    10929.912    10001.215    441.71129    1035.8793    -128.3531    -2410.513 
 5847000    262.52832   -3844.9657   -3395.0011   -3844.9657            0    9282.3518    17.036964    20.067293    20.785056     7106.114    8099.9544    8141.6007      11605.5    -213.5472    747.81274   -839.41668   -2433.0211 
 5848000    263.75854   -3899.2168   -3447.1437   -3899.2168            0    8879.5787    16.981812    20.002331    20.717771    7037.3261    10559.159    8942.6083    7136.9691    373.52614     50.11125   -228.64834   -2535.8131 
 5849000    267.73443   -3865.2667    -3406.379   -3865.2667            0    8422.2032     16.98933    20.011187    20.726943    7046.6766    8517.6892    8021.2971    8727.6235   -802.77979    65.851204   -342.70101   -2540.8414 
 5850000    263.02077   -3871.8366    -3421.028   -3871.8366            0     8933.976    16.944983    19.958952     20.67284    6991.6395    8882.4678    9225.9365    8693.5235    3691.5021   -197.56435    530.96675   -2510.0672 
 5851000    264.94155   -3883.2015   -3429.1008   -3883.2015            0    8921.5574    16.885391     19.88876    20.600137    6918.1332     8957.279    8477.3205    9330.0727   -421.51946    25.091367   -1436.0087   -2528.9703 
 5852000    285.43371   -3869.4923   -3380.2687   -3869.4923            0    8664.3979    16.921986    19.931864    20.644783    6963.2114    10010.245      8075.88    7907.0684    790.44659    -56.34703    985.42368   -2500.3878 
 5853000    280.21855   -3863.4623   -3383.1772   -3863.4623            0    8184.5575    16.930982     19.94246    20.655759    6974.3227    8324.9904    6903.8164    9324.8656    1601.1927   -709.58963    -169.9801   -2550.6986 
 5854000    268.47515    -3877.003   -3416.8458    -3877.003            0    10634.492    16.911032    19.918962     20.63142    6949.6984    11617.693    9370.7204    10915.062   -237.84341   -474.13658   -223.45493   -2338.9952 
 5855000    268.92343   -3840.6702   -3379.7447   -3840.6702            0    7058.1073    17.040592    20.071566    20.789482    7110.6547    8720.0257    5354.8037    7099.4925   -1109.8706    190.44769    340.87474   -2647.8076 
 5856000    247.50174   -3843.8279   -3419.6184   -3843.8279            0    7402.6955     17.06877    20.104757     20.82386    7145.9881    8114.6187    6872.7248    7220.7431    782.91548     830.7309   -342.55697   -2648.1323 
 5857000     273.9983   -3886.9944   -3417.3706   -3886.9944            0    7718.8007    16.974505    19.993725    20.708857    7028.2459    5517.3352     8989.824    8649.2429    799.65486   -1295.3036    91.622124   -2626.1954 
 5858000    263.11769   -3859.1985   -3408.2237   -3859.1985            0    9539.9186    16.904391    19.911139    20.623317     6941.513     11396.84    7259.2525    9963.6633   -519.07751    1276.7628   -240.90091   -2442.4515 
 5859000    263.13091   -3863.6147   -3412.6174   -3863.6147            0    7090.3407     16.96278    19.979915    20.694552    7013.6921    3242.3175    8439.0454    9589.6592    32.293081    -1714.411   -1777.0606   -2687.3641 
 5860000    260.11609   -3858.6968   -3412.8667   -3858.6968            0    7901.2487    16.982834    20.003536    20.719018    7038.5972    9123.5148    4534.1772    10046.054    942.74707   -341.04818   -563.74794   -2601.7978 
 5861000    258.98926    -3842.953   -3399.0542    -3842.953            0     8437.336     17.00221    20.026357    20.742656    7062.7155    9339.3181    7608.5693    8364.1206   -438.95626   -1247.2344   -201.19349   -2529.9879 
 5862000    272.24108   -3876.8828   -3410.2709   -3876.8828            0    7764.0558    16.963497    19.980758    20.695426    7014.5807     7973.341    7973.3826    7345.4437    552.58134     94.24686   -124.27403   -2616.0044 
 5863000    266.45293    -3895.235   -3438.5438    -3895.235            0    6968.7801    16.979572    19.999693    20.715038    7034.5416    6236.8666    7303.2867    7366.1871   -522.27733    1251.4595    526.26604   -2723.6056 
 5864000    280.60017   -3883.1031    -3402.164   -3883.1031            0    8241.2786    16.999245    20.022866     20.73904    7059.0218    6722.0077    9217.4348    8784.3935    214.25189   -359.74629    -1192.177    -2553.736 
 5865000     269.5241    -3859.217   -3397.2619    -3859.217            0    9484.3501     16.97945     19.99955     20.71489    7034.3904    7927.6109    9442.8204    11082.619   -836.12359    481.37699    536.91402   -2424.2684 
 5866000    267.66129    -3892.646   -3433.8837    -3892.646            0    11525.908    16.889022    19.893038    20.604568    6922.5982    11353.572    13782.802     9441.351    1270.2592   -2547.1343   -1451.6806   -2270.2396 
 5867000    256.58843   -3892.0089   -3452.2251   -3892.0089            0    8352.1729    16.967681    19.985686    20.700531    7019.7724    9234.3653    8452.7985    7369.3548    2686.2428    1495.7089   -842.05721   -2597.1616 
 5868000    257.17766   -3876.0317    -3435.238   -3876.0317            0    9498.8766    16.923798    19.933998    20.646993     6965.448     10427.19    8672.6913    9396.7488    143.18797    827.09984    381.22167   -2470.3049 
 5869000    270.06425    -3856.861   -3393.9802    -3856.861            0    9376.4891    16.944591     19.95849    20.672361    6991.1537    9177.7217    9498.7556    9452.9898   -1326.8527    182.40803    -339.9778   -2437.9645 
 5870000    264.16581   -3871.7438   -3418.9727   -3871.7438            0    8917.3344    16.984889    20.005956    20.721525    7041.1526    10014.171    7570.8536    9166.9785    841.13123    437.29387   -1187.3447   -2503.2696 
 5871000    264.33564   -3851.6465   -3398.5843   -3851.6465            0    8428.5182    16.908062    19.915463    20.627796    6946.0363    7075.7373    8753.2182    9456.5989   -580.89404    -431.1534   -363.82427   -2544.7685 
 5872000    277.60123   -3828.3039   -3352.5049   -3828.3039            0    10286.509    16.920543    19.930165    20.643023    6961.4306    10076.225    9982.2519    10801.049     -549.549    1272.7662   -257.05822   -2308.1637 
 5873000    244.50299   -3851.0758    -3432.006   -3851.0758            0    7439.9996    16.993168    20.015707    20.731625    7051.4535    7320.9885     7419.633    7579.3771   -264.47457    388.78796   -1304.8887   -2666.8897 
 5874000    279.71581   -3845.2403    -3365.817   -3845.2403            0    9738.4897     16.93719    19.949772    20.663332    6981.9969    9286.9119    6652.4874     13276.07    593.71718   -1331.4287   -305.35018   -2374.1927 
 5875000    293.27175   -3857.9113   -3355.2535   -3857.9113            0    9108.7348    16.925488    19.935989    20.649056    6967.5354    8515.1667    9060.0923    9750.9455    88.033681     288.7842    816.84585   -2429.6753 
 5876000    263.80245   -3846.4488   -3394.3005   -3846.4488            0    7368.0504    16.961848    19.978817    20.693415    7012.5359    6472.5962    7758.3177    7873.2375     1208.468    952.73324    2161.5032   -2640.7652 
 5877000    268.60854   -3871.5612   -3411.1754   -3871.5612            0    7189.5014    17.005434    20.030154    20.746589    7066.7335    6919.9031    7504.9374    7143.6637   -1242.0244    169.16674   -1095.4682   -2670.2177 
 5878000    274.64276   -3860.8476   -3390.1193   -3860.8476            0    9877.1314    16.956168    19.972126    20.686485    7005.4931    10606.556    9332.5013    9692.3364    668.57067    808.31469   -2524.5482   -2380.9932 
 5879000     266.2549    -3810.086   -3353.7342    -3810.086            0    9265.5991     16.97481    19.994084    20.709229    7028.6251    10932.282    8074.0126    8790.5027    2097.3792   -267.98948    819.00274   -2403.9613 
 5880000    254.30225   -3827.4319   -3391.5665   -3827.4319            0    11584.829    16.877614      19.8796     20.59065    6908.5795    10304.272    12700.686     11749.53    907.42989   -121.20627    1355.2728   -2224.3423 
 5881000    274.28125   -3889.8172   -3419.7085   -3889.8172            0    7841.8198    16.911708    19.919758    20.632244    6950.5311     7765.335    8462.6295    7297.4949   -297.07602    595.73234   -316.45736   -2624.8117 
 5882000    265.52787   -3796.2944   -3341.1888   -3796.2944            0    9386.4638    16.889754    19.893899    20.605461     6923.498    8880.3196    7865.6766    11413.395    774.19315    298.05207   -765.76518   -2393.4176 
 5883000    265.84309   -3872.5292   -3416.8832   -3872.5292            0    8290.6912    16.979008    19.999029     20.71435     7033.841    7564.3782    9210.0202    8097.6751    1530.6947   -537.05331   -1292.3754   -2566.4129 
 5884000    268.89202   -3894.3993   -3433.5276   -3894.3993            0    8360.7277    16.912138    19.920264    20.632769    6951.0612    7190.6415    8970.3014    8921.2402   -1367.9591    1185.5522   -833.54327   -2585.9664 
 5885000    251.94313   -3855.7769    -3423.955   -3855.7769            0    8665.8001     16.90585    19.912858    20.625098    6943.3113    6482.0721    8897.4268    10617.901    463.43886   -279.55808    -392.0599   -2546.4468 
 5886000    269.25102   -3863.8243   -3402.3373   -3863.8243            0    8488.7804     16.95797    19.974248    20.688683    7007.7264    8410.8597    6594.8705    10460.611   -601.78173    439.49044    343.54202   -2534.7796 
 5887000    257.35348   -3874.5315   -3433.4364   -3874.5315            0    8776.3133    16.885853    19.889304    20.600701    6918.7015    8075.5673    10103.755     8149.618    548.11792   -285.36555    -101.0207   -2547.8874 
 5888000     270.6089   -3903.1561   -3439.3417   -3903.1561            0    10435.991    16.928551    19.939597    20.652793    6971.3193    9720.0142    10515.836    11072.123   -1542.7024   -1003.5248   -68.973532   -2378.3193 
 5889000    250.65084    -3925.855    -3496.248    -3925.855            0    7004.8562    16.954446    19.970098    20.684385    7003.3597     6580.138    7335.3622    7099.0684   -1525.2775    1158.2896    151.84482   -2780.7943 
 5890000    270.96294    -3884.564   -3420.1428    -3884.564            0    10085.445    16.884536    19.887753    20.599095     6917.083    9248.3981    10701.069    10306.867   -176.04825    418.49889    240.00352   -2402.7377 
 5891000     261.9993   -3865.9935   -3416.9356   -3865.9935            0    7419.3609    16.896149    19.901432    20.613263    6931.3656    8779.1672     6650.664    6828.2517   -1.8135568   -114.85037    159.92667   -2666.9357 
 5892000    263.70335   -3879.3083   -3427.3298   -3879.3083            0    7176.2188    16.950437    19.965375    20.679493    6998.3919    7452.4318    7027.6926    7048.5322    1380.0654    261.93306   -1069.2824   -2694.8936 
 5893000    256.23645   -3872.6941   -3433.5136   -3872.6941            0    7937.4878    16.963549     19.98082     20.69549    7014.6457    9585.3606    7138.8905    7088.2123   -175.07147    1649.2343   -228.07041   -2621.4974 
 5894000    250.03424   -3839.8063   -3411.2562   -3839.8063            0    10329.472    16.944595    19.958495    20.672367    6991.1591    10044.251    9951.4105    10992.754   -116.34074   -212.30117    222.21493   -2358.0747 
 5895000    276.29089   -3868.8048   -3395.2517   -3868.8048            0    7402.1073    17.018583    20.045643    20.762632    7083.1393    6759.5604    6636.3466     8810.415    1260.0787   -1645.4196   -233.64547   -2630.6116 
 5896000    265.04479   -3862.7556   -3408.4779   -3862.7556            0    9788.8751     16.90857    19.916061    20.628415    6946.6624    8923.8821     10025.79    10416.953    -1673.461    954.50241    454.32475   -2416.7675 
 5897000    248.44218   -3848.4929   -3422.6716   -3848.4929            0    8564.0912    16.972641     19.99153    20.706583    7025.9312    8820.3338    8761.9886    8109.9513    596.84979   -562.39922   -46.885508   -2545.1434 
 5898000    252.89092   -3850.6605   -3417.2142   -3850.6605            0    9376.6368    16.925273    19.935736    20.648793    6967.2699    7865.1951    11081.748    9182.9673   -46.703277    283.90721   -96.497523   -2464.4495 
 5899000    272.16721   -3805.2704   -3338.7851   -3805.2704            0    7872.5626    16.991373    20.013593    20.729435     7049.219    9992.7435    7119.3391    6505.6053   -943.74161    47.417677    818.64931   -2529.4414 
 5900000    264.89612   -3850.8523   -3396.8294   -3850.8523            0     9268.609    16.940396    19.953549    20.667244    6985.9632    11320.655     8990.297    7494.8754    493.27093    1598.7593    1673.7401   -2452.5147 
 5901000     274.7354   -3845.2049   -3374.3178   -3845.2049            0    9016.3287    16.943566    19.957283    20.671111    6989.8857    9990.4783    7714.7634    9343.7444     1831.512    1721.3077    241.46501   -2455.1904 
 5902000    248.92382   -3855.2833   -3428.6364   -3855.2833            0    7608.1769    16.997015    20.020238    20.736318    7056.2432    6200.8745    7764.3382    8859.3179    742.96267    1128.1259    387.34655   -2645.6936 
 5903000    263.14124   -3838.0952   -3387.0802   -3838.0952            0    7639.6268    16.968482    19.986631    20.701509    7020.7677    8363.6207    6991.8232    7563.4364    987.59002   -869.55223    204.32876   -2604.8535 
 5904000    258.22079    -3865.045   -3422.4634    -3865.045            0    7228.9741    16.993922    20.016595    20.732545    7052.3916    5537.8165    7279.5981    8869.5078   -62.923363   -1515.6995    214.88484   -2678.9497 
 5905000    272.75876   -3865.6102    -3398.111   -3865.6102            0    9849.0684    16.957149    19.973282    20.687682    7006.7095    9666.9669    10048.591    9831.6478    380.70917     311.3069   -800.81894   -2391.6773 
 5906000    255.75112    -3862.138   -3423.7894    -3862.138            0    9994.9455     16.90357    19.910173    20.622316    6940.5023    10296.991    9946.2535    9741.5918   -1016.7712   -449.59921    1197.0933   -2412.0999 
 5907000    257.89834   -3867.4153   -3425.3864   -3867.4153            0    8330.8986    16.962634    19.979742    20.694373    7013.5102    7684.9206    8136.9477    9170.8273   -1106.7256    86.928271    1703.3461   -2573.2616 
 5908000    260.57594   -3843.4229   -3396.8047   -3843.4229            0     9649.488    16.953084    19.968493    20.682723    7001.6712     9715.678    10125.575    9107.2107    1274.3448    199.93884   -340.45498   -2411.4743 
 5909000     260.7993   -3850.5154   -3403.5144   -3850.5154            0    8292.5441    16.952299    19.967569    20.681765     7000.699    8074.3676    8694.7953    8108.4693   -439.98315    550.84469   -467.16872   -2556.8621 
 5910000    266.01009   -3823.4084   -3367.4762   -3823.4084            0    9187.6514    17.023315    20.051216    20.768404    7089.0487     8018.138    8760.9107    10783.905    1614.0409   -460.23126    354.39786   -2417.5971 
 5911000    236.91901   -3840.0293   -3433.9582   -3840.0293            0    7576.5463    17.031288    20.060608    20.778132    7099.0152    6980.3647     7094.051    8655.2233   -278.84778     794.9909   -430.46515   -2649.5443 
 5912000    259.64699   -3852.7332   -3407.7071   -3852.7332            0    8478.4644    16.990977    20.013126    20.728952    7048.7261    8883.1541    7902.0857    8650.1532   -411.78435    1876.1764   -220.03664   -2536.1342 
 5913000    271.33343   -3856.5671   -3391.5108   -3856.5671            0    9577.0715    16.970431    19.988926    20.703886    7023.1862    9889.4117    9601.5151    9240.2876    -336.9345    166.97948   -106.54786     -2410.57 
 5914000    262.35661   -3834.0772   -3384.4069   -3834.0772            0    8640.7627    16.978009    19.997852    20.713131    7032.5993    9803.4568    8080.9631    8037.8684   -376.74926    1447.9608    132.07693   -2498.1822 
 5915000    262.94922   -3816.1315   -3365.4455   -3816.1315            0    8414.0335    17.008724    20.034031    20.750604    7070.8368    6666.4402    10777.751    7797.9098    -717.8487    615.60588    1929.7203   -2497.7828 
 5916000    271.94428   -3841.1434   -3375.0402   -3841.1434            0    8822.3384     17.05038    20.083096    20.801424    7122.9158    8014.8321     10446.25    8005.9337    270.80039   -225.43037   -1171.3535    -2458.572 
 5917000    252.01244   -3858.8662   -3426.9255   -3858.8662            0    8405.7992     16.97294    19.991881    20.706947    7026.3017    6809.8533    9139.3071    9268.2372    -2448.423      3239.14    826.44981   -2565.5715 
 5918000    270.49985   -3826.4788   -3362.8513   -3826.4788            0    7573.9233    17.058675    20.092866    20.811544    7133.3162    5963.8773    8204.4737    8553.4188     189.4406     584.9988    1470.7661   -2574.9202 
 5919000    267.12352   -3807.1303   -3349.2898   -3807.1303            0    8722.5513    17.016425    20.043101    20.759999     7080.445    8436.3442    8739.5787    8991.7309    860.00372    1665.3047   -609.70577   -2448.5902 
 5920000    272.05012   -3841.3857   -3375.1011   -3841.3857            0    10318.826     16.96373    19.981034    20.695712    7014.8708    9075.1141    10591.739    11289.623   -527.20315    126.73351    637.57452   -2319.4368 
 5921000    271.69919   -3878.6807   -3412.9976   -3878.6807            0    6318.7975    17.004138    20.028628    20.745008    7065.1184    6031.7029    5674.1027    7250.5867   -717.26611    568.18594   -2137.1568   -2761.9244 
 5922000    266.99657   -3888.1154   -3430.4924   -3888.1154            0    8261.7958    16.985633    20.006832    20.722432    7042.0771    9589.9972    7728.2262    7467.1642   -472.55087   -171.52079    659.34692   -2581.9938 
 5923000     254.8954   -3880.7285   -3443.8465   -3880.7285            0    8695.6031    16.982322    20.002932    20.718393    7037.9599    5833.7011     10408.86    9844.2478   -173.09432   -1783.0904    -26.14751   -2551.3174 
 5924000    251.06951   -3857.8423   -3427.5177   -3857.8423            0    6816.7235    16.996583    20.019729    20.735791    7055.7052    7545.7975    4835.2087    8069.1642    -822.2865   -1094.9087   -473.00398   -2726.0754 
 5925000    261.71392   -3855.2067    -3406.638   -3855.2067            0    7826.6269    16.990226    20.012242    20.728036    7047.7911    10025.593    6249.4826    7204.8056    979.76721    658.86205     767.4666   -2602.1796 
 5926000    262.83625   -3881.1095   -3430.6171   -3881.1095            0    10382.251     16.93707    19.949632    20.663186    6981.8491    11956.548    10020.214    9169.9914   -1603.7795   -212.50027    283.70842    -2373.464 
 5927000    279.86754    -3873.734   -3394.0506    -3873.734            0    9203.0109    16.967689    19.985697    20.700541    7019.7832    11421.045    7779.1442    8408.8433   -2767.6447   -160.83672   -32.940151   -2451.8801 
 5928000    273.14409   -3854.0916   -3385.9319   -3854.0916            0    9359.3334    16.893144    19.897892    20.609596    6927.6676    9369.6738    9584.0633    9124.2632    -605.0227   -233.89542   -1917.1825   -2440.3311 
 5929000    254.56787   -3883.7216    -3447.401   -3883.7216            0    7224.5763    17.000609    20.024472    20.740704    7060.7209     6528.401     7196.995     7948.333    919.34503    371.65881    1136.8587   -2703.4621 
 5930000    264.22375   -3900.6156   -3447.7451   -3900.6156            0    9770.8154    16.889065    19.893088     20.60462    6922.6507    11166.132    10112.492     8033.822   -1001.5177    3.4411986   -570.91508   -2461.2859 
 5931000    269.97099   -3884.1758   -3421.4548   -3884.1758            0    8507.4403    17.017266    20.044091    20.761024    7081.4945    8745.9154    8447.2906    8329.1149    253.50979    57.301817   -481.55211   -2542.8375 
 5932000    263.65406   -3831.7898   -3379.8958   -3831.7898            0    11117.594    16.961543    19.978457    20.693043    7012.1577    10978.402    11501.742    10872.639   -874.55061    894.21914   -408.38001   -2242.9536 
 5933000     266.0123   -3911.0615   -3455.1256   -3911.0615            0    9904.7011    16.956233    19.972203    20.686565    7005.5739    9881.5933    10711.577    9120.9332    1484.9929   -1125.1863    2012.6548   -2443.1711 
 5934000    262.31973   -3887.3673   -3437.7603   -3887.3673            0    8312.1101    16.948272    19.962826    20.676852    6995.7113    9743.6483    7353.3214    7839.3606    1777.8757    607.59157    28.435618    -2589.715 
 5935000    266.87129   -3850.1329   -3392.7246   -3850.1329            0    8175.5727    16.990676    20.012772    20.728585    7048.3517    6854.2862    9251.3977    8421.0343    2709.0929    992.56173   -1312.1496   -2552.3332 
 5936000    271.84153   -3833.3091    -3367.382   -3833.3091            0    8236.8795    16.987728    20.009299    20.724988     7044.683    7306.4524     8525.095    8879.0911   -1432.0024    1218.0725   -848.16371   -2521.1294 
 5937000    257.83879   -3865.2512   -3423.3244   -3865.2512            0    10320.152    16.935551    19.947843    20.661333     6979.971    11464.038    9837.5165    9658.9015   -378.09703   -1823.2834   -1503.4676   -2372.7771 
 5938000    266.95145   -3815.2575   -3357.7118   -3815.2575            0    8917.7966    16.994447    20.017213    20.733185    7053.0452    7096.8204    9215.7635    10440.806   -1455.5083    1235.4947    56.391437   -2440.4145 
 5939000    261.96697    -3872.123   -3423.1206    -3872.123            0    8273.5614    16.972964    19.991909    20.706976    7026.3314    8378.3612    7584.5582    8857.7648    149.97518    738.81752    686.14873   -2575.3135 
 5940000     274.6345   -3827.3011   -3356.5869   -3827.3011            0    9885.3164     16.95908    19.975556    20.690038     7009.103    7716.7491    9227.0108    12712.189   -1529.6643     362.4128    646.51632   -2346.1042 
 5941000    264.01336   -3844.6602   -3392.1504   -3844.6602            0    8397.8707    16.998758    20.022291    20.738445    7058.4144    8318.5994    7248.5414    9626.4713   -857.51608   -2769.6796    349.24533   -2527.6758 
 5942000    272.19234   -3817.8729   -3351.3445   -3817.8729            0    9538.0958    16.920225     19.92979    20.642635    6961.0382    8441.0695    11522.362    8650.8556    677.57033   -915.03153    49.763118   -2383.0408 
 5943000    262.69323   -3826.8673   -3376.6201   -3826.8673            0    8588.3629    16.941633    19.955005    20.668752    6987.4926    9764.0738    8309.7254    7691.2896    929.10206    1028.6071    -431.9774   -2501.4195 
 5944000    264.21313   -3837.5815   -3384.7293   -3837.5815            0    9594.0464    16.976462     19.99603    20.711244    7030.6773    10662.045    9608.4539    8511.6406    135.05714   -740.57652   -343.55606   -2401.0016 
 5945000    267.62886   -3861.4202   -3402.7135   -3861.4202            0     9551.489    16.950663    19.965642    20.679769    6998.6722    10517.528    10268.426    7868.5131    309.90786    335.92234   -445.16768   -2427.8078 
 5946000    265.77905   -3862.8588   -3407.3227   -3862.8588            0    8955.9443    16.984747    20.005788    20.721351    7040.9751     9788.209    8943.6777    8135.9461   -1154.1808    102.90787    75.889655   -2487.6779 
 5947000    269.28986   -3856.3169   -3394.7633   -3856.3169            0     10935.61    16.925677    19.936211    20.649286    6967.7684    11591.824     9899.625    11315.382    25.428201   -231.19605   -1722.9807   -2283.5111 
 5948000    254.94843   -3802.6501   -3365.6773   -3802.6501            0    7896.0531    16.981761    20.002272    20.717709    7037.2631    6090.5954    7894.1637    9703.4004   -271.64165      370.805    662.85152   -2555.2953 
 5949000    267.10482   -3834.8981   -3377.0896   -3834.8981            0    8121.0929    17.007203    20.032239    20.748749    7068.9403    8948.9124    6342.5268    9071.8396   -87.025967    149.98167   -550.69033   -2539.8598 
 5950000    268.76944   -3855.7466   -3395.0849   -3855.7466            0    8661.2898    17.014736    20.041111    20.757938    7078.3367    9668.6335    8839.1951    7476.0407    673.26014   -167.61412   -70.533752   -2500.9776 
 5951000    267.07566   -3853.0437   -3395.2852   -3853.0437            0    8208.2404    17.022221    20.049927    20.767069    7087.6821    7847.5683    7656.7449    9120.4082     1174.311    319.75778   -1929.7649   -2546.8275 
 5952000    264.93817   -3843.8284   -3389.7334   -3843.8284            0    9144.4212    16.962889    19.980043    20.694685    7013.8275    8466.6452    10021.771    8944.8472    835.41559   -1345.2315    -936.5346   -2454.3553 
 5953000    253.49976   -3878.1195   -3443.6296   -3878.1195            0    8692.1026    16.935145    19.947364    20.660837    6979.4683     8227.156    8973.1377    8876.0141    662.79788   -2030.0512    225.58414   -2558.8745 
 5954000     246.8939   -3857.0566   -3433.8889   -3857.0566            0    11395.495    16.888801    19.892777    20.604298    6922.3261    11932.949    11571.721    10681.814   -298.40566    388.34936   -911.50531   -2283.4564 
 5955000    261.55782   -3917.9693   -3469.6681   -3917.9693            0    6459.6123    17.020941     20.04842    20.765508    7086.0837     7132.144     5500.112     6746.581   -1320.2927    319.24759   -494.81384   -2802.1107 
 5956000    253.70929   -3884.8031   -3449.9541   -3884.8031            0    8714.8882    16.952631     19.96796    20.682171    7001.1106     8969.598    8987.9897     8187.077    -779.8427    1602.9683    393.05029    -2560.129 
 5957000    257.70446   -3844.0263   -3402.3297   -3844.0263            0     7051.765    17.021545    20.049132    20.766246    7086.8388    7088.0522    6349.8935    7717.3494   -44.028345    47.267167    1296.2485   -2673.4996 
 5958000    268.16194   -3818.5074   -3358.8871   -3818.5074            0    10479.284    17.003047    20.027343    20.743678    7063.7587    11092.697    10363.942    9981.2132    365.96419    775.25114    364.18688   -2279.3356 
 5959000    253.48919   -3838.8071   -3404.3353   -3838.8071            0    8152.5499    17.027488    20.056132    20.773496    7094.2644    8803.3312    8612.8938    7041.4248    143.42956    1647.8995    963.86493   -2560.8515 
 5960000    257.96311   -3819.7845   -3377.6445   -3819.7845            0    9160.1509    16.946444    19.960673    20.674623    6993.4483    11323.244    5520.7782     10636.43    366.24591    225.36964     475.0791   -2443.3799 
 5961000    259.71171   -3856.4985   -3411.3615   -3856.4985            0    9431.6497    16.976721    19.996334    20.711559    7030.9983    11216.034    9382.8555    7696.0597     383.0297   -983.19108    1977.3276   -2444.2411 
 5962000    252.37911   -3812.7759   -3380.2067   -3812.7759            0    9677.1947    16.947751    19.962213    20.676217    6995.0665    8900.0489    9925.3165    10206.219   -833.34193    36.052494    1341.7374   -2392.9793 
 5963000    293.30633   -3863.1096   -3360.3926   -3863.1096            0    8639.3247    16.948225     19.96277    20.676795    6995.6528     8554.136     8042.555    9321.2829   -629.13052    979.25827   -327.23915   -2478.9705 
 5964000    264.80163   -3863.7815   -3409.9205   -3863.7815            0      7432.53    17.035868    20.066003     20.78372    7104.7438    7545.0237    6382.4614     8370.105    173.54344    837.21931   -1189.7676    -2639.796 
 5965000    260.68615   -3906.6033   -3459.7962   -3906.6033            0    7346.3327     16.97684    19.996475    20.711705    7031.1462      5762.18    9595.9529    6680.8653   -2188.7219   -35.545218   -1526.3339   -2706.4881 
 5966000    265.59998   -3867.9029   -3412.6736   -3867.9029            0    7753.3841    17.035632    20.065724    20.783431    7104.4478     9255.124    7789.6846    6215.3436   -503.34021    204.81271    1860.4115   -2609.3371 
 5967000    266.75335   -3882.8775   -3425.6714   -3882.8775            0    8460.0555    16.935611    19.947913    20.661406    6980.0452    7407.9397    8557.4173    9414.8095    949.27853   -1269.9661   -482.24912   -2564.4648 
 5968000     267.9139   -3859.5808   -3400.3856   -3859.5808            0    10474.437    16.961216    19.978072    20.692644    7011.7517    9213.9581    8792.9436     13416.41   -100.24606    358.99508   -102.58823   -2329.2779 
 5969000    265.98976   -3844.8303   -3388.9329   -3844.8303            0    9803.8147    16.998939    20.022504    20.738665    7058.6396    12474.477    7725.5629    9211.4043    91.289311   -430.16537    2044.6507   -2379.6986 
 5970000    253.52376   -3855.0868   -3420.5558   -3855.0868            0    9337.5454    16.955424     19.97125    20.685578    7004.5718    8950.2738    9765.5799    9296.7824    1261.8258   -948.35679   -326.45861   -2466.6835 
 5971000    265.39991   -3867.3254   -3412.4391   -3867.3254            0      7862.06    17.050495    20.083231    20.801565      7123.06    10524.794    5992.0032    7069.3828    501.73807    788.31471   -286.99352   -2595.7084 
 5972000    262.93361   -3856.2236   -3405.5644   -3856.2236            0    9208.7477    16.874808    19.876295    20.587227    6905.1343    9585.7609    7694.4073    10346.075    1522.6025    1258.1207   -569.20479   -2478.2039 
 5973000    272.54248   -3883.6009   -3416.4724   -3883.6009            0    8149.7771    16.925476    19.935975    20.649041    6967.5207    7643.7361    8181.2374    8624.3579   -574.19287   -1009.9714     1294.835   -2588.3398 
 5974000    266.77507   -3842.5205   -3385.2772   -3842.5205            0    6712.7244    16.968247    19.986354    20.701222    7020.4753     5965.533    6819.1417    7353.4985   -1505.5825   -888.39084   -733.78973   -2697.9853 
 5975000    269.93101    -3877.192   -3414.5394    -3877.192            0     6607.061    16.941994    19.955432    20.669194    6987.9404    8907.8767    5371.8221    5541.4841   -390.90753    652.55555   -674.11263    -2741.201 
 5976000    265.96033   -3846.5012   -3390.6543   -3846.5012            0    8098.2185    16.912916    19.921181    20.633718    6952.0209    8092.6952    8168.2448    8033.7155   -1932.6364   -1475.9555    30.521818   -2569.5913 
 5977000    283.65143   -3821.4223   -3335.2534   -3821.4223            0    9395.3359    17.000257    20.024057    20.740273    7060.2815    9517.1775    8343.2738    10325.556    633.95194    501.40895    1805.3782   -2367.8442 
 5978000     269.6098   -3859.5473   -3397.4453   -3859.5473            0    8953.0635    16.967092    19.984993    20.699812    7019.0413    10502.554    6381.3167    9975.3198   -1139.6352    1055.7206    884.01807   -2480.9603 
 5979000    268.20417   -3844.4228     -3384.73   -3844.4228            0    8322.0353    16.968567    19.986731    20.701612    7020.8726    9195.1488    7104.3185    8666.6384   -1124.4663    515.00004    1401.9945   -2532.6183 
 5980000    260.96405    -3811.629   -3364.3456    -3811.629            0    9342.6642    16.993949    20.016627    20.732578    7052.4252    10219.291     8201.939     9606.763    206.23715    1689.1823   -321.09924   -2403.4303 
 5981000    260.39339    -3834.953   -3388.6476    -3834.953            0    7860.5046    16.971159    19.989783    20.704774      7024.09    9290.2665    4530.6145    9760.6327     163.2274    1340.2291    284.63195   -2583.4242 
 5982000    252.63029    -3840.712   -3407.7123    -3840.712            0    7598.5701    17.058572    20.092745    20.811418    7133.1872    8866.1087    6600.7495     7328.852    1520.6086   -1250.1058   -304.17243   -2617.2314 
 5983000    266.52981   -3862.5267   -3405.7037   -3862.5267            0    7413.9575    16.990279    20.012305    20.728101    7047.8578    9843.4314    6907.0127    5491.4285   -162.66411   -57.126888   -1193.7367   -2643.6543 
 5984000    273.85502   -3830.9856   -3361.6075   -3830.9856            0    7565.5835     17.01098    20.036688    20.753356    7073.6506    7676.0688    6284.5768     8736.105    1076.0073    346.07053   -471.21669   -2581.1272 
 5985000    266.62175   -3859.0471   -3402.0666   -3859.0471            0    8386.8125    16.934163    19.946207    20.659639    6978.2542    7244.4821    9873.9684    8041.9868    1063.9765    -853.7197   -1296.7729    -2548.535 
 5986000    271.41301   -3872.5645   -3407.3719   -3872.5645            0    8087.2696     16.97604    19.995533    20.710729    7030.1531    8088.8189    7713.0417    8459.9482   -781.49724    253.43392    1958.6156   -2578.2038 
 5987000    262.01277   -3863.1681   -3414.0871   -3863.1681            0    9756.3796     16.97653    19.996109    20.711326     7030.761    9753.3838    10813.175    8702.5797   -1561.5725    1209.5583   -1590.6926   -2413.7027 
 5988000    265.88825   -3836.9143   -3381.1909   -3836.9143            0    7962.7452    16.946374     19.96059    20.674537    6993.3609    9140.5458    7373.0691    7374.6207   -183.01004    745.22731   -466.31002   -2569.0626 
 5989000     264.8883   -3876.9521   -3422.9427   -3876.9521            0    6909.3452    16.976595    19.996186    20.711406    7030.8422    8254.1395    5834.5134    6639.3826    197.00246   -277.61102    1046.8885   -2714.4748 
 5990000    277.95966   -3887.1859   -3410.7725   -3887.1859            0    9780.5436    16.922354    19.932298    20.645232    6963.6657    8112.6718    9711.1196    11517.839    969.63155    892.01725    272.10503   -2417.4809 
 5991000    257.98727   -3881.5786   -3439.3972   -3881.5786            0    8488.9395     16.96323    19.980444    20.695101    7014.2501    8486.6135    8571.5583    8408.6468    228.23616    1233.2065    930.45704   -2571.0157 
 5992000     259.0491   -3883.6723    -3439.671   -3883.6723            0    6560.2364    17.031887    20.061313    20.778862    7099.7636    6194.3719     7835.472    5650.8653     324.4309   -197.89414    400.62262   -2760.4059 
 5993000    267.87427   -3860.1412   -3401.0139   -3860.1412            0    8151.2706    17.027169    20.055756    20.773106    7093.8649     8777.828      7166.28    8509.7038   -431.31717   -13.651482   -1329.7777     -2557.71 
 5994000    278.41614   -3879.3205   -3402.1247   -3879.3205            0    9279.5008    16.971166    19.989792    20.704783    7024.0991    10316.626    7250.2039    10271.672      628.022   -696.64726    1126.8816   -2451.5393 
 5995000    272.91649   -3837.6395     -3369.87   -3837.6395            0    10404.722    16.969446    19.987766    20.702684    7021.9633    11032.046    11967.844    8214.2746   -769.75862   -434.82797    796.83238   -2304.3419 
 5996000    259.43831   -3845.1951   -3400.5267   -3845.1951            0     6959.547    16.998418    20.021891     20.73803    7057.9905    9954.0684    4243.1728    6681.3998    404.49321    1545.8305   -51.874257   -2684.1558 
 5997000    255.10916   -3854.4768   -3417.2285   -3854.4768            0    7384.6952    16.999673    20.023369    20.739561    7059.5544    8031.7585    6549.4976    7572.8294   -64.705219    1063.7525   -453.34293   -2656.9271 
 5998000    277.51531   -3851.9871   -3376.3354   -3851.9871            0     9068.226    17.010106    20.035658    20.752289    7072.5598    7091.2273    9882.2042    10231.246   -199.28705    1626.6951    619.86347   -2440.9838 
 5999000    255.48879    -3888.743   -3450.8439    -3888.743            0    6558.1588    17.044651    20.076348    20.794435    7115.7381    5027.0333    8273.4739    6373.9693    1413.4523   -5.8526094    1186.4104   -2770.2661 
 6000000    267.94375   -3835.0339   -3375.7875   -3835.0339            0    8067.5328    16.963028    19.980207    20.694855    7013.9997    9748.5317     7512.999    6941.0677   -1318.2445    889.32391   -327.22274   -2550.5435 
Loop time of 423.51 on 64 procs for 250000 steps with 864 atoms

Performance: 102.005 ns/day, 0.235 hours/ns, 590.304 timesteps/s
192.1% CPU use with 32 MPI tasks x 2 OpenMP threads

MPI task timing breakdown:
Section |  min time  |  avg time  |  max time  |%varavg| %total
---------------------------------------------------------------
Pair    | 27.085     | 33.698     | 42.201     |  63.0 |  7.96
Bond    | 0.76449    | 1.139      | 1.7177     |  18.8 |  0.27
Kspace  | 183.22     | 196.41     | 204.94     |  36.7 | 46.38
Neigh   | 4.3098     | 5.0313     | 5.5237     |  22.5 |  1.19
Comm    | 80.684     | 89.035     | 98.4       |  53.3 | 21.02
Output  | 0.49115    | 0.49149    | 0.4932     |   0.0 |  0.12
Modify  | 77.264     | 82.539     | 89.114     |  29.6 | 19.49
Other   |            | 15.17      |            |       |  3.58

Nlocal:        27.0000 ave          35 max          19 min
Histogram: 1 2 3 4 2 8 8 1 2 1
Nghost:        2638.31 ave        2670 max        2601 min
Histogram: 2 2 2 4 3 9 1 1 3 5
Neighs:        8791.56 ave       11339 max        5754 min
Histogram: 2 1 1 4 8 2 3 7 3 1

Total # of neighbors = 281330
Ave neighs/atom = 325.61343
Ave special neighs/atom = 2.0000000
Neighbor list builds = 14407
Dangerous builds = 0

unfix		3
unfix		2
unfix		1

write_data	data.final.${pid}
write_data	data.final.1
System init for write_data ...
PPPM initialization ...
  extracting TIP4P info from pair style
  using 12-bit tables for long-range coulomb (../kspace.cpp:340)
  G vector (1/distance) = 0.3743197
  grid = 24 24 24
  stencil order = 5
  estimated absolute RMS force accuracy = 0.0031543802
  estimated relative force accuracy = 9.4993222e-06
  using double precision FFTW3
  3d grid and FFT values/proc = 3549 432
Last active /omp style is kspace_style pppm/tip4p/omp
WARNING: Not all mixed pair coeffs generated from mixing. Use write_data with 'pair ij' option to store all pair coeffs. (../write_data.cpp:312)

write_restart   restart.lmp.${pid}
write_restart   restart.lmp.1
System init for write_restart ...
PPPM initialization ...
  extracting TIP4P info from pair style
  using 12-bit tables for long-range coulomb (../kspace.cpp:340)
  G vector (1/distance) = 0.3743197
  grid = 24 24 24
  stencil order = 5
  estimated absolute RMS force accuracy = 0.0031543802
  estimated relative force accuracy = 9.4993222e-06
  using double precision FFTW3
  3d grid and FFT values/proc = 3549 432
Last active /omp style is kspace_style pppm/tip4p/omp
Total wall time: 0:07:03
