#include		in.partitions
include		in.temp
variable        temperature equal 137.03
variable	tempDamp equal 100.0
include		in.pressure
variable        pressure equal 10918.8
variable        pressureDamp equal 1000.0 # This is 1 ps
include		in.seed
variable        seed equal 745823

units		real
atom_style	full
box tilt large
read_restart	restart.lmp.${pid}
read_restart	restart.lmp.0
Reading restart file ...
  restart file = 30 Jul 2021, LAMMPS = 30 Jul 2021
  restoring atom style full from restart
  triclinic box = (-10.472176 -9.1300019 0.25394168) to (12.452176 12.120000 21.606057) with tilt (-9.1924786 1.5834514 2.4971408)
  4 by 4 by 4 MPI processor grid
  restoring pair style lj/cut/tip4p/long/omp from restart
  restoring bond style harmonic/omp from restart
  restoring angle style harmonic/omp from restart
  1296 atoms
  864 bonds
  432 angles
Finding 1-2 1-3 1-4 neighbors ...
  special bond factors lj:    0        0        0       
  special bond factors coul:  0        0        0       
     2 = max # of 1-2 neighbors
     1 = max # of 1-3 neighbors
     1 = max # of 1-4 neighbors
     2 = max # of special neighbors
  special bonds CPU = 0.005 seconds
  read_restart CPU = 0.014 seconds
include 	in.setup
variable	out_freq equal 1000
variable	out_freq2 equal 10000
variable	out_freq3 equal 1000

timestep	2.0

neigh_modify    delay 7 every 1

include		in.tip4p
# This is TIP4P/Ice

# create groups ###
group ox type 2
432 atoms in group ox
group hy type 1
864 atoms in group hy

# set charges - beside manually ###
set group ox charge -1.1794
Setting atom values ...
  432 settings made for charge
set group hy charge 0.5897
Setting atom values ...
  864 settings made for charge

# ### TIP3P Potential Parameters ###
pair_style lj/cut/tip4p/long/omp 2 1 1 1 0.1577 8.5
pair_coeff 1 1*2 0.000 0.000
pair_coeff 2 2 0.21084 3.1668
bond_style  harmonic
bond_coeff  1 450 0.9572
angle_style harmonic
angle_coeff 1 55 104.52
kspace_style pppm/tip4p/omp 1.0e-5
pair_modify tail yes

thermo          ${out_freq}
thermo          1000
thermo_style    custom step temp pe etotal epair emol press lx ly lz vol pxx pyy pzz pxy pxz pyz enthalpy

restart 	${out_freq3} restart.lmp.${pid} restart2.lmp.${pid}
restart 	1000 restart.lmp.${pid} restart2.lmp.${pid}
restart 	1000 restart.lmp.0 restart2.lmp.${pid}
restart 	1000 restart.lmp.0 restart2.lmp.0


include         in.dump
dump            myDump all atom ${out_freq2} dump.water.${pid}
dump            myDump all atom 10000 dump.water.${pid}
dump            myDump all atom 10000 dump.water.0
dump            myDump2 all dcd ${out_freq2} dump.dcd
dump            myDump2 all dcd 10000 dump.dcd
dump_modify     myDump append yes
dump_modify     myDump2 append yes


variable natoms 	equal  "count(all)"                        # NUMBER ATOMS
variable H      	equal  "enthalpy/v_natoms"                 # ENTHALPY-per-atom
variable Vol      	equal  "vol/v_natoms"                 # volume-per-atom
fix AVG all 		ave/time ${out_freq} 1 ${out_freq} v_Vol v_H file vol_enthalpy.dat
fix AVG all 		ave/time 1000 1 ${out_freq} v_Vol v_H file vol_enthalpy.dat
fix AVG all 		ave/time 1000 1 1000 v_Vol v_H file vol_enthalpy.dat


timer           timeout 10:00:00 every 1000
New timer settings: style=normal  mode=nosync  timeout=10:00:00

fix 		1 all shake 1e-6 200 0 b 1 a 1
       0 = # of size 2 clusters
       0 = # of size 3 clusters
       0 = # of size 4 clusters
     432 = # of frozen angles
  find clusters CPU = 0.001 seconds
fix             2 all nph tri ${pressure} ${pressure} ${pressureDamp}
fix             2 all nph tri 10918.8 ${pressure} ${pressureDamp}
fix             2 all nph tri 10918.8 10918.8 ${pressureDamp}
fix             2 all nph tri 10918.8 10918.8 1000
fix             3 all temp/csvr ${temperature} ${temperature} ${tempDamp} ${seed}
fix             3 all temp/csvr 137.03 ${temperature} ${tempDamp} ${seed}
fix             3 all temp/csvr 137.03 137.03 ${tempDamp} ${seed}
fix             3 all temp/csvr 137.03 137.03 100 ${seed}
fix             3 all temp/csvr 137.03 137.03 100 745823


run             250000
PPPM initialization ...
  extracting TIP4P info from pair style
  using 12-bit tables for long-range coulomb (../kspace.cpp:340)
  G vector (1/distance) = 0.37268369
  grid = 30 40 32
  stencil order = 5
  estimated absolute RMS force accuracy = 0.003466602
  estimated relative force accuracy = 1.0439569e-05
  using double precision FFTW3
  3d grid and FFT values/proc = 5168 640
Last active /omp style is kspace_style pppm/tip4p/omp
Neighbor list info ...
  update every 1 steps, delay 7 steps, check yes
  max neighbors/atom: 2000, page size: 100000
  master list distance cutoff = 10.8154
  ghost atom cutoff = 10.8154
  binsize = 5.4077, bins = 7 5 4
  1 neighbor lists, perpetual/occasional/extra = 1 0 0
  (1) pair lj/cut/tip4p/long/omp, perpetual
      attributes: half, newton on, omp
      pair build: half/bin/newton/tri/omp
      stencil: half/bin/3d/tri
      bin: standard
Per MPI rank memory allocation (min/avg/max) = 9.447 | 9.452 | 9.456 Mbytes
Step Temp PotEng TotEng E_pair E_mol Press Lx Ly Lz Volume Pxx Pyy Pzz Pxy Pxz Pyz Enthalpy 
35500000    149.05627   -6649.4884   -6266.0503   -6649.4884            0    11201.033    22.924353    21.250002    21.352116    10401.524     11331.89    10641.982    11629.228    513.70442    649.89617    1301.5804   -4566.9033 
35501000    137.81824   -6648.1078   -6293.5788   -6648.1078            0    11789.596     22.86951    21.310057     21.35975    10409.686    12726.885    10944.956    11696.947   -264.05046    1216.1011   -808.32002   -4503.7461 
35502000    139.77382   -6651.6081   -6292.0485   -6651.6081            0    11371.505    23.161442    21.123459    21.283478    10412.937    10879.766    10751.861    12482.889   -195.64076   -593.32023    911.64737   -4565.1489 
35503000     133.7306   -6629.1382   -6285.1244   -6629.1382            0    12425.405    23.226206    20.864957    21.393499    10367.584    11942.668    12822.515     12511.03   -1284.2154    819.16672    269.75094    -4406.396 
35504000    131.76677   -6653.8699   -6314.9079   -6653.8699            0    11232.482    22.996109    21.235921    21.328333    10415.554    12106.171    10358.701    11232.573   -392.95435   -781.34206    108.62696   -4608.6921 
35505000    135.05825   -6651.5755   -6304.1463   -6651.5755            0     9587.664    22.966172    21.419625    21.262398    10459.543    10234.073    8264.2714    10264.648    762.91859    328.61413    609.84107   -4841.6277 
35506000    138.56657   -6636.9829   -6280.5289   -6636.9829            0    11068.506    23.027637    21.192731    21.342399    10415.486    10753.644    10499.765    11952.108   -117.10234    130.46935     648.6508   -4599.2319 
35507000    137.78455    -6655.045   -6300.6026    -6655.045            0    10994.122    23.166142    21.093635    21.314464    10415.487    10892.257    10920.896    11169.213    241.32559   -298.23673    356.17237   -4630.6043 
35508000    136.10623   -6632.5253   -6282.4003   -6632.5253            0    12517.098    23.130727    21.004218     21.35619    10375.752    12135.315    13131.162    12284.816    18.325855    870.92998    139.28739   -4388.3168 
35509000    140.36295   -6635.2461    -6274.171   -6635.2461            0    11072.572    22.988264    21.192542    21.370202     10411.13    11058.973    11410.675    10748.067    943.14072    214.59257    409.71051   -4592.9599 
35510000    135.08537   -6638.6708   -6291.1719   -6638.6708            0    11428.378     22.98351    21.330397    21.259884    10422.603    10682.993    10648.628    12953.514   -35.661478    1895.3338    476.04609   -4554.0245 
35511000      140.191   -6656.6872   -6296.0544   -6656.6872            0     10979.15    23.081937    21.043691    21.469898    10428.556    11938.807    11014.807    9983.8347    944.62843   -445.60447    284.68213   -4626.2378 
35512000    140.12997   -6637.3301   -6276.8543   -6637.3301            0    9769.3512    23.145174    21.134222    21.396108    10466.018    8364.5706    10835.772    10107.711    135.93933   -148.75161     907.1887   -4785.6982 
35513000    139.48149   -6641.8017   -6282.9941   -6641.8017            0    10557.967    23.124906     21.22021    21.266577    10435.836    10643.697    10519.639    10510.565   -117.52213   -792.16927    -378.1022   -4676.1141 
35514000    136.91621    -6661.077   -6308.8683    -6661.077            0    11334.891    22.969565    21.147983    21.445325    10417.281    11424.633     12232.55     10347.49    794.39779    1256.0357   -937.13258   -4586.8111 
35515000    141.76207   -6650.7106   -6286.0363   -6650.7106            0    11246.653     22.91562    21.364284    21.233124    10395.224     11630.59    10331.246    11778.123    710.52752   -479.40706    711.41471   -4581.0023 
35516000     134.2855   -6643.3422   -6297.9009   -6643.3422            0    10784.458    23.143134    21.072546    21.369907    10421.778    11432.947    11022.279     9898.147    408.32845   -467.03268   -456.71042    -4658.761 
35517000    137.57652   -6652.0588   -6298.1516   -6652.0588            0    11004.327     23.14911    21.102015    21.367782    10438.009    10256.739    11422.647    11333.594   -1091.5673   -132.66776   -440.77472   -4622.9888 
35518000    138.53269   -6670.2361   -6313.8692   -6670.2361            0    10810.884    23.149282    21.184748    21.255714    10424.051    11034.056    10553.893    10844.703   -876.69026    186.65364   -261.34067   -4670.3544 
35519000    134.28811   -6650.2033   -6304.7553   -6650.2033            0    10267.678    23.047093    21.204244    21.390718    10453.563    9069.6209    10748.917    10984.496    1138.1949      496.514   -187.35714   -4739.4017 
35520000    138.86854   -6658.9171   -6301.6862   -6658.9171            0    11202.211    22.959662    21.254926    21.308632    10398.739    11963.787    11117.552    10525.293   -263.18112    289.81326    636.32796   -4602.8157 
35521000    132.02782   -6646.2557   -6306.6222   -6646.2557            0    11984.003    23.014279    21.136687    21.344064    10382.727    11121.676    12945.668    11884.666    165.16698   -453.90194   -133.71921   -4491.9874 
35522000    135.37541    -6627.282    -6279.037    -6627.282            0    12952.389    23.203427    20.945659    21.291568    10347.938    11892.021    13246.803    13718.343   -24.134341    1880.0664     295.3044   -4324.3393 
35523000    132.06867   -6653.2759   -6313.5373   -6653.2759            0     9506.173    23.081107    21.229489      21.3988    10485.414    9596.5511    10283.816    8638.1523   -566.44804   -101.83639   -834.48132   -4859.8627 
35524000    142.74005   -6622.1339   -6254.9438   -6622.1339            0    11254.954    23.045978    21.169503    21.337964    10410.193    10993.325      12181.6    10589.937     652.7521     292.4101    -1220.262   -4546.1944 
35525000    143.20913   -6637.8622   -6269.4654   -6637.8622            0    11737.288    23.022311    21.180828    21.278294    10375.969    12509.757     11913.73    10788.377    733.01114    19.199276   -113.17896   -4493.3454 
35526000    142.16038   -6634.9689   -6269.2699   -6634.9689            0    11854.433    23.012595    21.197812    21.293112    10387.135    11741.784     12577.87    11243.645   -543.56105   -335.15313    30.490193   -4473.4928 
35527000    138.51248   -6641.0617   -6284.7468   -6641.0617            0    10893.296    23.110515    20.929867    21.539938    10418.868     10823.07    11539.657    10317.162    194.88171    333.09172    249.84193   -4629.5267 
35528000    134.59558   -6660.8011   -6314.5622   -6660.8011            0    10621.213    23.096047     21.12934    21.374137    10430.669    10848.205     11076.94    9938.4934   -405.59587    833.18012   -129.70563   -4698.8568 
35529000    133.37148   -6654.5654   -6311.4754   -6654.5654            0    10583.576    22.949273    21.410792    21.212408    10422.973    10505.314    8876.9719     12368.44    591.33006   -80.108074    501.53936   -4702.6832 
35530000    141.30212   -6639.6078   -6276.1167   -6639.6078            0     10885.61    23.077363    21.179114    21.386042    10452.601    11060.319    10916.998    10679.514    720.75578    1012.1542    144.65568   -4616.7092 
35531000    139.31718   -6641.9235   -6283.5386   -6641.9235            0    9820.3803    23.089918     21.24028    21.337999     10464.93    9854.7823    10035.315    9571.0432   -1169.7343    572.82314    261.67816   -4784.7495 
35532000     144.1725   -6652.3608   -6281.4858   -6652.3608            0    10967.181    23.072362    21.124503    21.341674    10401.765    10414.742    11978.063    10508.737   -242.63709   -401.98971    552.66958   -4617.7746 
35533000     139.4085   -6656.0497   -6297.4298   -6656.0497            0    10578.712    23.192744    21.119276    21.333871    10449.628    10260.989    10501.125    10974.024    30.766939    894.45109   -821.19723   -4685.2646 
35534000    138.36269   -6664.6332   -6308.7036   -6664.6332            0    9960.7141    23.049517    21.236983    21.372129    10461.704    10404.357    9432.9329    10044.852   -610.75185   -633.02472   -176.89479   -4788.9654 
35535000    134.21604   -6652.0513   -6306.7887   -6652.0513            0      11298.9    22.995151    21.130743    21.410187    10403.309    11402.029    11729.532    10765.138    728.11227    1031.2864   -329.17853   -4592.5016 
35536000    135.49986    -6658.185   -6309.6199    -6658.185            0    10426.951    23.038012    21.389459    21.181708    10437.723    11035.783    9531.7044    10713.365    151.02198   -531.56773    210.82146    -4722.393 
35537000    140.19075   -6651.6393   -6291.0071   -6651.6393            0    10808.719    22.954196    21.192456    21.451809    10435.357    10395.931    11833.652    10196.575    573.93113    418.86848    88.482194   -4646.0393 
35538000    138.68921   -6655.0229   -6298.2534   -6655.0229            0    10852.041    23.204523     21.06825    21.370998    10447.825    9381.4126    11757.339    11417.373   -53.867397    503.61518   -1194.2464    -4644.719 
35539000    138.90605   -6646.3407   -6289.0133   -6646.3407            0    11170.898    23.197785    21.022447     21.34124    10407.572    10820.536    11325.752    11366.405    485.79541   -363.60675    452.22468   -4593.4524 
35540000    133.62738   -6648.7421   -6304.9938   -6648.7421            0    11366.868    22.934133    21.243404    21.345488    10399.501    10034.737    11532.337    12533.529   -9.9155853    1271.4229    339.59166   -4581.0258 
35541000     132.9187   -6658.0732    -6316.148   -6658.0732            0    9496.6941    22.844967    21.418247    21.413421    10477.569    10338.408    9135.2123    9016.4615    488.16448    170.43096   -592.97447   -4865.0095 
35542000     133.4216   -6638.7198   -6295.5009   -6638.7198            0    12024.386    22.998015    21.179911    21.344454    10396.796    11573.731    12684.242    11815.185     619.6561    -653.8595   -872.07823    -4472.284 
35543000    146.67802   -6666.5252   -6289.2049   -6666.5252            0    10970.001    23.147704    21.069758    21.373351    10424.136    11971.243    11150.743    9788.0177   -518.60942   -337.39944    71.831879   -4621.4869 
35544000    142.35655   -6658.7834   -6292.5798   -6658.7834            0    11081.407    23.188128    21.094083    21.294349    10415.754    10562.285      11784.7    10897.237   -826.66209   -1.5389005    7.0956378   -4609.2799 
35545000    130.86059   -6672.1733   -6335.5424   -6672.1733            0    10460.527    22.923261    21.282127     21.40897    10444.489    11396.522    9947.6627    10037.395    892.75408   -512.40807    291.93392   -4742.1723 
35546000     140.7214   -6654.0331   -6292.0359   -6654.0331            0    10632.651    23.023107      21.2621     21.32485    10438.932    11456.331    10106.598    10335.023   -48.343872     212.4254   -406.79843   -4673.3092 
35547000    134.36373   -6650.7482   -6305.1057   -6650.7482            0    11499.286     23.12239    21.106048     21.29062    10390.297    10447.873    12433.895     11616.09   -216.02253    1001.9695   -201.22704   -4562.5979 
35548000     143.6849    -6650.995   -6281.3744    -6650.995            0    11132.642    23.140445    21.173333    21.233324    10403.487    10825.742    10735.483      11836.7   -1299.2912    677.10614    604.92898   -4592.2834 
35549000    138.86672   -6639.7809   -6282.5547   -6639.7809            0    10945.082    22.965111    21.218694    21.405727     10430.79    11439.772    11399.664    9995.8085    444.33289    -522.3069   -849.63807    -4617.563 
35550000    137.64348   -6647.3599   -6293.2805   -6647.3599            0    11426.113     22.95776    21.282887    21.287407    10401.185    11454.319    11316.714    11507.305    75.589054    680.70767    203.53787   -4560.0465 
35551000    142.74315   -6649.6884   -6282.4903   -6649.6884            0    10827.131    23.020711    21.377123    21.204098    10434.888    11604.066    9719.0763    11158.252    474.44198   -1298.6621     201.8837   -4634.7943 
35552000    134.44934    -6652.489   -6306.6262    -6652.489            0    11145.665     23.14967    20.914021    21.521157    10419.526    10936.873    11826.176    10673.948   -1102.1655    147.79973    58.504458   -4612.9521 
35553000    134.48842   -6650.1899   -6304.2266   -6650.1899            0    11561.654    23.115959    21.100811    21.341517    10409.655    10791.641    11742.599    12150.722   -542.43635    97.425572     683.1089    -4549.004 
35554000    137.97814   -6644.5366   -6289.5962   -6644.5366            0    9696.7737    23.046813    21.346469    21.257424    10457.974    8654.8579    9958.7587    10476.704     332.5469    494.15625   -110.37054   -4810.6557 
35555000    134.25843   -6638.1656    -6292.794   -6638.1656            0    11323.216    23.023706    21.297302    21.269148    10429.174    11028.828    10357.929     12582.89    569.46004    297.29492   -62.098467   -4570.5465 
35556000    145.28891   -6653.7568     -6280.01   -6653.7568            0    10446.298    23.021084    21.242573    21.360057    10445.646    10798.778    10400.994    10139.121    897.91007   -447.73076    71.685515   -4688.6311 
35557000    141.35292   -6654.5152   -6290.8934   -6654.5152            0    11427.191    23.163571    21.013547    21.348157     10391.19    11663.643    11667.854    10950.074    -884.5325   -16.890892    111.99472   -4559.1616 
35558000    137.76479   -6642.5646   -6288.1731   -6642.5646            0    12493.102    23.086329    20.961007    21.424727    10367.698    13177.361    13401.061    10900.883   -1258.5991   -340.16079    146.30691   -4399.1881 
35559000    140.45459    -6659.836   -6298.5252    -6659.836            0    9675.5451    23.004141    21.306242    21.348777    10463.714    10487.911     8462.137    10076.587   -577.30984    450.79887    946.80671   -4822.0124 
35560000    131.53855   -6654.5088   -6316.1339   -6654.5088            0    10532.957    22.952658    21.334506    21.271757    10416.431    9625.9248    10387.577     11585.37   -69.039317    1260.1858    524.21601   -4716.0412 
35561000    132.07602    -6640.589   -6300.8315    -6640.589            0    10938.722    22.948406    21.186654    21.465381    10436.467     10945.49    11743.805    10126.871    278.32954   -267.14911   -78.495833   -4635.9014 
35562000    140.06466   -6652.9504   -6292.6426   -6652.9504            0    10182.904    23.270927    21.115985    21.263562    10448.671    9026.4811    10643.327    10878.904     -377.837    130.87381    716.37946   -4740.9397 
35563000    145.41145   -6639.8335   -6265.7714   -6639.8335            0    11512.284    23.190962    21.137307    21.240936     10412.19     10762.66    12064.125    11710.067     427.8556   -651.69785    625.35708   -4517.6183 
35564000    135.09972   -6649.2427   -6301.7069   -6649.2427            0    11299.189    22.965654    21.050214    21.561882    10423.702    11436.685     11576.98    10883.902   -166.08492    101.16145   -342.04578   -4584.0155 
35565000    130.64417   -6652.4029   -6316.3287   -6652.4029            0    11480.498    23.024089    21.222154    21.247741    10382.087    12503.943    10553.488    11384.063   -908.32317   -10.094811   -317.86845   -4578.0425 
35566000     143.2084   -6642.3545   -6273.9596   -6642.3545            0    11747.446    22.877365    21.331838    21.293742    10391.692    12667.504    11040.711    11534.122   -586.12648   -415.72926    95.025118   -4493.6087 
35567000    133.94727   -6658.8691   -6314.2979   -6658.8691            0    11423.729    22.937165    21.171354    21.407519    10395.724    11457.757    12237.521     10575.91   -292.50841    985.42072   -27.526325   -4582.3353 
35568000    133.45994   -6665.2704   -6321.9528   -6665.2704            0    9195.9021    23.239885     21.19619    21.280339    10482.632     8090.701    9874.6929    9622.3123    563.57123   -764.12613    255.41528   -4916.0977 
35569000     129.9174    -6655.733   -6321.5284    -6655.733            0    11067.925     23.17588    21.007143    21.401524    10419.525    10708.359    11806.215      10689.2    324.78331   -174.27321   -520.59792   -4639.6678 
35570000    136.24103    -6655.706   -6305.2342    -6655.706            0    10344.371    23.098371    21.164838    21.373634    10448.999    9930.9411    10631.202     10470.97    47.005388    1106.3991    1041.6203    -4728.877 
35571000    137.88691   -6644.5851   -6289.8794   -6644.5851            0    10725.892    22.936137    21.337412    21.275193    10412.032     11137.92    10510.724    10529.032    833.23806   -319.57176   -347.29574   -4661.1655 
35572000    146.89653   -6638.3887   -6260.5063   -6638.3887            0     12257.65    22.908878    21.295208     21.28873    10385.692    13046.516     11765.85    11960.585    644.22082    5.0866218    19.104596   -4403.9054 
35573000    129.02974   -6643.3042    -6311.383   -6643.3042            0    11109.947    23.128025    21.087172    21.349564    10412.281    10703.097    11606.709    11020.036   -1011.6152    -1454.001    1086.4846   -4624.3104 
35574000    137.42418   -6653.9026   -6300.3872   -6653.9026            0    11291.682    23.200621    21.080844    21.303622     10419.36    10581.289    12430.579    10863.179    225.25308    -976.9885    691.76943    -4584.552 
35575000    137.98529   -6643.8334   -6288.8746   -6643.8334            0    11865.761    23.031153    21.132282    21.351825    10391.951    11978.233    12026.214    11592.836    -163.1428   -476.26008      229.891    -4490.548 
35576000    137.81706   -6660.1936   -6305.6676   -6660.1936            0    9824.2329    22.937512    21.354335    21.383779    10474.102    10698.001    8541.7905    10232.908    1815.5272   -1313.5227    594.43877   -4804.9763 
35577000    132.76371   -6651.1933   -6309.6668   -6651.1933            0    10884.509    22.965746    21.372079    21.265403    10437.607    11503.198    10034.126    11116.204    182.78075   -651.03858   -156.67484   -4652.8072 
35578000    141.39506   -6645.0058   -6281.2756   -6645.0058            0    9924.4399    23.111878    21.196983    21.347779    10458.321    9384.6607    10429.233    9959.4257    371.43244   -395.34988    133.67862   -4767.5614 
35579000    138.36646   -6672.1285   -6316.1892   -6672.1285            0    9892.7589    23.255814    20.900111    21.497231     10448.71     10448.05    10433.083    8797.1436    348.05728   -455.28021   -675.05381   -4808.6938 
35580000    142.71283   -6643.5644   -6276.4443   -6643.5644            0    11113.986    23.059625    21.212191    21.314039    10425.659    12062.996    10162.967    11115.995   -1213.3063    703.37392   -537.60305     -4586.59 
35581000    136.79868   -6653.2571   -6301.3509   -6653.2571            0     12004.48    22.899485    21.265672    21.322096    10383.284    12651.127    10459.563    12902.749    32.172518   -509.68032    1125.1227    -4483.518 
35582000    137.62546   -6657.4398   -6303.4067   -6657.4398            0    10598.165    22.956249    21.232756    21.366754    10414.678    11596.166    9842.9865    10355.343   -911.86656    532.20188    336.87502    -4693.679 
35583000    136.26968   -6640.1976   -6289.6522   -6640.1976            0    11430.117    23.206744    21.080841    21.227281    10384.761    9825.7889    12701.095    11763.468    16.130483   -542.86289   -48.340605   -4558.5484 
35584000    142.86502   -6636.0623   -6268.5507   -6636.0623            0    10939.694    23.145815    21.051476    21.361854     10408.64    10996.989    10251.873     11570.22    -433.8346   -567.27106    220.08425   -4607.9125 
35585000     132.4936   -6647.3814   -6306.5497   -6647.3814            0     10930.91    23.069798    21.116303    21.430573    10439.879    10866.357    10673.718    11252.654    897.40294   -941.49299   -164.56611   -4642.2648 
35586000    137.09497   -6658.8622   -6306.1937   -6658.8622            0    10481.484    23.016451    21.373731    21.227007    10442.572    10066.906    8872.2843     12505.26     -405.295    60.758392    787.80654   -4709.9245 
35587000    130.94852   -6656.5168   -6319.6598   -6656.5168            0     10160.64    22.945771    21.327626       21.344    10445.301    9868.8827    9963.8887    10649.149    5.0172511    242.90815    339.37091   -4771.8488 
35588000    141.81206   -6656.5626   -6291.7597   -6656.5626            0    11327.449    23.040219    21.102355    21.416805    10412.912    12134.023    11321.118    10527.205   -578.86791    239.90336    280.92711   -4571.5547 
35589000    128.54098   -6647.0536   -6316.3897   -6647.0536            0    11439.574    23.360996    20.996685    21.190251    10393.891    9665.6862     12863.44    11789.594    56.035743   -459.22267    373.64157   -4582.3306 
35590000    135.00493   -6653.3864   -6306.0945   -6653.3864            0    11296.789    23.043761    21.190889    21.355967    10428.499    11458.263     11784.03    10648.073    690.68593   -430.15488   -445.54561   -4587.9777 
35591000    136.92454   -6665.1622   -6312.9322   -6665.1622            0    11285.066    22.861854    21.262249    21.391674    10398.373    12009.428    11284.187    10561.583   -536.63293     81.32774    300.05437   -4601.5563 
35592000    133.79476   -6641.5623   -6297.3834   -6641.5623            0    10619.709    23.047764    21.282561    21.253855    10425.344     10176.77    10928.765    10753.591    291.71937   -601.72488   -1096.8899   -4682.7316 
35593000    132.15005   -6638.2325   -6298.2845   -6638.2325            0    10784.374    23.228173     20.99199    21.366887    10418.613    9682.1627      12179.7     10491.26   -40.726319     8.975358     255.1826    -4659.655 
35594000    140.05191   -6652.8931   -6292.6181   -6652.8931            0    10178.471    23.119599    21.086916    21.387336    10426.776    9621.3872    10964.099    9949.9264   -302.51557    879.66154   -274.25973   -4744.8408 
35595000    131.63425   -6653.8924   -6315.2713   -6653.8924            0    11557.579    23.048933    21.242447    21.215519    10387.452    12438.054    11034.797    11199.885    34.348186   -1065.7419   -1549.1801   -4564.4099 
35596000    140.57936    -6639.781   -6278.1492    -6639.781            0    12030.515    22.972312    21.137466    21.410758     10396.56    12713.407    12347.445    11030.694    371.47461    288.40385   -296.27258   -4454.0443 
35597000    137.31157   -6661.1254   -6307.8997   -6661.1254            0    10440.162    23.078555    21.199172    21.377713    10458.966     10997.01    9620.7413    10702.735   -690.80449    425.93612    446.37622   -4715.4274 
35598000    131.10757   -6659.0126   -6321.7464   -6659.0126            0    11305.519    23.150023    21.165375     21.27936    10426.438    11434.739    10856.301    11625.517   -556.45803    -796.6076   -425.82574   -4602.6415 
35599000     137.0209   -6644.8076   -6292.3297   -6644.8076            0    10508.528    23.134431    21.078793    21.371185    10421.571    10048.753    9908.5785    11568.251   -34.986885    1070.2565    973.56894   -4695.1604 
35600000    133.45947   -6658.4216   -6315.1052   -6658.4216            0    9967.4686    23.069609      21.2412    21.335772    10455.087     9446.559    9441.1933    11014.654    444.44026    116.21605   -117.54948   -4795.2983 
35601000    134.81357   -6659.7601   -6312.9604   -6659.7601            0     11152.51    22.960033    21.238323    21.323188    10397.882    12005.153    10442.304    11010.073   -770.31424    148.40661    394.23993   -4621.7666 
35602000    137.01618     -6648.47   -6296.0042     -6648.47            0    11838.523    22.981244    21.171143    21.359643    10392.304     11994.33    11979.175    11542.064     620.1353   -88.633602   -489.30644   -4501.7448 
35603000    138.76892   -6631.5938   -6274.6192   -6631.5938            0    11620.574    23.174063    21.082707    21.284869    10399.191    11435.452    12315.109    11111.162    -379.1772   -934.86403   -1175.3059   -4512.2252 
35604000    141.48132    -6651.289   -6287.3369    -6651.289            0    12024.517    23.089141     21.03363    21.385274    10385.725    12067.146    12781.137    11225.268    842.65748   -654.49645    964.73201   -4466.0418 
35605000    139.25691   -6641.0959    -6282.866   -6641.0959            0    12618.795    23.043397    21.240406    21.201686    10377.188    11737.166     12419.35    13699.867    349.15777    669.86902   -88.780514   -4373.1294 
35606000     135.1276   -6654.8412   -6307.2336   -6654.8412            0    11117.342    22.871021    21.320694    21.370826    10420.971    12121.925      11603.8    9626.3019    20.257744   -232.47447    -656.7989   -4617.6292 
35607000    134.81562   -6656.4392   -6309.6342   -6656.4392            0    9586.7701     22.96757    21.256127     21.44738    10470.645    10579.975    9313.3413    8866.9944   -320.68328    -158.8554    346.23127   -4845.6997 
35608000    138.66448   -6658.5261   -6301.8201   -6658.5261            0    11185.365     23.17271    21.080577    21.285023    10397.608    10311.076     11535.94     11709.08   -670.99919    539.73922    286.28246   -4605.6888 
35609000    135.26457   -6658.5292   -6310.5693   -6658.5292            0    10459.302    23.134405    21.107485     21.35475    10427.718    10794.383    10192.713     10390.81    368.49312   -214.80719    1237.1342    -4719.944 
35610000    135.12451   -6653.6723   -6306.0727   -6653.6723            0    10943.595     22.99391    21.244583    21.338488    10423.767    12033.972    10610.984    10185.828    -155.4546   -424.89101    27.152919    -4642.428 
35611000    136.31944   -6645.0975    -6294.424   -6645.0975            0    11069.412    22.919948    21.338275    21.310215    10422.233    11913.876    9745.2887    11549.071    854.33574   -39.838902    166.20205   -4611.9002 
35612000    135.44555   -6643.3676   -6294.9422   -6643.3676            0    11054.273    23.019176    21.204773    21.371318    10431.691    10935.592    10193.219    12034.009    253.77539     533.0868    106.69137   -4613.1947 
35613000    135.34066   -6643.8017   -6295.6461   -6643.8017            0    10924.469    23.144772    21.122263     21.32974    10427.469    10153.908    11436.614    11182.886   -1430.0724   -31.865224   -389.01767   -4634.3191 
35614000    138.71503   -6642.1229   -6285.2869   -6642.1229            0     11380.94    23.167018    21.025188    21.360116    10404.318     10728.33    12011.251     11403.24   -1090.7763     295.6391   -296.84202    -4558.385 
35615000      139.428   -6648.8213   -6290.1512   -6648.8213            0     11112.59    23.053282    21.173152    21.339251    10415.916    10869.294    10999.286     11469.19    161.37088   -169.64869   -760.72159   -4602.0883 
35616000    134.45011   -6654.0881   -6308.2234   -6654.0881            0    13113.081    22.815333    21.259973    21.295661    10329.532    13258.769    13526.606    12553.869    353.97869   -395.60028   -542.09817   -4332.7949 
35617000     129.6304   -6671.7402   -6338.2739   -6671.7402            0    9629.1125    23.141583    21.111624    21.383868    10447.225    10135.349    9089.0911    9662.8969     353.1721   -479.49764    587.31487   -4871.1625 
35618000    132.31128   -6650.0242   -6309.6615   -6650.0242            0    11498.924    23.165601    21.080821    21.277589    10390.908    11309.391    11320.901    11866.481   -912.00642    764.32699    438.08412    -4567.106 
35619000    138.72888   -6658.8396    -6301.968   -6658.8396            0    10704.035    23.013356    21.158498    21.370696    10405.991    10528.884    10969.937    10613.284   -284.85328    82.707493    185.09283   -4677.5161 
35620000    137.22907   -6659.7061   -6306.6926   -6659.7061            0    10654.937    22.985865    21.292931    21.331697     10440.51    9999.7038    11056.504    10908.602    276.12253    122.85559   -154.21516   -4684.3281 
35621000    133.27767   -6655.4894   -6312.6407   -6655.4894            0    9890.8814    23.027496    21.213326    21.453429    10479.781    11407.311    9236.0489    9029.2838    1404.1276   -887.06582    815.61459   -4800.9495 
35622000    140.14945   -6637.2245   -6276.6986   -6637.2245            0    11050.701    23.167681    21.207714    21.222324     10427.24    10308.457    11037.625    11806.023   -261.86014   -11.826876    84.336015   -4596.2118 
35623000    134.13911   -6647.8026   -6302.7379   -6647.8026            0    11512.311    23.134399    21.092802    21.326798    10406.823    11345.671    12092.762    11098.499   -422.98828    -786.7131   -779.82185   -4555.4818 
35624000    135.95676   -6639.9346   -6290.1942   -6639.9346            0    11564.761    23.022058    21.135553    21.393965     10409.96    12098.772    11151.467    11444.045   -1236.1411    468.23581    1339.4997   -4534.4485 
35625000    145.54073   -6660.5673   -6286.1727   -6660.5673            0    10217.197    22.936073    21.392193    21.308596    10455.124    10959.755    8902.4382    10789.399   -771.76938    294.70989   -664.36467   -4728.2824 
35626000    140.51939   -6665.4565    -6303.979   -6665.4565            0    10439.779    23.021473    21.254932    21.314259     10429.49    9713.5593    11480.921    10124.858    1018.8642    189.35871   -702.19092   -4716.0528 
35627000    143.60696    -6672.925   -6303.5049    -6672.925            0    10018.211    23.163453    21.084204    21.367057    10435.307    9839.3093    11187.326    9027.9979    862.83634   -798.29052   -218.98441    -4778.851 
35628000    139.75919   -6655.8112   -6296.2892   -6655.8112            0    11463.499     23.11342    21.066049    21.358704    10399.733    11939.075    11366.416    11085.007   -563.62284   -245.85734   -2.9907497   -4557.6266 
35629000    136.27601   -6624.7468   -6274.1851   -6624.7468            0    11150.739    22.951416    21.165245    21.432703    10411.414    11579.602    11961.271    9911.3446    188.44834     -268.999   -531.92332   -4581.0591 
35630000    135.11801   -6675.2519    -6327.669   -6675.2519            0    10819.514    22.991521    21.277067    21.287381     10413.62    10771.972    11363.265    10323.306    491.45815   -199.09946   -1398.7074   -4684.4882 
35631000    129.17307   -6663.1012   -6330.8114   -6663.1012            0    9481.7793    23.054311    21.253245    21.375516    10473.552    9750.9746    8715.4004     9978.963   -223.10216   -60.306759    458.14775   -4882.5073 
35632000     142.4774   -6646.1716   -6279.6572   -6646.1716            0    10949.197     23.20357    21.097391     21.29197     10423.16    11243.118    9768.8105    11835.661    83.783354   -337.05135    417.01658   -4615.2577 
35633000    140.23699   -6654.5384   -6293.7873   -6654.5384            0    10628.541    23.027563    21.161091    21.395765    10425.907    10390.864    11030.698    10464.061   -318.40131     692.9932    192.20945   -4677.7052 
35634000    132.16109   -6651.2479   -6311.2716   -6651.2479            0    12172.997    23.043069    21.191324     21.26137    10382.206     11600.88    10946.052     13972.06    -243.5188    1214.9432    1110.8139   -4468.1114 
35635000    134.43886   -6659.2945   -6313.4587   -6659.2945            0    11582.693    23.079487    21.142864    21.286052     10386.88    11187.762    11611.908    11948.408     422.9051     167.0679   -751.14528   -4558.8894 
35636000    139.97817   -6646.6522   -6286.5669   -6646.6522            0    10604.216    22.997629    21.208285    21.411804    10443.399    11149.412    9827.8758    10835.361   -761.26974    95.789305   -214.19229   -4671.4784 
35637000    138.35063   -6654.2533   -6298.3548   -6654.2533            0    12340.058    23.232113    21.012134    21.281682    10388.786    10344.947    13178.357    13496.871    240.22692    1109.2754   -321.24545   -4428.7151 
35638000    132.77054   -6662.2557   -6320.7116   -6662.2557            0    9828.3115    23.061307    21.228051    21.340534    10447.186    8689.7332    10781.058    10014.144    292.62019    1362.4098   -820.82215   -4823.2554 
35639000    140.71027   -6670.6807   -6308.7121   -6670.6807            0     10429.85    22.844586    21.341671    21.382688    10424.951     11075.79    10105.174    10108.584    469.96031    87.721049    -285.2924   -4722.9868 
35640000    135.66077   -6655.7037   -6306.7246   -6655.7037            0     10966.38    23.151742    21.075104    21.383603    10433.603    10854.774    11712.749    10331.619    -802.5104   -530.39967   -277.51721   -4638.0429 
35641000    135.10644   -6660.8917   -6313.3386   -6660.8917            0    10703.669    23.137895    21.179049    21.309088    10442.276    11072.297    10115.532    10923.179   -127.47874    112.56289    188.16844   -4683.2781 
35642000     140.0557   -6658.0799   -6297.7951   -6658.0799            0    11274.032    23.146538    21.128506    21.310677    10422.024    11252.187     11374.94     11194.97   -20.459641    523.10937   -281.05431   -4584.2038 
35643000    137.75298   -6656.2055   -6301.8443   -6656.2055            0     10763.96    22.955683    21.198131    21.446674    10436.329    11559.349    10974.714    9757.8154    393.71442    624.31259    767.55087   -4663.5358 
35644000    136.75427   -6658.5177   -6306.7257   -6658.5177            0    10462.876    23.024622    21.232962    21.372203    10448.463    10876.265    11337.595    9174.7682    887.46732   -87.686542   -279.95455   -4712.3915 
35645000    135.13452   -6623.1161   -6275.4908   -6623.1161            0    10985.765    23.192165    21.118292    21.283723    10424.319    10148.308    11207.415    11601.571   -825.50984    639.66773   -592.58262   -4605.3471 
35646000    132.54508    -6647.127   -6306.1629    -6647.127            0    11485.248    23.007809    21.055689    21.503025    10417.039    12281.095    12198.063     9976.584   -821.29691   -296.38864    350.92183   -4561.3031 
35647000    136.84465   -6662.6744   -6310.6499   -6662.6744            0    11192.059    23.095801    21.198274     21.25148    10404.536    10373.228    11238.543    11964.407    95.356929    101.60494   -87.459353   -4612.3727 
35648000    132.15237   -6655.5631   -6315.6092   -6655.5631            0     11064.19    23.087098    21.223353    21.254252    10414.278    10792.301    11707.342    10692.926   -725.61744    363.74907   -979.80065   -4635.1627 
35649000    138.65933     -6642.57   -6285.8773     -6642.57            0    10735.437    22.992131    21.153368    21.488882    10451.354    11519.354    10558.512    10128.446   -951.10234    987.08632    1012.5231   -4649.5574 
35650000    136.20302    -6660.698   -6310.3241    -6660.698            0    10137.371    23.122275     21.15267    21.340349    10437.519    9900.0948    10189.944    10322.075   -1874.8254    244.19816   -700.52842   -4767.2083 
35651000    136.98661   -6633.5698     -6281.18   -6633.5698            0    11518.762    23.165733    21.171217     21.19441    10394.729    10980.919    11018.369    12556.996   -450.53406    559.01692    893.56456   -4534.9764 
35652000    132.56157   -6657.1064   -6316.0998   -6657.1064            0    10817.099     22.96024     21.24062    21.398167    10435.666    11922.938     10212.33     10316.03    197.07439   -168.41859    43.182803   -4669.8078 
35653000    140.98824   -6647.8014   -6285.1177   -6647.8014            0    10487.845    23.012078    21.215672    21.410458    10452.943    11189.757    10268.177    10005.599   -76.108323    15.710674   -941.48132   -4686.2935 
35654000    139.33196    -6652.015    -6293.592    -6652.015            0    12045.822    23.130715    21.039787    21.349967    10390.288        11824    12211.679    12101.788     222.6681   -227.47953    205.99864   -4468.2681 
35655000    127.71673   -6647.5576   -6319.0141   -6647.5576            0    10033.745    23.145678    21.163031    21.317659    10442.087    8714.0856    10321.383    11065.767    651.20566    961.15053    989.08493   -4791.0039 
35656000    133.46508   -6663.6304   -6320.2996   -6663.6304            0    12834.275    22.954923    21.208956    21.287708     10363.92    12318.659    12798.934    13385.233    148.59739    513.54568    38.987653   -4380.4356 
35657000    133.01967   -6658.9846   -6316.7996   -6658.9846            0    9273.2216    22.977897    21.312104    21.397039    10478.287    10757.044    8545.8778    8516.7432   -367.33222   -245.62915   -321.71241   -4899.7117 
35658000    134.70854   -6656.9182   -6310.3887   -6656.9182            0    10790.138    23.186434    21.126658    21.305985    10436.776    11251.067    10449.574    10669.773    -46.00426   -945.04786   -864.30676   -4668.0253 
35659000    139.22178   -6656.5691   -6298.4296   -6656.5691            0    10736.578    23.047834     21.10395    21.447063    10431.858    11322.384    11048.889    9838.4624   -510.33578   -44.940249   -168.13818   -4664.9885 
35660000    136.22586   -6646.3835   -6295.9508   -6646.3835            0    12070.301    23.117346    21.155995    21.174721    10355.931    10583.467    11728.497    13898.938    889.06499   -311.44518    1366.5233   -4472.9657 
35661000    137.67261   -6679.1615   -6325.0071   -6679.1615            0    10285.711     23.05547    21.237967    21.344732    10451.476    9787.2325    10739.881    10330.021   -162.55852    233.54267   -431.88921   -4757.2173 
35662000    137.37798   -6654.9455    -6301.549   -6654.9455            0    10449.487    22.945146    21.235334    21.445824    10449.431    11318.232    10615.117    9415.1116    23.548534    -201.2307   -63.202084   -4709.1074 
35663000    137.00465   -6649.1816   -6296.7455   -6649.1816            0     11269.63     23.07378    21.146415    21.303975      10394.8    11514.964    11055.948    11237.979   -311.52931    668.66003    16.550143   -4588.2977 
35664000    133.27794   -6656.2241   -6313.3747   -6656.2241            0    11134.916    23.062464    21.100109    21.401996     10414.65    10528.625    12334.033     10542.09   -922.84951    334.35311   -1102.2497   -4622.1258 
35665000    132.39123   -6637.0378   -6296.4694   -6637.0378            0    12030.611    23.019684    21.114217    21.383555    10393.319     13118.49    11563.887    11409.456    282.93061   -84.291987    450.58117   -4472.9188 
35666000    142.83243   -6649.8423   -6282.4145   -6649.8423            0    10763.247     23.09159    21.231569     21.24613    10416.355    10569.926    11132.042    10587.773   -321.97487   -254.40687   -356.66454   -4647.3498 
35667000    137.84139   -6646.5489   -6291.9603   -6646.5489            0    12799.873    22.854355    21.287698    21.285925    10355.956    13387.362    12627.074    12385.184   -656.36476    199.13303   -434.12624   -4358.7827 
35668000    141.15134   -6652.4393   -6289.3361   -6652.4393            0    9885.7398    23.088995     21.12801    21.439012    10458.475    9711.1702    9897.4438    10048.605    167.72356   -448.70889    532.18322   -4781.5024 
35669000    138.96912   -6627.2661   -6269.7765   -6627.2661            0    10996.679    23.156418    21.132999    21.306342    10426.568    10495.184     10940.89    11553.963   -560.63863    185.66348   -50.966355   -4597.6126 
35670000    138.76748    -6661.662   -6304.6912    -6661.662            0    10771.942    23.032226    21.137342    21.445455    10440.506     11371.96    10345.308    10598.558    1375.0912   -566.46926     430.0754   -4664.5114 
35671000    135.30568   -6647.3923   -6299.3267   -6647.3923            0    10704.732    22.977196    21.321438    21.279322    10424.886    10733.457    10743.203    10637.536    124.00984    361.60951    98.013647   -4671.8192 
35672000    135.70411   -6650.8808   -6301.7903   -6650.8808            0    10618.224     23.06091    21.245359    21.310731    10440.922    10614.021    10473.741    10766.909    735.16365   -204.86379   -255.51585   -4684.9519 
35673000    129.58203   -6647.3956   -6314.0537   -6647.3956            0    10664.723    23.078194    21.120118    21.423732     10442.23     10657.28    10489.989    10846.898   -484.32819    732.45926    994.54261   -4689.9315 
35674000    134.04094   -6666.0813   -6321.2692   -6666.0813            0    10022.512    23.177705     21.17676    21.371539    10489.765    9468.8711    9951.6929    10646.971   -1086.2469    -831.5068   -575.14842   -4788.0007 
35675000    134.44363   -6639.4154   -6293.5674   -6639.4154            0    11016.323    23.155016    21.138412    21.270815    10411.219    12232.729    9483.1692    11333.072    615.80569   -813.23174    197.41301   -4620.8825 
35676000    139.87649   -6672.6562   -6312.8325   -6672.6562            0    11198.845    22.920487    21.251969    21.356232    10402.738    11406.038    10424.097    11766.399   -106.25899     997.0678    899.19471   -4613.8193 
35677000    138.92074    -6644.917   -6287.5518    -6644.917            0    9689.9277    22.998653    21.333675    21.395774    10497.747      10824.2    8882.5479    9363.0349     225.1352   -1109.1271    -676.1165   -4804.0348 
35678000    136.61906   -6647.4479   -6296.0037   -6647.4479            0    10454.445    23.172945    21.124433    21.344394    10448.408    10410.861    10092.001    10860.472   -590.81477    862.38481   -21.117274   -4702.9626 
35679000    139.53687   -6649.7746   -6290.8245   -6649.7746            0     12225.16    22.972099    21.045003    21.482063    10385.458    11782.122     13795.85    11097.507    129.65948   -867.09106    201.61826   -4439.1865 
35680000    140.73281   -6659.6582   -6297.6316   -6659.6582            0    10879.015     23.06493    21.158414    21.361339    10424.704     10854.49    10706.285    11076.271    216.65403   -178.87986   -621.26293   -4643.6556 
35681000    133.04915   -6641.4839   -6299.2231   -6641.4839            0    10963.922    23.107389    21.264518    21.184182    10409.218    9915.0106    10922.082    12054.675    380.48836    597.87327    1079.6268   -4634.8144 
35682000     134.4024   -6630.1672   -6284.4252   -6630.1672            0    11972.671    23.016182    21.173567    21.360556    10409.739    12384.991    11525.252    12007.769   -544.39538   -123.32887   -52.185782   -4466.7897 
35683000    136.54743   -6659.2483   -6307.9884   -6659.2483            0    12424.036    22.995997    21.075979    21.424667    10383.746     13291.19    12073.791    11907.126    157.55288     93.22174   -135.67101   -4426.5385 
35684000    133.61145   -6649.3935   -6305.6861   -6649.3935            0    11836.512     23.05368    21.149238    21.303822    10387.057     11787.11    10942.086     12780.34   -386.78516   -263.93968    1141.7205   -4512.6371 
35685000    135.43126   -6634.6974   -6286.3088   -6634.6974            0    10850.007    23.238446    21.110204    21.223534    10411.594    10710.029    10225.461    11614.531   -1000.8634    519.53922    -3.367917   -4638.8175 
35686000    140.78788   -6643.6674   -6281.4992   -6643.6674            0    12001.121    22.982817    21.171319     21.37227    10399.245    12370.917    11502.393    12130.052    579.68565   -179.88496     217.3262   -4461.3813 
35687000     131.6455   -6658.7052   -6320.0552   -6658.7052            0    10259.377    23.030402    21.317477    21.253138    10434.229    10517.115    8727.6429    11533.374   -86.180456   -478.51252   -53.330111   -4758.8597 
35688000    138.01558   -6632.6289   -6277.5922   -6632.6289            0    12123.332    23.124451    21.108294    21.283817    10389.008    11431.688    12575.127    12363.181    952.70421    191.67353   -154.13808   -4440.7494 
35689000     130.4242   -6662.0258   -6326.5175   -6662.0258            0    10864.898    23.110189    21.068686     21.42962     10434.11    10723.828    12361.819    9509.0471   -261.29666   -514.31393   -135.18977   -4673.1973 
35690000    142.51324   -6642.3956   -6275.7889   -6642.3956            0    10203.628    23.108016    21.246725     21.31227    10463.678    10197.259    9604.4181    10809.207   -724.82803   -357.77677    176.25949   -4718.6948 
35691000    136.45771    -6636.533   -6285.5038    -6636.533            0    10324.794    23.034657    21.275423    21.334352     10455.37    10682.801    9562.5132    10729.068    50.682998    265.06719   -683.08981   -4711.1706 
35692000    134.40276   -6637.7655   -6292.0226   -6637.7655            0    11556.655    22.973166    21.228325    21.369449    10421.492    12996.354     10523.58    11150.031   -608.66421   -925.43657    357.52433   -4535.5639 
35693000    140.02973   -6660.4244   -6300.2065   -6660.4244            0    12024.415    23.123908    21.057563    21.311048    10377.056    11512.047    12540.047    12021.151    -609.0852    1523.3282    697.33051    -4480.447 
35694000    139.51511    -6664.183   -6305.2889    -6664.183            0    9201.3012    23.137963    21.259883    21.298479    10476.943    7790.7149    9788.7115    10024.477   -337.74746    975.94648   -17.672271   -4899.3718 
35695000    137.43019   -6643.9668    -6290.436   -6643.9668            0    10698.017    23.018799    21.232049    21.367573    10443.108    10531.272    10676.845    10885.933    386.68396   -4.4483902   -470.05323   -4661.1064 
35696000     135.5926   -6651.6631   -6302.8594   -6651.6631            0    11260.398    23.064377    21.182763    21.294116    10403.607    11491.456    10524.796    11764.942    440.80662   -416.20302   -539.98267    -4594.365 
35697000    133.26241   -6641.1949   -6298.3855   -6641.1949            0    11053.709    23.113166    21.079301    21.418285     10435.19    10653.262    11248.746    11259.119    38.262254   -793.04351   -28.248662   -4616.1598 
35698000    137.26186    -6644.763   -6291.6653    -6644.763            0    10440.906    23.088468    21.182273    21.350651    10441.882    9966.6254    10371.386    10984.707   -302.04989    254.40545   -344.98926   -4701.6808 
35699000     143.1398   -6652.6492   -6284.4308   -6652.6492            0    11725.643    23.029287    21.275265    21.208837    10391.358    11363.321    11427.822    12385.786   -78.154864    849.73228   -678.07902   -4507.4412 
35700000    134.14929    -6656.439   -6311.3481    -6656.439            0    10365.817    22.886699    21.286841    21.455408    10452.764    11001.512    9450.4522    10645.488   -1080.5634    1001.3138   -889.46892   -4731.1534 
35701000    138.60638   -6648.8696   -6292.3131   -6648.8696            0    10827.428    23.068439    21.147327    21.343237    10411.996    11185.046    10966.371    10330.866    215.95351    65.211248    149.54047   -4648.1869 
35702000    136.63722   -6651.8413   -6300.3504   -6651.8413            0    10698.834    23.243286    21.122556    21.226058    10421.095    9619.3079    11110.555    11366.639    258.26762       581.45    390.97118   -4674.3312 
35703000    125.93333   -6651.7861   -6327.8303   -6651.7861            0    11142.353    22.970815    21.137974    21.431381    10406.146    11957.084    11683.412    9786.5627    324.35041   -1094.0453   -115.99293   -4636.8337 
35704000    137.65049    -6658.564   -6304.4665    -6658.564            0    11346.135    23.017346    21.183508    21.296932    10384.131    11380.319     11633.25    11024.835   -209.39044    49.499325   -72.951538   -4586.1863 
35705000    129.91293   -6636.7126   -6302.5195   -6636.7126            0    12560.471    22.987477    21.174273    21.301594    10368.404    14006.042    12072.012    11603.358   -63.490823   -976.30276   -1301.5304   -4403.2189 
35706000    137.74841   -6668.2547   -6313.9053   -6668.2547            0    11436.737    22.996085     21.14381    21.378936     10394.97    12619.018    10705.196    10985.996   -56.528346    196.20642    542.48631   -4580.0963 
35707000     131.5815   -6657.9702   -6319.4848   -6657.9702            0    10212.735    23.177464    21.146346    21.290723    10434.981    10105.867    10005.759     10526.58   -80.490098    313.78059    470.89797    -4765.275 
35708000    138.04773   -6654.7574    -6299.638   -6654.7574            0    10592.218    23.032771    21.194058    21.353793    10424.022    11128.039    10251.559    10397.057    330.05065   -35.189415    881.68749   -4689.3701 
35709000    137.35156   -6649.4481   -6296.1196   -6649.4481            0    10341.171    22.999066    21.240182    21.405627    10456.742    10121.298    10710.017    10192.199     -560.631   -692.46257   -573.38361   -4719.0821 
35710000    135.43098   -6657.0497   -6308.6618   -6657.0497            0    9944.9406    23.262369    21.068636    21.327237    10452.615    8931.8532    9780.3109    11122.658    1027.0468   -280.40199    469.35915   -4792.6484 
35711000     138.1967   -6648.1283   -6292.6257   -6648.1283            0    10857.875    23.054368    21.182659    21.356005    10429.265    10910.644    10140.218    11522.763   -549.50643    1107.1401      1360.59   -4641.1416 
35712000    136.34339   -6656.4333   -6305.6982   -6656.4333            0    11458.468    22.933582    21.391317    21.217787    10409.012    10941.703     10798.32    12635.381    563.77998   -402.74679   -745.06238   -4566.2482 
35713000    136.42506   -6651.2155   -6300.2703   -6651.2155            0    11557.431     22.96971     21.21408    21.336111    10396.687    13030.706    10975.823    10665.763    -42.56747   -220.83532    390.10739   -4547.8747 
35714000    139.21351   -6656.4173   -6298.2991   -6656.4173            0    11309.696    23.156218    21.097474    21.314618    10412.995    9953.7586    12202.775    11772.555    760.39703    442.45673    965.42098   -4580.7764 
35715000    131.69054    -6662.703   -6323.9371    -6662.703            0    10441.064      23.1815    21.009375    21.414529    10429.494    10075.428    10711.823    10535.939   -237.64528   -138.51738    237.36809   -4735.8151 
35716000    132.41385   -6642.6874   -6302.0609   -6642.6874            0    10679.187    23.045087    21.101027     21.45423    10432.656    10369.004    11409.064    10259.492   -349.46219    1188.6341   -247.14975    -4677.227 
35717000    136.88528   -6660.5296   -6308.4006   -6660.5296            0    10533.009    22.964812    21.340535    21.326753    10451.845    11459.525     10214.55    9924.9535    388.43041   -503.79002     -584.175   -4702.8599 
35718000    137.43508   -6645.3082   -6291.7649   -6645.3082            0    10102.854     22.96184    21.347333     21.33839    10459.525    10261.967    9704.2914    10342.304    338.46038    902.22374    568.68979   -4750.6609 
35719000     137.8676   -6659.1066   -6304.4506   -6659.1066            0    10991.992    23.111407    21.071412    21.398322    10420.768    11180.595    10883.709    10911.672   -643.81251    -752.6448   -100.89029   -4633.9293 
35720000    129.69801   -6652.5025   -6318.8623   -6652.5025            0    11929.734     23.17448    21.014018    21.340193    10392.438    11386.703    13148.545    11253.954    493.47332   -351.47801   -288.20834   -4510.7554 
35721000    136.98406   -6669.5267   -6317.1436   -6669.5267            0    10040.578    23.145702    21.195244       21.293    10445.894    9473.2683    9619.9205    11028.547   -284.20442    878.17861    464.08077   -4787.5352 
35722000    135.03862   -6668.3558   -6320.9772   -6668.3558            0    10113.869    22.887726    21.372832    21.385187     10461.11    10638.589    10380.942     9322.075    566.02418    424.12872    -1343.509   -4777.9593 
35723000     139.1474   -6669.3197   -6311.3715   -6669.3197            0    10430.792    22.840582    21.335056    21.415658    10435.959    10916.842    10523.029    9852.5062    946.71456   -210.12454    792.50548   -4723.8282 
35724000    134.89288   -6634.7545   -6287.7508   -6634.7545            0    10243.575    23.175976     21.15432     21.31909    10452.154    10770.503    9499.3643    10460.856   -627.81127    399.58317   -1700.3614   -4726.2824 
35725000    135.51218   -6658.9021   -6310.3053   -6658.9021            0     10981.24    23.126302    21.064501    21.388124    10419.097    11161.058    11413.297    10369.365   -745.97571    468.21913    181.41166   -4641.6857 
35726000    135.09953   -6655.4401   -6307.9048   -6655.4401            0     10511.65    23.027404    21.119811    21.490494    10451.567    10354.497    10617.204    10563.249   -914.87069    1083.0451   -230.93971   -4705.6625 
35727000    146.30623   -6652.9214   -6276.5576   -6652.9214            0    10219.946    22.947441    21.355536     21.34304    10459.261    10962.512    9493.7813    10203.546   -123.41379    -1395.191   -1047.7287   -4717.6315 
35728000    142.34404   -6637.6743    -6271.503   -6637.6743            0    11463.911    22.985604     21.21816    21.326459    10401.175    11205.962    11549.818    11635.954   -791.98784    175.89228    355.23852   -4532.5369 
35729000    139.97775   -6648.0888   -6288.0046   -6648.0888            0    11542.823    23.055605    21.139062    21.327909    10394.666    12041.595    11977.953    10608.921   -385.52496   -372.95719   -1203.5327   -4538.1642 
35730000    142.47576   -6643.6093   -6277.0991   -6643.6093            0    11406.121    23.193289     21.05661    21.322175    10413.154    10395.826    11558.228     12264.31   -1031.9834    577.59517    512.84787   -4544.9066 
35731000    138.46325   -6639.8928   -6283.7045   -6639.8928            0    10986.534    23.160199    21.036658    21.407449    10429.991      10119.4     11852.78    10987.422    454.09638   -244.82068    21.621814   -4612.5349 
35732000    136.62349    -6646.427   -6294.9714    -6646.427            0    10904.541    23.004713    21.254792     21.33137    10430.195    10103.651    11450.005    11159.967   -831.03612    328.06931    840.58054   -4636.2414 
35733000    134.37692   -6649.9395   -6304.2631   -6649.9395            0    11532.194    22.892779     21.21074    21.410447     10396.33    11855.796    11215.027     11525.76    673.56484     936.4193   -47.804274    -4555.754 
35734000    133.80753   -6642.4802   -6298.2685   -6642.4802            0    10279.295    23.010938    21.299637    21.280256    10429.978    10483.935    9855.7358    10498.214    21.121185   -475.59536    193.08668   -4734.6795 
35735000    136.95346   -6650.2805   -6297.9761   -6650.2805            0    12053.382    23.110506    21.092221    21.312206    10388.675     12066.48    12146.673    11946.993   -475.05731   -62.871366   -55.988297   -4471.7902 
35736000    137.02071   -6656.6152   -6304.1378   -6656.6152            0    10504.347    23.222058    21.004066    21.359113    10418.071    10385.315    10624.145    10503.581    612.39217    358.85401    520.01339   -4708.1401 
35737000    137.07137   -6669.4473   -6316.8395   -6669.4473            0    10146.747    22.960543    21.361473    21.295524    10444.837    9891.9931    9127.6015    11420.645    701.84517   -613.07645    819.83362   -4771.2136 
35738000    138.16631   -6640.2753   -6284.8508   -6640.2753            0    10502.862    22.995083    21.275151    21.354538    10447.149    9846.0681    10287.333    11375.186   -292.52294    116.66326   -113.51254   -4684.6247 
35739000    131.95981   -6646.5433   -6307.0847   -6646.5433            0    10731.538    23.150411    21.162565    21.306864    10438.703    10144.101    10707.917    11342.595    369.38121    909.11778    474.88709   -4673.3392 
35740000    138.16179   -6647.0679   -6291.6551   -6647.0679            0    10411.079    23.022424    21.267297    21.321484    10439.526    10062.203    9634.3144    11536.719     631.2428   -1425.2355    853.09852   -4706.5707 
35741000    139.88917   -6653.2996   -6293.4432   -6653.2996            0    12536.754    23.078906    21.017959    21.358077    10360.195    12493.474    13717.981    11398.806     180.0004    269.21005   -695.31521   -4399.2299 
35742000     132.5215   -6642.7471   -6301.8436   -6642.7471            0    12308.796    23.058855    21.160442    21.266306    10376.587    11753.332    12434.547    12738.509    544.10844     114.4269   -171.13322   -4439.1304 
35743000    136.59462   -6645.4577   -6294.0764   -6645.4577            0    10625.992    22.955089    21.359566    21.284843    10436.187    10290.106    10953.998    10633.871   -241.39111   -694.63739     -154.579    -4676.789 
35744000    136.14843   -6649.1661   -6298.9326   -6649.1661            0    11018.707    23.116417    21.073152    21.376634    10413.323    11084.788    11303.563    10667.772    937.00849     324.1993   -154.76214   -4625.5476 
35745000    142.02461   -6639.1795   -6273.8298   -6639.1795            0    11573.684    23.014587    21.219956    21.327716    10415.785     12117.43    11143.735    11459.886   -926.29875   -791.09995   -573.21565   -4515.7462 
35746000    138.82486   -6665.5555    -6308.437   -6665.5555            0    10972.945    23.138371    20.981997    21.469857    10423.384     10395.99    11718.889    10803.956     363.1443    269.95796    477.84046   -4640.3917 
35747000    136.15869   -6654.3026   -6304.0427   -6654.3026            0    9879.7504    23.230336    21.177131    21.261893    10459.828    9918.3101     8525.011     11195.93   -388.56767   -462.56932    730.45167   -4796.9276 
35748000    140.36719   -6650.7061   -6289.6201   -6650.7061            0    11317.151    22.947617    21.325393    21.281325    10414.377    12155.641    10881.355    10914.459   -1193.3237   -762.42701    -956.6365   -4570.7371 
35749000    138.31343   -6659.9359   -6304.1331   -6659.9359            0    11701.609     22.97236    21.134957    21.401751    10390.975    13200.122    10345.189    11559.515   -229.35589   -228.79733   -452.86121   -4530.8512 
35750000    139.75803   -6624.2152   -6264.6961   -6624.2152            0    11216.586    23.040006    21.308839    21.217185      10416.7    10802.385    10194.037    12653.337   -337.67751    266.67281    1264.2708   -4560.7073 
Loop time of 544.413 on 64 procs for 250000 steps with 1296 atoms

Performance: 79.352 ns/day, 0.302 hours/ns, 459.210 timesteps/s
99.1% CPU use with 64 MPI tasks x 1 OpenMP threads

MPI task timing breakdown:
Section |  min time  |  avg time  |  max time  |%varavg| %total
---------------------------------------------------------------
Pair    | 30.862     | 42.046     | 53.261     | 109.0 |  7.72
Bond    | 0.28234    | 0.28864    | 0.2955     |   0.6 |  0.05
Kspace  | 276.18     | 287.33     | 298.67     |  41.8 | 52.78
Neigh   | 2.0662     | 2.0973     | 2.1285     |   1.0 |  0.39
Comm    | 93.101     | 94.238     | 95.834     |   8.2 | 17.31
Output  | 0.57559    | 0.57724    | 0.57955    |   0.1 |  0.11
Modify  | 106.39     | 107.76     | 108.63     |   5.7 | 19.79
Other   |            | 10.08      |            |       |  1.85

Nlocal:        20.2500 ave          27 max          13 min
Histogram: 5 4 10 3 4 9 7 12 7 3
Nghost:        2691.11 ave        2713 max        2664 min
Histogram: 3 2 5 10 6 10 9 7 6 6
Neighs:        6706.44 ave        8990 max        4266 min
Histogram: 5 4 9 4 5 8 8 11 7 3

Total # of neighbors = 429212
Ave neighs/atom = 331.18210
Ave special neighs/atom = 2.0000000
Neighbor list builds = 3547
Dangerous builds = 0

unfix		3
unfix		2
unfix		1

write_data	data.final.${pid}
write_data	data.final.0
System init for write_data ...
PPPM initialization ...
  extracting TIP4P info from pair style
  using 12-bit tables for long-range coulomb (../kspace.cpp:340)
  G vector (1/distance) = 0.37057366
  grid = 30 40 32
  stencil order = 5
  estimated absolute RMS force accuracy = 0.0038802575
  estimated relative force accuracy = 1.168528e-05
  using double precision FFTW3
  3d grid and FFT values/proc = 5168 640
Last active /omp style is kspace_style pppm/tip4p/omp
WARNING: Not all mixed pair coeffs generated from mixing. Use write_data with 'pair ij' option to store all pair coeffs. (../write_data.cpp:312)

write_restart   restart.lmp.${pid}
write_restart   restart.lmp.0
System init for write_restart ...
PPPM initialization ...
  extracting TIP4P info from pair style
  using 12-bit tables for long-range coulomb (../kspace.cpp:340)
  G vector (1/distance) = 0.37057366
  grid = 30 40 32
  stencil order = 5
  estimated absolute RMS force accuracy = 0.0038802575
  estimated relative force accuracy = 1.168528e-05
  using double precision FFTW3
  3d grid and FFT values/proc = 5168 640
Last active /omp style is kspace_style pppm/tip4p/omp
Total wall time: 0:09:04
