LAMMPS (30 Jul 2021)
  using 1 OpenMP thread(s) per MPI task
package omp 0
using multi-threaded neighbor list subroutines
echo both

include		in.partitions
variable        pid world 0
include		in.temp
variable        temperature equal 268.19
variable	tempDamp equal 100.0
include		in.pressure
variable        pressure equal 10875.0
variable        pressureDamp equal 1000.0 # This is 1 ps
include		in.seed
variable        seed world 745823

units		real
atom_style	full
read_restart    restart.lmp.${pid}
read_restart    restart.lmp.0
Reading restart file ...
  restart file = 30 Jul 2021, LAMMPS = 30 Jul 2021
  restoring atom style full from restart
  triclinic box = (-3.0964576 -0.28689645 0.031234107) to (14.706457 22.866895 19.198764) with tilt (-0.19444125 -6.5983396 -0.030646589)
  4 by 4 by 4 MPI processor grid
  restoring pair style lj/cut/tip4p/long/omp from restart
  restoring bond style harmonic/omp from restart
  restoring angle style harmonic/omp from restart
  1008 atoms
  672 bonds
  336 angles
Finding 1-2 1-3 1-4 neighbors ...
  special bond factors lj:    0        0        0       
  special bond factors coul:  0        0        0       
     2 = max # of 1-2 neighbors
     1 = max # of 1-3 neighbors
     1 = max # of 1-4 neighbors
     2 = max # of special neighbors
  special bonds CPU = 0.148 seconds
  read_restart CPU = 0.267 seconds

include 	in.setup
variable	out_freq equal 1000
variable	out_freq2 equal 10000
variable	out_freq3 equal 1000

timestep	2.0

neigh_modify    delay 7 every 1

include		in.tip4p
# This is TIP4P/Ice

# create groups ###
group ox type 2
336 atoms in group ox
group hy type 1
672 atoms in group hy

# set charges - beside manually ###
set group ox charge -1.1794
Setting atom values ...
  336 settings made for charge
set group hy charge 0.5897
Setting atom values ...
  672 settings made for charge

# ### TIP3P Potential Parameters ###
pair_style lj/cut/tip4p/long/omp 2 1 1 1 0.1577 8.5
pair_coeff 1 1*2 0.000 0.000
pair_coeff 2 2 0.21084 3.1668
bond_style  harmonic
bond_coeff  1 450 0.9572
angle_style harmonic
angle_coeff 1 55 104.52
kspace_style pppm/tip4p/omp 1.0e-5
pair_modify tail yes

thermo          ${out_freq}
thermo          1000
thermo_style    custom step temp pe etotal epair emol press lx ly lz vol pxx pyy pzz pxy pxz pyz enthalpy

restart 	${out_freq3} restart.lmp.${pid} restart2.lmp.${pid}
restart 	1000 restart.lmp.${pid} restart2.lmp.${pid}
restart 	1000 restart.lmp.0 restart2.lmp.${pid}
restart 	1000 restart.lmp.0 restart2.lmp.0


include         in.dump
dump            myDump all atom ${out_freq2} dump.water.${pid}
dump            myDump all atom 10000 dump.water.${pid}
dump            myDump all atom 10000 dump.water.0
dump            myDump2 all dcd ${out_freq2} dump.dcd
dump            myDump2 all dcd 10000 dump.dcd
dump_modify     myDump append yes
dump_modify     myDump2 append yes


variable natoms 	equal  "count(all)"                        # NUMBER ATOMS
variable H      	equal  "enthalpy/v_natoms"                 # ENTHALPY-per-atom
variable Vol      	equal  "vol/v_natoms"                 # volume-per-atom
fix AVG all 		ave/time ${out_freq} 1 ${out_freq} v_Vol v_H file vol_enthalpy.dat
fix AVG all 		ave/time 1000 1 ${out_freq} v_Vol v_H file vol_enthalpy.dat
fix AVG all 		ave/time 1000 1 1000 v_Vol v_H file vol_enthalpy.dat



fix 		1 all shake 1e-6 200 0 b 1 a 1
       0 = # of size 2 clusters
       0 = # of size 3 clusters
       0 = # of size 4 clusters
     336 = # of frozen angles
  find clusters CPU = 0.126 seconds
fix             2 all nph tri ${pressure} ${pressure} ${pressureDamp}
fix             2 all nph tri 10875 ${pressure} ${pressureDamp}
fix             2 all nph tri 10875 10875 ${pressureDamp}
fix             2 all nph tri 10875 10875 1000
fix             3 all temp/csvr ${temperature} ${temperature} ${tempDamp} ${seed}
fix             3 all temp/csvr 268.19 ${temperature} ${tempDamp} ${seed}
fix             3 all temp/csvr 268.19 268.19 ${tempDamp} ${seed}
fix             3 all temp/csvr 268.19 268.19 100 ${seed}
fix             3 all temp/csvr 268.19 268.19 100 745823


run             250000
PPPM initialization ...
  extracting TIP4P info from pair style
  using 12-bit tables for long-range coulomb (../kspace.cpp:340)
  G vector (1/distance) = 0.38368517
  grid = 24 30 32
  stencil order = 5
  estimated absolute RMS force accuracy = 0.0019234487
  estimated relative force accuracy = 5.7924086e-06
  using double precision FFTW3
  3d grid and FFT values/proc = 4080 384
Last active /omp style is kspace_style pppm/tip4p/omp
Neighbor list info ...
  update every 1 steps, delay 7 steps, check yes
  max neighbors/atom: 2000, page size: 100000
  master list distance cutoff = 10.8154
  ghost atom cutoff = 10.8154
  binsize = 5.4077, bins = 5 5 4
  1 neighbor lists, perpetual/occasional/extra = 1 0 0
  (1) pair lj/cut/tip4p/long/omp, perpetual
      attributes: half, newton on, omp
      pair build: half/bin/newton/tri/omp
      stencil: half/bin/3d/tri
      bin: standard
Per MPI rank memory allocation (min/avg/max) = 9.342 | 9.347 | 9.350 Mbytes
Step Temp PotEng TotEng E_pair E_mol Press Lx Ly Lz Volume Pxx Pyy Pzz Pxy Pxz Pyz Enthalpy 
27500000    285.89893   -4813.7056   -4241.8724   -4813.7056            0    9992.5849    17.802914    23.153792     19.16753    7900.9511    11464.774     7794.755    10718.226   -110.71673   -592.47401    1871.9037   -3090.4541 
27501000    264.69356   -4808.8836   -4279.4638   -4808.8836            0    8386.1019    17.526348    23.636007    19.065588    7897.9746    8499.9801    6881.5062    9776.8194   -1165.7246   -435.55765   -1012.1626   -3313.5202 
27502000    263.58712   -4792.3493   -4265.1425   -4792.3493            0    10551.658      17.7663    23.183864    19.129682    7879.3532    11273.944    8943.9555    11437.074    66.139922      66.6551    247.80089   -3052.6274 
27503000    272.24124   -4822.7399   -4278.2238   -4822.7399            0    11385.188    17.854345    22.981913    19.105683    7839.5775    11328.578    10898.198    11928.788    675.48504    364.71942    102.55162   -2976.5302 
27504000    258.61667   -4829.2516   -4311.9863   -4829.2516            0    10476.091     17.89161    22.729009    19.295734    7846.7758    10325.865    10806.615    10295.791    814.45147    85.787386    1823.5787   -3113.1321 
27505000    262.72782   -4780.3279   -4254.8398   -4780.3279            0    11393.705     17.82323    22.996719    19.127002    7839.6956    11374.765    11310.111     11496.24    138.10658   -1017.3224    414.04351   -2952.1529 
27506000    271.29682   -4799.3073   -4256.6802   -4799.3073            0    10018.601    17.855322    22.823397    19.341926    7882.2045     9222.127    11059.976    9773.6991   -559.40681   -813.07298   -846.13023   -3105.0033 
27507000    271.29248   -4806.0113   -4263.3928   -4806.0113            0    12507.483    18.020134    22.819608    19.012903    7818.3414    10583.484    12641.891    14297.074   -843.60957    856.88238     1094.565   -2837.2585 
27508000    263.55831   -4786.5113   -4259.3621   -4786.5113            0    9913.8205    17.603502    22.919389    19.519721     7875.456    12665.473    9953.7077    7122.2809   -727.47074    71.527651   -1661.5126   -3120.7058 
27509000    259.08561   -4753.9171   -4235.7139   -4753.9171            0    11169.033    17.926589    22.992445    19.071547    7860.8359    8622.3668    12198.383    12686.348    553.68704   -644.53167   -1225.8193   -2955.2711 
27510000    285.24356   -4820.4897   -4249.9673   -4820.4897            0     10433.01    17.708858    22.862334    19.430594    7866.7832    10681.895    10404.963    10212.172    88.358697   -208.20984    60.268153   -3052.9989 
27511000    254.16556   -4782.8127   -4274.4502   -4782.8127            0    10781.405    18.122849    22.760404    19.034902    7851.5804    10658.416    10932.269    10753.529   -1913.2327   -584.23545   -1360.0046   -3039.9013 
27512000    279.92161   -4783.1993   -4223.3215   -4783.1993            0    10619.747    17.876804    22.799669    19.354487    7888.6025    10662.329    12538.875    8658.0369    601.54383    1076.9864    820.75745   -3001.5496 
27513000    269.04615   -4757.6216   -4219.4961   -4757.6216            0    12391.772    17.901417    22.722853    19.260753    7834.7209    12704.281    13404.361    11066.674   -1646.1942    72.373849   -1143.3985   -2803.5953 
27514000    269.25704   -4806.4672   -4267.9198   -4806.4672            0    10413.396    17.795949    22.881117    19.399829    7899.4393    13308.937    9829.7282    8101.5221   -956.03552    137.52013   -1710.1989   -3068.2423 
27515000    260.23047   -4783.5176   -4263.0245   -4783.5176            0    12232.487    17.836411    22.847388    19.256237    7847.2132    11944.914    12503.253    12249.296    1416.8367   -1395.5366   -10.428349   -2863.0951 
27516000    267.02133   -4791.6367    -4257.561   -4791.6367            0    10742.702    17.850773    23.082236    19.109101    7873.6327    10061.375    10793.991    11372.739    214.55202    1420.0271   -1056.0757   -3023.9889 
27517000    274.42232   -4819.6317   -4270.7532   -4819.6317            0    10426.827    17.587292    23.359995    19.184697    7881.8227    12127.608    9037.8393    10115.035    1439.1076    151.35085    278.99798   -3072.2071 
27518000    257.01241    -4811.759   -4297.7024    -4811.759            0    9422.7263    17.789378    23.195961    19.079102    7872.8331     11124.45    8173.0541     8970.675    14.661311    77.341775    5.1226138   -3215.8114 
27519000    261.57661   -4793.9966   -4270.8111   -4793.9966            0    10732.433    17.795197    23.126744    19.182443    7894.4379    9386.3373    11408.298    11402.664     1155.397    1121.4157   -89.048481   -3035.1616 
27520000    275.48771   -4810.0867   -4259.0772   -4810.0867            0    11453.022    17.929338     22.97976    19.043647    7846.2089    8015.5096    12991.141    13352.416   -303.76892   -387.32562    -450.3411   -2948.5204 
27521000    255.12859   -4809.4582   -4299.1695   -4809.4582            0    9008.1637    17.753708    22.886226    19.535294    7937.4903    10718.411    8985.4808    7320.5994   -964.44453   -683.77104    150.80174   -3256.3831 
27522000    260.47467   -4796.6434   -4275.6619   -4796.6434            0    8295.5414    17.950849    22.820066    19.417754    7954.2802    8141.8165    9912.2799    6832.5278    640.48017    76.061265   -1118.0499   -3313.3374 
27523000    257.72668   -4830.8537   -4315.3685   -4830.8537            0    10508.319    17.919735    22.764956    19.332083    7886.3683    11402.702    11029.153    9093.1024   -2069.8941      802.044   -549.76969   -3106.7585 
27524000    282.62156   -4783.7332   -4218.4552   -4783.7332            0    10513.187    17.978451    22.808021    19.196524    7871.5899    11935.134    8964.3589    10640.068    59.159903   -839.02651    220.98622   -3011.5511 
27525000    284.59457   -4806.6512   -4237.4269   -4806.6512            0    11450.665    17.889638    22.813434     19.22456    7846.0061     13342.83    9893.5414    11115.623    449.75556   -768.40832   -898.50805   -2927.1737 
27526000    270.20433   -4780.6091   -4240.1671   -4780.6091            0    12514.972     17.69966     22.91341    19.330603     7839.711      12749.6    11467.708    13327.609   -542.53289    -2344.442    711.88891   -2809.2785 
27527000    283.08528   -4789.9319   -4223.7263   -4789.9319            0    10840.892    17.780574    23.083557    19.180939    7872.6033    11256.673    10854.384    10411.618   -1439.1496    433.42056   -2156.3762   -2979.0419 
27528000    266.52729   -4815.0704   -4281.9829   -4815.0704            0    9935.1475    17.806297    23.141956    19.154741    7893.1428    11682.236    8159.8992    9963.3071    2259.2657   -1660.4128    777.42401   -3138.3144 
27529000    269.22055   -4800.5833    -4262.109   -4800.5833            0    10358.515    17.636939    23.151896    19.141575     7816.052    10450.869    8956.7274    11667.948    1117.7462   -241.35466   -1206.6354   -3081.3512 
27530000    268.68865   -4767.8416   -4230.4311   -4767.8416            0    13426.675    17.720648    23.348087    18.821822    7787.4019    12351.863    13274.169    14653.994    418.10705   -1037.4106   -368.15461   -2705.5465 
27531000    260.43033   -4751.1185   -4230.2257   -4751.1185            0    9110.9939    17.574308    23.317917    19.265767    7895.0391    10661.366    8063.9749    8607.6407    404.39497   -168.27832    407.20462   -3181.1763 
27532000    270.87032   -4800.3732   -4258.5991   -4800.3732            0    9754.6988    17.901934     23.00598    19.168956     7894.764    7859.2456    9900.2283    11504.623   -914.46496   -283.66346    1455.3083    -3135.472 
27533000    262.34285    -4785.243   -4260.5248    -4785.243            0    12716.189    17.772996    22.853222    19.274558    7828.7516    11944.206    13828.751     12375.61    537.17666     667.6129   -689.10536   -2808.6627 
27534000    250.04441     -4797.03   -4296.9102     -4797.03            0    10661.027    17.906983    22.772359    19.294307    7867.9144    9189.7374    11389.048    11404.297   -109.59663   -258.47296   -1887.9265   -3073.6057 
27535000    267.85857   -4836.7818   -4301.0316   -4836.7818            0    10719.601     17.96086    22.793243    19.186371    7854.6365    9848.3204    11353.282    10957.201    59.162127   -2.3966707   -79.280145   -3073.0818 
27536000    265.59598   -4833.3405   -4302.1157   -4833.3405            0    9954.7189    17.885366    22.639184    19.451533    7876.1219      11922.3    9918.2108    8023.6459    531.29777   -1125.8533    1772.4015   -3158.6653 
27537000    269.42611   -4808.1787   -4269.2931   -4808.1787            0    8706.3693    17.995647    22.974736    19.183395    7931.2835     8221.005    9745.3052    8152.7977   -268.77097   -614.35441    580.39966   -3262.2306 
27538000    266.16913   -4797.6948   -4265.3237   -4797.6948            0    11514.771    17.877606     22.79275    19.211613    7828.3444    13527.426    10692.821    10324.067    -62.84185   -338.51814    401.48062    -2950.701 
27539000    261.39855   -4809.1066   -4286.2772   -4809.1066            0    8345.8529    18.005565    22.700784    19.429625    7941.6737    10217.441    7533.4769     7286.641    431.38311   -345.81457    1985.2223   -3319.6508 
27540000    274.58787   -4792.8725   -4243.6628   -4792.8725            0    11896.161    17.739768    22.591274    19.580189    7847.0342    14732.673    10708.373    10247.437   -2241.8899   -2160.1323   -289.53833   -2882.2549 
27541000    260.24969   -4789.8808   -4269.3492   -4789.8808            0      8957.05    17.891626    22.950551    19.278091    7916.0213    9579.6685    8805.0318    8486.4498   -370.91317     657.6596    2435.3419   -3235.2842 
27542000    271.53443   -4805.5604    -4262.458   -4805.5604            0    11282.538    17.789369    23.151801    19.067649    7853.1241     11392.01    10868.929    11586.675    -1111.105    478.13837   -2046.5276   -2970.2717 
27543000    263.06372   -4775.8047   -4249.6447   -4775.8047            0    8800.5979    17.851365    23.177366    19.153579     7924.748    9562.2969    8415.8273    8423.6695    1522.8761   -1798.4621     738.0754   -3232.5216 
27544000    270.10913   -4835.0508   -4294.7992   -4835.0508            0    10210.652    17.601692    23.079754    19.334972    7854.6914    12382.826    8855.9221    9393.2073    1169.9742   -646.33869    1545.0884   -3125.1423 
27545000    261.72685   -4836.9588   -4313.4727   -4836.9588            0    8509.0717    17.986601    23.073804    19.091478    7923.3318    5586.7028    8786.2513    11154.261   -426.57526   -645.60551   -1011.0331   -3330.2183 
27546000    265.37807   -4823.1749    -4292.386   -4823.1749            0    11272.905    17.731774    23.026792    19.246002    7858.2557    11371.604    10974.065    11473.045    -246.5389    544.01292    830.06473   -3000.4592 
27547000    273.26034   -4812.5948   -4266.0403   -4812.5948            0     10448.85    17.825379    23.411394    18.861429    7871.1941    10443.921    9423.1598     11479.47   -1183.8154     -668.701   -730.45385   -3066.5824 
27548000    261.26524   -4807.9888   -4285.4261   -4807.9888            0    9387.1159    17.723854    23.164045    19.103817    7843.1892    10285.524    8559.1571    9316.6667   -956.59368   -745.17842   -791.95056    -3211.682 
27549000    275.63671   -4802.6733   -4251.3658   -4802.6733            0     10696.69    17.856247    23.046618     19.08343    7853.3295    8074.8831    11150.027    12865.159   -191.01821    822.89511    501.21176   -3026.2445 
27550000    268.01737     -4814.93   -4278.8621     -4814.93            0    11384.034    17.635909    22.939135    19.343493    7825.4586     12707.22    12069.875    9375.0069    104.40023    1273.4832   -1191.3055   -2979.6446 
27551000    282.55043   -4779.7732   -4214.6374   -4779.7732            0    9542.8377    17.944845      22.7649    19.345027    7902.6872     8286.359    11780.053    8562.1013    1128.9095    440.35978   -265.46191   -3114.8007 
27552000    266.64975   -4818.9166   -4285.5841   -4818.9166            0    10835.456     17.98649    22.602078    19.316921    7852.9476    8455.7458    13236.457    10814.165    244.76866    970.45029   -193.09659   -3044.6299 
27553000    264.52829   -4816.4501   -4287.3608   -4816.4501            0    11798.338    17.788952     22.90084    19.124216    7790.8601    11913.619    11463.696    12017.697    148.16121   -1713.0895    911.78258   -2946.8136 
27554000    284.73517   -4796.7149   -4227.2094   -4796.7149            0    10591.974    17.829714    23.039438    19.119417    7854.0003    11449.936    8806.4002    11519.588   -567.94548    433.73812    311.00034   -3013.9777 
27555000    286.61455   -4822.0527   -4248.7882   -4822.0527            0     9397.495    17.923843    22.966051    19.162924    7888.2241    8526.8899    9544.4375    10121.157    1096.3815   -1198.1078    621.71396   -3167.6848 
27556000    278.14584    -4779.229    -4222.903    -4779.229            0    10429.872    17.781149    23.050036    19.231664     7882.215    12283.668    9670.4828    9335.4661   -228.53705   -640.65624    214.02677   -3023.9472 
27557000    252.27213   -4795.8567   -4291.2813   -4795.8567            0     12513.54    17.706187    22.997694    19.195558    7816.4594    10531.272    13499.174    13510.174   -536.26085    170.41103   -1109.5287   -2864.7998 
27558000    276.29825    -4808.717   -4256.0864    -4808.717            0    10925.209     17.68832    23.024469    19.236613    7834.3834    11684.183    10656.341    10435.102   -714.80864   -340.78291     1194.671   -3007.8109 
27559000    255.99844   -4789.1089   -4277.0803   -4789.1089            0    9116.9853    17.939166    22.999522    19.195839     7920.054    6484.6447    8832.6596    12033.652    -37.51087    -293.2558   -1203.9825   -3224.0151 
27560000    279.06429   -4824.8971    -4266.734   -4824.8971            0    10891.488     17.91025    22.428978    19.500638    7833.5739    10371.698    11367.194    10935.571    599.32065    612.74324     942.9778   -3022.4399 
27561000      265.848   -4769.7513   -4238.0225   -4769.7513            0    12167.257    17.938936    22.647778    19.288739    7836.5717    11990.622     12276.38    12234.768    761.33605   -7.0880371    96.498286   -2847.4467 
27562000    280.93445   -4776.6111   -4214.7075   -4776.6111            0     10242.52    17.903269    22.894332    19.245815    7888.5401    11596.933    10506.865    8623.7615     1585.153    966.57081    882.43129   -3036.3438 
27563000    277.01353   -4796.2027   -4242.1414   -4796.2027            0     10560.47    17.863915    22.885356    19.342372    7907.5883    9159.0466    11439.238    11083.125   -704.15802    911.00437    809.53714    -3024.265 
27564000    266.02571   -4795.2859   -4263.2016   -4795.2859            0    11526.633    17.699613    22.979025     19.23756    7824.2976    10265.494     11891.65    12422.756   -1061.5191   -292.13216   -2705.4309   -2947.9049 
27565000    267.23498   -4814.5937   -4280.0907   -4814.5937            0    13252.978    17.826245    23.047665    18.957386    7788.7054     13504.94    12871.582    13382.411     2476.866    238.32789     1303.919   -2774.6813 
27566000    272.35356   -4757.6671   -4212.9263   -4757.6671            0    13797.847    17.716727     22.79127    19.284676    7786.8958    12941.246    13590.757    14861.537   -2549.6726   -184.03618   -427.84508   -2645.9892 
27567000    263.05496   -4810.7568   -4284.6144   -4810.7568            0    11447.434    17.923686    23.072519    19.023681    7867.1403    10852.458    10507.611    12982.233     582.5393    467.11214    513.19767   -2971.2025 
27568000    283.42225   -4819.7895     -4252.91   -4819.7895            0    12788.522    17.602873    22.941576    19.298145    7793.3177    13889.407    11575.491    12900.669   -404.78982     146.4013    1279.1846   -2799.3979 
27569000    255.70905   -4823.3004   -4311.8507   -4823.3004            0    10965.311    17.895096    22.760396    19.340933    7877.5519    12269.212    10064.061    10562.658   -801.04006   -328.56454   -8.9469239   -3052.0898 
27570000    270.60058   -4791.8668   -4250.6322   -4791.8668            0    11596.407    18.106828     22.57525    19.200083    7848.3442    11387.187    11247.284     12154.75   -348.91428     827.8926    1311.1987   -2923.3069 
27571000    266.14673   -4787.5104   -4255.1841   -4787.5104            0    13176.827     17.83918    22.532915    19.409368    7801.9587      13785.2    13712.621    12032.659   -1548.4072    700.86347   -1323.2817   -2755.8778 
27572000    276.82568   -4765.9489   -4212.2633   -4765.9489            0    10657.229    17.933887    22.676467    19.428074    7900.9549    12748.186      10290.7     8932.802   -1172.4411   -1639.1255    367.88222   -2984.2594 
27573000    259.30203   -4822.7046   -4304.0685   -4822.7046            0    11896.688    17.956791    22.594634    19.292175    7827.3581     12659.71    12083.276    10947.079    399.51278   -137.46265    448.04113   -2946.0141 
27574000    258.19529   -4824.5601   -4308.1376   -4824.5601            0    10516.955    17.864335    22.795916    19.314949    7865.7017     9355.158    12181.199    10014.507   -906.62988   -360.17624   -1056.3302   -3101.7042 
27575000    260.09793   -4804.2834   -4284.0554   -4804.2834            0    9406.0175    17.863286    22.943393    19.256385     7892.121    8574.8879    9660.3598    9982.8048   -566.51761   -921.31332   -700.98218    -3201.437 
27576000    264.64908   -4794.3606   -4265.0297   -4794.3606            0    10309.205    17.872279    23.032501     19.16427    7888.8434    12362.017    10081.832     8483.765    653.90026   -1537.2363    1958.1601   -3078.9486 
27577000    251.33752   -4819.9834   -4317.2773   -4819.9834            0    11195.784    17.800394    23.026108    19.122856    7837.9573    11220.896    11346.268    11020.187    989.05795   -203.72089    166.75407   -3037.5033 
27578000    287.04358   -4784.4687   -4210.3461   -4784.4687            0    10594.206    17.667432    23.244352    19.159717    7868.2826    11685.887    9838.1661    10258.564   -370.32868   -1359.0361     735.7289   -2994.6522 
27579000    267.77048   -4824.6157   -4289.0417   -4824.6157            0     8502.589    17.742013    23.391808    19.094854    7924.7036    7808.1502    7841.1964    9858.4204    70.122384    229.97328       328.69   -3306.3662 
27580000    283.67939   -4803.1721   -4235.7783   -4803.1721            0     10890.68    17.747501    23.049494    19.180539    7846.2004    11642.927    10580.379    10448.733     180.6506   -80.096276   -278.90803   -2989.5711 
27581000    264.22486   -4794.7645   -4266.2821   -4794.7645            0    9418.8861    18.002451    22.924961    19.137006    7897.9475    9156.4543    8529.2083    10570.996    404.20573   -185.48216   -2700.2081   -3181.3822 
27582000    258.05081   -4813.1468   -4297.0133   -4813.1468            0    10966.069    17.799974    22.817626    19.299885    7838.7088    11124.211    11236.333    10537.662    130.58665    1278.5153   -105.61283   -3043.3775 
27583000     272.2581   -4784.9917   -4240.4418   -4784.9917            0    11205.549    17.999243    22.490242     19.39246    7850.2102    10212.841    12717.074    10686.732    1181.3746   -554.57667    82.048597   -2957.5492 
27584000    277.29484   -4796.1417   -4241.5177   -4796.1417            0    8128.9831     17.93383    22.894328    19.396266    7963.7771     6547.995    8430.0591    9408.8953   -1745.4206    375.10741    -1730.183    -3297.389 
27585000    272.76011   -4821.6869    -4276.133   -4821.6869            0    10771.069    17.934239    22.830849    19.142724    7838.0628    10580.298    11314.634    10418.273    -1774.021   -298.68537   -1386.2809    -3044.891 
27586000    258.92239   -4800.4011   -4282.5243   -4800.4011            0    10393.912    17.733457    23.119501    19.176903     7862.313     12450.04    10552.393    8179.3037   -487.48062   -12.130438    1193.2179   -3090.7191 
27587000    264.83487   -4806.2696   -4276.5671   -4806.2696            0    10201.124     17.72408    23.107575    19.180863    7855.7241    12038.398    8521.8241     10043.15   -197.22896   -991.02319   -18.633154    -3107.848 
27588000    276.27657   -4818.7805   -4266.1932   -4818.7805            0    9932.7315    17.890001    23.188131    18.968061    7868.6286    11793.313    8261.6233    9743.2585    279.68365   -896.93483    1287.5221   -3126.3539 
27589000    252.31441   -4825.4907   -4320.8307   -4825.4907            0    11639.706    17.779929    22.815175    19.332349    7842.2099    12460.383    11827.558    10631.177   -1228.7421    839.07285   -1499.5962   -2989.5907 
27590000    266.53936   -4810.9706   -4277.8589   -4810.9706            0     11881.88    18.029949    22.897482    18.988897    7839.3848    12747.374    10047.474    12850.792    707.90521   -1050.5116    457.27412   -2919.4109 
27591000    261.75175   -4808.5139    -4284.978   -4808.5139            0    11258.594    17.862593     22.88295    19.211898    7852.8404    11579.785    11281.654    10914.342    540.77182    1629.4781    663.62644   -2995.5805 
27592000    262.17771   -4798.1656   -4273.7778   -4798.1656            0    11987.362     17.71872    22.969962    19.233617    7828.0499    12995.267    11207.274    11759.546   -52.849896    204.70598    1098.5078   -2905.2516 
27593000     268.0382   -4786.5307   -4250.4212   -4786.5307            0     9964.676    17.931731    23.032666    19.217921    7937.3006     9823.808    10336.221    9733.9986   -239.21687    865.53741   -2127.2419   -3096.9364 
27594000     280.9914   -4824.3192   -4262.3017   -4824.3192            0    11449.631    17.691826    22.823061    19.344001    7810.7522    13119.867    10412.314    10816.712   -1021.5458   -518.50165   -875.20194   -2958.0535 
27595000    261.89588   -4822.4727   -4298.6486   -4822.4727            0    12212.565    17.916203    22.868459      19.1154    7831.8844    12619.318    11557.821    12460.556    1968.4974     690.0643    1144.3928   -2903.7294 
27596000    274.47753   -4797.4299   -4248.4409   -4797.4299            0    12196.159    17.733565    22.764387    19.302846    7792.4376    12314.464    12473.826    11800.187    481.14047   -717.57074    640.70067    -2862.412 
27597000    273.49778    -4804.837   -4257.8076    -4804.837            0    11325.571    17.775337    22.963032    19.193099    7834.1554    11818.183    12771.029    9387.5012    3295.5839     1193.306    1008.4513   -2963.8258 
27598000    267.89064   -4801.3052   -4265.4908   -4801.3052            0    11302.816    17.870256    22.784716     19.25162    7838.6573    11841.405    10172.362    11894.683   -489.19613   -425.91154   -2149.3462   -2973.3667 
27599000    259.67755    -4789.738   -4270.3508    -4789.738            0    11601.225    17.802663    22.973243    19.125442    7822.0174    11871.307    11484.186    11448.182    1180.1567    1166.4903   -1765.9354   -2946.9283 
27600000    262.54726   -4799.5899   -4274.4629   -4799.5899            0    10035.808    17.680322    23.124099    19.292657     7887.639    11703.866    9014.5842    9388.9741   -781.49361   -874.10883   -1547.7633   -3120.0126 
27601000     257.1459   -4821.4784   -4307.1548   -4821.4784            0     10463.68    18.110541    22.830263    19.024846    7866.1731    8754.8951    12323.245    10312.899    1028.2928    878.18551     306.1939   -3106.7608 
27602000    270.02546   -4812.8592   -4272.7749   -4812.8592            0    9104.5847    17.777659    22.972129    19.374191     7912.239    10443.278    8708.5487    8161.9275   -1073.7849   -726.93504    341.86063   -3222.1797 
27603000    269.84617   -4792.2796   -4252.5539   -4792.2796            0    11450.028     17.90646    22.837198    19.193222    7848.7492    11320.597    10837.319    12192.169     332.5888    537.89035   -296.62277   -2941.9155 
27604000    288.55205    -4812.328   -4235.1882    -4812.328            0    10863.229    17.698872    22.905708    19.316962    7831.1964    11693.229    10642.364    10254.093   -997.03669   -102.56042     2044.487   -2994.4992 
27605000    278.12806   -4777.0114   -4220.7209   -4777.0114            0    10587.157    17.824849    23.021646    19.194271    7876.5102     11619.93    10009.427    10132.115    495.57265   -135.76848    2099.0482   -3004.5655 
27606000    250.22513    -4801.196   -4300.7148    -4801.196            0    10865.626    17.897392    23.055814    19.058569    7864.3076    12203.707    9538.1422    10855.028   -1306.3142    561.70127   -272.87278   -3054.5052 
27607000    266.99882   -4789.1673   -4255.1367   -4789.1673            0    10712.044    17.718278     22.90906    19.378087    7865.7415    12416.336    9176.9341    10542.864    418.65968   -277.43044   -488.00279   -3026.3177 
27608000    266.93461   -4794.8208   -4260.9186   -4794.8208            0    8400.0874    17.950626    23.022612    19.224935    7945.0948    7774.4014    8416.5184    9009.3423   -1198.5518    524.48926    1214.3212   -3287.5916 
27609000    257.74775   -4797.3361   -4281.8088   -4797.3361            0    11019.679    17.817039    22.719849     19.37052    7841.1953    10873.064    11259.428    10926.545   -1291.5322    589.72269   -616.82732   -3021.6447 
27610000    270.84409   -4791.4363   -4249.7146   -4791.4363            0    9990.8992    17.917141    22.856616    19.230392    7875.3306    10379.943     9976.463    9616.2916    57.838876    739.00002    487.28719   -3102.2237 
27611000    283.14019   -4796.6335   -4230.3182   -4796.6335            0     9988.897    17.774917    23.132894    19.194347    7892.4327    12002.052    8302.0356     9662.603    1235.6767   -526.97362     1821.376   -3080.5658 
27612000    260.23972   -4787.9868   -4267.4752   -4787.9868            0     9277.133      17.7113    23.037851    19.292206    7871.8044    10089.176    8432.1284    9310.0944    1469.3434    306.30936   -1646.2499   -3202.4399 
27613000    267.43999   -4817.9459   -4283.0329   -4817.9459            0    12794.458    17.807617    23.072175    18.991954    7803.0429    13113.059    12280.912    12989.405    1213.8656   -712.33348   -780.11164   -2827.0315 
27614000    278.50606   -4805.2474   -4248.2009   -4805.2474            0    9756.8514    17.497807    23.325271    19.283704    7870.4719    10815.791    8791.9651    9662.7981    3171.2497    322.85624    -1367.729   -3128.2826 
27615000    263.80616   -4794.6699    -4267.025   -4794.6699            0      10085.8    17.969484    22.944301    19.105652    7877.2079    9886.4338    9764.4361    10606.531    1000.3684    -1073.549    158.77671   -3108.3582 
27616000    256.78032   -4804.4421   -4290.8497   -4804.4421            0    10463.394    17.579882    23.257325    19.178632    7841.3954    11934.316    9720.8211    9735.0435    346.86178    106.15843    2935.7001   -3094.2695 
27617000    262.01822   -4820.8338    -4296.765   -4820.8338            0    10747.277    17.715619    23.100287    19.153499    7838.2993    11133.357    9932.1862    11176.287    306.69263   -936.41503   -575.31583   -3068.2055 
27618000     262.1982    -4810.545   -4286.1162    -4810.545            0     9977.301    17.958851    23.027228    19.009318    7861.1619    9122.0777    10945.238    9864.5869   -1018.3977    1223.9698   -220.79915   -3142.2487 
27619000    261.07548   -4828.2252   -4306.0419   -4828.2252            0    8655.9288    18.000922    22.762843     19.36654    7935.4814    9435.6995    8860.3048     7671.782    -795.8549    1007.9707   -35.426641   -3304.2839 
27620000    268.02658   -4813.5873    -4277.501   -4813.5873            0    9811.9628    17.913789    22.769704    19.287486    7867.2051    9302.7163    10081.141    10052.031    1193.4913   -347.40605    1590.6079   -3151.7243 
27621000    271.18838   -4835.6258   -4293.2155   -4835.6258            0    10776.862    17.824664    23.003803    19.216353    7879.3787    10130.786     11898.14    10301.661   -1799.9993   -42.855086    -966.8492   -3054.8176 
27622000    275.13726   -4795.5509   -4245.2423   -4795.5509            0     10577.34    17.908063    22.840622    19.253832    7875.4199    9648.4235     11593.48    10490.117   -1516.1281    1074.1947    1435.6668   -3030.3828 
27623000    263.94855   -4809.3151   -4281.3854   -4809.3151            0    9765.0473     18.04245    22.854072    19.199548    7916.8081    6509.6834    10724.525    12060.934   -184.28324    1761.5442    142.00845   -3153.9274 
27624000    286.28951   -4817.4868   -4244.8724   -4817.4868            0    10072.827     17.73661    22.729645    19.490872    7857.6837    11426.562    9950.5112    8841.4086   -259.10595     -1413.38   -1788.8001   -3090.5641 
27625000    267.04051   -4778.9479   -4244.8339   -4778.9479            0    10451.662    17.961323    22.730093    19.317148    7886.4678    9624.8819    11281.891    10448.214    655.64858   -182.51203   -1021.8956    -3042.725 
27626000    270.09364   -4819.7167   -4279.4961   -4819.7167            0    11732.263    18.032944    22.502243    19.291836    7828.2738    12824.054    10901.531    11471.202   -2377.3672   -1863.5465   -1914.7093   -2940.0548 
27627000    262.12298   -4789.2664   -4264.9881   -4789.2664            0    12066.604    17.958207    22.646355    19.167793      7795.31    12844.736    11521.867     11833.21    345.70973    -394.6432    -341.1407   -2893.1769 
27628000    271.68202   -4833.5729   -4290.1753   -4833.5729            0    10119.679    17.844687    22.855233    19.362531    7896.9013    9675.9522     10589.86    10093.226   -910.32394    182.92459   -725.55004     -3124.71 
27629000    262.11999    -4750.471   -4226.1987    -4750.471            0    10647.394     17.79717    23.149635     19.15481    7891.7436    10598.397    11196.809    10146.976   -1614.0384     91.65766    965.59856   -3000.7583 
27630000     274.6123   -4855.8705   -4306.6119   -4855.8705            0    10142.054     17.78865    23.163771    19.058768    7853.2074    8858.6737    10772.777    10794.711    355.48105    975.04726    554.87391   -3145.0326 
27631000    261.17753   -4816.9053    -4294.518   -4816.9053            0    13695.563    17.718716    23.051555    19.074922    7791.0364    13734.613    12901.816     14450.26    284.27274   -401.07916    239.38499   -2738.3696 
27632000    267.95819   -4778.7035    -4242.754   -4778.7035            0    9803.0416    17.700077      23.3608     19.14582    7916.5661     10997.96    9169.8146    9241.3505   -1283.2835    803.00146    1965.5263   -3110.9439 
27633000    275.70007   -4795.8054   -4244.3712   -4795.8054            0    10546.202    17.733451    23.116133    19.276147    7901.8483    10298.745     10591.67    10748.192      595.667    607.59356     68.75809   -3029.0231 
27634000    262.78708   -4807.4063   -4281.7997   -4807.4063            0    12459.665    17.778792    23.060845    18.990324    7785.9179    11229.775    12124.652    14024.567   -1259.6391     713.6699   -950.28834   -2867.0094 
27635000    264.78652   -4802.2031   -4272.5974   -4802.2031            0    14935.261    17.808855    22.926986    19.026321     7768.511    15120.191    15246.099    14439.494   -1482.3289    1254.5002   -7.8969749   -2580.4955 
27636000    274.58759   -4799.9041    -4250.695   -4799.9041            0    9781.2261    17.904999    22.789464     19.33784    7890.7152    9847.5461    9569.0452    9927.0869    28.202175   -261.62367    546.45475   -3125.0912 
27637000    264.52269   -4812.4727   -4283.3946   -4812.4727            0    8280.3195    17.814526    22.929102    19.353509    7905.3486    8248.5217    8272.8316    8319.6051    94.916058    -1736.222    432.83946    -3328.745 
27638000    257.81901   -4792.9849    -4277.315   -4792.9849            0    9149.8246    17.930427    22.850358    19.350417    7928.1882    9325.8306    8989.8488    9133.7945    1554.2041   -198.59574     1178.643   -3219.3712 
27639000    259.95712   -4829.6503    -4309.704   -4829.6503            0     10880.25    17.972409    22.716234    19.272383    7868.2477     10191.01    11822.623    10627.118   -1596.5319    1798.6257    -1553.968   -3061.1918 
27640000    272.28069   -4784.4769   -4239.8819   -4784.4769            0    12514.269    17.906979    22.639023    19.307688    7827.2691    13995.089    11348.145    12199.573    775.75961    200.97585    451.73414   -2811.3444 
27641000     257.8538   -4791.1566   -4275.4171   -4791.1566            0    11190.577    17.900612    22.811497     19.23492    7854.3825    12457.157    10918.298    10196.275    512.87992   -1870.9299    982.37972   -2993.5577 
27642000    274.08159   -4815.1427   -4266.9457   -4815.1427            0    10721.431     17.80579    22.887362    19.246866    7843.6285    11554.282    10929.927    9680.0839    242.22108    -1338.852   -1214.1034   -3040.5075 
27643000    259.31424   -4803.7623   -4285.1018   -4803.7623            0    9764.1498    17.828702    23.030809    19.153816    7864.7377    9413.5698    10332.564     9546.316   -321.27553    748.13553   -917.64289   -3165.1623 
27644000    259.80571   -4779.3835     -4259.74   -4779.3835            0    13592.411    17.830847    22.808625    19.121598    7776.6988    16423.376    12574.168    11779.689    163.49131   -1800.1181   -473.46769   -2718.1543 
27645000    268.44013   -4805.0385    -4268.125   -4805.0385            0    9853.1265    17.782358    23.088907    19.148326    7861.8278    10954.867    9661.9405    8942.5721    -863.7276    107.38095    217.08901   -3138.3981 
27646000    264.55744   -4808.0133   -4278.8657   -4808.0133            0    11471.084    17.809147    22.780791    19.248762    7809.3471    12257.161    11360.219    10795.873    1075.3325   -130.20007    394.26205   -2972.4088 
27647000    265.01006   -4828.6118    -4298.559   -4828.6118            0    11327.493    18.031275     22.66996    19.112909    7812.7511    11114.023    11435.846     11432.61    798.06542     471.0818   -846.82444   -3007.8935 
27648000    263.13314   -4814.4622   -4288.1634   -4814.4622            0    9773.0691    18.049419     22.57702    19.415562    7911.8823    9028.4353    11054.766    9236.0057    1757.5872    1147.2626   -460.29057   -3160.4813 
27649000    275.71281   -4790.8617    -4239.402   -4790.8617            0    10819.168    17.924202    22.750033    19.286868    7864.7253    9435.6516    11490.575    11531.277     2199.014   -880.95441    2328.8256   -2998.4548 
27650000    260.75486   -4808.9481   -4287.4061   -4808.9481            0    11489.573    17.895183    22.769427    19.236682    7838.2374    12185.982    10242.415    12040.323   -315.50718   -748.74733   -998.82462   -2974.0025 
27651000    273.76863   -4764.3413   -4216.7703   -4764.3413            0    11508.834    17.848985    22.749616    19.392972    7874.6629     11732.32    11664.171     11130.01    1379.0898    160.16576   -332.89925   -2895.0511 
27652000    261.40213   -4777.2703   -4254.4337   -4777.2703            0    12419.139    17.800001    22.919122    19.221946    7841.7924    11731.484    13900.679    11625.254    71.767839    1007.1506   -1050.1012   -2834.1251 
27653000    271.86127   -4788.6767   -4244.9206   -4788.6767            0    11526.355    17.918813    22.837012    19.133499    7829.6604    11922.445    12213.208    10443.412    573.72935   -238.97681      -628.94   -2928.7542 
27654000    269.23646   -4814.9009   -4276.3947   -4814.9009            0     10559.23    17.860571    22.840975    19.257553    7856.1736    9295.9535    11197.792    11183.945    436.13996   -610.14063    357.86588    -3066.579 
27655000    267.42218   -4818.3989   -4283.5215   -4818.3989            0    10852.617    18.147277    22.414514    19.323985    7860.2704    10418.817    12239.604      9899.43    1231.1373   -500.37217   -543.18434   -3039.4428 
27656000    255.38364   -4804.1525   -4293.3537   -4804.1525            0      10712.1    18.023418    22.503248    19.348321    7847.3977    10409.663    10621.023    11105.613    454.27415   -546.84944   -346.43952   -3067.3941 
27657000    262.15892   -4808.2523   -4283.9021   -4808.2523            0    10183.945    18.006345    22.674242    19.323936    7889.5807    10239.917    10573.267    9738.6522   -1136.7962    -471.0951   -3308.7182   -3112.1227 
27658000    248.59785   -4796.3276   -4299.1012   -4796.3276            0    10888.541    17.757646    22.856657    19.306651    7836.1916    10862.543    10474.151    11328.929    1691.7469   -653.85683    2108.8883    -3054.728 
27659000    259.91674   -4820.2524   -4300.3868   -4820.2524            0    10050.982    17.991137    23.004906    19.121959     7914.281    9067.4384     11257.73    9827.7786   -250.70578    13.285954    1388.3387   -3140.2856 
27660000    260.54236   -4780.6014   -4259.4845   -4780.6014            0    11291.089    17.829729    22.867777    19.303895     7870.705    9743.7871    12942.118    11187.363    -1778.628    324.13192   -1150.5222   -2963.4237 
27661000    265.36432   -4819.7524    -4288.991   -4819.7524            0    11446.905    17.918269     22.76874     19.21841     7840.658    10138.595     12303.19     11898.93    1598.5567     868.9873   -5.7034729   -2980.0608 
27662000    267.78871   -4811.4533   -4275.8428   -4811.4533            0    8512.6161    17.925661    23.079644    19.185558     7937.408    10636.022    6529.8759      8371.95   -585.85122   -206.99322    456.66562   -3290.4313 
27663000    248.75783   -4764.7156   -4267.1692   -4764.7156            0    11490.182    17.690051    23.199253    19.104507    7840.4127    11874.416    11040.176    11555.952   -58.394395    1000.4044    3689.1491   -2953.3316 
27664000    266.35412   -4822.2145   -4289.4734   -4822.2145            0    9499.2415    17.688546    23.350822     19.04711    7867.2578    8541.5041    8132.9337    11823.287    126.72259    1099.5384   -13.665002   -3199.5695 
27665000    263.96438   -4812.9434   -4284.9821   -4812.9434            0    11507.434    17.702456    23.087609    19.128747    7818.0599    13010.769    10333.333      11178.2   -1121.1211   -898.26994    139.62666    -2972.923 
27666000    273.86093   -4771.3531   -4223.5974   -4771.3531            0    11365.686    17.760118    23.285203    19.021401    7866.2613    10807.008    10603.556    12686.493    426.77703   -359.67477    592.60517   -2919.7105 
27667000    252.76631   -4796.1923   -4290.6285   -4796.1923            0    9878.2879    17.857247    22.922459    19.239155    7875.2021    9303.4575    10378.223    9953.1834   -1565.2118   -131.30638   -207.47726   -3156.0899 
27668000    274.85077   -4799.3086   -4249.5731   -4799.3086            0    11392.631    17.983831    22.886302     19.12362    7870.9642    12049.648    11331.739    10796.507    -2298.309     -288.464   -962.29489   -2941.8137 
27669000    272.32142   -4784.6808   -4240.0043   -4784.6808            0    9947.4275    17.876566    22.871513    19.378199    7923.0501    11036.197    9322.5067    9483.5786    400.65133   -178.18968    334.91419   -3090.5835 
27670000    262.78429   -4785.3611   -4259.7601   -4785.3611            0    11936.371    17.948028    22.985146    19.023541     7847.934    11360.131    10931.153    13517.829   -699.46016   -494.24433   -1274.4816   -2893.5939 
27671000    268.15946   -4785.8813   -4249.5292   -4785.8813            0    10614.596    17.639828     23.03992    19.351774    7864.9523    9627.5981    11399.992    10816.199    562.91625    652.23231    -426.2107    -3032.011 
27672000    259.42994   -4803.9177   -4285.0258   -4803.9177            0    11342.676    17.889017    22.939071    19.083196    7830.9313    12169.708    10557.486    11300.833    655.49405   -569.98317    248.31927    -2989.623 
27673000    268.43171   -4834.2521   -4297.3555   -4834.2521            0    10479.181    17.735937    23.058678     19.20769    7855.3163    10576.709    10817.993    10042.841   -396.80509    15.367109   -844.61456   -3096.8424 
27674000    267.08687   -4815.3654   -4281.1586   -4815.3654            0    9561.8791    17.807752    23.242124    19.057411    7887.6715    8610.2183    8757.0901    11318.329    678.07536   -585.85313    2171.2597   -3181.2213 
27675000    265.47539   -4810.6472   -4279.6636   -4810.6472            0    10909.778      17.7365    23.108413    19.132504    7841.6932    12188.419    9972.7755     10568.14    193.93378   -525.62169    1305.6747   -3031.9881 
27676000    258.70344   -4796.6263   -4279.1875   -4796.6263            0    12107.753    17.813661     22.93382     19.17932    7835.4291    12571.792    12509.956    11241.511    1120.2375    994.77716    2919.9567    -2895.614 
27677000    275.06182   -4798.0256    -4247.868   -4798.0256            0    11044.182    17.974303    22.851223    19.130132    7857.4113    10151.646    11058.451    11922.451   -1027.4899    77.557004    448.97025   -2982.2899 
27678000    266.59077   -4786.7948   -4253.5803   -4786.7948            0    11080.999    17.924997    22.715393    19.214768    7823.7415    12572.633    10800.559    9869.8031   -322.42023   -532.22592    1600.7391   -2989.2246 
27679000    269.54815    -4802.962   -4263.8325    -4802.962            0    8117.0523    18.075975    22.716468     19.33908    7941.0576    7561.3039    8692.3857    8097.4672   -421.50509    271.68034    932.49401   -3323.7789 
27680000    265.47278   -4805.6606   -4274.6822   -4805.6606            0     9016.403    18.026259    22.651621    19.365427     7907.368    8725.3186    9848.7851    8475.1054   -807.92651   -750.04595    1150.3398   -3234.9029 
27681000    255.03046   -4787.5614    -4277.469   -4787.5614            0    10987.456     17.92842    22.747893    19.211894    7835.2593    10734.867    10737.315    11490.185    821.63525    -1188.775    -1617.824    -3021.941 
27682000    272.93627   -4791.7221   -4245.8159   -4791.7221            0    12286.751    17.731645    22.850021    19.217511    7786.3292    11107.958    12754.913    12997.381    -1092.859   -1163.4404   -143.63248   -2850.5862 
27683000    255.13183   -4808.6251   -4298.3299   -4808.6251            0    10914.363    17.881742    23.097382    19.025812    7858.0679    11738.015    9368.9835     11636.09     1177.643   -61.576315    2309.9518   -3047.5236 
27684000    257.37406   -4824.8219    -4310.042   -4824.8219            0    8875.6242    17.786094    22.911116    19.414786    7911.5109    10208.438    9443.8574    6974.5774   -73.695997    452.68284   -1124.9238   -3285.9612 
27685000    282.29394   -4801.6949   -4237.0721   -4801.6949            0    11309.875    17.910325    22.724693     19.28145    7847.6782    11432.527    11643.099    10853.999    1047.7276   -316.80763    -300.4183   -2942.6531 
27686000    263.27114   -4777.9184   -4251.3436   -4777.9184            0    10988.945    17.854214    22.993867    19.149956    7861.7735    10616.863    10405.526    11944.445   -426.12583    -839.3249    1003.4873   -2991.3962 
27687000    256.21548   -4794.1053   -4281.6427   -4794.1053            0    10093.589      17.8198    22.941428    19.226574    7860.0475    10817.966    9827.4877    9635.3138   -761.26596    -1149.653   -50.068848   -3124.6072 
27688000     277.4538   -4803.8671   -4248.9253   -4803.8671            0     10847.61    17.803934     23.01977     19.18133    7861.3236    11792.486    9962.9486    10787.395     460.0665    143.12343    486.17539   -3005.2539 
27689000    268.07981   -4834.2413   -4298.0485   -4834.2413            0    11655.592    17.761953    22.950554    19.182578    7819.7142    11867.208    11209.763    11889.805   -1241.5831   -728.82452    667.04499   -2968.8156 
27690000    271.91992   -4763.6812   -4219.8078   -4763.6812            0    12086.369    18.085074    22.768643    19.108792    7868.4769    10659.531    13027.446    12572.132   -1096.8754   -330.18703    349.02723   -2832.8526 
27691000    264.49556   -4791.8279   -4262.8041   -4791.8279            0    11085.549    17.824238    22.707088    19.465117    7878.2441     12302.44    11404.792    9549.4157   -368.99908   -62.063944   -668.39551   -2989.1176 
27692000    270.52811   -4802.9957   -4261.9061   -4802.9957            0    10778.078    18.003948    22.698312    19.264897    7872.7781    10251.447    11357.161    10725.626    349.27126   -526.73163    206.04546   -3024.4061 
27693000    261.04295   -4791.3653   -4269.2471   -4791.3653            0    10068.331    17.899224    22.594899    19.495408    7884.5501    10649.191    11079.125    8476.6775    61.436567   -359.37934   -248.14801   -3111.5091 
27694000    270.10739   -4796.2545   -4256.0063   -4796.2545            0    10926.257    18.056423    22.407008    19.367776    7836.0167    9565.8536    12424.772    10788.145   -437.55607   -883.55007   -439.67548   -3007.3508 
27695000    260.80859    -4786.314   -4264.6646    -4786.314            0    11601.174    17.964232    22.506646    19.466077    7870.4195    10166.673    13395.255    11241.594   -439.15622    898.76222    819.49649   -2933.0587 
27696000    266.81827   -4815.1905    -4281.521   -4815.1905            0    9596.3743    18.093116     22.62282    19.272879     7888.723    9724.4993     8946.297    10118.327   -1126.8125    -1574.258   -447.51104   -3177.4684 
27697000    263.22346    -4802.167   -4275.6876    -4802.167            0    9245.1512    18.026452    22.380536    19.582313    7900.3206    8184.4874    11054.022     8496.944    1711.7706   -631.74129    186.85738   -3210.4791 
27698000    273.63402   -4824.4762   -4277.1744   -4824.4762            0    10751.227    18.084505    22.298089    19.571409    7892.1687    8897.9915    13432.346    9923.3433   -632.79494    428.88346   -152.05944   -3039.7169 
27699000    272.09362   -4792.4605   -4248.2396   -4792.4605            0    11040.595    17.945138    22.584964    19.432491    7875.8001    10782.432    12539.918    9799.4349   -824.82129   -18.373691   -912.06556   -2980.1117 
27700000    263.02626   -4801.3448   -4275.2598   -4801.3448            0    11294.379    17.967708    22.637261    19.332143    7863.1501    12457.315    10064.615    11361.207    514.14665    244.77585   -323.05088   -2980.0659 
27701000    261.08666   -4786.6438   -4264.4383   -4786.6438            0    11162.403    17.877863    22.862348    19.233678    7861.3796    11721.609    10770.247    10995.353    2056.9541    212.06922    274.33934    -2984.667 
27702000    275.28987   -4819.9534   -4269.3396   -4819.9534            0    10552.151    17.693564    23.080921    19.204152    7842.6634    12188.752    8780.0887    10687.611    1906.1827   -1477.5609   -546.10799   -3062.4142 
27703000    275.43414   -4847.2017   -4296.2994   -4847.2017            0    10407.458    17.810597     23.02677     19.09354    7830.6525    10686.694    9992.5119    10543.168    -879.6718   -124.63108   -1512.6156   -3107.7465 
27704000    245.13974   -4798.8118    -4308.502   -4798.8118            0    10338.476      17.6443    23.348084    19.043055    7844.9887    9443.2311    10252.953    11319.245    1571.0379   -413.08143     1418.081   -3125.6654 
27705000    273.33307   -4846.8833   -4300.1834   -4846.8833            0    13111.694    17.747592    22.925944    19.164031    7797.4664    13903.502    12096.201    13335.378   -2055.8246    503.93107    -75.97984   -2809.1472 
27706000    266.00106   -4823.9348   -4291.8998   -4823.9348            0    12307.835    18.081939    22.692207    19.086191    7831.4288    11074.393    11891.798    13957.315   -517.71383    686.87138   -767.48618   -2886.1806 
27707000    269.71581   -4807.6103   -4268.1454   -4807.6103            0    10577.296    17.974878    22.595626    19.394039    7876.9591    10242.628    12292.878    9196.3822   -719.99304   -710.84611     1568.282   -3053.0535 
27708000    281.55386   -4808.1255    -4244.983   -4808.1255            0    10582.649    17.924934    22.758081     19.30894    7876.8326    9645.5871    10054.339    12048.019   -578.79007   -1475.1367   -1763.0738   -3029.2957 
27709000    271.46972   -4812.3685   -4269.3955   -4812.3685            0    11469.259    17.813711    22.859471    19.278021    7850.2416    9261.0367    12221.268    12925.473   -493.50419    1082.0548   -1191.4352   -2956.3062 
27710000    275.07797   -4808.0663   -4257.8764   -4808.0663            0    9755.8988    17.762418     23.24616    19.087227    7881.2686    10077.028    9154.5174    10036.151    1026.8188    574.37711   -1143.0617   -3136.5312 
27711000    269.75738   -4800.5847   -4261.0366   -4800.5847            0    13510.743    17.868328    23.011094    19.000181       7812.3    12835.883    13374.292    14322.053    1321.4675   -742.23543   -1154.4502   -2721.6985 
27712000    259.28091   -4785.6824   -4267.0886   -4785.6824            0    10974.132    17.727421    22.897781    19.314405    7840.0763    12596.397    10846.616    9479.3842   -305.15224   -1159.6541   -227.61775   -3012.3121 
27713000    268.05499   -4808.3982   -4272.2551   -4808.3982            0    11188.038    18.012155    22.636638    19.330278    7881.6238    10344.342    11035.818    12183.954    1965.6025   -1100.8898     2167.304   -2986.2417 
27714000    252.06409   -4776.8139   -4272.6546   -4776.8139            0    11973.366    18.007109     22.41621    19.428787     7842.452     11487.74    13172.106    11260.252    -1099.343   -222.04091   -450.42305   -2903.2115 
27715000    249.66625   -4819.5366   -4320.1732   -4819.5366            0    11837.409    17.910169    22.658817    19.284553    7826.1193     11722.71    12619.061    11170.455   -600.60891    1387.4347    138.58764   -2969.0997 
27716000    261.17114   -4808.1498   -4285.7752   -4808.1498            0    8422.2797     18.03918    22.757193    19.352931    7944.7864    9513.0166     7929.139    7824.6835    -1068.128   -1508.1686     871.5691   -3309.9147 
27717000    259.72133   -4829.1619   -4309.6871   -4829.1619            0    8306.9717    17.872393    22.842682    19.406954    7922.9551    8197.4206    9796.0581    6927.4363   -1376.6039    -425.3751    693.51387   -3349.8317 
27718000    284.06588    -4818.584   -4250.4171    -4818.584            0    11777.151     17.98485    22.787193    19.102433    7828.6405     9847.584    13667.828    11816.042   -1001.3666    415.91877    1204.8596   -2905.7881 
27719000    268.01962   -4814.4192   -4278.3469   -4814.4192            0    9710.7817    17.757075    23.033216    19.295481    7891.9009    9687.4021    9995.8037    9449.1395   -2254.2258    357.80321   -640.54143   -3160.6817 
27720000    256.97109   -4818.0508   -4304.0769   -4818.0508            0    11600.256    17.963501    22.870375    19.094212    7844.5135    9356.8694    13087.868    12356.031    1683.9747    92.888947    2341.0737   -2976.9591 
27721000    272.33761   -4821.3851   -4276.6763   -4821.3851            0    12428.878    17.792427     22.85358    19.229202    7818.9906    11958.067    13152.957     12175.61   -1299.5157    1171.9867   -1019.7906    -2859.387 
27722000    256.17923    -4827.045   -4314.6549    -4827.045            0    10368.478    17.833962    22.898496    19.276696    7872.0414    10382.014    10103.161    10620.257    495.28894   -248.83945    1081.4434    -3124.295 
27723000     252.4071   -4800.0123   -4295.1669   -4800.0123            0    12431.881    17.864081    23.037157    18.982706    7812.0979    11032.906    12028.586    14234.149   -432.19102    1024.0691    55.141973   -2878.7849 
27724000    269.48036   -4808.5963   -4269.6023   -4808.5963            0    10106.315    17.701798    23.063347    19.284498    7873.1413    11206.779    9222.5279    9889.6377   -488.88289   -115.26018    -2227.609   -3109.1781 
27725000    260.91895   -4808.2055   -4286.3354   -4808.2055            0    12857.147    17.858923    23.042657    18.979804    7810.5132    11666.199    11644.138    15261.103    1791.4742    818.89386    415.96783   -2821.7994 
27726000     262.6227   -4803.5915   -4278.3136   -4803.5915            0    9605.7762    17.845007     23.02276    19.190826     7884.384    8252.2522     10282.92    10282.156    2143.6727    680.10214    223.89677   -3173.7872 
27727000    285.09627   -4771.1925   -4200.9647   -4771.1925            0    10463.818    17.672742    23.009761    19.341646    7865.1944    9289.5422    10665.071    11436.842    962.88274   -852.61687     -244.059   -3000.7041 
27728000    268.88567   -4785.6126   -4247.8081   -4785.6126            0    11441.394    18.084115    22.819665    19.122028    7891.1534    10866.423    11872.342    11585.416    725.44859    887.84484   -1569.4259   -2931.0824 
27729000    282.72896   -4810.6074   -4245.1145   -4810.6074            0    12393.865    17.748147    22.630265    19.480794    7824.3688    12571.118    13735.821    10874.657    1421.9507    344.36071    1261.8444   -2830.8457 
27730000    278.03617   -4796.4577    -4240.351   -4796.4577            0    8598.2592    18.158749    22.718697    19.255221    7943.6087    8339.5649    8832.9705    8622.2421   -1229.1352    81.331471    379.45049    -3244.248 
27731000    273.33685   -4799.1255   -4252.4181   -4799.1255            0    8692.7853    17.877747    23.043389    19.231718    7922.7734    9569.7319    9403.6826    7104.9413    1832.9148    616.93228    998.20656   -3248.0056 
27732000     264.8008    -4793.214   -4263.5797    -4793.214            0    10894.055    17.702105    23.000553    19.246707    7836.4547    10439.154    10627.828    11615.183   -980.18016    1520.6776    57.885888   -3018.5346 
27733000     258.7906   -4799.7566   -4282.1434   -4799.7566            0    11972.135    17.810082    22.959641    19.116921    7817.1592    11841.725    12068.827    12005.853    269.45585   -912.68768    589.82089   -2917.2572 
27734000    268.96976   -4788.7456   -4250.7729   -4788.7456            0    11070.275    17.881677    22.830499    19.316967    7886.1058    11830.903    11113.471     10266.45    875.89462   -1228.9023   -143.97741   -2977.5721 
27735000    265.18627   -4827.7327   -4297.3274   -4827.7327            0    11735.373    18.107652    22.365213    19.358532    7839.8472    9731.1998    13929.416    11545.502   -2436.1691    821.55363   -479.47198   -2955.5503 
27736000    269.57375   -4814.7724   -4275.5916   -4814.7724            0     10725.39    17.903744     22.82469    19.309152    7890.6351    10330.915    11304.783    10540.471   -588.06644   -47.900379     334.5421   -3041.3478 
27737000    264.21933   -4815.7866   -4287.3153   -4815.7866            0    9107.5061    18.035564    22.847494    19.233964    7925.6905    8980.5677    8852.6867     9489.264   -760.19485   -155.47202   -762.58547   -3234.5963 
27738000     267.1954   -4786.2958   -4251.8719   -4786.2958            0    10834.887    17.868513    22.828823    19.291501    7869.3335    8902.9078    12271.786    11329.969   -730.64802    895.38128    1193.7714   -3008.3935 
27739000    269.64674    -4802.414   -4263.0872    -4802.414            0    12271.594    17.759174    22.977642    19.118692    7801.6489    11273.482    12314.123    13227.178   -2016.9702   -11.058698   -892.87988   -2866.8369 
27740000    275.97991    -4814.756   -4262.7621    -4814.756            0    9230.8599    17.883622    22.952037    19.285908    7916.2009    7976.4267    9230.3738    10485.779   -1828.7036   -221.08837   -856.13335   -3197.0624 
27741000    254.58368   -4802.9536   -4293.7547   -4802.9536            0    11511.997    17.834382    22.889017    19.196354     7836.172    10872.319    12384.107    11279.565    452.00552   -379.27569    1818.2876   -2978.1346 
27742000    272.24764   -4829.9027   -4285.3738   -4829.9027            0     11055.38    17.797982    22.754486    19.383876    7850.1583    13740.855    10480.869    8944.4154    997.08158   -17.628469    113.12552    -3019.682 
27743000    279.10175   -4796.1412   -4237.9033   -4796.1412            0    9093.6972    17.809783    22.835595    19.337442    7864.4797    10001.961    9565.4167    7713.7135   -406.86269    70.672563    322.59709   -3194.8983 
27744000    284.55803   -4819.9286   -4250.7773   -4819.9286            0    11329.897    17.930322    22.670603     19.29041    7841.3821    12505.639    12090.454    9393.5972    28.437684   -607.36631    1405.2671   -2955.1072 
27745000    275.44053   -4780.9011    -4229.986   -4780.9011            0    10006.127    17.984377    22.857382    19.235395    7907.2052    9629.7177    10154.692     10233.97    489.12633    995.68836    -1125.789   -3076.0947 
27746000    255.90465   -4787.3423   -4275.5014   -4787.3423            0    11172.887    17.831926    22.861305    19.231052    7839.7519    11200.142    11212.777    11105.743    1201.8768    578.28824     566.3109   -2998.0522 
27747000    271.26376   -4820.5502   -4277.9892   -4820.5502            0    9832.2206    17.752928    23.163915    19.158789    7878.6173    9854.6534    8544.6466    11097.362   -102.49931   -1589.8557   -184.55452   -3148.2518 
27748000     260.8974   -4760.5431   -4238.7161   -4760.5431            0    11291.728    17.607527    23.274228    19.175499    7858.1501     10612.13    11472.277    11790.776    1807.8616    759.43083    1517.8583   -2944.6495 
27749000    258.46559   -4806.7822   -4289.8191   -4806.7822            0    10094.059    17.771833    23.272591    19.046925    7877.7432    7351.6169    10001.865    12928.696    907.65598    926.92196     1790.137   -3130.1247 
27750000    266.62894   -4772.9483   -4239.6575   -4772.9483            0    9201.1225    17.735602    23.174238    19.261884    7916.8088    11610.973    8648.7744    7343.6204   -537.78505    -1146.711   -1054.0352   -3177.3094 
Loop time of 535.603 on 64 procs for 250000 steps with 1008 atoms

Performance: 80.657 ns/day, 0.298 hours/ns, 466.764 timesteps/s
99.1% CPU use with 64 MPI tasks x 1 OpenMP threads

MPI task timing breakdown:
Section |  min time  |  avg time  |  max time  |%varavg| %total
---------------------------------------------------------------
Pair    | 29.296     | 33.312     | 37.017     |  35.7 |  6.22
Bond    | 0.2762     | 0.28544    | 0.29644    |   0.9 |  0.05
Kspace  | 252.19     | 259.58     | 278.35     |  33.6 | 48.46
Neigh   | 4.9983     | 5.4528     | 7.0361     |  21.7 |  1.02
Comm    | 92.144     | 109.69     | 115.83     |  51.5 | 20.48
Output  | 1.3354     | 1.337      | 1.34       |   0.1 |  0.25
Modify  | 113.72     | 118.46     | 120.92     |  18.5 | 22.12
Other   |            | 7.489      |            |       |  1.40

Nlocal:        15.7500 ave          22 max          12 min
Histogram: 3 5 9 14 8 15 6 2 1 1
Nghost:        2499.31 ave        2529 max        2476 min
Histogram: 2 6 8 15 10 9 6 5 2 1
Neighs:        5275.19 ave        7335 max        3999 min
Histogram: 5 6 10 14 9 12 4 2 1 1

Total # of neighbors = 337612
Ave neighs/atom = 334.93254
Ave special neighs/atom = 2.0000000
Neighbor list builds = 9994
Dangerous builds = 0

unfix		3
unfix		2
unfix		1

write_data	data.final.${pid}
write_data	data.final.0
System init for write_data ...
PPPM initialization ...
  extracting TIP4P info from pair style
  using 12-bit tables for long-range coulomb (../kspace.cpp:340)
  G vector (1/distance) = 0.38325438
  grid = 24 30 32
  stencil order = 5
  estimated absolute RMS force accuracy = 0.0019679493
  estimated relative force accuracy = 5.9264209e-06
  using double precision FFTW3
  3d grid and FFT values/proc = 3825 384
Last active /omp style is kspace_style pppm/tip4p/omp
WARNING: Not all mixed pair coeffs generated from mixing. Use write_data with 'pair ij' option to store all pair coeffs. (../write_data.cpp:312)

write_restart   restart.lmp.${pid}
write_restart   restart.lmp.0
System init for write_restart ...
PPPM initialization ...
  extracting TIP4P info from pair style
  using 12-bit tables for long-range coulomb (../kspace.cpp:340)
  G vector (1/distance) = 0.38325438
  grid = 24 30 32
  stencil order = 5
  estimated absolute RMS force accuracy = 0.0019679493
  estimated relative force accuracy = 5.9264209e-06
  using double precision FFTW3
  3d grid and FFT values/proc = 3825 384
Last active /omp style is kspace_style pppm/tip4p/omp
Total wall time: 0:08:56
