LAMMPS (30 Jul 2021)
  using 1 OpenMP thread(s) per MPI task
package omp 0
using multi-threaded neighbor list subroutines
echo both

include		in.partitions
variable        pid world 0
include		in.temp
variable        temperature equal 267.57
variable	tempDamp equal 100.0
include		in.pressure
variable        pressure equal 10500.0
variable        pressureDamp equal 1000.0 # This is 1 ps
include		in.seed
variable        seed world 745823

units		real
atom_style	full
read_restart    restart.lmp.${pid}
read_restart    restart.lmp.0
Reading restart file ...
  restart file = 30 Jul 2021, LAMMPS = 30 Jul 2021
  restoring atom style full from restart
  triclinic box = (-3.0948245 -0.33440871 0.046044687) to (14.704823 22.914408 19.183953) with tilt (-0.30814832 -6.3520170 0.15984575)
  4 by 4 by 4 MPI processor grid
  restoring pair style lj/cut/tip4p/long/omp from restart
  restoring bond style harmonic/omp from restart
  restoring angle style harmonic/omp from restart
  1008 atoms
  672 bonds
  336 angles
Finding 1-2 1-3 1-4 neighbors ...
  special bond factors lj:    0        0        0       
  special bond factors coul:  0        0        0       
     2 = max # of 1-2 neighbors
     1 = max # of 1-3 neighbors
     1 = max # of 1-4 neighbors
     2 = max # of special neighbors
  special bonds CPU = 1.382 seconds
  read_restart CPU = 1.747 seconds

include 	in.setup
variable	out_freq equal 1000
variable	out_freq2 equal 10000
variable	out_freq3 equal 1000

timestep	2.0

neigh_modify    delay 7 every 1

include		in.tip4p
# This is TIP4P/Ice

# create groups ###
group ox type 2
336 atoms in group ox
group hy type 1
672 atoms in group hy

# set charges - beside manually ###
set group ox charge -1.1794
Setting atom values ...
  336 settings made for charge
set group hy charge 0.5897
Setting atom values ...
  672 settings made for charge

# ### TIP3P Potential Parameters ###
pair_style lj/cut/tip4p/long/omp 2 1 1 1 0.1577 8.5
pair_coeff 1 1*2 0.000 0.000
pair_coeff 2 2 0.21084 3.1668
bond_style  harmonic
bond_coeff  1 450 0.9572
angle_style harmonic
angle_coeff 1 55 104.52
kspace_style pppm/tip4p/omp 1.0e-5
pair_modify tail yes

thermo          ${out_freq}
thermo          1000
thermo_style    custom step temp pe etotal epair emol press lx ly lz vol pxx pyy pzz pxy pxz pyz enthalpy

restart 	${out_freq3} restart.lmp.${pid} restart2.lmp.${pid}
restart 	1000 restart.lmp.${pid} restart2.lmp.${pid}
restart 	1000 restart.lmp.0 restart2.lmp.${pid}
restart 	1000 restart.lmp.0 restart2.lmp.0


include         in.dump
dump            myDump all atom ${out_freq2} dump.water.${pid}
dump            myDump all atom 10000 dump.water.${pid}
dump            myDump all atom 10000 dump.water.0
dump            myDump2 all dcd ${out_freq2} dump.dcd
dump            myDump2 all dcd 10000 dump.dcd
dump_modify     myDump append yes
dump_modify     myDump2 append yes


variable natoms 	equal  "count(all)"                        # NUMBER ATOMS
variable H      	equal  "enthalpy/v_natoms"                 # ENTHALPY-per-atom
variable Vol      	equal  "vol/v_natoms"                 # volume-per-atom
fix AVG all 		ave/time ${out_freq} 1 ${out_freq} v_Vol v_H file vol_enthalpy.dat
fix AVG all 		ave/time 1000 1 ${out_freq} v_Vol v_H file vol_enthalpy.dat
fix AVG all 		ave/time 1000 1 1000 v_Vol v_H file vol_enthalpy.dat



fix 		1 all shake 1e-6 200 0 b 1 a 1
       0 = # of size 2 clusters
       0 = # of size 3 clusters
       0 = # of size 4 clusters
     336 = # of frozen angles
  find clusters CPU = 0.224 seconds
fix             2 all nph tri ${pressure} ${pressure} ${pressureDamp}
fix             2 all nph tri 10500 ${pressure} ${pressureDamp}
fix             2 all nph tri 10500 10500 ${pressureDamp}
fix             2 all nph tri 10500 10500 1000
fix             3 all temp/csvr ${temperature} ${temperature} ${tempDamp} ${seed}
fix             3 all temp/csvr 267.57 ${temperature} ${tempDamp} ${seed}
fix             3 all temp/csvr 267.57 267.57 ${tempDamp} ${seed}
fix             3 all temp/csvr 267.57 267.57 100 ${seed}
fix             3 all temp/csvr 267.57 267.57 100 745823


run             250000
PPPM initialization ...
  extracting TIP4P info from pair style
  using 12-bit tables for long-range coulomb (../kspace.cpp:340)
  G vector (1/distance) = 0.38373583
  grid = 24 30 32
  stencil order = 5
  estimated absolute RMS force accuracy = 0.0019157825
  estimated relative force accuracy = 5.7693221e-06
  using double precision FFTW3
  3d grid and FFT values/proc = 3825 384
Last active /omp style is kspace_style pppm/tip4p/omp
Neighbor list info ...
  update every 1 steps, delay 7 steps, check yes
  max neighbors/atom: 2000, page size: 100000
  master list distance cutoff = 10.8154
  ghost atom cutoff = 10.8154
  binsize = 5.4077, bins = 5 5 4
  1 neighbor lists, perpetual/occasional/extra = 1 0 0
  (1) pair lj/cut/tip4p/long/omp, perpetual
      attributes: half, newton on, omp
      pair build: half/bin/newton/tri/omp
      stencil: half/bin/3d/tri
      bin: standard
Per MPI rank memory allocation (min/avg/max) = 9.329 | 9.335 | 9.337 Mbytes
Step Temp PotEng TotEng E_pair E_mol Press Lx Ly Lz Volume Pxx Pyy Pzz Pxy Pxz Pyz Enthalpy 
26000000    277.55521    -4802.539   -4247.3943    -4802.539            0    9460.4781    17.799648    23.248816    19.137909    7919.6637    10742.839    8436.4143    9202.1814    1759.1116   -1199.0678     1177.252   -3154.7075 
26001000    266.04354   -4796.4612   -4264.3413   -4796.4612            0    11070.506    17.698496    23.071261    19.189867    7835.7339      11156.1    11136.169    10919.249   -112.14919    335.25474    999.29194   -2999.2466 
26002000    276.82084   -4826.1068   -4272.4309   -4826.1068            0    9868.4763    17.670058    23.143488    19.293641    7890.0722    11296.505    9478.1558    8830.7683    1567.8808    517.91863   -829.89207   -3136.8791 
26003000    274.46639   -4817.8097    -4268.843   -4817.8097            0    10851.532    17.707833    23.248771    19.021173    7830.7384    12374.794    10375.871    9803.9307   -20.628052   -888.24728   -1116.1428   -3029.5624 
26004000    261.95176    -4840.466   -4316.5301    -4840.466            0    9156.2509    17.796738    23.063254    19.246566    7899.7661    7570.5843    9322.0399    10576.128     492.6009    1151.3616      103.435   -3261.6385 
26005000    264.86299   -4797.6777    -4267.919   -4797.6777            0    11479.415    18.075084    22.682188    19.166907    7858.0957    11459.563    11413.013    11565.668    1924.3453   -548.11879   -388.06919   -2952.3521 
26006000    274.84737   -4800.0382   -4250.3095   -4800.0382            0    10932.008    17.880244    22.703899    19.383336    7868.6894    11910.994    11495.288    9389.7398    1584.0043   -1064.5664   -97.888217   -2995.7877 
26007000    266.20665   -4813.9876   -4281.5414   -4813.9876            0    9714.1775    17.916962     22.63852    19.499223    7909.1485    11155.692    9772.2817    8214.5587   -115.92149    998.71278    616.59621   -3161.0419 
26008000    259.58196   -4786.9465   -4267.7505   -4786.9465            0    10492.586    18.287821     22.46139    19.173731    7875.9917    9547.2541     10389.62    11540.886   -1047.9176   -299.06325    281.20504   -3062.5379 
26009000    282.38936   -4790.0476    -4225.234   -4790.0476            0    12768.193    17.756368    22.817932    19.345645     7838.151    13327.943    13750.453    11226.184   -867.17106    60.625929   -1471.2774    -2765.684 
26010000    265.46779   -4771.7247   -4240.7564   -4771.7247            0    10586.949    17.813698    23.063756    19.148934    7867.3544    9954.9635    10397.452    11408.431    2042.0484    860.55479    1739.0127   -3026.0385 
26011000    259.97401   -4781.5838   -4261.6036   -4781.5838            0    12299.002    17.507666    23.314801    19.200383    7837.3613    14428.258    11397.233    11071.515    -14.63486   -445.61053    -531.7018   -2855.8292 
26012000    274.38511   -4770.7158   -4221.9117   -4770.7158            0    9940.3008    17.826372    23.206577    19.117288    7908.6131     8979.697    9591.3968    11249.809   -432.16495   -744.44493   -1160.8928   -3075.4073 
26013000    283.27502   -4783.6825   -4217.0974   -4783.6825            0     9573.368    17.698661    23.265422    19.219858    7914.0994    9837.0359    9418.7818    9464.2865    -2.744119   -723.46684    843.48401   -3112.1486 
26014000    278.09946     -4801.27   -4245.0368     -4801.27            0    10445.131    17.962274    22.842862    19.124976    7847.1641    8623.8358     11211.49    11500.068    -3162.348    -412.5625   -1883.3586   -3049.6663 
26015000    274.79543   -4808.1367   -4258.5119   -4808.1367            0    12351.344    17.828213    22.895151    19.235465    7851.5248    12508.909    11473.664    13071.459    340.49607    277.78469    428.32431   -2844.2035 
26016000     271.0425   -4795.8233   -4253.7048   -4795.8233            0    9839.9253    17.822283    22.844247     19.37579    7888.5939    9801.5954    10354.786    9363.3948    1681.2993    -1109.774    16.234067   -3121.6505 
26017000     273.0464   -4808.8408   -4262.7143   -4808.8408            0    10656.229    17.971785    22.924021    19.020753    7836.2761    11330.422    10060.384    10577.882    2029.7944   -1931.4522   -411.09316   -3044.8772 
26018000    262.17802   -4814.6496   -4290.2612   -4814.6496            0    10360.823    17.759871    22.804887    19.415304    7863.4282    13860.231    9938.6317    7283.6061    8.3513886   -1264.9259    921.25952   -3102.0817 
26019000    256.99518   -4782.1092   -4268.0871   -4782.1092            0     11078.57    18.140434    22.779745    19.049683    7871.9853    9824.1486    10645.485    12766.077   -309.43356   -382.19206    1855.0491   -2996.2137 
26020000    272.04608   -4817.3232   -4273.1974   -4817.3232            0    11185.791    17.931363    22.602432    19.370658    7850.7806    10820.851    12333.675    10402.846    1310.2843    553.77692    426.01292   -2992.4738 
26021000    261.13506    -4818.406   -4296.1037    -4818.406            0    10631.845    18.010835    22.712048    19.258178    7877.8069    10120.881    10964.446    10810.207     611.7208    365.16347   -689.38153   -3074.6138 
26022000    264.36082    -4794.776   -4266.0217    -4794.776            0    11205.386    17.887433    22.581189    19.457334    7859.1966    11184.711    12050.133    10381.313    2572.4246   -137.48229    1593.3133   -2981.6792 
26023000    257.78765   -4819.8358   -4304.2286   -4819.8358            0    9766.8004    17.965707    22.858525    19.167606    7871.5524    7997.3299    11302.073    10000.998    2503.8514    909.95659   -1106.2098   -3183.0144 
26024000    281.96294   -4782.9877    -4219.027   -4782.9877            0    9340.6719    17.694835    23.126409    19.320755    7906.4006    8516.6478    9001.4097    10503.958    1709.6572    769.90514   -619.43926   -3141.9845 
26025000    273.87182   -4783.9045   -4236.1271   -4783.9045            0    9408.3739    17.924021    23.020842    19.095906    7879.4685    8462.0393    8421.0993    11341.983    525.23827   -507.70326    210.22489   -3154.9735 
26026000    274.30369   -4798.8608   -4250.2195   -4798.8608            0    10132.998    17.706376    23.103051    19.307088    7897.9758    8510.1358    11264.015    10624.843   -740.30695   -111.17395   -1472.8042   -3083.0615 
26027000    275.59706   -4782.2454   -4231.0172   -4782.2454            0    11468.508    17.923529    22.864395    19.151518    7848.4962    11704.632    11719.094    10981.797    1113.1503    710.00398    3006.7328   -2918.3058 
26028000    254.97908   -4793.1876   -4283.1979   -4793.1876            0    9777.4924    17.861311    22.754858    19.418428    7892.2627    9522.8616    10631.434    9178.1815    -917.8583   -860.83283    194.37316   -3157.8031 
26029000    270.17742   -4802.7822    -4262.394   -4802.7822            0    9645.4901    18.058909    22.772267    19.183802    7889.1909    9270.9043    9545.3289    10120.237    126.36667   -861.55655   -1022.2004   -3152.6248 
26030000    278.17612   -4801.1891   -4244.8025   -4801.1891            0    10283.328    17.828469    22.737521    19.386055     7858.626    13150.428    9724.6695    7974.8869    366.78427   -1771.9291    1294.8801   -3066.2302 
26031000    279.71176   -4804.5118   -4245.0537   -4804.5118            0    9377.2762    18.091806    22.773239    19.243902    7928.6612    8578.3928    9285.1497    10268.286   -1141.0947    856.58024   -2282.4139   -3160.7462 
26032000    278.40326     -4802.41    -4245.569     -4802.41            0    11599.665    17.788155    22.796013     19.33812    7841.5885    10121.135    12942.737    11735.122    320.35057     536.3921    2670.0375   -2919.0137 
26033000    268.94754   -4802.3993    -4264.471   -4802.3993            0    10405.959    17.890922    22.909333    19.204347    7871.2681    11795.339    9697.5788    9724.9581    -2370.567   -555.90517   -720.98872   -3069.9256 
26034000    279.95587    -4861.698   -4301.7516    -4861.698            0    10859.615    17.779461    22.797731    19.337328    7838.0256     10715.87    11795.723    10067.252    276.25618    1039.0019     1180.753   -3060.3938 
26035000    262.07351   -4823.2256   -4299.0462   -4823.2256            0     11472.85    18.056465    22.688912    19.143735    7842.8349    10515.443    12368.941    11534.166   -1344.0609    747.96545   -238.01042    -2986.785 
26036000    275.92318   -4843.5992   -4291.7188   -4843.5992            0     11369.35    17.780769    22.785075    19.288438    7814.4436    12507.745    12053.726    9546.5797   -249.16577    263.95228   -306.94394   -2996.0035 
26037000    268.66646   -4797.0698   -4259.7036   -4797.0698            0     11103.01    17.966489    22.796643    19.181915    7856.4449    10768.751    10711.849    11828.429    363.35179   -1083.3967   -2556.2332   -2987.5409 
26038000    252.99563   -4783.8016   -4277.7791   -4783.8016            0    9601.3584    17.881447    22.851971    19.392563    7924.3115     8750.173     9086.386    10967.516    8.5984656   -211.66146    -1567.032   -3168.1698 
26039000    254.35891   -4798.9514   -4290.2022   -4798.9514            0    11441.005    17.908061    22.891777    19.213342    7876.4587    10633.713    11522.457    12166.845   -1442.7662      658.186   -3289.4336   -2975.9732 
26040000    267.96515   -4794.0038   -4258.0404   -4794.0038            0    10772.004    17.720764    23.134184    19.159352    7854.4801    12990.667    9160.9347    10164.409    328.82806    611.72828   -98.469098   -3024.1125 
26041000    269.51979   -4801.7436   -4262.6707   -4801.7436            0    10223.075    17.814473    23.237422      19.0218    7874.3104    11837.612    8796.4482    10035.164   -725.92603   -691.89639    710.44333   -3088.6656 
26042000    276.72113   -4824.0438   -4270.5674   -4824.0438            0    10620.398    17.652695    23.141892    19.226164    7854.2104    9842.8254    10641.991    11376.379   -638.64818    137.53565   -464.03959   -3054.0475 
26043000    270.11808   -4780.9713   -4240.7018   -4780.9713            0    11807.392    17.839114     23.09122    19.002724    7827.7337    10948.203    12130.483    12343.491    313.29247    1321.8783    132.10445   -2892.7762 
26044000    254.94378   -4805.4516   -4295.5325   -4805.4516            0    12335.091    17.854097    22.865747    19.123758    7807.2218    10290.489    13019.802    13694.981   -304.13648   -116.94708    500.50041   -2891.0551 
26045000    269.23231   -4846.4659    -4307.968   -4846.4659            0    9318.4063    17.752323    22.965724    19.415289     7915.515    11218.364    8427.5148      8309.34   -1092.1819   -1250.5305   -950.77345   -3232.2543 
26046000    263.62008   -4805.6638   -4278.3911   -4805.6638            0    11109.352    17.897051    23.005723     19.04313    7840.7156     11264.37    10541.677    11522.009    491.71385   -539.54091    733.24337   -3008.0501 
26047000    265.57599   -4809.8203   -4278.6355   -4809.8203            0    9748.0767    17.870334    22.895002    19.339436    7912.5628    10553.574    9924.0844    8766.5713    1024.9724     1127.295    1025.9827   -3153.7405 
26048000    252.58623   -4811.9782   -4306.7746   -4811.9782            0    8163.7644    17.985426    22.966238    19.210447    7935.0209    7094.3819     8535.567    8861.3443    1832.8275    342.83925   -974.63881   -3362.0299 
26049000    277.22394   -4799.7588   -4245.2767   -4799.7588            0    10397.047    17.858651     22.75335    19.356603    7865.4426    11775.412     10229.92    9185.8084    1828.3487   -1322.6201    576.44901   -3052.6375 
26050000    264.59267   -4823.5638   -4294.3458   -4823.5638            0    11298.337    17.984847    22.623321    19.312055    7857.6305    11848.223    11175.009    10871.779    -695.2857   -1138.5556   -1045.4041   -2999.6074 
26051000    276.36324   -4756.3655   -4203.6049   -4756.3655            0    9577.4556    17.975051    22.648059    19.419631    7905.7321    6019.7178    11716.023    10996.626    1181.9064   -482.27824    2045.5407    -3099.353 
26052000    263.87297   -4807.3856   -4279.6071   -4807.3856            0    12750.643       18.095    22.264051    19.443531    7833.1769    12169.499    12501.851    13580.578    11.019258   -486.86392     38.08602   -2822.9883 
26053000    272.23584   -4849.4588   -4304.9535   -4849.4588            0    11291.694    17.989132    22.698402     19.19456    7837.6099    10567.743    12440.271    10867.068   -457.47307    725.36158    1006.8196   -3014.2734 
26054000     269.0082   -4768.7278   -4230.6781   -4768.7278            0    10396.175    17.975223    22.656339     19.40756    7903.7818    9830.1622    9506.9324    11851.431   -439.28162   -234.37677     -1690.12   -3032.3261 
26055000    279.59653   -4809.2421   -4250.0145   -4809.2421            0    10671.049     17.98414    22.719367    19.303318    7887.1093    10871.789    10382.733    10758.624    288.67085   -577.98435   -2223.7603   -3022.5728 
26056000    283.20089   -4796.6569   -4230.2201   -4796.6569            0    10828.481    17.897389    22.943958    19.258299    7908.1691    8982.6763    12027.783    11474.984    1689.8783   -326.12073    2259.6131   -2981.3439 
26057000    249.01726   -4803.2411   -4305.1758   -4803.2411            0    11475.571    17.842385    22.978383    19.137983    7846.3656    9219.2516    12757.893    12449.569   -373.76793    896.65052   -1323.0302   -2992.0125 
26058000    267.51159   -4807.5418   -4272.4856   -4807.5418            0    9380.1135    17.749558    22.997229    19.343284    7895.7475    9436.9178    9453.3768    9250.0459    882.16292   -502.90164    -66.83156   -3192.3526 
26059000    260.66654   -4801.7569   -4280.3916   -4801.7569            0    8684.2963    17.890187    22.958039    19.301072    7927.4063    8999.7645    7897.3116    9155.8127    979.52915   -776.93478     822.4684   -3276.3733 
26060000    263.48268   -4795.5196   -4268.5217   -4795.5196            0    10796.965    17.965078    22.866615    19.156007    7869.2977    10248.819    11432.918    10709.159    2013.5782    105.15128    2296.4967   -3029.4012 
26061000    279.21766    -4815.093   -4256.6232    -4815.093            0    7981.1944    17.986336    22.846835    19.323563    7940.6481    8858.2609    7253.0695    7832.2528   -137.62263   -902.99521    -81.00633   -3332.3513 
26062000    286.55832   -4796.0367   -4222.8846   -4796.0367            0    10160.673    17.836185    23.004501    19.245316    7896.5948    9841.6197    9941.5269    10698.873    1290.2847   -552.52842    1399.7186   -3052.7435 
26063000    279.61659   -4786.0414   -4226.7737   -4786.0414            0     9846.952    17.797973    23.152166    19.107298    7873.3846    8238.1158    10416.046    10886.695    193.72804    549.01961   -449.12667   -3096.0951 
26064000    274.92991   -4822.6905   -4272.7967   -4822.6905            0    10023.326    17.880394    22.948219    19.090751    7833.3781    7439.9972    10473.668    12156.313    -641.2426   -316.46902    543.19198   -3127.7141 
26065000    257.03489   -4802.5244   -4288.4228   -4802.5244            0    10413.422    17.853989    22.983288    19.150486     7858.275    11380.054    10375.017    9485.1951   -330.73497    417.52277    70.054697   -3094.9939 
26066000    267.52228   -4757.3576     -4222.28   -4757.3576            0    10273.743    17.666249    23.305948    19.215822    7911.7055    10735.333    8799.8785    11286.018    159.58385   -354.11144   -1422.4171   -3036.8533 
26067000    274.43058   -4833.0795   -4284.1844   -4833.0795            0    10655.053    17.787304    22.935227    19.288296     7868.773    11740.542    10603.509    9621.1092   -74.225659   -410.30333    507.37948    -3061.432 
26068000    271.45391   -4809.2833   -4266.3419   -4809.2833            0    11139.955     17.89356     22.76541    19.275922    7852.1283    11232.111    11310.824     10876.93   -528.28886   -876.82934   -784.55725   -2990.6473 
26069000    268.65663   -4837.8999   -4300.5534   -4837.8999            0    11373.333    17.837527    22.749649    19.328913    7843.6244    10558.885    12166.974    11394.139   -343.28595    725.91381    1024.7097   -2999.5441 
26070000     262.7349   -4789.5524   -4264.0502   -4789.5524            0    9077.8317    18.104899    22.888351    19.149647    7935.4466    8742.7218    8710.5075    9780.2658    253.94275   -328.55111    1861.0625   -3213.4695 
26071000    279.32293   -4817.1973    -4258.517   -4817.1973            0    11361.905     17.65969    22.828874    19.381403    7813.6288    11396.377    11640.332    11049.005   -814.12764    1097.8695   -1594.9981   -2963.7852 
26072000      278.415   -4762.4465   -4205.5821   -4762.4465            0    11410.173    17.957655    23.007316    19.088752    7886.6598    10085.176    10989.617    13155.727   -398.46174   -757.04354    181.83779   -2893.1972 
26073000    253.38709   -4812.9707   -4306.1652   -4812.9707            0    11150.006    17.671598    23.013423    19.322823     7858.282    11733.957    11362.367    10353.693    566.27121   -212.49804    251.51817    -3028.319 
26074000    258.37292   -4816.0031   -4299.2253   -4816.0031            0    12056.172    18.064399    22.780367    19.019008    7826.5809    10442.259    12103.024    13623.231   -1317.6624   -1901.4683   -3668.9123   -2923.1019 
26075000    254.42589   -4787.0911   -4278.2079   -4787.0911            0    10917.799    17.757613    22.925228    19.404148    7899.3769    10895.823    11564.059    10293.514    1823.2843    765.17032    480.18696   -3020.4305 
26076000    269.86125   -4799.0761   -4259.3202   -4799.0761            0    11824.447    17.857282    23.062567    19.071317    7854.2311     11588.55    10448.699    13436.092   -610.71639   -624.79679   -355.36848   -2904.8782 
26077000    261.01866   -4846.0911   -4324.0216   -4846.0911            0    9330.1343    17.748724    23.007365    19.272744    7870.0516    10849.144    8210.5673    8930.6918    -2475.887   -722.31541   -547.76555   -3253.1402 
26078000     272.9999   -4769.8941   -4223.8606   -4769.8941            0     9853.416    17.950877    23.023557    19.214368    7941.1642    10433.036    8298.2588    10828.953    2076.4854   -92.879156    738.06332   -3082.6997 
26079000    263.66633   -4808.7602   -4281.3949   -4808.7602            0    9548.2511     17.57189    23.071192    19.402806    7865.9841    11815.833    9077.0965    7751.8242    22.581254    995.17834   -632.11671   -3186.0452 
26080000    266.94042   -4759.2202   -4225.3064   -4759.2202            0    12987.641    17.815774    23.045322    19.031169    7813.6315    14337.022    12090.877    12535.024   -204.27291   -774.61537   -2277.3219   -2745.3153 
26081000    270.87141   -4797.1313    -4255.355   -4797.1313            0    9337.6846    17.846741    22.865147    19.406601    7919.2197    8822.0286    10176.795    9014.2307    1484.2175    1456.9508    463.52325   -3176.9113 
26082000    262.04438   -4832.3203   -4308.1992   -4832.3203            0    9475.0494    18.010688    22.942999    19.147911    7912.2841    10052.534    8384.7768    9987.8372   -304.57844   -245.84605   -1809.4515   -3214.8491 
26083000    277.85055   -4798.4846   -4242.7492   -4798.4846            0    11481.637    17.923255    22.659221    19.373984    7868.2981    12503.397     11743.15    10198.365    1453.8583   -68.381781    1059.6592   -2925.2191 
26084000    269.76081    -4772.035     -4232.48    -4772.035            0     9057.631    17.950214    22.927525    19.264206    7928.2605    9388.1627    9044.9063     8739.824   -990.76374    592.79706   -405.24486   -3185.1865 
26085000    265.89737   -4818.9542   -4287.1266   -4818.9542            0    11409.512    17.872568    22.728348     19.25623    7822.1495    11356.371    12268.584    10603.582    2868.6362    375.33248    311.05581    -2985.552 
26086000    264.75676   -4816.5209   -4286.9746   -4816.5209            0    10200.491    17.954453    22.831362    19.210086     7874.687    10556.151    9782.2312     10263.09    67.568661      629.639   -656.66862   -3115.5071 
26087000    259.30914   -4804.8877   -4286.2374   -4804.8877            0    10029.658    17.901562    23.007868     19.15967    7891.4235     11031.49    9546.9581    9510.5244    715.37746   -187.33454    1268.4505    -3131.941 
26088000    267.73526   -4803.2811   -4267.7775   -4803.2811            0    10004.246    17.712557     23.03627    19.332871    7888.4154    9926.6868    10686.788    9399.2647    856.65659    -1249.837    182.68397   -3116.8444 
26089000    268.59598   -4855.8062   -4318.5811   -4855.8062            0    10556.546    17.838927    23.076895    19.049649    7842.1128    11675.395    9822.9291    10171.313    115.14434   -1012.0471   -990.64516   -3111.2377 
26090000    264.07371   -4811.0211   -4282.8411   -4811.0211            0    10199.142     17.74125    23.142251    19.191151    7879.3582    9795.4901    11502.583    9299.3529    1481.8908    1227.7578    1967.0162   -3110.8336 
26091000    259.55304   -4808.8472    -4289.709   -4808.8472            0     9475.111    17.869896    22.985928    19.235206    7900.9791     10607.94     8833.779    8983.6138   -627.96161   -169.91785   -324.12956    -3197.914 
26092000    271.48872   -4822.1566   -4279.1456   -4822.1566            0    11452.106    18.012981    22.864321    19.089026     7861.903    10536.177    10925.924    12894.216     1613.084   -82.649665    363.34823   -2966.0725 
26093000    272.38902   -4802.2029   -4257.3912   -4802.2029            0    8994.1249    17.868414    22.862997    19.394369    7923.0944    9935.5949    8961.4998      8085.28   -979.18338   -320.78182   -919.44264   -3218.1182 
26094000    261.27511   -4794.1326   -4271.5501   -4794.1326            0    12796.743    17.957353    22.746727    19.119757    7809.8662    15024.615    12262.221    11103.391    837.09996   -741.76795    1446.4013   -2814.0154 
26095000    253.72652   -4816.0327   -4308.5483   -4816.0327            0     12888.52    17.805556    22.816039    19.245147    7818.3845    12274.667    13424.123     12966.77   -822.72598    476.43533   -439.70166    -2838.959 
26096000    270.77551   -4798.9852   -4257.4007   -4798.9852            0    11407.384    18.191626    22.611106    19.098257    7855.7393    9727.0948    11753.025    12742.034   -577.79197   -1707.7318   -1290.6087   -2950.4806 
26097000    269.54739   -4808.6185   -4269.4904   -4808.6185            0    11858.007    17.782095    22.637791    19.451241    7830.0456    12674.327    12191.242    10708.451    44.390856    917.01195   -914.56729   -2915.3869 
26098000    266.14787   -4816.9504   -4284.6218   -4816.9504            0    8013.0267    18.057988    22.883774    19.244718    7952.5898    6310.6955    8093.9188    9634.4659    745.15219   -835.67201    36.966123    -3355.268 
26099000    252.45731   -4785.8217   -4280.8759   -4785.8217            0    11929.321    17.902532    22.666392    19.344377    7849.6735    11636.316    12626.437    11525.211   -555.84065    181.98846    641.03925   -2915.2139 
26100000    260.85143   -4801.1832   -4279.4481   -4801.1832            0    12610.304    17.960013    22.753646     19.18983    7842.0352    13100.752     12598.27    12131.889    94.578162    1789.6596   -601.28344   -2837.2324 
26101000    251.56973   -4820.4383   -4317.2677   -4820.4383            0    10388.138    17.830564    22.941715    19.268044    7881.8576    8959.6213    11468.644    10736.149    -2236.381    583.17829   -198.27217   -3123.1636 
26102000    256.15642   -4786.1516   -4273.8071   -4786.1516            0    10308.213    17.827219    23.079909    19.200378    7900.0069    9176.4118    9118.6946    12629.531   -51.414169   -106.02625   -541.58901   -3086.1619 
26103000    277.58145   -4805.8845   -4250.6873   -4805.8845            0    11450.669    17.763707    22.872216    19.314222    7847.2789    11953.424    11152.484      11246.1    -1674.082    -1272.094    971.14153    -2940.221 
26104000    270.64093   -4789.2437   -4247.9284   -4789.2437            0    10925.948    17.825516    23.111607    19.064698    7854.2042    12718.621    10548.603    9510.6186    143.30126    495.48487    1448.4163   -2996.4102 
26105000    277.89398   -4779.1392   -4223.3169   -4779.1392            0    10321.957    17.634354    23.101403    19.411223    7907.7114    12664.321    8836.0784    9465.4717    1607.6148   -268.00375    391.04262   -3032.9283 
26106000    255.17617   -4814.3307   -4303.9468   -4814.3307            0    9505.3211    17.973185    23.171762    19.035211    7927.6015    9980.3143      9048.88    9486.7691     995.5604   -758.08307    641.31794   -3204.9802 
26107000    273.45906   -4814.9531   -4268.0012   -4814.9531            0     10449.04    17.847857    22.805066    19.344387    7873.5826    9509.4645    11768.805    10068.852    111.89406   -716.74908   -386.24472   -3068.1574 
26108000     270.2637    -4792.975   -4252.4142    -4792.975            0    11032.714    17.882489    22.837077    19.305477    7884.0438     11420.69    11630.833    10046.619    582.62912    327.69703    624.83177   -2983.8651 
26109000    266.48787   -4805.9725   -4272.9638   -4805.9725            0    12304.775    17.638398    23.169256    19.157123    7828.9135    13126.221    11667.784     12120.32   -400.35739   -1187.3212   -347.52172   -2868.0455 
26110000    267.30493   -4782.3791   -4247.7362   -4782.3791            0    10607.003    17.870127    23.156533    19.135837    7918.6041    10219.936    10160.363     11440.71    1805.8577    241.21072    410.45119   -3022.7894 
26111000    287.49758   -4795.0543   -4220.0236   -4795.0543            0    11343.986    17.499275    23.585513      19.0027    7842.9726    12006.298    9899.0946    12126.565    422.56484   -613.50472    455.05533   -2922.4791 
26112000    273.88104   -4810.6055   -4262.8096   -4810.6055            0    11235.309    17.830155    23.029308    19.121177    7851.4637    11706.358    10384.949    11614.621   -919.06624   -780.15257   -1280.8164   -2976.3043 
26113000    266.34839   -4824.9288   -4292.1991   -4824.9288            0    10720.029    17.779874    23.012563    19.225097    7866.1498    10842.323     11230.82    10086.943    549.08537     -103.652    711.08463   -3062.4004 
26114000    268.79636   -4804.8576   -4267.2317   -4804.8576            0    8166.3622    17.876318    22.967933    19.325671    7934.7742    8910.4826    8166.1205    7422.4836   -876.44779    899.08263   -1392.6733   -3322.2158 
26115000    258.37468    -4799.786   -4283.0047    -4799.786            0    8577.3233    17.855967    22.994276    19.296934    7923.0321    9007.1975    8938.8276    7785.9448    1020.7214    910.35768    826.82898    -3291.901 
26116000    251.90907   -4819.3754   -4315.5261   -4819.3754            0     9014.524    17.861989    22.945001     19.29207    7906.7268    8390.5606    9606.8027    9046.2085    1120.2815   -448.91264   -141.35085   -3276.0478 
26117000    255.86621   -4830.0021   -4318.2381   -4830.0021            0    9408.0483    18.099858    22.536166    19.428526     7924.923    8833.4325    10225.807    9164.9057   -493.43674    119.14508    904.28044   -3230.8853 
26118000    265.51851   -4833.0392   -4301.9694   -4833.0392            0    8771.9707    18.066085    22.761065    19.229884    7907.3922    10148.208    8808.4142    7359.2898    297.22054   -1154.2616    432.89993   -3290.3752 
26119000    267.69454   -4834.5483   -4299.1262   -4834.5483            0    9969.1845    17.981918     22.57512    19.385188    7869.3001    9940.9089    10370.059    9596.5855   -1538.2705   -282.19127     2418.004    -3155.006 
26120000    279.83745   -4818.0107   -4258.3013   -4818.0107            0    12425.978    18.009768    22.289365    19.403572     7789.104    11319.721    14252.837    11705.377   -1165.1227   -935.33562   -2518.1183   -2846.7587 
26121000    263.27308   -4818.3031   -4291.7245   -4818.3031            0    10763.072    18.109071    22.459819    19.383597    7883.8217    9795.1927    12387.123      10106.9   -1739.4612    1789.9097   -520.19221   -3054.2139 
26122000    273.68817   -4790.5073   -4243.0971   -4790.5073            0    10136.568    18.005693    22.618549    19.434479    7914.9374    10492.373    11219.842     8697.489    2100.9391    1584.2335     715.3155   -3073.0205 
26123000    269.32764   -4813.9833   -4275.2948   -4813.9833            0    12797.251    17.801726    22.973066    19.152832    7832.7463    12967.393    11436.858    13987.501   -1592.3101    1165.9271   -1183.6418   -2813.4319 
26124000    282.04193   -4816.2274   -4252.1086   -4816.2274            0    11346.623    17.887263    22.811773    19.194387    7832.0813    11302.319    11319.376    11418.175    786.99574    177.95933    245.71486   -2956.0648 
26125000    266.36089   -4781.1399   -4248.3852   -4781.1399            0    9876.9889    18.020725    22.823103    19.241301    7913.7325    9234.6969    11330.089    9066.1814    836.41567     2034.091   -1240.2031   -3108.4457 
26126000    268.71114   -4829.2506   -4291.7951   -4829.2506            0    9469.0362    18.033403    22.756829    19.257295    7902.8678    8299.3279    9396.6672    10711.113    1090.7542    1197.5417    2.8071764   -3200.4393 
26127000    255.73061   -4788.3937   -4276.9009   -4788.3937            0    10471.966    17.864868    22.728087    19.380256    7869.0484    12127.209    10675.082    8613.6063   -1590.3145    290.45184    1914.3691   -3075.1171 
26128000    260.69144   -4817.1243   -4295.7092   -4817.1243            0    8613.7459    17.921191    22.877633    19.301451    7913.4873    7809.8825    8896.2841    9135.0711    2475.7753    681.16457    1703.9293   -3301.5959 
26129000    276.51458   -4776.8906   -4223.8273   -4776.8906            0    9514.9585    17.795671    23.060969    19.284105    7913.9154    10856.587    8972.7258     8715.563   -628.41724   -277.50292    674.73877   -3125.6456 
26130000    256.88844   -4827.3245   -4313.5159   -4827.3245            0    9803.6629    17.782297    23.222875    19.050001    7866.8132    10188.579    8898.4101    10323.999   -1410.4698   -821.66428    522.29023   -3188.7475 
26131000    260.90327   -4835.3641   -4313.5253   -4835.3641            0    10254.468    17.672035    23.182182    19.156289    7847.8777    11722.472    9433.2599    9607.6737   -1463.3758    1455.9342    57.979804   -3139.8682 
26132000    274.39916   -4792.5587   -4243.7265   -4792.5587            0    9290.7392    17.865892    23.357491    18.974859    7918.2543    8184.7741    8534.5477    11152.896   -821.14396   -397.19976    587.66905   -3170.8355 
26133000    273.15619   -4791.2592   -4244.9131   -4791.2592            0     12323.15    17.680659    23.044946    19.286064    7858.1036    12343.429    10951.687    13674.336    462.99256    198.09666    852.47736   -2832.6507 
26134000     253.2295   -4807.3507   -4300.8604   -4807.3507            0    10026.988    17.872016    23.091316      19.1423    7899.8044    9050.3099     10536.86    10493.796   -556.50255    311.01685   -207.23101   -3145.6456 
26135000     252.7264   -4781.3083   -4275.8242   -4781.3083            0    14001.406     17.64036    23.029273    19.133029    7772.6912    15343.885    13810.075    12850.257   -290.87318   -335.09399   -523.28827   -2688.6707 
26136000     279.9714   -4810.4898   -4250.5124   -4810.4898            0    11559.876    17.794738    22.924618    19.236477    7847.2819    9246.5571    12989.441    12443.629   -345.74007    1518.3291    -252.3583   -2927.5476 
26137000    268.81832   -4825.9597   -4288.2899   -4825.9597            0    11818.542    17.930909    22.842521    19.140329     7839.633    13819.752    10414.527    11221.346    1378.8495   -254.07125    819.22091   -2937.0405 
26138000    274.58936   -4828.2157   -4279.0031   -4828.2157            0    9316.6446    17.905192    22.881786    19.224353    7876.2706     9166.442    9477.0399    9306.4521   -110.00056   -558.11922     1178.698    -3208.825 
26139000    262.46245   -4820.8851   -4295.9278   -4820.8851            0    11161.829    17.700312    22.978942    19.257038    7832.5006    12514.848    11208.952    9761.6867    47.907421   -686.27633    2293.7434   -3020.9234 
26140000    263.91578   -4790.5318   -4262.6676   -4790.5318            0    8849.3635    17.929592    22.855593    19.316366    7915.6819    9655.3801    8247.0095    8645.7009    593.27928   -1368.0283   -776.90142   -3241.0785 
26141000    267.16696   -4813.1097   -4278.7428   -4813.1097            0    10332.923    17.928412    22.826265    19.184746    7851.1403    11279.387    9409.7031    10309.679    538.92803    128.18147   -1104.5812   -3095.6145 
26142000    266.92785   -4803.3733   -4269.4846   -4803.3733            0    12073.712    17.697494    22.972397     19.29024    7842.5213    12707.472    11629.266    11884.396   -705.51556    189.92915    964.29377   -2888.5523 
26143000    264.09427   -4810.8245   -4282.6033   -4810.8245            0    9945.6165     17.89705    22.972476    19.189687    7889.6392    9592.5389    10500.858    9743.4532   -608.88774    287.25006    1650.9059   -3138.2379 
26144000    264.60618   -4801.0008   -4271.7558   -4801.0008            0    10471.335    17.841901    22.909113    19.290352    7884.7797    11060.721    11772.324    8580.9582    646.78672    187.99398   -157.95563   -3067.6421 
26145000    271.86193    -4825.778   -4282.0206    -4825.778            0    8431.4108    17.998112    22.870297    19.213374    7908.6509    8900.3409    7240.9006    9152.9908   -58.084277   -815.26471    21.926899   -3309.5454 
26146000    262.89633   -4806.2577   -4280.4326   -4806.2577            0    9350.0346    17.735369    22.966972    19.264505     7846.967     10358.18    10050.492     7641.431   -1209.5754    256.32605   -1329.0408    -3210.415 
26147000    258.34542   -4824.4781   -4307.7554   -4824.4781            0    9811.3849    17.822121    22.963681    19.201466    7858.4207    12823.502    9622.0214    6988.6318    152.76113   -215.11546    547.44579   -3183.3019 
26148000     265.4661    -4814.675     -4283.71    -4814.675            0    10835.995    17.765827    22.886163    19.270594    7835.2623    11498.495    10051.524    10957.965    -45.97285    1069.1334   -924.79978   -3045.4888 
26149000    286.10691   -4820.7482    -4248.499   -4820.7482            0    8702.2922    17.951366    22.900123    19.263826    7919.1375    9262.1714    8593.9739    8250.7312    102.69303   -820.52731   -483.64141   -3243.4496 
26150000    269.00345    -4830.283   -4292.2428    -4830.283            0    10979.142     17.80483    23.016579    19.160828    7852.2277     9000.522    11223.108    12713.796    959.03003   -1241.4573   -1577.6254   -3034.9479 
26151000    280.21961   -4780.9633   -4220.4895   -4780.9633            0    9994.3286    17.727331    22.975445    19.372971    7890.4815    10156.594    10893.057    8933.3351    307.75191    220.11189   -2011.7966   -3070.3963 
26152000     270.9909    -4799.376   -4257.3607    -4799.376            0     13193.78    17.794474    23.049157    19.013128    7798.1893     12721.13    13289.703    13570.506    1491.6499    1724.3619    647.15598   -2756.8507 
26153000    266.83133    -4798.158   -4264.4623    -4798.158            0    9429.6332    17.672622    23.183281    19.313428    7912.8924    10809.945    7878.8751    9600.0798    685.94115   -1399.9539    211.22885   -3176.2693 
26154000    268.93167   -4813.9697   -4276.0732   -4813.9697            0    12255.513    17.799706    23.042401    19.074462    7823.3519    12853.286    11528.372    12384.882   -1142.8938   -116.53396    -1296.142   -2877.7735 
26155000    268.71631   -4826.7355   -4289.2697   -4826.7355            0    9801.6954    17.704451    23.095122    19.206351    7853.2165    9724.2487    10898.199    8782.6389    1338.6724   -534.69764    1370.6502   -3166.6707 
26156000    264.21004   -4837.9193   -4309.4666   -4837.9193            0    10129.799    17.774573    23.422494    18.940008    7885.1957    9536.2514    9194.0455    11659.099   -1776.2814    303.01249   -1195.0616   -3144.5651 
26157000    259.17184   -4802.9785   -4284.6028   -4802.9785            0    9467.0903    17.776883    23.154215    19.212372    7908.0002     9838.597    9784.8074    8777.8664   -345.10583   -477.80523    919.87518   -3192.7626 
26158000    261.99342   -4822.6729   -4298.6537   -4822.6729            0    12177.235    17.751057     23.19533     18.95406    7804.1755    12796.191    10707.638    13027.876    485.37882    -1325.466    2691.0446   -2912.6908 
26159000    266.90849   -4825.8772   -4292.0272   -4825.8772            0    10777.511    17.576696    23.349744    19.085713    7832.9934    11854.804    10015.706    10462.025    692.50945    1096.1877   -282.55304   -3060.8456 
26160000    275.22458   -4810.9524   -4260.4692   -4810.9524            0    9384.0319     17.63936    23.336472    19.107754    7865.5243    8975.9699    8838.8904    10337.236   -670.21397    574.91202   -688.32591   -3184.0213 
26161000    243.23403   -4792.5285   -4306.0304   -4792.5285            0    8610.3021    17.712137    23.266045     19.21468     7918.204    8755.9665    9071.1906    8003.7491   -1316.4326    888.74466   -1447.7987   -3311.7223 
26162000    266.42098   -4792.8623   -4259.9874   -4792.8623            0    12546.336     17.69899    23.297949      18.8944    7791.1092    12809.795    11572.159    13257.053    11.073395   -504.13874   -591.49283   -2834.4058 
26163000    272.04197   -4818.3063   -4274.1888   -4818.3063            0    11450.054    17.554873    23.216742    19.219563    7833.2588      13135.3    10791.346    10423.517    1084.6423    1219.9268    675.78493   -2966.1341 
26164000    266.85664   -4815.2311   -4281.4849   -4815.2311            0    11959.256    17.775548    23.206526    18.954295    7818.8118    12067.722     10993.09    12816.957    1850.6077   -1403.8291    -254.0264   -2917.7787 
26165000    261.68082   -4818.1803   -4294.7863   -4818.1803            0    10523.085    17.648191    23.012094    19.395695    7877.0148    10813.697    10437.423    10318.134    1411.0677    418.52662   -375.37257   -3085.9134 
26166000    272.59781   -4767.0988   -4221.8695   -4767.0988            0    10711.273    17.960057    23.088211    19.003124    7879.9412     10118.38    9525.1065    12490.332   -1050.6286   -1183.9745    198.92829   -2990.9208 
26167000    268.04644   -4811.2695   -4275.1435   -4811.2695            0    11490.066    17.733686    22.793637    19.369578    7829.4779    10994.392    11520.419    11955.386    469.01647   -760.68166    519.11846   -2963.1515 
26168000    255.11835   -4771.0148   -4260.7465   -4771.0148            0    11212.316    18.062653    22.807774    19.191933    7906.4795    9860.8678    11195.285    12580.794   -722.81931   -35.970641    -3168.879    -2967.878 
26169000    269.89605   -4778.9049   -4239.0794   -4778.9049            0    9213.5979    17.883966    22.782745     19.41575     7910.867    9268.2255    10825.361    7547.2072    895.14277   -640.64791   -515.49069   -3176.0893 
26170000    268.51743   -4794.1157   -4257.0476   -4794.1157            0    11072.375    17.929183    22.951982      19.1137    7865.4841    9417.3461    11436.401    12363.378    427.78449     -431.558    164.35171   -2986.9353 
26171000    268.53432   -4802.6258    -4265.524   -4802.6258            0     8740.161    17.757165      23.1008    19.337254    7932.2331    8389.6398    8536.7871     9294.056    29.282968    8.5210488     388.7234   -3254.4318 
26172000    266.13134   -4826.4155     -4294.12   -4826.4155            0    10719.058    17.780469    22.931113    19.225986    7838.9331    10899.717    11237.927     10019.53   -416.99187    1073.0509     649.7046   -3068.6873 
26173000    263.13153   -4830.1657   -4303.8702   -4830.1657            0    10584.267    17.762825    23.110439    19.188383    7876.9592    11146.901    11121.187    9484.7128   -935.41357    969.61085    339.34122   -3087.9774 
26174000    251.86863   -4795.0531   -4291.2847   -4795.0531            0    9334.7709    17.782565    23.125048      19.1871    7890.1701    8940.8333    8826.6407    10236.839    1049.3829    362.44177    2730.3685   -3217.1323 
26175000    258.32123   -4799.9155   -4283.2412   -4799.9155            0    11149.458    17.827898    23.002266    19.151033    7853.4948    12895.066    10290.623    10262.686   -430.42424    -1353.263   -9.3201526   -3006.2361 
26176000    263.22647   -4808.0125    -4281.527   -4808.0125            0    9955.1505    17.837506    22.779261    19.314736    7848.0641    12226.706    8584.7496    9053.9957   -1016.8977   -920.50294    -2699.713   -3142.1007 
26177000    264.24119    -4782.505     -4253.99    -4782.505            0    9191.9358    18.048987    22.577386    19.384256    7899.0638    8963.5648    10652.088    7960.1552   -1772.6309   -170.95043   -667.15917   -3195.0813 
26178000    270.38486   -4796.1213   -4255.3181   -4796.1213            0    11279.213    17.949821    22.695352    19.267468    7849.1334    8521.0801     11913.19    13403.368   -1258.7256    769.28607    1969.1132    -2964.169 
26179000    269.57237   -4798.6678   -4259.4897   -4798.6678            0    10014.226    17.813911    22.792572    19.395815    7875.1827    9551.2326    9818.4656    10672.979   -504.37106    61.246116   -676.98945   -3109.3413 
26180000    284.35563   -4824.8963     -4256.15   -4824.8963            0    11748.137      17.7848    23.003691    19.128122    7825.6217    11178.297    10948.769    13117.347    -1189.947   -919.26134    797.10753   -2915.3507 
26181000    262.11655   -4807.6098   -4283.3443   -4807.6098            0     11112.23     17.41137    23.304927    19.298433    7830.7389    12694.738    10023.955    10617.997   -628.12768    95.445183   -805.79636    -3014.291 
26182000    265.59974   -4787.7086   -4256.4763   -4787.7086            0    11715.429    17.841871    23.017108    19.097309     7842.659    12253.845     11421.72    11470.722     1878.959    1455.5018    1909.4274   -2916.4991 
26183000    256.51873   -4821.2747   -4308.2056   -4821.2747            0    9795.0837    17.694028    23.074709    19.323717    7889.5754    11232.976    9293.4571    8858.8178       217.79    905.67644   -1246.9476   -3181.1699 
26184000    254.06452   -4812.6347   -4304.4743   -4812.6347            0    11324.107    17.732717    23.160126    19.089549    7839.9242    13260.329    10345.358    10366.634   -1998.0939    -320.9837    54.860117    -3009.707 
26185000     285.8255   -4810.9027   -4239.2164   -4810.9027            0    10632.658    17.675772    22.995044    19.321803    7853.4463    11481.156    9033.9659    11382.852   -475.23263   -950.00285   -2512.6129   -3021.4107 
26186000    278.63782   -4818.1123   -4260.8023   -4818.1123            0    9638.5165    17.800965    23.187117    19.109208     7887.384    7646.3088     9372.992    11896.249    1054.2147    400.56094    1686.4897   -3152.0894 
26187000    253.61262   -4799.9243   -4292.6677   -4799.9243            0    10444.635    17.861543     23.15244    19.040382    7873.9276    11515.003    9510.0069    10308.896   -1531.0641   -446.51817   -1881.0548   -3093.2773 
26188000    265.07535   -4772.8502   -4242.6668   -4772.8502            0    12478.807    17.767566    22.944121    19.164866    7812.7715    12422.131    12124.765    12889.524    1342.5982    510.47831    911.13445   -2820.8158 
26189000    252.01904   -4818.3819   -4314.3126   -4818.3819            0    8686.4418    17.881996    22.966755    19.321444     7935.151    7103.3297    9574.9934    9381.0021    -704.0357    1315.6744   -2067.3431   -3309.0651 
26190000    277.28339   -4773.5546   -4218.9535   -4773.5546            0    10945.774    18.112571    22.544117    19.210921    7844.4325    9934.8997    11950.632    10951.789    2074.4904    112.32355    3130.2026   -2966.7242 
26191000    277.62263   -4809.1451   -4253.8656   -4809.1451            0    9738.9428    17.897304    22.728995    19.307534    7854.0682    11277.561    8548.2384    9391.0294   -554.31367   -665.36127   -943.69574   -3138.3327 
26192000    268.85502   -4798.0892   -4260.3459   -4798.0892            0    9261.6022    18.042482    22.628788    19.358726    7903.7708    8915.2067    8937.2559    9932.3439    400.46809   -722.70657    859.68866    -3192.776 
26193000    268.58906   -4820.0131   -4282.8018   -4820.0131            0    10722.652    18.010038    22.509905    19.473553    7894.6609    11361.042    12031.507    8775.4074   -186.37045    251.44226    883.72919   -3048.2435 
26194000    281.45847   -4816.9592   -4254.0075   -4816.9592            0    12432.238    17.980374    22.642765    19.158429    7799.8823    12478.567    13754.196     11063.95    -1251.595    1397.0902    1231.0941   -2839.7997 
26195000    268.46757   -4798.8229   -4261.8546   -4798.8229            0    10863.694    17.710001    22.901122    19.340699    7844.1795    12789.929     10155.03    9646.1221      207.727   -791.45448   -205.53891   -3019.0555 
26196000    257.67988   -4801.7276    -4286.336   -4801.7276            0    8829.6778    18.026473      23.0092    19.084175    7915.6331    8182.0311    7382.5767    10924.426    275.97888   -1083.5986   -657.68874   -3267.0257 
26197000    264.51641   -4791.4596   -4262.3941   -4791.4596            0    12112.352    17.898674    22.766183    19.221046    7832.2778    11993.766    11652.956    12690.336   -802.96789   -201.28416    888.06446   -2878.8517 
26198000    274.86954   -4827.7412   -4277.9682   -4827.7412            0    9294.1152    17.836472    23.142761    19.199271     7925.175    9322.3264    8958.4374    9601.5818   -209.41268   -242.09101    137.11958   -3203.7492 
26199000    272.25657   -4799.4403   -4254.8935   -4799.4403            0    8719.4445    17.812782    23.196946    19.176262    7923.6728    9263.7308    8058.1705    8836.4322   -2530.5028   -704.04558    84.061983   -3247.2863 
26200000    265.63583   -4813.2142   -4281.9097   -4813.2142            0    9899.1204    17.660006    23.189399    19.210425    7867.1478    11176.059     9111.912      9409.39   -134.57822   -1168.3266    672.65911   -3146.1413 
26201000    266.08579   -4808.8707   -4276.6663   -4808.8707            0     10312.18     17.79908    23.168077    19.137957     7891.928    10856.699    8629.5301    11450.311    127.35148    638.87277   -260.28717    -3089.779 
26202000    281.43449   -4847.0725   -4284.1687   -4847.0725            0      9787.16    17.880039    22.999324    19.164603    7881.0368    8362.8328    9325.3867    11673.261    293.62414   -292.14122    117.56869   -3159.2635 
26203000    252.87479   -4805.5602   -4299.7794   -4805.5602            0    10960.843    17.598327    23.248057    19.133439    7828.0047    13716.095    11198.172    7968.2618    1455.9434   -1213.3814     247.0959   -3048.4521 
26204000    260.97633   -4832.8158   -4310.8309   -4832.8158            0    9865.1566    17.859351    23.111925     19.05783    7866.3857    9755.3691    9814.8993    10025.202   -885.70916    286.76346    159.28829   -3179.0689 
26205000    267.70398   -4837.8237   -4302.3826   -4837.8237            0    11561.611    17.614979    23.042909    19.296305    7832.3769    9422.6365     13478.78    11783.415    1329.9221    1931.7749    415.84421   -2981.7324 
26206000    262.14035   -4819.2642   -4294.9511   -4819.2642            0    10912.742    17.896571    23.093412    19.049448    7873.0013    9181.2888    9456.0594    14100.876    154.83147   -818.52115   -1861.6069   -3041.9539 
26207000    268.51087   -4811.6208   -4274.5658   -4811.6208            0    8912.0699    17.703542    23.324127    19.139457    7903.0581    11210.895     7693.077    7832.2379   -882.26295   -36.148914   -1649.1442   -3247.3785 
26208000    261.04535   -4775.2701   -4253.1471   -4775.2701            0    9839.1087    17.863026    23.094224    19.138663    7895.3249    6340.3016    10924.404    12252.621    422.87935    571.85589    594.81816   -3120.2208 
26209000    274.71663   -4818.9046   -4269.4374   -4818.9046            0    8440.3049     17.84638    22.979424    19.332983    7928.4471    7635.3749    10124.636    7560.9041   -556.52954    620.41561   -1814.7484   -3293.4995 
26210000    267.92348    -4790.938   -4255.0579    -4790.938            0    8677.3079    17.893742    23.056487    19.205538     7923.568    9274.2253    8981.3726    7776.3258    2348.1539    788.09599    1437.2247   -3252.3333 
26211000    256.28742    -4774.205   -4261.5985    -4774.205            0    11878.334    17.909212     22.77766    19.225719    7842.7461    10524.756    12235.743    12874.503    1549.9645    332.11087    2067.0309   -2902.9736 
26212000    258.15783   -4786.1146    -4269.767   -4786.1146            0    12289.746    17.949193    22.574081    19.309806    7824.0735    13164.841    11925.455    11778.941    -108.7397     -1117.43   -433.17268   -2867.4323 
26213000    255.69304   -4789.5094   -4278.0918   -4789.5094            0    10145.443    18.118859    22.805849    19.170142    7921.4088     8900.647    9886.7018     11648.98    1140.4566    676.74106      979.878   -3106.0332 
26214000    261.53418   -4810.6809   -4287.5802   -4810.6809            0    8958.9246    17.913993    22.953923    19.247316    7914.4271    8210.6154    9448.4334    9217.7251   -153.36845   -830.67855    -1503.862   -3253.5071 
26215000    260.49181   -4849.3245   -4328.3087   -4849.3245            0    10892.193    17.791588    22.904078    19.227993    7835.4054     10715.34    10988.341    10972.897    1273.7006   -1255.0745    3022.2517   -3083.6431 
26216000     258.6103   -4796.9756   -4279.7231   -4796.9756            0    10640.757    17.848946    23.061802    19.094231    7859.7364    11601.957    9044.9535    11275.361    1035.5813   -656.83353    697.58372   -3060.0136 
26217000    250.43923    -4815.562   -4314.6526    -4815.562            0    11253.404    17.702775    23.149556     19.17664    7858.8055    12877.624    9194.2004    11688.387   -203.42469    9.3250823    217.20861   -3024.8705 
26218000    267.42803   -4783.5928   -4248.7037   -4783.5928            0    10012.907    17.680221    23.399106    19.145245    7920.4138    10037.549    9956.6803    10044.491   -608.96722    340.36175    320.42788   -3092.1018 
26219000    259.59871     -4799.74   -4280.5106     -4799.74            0    10546.206    17.717921    23.171557    19.210667    7886.9744    12046.021    9064.9813    10527.616    152.91114   -1364.4859    1744.9206   -3067.4497 
26220000    243.40818   -4790.5072   -4303.6608   -4790.5072            0    12056.419    17.802692    22.999413    19.116447    7827.2567    11135.611    13157.121    11876.525    1351.1352    224.13914    -335.9213   -2927.3903 
26221000    251.84947   -4784.7943   -4281.0642   -4784.7943            0    11839.372    17.688074    23.065427    19.206788    7836.0427    13381.981      10349.5    11786.633   -1713.3963    789.17112   -1972.3659   -2928.0532 
26222000    250.46184   -4814.7097   -4313.7551   -4814.7097            0    10402.503    17.834164     23.06129    19.178049    7887.5255    10695.738    11421.993    9089.7782     913.9067    1067.3584    146.82249   -3117.1399 
26223000    258.38769   -4820.7459   -4303.9385   -4820.7459            0    10206.986    17.761245    22.916466    19.290196    7851.5913    9075.1071     10326.03     11219.82   -1537.2599   -702.51978   -748.61655   -3135.1631 
26224000    270.54079   -4808.7369   -4267.6219   -4808.7369            0    10250.744     18.05035     22.97701    19.019109     7888.044    9468.5217    9995.0776    11288.633   -701.63114   -337.92006    2242.3717   -3088.3863 
26225000    259.30531   -4814.0462   -4295.4035   -4814.0462            0     9629.526    17.766738    22.838171    19.404716    7873.6539    10877.397    8117.8406    9893.3407    223.24963   -656.69465    2273.3473   -3189.6531 
26226000    258.22317    -4801.483   -4285.0047    -4801.483            0    9255.2823    18.067015    22.758905    19.247233    7914.1828    7857.9359    9924.5266    9983.3842    137.45245   -931.19727    1883.1847   -3216.7578 
26227000    283.04354   -4770.9858   -4204.8637   -4770.9858            0    13034.285     17.93641    22.707127    19.193659     7817.277    12198.435    12391.828     14512.59    1103.1394    1698.9808    521.64343   -2718.8645 
26228000    277.41164   -4802.3571   -4247.4995   -4802.3571            0    10980.161    17.861562    22.758088    19.341775    7862.3346    11217.535    10118.969    11603.978   -53.963737    684.01034    -270.1666   -2988.4694 
26229000    264.86029   -4779.9181   -4250.1648   -4779.9181            0    10123.602    18.029546    22.748351    19.216799    7881.6247    9718.9906    10866.024    9785.7909    915.10636   -321.96718    1270.6878   -3086.5032 
26230000    281.69891   -4795.6095   -4232.1769   -4795.6095            0    9198.3608    17.883717    22.836126    19.417829    7930.1407    11190.829    9098.6909    7305.5631    195.58311   -294.57586    -577.6179   -3168.3592 
26231000    279.32928   -4798.2173   -4239.5242   -4798.2173            0     9565.507    17.966572    22.691121    19.301846    7869.0089    7683.8085     11074.19     9938.522    401.87155   -97.179314   -70.658349    -3141.773 
26232000    277.35733   -4831.6978   -4276.9489   -4831.6978            0    10456.343    17.896356    22.858339    19.277538    7886.0739    12012.201    8641.8184    10715.011   -116.29789   -84.410222    938.22018   -3074.3617 
26233000    261.74717   -4811.5933   -4288.0666   -4811.5933            0    11403.999    17.747361    23.120175    19.175367    7868.0764     11576.58     10770.23    11865.187    561.80466    767.09345   -891.76607   -2979.4825 
26234000    276.79124   -4801.1009   -4247.4843   -4801.1009            0     9921.519    17.805709    23.194876    19.075444    7878.1813    9009.1607    9531.5128    11223.884   -1780.9068   -736.10335    -1847.381   -3107.5494 
26235000    270.09752   -4836.3111   -4296.0827   -4836.3111            0    10864.986    17.697811    23.100413     19.14895    7828.6032    9793.7681    11878.667    10922.524    -268.2752   -817.70879    1172.9526   -3055.6039 
26236000    265.78359   -4816.4418   -4284.8418   -4816.4418            0    10035.509    17.781206    23.179468    19.173911    7902.6982    11702.255    9482.4779    8921.7931    383.01891   -225.49558    937.01862   -3128.2218 
26237000     261.6997   -4801.5057    -4278.074   -4801.5057            0    10154.208    17.651671    23.386571    19.048753    7863.5548    12587.689     8209.057     9665.879    1830.1215   -766.33755    1488.1693   -3113.5703 
26238000     267.1066   -4785.2133   -4250.9671   -4785.2133            0    12268.306    17.791504    23.086405    19.071172    7833.3287    12359.895    12636.832    11808.192   -536.21489   -136.77867   -734.21387   -2849.4227 
26239000    265.01199   -4804.2653   -4274.2086   -4804.2653            0    11472.822     17.81165     22.83844    19.328408    7862.6087    11175.098    10796.699    12446.668   -161.72425    405.17599     -482.813   -2958.6421 
26240000     265.1373   -4786.7953   -4256.4879   -4786.7953            0    11127.684    18.018927    22.666791    19.224893    7852.0474    10584.547    11981.632    10816.872    447.20918   -1145.1411    799.53432   -2982.2117 
26241000    250.88924   -4797.0934   -4295.2839   -4797.0934            0    10738.042    17.812543    22.775479    19.412961    7875.6288    12711.878     11130.15    8372.0996   -76.118242    338.44891   -2397.8019   -3061.9341 
26242000    261.41416   -4802.7422   -4279.8816   -4802.7422            0    10766.761    18.012453    22.657728    19.292063    7873.5013    10271.984    11643.022    10385.277   -1156.8973    683.57984   -626.20695   -3043.5674 
26243000    278.69521   -4804.5104   -4247.0855   -4804.5104            0    10931.863    18.206336    22.414216    19.371689    7905.2132    10861.054    11193.235    10741.301   -57.006309   -661.29809   -374.14831   -2986.7573 
26244000     272.1929   -4798.2317   -4253.8123   -4798.2317            0    12291.197    17.940518    22.618486    19.359924    7856.0126    14557.231    11507.734    10808.624   -101.29297   -2110.9749   -742.54232   -2845.5867 
26245000    277.68077   -4791.1903   -4235.7945   -4791.1903            0    9752.7118    18.043109    22.692669    19.297537     7901.305    7369.0208     11255.01    10634.104   -1221.7406   -380.08072   -1590.9333   -3111.9658 
26246000    269.65265   -4825.2643   -4285.9257   -4825.2643            0    10426.795    18.016298     22.63005     19.34598    7887.5441    9029.0855    11799.062    10452.239    1197.6821    643.03483    -430.6743   -3086.5133 
26247000    271.59839   -4822.2786   -4279.0483   -4822.2786            0    10904.366    17.904947     22.72588    19.358195    7876.9593    9737.7123    11443.333    11532.053    196.99478    -604.2881   -212.37934   -3026.3833 
26248000    277.24127   -4785.0585   -4230.5418   -4785.0585            0    13982.412    17.932986      22.8079    19.056622    7794.4206    11648.144    14644.471     15654.62   -570.89297    136.95193   -1072.1953   -2641.1103 
26249000    255.17556   -4803.8432   -4293.4605   -4803.8432            0    9749.8477    17.870801    22.824736      19.3575     7895.853    10939.542    10890.171    7419.8293   -35.869735    481.96297    339.81153   -3170.7371 
26250000    267.54004   -4774.0031     -4238.89   -4774.0031            0    10476.985    17.915765    22.830989     19.26613    7880.5144    9712.2878    10127.613    11591.054    -258.4055    -385.4979    257.33664   -3034.7783 
Loop time of 490.631 on 64 procs for 250000 steps with 1008 atoms

Performance: 88.050 ns/day, 0.273 hours/ns, 509.548 timesteps/s
99.2% CPU use with 64 MPI tasks x 1 OpenMP threads

MPI task timing breakdown:
Section |  min time  |  avg time  |  max time  |%varavg| %total
---------------------------------------------------------------
Pair    | 29.149     | 33.295     | 37.052     |  35.6 |  6.79
Bond    | 0.2765     | 0.28485    | 0.30439    |   1.0 |  0.06
Kspace  | 224.79     | 231.89     | 244.44     |  31.3 | 47.26
Neigh   | 4.6302     | 5.0897     | 6.0806     |  17.5 |  1.04
Comm    | 91.813     | 104.12     | 110.97     |  44.8 | 21.22
Output  | 0.95679    | 0.96563    | 0.97402    |   0.7 |  0.20
Modify  | 104.82     | 108.67     | 110.28     |  16.2 | 22.15
Other   |            | 6.317      |            |       |  1.29

Nlocal:        15.7500 ave          20 max          11 min
Histogram: 1 2 6 3 12 18 14 6 1 1
Nghost:        2512.67 ave        2537 max        2496 min
Histogram: 4 8 16 8 6 7 6 5 3 1
Neighs:        5305.02 ave        6674 max        3718 min
Histogram: 1 3 5 3 12 18 13 5 3 1

Total # of neighbors = 339521
Ave neighs/atom = 336.82639
Ave special neighs/atom = 2.0000000
Neighbor list builds = 9956
Dangerous builds = 0

unfix		3
unfix		2
unfix		1

write_data	data.final.${pid}
write_data	data.final.0
System init for write_data ...
PPPM initialization ...
  extracting TIP4P info from pair style
  using 12-bit tables for long-range coulomb (../kspace.cpp:340)
  G vector (1/distance) = 0.37971891
  grid = 24 27 32
  stencil order = 5
  estimated absolute RMS force accuracy = 0.0023968499
  estimated relative force accuracy = 7.2180422e-06
  using double precision FFTW3
  3d grid and FFT values/proc = 3825 384
Last active /omp style is kspace_style pppm/tip4p/omp
WARNING: Not all mixed pair coeffs generated from mixing. Use write_data with 'pair ij' option to store all pair coeffs. (../write_data.cpp:312)

write_restart   restart.lmp.${pid}
write_restart   restart.lmp.0
System init for write_restart ...
PPPM initialization ...
  extracting TIP4P info from pair style
  using 12-bit tables for long-range coulomb (../kspace.cpp:340)
  G vector (1/distance) = 0.37971891
  grid = 24 27 32
  stencil order = 5
  estimated absolute RMS force accuracy = 0.0023968499
  estimated relative force accuracy = 7.2180422e-06
  using double precision FFTW3
  3d grid and FFT values/proc = 3825 384
Last active /omp style is kspace_style pppm/tip4p/omp
Total wall time: 0:08:14
