LAMMPS (30 Jul 2021)
  using 1 OpenMP thread(s) per MPI task
package omp 0
using multi-threaded neighbor list subroutines
echo both

include		in.partitions
variable        pid world 0
include		in.temp
variable        temperature equal 251.64
variable	tempDamp equal 100.0
include		in.pressure
variable        pressure equal 5625.0
variable        pressureDamp equal 1000.0 # This is 1 ps
include		in.seed
variable        seed world 745823

units		real
atom_style	full
read_restart    restart.lmp.${pid}
read_restart    restart.lmp.0
Reading restart file ...
  restart file = 30 Jul 2021, LAMMPS = 30 Jul 2021
  restoring atom style full from restart
  triclinic box = (-3.1801776 -0.21184745 -0.024832411) to (14.790177 22.791846 19.254830) with tilt (0.16821704 -6.2493370 0.17395524)
  4 by 4 by 4 MPI processor grid
  restoring pair style lj/cut/tip4p/long/omp from restart
  restoring bond style harmonic/omp from restart
  restoring angle style harmonic/omp from restart
  1008 atoms
  672 bonds
  336 angles
Finding 1-2 1-3 1-4 neighbors ...
  special bond factors lj:    0        0        0       
  special bond factors coul:  0        0        0       
     2 = max # of 1-2 neighbors
     1 = max # of 1-3 neighbors
     1 = max # of 1-4 neighbors
     2 = max # of special neighbors
  special bonds CPU = 1.898 seconds
  read_restart CPU = 2.464 seconds

include 	in.setup
variable	out_freq equal 1000
variable	out_freq2 equal 10000
variable	out_freq3 equal 1000

timestep	2.0

neigh_modify    delay 7 every 1

include		in.tip4p
# This is TIP4P/Ice

# create groups ###
group ox type 2
336 atoms in group ox
group hy type 1
672 atoms in group hy

# set charges - beside manually ###
set group ox charge -1.1794
Setting atom values ...
  336 settings made for charge
set group hy charge 0.5897
Setting atom values ...
  672 settings made for charge

# ### TIP3P Potential Parameters ###
pair_style lj/cut/tip4p/long/omp 2 1 1 1 0.1577 8.5
pair_coeff 1 1*2 0.000 0.000
pair_coeff 2 2 0.21084 3.1668
bond_style  harmonic
bond_coeff  1 450 0.9572
angle_style harmonic
angle_coeff 1 55 104.52
kspace_style pppm/tip4p/omp 1.0e-5
pair_modify tail yes

thermo          ${out_freq}
thermo          1000
thermo_style    custom step temp pe etotal epair emol press lx ly lz vol pxx pyy pzz pxy pxz pyz enthalpy

restart 	${out_freq3} restart.lmp.${pid} restart2.lmp.${pid}
restart 	1000 restart.lmp.${pid} restart2.lmp.${pid}
restart 	1000 restart.lmp.0 restart2.lmp.${pid}
restart 	1000 restart.lmp.0 restart2.lmp.0


include         in.dump
dump            myDump all atom ${out_freq2} dump.water.${pid}
dump            myDump all atom 10000 dump.water.${pid}
dump            myDump all atom 10000 dump.water.0
dump            myDump2 all dcd ${out_freq2} dump.dcd
dump            myDump2 all dcd 10000 dump.dcd
dump_modify     myDump append yes
dump_modify     myDump2 append yes


variable natoms 	equal  "count(all)"                        # NUMBER ATOMS
variable H      	equal  "enthalpy/v_natoms"                 # ENTHALPY-per-atom
variable Vol      	equal  "vol/v_natoms"                 # volume-per-atom
fix AVG all 		ave/time ${out_freq} 1 ${out_freq} v_Vol v_H file vol_enthalpy.dat
fix AVG all 		ave/time 1000 1 ${out_freq} v_Vol v_H file vol_enthalpy.dat
fix AVG all 		ave/time 1000 1 1000 v_Vol v_H file vol_enthalpy.dat



fix 		1 all shake 1e-6 200 0 b 1 a 1
       0 = # of size 2 clusters
       0 = # of size 3 clusters
       0 = # of size 4 clusters
     336 = # of frozen angles
  find clusters CPU = 0.018 seconds
fix             2 all nph tri ${pressure} ${pressure} ${pressureDamp}
fix             2 all nph tri 5625 ${pressure} ${pressureDamp}
fix             2 all nph tri 5625 5625 ${pressureDamp}
fix             2 all nph tri 5625 5625 1000
fix             3 all temp/csvr ${temperature} ${temperature} ${tempDamp} ${seed}
fix             3 all temp/csvr 251.64 ${temperature} ${tempDamp} ${seed}
fix             3 all temp/csvr 251.64 251.64 ${tempDamp} ${seed}
fix             3 all temp/csvr 251.64 251.64 100 ${seed}
fix             3 all temp/csvr 251.64 251.64 100 745823


run             250000
PPPM initialization ...
  extracting TIP4P info from pair style
  using 12-bit tables for long-range coulomb (../kspace.cpp:340)
  G vector (1/distance) = 0.38291741
  grid = 24 30 32
  stencil order = 5
  estimated absolute RMS force accuracy = 0.0019983113
  estimated relative force accuracy = 6.0178552e-06
  using double precision FFTW3
  3d grid and FFT values/proc = 4080 384
Last active /omp style is kspace_style pppm/tip4p/omp
Neighbor list info ...
  update every 1 steps, delay 7 steps, check yes
  max neighbors/atom: 2000, page size: 100000
  master list distance cutoff = 10.8154
  ghost atom cutoff = 10.8154
  binsize = 5.4077, bins = 5 5 4
  1 neighbor lists, perpetual/occasional/extra = 1 0 0
  (1) pair lj/cut/tip4p/long/omp, perpetual
      attributes: half, newton on, omp
      pair build: half/bin/newton/tri/omp
      stencil: half/bin/3d/tri
      bin: standard
Per MPI rank memory allocation (min/avg/max) = 9.340 | 9.346 | 9.350 Mbytes
Step Temp PotEng TotEng E_pair E_mol Press Lx Ly Lz Volume Pxx Pyy Pzz Pxy Pxz Pyz Enthalpy 
 5750000    270.90008   -4840.6198   -4298.7862   -4840.6198            0    6711.5693    17.970354    23.003694    19.279663    7969.9143    5900.2131    7061.6985    7172.7961   -2220.2481   -249.08635   -297.73195   -3518.6802 
 5751000    253.69338   -4834.8749   -4327.4568   -4834.8749            0    5124.9873    18.006978    23.138453    19.353575     8063.737    5187.4717    4576.6568    5610.8334   -364.55879    548.76153    1574.5491   -3724.7515 
 5752000    261.03993   -4854.4772   -4332.3651   -4854.4772            0    5408.0506    18.161492    22.942825    19.280633    8033.7756    4119.1879    5322.5675    6782.3965   -546.89579    304.55363    32.455751   -3698.7342 
 5753000    246.46275   -4829.1328   -4336.1769   -4829.1328            0    5429.4966    18.166681    22.736936    19.550968    8075.6187    6308.3075    4520.7646    5459.4177     990.4505   -1160.8395    1748.3907     -3696.72 
 5754000    239.27872   -4851.5358   -4372.9488   -4851.5358            0    6565.6245    18.150187    22.531835    19.564911    8001.2075     6396.553     8734.186    4566.1343   -941.78519   -74.796964    1081.3234     -3606.81 
 5755000    245.91462   -4817.5504   -4325.6907   -4817.5504            0    7317.6016    18.260936    22.582761    19.462401    8025.9508    7184.8875    7386.8469    7381.0705    2.9090595    -1314.573    1954.9732   -3469.1636 
 5756000    260.40158   -4836.4937   -4315.6583   -4836.4937            0    4930.1822    18.076936    22.828259    19.532311    8060.3007      6670.64    4489.8508    3630.0559     569.3605   -2050.6853   -730.17472   -3736.1094 
 5757000    246.35197   -4828.4662   -4335.7318   -4828.4662            0    5365.7434    18.113095    22.875507     19.42881    8050.2542    4044.5979    7045.2391    5007.3931    2400.6608    1756.0136    2767.0248   -3705.7683 
 5758000    242.50975   -4800.7737   -4315.7242   -4800.7737            0    7394.1702    18.232976    22.738023    19.337436    8016.9494    7176.1617     6573.505    8432.8438   -817.07048   -541.35022    -949.0969   -3451.2053 
 5759000    265.48401   -4831.0644   -4300.0636   -4831.0644            0     7335.097    18.134077    22.680891    19.581426    8053.7821    7119.1516    7359.6835    7526.4559   -714.44153    393.20745    2211.7092   -3438.5113 
 5760000    252.63573   -4823.6307    -4318.328   -4823.6307            0    5696.6332    18.289366    22.631747    19.477182    8062.0013    5765.1891     5840.982    5483.7284   -874.66448   -1104.8817   -335.26038   -3648.5406 
 5761000    260.93372   -4857.1931   -4335.2935   -4857.1931            0    5702.4519    18.176397     22.62233    19.479858    8009.9704     4992.911    7211.3805    4903.0644   -220.13018   -395.25752     3716.274    -3669.149 
 5762000    270.80405   -4834.4695   -4292.8279   -4834.4695            0     5968.751    18.185492    22.731841     19.51339    8066.6346    6531.0899    7757.9644    3617.1987    546.96196    1558.0375    2368.7492   -3590.6426 
 5763000    266.39967   -4821.5778   -4288.7455   -4821.5778            0    6533.6299    18.281619    22.634053    19.345661    8004.9855    5738.1355    6878.1658    6984.5885   -1578.1711    395.18082   -309.36511   -3525.9802 
 5764000    252.56815   -4832.9336   -4327.7661   -4832.9336            0    6031.1114    18.113179    22.745284    19.443422    8010.4839    4418.6865    6739.9097     6934.738    203.14601    666.35824    1260.8876   -3623.1834 
 5765000    257.21121   -4845.0188   -4330.5646   -4845.0188            0    5587.7402    18.089929     22.84615    19.472755    8047.8022    4918.5689    5930.1826    5914.4691    810.93373   -565.73087   -48.574274   -3674.7374 
 5766000     255.0607   -4830.5709    -4320.418   -4830.5709            0     5937.651    18.018452    22.958479    19.383629    8018.5469    5661.3792    5990.4065    6161.1674   -314.91306   -1029.4176   -581.08771   -3626.0556 
 5767000     251.6843   -4835.7746   -4332.3749   -4835.7746            0    4119.1286    18.215436    23.047673    19.254791     8083.612    3508.9027    3296.7436    5551.7395   -802.84379   -471.32336   -409.86922    -3846.766 
 5768000    251.52488   -4855.0784   -4351.9976   -4855.0784            0    5608.4484    18.136032    22.955948    19.392409    8073.6379    4828.3577     6228.215    5768.7725    -933.8854    756.67241    1950.2566   -3691.6268 
 5769000    248.54897   -4816.1883   -4319.0596   -4816.1883            0    6412.2815    18.007918    23.011454    19.309089    8001.4622    6093.5863    6191.2947    6951.9635    1487.9182   -178.05519   -409.69935   -3570.7905 
 5770000    249.77671   -4834.6965   -4335.1122   -4834.6965            0    4751.8258    18.037001    23.084286    19.406119    8080.1507    5435.6938    3973.4003    4846.3833   -1300.2576   -1365.6535   -44.757213   -3775.1537 
 5771000    249.83116   -4852.2007   -4352.5075   -4852.2007            0    7413.2673    18.097172    22.958968    19.212185     7982.517    8205.4181    6526.2633    7508.1207   -1441.6662    41.315796   -314.22481   -3489.4785 
 5772000    249.70869   -4828.4712   -4329.0229   -4828.4712            0    6529.8324    18.054025    22.907107    19.373244    8012.1048    6285.6563    7462.3656    5841.4752   -230.50136   -98.001177    1072.1211   -3566.0229 
 5773000    237.47669   -4835.6617    -4360.679   -4835.6617            0    6344.0554    18.108457    22.889826    19.329573    8012.0968    5157.9805    6366.5203    7507.6653   -268.86248   -1041.2172    864.70623   -3619.3875 
 5774000    265.75473   -4812.1914   -4280.6491   -4812.1914            0    6594.2804    17.991403     23.00408    19.421844    8038.2288    7689.0017    7245.0874    4848.7521   -707.44354   -406.00299    1609.0094   -3507.6061 
 5775000    255.65083   -4815.2683   -4303.9351   -4815.2683            0    6031.3391    18.088684    22.985721    19.360466    8049.7223    4332.1294    6341.6608     7420.227   -575.00312    623.20345   -1781.7783   -3595.8743 
 5776000    260.10002   -4828.9014   -4308.6692   -4828.9014            0    4938.8758    18.065557    22.925549    19.398593    8034.1757    4220.8522    4944.1867    5651.5885     -281.944   -10.787752    612.76213   -3729.9801 
 5777000    264.44267   -4831.2394   -4302.3214   -4831.2394            0    4266.4242    18.142578    22.895684    19.524997    8110.4247    4795.1176    4823.8484    3180.3067   -1804.8008    559.60322    785.44634   -3797.6792 
 5778000    236.33204   -4811.9628   -4339.2695   -4811.9628            0    6632.4187    18.166623    22.820793     19.37705    8033.2741    6501.9009    7884.9152    5510.4398   -1407.9053   -14.593937    427.25926   -3562.2348 
 5779000    265.53404   -4860.5185   -4329.4176   -4860.5185            0    6047.0246    18.082586    22.752196    19.468164    8009.5639    6342.5308    6735.0859     5063.457   -899.35832   -560.33807    870.78376    -3623.057 
 5780000    259.77491   -4822.2306   -4302.6487   -4822.2306            0    5695.0145     18.18061    22.551287    19.644597    8054.2092    4503.0599    7684.6448    4897.3388   -1265.0126    1057.9393    993.67299   -3633.6988 
 5781000    250.04077   -4801.6852   -4301.5728   -4801.6852            0    5167.0949    18.224981    22.801583    19.498674    8102.8381    4511.3941    6124.3643    4865.5262   -34.340678   -142.78728    142.17348    -3690.969 
 5782000    260.19546   -4830.7558   -4310.3327   -4830.7558            0    6417.4144    18.160178    22.600874     19.50338    8004.8874    5208.8287    7653.8619    6389.5527   -958.98343    531.29122   -87.676466   -3561.1441 
 5783000    255.69729   -4839.2512   -4327.8251   -4839.2512            0    6205.9439    18.192186    22.582503    19.577087    8042.7583    5009.3969    7069.5027     6538.932   -179.81628    321.70114    1647.5823   -3599.8965 
 5784000    248.13447   -4859.5629   -4363.2633   -4859.5629            0    3793.1067    18.302711      22.6788    19.473445    8083.1061    4672.1121     4119.877    2587.3309   -2129.3366   -994.18352     920.5528   -3916.1175 
 5785000    250.08329    -4857.674   -4357.4765    -4857.674            0    6024.6047    18.145302    22.749259    19.445025    8026.7539    4136.7357    6920.6841    7016.3943    362.85567    -801.2229    1210.6563   -3652.2244 
 5786000      245.383   -4850.9012   -4360.1048   -4850.9012            0    6489.6632    18.114464     22.95093    19.268224    8010.6448    6464.6569    5608.8036     7395.529     1375.648   -938.09468    1862.4622   -3601.9367 
 5787000    257.41211   -4844.9395   -4330.0834   -4844.9395            0    6238.2861     17.99998    23.063432    19.354634     8034.908    5773.7111    7166.1581    5774.9891   -883.58251    539.73241     228.1495   -3599.0755 
 5788000    252.63444    -4837.929   -4332.6289    -4837.929            0    5906.5746    18.071037    23.196319    19.222171    8057.5796    5885.4842    4568.0542    7266.1856   -2342.1862   -1203.0226   -1836.0666   -3638.5383 
 5789000    254.81198   -4840.5968   -4330.9413   -4840.5968            0    5559.8584    17.974487    23.034289    19.306349    7993.3983    5676.7795    5191.8188     5810.977    669.92074   -1487.1708   -613.31905    -3682.798 
 5790000    254.66928   -4838.1172   -4328.7472   -4838.1172            0    6549.7865    18.006392    23.253934    19.222937    8049.0177    7350.0768    4601.7074    7697.5754    647.23883    878.80129     391.9458   -3559.8895 
 5791000    257.57176    -4837.162   -4321.9866    -4837.162            0    4174.1674    17.847447    23.276235    19.406311    8061.7964    3643.3201     3603.749    5275.4331    1218.9342   -50.551977    189.40438   -3831.2171 
 5792000    250.20258   -4824.5804   -4324.1443   -4824.5804            0    4812.4291    17.853758    23.456293    19.190569    8036.6837    4246.8944    3673.3253    6517.0675     439.2292     475.9923   -906.81167   -3760.0949 
 5793000    250.51403   -4809.4316   -4308.3726   -4809.4316            0    6056.9579    17.960627    23.142093     19.33564     8036.791    8544.2524    4219.2493    5407.3722     -1010.92   -1058.0771    86.488963   -3598.4465 
 5794000     246.0463   -4847.1681   -4355.0451   -4847.1681            0     5973.045    17.911591    23.023047    19.377359    7990.8235    6949.9236    6187.3963     4781.815    420.39482    401.32366    363.07819   -3658.9586 
 5795000    249.77818   -4866.8405   -4367.2533   -4866.8405            0    4609.7347    18.073258    23.090935     19.39269    8093.1208    3505.0869    5356.5225    4967.5948   -17.404194     22.03508   -1148.6247   -3823.1669 
 5796000    252.22237   -4865.0623   -4360.5864   -4865.0623            0    5057.8703    18.048035    23.021903    19.392757    8057.6927     5830.621    5773.2995    3569.6904    908.96368    682.35681   -254.47956     -3766.22 
 5797000     249.4714   -4827.5624   -4328.5887   -4827.5624            0    6381.7486    17.966469    23.240464    19.148834     7995.578    5485.4659    5967.8177    7691.9622   -407.62709    1263.1751   -370.88327   -3584.4302 
 5798000    250.10671   -4852.1314   -4351.8871   -4852.1314            0      5539.41    17.913411    23.233129     19.29864    8031.7969    5258.8378    5425.0547    5934.3376   -266.52305   -48.084165    1131.0515   -3703.0254 
 5799000    251.29144   -4805.6339     -4303.02   -4805.6339            0    7583.8379    17.919652    22.974368    19.463076    8012.8058    7631.3717    8498.1332    6622.0088   -1405.3902    585.03898   -819.78925   -3416.7837 
 5800000    251.21112   -4852.0633     -4349.61   -4852.0633            0    6384.1473    18.065304     22.86483    19.406494    8016.0485    7493.9133    6092.7063    5565.8223    -1908.258    505.15238    620.75283   -3603.2659 
 5801000    270.12899   -4816.4915   -4276.2002   -4816.4915            0    3954.1688    18.169691    22.977148    19.446614    8118.7213    3766.5753    3839.9548    4255.9762   -292.44895   -300.06283    766.47528   -3808.0139 
 5802000    248.22508   -4841.9392   -4345.4583   -4841.9392            0    6441.1434    18.106914    22.698993    19.405721    7975.9202    4328.2039    7869.0802    7126.1461    -860.9885   -921.91094    160.43441   -3596.2206 
 5803000    239.36498      -4853.8   -4375.0404      -4853.8            0    5986.4207    18.144538     22.81968    19.464869    8059.4789    4469.5039    7732.2168    5757.5415   -1138.8594    1279.0804   -1021.1818   -3671.4011 
 5804000    260.29853    -4816.259   -4295.6297    -4816.259            0    5280.5306    18.123226    22.847497    19.466591    8060.5382    5538.1915    5998.1241    4305.2761   -35.239874   -555.89662    849.68726   -3674.8787 
 5805000    262.24481   -4830.5272   -4306.0052   -4830.5272            0    7492.3278    18.115113    22.924539    19.208008    7976.7136    8820.4859    6241.0373    7415.4603   -658.97693   -382.28925    1477.4033   -3434.4063 
 5806000    265.50665   -4816.9955   -4285.9493   -4816.9955            0    6784.6918    17.926427    22.943491     19.53698     8035.459    6757.4386     6599.099    6997.5377   -771.74615    827.70175    381.21361   -3490.8586 
 5807000    240.64368   -4853.1756   -4371.8585   -4853.1756            0    5046.9386    18.173837    23.119785    19.223554     8077.261    3389.5274    5872.2868    5879.0015    -896.2831      85.2821   -1352.0724   -3777.3364 
 5808000     245.4639   -4818.6847   -4327.7266   -4818.6847            0    6277.9952    17.919669    23.129157    19.410303    8044.9266    7635.8339    5333.0801    5865.0717   -376.93152    593.58204   -1646.1695   -3591.1482 
 5809000    249.10538   -4832.3996   -4334.1581   -4832.3996            0    4294.6817     18.16213    23.078582    19.294164    8087.2683    4453.4791    3523.5632    4907.0029   -40.307422    736.89649    -1663.008   -3827.6239 
 5810000    249.11273   -4831.8482   -4333.5919   -4831.8482            0    6574.8343    17.977151    22.896009    19.510849    8030.7631    8725.9222    5922.1608      5076.42    430.88404   -1009.3268    901.53474   -3563.5444 
 5811000    261.17399   -4836.2474   -4313.8671   -4836.2474            0    4580.0107    18.251366    22.958342    19.327492    8098.6272     4701.624    4624.1617    4414.2464    1673.9071      -1002.6     1412.594   -3772.9213 
 5812000    276.75338   -4827.3879    -4273.847   -4827.3879            0    5328.0438    17.989731    22.799324    19.617827    8046.3246    6454.6409    5426.0963     4103.394    645.56951   -47.515503    1084.6206    -3648.615 
 5813000    268.78819    -4842.911   -4305.3015    -4842.911            0    4598.8965    18.295094    22.843768      19.3174    8073.2993    2760.6994     4711.801    6324.1892   -937.98822    447.22649   -641.86525   -3763.8238 
 5814000     247.1323   -4825.7515   -4331.4564   -4825.7515            0    6120.5811    17.826101     23.00129    19.627322    8047.6599    7357.5185    6418.3874    4585.8374    314.56219    109.74241     68.86001   -3613.1029 
 5815000    247.78293   -4852.0438   -4356.4474   -4852.0438            0    5315.2763    17.947165    23.297263    19.165916    8013.6496     4506.832    5418.2966    6020.7003   -954.77475   -172.05995   -50.084713   -3735.2465 
 5816000    241.35604   -4787.8183   -4305.0764   -4787.8183            0    4427.0669     17.90086    23.348773    19.379949     8100.104    3335.6052    4363.5331    5582.0623    7.2997312    441.67922   -379.21215   -3782.0994 
 5817000    259.15856   -4857.3669   -4339.0178   -4857.3669            0    6187.5815    17.873158    23.116354    19.269879    7961.5864    5618.3462    6126.5912     6817.807   -1312.0663   -454.65432   -461.69617    -3620.568 
 5818000      256.985   -4836.1822   -4322.1804   -4836.1822            0    4002.3868    17.944406    23.307344    19.275951    8061.9055    6751.6811    3291.8868    1963.5924    50.938116   -1031.5722    1545.0617   -3851.6013 
 5819000    248.37349   -4864.1921   -4367.4144   -4864.1921            0    4337.4147    17.935573    23.214664    19.391751    8074.1105    4754.1458    2862.5852    5395.5129   -619.84322    -48.55444   -69.557537   -3856.6724 
 5820000    243.82539   -4809.4625   -4321.7816   -4809.4625            0    4198.5239    18.184534    23.118725    19.331217    8126.9061    4027.6906    5027.0983    3540.7829   -293.78995    620.30987   -1416.0054   -3824.1617 
 5821000    251.20262    -4825.077   -4322.6407    -4825.077            0     5935.121     17.96602    22.985788    19.349683    7990.7057    5808.4257    5707.2622    6289.6752    31.877414   -658.72981    394.27539    -3630.984 
 5822000    268.91152   -4810.5468   -4272.6905   -4810.5468            0    4974.5679     17.89023    23.143764    19.534541    8088.2234    5864.8802    4148.3476    4910.4758   -614.46299   -468.13192   -1973.8439   -3685.8982 
 5823000     248.1274   -4861.2761   -4364.9907   -4861.2761            0    6381.6358    17.973385    23.048737    19.309573    7999.2573    5789.3098    5443.8465     7911.751    1318.0883   -108.03633    785.61592   -3620.5029 
 5824000    243.51362   -4856.7076   -4369.6503   -4856.7076            0    6011.9369    18.046849    23.142269    19.232418    8032.3239    6566.7041    5835.9762    5633.1304   -1448.4717    845.79398   -599.62801   -3665.3927 
 5825000    242.51788   -4825.3538   -4340.2881   -4825.3538            0    6358.0991    17.904136    22.959231     19.53026    8028.2101    7050.6889    6452.4625     5571.146   -1578.5008    533.29196    425.63048   -3595.8615 
 5826000    258.08745   -4842.2998    -4326.093   -4842.2998            0    3480.4145    18.141993    23.147389    19.279957    8096.4205    4349.2459     2460.609    3631.3887    297.09283   -49.075018    476.09909   -3915.1327 
 5827000    238.88181   -4852.9475   -4375.1544   -4852.9475            0    6858.6956    17.844679    22.940899    19.496338     7981.274    9428.5493    6240.0856    4907.4518    324.28396   -808.91277   -581.24109   -3576.8112 
 5828000    257.61192   -4788.5428   -4273.2872   -4788.5428            0    8150.9533    18.039241    23.038935    19.206741    7982.4157    7896.9356    8722.3412    7833.5832   -302.07467    105.70776    -1486.595   -3324.3911 
 5829000    244.98922   -4836.1809   -4346.1722   -4836.1809            0    4842.3739    17.975014    22.962543    19.530907    8061.4214    6335.3535    4739.3874    3452.3809   -1281.6805    236.31324   -480.24904   -3776.8661 
 5830000    261.48556   -4827.4297   -4304.4262   -4827.4297            0    5869.5358     18.21747    22.733816    19.451151    8055.7448    5668.8636    6662.1708    5277.5731    634.58736    656.02805    1107.5002   -3614.8451 
 5831000    236.97208   -4795.6804    -4321.707   -4795.6804            0    6159.7493    18.135724    22.751792    19.527061    8057.2603    6917.0902    6049.0561    5513.1016    2879.6095     203.7526   -296.07574   -3597.8941 
 5832000    246.95253   -4854.8458   -4360.9102   -4854.8458            0    4944.0409    18.221013     22.70905    19.461127    8052.6619    3585.7939    5234.0751    6012.2535    1698.9992   -760.54155    544.47636   -3780.2829 
 5833000    244.19608   -4795.7319   -4307.3096   -4795.7319            0    5617.6932    18.188724    22.429123    19.705683     8039.074    4732.4402    7354.1658    4766.4737    836.03385    11.189593   -257.30637    -3648.682 
 5834000    260.02731    -4812.788   -4292.7013    -4812.788            0    5772.8448    18.380883    22.773395    19.174265    8026.2535    6407.5457    4769.2293    6141.7595    122.82468   -909.30061    -615.2396   -3616.9628 
 5835000    243.85609   -4836.9699   -4349.2275   -4836.9699            0    6242.6747    18.055118    22.709186    19.504186    7997.0481    7575.6442    6029.3466    5123.0333    1823.9862    403.16512   -1914.7488   -3621.1522 
 5836000    248.69231   -4842.8599   -4345.4445   -4842.8599            0    5477.7389    18.203626    22.877147    19.319926    8045.7262    5022.5135    4717.1258    6693.5774   -769.65453   -1112.5088   0.90619263    -3702.694 
 5837000    247.92861   -4835.0627   -4339.1748   -4835.0627            0    5396.9313     17.87562    22.947559    19.608882    8043.5997    6838.6647    4988.7509    4363.3784     113.5467   -306.76621    1772.2848   -3706.0735 
 5838000    243.69302   -4830.3277   -4342.9115   -4830.3277            0    4417.7636    18.234313    22.964707    19.434078    8137.9354    4175.7576    3948.0973     5129.436   -703.64836   -11.890133   -1638.2176   -3818.5961 
 5839000    231.76525   -4842.9217   -4379.3626   -4842.9217            0    6060.8209    17.954116    22.990719    19.419315    8015.8666    5061.5334    6171.9834    6948.9459    -254.4584    255.82003    3156.1707   -3670.8333 
 5840000    254.09325   -4850.4305   -4342.2126   -4850.4305            0    6072.6981    18.092118    23.006417    19.319823     8041.583    4885.9097    6702.3949    6629.7898   -504.10062    134.06712   -1222.1362   -3630.0172 
 5841000    252.25001   -4850.4759   -4345.9447   -4850.4759            0    5376.7854    17.951478    22.948358    19.537661    8048.6752    7307.2231    3546.1022    5277.0309   -1369.6022   -1122.3639    145.45661   -3714.8087 
 5842000    256.79598   -4853.6495   -4340.0258   -4853.6495            0    6499.6486    18.097237    23.037069    19.231806    8017.8801    5538.1922    6451.0274    7509.7262    505.95812    2315.7947    1006.6606   -3580.0053 
 5843000    251.67704   -4813.0621    -4309.677   -4813.0621            0    5334.6746    18.062243    22.971849    19.415437    8055.9138    5559.3012    5751.4758    4693.2469    265.07893    1032.6969   -176.78836   -3682.9208 
 5844000    254.52448   -4844.4884    -4335.408   -4844.4884            0    6401.8092    18.021764    22.997261    19.329757    8011.2411    7640.6326    6356.9042    5207.8908    480.76297    867.12596    782.17866   -3587.4479 
 5845000    239.17059   -4833.7164   -4355.3456   -4833.7164            0    7518.8739    17.782401    23.121979     19.41613    7983.2195    8385.9704    6394.6153    7776.0361   -908.52145   -36.460735    68.038102   -3479.9452 
 5846000    254.52764   -4826.8244   -4317.7376   -4826.8244            0    4967.2142    18.065068    23.041575    19.424767    8085.5128    4593.7576    5281.1794    5026.7055   -517.07164    406.20319   -721.18339   -3732.0092 
 5847000    247.69799   -4824.0537   -4328.6271   -4824.0537            0    6267.8171    18.197485    22.915466    19.274787    8037.6605      5136.68     6713.658    6953.1135    562.29632    1459.6229    1958.5217   -3593.9071 
 5848000    254.79873   -4841.5968   -4331.9678   -4841.5968            0    5175.9071    17.980145    23.014805    19.496473    8067.8261    7177.4386    4429.5115    3920.7712    303.37418    -493.3787    1022.9668   -3722.9656 
 5849000    250.17362   -4836.6553   -4336.2772   -4836.6553            0    5740.0165    18.104967     22.90701    19.288474    7999.5214    6435.9926    6513.6407    4270.4161    641.00479    553.21341    -631.5098   -3666.6192 
 5850000    256.80103    -4837.416   -4323.7822    -4837.416            0    6173.6222    17.864516    22.783224    19.643494    7995.1234    6987.1358    6303.3346    5230.3963    752.92928   -798.10576    923.41947   -3603.9337 
 5851000    241.22388   -4867.0557   -4384.5782   -4867.0557            0    4315.2133    18.150416    22.863761    19.513518    8097.8518    5778.8291    4510.3757    2656.4352   -642.52683    87.436451   -1114.9007   -3874.9564 
 5852000    251.92207   -4838.3909   -4334.5157   -4838.3909            0    6110.1826    18.165338    22.803962    19.406112    8038.8201    6021.6865    6166.2537    6142.6076    251.62596     133.3925    -528.9884   -3618.1704 
 5853000    259.39871   -4835.7233   -4316.8938   -4835.7233            0    6692.4193     18.03139    22.811141    19.565014     8047.415    7256.4175    6714.0877    6106.7527   -337.32349    665.26398    1076.9164   -3531.4495 
 5854000    259.79195   -4830.2704   -4310.6544   -4830.2704            0    4360.1572    18.124172    23.056121    19.329613    8077.3255     4349.366    4014.0925    4717.0132   -96.073361   -671.17316    1453.1454     -3797.03 
 5855000    263.55005   -4804.1521   -4277.0195   -4804.1521            0     8031.025    18.012175    22.698637     19.58684    8008.1152    7096.3255    9050.1935    7946.5561   -41.099205   -1563.7849    178.58716   -3339.0749 
 5856000    248.04844   -4865.5373   -4369.4098   -4865.5373            0     4516.152    18.319267    22.811017    19.387346    8101.6058    2279.5116     5718.506    5550.4384    582.21557   -22.546443    37.746631   -3835.8102 
 5857000    253.43447   -4831.3382    -4324.438   -4831.3382            0    6902.9821    18.043072    22.834294    19.436484     8007.847    7230.4879    6825.9355    6652.5228    1469.3367    1225.4336     1735.511   -3518.2647 
 5858000    247.19977   -4813.1938   -4318.7637   -4813.1938            0    3570.8263    18.327226    22.880844    19.400429    8135.4227    4239.9513    3707.3388    2765.1888   -663.14386   -858.46285    14.119651   -3895.0966 
 5859000    257.52082   -4849.7643   -4334.6909   -4849.7643            0    7226.3278     17.97914     22.84985    19.413275    7975.3746    8155.6432    6470.0672    7053.2729    1131.4153    -1105.078   -675.42001   -3494.1775 
 5860000    252.79328   -4819.6051   -4313.9874   -4819.6051            0    5905.0108    18.163689    22.971581     19.39999    8094.6196    4943.1275    5595.4843    7176.4206    1037.2679    5.9080473    276.55436   -3616.8906 
 5861000    260.36304   -4810.9036   -4290.1454   -4810.9036            0    7457.5918    18.101479    22.814435    19.336148    7985.3461    6535.3786    7657.5542    8179.8426    791.20534    216.96931   -422.59649   -3421.6485 
 5862000    245.98871   -4819.9725   -4327.9647   -4819.9725            0    5420.7897    18.241065     22.84823    19.353182     8065.943    3765.9559    5695.6651     6800.748    1653.3369    505.73712    127.53034   -3690.2982 
 5863000    255.18465   -4853.5277   -4343.1269   -4853.5277            0    8207.7219    17.948356    22.753037    19.469194    7950.8217    10611.447    7806.4258    6205.2929     1233.402   -1044.1102   -55.690322    -3391.404 
 5864000    252.79684   -4813.4412   -4307.8163   -4813.4412            0     5733.053    18.291443    22.898763    19.215811    8048.5697    5092.8221    5795.3426    6310.9942    725.79257   -511.38179   -204.40028   -3634.8698 
 5865000    255.36109   -4849.8878    -4339.134   -4849.8878            0    3279.7544    17.949889    22.973589     19.62987    8094.8361    2703.5197    4388.7469    2746.9966    674.86624     289.0657    1458.2887    -3951.943 
 5866000    247.76845   -4862.0808   -4366.5133   -4862.0808            0    6743.0476    18.130224    23.007655    19.186114    8003.1794    6707.0121    6851.5097    6670.6209   -1712.3908    464.51193   -1429.5999   -3579.4772 
 5867000    246.91723   -4850.7658   -4356.9008   -4850.7658            0    6913.3279    17.888252    23.029619    19.365776    7977.9179    6303.7162    7035.9591    7400.3085    525.21726   -3.7412322    476.63355   -3552.5369 
 5868000    240.01819   -4828.8692   -4348.8032   -4828.8692            0    6739.7944    18.081532    23.037618    19.238077    8013.7255    6848.5112    6505.1785    6865.6936   -1284.9116   -245.53797   -719.17593   -3561.1101 
 5869000    262.74361   -4877.5302   -4352.0105   -4877.5302            0    4759.5789    17.881624    23.059425    19.441159    8016.3669    6905.7868    2981.4844    4391.4657     1445.774    44.804811    92.463615   -3795.5658 
 5870000     253.7493   -4849.0297   -4341.4997   -4849.0297            0    4742.4104     18.12027    23.048613    19.309197    8064.4299    4670.0657     4213.937    5343.2284    253.71143   -283.67806     306.9667    -3783.738 
 5871000    241.34306   -4835.7637   -4353.0477   -4835.7637            0    7145.3252    17.873953     22.93848    19.468641    7982.1682    8593.5189    6943.1131    5899.3436    1464.6381    516.93863    327.57452    -3521.248 
 5872000    261.32948   -4825.2168   -4302.5255   -4825.2168            0    6444.7163    18.083227    22.943383    19.415322    8055.2309    6948.3396     7055.538    5330.2715    1404.2889   -558.55433   -1456.4723   -3545.4178 
 5873000    244.74437   -4826.6094   -4337.0904   -4826.6094            0    4372.5843    18.061464    22.956372    19.455463    8066.7344    4313.6472     3673.868    5130.2378     241.1094   -172.54464   -626.38241   -3822.6776 
 5874000     260.2663   -4832.3402   -4311.7754   -4832.3402            0    7505.5192    17.859265    23.042441     19.34336    7960.2001    8568.4073    7966.2178    5981.9325   -283.14233    1534.5476   -878.46831   -3440.4496 
 5875000    262.06531   -4828.5112   -4304.3482   -4828.5112            0    5314.2711    18.149849    23.154513    19.179343    8060.1365    4533.8302    5828.4218    5580.5612    1111.2449    350.59872    2399.2604   -3679.6619 
 5876000    252.36684   -4852.8564   -4348.0915   -4852.8564            0    5185.7578    18.010885    23.067597    19.331757    8031.7231    5069.3105    4669.9162    5818.0466    706.02265   -1178.0142    85.003886   -3740.6607 
 5877000    255.59594   -4858.5742   -4347.3507   -4858.5742            0    5081.1505    18.074471    23.068111    19.256239    8028.7715    3193.7825    5296.6895    6752.9795    697.17675   -892.62436    790.28018   -3752.3917 
 5878000    255.87567   -4858.7309   -4346.9479   -4858.7309            0    5925.4427    17.831549    23.167391    19.364693    7999.7573    6595.4412      5530.45     5650.437    282.32957   -1608.2183   -5.9702363   -3655.6369 
 5879000    262.09784   -4807.5803   -4283.3523   -4807.5803            0    5330.0195    18.031656    23.224817    19.214148    8046.5376    4945.1487    3979.7181    7065.1916    1607.7154     215.3635   -312.73664   -3657.8718 
 5880000    235.89174   -4836.6568   -4364.8442   -4836.6568            0    6311.4431    18.057444    22.963797    19.363878    8029.5701    5888.0197    6765.1248    6281.1848    330.44767    687.40899    786.18636    -3625.755 
 5881000    244.99037   -4856.0528   -4366.0418   -4856.0528            0    6506.9275    17.895684     23.19435    19.216014    7976.1595     6454.569    6520.8899    6545.3236   -792.40109    241.75927   -2224.2646   -3609.1293 
 5882000    263.74581   -4825.7205   -4298.1963   -4825.7205            0    5967.4163    17.780746    23.358049    19.419298    8065.2914    5555.0645     5587.305    6759.8794    575.98878   -1183.3243   -659.49134    -3596.285 
 5883000    258.47403   -4826.7754   -4309.7954   -4826.7754            0    6362.7116    18.102104    23.105953    19.206098     8033.265    6811.4037    6725.7493    5550.9817      1120.58   -107.54073    -2441.848   -3564.3597 
 5884000    236.71881   -4828.3037   -4354.8369   -4828.3037            0    5269.3487    17.987055     23.11239     19.36198    8049.2365    4024.7818     5669.556    6113.7084     973.0754    1540.2241    330.57067   -3736.2688 
 5885000    251.20765   -4848.4977   -4346.0514   -4848.4977            0    5151.1931    18.086917    23.063654    19.262595    8035.3991    5863.0286    4944.7258     4645.825    467.28099   -97.094274   -578.32795   -3742.3931 
 5886000    259.18703   -4826.3764   -4307.9703   -4826.3764            0    7344.3688    18.003425    23.057548    19.239413    7986.5658    6137.0997    7491.8368      8404.17     1434.541    517.15947     1115.805   -3452.5286 
 5887000    248.12512   -4839.2186   -4342.9377   -4839.2186            0    4148.8628    18.034604    23.164657    19.342317    8080.5512    3356.0207    4304.8514    4785.7163    389.72362    90.306738   -700.70184   -3854.0085 
 5888000    260.99829   -4857.0149    -4334.986   -4857.0149            0    6715.0741    17.942116     23.05104     19.40149    8024.1542    6759.4148    6325.8314    7059.9762    950.13254    499.02294   -1961.1968   -3549.1608 
 5889000    238.04857   -4834.3145   -4358.1879   -4834.3145            0    6406.2054    18.034133    23.178059    19.179581    8016.9919    6103.3956    6229.0495    6886.1711    1052.4206   -1044.9655   -337.77245   -3609.1769 
 5890000    246.62564   -4816.7213   -4323.4395   -4816.7213            0    4818.7232    17.933599    23.218973    19.446864    8097.6694    5393.4454    4137.9426    4924.7816     1396.051   -848.59169     1366.032   -3754.3666 
 5891000    254.29106   -4851.6332   -4343.0197   -4851.6332            0    3800.8783     18.04907     23.25758    19.268117    8088.3258    2513.1936    4536.7248    4352.7166    1752.0996    1530.0718   -747.63617   -3894.6683 
 5892000    254.35946    -4845.167   -4336.4166    -4845.167            0     4330.463    18.009625    23.045173    19.422673    8061.0878    4589.5139    4303.5977    4098.2775    403.60065   -217.13241     682.6602   -3827.3157 
 5893000    255.81577   -4861.2016   -4349.5385   -4861.2016            0    4814.5224    18.059277     23.08534    19.330762    8059.0826    3640.6947    4622.6073    6180.2653    1485.5321    985.92794   -173.99364    -3783.671 
 5894000     252.8969   -4836.9925   -4331.1675   -4836.9925            0    4998.3061    17.942828    23.302094    19.311684    8074.3204    6254.8449    4004.6709    4735.4024    803.87365   -376.06855   -196.97137   -3742.5885 
 5895000    254.69029   -4850.7885   -4341.3765   -4850.7885            0    3020.8485    17.982785    23.251147    19.438226    8127.5185     1937.524    2733.9793    4391.0424   -562.59861   -103.85255    197.26084   -3983.3107 
 5896000    246.41234   -4839.5643   -4346.7091   -4839.5643            0    5590.9737    17.941516    23.135293    19.286516    8005.4904    7984.2024    3495.5994    5293.1193    411.22938   -2201.6889   -1592.7579   -3693.9525 
 5897000    249.27162   -4863.7936   -4365.2196   -4863.7936            0    5791.2754    17.926861    23.089624     19.35142    8010.0264     5529.353    6295.8089    5548.6644    38.938181     182.5916    792.60769   -3688.6942 
 5898000    244.49013   -4836.0176   -4347.0071   -4836.0176            0    5256.3831    18.273421    22.968674    19.191207    8054.8617    2306.0146    5881.0054    7582.1292    1431.4978    220.86615    1093.9337   -3729.5298 
 5899000    244.42596   -4789.2547   -4300.3726   -4789.2547            0    7187.2568    18.168881     22.84968    19.291115    8008.7663    6170.5027    7234.0844    8157.1834    156.33828   -722.67569     1154.333   -3460.9035 
 5900000    249.30568   -4846.7446   -4348.1024   -4846.7446            0    4786.0324    18.114056    22.576722    19.668586    8043.5863    4759.9486    5980.2584      3617.89    931.83814   -1443.5636    945.77064   -3786.6652 
 5901000    258.79529   -4802.0259   -4284.4034   -4802.0259            0    5183.2943     18.30875    22.685412     19.41664    8064.5371    4083.1808    5000.6177    6466.0845   -759.73325    55.018904   -2021.3585   -3674.7806 
 5902000    251.99119   -4832.2799   -4328.2664   -4832.2799            0    4504.1286    18.266748    22.566512    19.674947    8110.3434    3039.2006    5625.6877    4847.4974    47.424547    408.81387    2275.3473   -3795.5134 
 5903000     260.6232    -4845.217   -4323.9384    -4845.217            0    5488.2168    18.081594    22.860748    19.487443    8055.3059    5103.9777    6292.7911    5067.8815   -660.12836   -3.6391254   -6.9247002   -3679.1917 
 5904000    261.94085   -4863.0607   -4339.1466   -4863.0607            0    6339.1311    18.077388    22.903779    19.338809    8007.0504    4855.0165    7051.5752    7110.8015    397.86068    427.90525   -511.10128    -3598.897 
 5905000    245.36302   -4846.8168   -4356.0604   -4846.8168            0    4726.0495    18.014521    22.847715    19.565093    8052.8091    6324.2344    4399.4272    3454.4869    398.60409   0.97523229    380.92949   -3801.0239 
 5906000    248.36632   -4868.4753    -4371.712   -4868.4753            0     5146.948    18.351389    22.842954    19.217071    8055.7945    3414.7269    5661.3942     6364.723    -405.9661    224.33277   -603.89813   -3767.0202 
 5907000    244.55486   -4825.7373   -4336.5974   -4825.7373            0    5688.9138    18.026157    22.862543     19.52311    8045.9379    6293.7745    7006.8899     3766.077   -684.88901   -264.71097   -455.20051   -3669.0503 
 5908000    246.49062   -4858.3306   -4365.3189   -4858.3306            0    7032.5129    18.120081    22.979255    19.172816    7983.2915    7459.7901    5920.1895    7717.5592    -1772.873   -667.51911    307.67455   -3546.5366 
 5909000     240.2898   -4831.1506   -4350.5413   -4831.1506            0    5301.6093     17.90371    23.038838    19.504733    8045.3253     6255.566    4518.0107    5131.2513   -121.89625   -1632.4964    2095.0303   -3728.4886 
 5910000    259.60229   -4852.5421   -4333.3055   -4852.5421            0    5697.2604    18.109603    22.981202    19.322153    8041.5023    5886.1926    5858.9238     5346.665   -502.26876    635.70129    303.48321   -3665.1475 
 5911000    253.21287   -4864.9389   -4358.4818   -4864.9389            0    5565.4982    17.903795    23.097933    19.434259    8036.8558    6715.2056    4956.0474    5025.2417    999.52109    666.22381    322.18541   -3706.1537 
 5912000     256.0875   -4837.2769   -4325.0703   -4837.2769            0    6173.4251      18.1041    23.023005    19.227455    8014.2108    5624.3924    6518.0769    6377.8059   -285.20617    774.47772   -1428.5486   -3603.5262 
 5913000    255.79772   -4851.5191   -4339.8921   -4851.5191            0    5702.0962    17.999089     22.93844    19.421683    8018.6503    5767.1097    5701.3866    5637.7924    158.73907    1027.0609   -507.42838   -3673.0673 
 5914000    250.05542   -4850.1189   -4349.9771   -4850.1189            0     5731.154    18.041867    22.950698    19.430133     8045.502    5519.2814    5386.5781    6287.6024    473.65354    -1817.805   -1390.0257   -3677.5099 
 5915000    243.63451   -4833.0191     -4345.72   -4833.0191            0       5012.8    18.337992    22.731141     19.30584    8047.5133    4937.5186    4788.2034    5312.6779    100.56019    525.78044     667.4623   -3757.3941 
 5916000    257.39971   -4812.6739   -4297.8427   -4812.6739            0    4847.8798    18.033852    22.992841    19.496429    8084.1843    6162.3322    4311.1008    4070.2065    841.23045    1174.0412     2562.544   -3726.2799 
 5917000     250.2273   -4846.3621   -4345.8765   -4846.3621            0    5780.7637     18.21712    23.030465    19.192758    8052.2975    4286.6149    6213.7127    6841.9634   -1883.7896     341.3177   -426.75961   -3667.0154 
 5918000    257.52525   -4814.6984   -4299.6161   -4814.6984            0    7925.8311    17.874256     22.97757    19.450284    7988.3672    7959.5953    7720.3481    8097.5501    580.17843   -345.33907   -697.52703   -3376.2398 
 5919000    259.60657   -4822.2394   -4302.9942   -4822.2394            0    4487.5053    18.208137     22.90624    19.394881    8089.2163    2711.4273      5100.74    5650.3486   -1065.6794    -111.2917   -1395.4079   -3773.5901 
 5920000    251.08008   -4819.8703   -4317.6791   -4819.8703            0    6229.8753    18.171748    22.661941    19.531849    8043.3539    6278.9107    6874.8221    5535.8932    2016.7474   -661.33778    294.30359   -3586.8894 
 5921000    244.15486   -4802.3824   -4314.0425   -4802.3824            0    4962.1924    18.171012    22.727856    19.549594    8073.7506    6290.7397    6045.7143    2550.1233    -509.7839    829.02102   -367.22655   -3729.7574 
 5922000    260.52278   -4862.7655   -4341.6878   -4862.7655            0     6572.786    18.214447    22.583092      19.4224    7989.1813    7172.5383    6491.1293    6054.6905    650.93168   -296.88944    1340.8405   -3575.8661 
 5923000    248.88538   -4854.3153   -4356.5138   -4854.3153            0    4605.5808    18.188156    22.659583    19.535217    8051.1671    4053.0062    5820.6457    3943.0903   -22.389724   -1129.9947    918.45149   -3815.7356 
 5924000    255.51758   -4851.8136   -4340.7469   -4851.8136            0    4601.8378     18.19712    22.569094    19.582834    8042.5232    3713.9035    7027.6266    3063.9833   -653.66906    271.11223   -2529.1748   -3800.9884 
 5925000    247.97187    -4841.481   -4345.5067    -4841.481            0    5172.8374    18.158771    22.801732    19.406031     8035.095    4604.0427    5154.9013     5759.568    772.63921    634.57883    1071.2967   -3739.3349 
 5926000    247.34893   -4842.1038   -4347.3754   -4842.1038            0    5911.5704    17.954667    22.842269    19.572121    8027.0226    6552.2119    5475.3709    5707.1283    636.97028   -293.42013   -671.53436   -3655.3321 
 5927000    249.90991    -4807.317   -4307.4663    -4807.317            0    5098.5011    17.994227    23.005422    19.398117    8030.1373    6888.9054    4302.2226    4104.3752    181.32073    546.91538   -113.80739   -3710.3741 
 5928000    264.96069   -4852.8845   -4322.9304   -4852.8845            0    5260.9243    18.080136     23.04647     19.32105    8050.7592    4907.5216    5038.5831    5836.6682    332.93868   -586.46099    45.088613   -3705.2344 
 5929000    250.45234   -4812.9789   -4312.0432   -4812.9789            0    6062.5044    17.904722    23.150508    19.403521    8042.8254    8672.7136    5793.0098    3721.7897    197.47197     162.2157    199.64454   -3600.9336 
 5930000    244.70129    -4818.367   -4328.9342    -4818.367            0    5462.8634    18.043252    23.165633    19.220897    8034.0146    4329.9752    5275.3975    6783.2175    350.71066    909.39937   -1137.0846   -3688.8622 
 5931000    260.60045   -4864.2194   -4342.9863   -4864.2194            0    5475.9157    17.969867    23.042372    19.368716    8019.9727    5291.8783    5829.7404    5306.1284    581.71565   -797.26852   -160.30238   -3702.5063 
 5932000    262.67928   -4853.0919   -4327.7009   -4853.0919            0    3761.1807    18.091151    23.110512    19.378193    8101.9402    5053.3629    2429.1287    3801.0503    367.21627    -1737.983    345.64102   -3883.2854 
 5933000    233.31084   -4823.5791   -4356.9286   -4823.5791            0    7359.4658    17.954661    23.101902    19.272163     7993.839    7965.2556    7168.4852    6944.6565    10.037991    850.93485    -1125.288   -3498.9478 
 5934000    239.37435   -4845.9551   -4367.1768   -4845.9551            0    4362.0235     17.99738    23.194364    19.352578    8078.4971    3468.6703    4835.0071     4782.393    1370.6334      1756.33   -1025.8142   -3853.2581 
 5935000    259.79031   -4816.8826   -4297.2699   -4816.8826            0    6760.3651    17.885036    23.121066    19.320072    7989.2571    7309.3282    6692.0454    6279.7217    2207.3931   -233.06979   -383.76116   -3509.5851 
 5936000    251.11082   -4828.2157    -4325.963   -4828.2157            0    3452.0365     18.09383    23.174615    19.355531    8116.1136    2714.6448    2789.7807     4851.684    652.49589   -985.37645   -540.94718    -3917.362 
 5937000    252.50618   -4848.8718   -4343.8283   -4848.8718            0    6372.0344    18.204015    22.974945      19.1666    8016.1668    5997.8296    5941.5313    7176.7422   -676.33432   -327.51983   -2205.1927   -3598.8892 
 5938000    260.00573   -4831.1279   -4311.0843   -4831.1279            0    7335.2626    17.892579    22.809235    19.495517    7956.4332    8046.7247    7438.5101    6520.5531    840.10982   -1338.7016     586.3023   -3459.9267 
 5939000    232.87483   -4826.7371   -4360.9587   -4826.7371            0    3905.4243    18.387419    22.891757    19.249902     8102.675    2716.9703    2994.4439    6004.8587     505.3122   -1349.1699   -1270.3523   -3899.4578 
 5940000     256.5525   -4796.6635   -4283.5268   -4796.6635            0    7714.8866     18.11146    22.713255    19.423738    7990.3473    6954.3927    9194.4451     6995.822     950.1512    1395.6083    1982.7435   -3384.5032 
 5941000    257.80386   -4833.9343   -4318.2947   -4833.9343            0    6048.9828    18.148269    22.904592    19.336305    8037.6898    5555.9422    5940.9574    6650.0487   -623.10703    1840.9953   -829.34803   -3609.2241 
 5942000    257.53004   -4832.7468   -4317.6549   -4832.7468            0    5555.0252    18.157081     22.85519    19.420426    8059.1568    5923.7828    5882.2378    4859.0551    501.68077   -256.69127    245.19049   -3664.7476 
 5943000    247.66335   -4825.3796   -4330.0223   -4825.3796            0    5328.4716    17.961629    22.936611    19.526921    8044.6794    7647.6046    3499.6315    4838.1786    126.18704    -1644.663     106.0874   -3704.8679 
 5944000    244.84671   -4815.2095   -4325.4858   -4815.2095            0    6400.7552    18.169218    22.891163    19.302122    8028.0328    6918.3434    6473.2561    5810.6662   -210.63874   -706.60686    750.11507   -3576.0814 
 5945000    246.74687    -4825.962   -4332.4378    -4825.962            0    5844.8535    18.052537    22.906836    19.454326    8044.8793    9158.6937     4358.148    4017.7189    528.38417    243.74464   -125.57977   -3646.6827 
 5946000    251.02813   -4847.6958   -4345.6086   -4847.6958            0     4991.644    18.197408    22.809661     19.43486    8066.9579    5563.6593    4796.9407    4614.3319   -380.54945    1335.0506   -869.63067   -3758.3501 
 5947000    256.30592    -4844.117   -4331.4735    -4844.117            0    4678.3309    18.090142     23.02422    19.361958    8064.4767    4134.4063    4327.4141    5573.1723   -607.33469   -2079.6003    45.306243    -3781.245 
 5948000    243.81594    -4819.601    -4331.939    -4819.601            0    5148.4813    17.983482    22.988425    19.496445     8060.063    4758.0714    5372.3965    5314.9759    946.18653   -641.41718    947.06186   -3726.7466 
 5949000    259.14634   -4827.6268   -4309.3021   -4827.6268            0    6800.7808    18.001773    22.968633    19.350222    8000.8546    6508.8082    7428.4131    6465.1209    662.07938    -1379.201    601.80156    -3515.758 
 5950000    259.56961   -4864.9506   -4345.7793   -4864.9506            0    4855.2346    18.062926    22.949277    19.470752    8071.2322    7452.5668    4153.0209    2960.1162    1220.8121    656.85848   -872.62877   -3774.2665 
 5951000    247.73338   -4827.4517   -4331.9543   -4827.4517            0    6121.7784    18.185501    22.965093    19.245169    8037.3932    5310.0205    6670.6697     6384.645    129.43542    773.30657    835.14721    -3614.377 
 5952000    245.06099   -4820.8413   -4330.6891   -4820.8413            0    7436.4861    17.910751    22.897336    19.485635    7991.2247    7081.6795    8124.2151    7103.5636   -124.10563    356.24605   -888.17617   -3464.0126 
 5953000    248.26571   -4859.5327   -4362.9706   -4859.5327            0    6742.6238    18.067094    22.784944    19.429779    7998.4185    6496.5937    6862.6918    6868.5858   -95.923427   -619.87437   -482.61411   -3576.4521 
 5954000    249.31798   -4863.5597   -4364.8929   -4863.5597            0    5807.3652    18.163561    22.574824    19.514488    8001.7052    6146.8444    6035.8556    5239.3958   -691.87749    540.62466    127.77538   -3687.1927 
 5955000     243.9699   -4843.7691   -4355.7992   -4843.7691            0    6530.0539    18.317992    22.393317    19.461771    7983.2296    4278.2366    7591.9524    7719.9727     1266.462   -1286.6948    209.27612   -3595.5232 
 5956000    257.20216   -4860.5124   -4346.0763   -4860.5124            0     5464.585    18.070221    22.640905     19.61842    8026.4087    5199.5087    7069.8963      4124.35    864.54756    209.73308     448.8217   -3706.4087 
 5957000    246.02021   -4828.2691   -4336.1983   -4828.2691            0    4543.6836    18.283469    22.669424    19.500832    8082.6213    5493.2724     4455.906    3681.8724    833.81593    1066.1114   -906.19698   -3800.6036 
 5958000    253.17921   -4817.4214   -4311.0317   -4817.4214            0    6357.6162    18.283853    22.632399    19.400777     8028.186    6041.3036    6695.7994    6335.7456   -749.77476    1150.8062    1042.3407   -3566.6638 
 5959000    248.75682   -4831.4868   -4333.9424   -4831.4868            0    6381.3097    18.119112    22.803458    19.439905    8032.1495    5436.5873    7004.6331    6702.7088   -58.598849    779.53979   -882.40048   -3586.4315 
 5960000    265.59646   -4848.2427    -4317.017   -4848.2427            0    4919.7295    18.217319    22.876741    19.341629    8060.6799     4356.313    4639.8581    5763.0173    197.02191   -784.96263    -625.2267   -3738.6696 
 5961000    246.19738   -4816.5078   -4324.0827   -4816.5078            0    5248.6761    18.198616    22.895258    19.393719    8080.6258    4364.0298    5269.0528    6112.9457    347.28204    17.338497   -891.27641   -3705.5386 
 5962000    249.36816   -4830.5349   -4331.7678   -4830.5349            0    7109.2354    18.048051    22.990908    19.216598    7973.7559     4438.668    7399.8539    9489.1843    75.371597    1441.9198   -268.67424   -3505.0415 
 5963000    254.97397   -4839.1211   -4329.1417   -4839.1211            0    5184.3151    18.095832    22.951491    19.389161    8052.8287     6170.267    4385.0742    4997.6041   -47.090218    430.70634    1068.7958    -3720.284 
 5964000    245.38884   -4828.4911   -4337.6831   -4828.4911            0    6491.7512    18.135111    22.810724    19.405425    8027.5391    4452.6396    8557.0846    6465.5295   -364.99401     773.6582    1547.6567   -3577.6715 
 5965000    241.10596   -4860.6877    -4378.446   -4860.6877            0    7126.2703    17.946923     23.08158    19.309273    7998.7377    6512.4158    7072.6337    7793.7613     70.49642    1032.1658     1287.413   -3547.1424 
 5966000    251.42318   -4836.4227   -4333.5453   -4836.4227            0    6898.7996     17.97191    23.084045    19.300437    8007.0637     5551.602    6266.7791    8878.0178   -457.83899   -1042.3023    395.06738   -3527.9393 
 5967000    243.19595    -4855.118   -4368.6961    -4855.118            0    4971.5516    17.870779    23.385902    19.219175    8032.1602    6386.0545     4069.408    4459.1921    590.56424     223.9696   -314.88948   -3786.3245 
 5968000    258.84087   -4829.6477    -4311.934   -4829.6477            0    6147.0295    17.992543    23.327367    19.189425    8054.1601     8120.617    4750.3409    5570.1305    1122.2021    1070.0248    348.57154   -3589.8937 
 5969000    249.86721   -4836.9423    -4337.177   -4836.9423            0    5597.7215    17.918221    23.158107    19.360066    8033.4997    5967.3257    5083.7515    5742.0873    402.13203    179.96794   -233.71031    -3681.346 
 5970000     241.1018   -4853.3295   -4371.0961   -4853.3295            0    5649.5957    17.954047    23.172703    19.283572    8022.8103    6641.8002    4520.0732    5786.9138     1068.619     -745.593   -1079.0261   -3710.0682 
 5971000    244.17516   -4823.1983   -4334.8178   -4823.1983            0    5785.2397    17.931771    23.131466    19.373354    8035.8378    6586.9946     6011.382    4757.3424   -248.07638    -511.7438    1316.3512   -3656.8198 
 5972000     239.4171   -4851.6652   -4372.8014   -4851.6652            0    6236.9716    18.047601    23.004444    19.259641    7996.1221    5357.5218    6966.1445    6387.2484    2053.7129    53.650542    362.07308   -3645.4755 
 5973000    241.80606   -4849.2019   -4365.5599   -4849.2019            0    5851.0072    18.019266    22.933417    19.431248    8029.8336    7137.1689    5139.8457    5276.0069   -449.92712    13.697437   -209.76576   -3680.3666 
 5974000    248.81094   -4834.2562   -4336.6036   -4834.2562            0    5723.1135    18.064231    23.048665     19.28972    8031.3988     4622.794    5582.9198    6963.6267    208.01017    475.12407    717.80497   -3666.2569 
 5975000     237.9915   -4827.8025   -4351.7901   -4827.8025            0    6369.4346    17.974277    22.901582    19.411474     7990.527    5630.1595    7494.0937    5984.0506    1214.0049     -298.848   -973.72548   -3609.5367 
 5976000     251.9784   -4843.1463   -4339.1584   -4843.1463            0    4211.9604    18.127586    23.008445    19.342065    8067.3347    4575.9633    4417.6994    3642.2185   -766.34891    120.82089    297.09333   -3843.6052 
 5977000    265.51218   -4798.3766   -4267.3195   -4798.3766            0    6644.6011    17.877115     22.93769    19.480556    7988.1914    6709.8875     7367.558    5856.3579   -1411.2227     248.6514   -454.18699   -3493.2263 
 5978000    259.65789   -4821.6119   -4302.2641   -4821.6119            0    7751.3464    17.993281    22.952137    19.322578    7979.9202    7771.6577    6862.6624    8619.7191    887.01966   -877.86225   -1409.1404   -3400.1705 
 5979000    256.07417    -4831.925    -4319.745    -4831.925            0     4494.822    18.016814    23.173507    19.362033    8083.8959    4564.6665    4363.8429    4555.9566   -536.09885    535.66677   -910.48084   -3789.8265 
 5980000    265.70018   -4823.1876   -4291.7545   -4823.1876            0    5925.4865    18.035749    22.976589    19.414746    8045.4708    7120.1241    4982.6807    5673.6548    1275.3781   -1100.3105    1918.4443   -3596.4879 
 5981000    252.79555   -4810.7762   -4305.1539   -4810.7762            0    5168.0878    18.255694      22.7568    19.496126    8099.4936    6243.4802    4982.1106    4278.6725   -369.38009   -159.84561   -1934.9517   -3694.6848 
 5982000    252.52639   -4834.5317   -4329.4477   -4834.5317            0     5165.519    18.083897    22.798504     19.52032    8047.9509    6328.5015    6154.1604    3013.8949    1665.1336    270.48296    1141.9468    -3723.165 
 5983000    248.21046   -4846.2769   -4349.8253   -4846.2769            0    6269.2031     18.14498    22.820561    19.425086    8043.5124    5363.0974    6897.6558     6546.856    857.84088    329.58625    521.23277   -3614.4078 
 5984000    258.11332   -4829.4921   -4313.2336   -4829.4921            0    6566.4821    18.147029    22.790211    19.479721    8056.3179    5561.3792    7413.6984    6724.3686    252.28542    411.07971    223.88718    -3541.717 
 5985000    254.29278   -4866.6084   -4357.9914   -4866.6084            0    6055.2732    18.186624    22.659487    19.444865    8013.2204    5983.0852    7337.2922    4845.4423   -378.54944    1370.9358   -1703.2633   -3650.3443 
 5986000    242.23455   -4832.3854   -4347.8864   -4832.3854            0    5404.0367    18.058675    22.841549    19.519195    8051.4363    4725.6664    6270.8205    5215.6231    810.53204     1696.599   -1692.4007   -3713.3339 
 5987000    248.72925    -4831.069   -4333.5798    -4831.069            0    6461.3183    18.175933    22.965222    19.236291    8029.5034    4842.1292    5909.3471    8632.4786    1123.7063   -874.75656    1455.7827    -3576.946 
 5988000    262.01318   -4831.5582   -4307.4994   -4831.5582            0    7076.5489    18.112935    22.872014     19.30481    7997.5832    7426.5631    7557.1333    6245.9502   -1687.0788   -55.677961   -1079.8767   -3482.1152 
 5989000    247.89957   -4831.3771   -4335.5474   -4831.3771            0    5345.1474    18.149531    22.806982    19.525109    8082.1458    7205.6637     4571.856    4257.9224   -501.12504   -571.74239    149.21845   -3705.5159 
 5990000    257.37801    -4825.387   -4310.5992    -4825.387            0    5125.2368    18.121827    22.750764     19.52823    8051.2043    3864.3278    6455.8283    5055.5541   -1010.5075   -784.88028   -1100.6831   -3708.8013 
 5991000    239.37575   -4837.2543   -4358.4732   -4837.2543            0     5244.659    18.085977     22.79457    19.522702    8048.4694    6798.0389    5179.4244    3756.5136    966.35368   -1438.2063    -115.3149   -3742.8621 
 5992000     258.2472   -4851.6791   -4335.1528   -4851.6791            0    5993.5056    18.157671    22.651381    19.439496    7995.3929    5907.3011    5600.7234    6472.4924    -1362.306   -1323.9568    -1421.081   -3636.2825 
 5993000    261.03535   -4826.9054   -4304.8025   -4826.9054            0    5523.2552    18.217045    22.870722    19.292214    8037.8498     5949.571    4943.8911    5676.3036    1329.6213   -1128.1324    1840.4763   -3657.3455 
 5994000    253.75542   -4820.0103   -4312.4681   -4820.0103            0    6075.1542    18.073695    22.805076    19.535288    8051.8981    6345.9086    5915.2745    5964.2795   -1099.0265    378.93294   -2217.9625   -3599.0708 
 5995000    262.73707   -4817.3944   -4291.8878   -4817.3944            0    5079.6022    18.244988     22.86784    19.311889    8057.3733    3827.7635     5441.404     5969.639    2530.0849   -636.70784    1165.0638   -3694.9913 
 5996000    261.03863   -4857.2863   -4335.1768   -4857.2863            0    4386.6016    18.007601    22.888514    19.593052    8075.6139    5038.7961    4530.2596    3590.7492   -118.84937   -460.01274   -1556.4571   -3818.5468 
 5997000     253.9249   -4839.8104   -4331.9292   -4839.8104            0    5909.7226    18.090441    23.007256    19.315719    8039.4223     4804.066      6793.88    6131.2219    139.51037    -116.1951   -1143.6073   -3639.0336 
 5998000    246.98264   -4809.3011   -4315.3053   -4809.3011            0    4165.3268    18.076645    23.061305    19.478381    8119.9723    4399.7634    4207.6744    3888.5428    1924.1172    312.57728   -47.912782   -3822.0411 
 5999000    252.58693   -4863.7076   -4358.5026   -4863.7076            0    4537.1359    18.115263    22.952806     19.39398    8063.9415    4649.0811    4746.3751    4215.9516    1206.0067   -490.93723   -1451.8005   -3824.9158 
 6000000    262.67238   -4826.8173   -4301.4401   -4826.8173            0    4893.9983     18.10717    23.020981    19.342107    8062.6569    5972.2156    4063.7709    4646.0084    664.40861    31.013531   -562.74287   -3725.9765 
Loop time of 649.472 on 64 procs for 250000 steps with 1008 atoms

Performance: 66.516 ns/day, 0.361 hours/ns, 384.928 timesteps/s
99.0% CPU use with 64 MPI tasks x 1 OpenMP threads

MPI task timing breakdown:
Section |  min time  |  avg time  |  max time  |%varavg| %total
---------------------------------------------------------------
Pair    | 28.539     | 31.857     | 35.607     |  30.0 |  4.91
Bond    | 0.27509    | 0.29442    | 0.30465    |   0.9 |  0.05
Kspace  | 309.97     | 319.87     | 333.1      |  34.3 | 49.25
Neigh   | 4.8261     | 5.532      | 6.6073     |  22.6 |  0.85
Comm    | 124.26     | 138.66     | 149.83     |  56.1 | 21.35
Output  | 0.97175    | 0.97319    | 0.97521    |   0.1 |  0.15
Modify  | 139.14     | 144.32     | 147        |  17.3 | 22.22
Other   |            | 7.963      |            |       |  1.23

Nlocal:        15.7500 ave          20 max          10 min
Histogram: 1 0 2 4 8 17 10 8 8 6
Nghost:        2482.45 ave        2500 max        2462 min
Histogram: 2 1 4 9 10 12 13 7 3 3
Neighs:        5186.30 ave        6594 max        3289 min
Histogram: 1 2 2 4 17 11 7 12 5 3

Total # of neighbors = 331923
Ave neighs/atom = 329.28869
Ave special neighs/atom = 2.0000000
Neighbor list builds = 9143
Dangerous builds = 1

unfix		3
unfix		2
unfix		1

write_data	data.final.${pid}
write_data	data.final.0
System init for write_data ...
PPPM initialization ...
  extracting TIP4P info from pair style
  using 12-bit tables for long-range coulomb (../kspace.cpp:340)
  G vector (1/distance) = 0.38342425
  grid = 24 30 32
  stencil order = 5
  estimated absolute RMS force accuracy = 0.0019317871
  estimated relative force accuracy = 5.8175195e-06
  using double precision FFTW3
  3d grid and FFT values/proc = 4080 384
Last active /omp style is kspace_style pppm/tip4p/omp
WARNING: Not all mixed pair coeffs generated from mixing. Use write_data with 'pair ij' option to store all pair coeffs. (../write_data.cpp:312)

write_restart   restart.lmp.${pid}
write_restart   restart.lmp.0
System init for write_restart ...
PPPM initialization ...
  extracting TIP4P info from pair style
  using 12-bit tables for long-range coulomb (../kspace.cpp:340)
  G vector (1/distance) = 0.38342425
  grid = 24 30 32
  stencil order = 5
  estimated absolute RMS force accuracy = 0.0019317871
  estimated relative force accuracy = 5.8175195e-06
  using double precision FFTW3
  3d grid and FFT values/proc = 4080 384
Last active /omp style is kspace_style pppm/tip4p/omp
Total wall time: 0:10:54
