#include		in.partitions
include		in.temp
variable        temperature equal 237.00
variable	tempDamp equal 100.0
include		in.pressure
variable        pressure equal 2315.9
variable        pressureDamp equal 1000.0 # This is 1 ps
include		in.seed
variable        seed equal 745823

units		real
atom_style	full
read_restart	restart.lmp.${pid}
read_restart	restart.lmp.1
Reading restart file ...
  restart file = 30 Jul 2021, LAMMPS = 30 Jul 2021
  restoring atom style full from restart
  orthogonal box = (0.22756592 1.3595739 0.27762990) to (17.980006 22.269604 21.935566)
  2 by 4 by 4 MPI processor grid
  restoring pair style lj/cut/tip4p/long/omp from restart
  restoring bond style harmonic/omp from restart
  restoring angle style harmonic/omp from restart
  864 atoms
  576 bonds
  288 angles
Finding 1-2 1-3 1-4 neighbors ...
  special bond factors lj:    0        0        0       
  special bond factors coul:  0        0        0       
     2 = max # of 1-2 neighbors
     1 = max # of 1-3 neighbors
     1 = max # of 1-4 neighbors
     2 = max # of special neighbors
  special bonds CPU = 0.002 seconds
  read_restart CPU = 0.007 seconds
include 	in.setup
variable	out_freq equal 1000
variable	out_freq2 equal 10000
variable	out_freq3 equal 1000

timestep	2.0

neigh_modify    delay 7 every 1

include		in.tip4p
# This is TIP4P/Ice

# create groups ###
group ox type 2
288 atoms in group ox
group hy type 1
576 atoms in group hy

# set charges - beside manually ###
set group ox charge -1.1794
Setting atom values ...
  288 settings made for charge
set group hy charge 0.5897
Setting atom values ...
  576 settings made for charge

# ### TIP3P Potential Parameters ###
pair_style lj/cut/tip4p/long/omp 2 1 1 1 0.1577 8.5
pair_coeff 1 1*2 0.000 0.000
pair_coeff 2 2 0.21084 3.1668
bond_style  harmonic
bond_coeff  1 450 0.9572
angle_style harmonic
angle_coeff 1 55 104.52
kspace_style pppm/tip4p/omp 1.0e-5
pair_modify tail yes

thermo          ${out_freq}
thermo          1000
thermo_style    custom step temp pe etotal epair emol press lx ly lz vol pxx pyy pzz pxy pxz pyz enthalpy

restart 	${out_freq3} restart.lmp.${pid} restart2.lmp.${pid}
restart 	1000 restart.lmp.${pid} restart2.lmp.${pid}
restart 	1000 restart.lmp.1 restart2.lmp.${pid}
restart 	1000 restart.lmp.1 restart2.lmp.1


include         in.dump
dump            myDump all atom ${out_freq2} dump.water.${pid}
dump            myDump all atom 10000 dump.water.${pid}
dump            myDump all atom 10000 dump.water.1
dump            myDump2 all dcd ${out_freq2} dump.dcd
dump            myDump2 all dcd 10000 dump.dcd
dump_modify     myDump append yes
dump_modify     myDump2 append yes


variable natoms 	equal  "count(all)"                        # NUMBER ATOMS
variable H      	equal  "enthalpy/v_natoms"                 # ENTHALPY-per-atom
variable Vol      	equal  "vol/v_natoms"                 # volume-per-atom
fix AVG all 		ave/time ${out_freq} 1 ${out_freq} v_Vol v_H file vol_enthalpy.dat
fix AVG all 		ave/time 1000 1 ${out_freq} v_Vol v_H file vol_enthalpy.dat
fix AVG all 		ave/time 1000 1 1000 v_Vol v_H file vol_enthalpy.dat


timer           timeout 23:50:00 every 1000
New timer settings: style=normal  mode=nosync  timeout=23:50:00

fix 		1 all shake 1e-6 200 0 b 1 a 1
       0 = # of size 2 clusters
       0 = # of size 3 clusters
       0 = # of size 4 clusters
     288 = # of frozen angles
  find clusters CPU = 0.000 seconds
fix             2 all nph iso ${pressure} ${pressure} ${pressureDamp}
fix             2 all nph iso 2315.9 ${pressure} ${pressureDamp}
fix             2 all nph iso 2315.9 2315.9 ${pressureDamp}
fix             2 all nph iso 2315.9 2315.9 1000
fix             3 all temp/csvr ${temperature} ${temperature} ${tempDamp} ${seed}
fix             3 all temp/csvr 237 ${temperature} ${tempDamp} ${seed}
fix             3 all temp/csvr 237 237 ${tempDamp} ${seed}
fix             3 all temp/csvr 237 237 100 ${seed}
fix             3 all temp/csvr 237 237 100 745823

run             250000
PPPM initialization ...
  extracting TIP4P info from pair style
  using 12-bit tables for long-range coulomb (../kspace.cpp:340)
  G vector (1/distance) = 0.37212455
  grid = 24 24 25
  stencil order = 5
  estimated absolute RMS force accuracy = 0.0033173763
  estimated relative force accuracy = 9.9901803e-06
  using double precision FFTW3
  3d grid and FFT values/proc = 3822 576
Last active /omp style is kspace_style pppm/tip4p/omp
Neighbor list info ...
  update every 1 steps, delay 7 steps, check yes
  max neighbors/atom: 2000, page size: 100000
  master list distance cutoff = 10.8154
  ghost atom cutoff = 10.8154
  binsize = 5.4077, bins = 4 4 5
  1 neighbor lists, perpetual/occasional/extra = 1 0 0
  (1) pair lj/cut/tip4p/long/omp, perpetual
      attributes: half, newton on, omp
      pair build: half/bin/newton/omp
      stencil: half/bin/3d
      bin: standard
Per MPI rank memory allocation (min/avg/max) = 10.19 | 10.19 | 10.20 Mbytes
Step Temp PotEng TotEng E_pair E_mol Press Lx Ly Lz Volume Pxx Pyy Pzz Pxy Pxz Pyz Enthalpy 
 6500000    249.06117   -3978.2889   -3551.4066   -3978.2889            0    2490.2698    17.752441     20.91003    21.657936    8039.5139    2164.6192    3980.8029    1325.3874   -997.55149    198.17039   -982.69783   -3259.4273 
 6501000    241.29316   -3994.7404   -3581.1722   -3994.7404            0    2879.9335     17.70444    20.853492    21.599376     7974.477    2709.9747    3157.0862    2772.7396   -440.06623    8.4269333   -44.347706   -3246.2372 
 6502000    231.90691   -3980.8435   -3583.3629   -3980.8435            0    1782.5686    17.766444    20.926524     21.67502    8058.5541     1913.477    2537.0788    897.14993    152.71185    1350.5269    1871.2607   -3373.8652 
 6503000     237.4292   -3989.1718   -3582.2263   -3989.1718            0    1746.4325    17.792228    20.956895    21.706477    8093.6907    2197.0179    3099.6421   -57.362628   -558.73365    1172.7795   -420.95544   -3376.0806 
 6504000    229.69025   -4011.6929   -3618.0117   -4011.6929            0     2453.651    17.716264    20.867418      21.6138    7990.4639    2835.1218     2057.321    2468.5102    1.6899094   -40.671944   -559.04343   -3332.0811 
 6505000    236.64904   -3972.6514    -3567.043   -3972.6514            0    1977.5562    17.740435    20.895889    21.643289    8023.2141     3471.319    2582.7562    -121.4067    254.07268   -349.63462   -1493.1721   -3335.6485 
 6506000    243.96433   -3986.2461   -3568.0996   -3986.2461            0    950.41844    17.726235    20.879164    21.625966    8003.9637    449.77114    2077.7651    323.71911   -338.84924   -378.73333   -7.4182054   -3457.1577 
 6507000    236.09667   -3973.1004   -3568.4388   -3973.1004            0    2032.1839    17.660929    20.802241    21.546292    7915.8253    1232.8082    3385.4174    1478.3261    1163.4519    -684.3089    112.78112    -3333.835 
 6508000    252.66293   -3992.7462   -3559.6906   -3992.7462            0    3484.7538    17.635195     20.77193    21.514897    7881.2735    3604.0746    4731.4049    2118.7819    1350.7999   -236.20154   -1521.4629    -3159.152 
 6509000    240.72834   -3971.8589   -3559.2588   -3971.8589            0    3191.5922    17.668661    20.811349    21.555725    7926.2272    2374.6603    3938.3027    3261.8136    739.30201    -599.8671    764.18091   -3190.3238 
 6510000    233.90648   -3974.1852   -3573.2775   -3974.1852            0    1809.5667    17.711505    20.861813    21.607995    7984.0269    2128.1064    1569.3561    1731.2377   -834.17916   -141.46937   -1098.6629   -3362.5736 
 6511000    244.41698   -3986.1974   -3567.2751   -3986.1974            0    3049.2453    17.581169    20.708295    21.448985    7809.0618    3925.4924    1525.9419    3696.3017   -208.33682     142.4777    369.97505   -3220.0052 
 6512000    247.41628     -3962.73    -3538.667     -3962.73            0     2572.695    17.631364    20.767417    21.510222    7876.1375    4508.4201    1662.7154    1546.9494    995.24976     226.5634   -622.02259   -3243.1534 
 6513000    250.68115   -3992.2805   -3562.6215   -3992.2805            0    1580.7292    17.583557    20.711108    21.451899     7812.244    921.38546    1061.3484    2759.4538   -205.01349    405.37255   -243.60883   -3382.5234 
 6514000    234.67046    -4017.967   -3615.7499    -4017.967            0    2315.6915    17.572423    20.697993    21.438315    7797.4133    2278.8638     1978.689    2689.5217   -191.74139    1141.3554    205.75845   -3352.4157 
 6515000    240.25214   -3975.8786   -3564.0947   -3975.8786            0    3928.8745    17.501308    20.614229    21.351555    7703.1284    3247.2234    5268.5525    3270.8475   -357.69204   -168.61573    510.61246   -3122.7162 
 6516000    250.06309    -3993.071   -3564.4714    -3993.071            0    1753.7354    17.589803    20.718464    21.459518    7820.5717    797.66524    3278.8581    1184.6829     581.5591   -476.01081    -1052.974   -3364.4491 
 6517000     231.7714   -3954.4067   -3557.1585   -3954.4067            0    2153.8208    17.602038    20.732875    21.474445    7836.9023     2195.459    1858.8513     2407.152   -131.66873   -824.92974    679.57894   -3310.9915 
 6518000    239.36985   -4000.5845   -3590.3127   -4000.5845            0    1879.5418      17.6434    20.781595    21.524907    7892.2792    1817.4851     1411.833    2409.3073    494.06564   -900.59135    363.61045    -3373.976 
 6519000     244.2566   -4003.3252   -3584.6777   -4003.3252            0    1555.4016    17.702826    20.851591    21.597407    7972.2958    543.11836    2121.9763      2001.11    -408.9336   -66.172897    1984.0805   -3403.8347 
 6520000    235.93821   -4000.6418   -3596.2518   -4000.6418            0    1698.8742    17.676162    20.820184    21.564876    7936.3261    2570.1248    738.13274    1788.3649    118.31626   -371.02224   -1669.2962   -3399.6187 
 6521000    229.90008   -3978.1176   -3584.0767   -3978.1176            0     2796.175    17.668194    20.810799    21.555156    7925.5991    3554.7544     3575.305    1258.4656   -381.67575   -300.12365   -123.83591    -3260.876 
 6522000    246.73406   -3969.8815   -3546.9878   -3969.8815            0    1109.7585    17.617965    20.751636    21.493876    7858.1954    1565.3914    2368.5442   -604.66006    648.67719   -877.87736    1104.7426   -3419.8053 
 6523000    229.15343   -3980.3189   -3587.5578   -3980.3189            0    2228.1109    17.601988    20.732817    21.474384     7836.836    2164.8968    1161.8293    3357.6067   -95.970575    204.06781    97.561005   -3332.9021 
 6524000      255.081   -3969.2382   -3532.0381   -3969.2382            0    3242.6731    17.618254    20.751976    21.494229    7858.5821    1887.2457    4121.8899    3718.8836    309.47035    172.89354     707.5241   -3160.3974 
 6525000    249.26942   -3993.0058   -3565.7665   -3993.0058            0    3023.2705    17.567569    20.692276    21.432394    7790.9537    2016.7965    3085.8089    3967.2061   -860.30936     110.9514    597.92481   -3222.2533 
 6526000    255.67715   -3968.8046   -3530.5827   -3968.8046            0      1395.54    17.681633    20.826628     21.57155     7943.697    2184.0293    2647.2266   -644.63601   -138.05426    314.89891    708.30886   -3368.9085 
 6527000    236.83202   -3950.2596   -3544.3376   -3950.2596            0    2789.8473    17.672222    20.815543     21.56007    7931.0204    1998.9407    2645.9226    3724.6786   -113.30289    463.04559   -538.57149   -3221.6477 
 6528000     233.5034   -3987.8893   -3587.6724   -3987.8893            0     674.7614    17.742462    20.898277    21.645762    8025.9649    194.30702    836.28663    993.69055    185.93036    724.75748   0.34112647   -3508.6913 
 6529000    237.35333   -4015.3814   -3608.5659   -4015.3814            0    1728.5926    17.706017    20.855349    21.601299    7976.6076    1901.0862    1538.0565    1746.6352    281.55143    919.08594   -1480.4366   -3407.4776 
 6530000    232.88449   -3933.7796   -3534.6236   -3933.7796            0    3240.1536    17.699326    20.847469    21.593137    7967.5684    2488.0026    2843.9246    4388.5336       222.78   -155.21192   -23.392994   -3158.1216 
 6531000    246.73285   -3952.4228   -3529.5311   -3952.4228            0    2538.5713    17.662612    20.804224    21.548345    7918.0889    1156.4905    3492.2017    2967.0218   -4.9872111   -15.564725    1092.3046    -3236.384 
 6532000    238.42995   -3969.1383   -3560.4775   -3969.1383            0    3065.2132    17.729524    20.883037    21.629978    8008.4191    2776.9105    2440.5829    3978.1461    69.583825    867.56641   -35.173131   -3202.4772 
 6533000    234.93169    -3955.277   -3552.6121    -3955.277            0    1214.9685    17.754643    20.912625    21.660624    8042.5071   -426.35613    1593.4613    2477.8003   -854.97497   -1258.5658    413.49298   -3410.1064 
 6534000    243.52466   -4003.7492   -3586.3563   -4003.7492            0    2673.5038    17.601156    20.731837    21.473369    7835.7244    3070.9611    3811.4961    1138.0542     515.5397   -555.61985    498.17107   -3280.8389 
 6535000     223.9796   -3985.0592   -3601.1659   -3985.0592            0     697.3203     17.63211    20.768297    21.511133    7877.1383    1327.0174    345.55724    419.38626   -887.01814   -173.92966    233.33653   -3521.0577 
 6536000    231.63679   -3974.0614   -3577.0439   -3974.0614            0    1870.9243    17.574049    20.699908    21.440299    7799.5778    1350.2288    1733.1113    2529.4327   -44.239936    21.764163   -994.40046   -3364.2284 
 6537000    226.67614    -3940.112   -3551.5968    -3940.112            0    2481.4029    17.626434    20.761611    21.504209    7869.5337    1981.0214    2658.5528    2804.6346     1058.889   -1513.7668   -1442.0526   -3266.8085 
 6538000    236.88976   -3958.5468   -3552.5259   -3958.5468            0    1911.7527    17.659647    20.800731    21.544728    7914.1018    2246.1903    2697.8173    791.25048    1584.6655   -1482.7056    93.632362   -3331.8732 
 6539000    233.47726   -3949.5975   -3549.4255   -3949.5975            0    1455.4124    17.659274    20.800292    21.544273    7913.6001    740.35835    1585.3511    2040.5277   -674.32117     161.9005   -858.72895   -3381.4538 
 6540000    236.16881   -3975.9304   -3571.1451   -3975.9304            0    2208.7936    17.591027    20.719906    21.461012    7822.2049    2523.4367    2424.1779    1678.7662    163.61566   -596.33744   -558.64612   -3319.1685 
 6541000    225.09083   -3957.5416   -3571.7436   -3957.5416            0    1880.9226    17.631554    20.767641    21.510454    7876.3921    1815.4946    1131.0001    2696.2729    359.70604   -740.30335     187.1947   -3355.6837 
 6542000    231.93064   -3964.5058   -3566.9846   -3964.5058            0    3469.9776    17.686884    20.832813    21.577957    7950.7771    3279.7383    3101.7717    4028.4228    119.45576   -105.45648     609.4508   -3164.6271 
 6543000    220.06335   -3922.1934   -3545.0123   -3922.1934            0    2091.9165    17.630736    20.766678    21.509457    7875.2969    1379.4423    2043.5185    2852.7888    404.81671    339.76835   -93.297278   -3304.7492 
 6544000    233.18551   -3951.2606   -3551.5886   -3951.2606            0    4186.4834    17.563818    20.687858    21.427817    7785.9643    3521.7257    2723.8707    6313.8537    1149.7335   -542.61072   -1718.1407   -3076.2121 
 6545000    235.18153   -4019.4308   -3616.3377   -4019.4308            0    1826.9116    17.619722    20.753705     21.49602    7860.5467    1420.0672    1407.7325    2652.9351   -292.14251   -322.56146   -485.78252   -3406.9042 
 6546000    243.81086   -3949.8119   -3531.9284   -3949.8119            0    3334.9584    17.570496    20.695723    21.435964    7794.8476    3608.7931    2667.8425    3728.2396    344.15128   -962.43488     119.0497   -3152.8108 
 6547000    236.26111   -3966.9851   -3562.0417   -3966.9851            0    1728.9983    17.614615     20.74769    21.489789    7853.7139    1042.3129    2638.5922    1506.0899    111.59636   -1092.7799   -144.69062    -3364.005 
 6548000     243.7587   -3961.3724   -3543.5783   -3961.3724            0    2650.2769    17.595531    20.725211    21.466506    7828.2141    1560.1943    5022.8992    1367.7373   -694.89823    57.254596   -623.46875   -3241.0055 
 6549000    235.98719   -3928.0744   -3523.6005   -3928.0744            0    2638.8524    17.571207    20.696561    21.436831     7795.794    3528.9403    2051.1929     2336.424   -1154.9579    1018.8624   -169.04131   -3223.5797 
 6550000    245.93871   -3970.6733   -3549.1427   -3970.6733            0    2017.0902    17.592606    20.721766    21.462938    7824.3115    2156.4868    3278.3867    616.39718    2087.3396    738.50321    927.72358   -3318.9735 
 6551000    243.66726   -3936.7144   -3519.0771   -3936.7144            0    2404.8123     17.69128    20.837991     21.58332    7956.7064    1763.5887    2399.1103    3051.7381     301.1217    253.78412   -902.73528   -3240.0217 
 6552000    225.44134   -3961.0925   -3574.6937   -3961.0925            0    1654.0917    17.700973    20.849409    21.595146    7969.7931     2587.699    1566.8484    807.72757   -954.45805   -1402.5009   -469.03942   -3382.4366 
 6553000     235.1991   -3990.8328   -3587.7096   -3990.8328            0    3772.0728    17.588032    20.716379    21.457358    7818.2102    3086.7805    4990.6093    3238.8286    462.75147    121.16753    386.92724   -3157.6157 
 6554000    245.52655   -3979.6137   -3558.7896   -3979.6137            0    2521.8982    17.665422    20.807533    21.551773    7921.8682    3030.0582    3234.9894     1300.647   -211.48321    100.67572    651.49891   -3267.4288 
 6555000    234.91569    -3964.392   -3561.7546    -3964.392            0    1806.9921    17.678921    20.823434    21.568243    7940.0433    2199.7758    1631.4529    1589.7476    1276.4879   -217.24848   -1070.4641   -3352.5096 
 6556000    259.75625   -3967.5957   -3522.3824   -3967.5957            0    2595.6179    17.612471    20.745165    21.487174    7850.8463    4313.1177    1506.0272     1967.709   -1568.7456    847.11159    254.52574   -3225.1931 
 6557000    243.79653   -3977.5048   -3559.6459   -3977.5048            0    2539.1556    17.652559    20.792382     21.53608    7904.5759    2602.6947    2112.2373    2902.5347   -1597.0375   -31.400986    457.67546   -3266.9317 
 6558000    229.03055   -3934.2197   -3541.6692   -3934.2197            0    2677.5937    17.651585    20.791235    21.534892    7903.2675    3165.9817     2589.267    2277.5325    247.82795    141.61776    303.50225   -3233.0469 
 6559000     240.5599   -3950.2481   -3537.9366   -3950.2481            0    2207.3034    17.601265    20.731965    21.473502    7835.8697      2748.47    2182.3539    1691.0864    473.03024    808.60973    312.05947   -3285.6902 
 6560000    227.07622   -3974.7636   -3585.5627   -3974.7636            0    1571.7404    17.687501     20.83354     21.57871    7951.6088    776.95115    2357.8228    1580.4472   -917.16643    -933.8075    101.38693   -3403.2942 
 6561000    227.53818   -3942.0312   -3552.0385   -3942.0312            0    600.67481    17.700232    20.848536    21.594242    7968.7921    320.01567   -260.49365    1742.5024    507.81548     10.65751    203.93459   -3482.2301 
 6562000    239.90817   -3946.1253   -3534.9309   -3946.1253            0    1525.7027    17.639276    20.776738    21.519876    7886.7466    1924.0744    2344.1753    308.85847   -105.33091    343.24261    41.189012   -3359.4444 
 6563000    248.71993   -3944.9234    -3518.626   -3944.9234            0    2733.6712    17.616032    20.749359    21.491518    7855.6091    3817.7828    2416.7717    1966.4591    1190.4451   -622.12318    -316.9266   -3205.4402 
 6564000    236.30505   -3967.7191   -3562.7003   -3967.7191            0     2121.979    17.712997    20.863571    21.609815    7986.0452    2079.2714    2609.0719    1677.5936    1906.9765    1066.9567   -2019.6158   -3315.5571 
 6565000    236.74071   -3998.9518   -3593.1863   -3998.9518            0    3762.2207     17.62313    20.757719    21.500177    7865.1085    4714.6478      2438.15    4133.8642    135.63883    1354.5839    815.18396   -3161.6425 
 6566000    252.87483   -3969.0205   -3535.6017   -3969.0205            0    1556.0942    17.756913    20.915298    21.663392    8045.5917    1720.7187    1136.2068    1811.3569    680.68148    1078.8777    618.07693   -3353.0147 
 6567000    234.82195   -3999.6165   -3597.1398   -3999.6165            0   -9.1243285    17.809879    20.977685    21.728011    8117.8028    22.861468    804.66115    -854.8956   -808.78382    807.63565   -217.28487     -3598.22 
 6568000    233.64519   -3958.2915   -3557.8317   -3958.2915            0     2753.561      17.7901    20.954388     21.70388    8090.7867    808.92893    3862.7586    3588.9955   -412.64652    34.468779    635.67837    -3232.923 
 6569000    235.25108   -4000.9182   -3597.7059   -4000.9182            0    3545.9542    17.653368    20.793336    21.537068    7905.6636    3634.4129    3542.8149    3460.6348     805.1397    763.64361     831.9042   -3188.8716 
 6570000    232.51895    -3956.268   -3557.7385    -3956.268            0    1171.0247    17.760581    20.919618    21.667867    8050.5787    1273.2206    1562.9547    676.89868     154.2685    1673.5696   -678.28103   -3420.2491 
 6571000      228.646   -3972.5991   -3580.7076   -3972.5991            0    863.61083     17.75742    20.915896    21.664011    8046.2814    1470.7379     656.6749    463.41971    2.3854065    393.53254   -1674.9422   -3479.3657 
 6572000    252.14098   -3946.2366   -3514.0756   -3946.2366            0    4201.9437    17.627712    20.763116    21.505767    7871.2445    4843.0811    3487.4736    4275.2763    402.13027    1250.3981    1128.3056   -3031.7175 
 6573000    214.92708    -3967.244   -3598.8664    -3967.244            0    2267.3408    17.725043    20.877759    21.624511    8002.3484    2756.5497    2735.1207    1310.3521   -910.04372    1191.4899    600.72117    -3334.254 
 6574000    231.11974   -3963.2204   -3567.0891   -3963.2204            0     2964.824    17.677919    20.822254     21.56702    7938.6931    3519.7777    3540.7369    1833.9574   -376.47872    742.13588    -488.7225   -3223.8286 
 6575000    239.92039    -3977.166   -3565.9506    -3977.166            0    1275.5435     17.67674    20.820865    21.565582    7937.1048     1543.337    2131.7737    151.51989   -798.11998   -1168.9082   -270.41522   -3418.3007 
 6576000    234.10877   -3964.0835   -3562.8291   -3964.0835            0    2851.2652    17.646284    20.784992    21.528425    7896.1499     1872.059    2522.7773    4158.9592   -781.69615    73.222914   -131.88497   -3234.4853 
 6577000    230.13081   -3955.9581   -3561.5218   -3955.9581            0    2855.7177     17.60327    20.734327    21.475948    7838.5481       3495.7    1553.7516    3517.7016    634.08513    1017.8498   -498.49725   -3235.0641 
 6578000    253.85881   -3933.7865   -3498.6812   -3933.7865            0    4938.5333    17.441396     20.54366    21.278462    7624.2878    5387.2856    5211.8054     4216.509   -1501.3317    961.58314   -1625.4324   -2949.5538 
 6579000    237.56254   -3968.8781    -3561.704   -3968.8781            0    1749.9512    17.561415    20.685028    21.424886    7782.7689    2325.9168    810.09322    2113.8436    689.96197    -816.1885   -480.83044   -3363.0781 
 6580000    241.00644   -3924.0223   -3510.9455   -3924.0223            0    528.13575    17.660591    20.801843     21.54588     7915.371    219.99498    2132.5959   -768.18363    533.06519    1413.9036   -890.70375   -3449.9788 
 6581000    233.75931   -3942.5998   -3541.9443   -3942.5998            0      2422.29    17.528964    20.646805    21.385296    7739.7041    2366.9682    2245.3263    2654.5756   -370.47921   -62.699272    79.894996   -3268.5268 
 6582000    238.63404   -3980.7494   -3571.7388   -3980.7494            0    3903.4967    17.458393    20.563681    21.299199    7646.6007    5605.7848    3523.2056    2581.4997   -2077.4501    1515.2405   -935.40665   -3136.4293 
 6583000    226.19458   -3959.7228    -3572.033   -3959.7228            0    1415.2052    17.596221    20.726024    21.467349    7829.1355    2101.8982    1300.8222    842.89509    1308.3606    387.99223   -783.08813    -3410.445 
 6584000    248.43739   -3938.1309   -3512.3178   -3938.1309            0    3807.2557    17.473306    20.581247    21.317393    7666.2126     4286.472    3548.8632    3586.4318    134.54704   -1285.5247   -998.27409   -3086.6519 
 6585000    232.07991   -3944.3349   -3546.5579   -3944.3349            0    3478.9228     17.54836    20.669651    21.408959     7765.425    1932.2699    4539.4163    3965.0823    111.03255    2526.6415   -140.38722   -3152.5673 
 6586000    232.89866   -3948.7235   -3549.5432   -3948.7235            0    423.15156    17.613369    20.746223    21.488269    7852.0474   -459.48477   -246.69271    1975.6322    142.46746   -627.37429   -1258.1202   -3501.0863 
 6587000    231.57337   -3967.9167   -3571.0079   -3967.9167            0    1372.8716     17.55663    20.679391    21.419048    7776.4084    345.20179    691.43264    3081.9804   -817.40069    993.82552    -1554.559   -3415.3092 
 6588000    241.22892   -3950.7361    -3537.278   -3950.7361            0    2560.8962    17.598909     20.72919    21.470628     7832.724    3783.1887    2302.6296    1596.8704   -867.16055    400.02305     -1135.06   -3244.7411 
 6589000    227.46521   -3977.7448   -3587.8772   -3977.7448            0     3138.429    17.550644    20.672341    21.411745    7768.4574    3841.9713    4134.3141    1439.0016   -890.74751     241.1861    -503.0881    -3232.309 
 6590000    230.98897   -3966.6849   -3570.7777   -3966.6849            0    1580.8584    17.642996    20.781119    21.524415    7891.7375    1203.2801    2445.9945    1093.3007    84.043096    76.856263   -2.0607441   -3388.8321 
 6591000    227.54624   -3970.4661   -3580.4597   -3970.4661            0    1315.3489    17.577407    20.703864    21.444396    7804.0501    1000.7301    2171.1698    774.14676   -453.81163    254.02588   -865.54891   -3430.7545 
 6592000    259.64563   -3992.0503   -3547.0266   -3992.0503            0    1849.9786    17.578435    20.705075     21.44565    7805.4194    2214.0238     2202.493    1133.4189   -731.58622   -1311.2212     -882.667   -3336.4361 
 6593000    235.47955   -3989.1119    -3585.508   -3989.1119            0    1307.2183    17.607535    20.739351    21.481152    7844.2475      1879.09    1587.9005    454.66437    116.91115    699.32011   -783.56205   -3435.9618 
 6594000    221.28375   -3942.1951   -3562.9223   -3942.1951            0     1462.771    17.611499     20.74402    21.485988    7849.5465    1779.2943    1118.9022    1490.1166    960.95094   -45.626075   -44.607011   -3395.4678 
 6595000    232.76964   -3960.8003   -3561.8411   -3960.8003            0    3114.2277    17.535296    20.654262     21.39302    7748.0939    4121.8301    1989.1624    3231.6906    1161.9488    426.38075    62.108102   -3209.9396 
 6596000    253.07337   -3965.4112   -3531.6521   -3965.4112            0    703.18769    17.588263     20.71665    21.457639    7818.5175    1308.4279     376.3376    424.79758    -885.0627    688.46316   -86.558862   -3451.4711 
 6597000    238.63091   -3963.0749   -3554.0696   -3963.0749            0    3000.8657    17.601455    20.732188    21.473733    7836.1233    2853.1724    1887.8617    4261.5631    109.81911   -107.03401   -620.24782   -3211.1252 
 6598000     232.6988   -3975.8138    -3576.976   -3975.8138            0    2033.1293    17.559528    20.682805    21.422583    7780.2602    2521.9738    1312.9612     2264.453   -1368.0252    -99.25989   -1946.6232   -3346.2827 
 6599000    231.34553   -3966.7786   -3570.2603   -3966.7786            0    1325.3223     17.62429    20.759085    21.501592    7866.6613    2362.0347    2043.6395   -429.70735   -224.89997    -2102.511   -1179.2957   -3418.2098 
 6600000    232.66561   -3981.1808   -3582.3999   -3981.1808            0    3976.3775    17.607973    20.739866    21.481686    7844.8324    5589.6471    3715.7352    2623.7502    293.37836   -1543.4932   -549.12631   -3127.4672 
 6601000     236.6909   -4003.2504   -3597.5703   -4003.2504            0    1314.9726    17.677432     20.82168    21.566426    7938.0375    757.58931    3369.2222   -181.89357    606.45454    299.92359    200.63431   -3445.3384 
 6602000    246.50159   -3976.0635   -3553.5682   -3976.0635            0    1822.9789    17.673383    20.816911    21.561487    7932.5842     2529.843    1870.8151    1068.2788    1008.2383    1114.5236    56.767526   -3342.6703 
 6603000    238.95122   -3958.5542        -3549   -3958.5542            0    3886.3815    17.547917    20.669128    21.408417     7764.836    4191.8549    3145.9532    4321.3364    -173.7474    1089.5566    206.60789   -3108.8978 
 6604000    240.90805   -3999.1958   -3586.2877   -3999.1958            0    1052.0048    17.639007     20.77642    21.519547    7886.3851    1645.9512    263.09305    1246.9702   -1196.0873   -541.20293   -345.60793   -3465.2915 
 6605000    242.33578   -3983.5162   -3568.1609   -3983.5162            0    257.78995    17.749365    20.906408    21.654184    8035.3363   -277.57073    1221.4792   -170.53865   -559.66001   -1016.0234   -1035.6575   -3537.9513 
 6606000    223.66745   -3992.7955   -3609.4372   -3992.7955            0    1947.0239    17.576311    20.702573    21.443059    7802.5902     71.18454    3239.1138    2530.7734    59.409937    867.97028   -272.79859   -3387.8799 
 6607000    236.57404   -4009.5588    -3604.079   -4009.5588            0     2312.618    17.560914    20.684437    21.424274     7782.102    949.54191    2256.3096    3732.0026    64.040572   -599.99205    360.40748   -3341.6108 
 6608000    234.17751   -3959.1773   -3557.8051   -3959.1773            0    2011.1965    17.537957    20.657396    21.396266    7751.6217    1460.2807    2393.6132    2179.6958    483.40241    541.50305   -161.82102   -3330.4404 
 6609000     230.7366   -3954.6845   -3559.2098   -3954.6845            0    2232.5862    17.602047    20.732886    21.474456    7836.9144    957.71966    2090.6962    3649.3428    1032.5805   -626.91678   -1649.4285   -3304.0401 
 6610000    216.95241   -3925.2151   -3553.3661   -3925.2151            0    2764.9329     17.62949     20.76521    21.507936    7873.6265    1293.9509    2814.5065    4186.3414    1010.0818     1012.383    302.93186   -3235.8722 
 6611000    236.65621   -3956.4931   -3550.8724   -3956.4931            0     1631.694    17.654725    20.794934    21.538723    7907.4866    144.25879    2803.8658    1946.9573   -841.61535    91.788971    281.81215   -3362.7012 
 6612000    240.42814     -3967.18   -3555.0944     -3967.18            0    2822.7096    17.579355    20.706158    21.446772     7806.644     1927.527    3626.8023    2913.7994    1494.3858    1176.0394   -549.05937   -3233.7235 
 6613000    228.86964   -3956.8248     -3564.55   -3956.8248            0     1497.358    17.625176     20.76013    21.502674    7867.8489    821.17736    2172.7165    1498.1803    1463.0722   -370.64809    478.72869   -3392.7364 
 6614000    249.99004    -3974.784   -3546.3097    -3974.784            0    2097.5524    17.673143    20.816628    21.561194    7932.2608    1217.5668    3324.3907    1750.6996      1214.37    1040.2351    695.66234   -3303.6567 
 6615000    252.80767   -3977.4193   -3544.1156   -3977.4193            0     3130.056    17.623058    20.757634     21.50009    7865.0121      4111.43    3328.4213    1950.3168    71.221261    87.303552   -147.03287   -3185.0884 
 6616000    223.48238   -3957.7745   -3574.7334   -3957.7745            0    3508.8893    17.602552    20.733481    21.475072    7837.5888    3707.8343    4088.6173    2730.2162   -299.21456   -994.82211    870.53377   -3173.6561 
 6617000    216.39748   -3975.6488   -3604.7509   -3975.6488            0    2137.3072    17.629671    20.765423    21.508157    7873.8688    1409.9301    1553.4482    3448.5431    1027.3906   -624.50704     509.0082    -3359.319 
 6618000    225.90917   -3970.5946   -3583.3941   -3970.5946            0    1303.0035    17.630995    20.766983    21.509772    7875.6432    2064.6898   -81.941661    1926.2623    459.66963    51.117458   -176.67599   -3433.7335 
 6619000      241.479   -3974.4941   -3560.6073   -3974.4941            0    1897.0224    17.644356    20.782721    21.526074    7893.5625    2390.3159    2014.4383    1286.3129   -938.06808   -1308.7225    627.44476    -3342.223 
 6620000     233.4524   -3988.3982   -3588.2688   -3988.3982            0    364.37959    17.706931    20.856425    21.602414    7977.8424   -1218.3794    138.43114     2173.087    776.25092     433.8842   -498.75166   -3545.8737 
 6621000    235.11213   -3988.9551    -3585.981   -3988.9551            0    2043.7795    17.680674    20.825499    21.570381    7942.4056    1110.5666    1615.9379    3404.8338    810.12905   -357.06458    -1777.479   -3349.2462 
 6622000    249.49044   -3977.5375   -3549.9194   -3977.5375            0     919.9003    17.684192    20.829642    21.574673    7947.1469    17.191882    534.51195    2207.9971    731.66802   -22.567454    317.67842   -3443.3021 
 6623000    229.06104   -3991.2762   -3598.6734   -3991.2762            0    1713.0833    17.603731     20.73487    21.476511    7839.1646    1913.3608    1759.3732     1466.516   -434.09442    444.24281   -1486.6645   -3402.8231 
 6624000     245.4698   -3964.6751   -3543.9483   -3964.6751            0     1925.023    17.555277    20.677798    21.417398    7774.6113    1645.0471    1271.1398    2858.8822    731.01224    986.16453   -603.81133   -3325.6801 
 6625000    238.43406   -3947.2279   -3538.5601   -3947.2279            0    3953.9086    17.659365    20.800399    21.544384    7913.7228    3893.1789    3584.2262    4384.3206    300.18187     1546.305   -1470.9042   -3082.2255 
 6626000    243.05827    -3991.285   -3574.6915    -3991.285            0     2299.058    17.643464     20.78167    21.524985    7892.3653    3322.9661    3186.1089    388.09915    413.57128     -1373.79    729.72585   -3310.0652 
 6627000    248.94441   -3994.3883   -3567.7061   -3994.3883            0     2284.291    17.657674    20.798407    21.542321    7911.4492    2002.7756     2086.086    2764.0113    267.13887    479.21605     516.5161   -3304.1437 
 6628000     241.5748   -3984.5702   -3570.5192   -3984.5702            0    1786.9127    17.626967    20.762239    21.504859    7870.2474    736.43455    1309.4934    3314.8101    868.73051    261.13321    545.85175   -3365.4183 
 6629000    243.60514   -3974.1861   -3556.6553   -3974.1861            0    2166.3102    17.637037      20.7741    21.517144    7883.7436    2809.8157    2239.0994    1450.0155    693.13471    876.16131    462.30815   -3307.5809 
 6630000    236.94174   -4023.7401   -3617.6301   -4023.7401            0    4848.7092    17.521249    20.637717    21.375883    7729.4891    5339.6937    4974.7755    4231.6582    374.16898   -726.26344   -5.7110152   -3071.0513 
 6631000    224.81686   -4006.5953   -3621.2668   -4006.5953            0    1228.8854    17.641465    20.779315    21.522546    7889.6821    1604.0761    2250.8713   -168.29111   -976.84079    937.59517   -946.29114   -3479.8677 
 6632000    236.59385   -3959.0839   -3553.5701   -3959.0839            0      2875.39     17.64008    20.777685    21.520857     7887.825    2452.5696    1738.6705    4434.9299    18.407734   -610.46168    1726.8233   -3222.7973 
 6633000    231.77373   -3989.5222   -3592.2699   -3989.5222            0    1070.9644    17.639702    20.777239    21.520395    7887.3173    1090.4559    903.50655    1218.9307    752.67364   -1030.2648   -20.699579   -3469.0786 
 6634000    227.12773   -4003.1951    -3613.906   -4003.1951            0    3416.9443    17.605553    20.737016    21.478733    7841.5985    3725.8382    3987.6513    2537.3435   -428.25103   -742.03557   -508.63854   -3223.1385 
 6635000    222.47979     -4000.27   -3618.9473     -4000.27            0    2747.0438    17.567529    20.692229    21.432344       7790.9    2707.1429    4337.2756    1196.7129   -157.02148   -246.83444   -1891.9783   -3306.8219 
 6636000    235.09921   -3982.1993   -3579.2473   -3982.1993            0    488.75918    17.639515    20.777019    21.520167    7887.0667    139.74841    1832.9962   -506.46703   -325.41561    200.77107   -741.20796   -3523.0279 
 6637000    242.19081   -4020.2999   -3605.1932   -4020.2999            0    2034.4208    17.599892    20.730348    21.471827    7834.0367    639.43283    3030.7019    2433.1276    516.26299    53.410179    998.73583   -3372.7578 
 6638000    247.46795   -3997.1373   -3572.9857   -3997.1373            0    2398.1391    17.544135    20.664673    21.403803    7759.8165      3136.13    2376.1702     1682.117   -1464.8182    510.92945   -215.27259   -3301.5908 
 6639000    219.95881   -3997.7971   -3620.7952   -3997.7971            0    119.90768     17.64358    20.781807    21.525127    7892.5208    465.50392     766.8752   -872.65607    1031.1506    668.10987    192.80094   -3606.9933 
 6640000    232.77431   -3975.9037   -3576.9364   -3975.9037            0    2447.9627    17.652039     20.79177    21.535447    7903.8781    819.80529    3954.6416    2569.4412   -749.35395   -459.62764   -609.45119   -3294.7599 
 6641000    221.73347   -3983.7268   -3603.6832   -3983.7268            0    1778.7035    17.660849    20.802147    21.546194    7915.7179    564.35682    3481.4099    1290.3437    1874.8913       93.659    343.70656    -3398.345 
 6642000    234.19621   -3990.6444   -3589.2401   -3990.6444            0    3611.3848    17.655003    20.795261    21.539062    7907.8598    2023.4526      3692.17    5118.5318    -552.2452      224.494   -1401.7208   -3172.7462 
 6643000    225.14572   -3976.8998   -3591.0078   -3976.8998            0    249.73931    17.663759    20.805575    21.549745    7919.6317   -1403.5774    211.11426     1941.681   -158.77766    641.99081    -26.06431    -3562.163 
 6644000    234.87594   -3988.8588   -3586.2894   -3988.8588            0    2303.7709    17.567644    20.692364    21.432484    7791.0524    2013.8231    2916.0066    1981.4831    318.72103   -711.23309   -541.53341   -3324.5246 
 6645000    254.62372   -3999.2225   -3562.8062   -3999.2225            0    2524.0511    17.669669    20.812536    21.556955    7927.5834    3889.3163    1517.6866    2165.1504   -121.35641    467.23391    85.256622   -3270.9863 
 6646000    236.23809   -4016.6197   -3611.7157   -4016.6197            0    2112.5101    17.665352    20.807452    21.551689    7921.7751    1946.0193    2668.6504    1722.8606   -414.77837    574.97872    737.73647   -3367.6553 
 6647000     219.8145    -3986.172   -3609.4175    -3986.172            0    1195.2891    17.699696    20.847903    21.593587    7968.0671     1720.897    296.58408    1568.3863   -543.87008    249.18078   -408.71763   -3470.5176 
 6648000    230.12626   -4005.7662   -3611.3377   -4005.7662            0    2973.8695    17.592458    20.721592    21.462758     7824.114    3200.9208    1649.3769    4071.3108   -653.56427   -952.04069    961.69805   -3271.9993 
 6649000    255.18047   -3980.3426    -3542.972   -3980.3426            0    3189.7187     17.63355    20.769992    21.512889    7879.0676    4594.3673    2546.5437    2428.2452    825.60772    386.53634     851.3645   -3176.4474 
 6650000    241.36154   -4007.3223   -3593.6369   -4007.3223            0    2107.6778    17.720073    20.871906    21.618448    7995.6199    2017.5408    2833.9466     1471.546    860.78575     376.4104    108.08829    -3347.865 
 6651000    246.83855   -3986.2241   -3563.1513   -3986.2241            0    2627.0491    17.660843    20.802141    21.546188    7915.7104    2347.4156    2475.9596    3057.7722   -530.85783    730.64065   -670.65763   -3259.8781 
 6652000    223.79656   -3993.5954   -3610.0158   -3993.5954            0     2255.004    17.588637    20.717091    21.458096    7819.0168    1663.1438    1356.7223    3745.1459   -2301.5407    1322.8778   -396.72474   -3352.8724 
 6653000    249.06298   -4004.8426   -3577.9572   -4004.8426            0    1316.4157    17.698437     20.84642    21.592051    7966.3668    132.43385    2609.4698    1207.3435     1156.812    865.33215    438.80602   -3425.0143 
 6654000    231.73649   -4011.3491   -3614.1607   -4011.3491            0    1350.8361      17.7624    20.921761    21.670086    8053.0521    904.66045    2314.5197    833.32817    1341.9802    474.35726    -551.2378   -3455.5111 
 6655000    246.68493   -4029.8984   -3607.0888   -4029.8984            0    2638.5464    17.694001    20.841196     21.58664    7960.3793    3208.6884    2850.4357    1856.5152   -257.92117    446.36678    593.71538   -3300.7695 
 6656000    220.91616   -4024.2396   -3645.5968   -4024.2396            0    2083.7624    17.729442     20.88294    21.629877    8008.3079    3198.5605    1544.3606     1508.366   -23.840618    469.15419   -783.90128   -3402.2281 
 6657000    235.03662   -4031.4463   -3628.6015   -4031.4463            0     2382.103    17.788146    20.952086    21.701496    8088.1205    3511.5175    1452.5427    2182.2488   -861.63885   -966.72608   -216.04052   -3347.6159 
 6658000    237.95169    -4032.052    -3624.211    -4032.052            0    4446.6266    17.640478    20.778153    21.521341    7888.3579    3479.7436    5603.9693    4256.1668    882.14746   -838.13151   -652.77049    -3112.655 
 6659000    229.70266   -4019.4223   -3625.7198   -4019.4223            0    948.50879    17.803148    20.969757    21.719799    8108.6026    1901.4057    1025.7558   -81.635096    1135.0496   -87.127584    -123.8963   -3513.5533 
 6660000    252.28522   -4005.6948   -3573.2866   -4005.6948            0    3219.3443    17.787067    20.950815     21.70018    8086.6489    2179.1729    4263.4973    3215.3626     1262.227   -713.99104   -1128.9482   -3193.6117 
 6661000    226.07619   -4030.2083   -3642.7214   -4030.2083            0     1116.585     17.79159    20.956143    21.705698    8092.8196    518.51246    1153.2842    1677.9584    1399.2757    -228.0613    889.46097   -3510.9359 
 6662000    233.18432   -4005.6856   -3606.0157   -4005.6856            0    1225.0105    17.736689    20.891477     21.63872    8018.1332    1508.2693    227.77988    1938.9825   -1141.2393    688.55919   -805.79503   -3462.7676 
 6663000    238.39588   -3987.5682   -3578.9659   -3987.5682            0    2981.4332    17.691838    20.838648    21.584001      7957.46    2360.0755    3556.5695    3027.6545    789.31883   -1179.4609   -678.44987   -3232.9664 
 6664000    238.10291   -3995.7533   -3587.6531   -3995.7533            0    2403.9056    17.681581    20.826567    21.571487    7943.6273    2484.2049    414.18437    4313.3275     58.53625     1343.495   -352.00539   -3309.1615 
 6665000    230.87616   -3987.3994   -3591.6855   -3987.3994            0    1560.7012    17.773903     20.93531     21.68412    8068.7085    719.04877    1284.6835    2678.3713   -152.59496    182.58467   -484.56031   -3408.0318 
 6666000    237.54293   -3972.3255    -3565.185   -3972.3255            0    2215.3922    17.683356    20.828657    21.573653    7946.0197    1222.6458    3666.8893    1756.6414    1430.9858     276.0481    132.04085   -3308.4553 
 6667000     226.1917   -4006.8841   -3619.1992   -4006.8841            0    696.89523    17.764984    20.924804    21.673239     8056.567     1236.549    -514.7492    1368.8859   -1049.3205    262.57827     266.1818   -3537.3163 
 6668000     252.2768   -3987.8896   -3555.4958   -3987.8896            0    1307.1035    17.738505    20.893616    21.640935    8020.5963    1990.6313   -38.018256    1968.6975   -943.16495    271.45953   -400.77871    -3402.601 
 6669000    240.24346   -3958.1808   -3546.4118   -3958.1808            0    2633.3904    17.680347    20.825113    21.569982    7941.9643    4381.1217    1826.7016     1692.348    123.37202    735.74513   -128.46477   -3241.3983 
 6670000    236.15564   -3976.4182   -3571.6555   -3976.4182            0    2001.7233    17.664597    20.806562    21.550767    7920.7589    3467.4521    1882.2601    655.45777   -1073.4889    988.02848   -282.33652   -3340.4241 
 6671000    234.90296   -3994.7229   -3592.1073   -3994.7229            0    1991.2521    17.723301    20.875707    21.622385    7999.9891    2500.0129    1150.8698    2322.8735    372.64577    31.657442   -170.43636   -3359.7846 
 6672000    235.91083   -3978.9976   -3574.6545   -3978.9976            0     3148.904    17.686842    20.832764    21.577906    7950.7209    3999.9579    2775.1445    2671.6097   -454.10577    38.297915    589.33175   -3209.5293 
 6673000    241.68984   -3999.6481      -3585.4   -3999.6481            0    3622.5365     17.64355    20.781772     21.52509    7892.4808    3737.8974    4236.5208    2893.1912   -614.79225   -212.47304   -974.74351   -3168.4325 
 6674000    236.05807    -4001.463   -3596.8675    -4001.463            0    1311.6397    17.719128    20.870792    21.617295    7994.3402    898.83917    185.51659    2850.5632    -828.1202    476.89597   -486.00997   -3443.9444 
 6675000    244.64839   -3980.2676   -3560.9486   -3980.2676            0    2990.4016    17.617075    20.750587     21.49279    7857.0046    2382.9195    3440.1919    3148.0934    539.25139   -95.038342    -798.3415   -3218.2894 
 6676000    242.11904   -4006.4126   -3591.4289   -4006.4126            0     3333.732    17.548729    20.670084    21.409408    7765.9138    2320.0979    3345.6716    4335.4263    281.36739    537.83495   -941.01603   -3213.8574 
 6677000    246.09549   -3977.6366   -3555.8374   -3977.6366            0    3349.0819    17.584619    20.712359    21.453195    7813.6599    1289.7088    3169.7679     5587.769    327.42584   -618.82533   -290.46309   -3174.1954 
 6678000    239.50392     -3965.72   -3555.2184     -3965.72            0    2272.7813    17.668261    20.810878    21.555238    7925.6891    3609.6171    1180.1369    2028.5899   -219.97173    1079.2363   -861.40311   -3292.5121 
 6679000    230.95704     -3958.66   -3562.8076     -3958.66            0    1306.2573    17.621707    20.756044    21.498442     7863.204    2163.4744    1936.5128   -181.21535    233.14562    512.23935   -718.42833   -3413.0102 
 6680000    241.07295   -3977.5348    -3564.344   -3977.5348            0    3215.9216    17.644971    20.783445    21.526823    7894.3868     3512.167    2758.7974    3376.8006     850.0149   -498.91842    425.03944     -3194.09 
 6681000    239.06668   -3937.2212   -3527.4691   -3937.2212            0    3244.8472     17.59613    20.725917    21.467238    7829.0146     3633.178     4106.151    1995.2127    751.21345    977.35545   -1036.5417   -3156.9784 
 6682000    245.84972   -3935.8839   -3514.5059   -3935.8839            0    1548.5907    17.685373    20.831033    21.576113     7948.739    52.506641    2528.2055      2065.06    491.95109    38.246404    -1084.471   -3334.9867 
 6683000    230.00915   -3963.6542   -3569.4264   -3963.6542            0    1828.3484    17.714795    20.865689    21.612009    7988.4772    1078.6323    3453.7098    952.70314    483.05612    297.08367   -379.25357    -3356.417 
 6684000    233.00827    -3984.308   -3584.9397    -3984.308            0    2579.8074    17.696568    20.844219    21.589771    7963.8435    4459.0065    3169.7834    110.63243   -409.29944    661.63231    112.50098   -3285.3093 
 6685000    238.84301   -3956.3836   -3547.0148   -3956.3836            0    2164.1117    17.691464    20.838208    21.583545    7956.9549     3089.677    1258.3489    2144.3092    470.98886    665.85474    443.02063   -3295.8826 
 6686000     231.1592   -3941.2074   -3545.0084   -3941.2074            0    2694.8279    17.704468    20.853525     21.59941    7974.5142    2895.9018    3127.3695    2061.2124    146.61702     427.7522    190.29824   -3231.5996 
 6687000    240.70938   -3988.3641   -3575.7964   -3988.3641            0    1841.7304    17.688872    20.835154    21.580382     7953.458    2229.6905    1820.1367     1475.364    565.87583   -879.41327    596.28825   -3362.1685 
 6688000    259.60816   -4002.1495     -3557.19   -4002.1495            0    2026.2217    17.703293    20.852141    21.597976    7972.9269    1540.5554    2091.6314    2446.4784    1351.2029    527.75671    1680.7849   -3321.5871 
 6689000    230.61371    -3987.095    -3591.831    -3987.095            0    2053.9301    17.661692     20.80314    21.547223    7916.8515    2201.8877    2213.4998    1746.4027    1633.7318   -538.02903    269.97841    -3354.686 
 6690000    244.73731   -3942.1684    -3522.697   -3942.1684            0    3669.3719    17.649162    20.788381    21.531936    7900.0138    3660.2593    2365.1668    4982.6896   -363.57776    523.45232    -563.0205   -3099.9355 
 6691000    236.69648   -3954.1968   -3548.5071   -3954.1968            0    1952.5047    17.756671    20.915013    21.663097    8045.2628    1485.1806    2197.2417    2175.0918   -368.44355   -532.34233   -525.74367    -3319.416 
 6692000    235.84021   -3960.6295   -3556.4074   -3960.6295            0    2860.4983    17.658239    20.799073     21.54301    7912.2088    2570.3352    2559.4361    3451.7235    655.03404    -531.9327    336.06554   -3226.3304 
 6693000    241.39319   -3977.8246    -3564.085   -3977.8246            0    4035.9752    17.658643    20.799549    21.543503    7912.7523    3318.8663    4921.8773    3867.1819   -1666.3661    153.39584    1375.5342   -3098.3359 
 6694000    250.10862     -3983.81   -3555.1323     -3983.81            0    1963.8326    17.722395    20.874641    21.621281    7998.7635    3019.0197    1276.0964    1596.3817    74.564915    727.49403     -738.772   -3326.0439 
 6695000    230.63792   -3983.5702   -3588.2647   -3983.5702            0    2037.3847     17.74599    20.902433    21.650067    8030.7539    1306.7455    2675.2036     2130.205   -601.99039    818.83938   -637.35321   -3349.6456 
 6696000    237.41891   -3975.8991   -3568.9712   -3975.8991            0    892.08758    17.802938    20.969509    21.719543    8108.3153    1578.3537    301.00624    796.90279    623.18526    8.5933362    646.08907   -3463.4806 
 6697000    226.87042   -3943.5937   -3554.7455   -3943.5937            0    2598.3619    17.715223    20.866193    21.612531     7989.056    1950.9511    1625.0558     4219.079   -211.75314   -153.44923    346.84261   -3252.0047 
 6698000    238.72986   -3969.7265   -3560.5517   -3969.7265            0    1835.0061    17.761762     20.92101    21.669308    8052.1847    69.800674    3587.9867    1847.2308    888.44076   -546.25649   -468.57134   -3345.0617 
 6699000    241.75118   -3946.8935   -3532.5403   -3946.8935            0    1570.2993    17.705735    20.855017    21.600956    7976.2265     856.2262    1946.5748    1908.0969    1071.2207   -841.88925   -548.04457   -3349.8751 
 6700000    246.62171   -3974.9383   -3552.2371   -3974.9383            0     1871.289     17.70673    20.856189     21.60217    7977.5716    1550.9479     2517.905     1545.014   -1435.7373   -102.36001   -312.22173   -3334.5226 
 6701000    234.01874    -3953.846   -3552.7459    -3953.846            0    2271.0324    17.683723    20.829089      21.5741    7946.5142    2419.0667     2725.639    1668.3915   -630.99738   -549.89316    682.66075    -3289.552 
 6702000    235.41378      -3949.7   -3546.2088      -3949.7            0    674.30699    17.797787    20.963442    21.713259    8101.2793    409.49653    855.15717    758.26727    716.80734   -195.69009    314.59157   -3466.5402 
 6703000    231.11679   -3969.8317   -3573.7055   -3969.8317            0    2755.6612    17.751015    20.908351    21.656197    8037.5775    3512.5756    1208.6361    3545.7719    718.79016      691.849   -19.026604   -3250.6873 
 6704000    230.67478   -3984.7761   -3589.4074   -3984.7761            0    1305.0085    17.769827    20.930509    21.679147    8063.1581     3775.463   -809.71185    949.27432    1402.9289   -949.14232   -341.71833   -3435.9477 
 6705000    212.46429   -3960.9489   -3596.7924   -3960.9489            0    1557.7053    17.747666    20.904406    21.652111    8033.0286    1662.3773    2165.0051    845.73357    1157.2607    233.36446    346.13856   -3414.3018 
 6706000    228.51826   -3975.3913   -3583.7188   -3975.3913            0    2823.6335    17.693263    20.840326    21.585739    7959.3821     2563.515    3554.6079    2352.7777     793.4355   -308.80184    991.72096   -3255.9531 
 6707000    233.42282   -3964.1406   -3564.0619   -3964.1406            0    3600.8211    17.668688    20.811381    21.555758    7926.2634    4592.2544    3255.0096    2955.1993    1058.3984    1999.5193   -1145.9491   -3147.8199 
 6708000    248.44842   -3972.3685   -3546.5364   -3972.3685            0    2658.1995    17.653356    20.793321    21.537053    7905.6469    2861.3157    2866.2234    2247.0593   -182.86715   -151.36332   -874.70931   -3240.0573 
 6709000    242.66652   -3989.2587   -3573.3366   -3989.2587            0    1838.7535      17.6953    20.842726    21.588224    7962.1316    2089.0073    2216.5779    1210.6753    89.367602   -28.692969   -424.05108   -3359.8214 
 6710000    242.09067   -3958.7309   -3543.7958   -3958.7309            0    2301.2566    17.634871    20.771548    21.514501    7880.8386    2307.8738    3734.3969    861.49925   -592.66622    979.49973   -665.40045   -3279.3033 
 6711000    245.47547   -3993.3048   -3572.5682   -3993.3048            0    2816.5936    17.632198      20.7684     21.51124     7877.256    2746.9001    2692.8011    3010.0796   -470.07062    1006.1669    430.43801   -3248.9932 
 6712000    245.99983   -3979.9702   -3558.3349   -3979.9702            0    3413.5982    17.585198     20.71304    21.453901    7814.4314    2219.1831    4557.1444    3464.4672     -100.027     533.6004   -1125.7903   -3169.3026 
 6713000     247.1926   -3973.7016    -3550.022   -3973.7016            0    3217.2441    17.489845    20.600727     21.33757    7688.0014    1947.0834    3885.5822    3819.0667   -1134.3124    445.20878    681.87824   -3189.2994 
 6714000    238.59617   -3970.7559   -3561.8103   -3970.7559            0    2135.2926    17.481908    20.591379    21.327887      7677.54   -127.58047    3435.7069    3097.7513   -127.08277    1149.8323    257.11145   -3322.7236 
 6715000    220.68395   -3996.4505   -3618.2058   -3996.4505            0    2715.3037    17.569719    20.694808    21.435016    7793.8139    1521.5587    2614.1944     4010.158    780.65665    1947.2642     -1141.19   -3309.5714 
 6716000    231.78405   -3964.4316   -3567.1617   -3964.4316            0    1091.5065    17.585557    20.713463    21.454338    7814.9093   -777.31158    1588.8558    2462.9753   -1530.5787    323.94353   -94.169348     -3442.76 
 6717000    229.39402   -3973.0075    -3579.834   -3973.0075            0    2079.5343    17.540346     20.66021    21.399181    7754.7897    1024.0124    2490.9018    2723.6888    901.62231    198.37553   -929.21768   -3344.6477 
 6718000    242.38909   -3968.5141   -3553.0675   -3968.5141            0    2050.7042    17.639161    20.776601    21.519735    7886.5913    3399.1352     1716.679    1036.2984   -609.07066   -318.51571    927.72026   -3317.1999 
 6719000    236.45744   -3936.5603   -3531.2804   -3936.5603            0    1448.7445    17.703096    20.851908    21.597736    7972.6601    885.59158     1035.672    2424.9698   -166.13522   -295.62762    823.27749   -3362.8304 
 6720000    224.16346   -3956.0604   -3571.8519   -3956.0604            0    1051.1822    17.625491    20.760501    21.503058    7868.2706    819.92634     2166.327    167.29334    -857.4167   -1054.6315    506.85606    -3451.228 
 6721000    239.56299   -3955.4038    -3544.801   -3955.4038            0    1555.5588     17.68307     20.82832    21.573304    7945.6339    1259.8265    1706.8716    1699.9783   -343.72087   -1154.4494   -1140.5691   -3364.5445 
 6722000    233.61268   -3982.3758   -3581.9716   -3982.3758            0    1919.3373    17.624314    20.759114    21.501622    7866.6937    1621.5849    2505.1976    1631.2292    986.66256    276.94641   -357.86225   -3361.7706 
 6723000    227.39877   -3950.1943   -3560.4406   -3950.1943            0    2439.6627    17.616873     20.75035    21.492544    7856.7346    3704.6467    1302.3534    2311.9881    181.06717    1089.6432    -1416.938   -3280.8982 
 6724000    234.22362    -3964.918   -3563.4667    -3964.918            0    3582.6711    17.587038    20.715208    21.456145    7816.8845    3557.7493    3769.7394    3420.5248    929.05012   -251.88066    1083.1031   -3155.0378 
 6725000    232.49571   -3965.2169   -3566.7272   -3965.2169            0    3793.4863    17.568885    20.693826    21.433998    7792.7038    2969.9247    4087.6989    4322.8354   -1178.3083   -915.11347   -53.828256   -3135.6028 
 6726000    235.39798   -3957.3442   -3553.8801   -3957.3442            0    1645.6965    17.572824    20.698465    21.438804    7797.9468    1474.7086    2835.0401    627.34073   -331.46315    389.36912   -269.15477   -3366.7231 
 6727000     244.6603   -3929.0797   -3509.7403   -3929.0797            0    1747.1488    17.665342     20.80744    21.551676    7921.7616    2216.3541    142.71443    2882.3779    55.463219    127.41806   -1288.0814   -3307.8909 
 6728000    240.67856   -3954.5353   -3542.0205   -3954.5353            0     3570.937    17.559282    20.682515    21.422283    7779.9333    2122.1198    3937.8922     4652.799    375.76722   -65.444747    38.155554   -3136.8536 
 6729000    244.21102    -3969.171   -3550.6017    -3969.171            0    3231.6272    17.610597    20.742958    21.484888    7848.3408    4949.0036    2674.6176    2071.2605     400.7632   -615.19733   -159.12991   -3180.7097 
 6730000    241.90839   -3933.2074   -3518.5847   -3933.2074            0    2483.1561    17.621301    20.755565    21.497946    7862.6603    2263.5829    2253.6404    2932.2449   -272.24776   -1006.6756   -528.60025   -3233.8441 
 6731000    241.87669   -3961.8454    -3547.277   -3961.8454            0    2816.9217    17.625705    20.760753    21.503319    7868.5572     1868.031    3054.7998    3527.9344   -747.22533    637.68179   -503.93485   -3224.0216 
 6732000    228.00372    -3943.383   -3552.5924    -3943.383            0    3742.0906    17.586997     20.71516    21.456096    7816.8302    4176.3525    3229.8073    3820.1122    163.63174    1147.2836   -201.88541   -3125.9924 
 6733000    238.95958   -3984.8641   -3575.2956   -3984.8641            0    3846.2846    17.548814    20.670185    21.409512    7766.0269    3966.1314    3543.9789    4028.7436    978.80659    935.24068   -519.88492   -3139.6672 
 6734000    243.39967   -3971.9447    -3554.766   -3971.9447            0    3429.7308    17.670633    20.813672    21.558131    7928.8815      3830.22    4305.2914    2153.6809    944.41892   -460.58929    867.41444   -3158.1704 
 6735000    231.08088   -3985.5411   -3589.4764   -3985.5411            0    2458.8616    17.574358    20.700272    21.440675    7799.9885    2975.6335    1500.4837    2900.4676   -133.54824    671.78068    372.92996    -3309.769 
 6736000    232.84722   -3968.8485   -3569.7563   -3968.8485            0     1328.864    17.603326    20.734393    21.476017    7838.6235    1225.7777   -552.29194    3313.1062    544.45285   -138.26352    774.84013   -3417.8429 
 6737000    238.18386    -3971.453    -3563.214    -3971.453            0    3700.2797    17.494407      20.6061    21.343135    7694.0186    2972.5467    4390.8926    3737.3998   -667.52767    801.57774     444.8659    -3148.008 
 6738000    237.95661   -3946.3639   -3538.5144   -3946.3639            0    552.51276    17.556802    20.679594    21.419257     7776.637    2019.7821    -1089.792    727.54816    957.29798     -682.664   -260.37289   -3475.8516 
 6739000    236.12268   -3969.7178   -3565.0116   -3969.7178            0    125.88863    17.616619     20.75005    21.492234    7856.3944    923.63224   -885.42089    339.45454   -1149.9113    68.728769    84.501932   -3550.5876 
 6740000    240.89442   -3982.6079   -3569.7231   -3982.6079            0    2230.9758      17.4865    20.596787    21.333489    7683.5912    3719.3189    1587.9398    1385.6687    -281.1957    379.89544    833.72562    -3319.726 
 6741000    222.18272   -3983.9951   -3603.1815   -3983.9951            0    3021.9516    17.411945    20.508971    21.242532    7585.7307    2181.2232    3547.0548    3337.5769   -369.70786   -549.89151    91.084742   -3268.8627 
 6742000    230.94464   -3960.0206   -3564.1894   -3960.0206            0    1926.5126    17.512692    20.627638    21.365443    7718.1696     2281.781    1080.8822    2416.8746    1328.3722    4.8687593    853.93271   -3347.3381 
 6743000    234.80241   -3955.2602   -3552.8169   -3955.2602            0    778.16091    17.600073    20.730561    21.472048    7834.2784    1380.3276    855.51279    98.642344   -1493.0781    335.61673   -1166.2564   -3463.9082 
 6744000    245.69767    -3980.123   -3559.0056    -3980.123            0    2870.1697    17.451101    20.555091    21.290302    7637.0222    3191.1666    2323.8273    3095.5153    888.18394    -188.0149      453.959   -3239.3315 
 6745000    240.11845   -3946.6721   -3535.1173   -3946.6721            0    1175.1894    17.503405      20.6167    21.354114    7705.8977    171.68726     1678.113    1675.7678    568.42309   -473.64541    563.49713   -3403.0465 
 6746000    233.03389   -3947.4762   -3548.0641   -3947.4762            0    2382.4068    17.493369    20.604879     21.34187    7692.6504     1988.911    2891.1524     2267.157    1064.3147   -142.06225   -661.97452   -3280.7833 
 6747000     241.1771   -3939.1272   -3525.7579   -3939.1272            0    2314.2139    17.545252    20.665989    21.405166     7761.299    2011.4114    1790.8724    3140.3579   -283.86411   -60.549904   -592.04392   -3263.8107 
 6748000    247.82182   -3947.4955   -3522.7373   -3947.4955            0    1536.1482    17.535674    20.654708    21.393481    7748.5954    1729.9278     839.1958     2039.321    176.41452    -396.2789    1722.8594   -3349.1444 
 6749000    229.15687   -3952.3493   -3559.5823   -3952.3493            0    2358.7975    17.538612    20.658168    21.397065    7752.4902    3753.4577    1566.7637    1756.1711   -773.62026     987.8785    240.70831   -3292.8916 
 6750000    254.23966   -3946.9465   -3511.1884   -3946.9465            0    2424.5266    17.606482     20.73811    21.479867    7842.8396    2587.2622    2977.3702    1708.9474   -2.1606403    122.32774    753.30995   -3233.8716 
Loop time of 378.348 on 64 procs for 250000 steps with 864 atoms

Performance: 114.181 ns/day, 0.210 hours/ns, 660.767 timesteps/s
193.2% CPU use with 32 MPI tasks x 2 OpenMP threads

MPI task timing breakdown:
Section |  min time  |  avg time  |  max time  |%varavg| %total
---------------------------------------------------------------
Pair    | 24.823     | 30.89      | 41.617     |  61.6 |  8.16
Bond    | 0.88587    | 1.0918     | 1.6774     |  16.5 |  0.29
Kspace  | 172.27     | 184.88     | 191.08     |  29.5 | 48.86
Neigh   | 3.1473     | 3.3364     | 3.5996     |   7.4 |  0.88
Comm    | 66.808     | 72.131     | 75.151     |  20.8 | 19.06
Output  | 0.4632     | 0.46349    | 0.46495    |   0.0 |  0.12
Modify  | 67.853     | 69.808     | 72.155     |  14.5 | 18.45
Other   |            | 15.75      |            |       |  4.16

Nlocal:        27.0000 ave          35 max          19 min
Histogram: 1 3 1 5 3 11 2 5 0 1
Nghost:        2385.94 ave        2415 max        2342 min
Histogram: 1 1 1 3 2 7 6 6 2 3
Neighs:        7867.75 ave       10192 max        5331 min
Histogram: 4 1 1 4 4 3 7 4 1 3

Total # of neighbors = 251768
Ave neighs/atom = 291.39815
Ave special neighs/atom = 2.0000000
Neighbor list builds = 10833
Dangerous builds = 0

unfix		3
unfix		2
unfix		1

write_data	data.final.${pid}
write_data	data.final.1
System init for write_data ...
PPPM initialization ...
  extracting TIP4P info from pair style
  using 12-bit tables for long-range coulomb (../kspace.cpp:340)
  G vector (1/distance) = 0.37280966
  grid = 24 24 25
  stencil order = 5
  estimated absolute RMS force accuracy = 0.0032367918
  estimated relative force accuracy = 9.7475025e-06
  using double precision FFTW3
  3d grid and FFT values/proc = 3822 576
Last active /omp style is kspace_style pppm/tip4p/omp
WARNING: Not all mixed pair coeffs generated from mixing. Use write_data with 'pair ij' option to store all pair coeffs. (../write_data.cpp:312)

write_restart   restart.lmp.${pid}
write_restart   restart.lmp.1
System init for write_restart ...
PPPM initialization ...
  extracting TIP4P info from pair style
  using 12-bit tables for long-range coulomb (../kspace.cpp:340)
  G vector (1/distance) = 0.37280966
  grid = 24 24 25
  stencil order = 5
  estimated absolute RMS force accuracy = 0.0032367918
  estimated relative force accuracy = 9.7475025e-06
  using double precision FFTW3
  3d grid and FFT values/proc = 3822 576
Last active /omp style is kspace_style pppm/tip4p/omp
Total wall time: 0:06:18
