#include		in.partitions
include		in.temp
variable        temperature equal 128.97
variable	tempDamp equal 100.0
include		in.pressure
variable        pressure equal 7083.3
variable        pressureDamp equal 1000.0 # This is 1 ps
include		in.seed
variable        seed equal 745823

units		real
atom_style	full

read_restart	restart.lmp.${pid}
read_restart	restart.lmp.1
Reading restart file ...
  restart file = 30 Jul 2021, LAMMPS = 30 Jul 2021
  restoring atom style full from restart
  orthogonal box = (0.054324802 0.071639099 0.17860421) to (19.945676 19.928362 20.521394)
  4 by 2 by 4 MPI processor grid
  restoring pair style lj/cut/tip4p/long/omp from restart
  restoring bond style harmonic/omp from restart
  restoring angle style harmonic/omp from restart
  972 atoms
  648 bonds
  324 angles
Finding 1-2 1-3 1-4 neighbors ...
  special bond factors lj:    0        0        0       
  special bond factors coul:  0        0        0       
     2 = max # of 1-2 neighbors
     1 = max # of 1-3 neighbors
     1 = max # of 1-4 neighbors
     2 = max # of special neighbors
  special bonds CPU = 0.002 seconds
  read_restart CPU = 0.008 seconds
include 	in.setup
variable	out_freq equal 1000
variable	out_freq2 equal 10000
variable	out_freq3 equal 1000

timestep	2.0

neigh_modify    delay 7 every 1

include		in.tip4p
# This is TIP4P/Ice

# create groups ###
group ox type 2
324 atoms in group ox
group hy type 1
648 atoms in group hy

# set charges - beside manually ###
set group ox charge -1.1794
Setting atom values ...
  324 settings made for charge
set group hy charge 0.5897
Setting atom values ...
  648 settings made for charge

# ### TIP3P Potential Parameters ###
pair_style lj/cut/tip4p/long/omp 2 1 1 1 0.1577 8.5
pair_coeff 1 1*2 0.000 0.000
pair_coeff 2 2 0.21084 3.1668
bond_style  harmonic
bond_coeff  1 450 0.9572
angle_style harmonic
angle_coeff 1 55 104.52
kspace_style pppm/tip4p/omp 1.0e-5
pair_modify tail yes

thermo          ${out_freq}
thermo          1000
thermo_style    custom step temp pe etotal epair emol press lx ly lz vol pxx pyy pzz pxy pxz pyz enthalpy

restart 	${out_freq3} restart.lmp.${pid} restart2.lmp.${pid}
restart 	1000 restart.lmp.${pid} restart2.lmp.${pid}
restart 	1000 restart.lmp.1 restart2.lmp.${pid}
restart 	1000 restart.lmp.1 restart2.lmp.1


include         in.dump
dump            myDump all atom ${out_freq2} dump.water.${pid}
dump            myDump all atom 10000 dump.water.${pid}
dump            myDump all atom 10000 dump.water.1
dump            myDump2 all dcd ${out_freq2} dump.dcd
dump            myDump2 all dcd 10000 dump.dcd
dump_modify     myDump append yes
dump_modify     myDump2 append yes


variable natoms 	equal  "count(all)"                        # NUMBER ATOMS
variable H      	equal  "enthalpy/v_natoms"                 # ENTHALPY-per-atom
variable Vol      	equal  "vol/v_natoms"                 # volume-per-atom
fix AVG all 		ave/time ${out_freq} 1 ${out_freq} v_Vol v_H file vol_enthalpy.dat
fix AVG all 		ave/time 1000 1 ${out_freq} v_Vol v_H file vol_enthalpy.dat
fix AVG all 		ave/time 1000 1 1000 v_Vol v_H file vol_enthalpy.dat


timer           timeout 02:55:00 every 1000
New timer settings: style=normal  mode=nosync  timeout=02:55:00

fix 		1 all shake 1e-6 200 0 b 1 a 1
       0 = # of size 2 clusters
       0 = # of size 3 clusters
       0 = # of size 4 clusters
     324 = # of frozen angles
  find clusters CPU = 0.000 seconds
fix             2 all nph aniso ${pressure} ${pressure} ${pressureDamp}
fix             2 all nph aniso 7083.3 ${pressure} ${pressureDamp}
fix             2 all nph aniso 7083.3 7083.3 ${pressureDamp}
fix             2 all nph aniso 7083.3 7083.3 1000
fix             3 all temp/csvr ${temperature} ${temperature} ${tempDamp} ${seed}
fix             3 all temp/csvr 128.97 ${temperature} ${tempDamp} ${seed}
fix             3 all temp/csvr 128.97 128.97 ${tempDamp} ${seed}
fix             3 all temp/csvr 128.97 128.97 100 ${seed}
fix             3 all temp/csvr 128.97 128.97 100 745823


run             250000
PPPM initialization ...
  extracting TIP4P info from pair style
  using 12-bit tables for long-range coulomb (../kspace.cpp:340)
  G vector (1/distance) = 0.37221011
  grid = 24 24 24
  stencil order = 5
  estimated absolute RMS force accuracy = 0.0035040436
  estimated relative force accuracy = 1.0552323e-05
  using double precision FFTW3
  3d grid and FFT values/proc = 3211 432
Last active /omp style is kspace_style pppm/tip4p/omp
Neighbor list info ...
  update every 1 steps, delay 7 steps, check yes
  max neighbors/atom: 2000, page size: 100000
  master list distance cutoff = 10.8154
  ghost atom cutoff = 10.8154
  binsize = 5.4077, bins = 4 4 4
  1 neighbor lists, perpetual/occasional/extra = 1 0 0
  (1) pair lj/cut/tip4p/long/omp, perpetual
      attributes: half, newton on, omp
      pair build: half/bin/newton/omp
      stencil: half/bin/3d
      bin: standard
Per MPI rank memory allocation (min/avg/max) = 10.18 | 10.19 | 10.19 Mbytes
Step Temp PotEng TotEng E_pair E_mol Press Lx Ly Lz Volume Pxx Pyy Pzz Pxy Pxz Pyz Enthalpy 
26750000    134.25038   -4971.4312   -4712.5181   -4971.4312            0    6476.2911    19.891351    19.856723     20.34279     8034.935    6810.9038    6461.4188    6156.5507    699.68737   -382.26262   -75.465769   -3953.6179 
26751000    123.33359   -4971.8468   -4733.9876   -4971.8468            0    7265.0601    19.764191    19.861145     20.34843    7987.5616      8632.49    6630.2563    6532.4339   -380.18965   -36.560944    51.835249   -3887.6779 
26752000    130.75397    -4988.708    -4736.538    -4988.708            0    5154.8286    19.731313    19.911442    20.488618    8049.5453    5593.6323    5178.0783    4692.7751   -273.48289   -88.614669    109.01187   -4131.3901 
26753000    129.37676   -4988.9281   -4739.4142   -4988.9281            0    7097.0396    19.822219    19.639197     20.56042    8004.0165    7007.5466    8110.1669    6173.4052   -326.66617    -113.8088    70.446919   -3910.9741 
26754000    121.82385   -4989.5653   -4754.6178   -4989.5653            0    7367.6509    19.806481    19.653851    20.585653    8013.4518    8279.5102    7678.5561    6144.8863   -739.76845   -161.90998    232.03934   -3893.5753 
26755000    125.70088    -4976.724   -4734.2993    -4976.724            0    7149.8824    19.770498    19.748178    20.462637     7989.254    8232.2544    6197.1028      7020.29    341.30475   -1348.5514    202.54066   -3901.2302 
26756000    134.34876   -4979.5918   -4720.4889   -4979.5918            0    6931.1085    19.650523    19.933257    20.341919    7967.9076    8181.2454    5227.8005    7384.2795    497.50693   -165.62836    288.38633    -3915.068 
26757000    133.72118   -4991.5823   -4733.6897   -4991.5823            0    6926.7335    19.774732    19.758808      20.4735    7999.5112    8114.7672    6179.5502     6485.883   -435.75558    1003.4491    105.01279   -3925.5847 
26758000    131.33464   -4984.0965   -4730.8066   -4984.0965            0    7807.8352    19.980461    19.650234    20.389388    8005.2966    7337.7128    9055.0931    7030.6996   -480.90981   -46.966248    118.62277   -3819.2494 
26759000    132.86556    -4972.371   -4716.1286    -4972.371            0    7652.0307    19.651999    19.788283    20.523126    7981.0191     5872.554    8529.2827    8554.2553    223.71802    418.98667    651.47131   -3825.4707 
26760000    127.58455   -4972.9545    -4726.897   -4972.9545            0    6704.2243    19.745956    19.822585     20.50082    8024.3472    5798.3904    7187.3266    7126.9561   -621.69799   -6.6399836   -58.534846   -3942.3226 
26761000    127.14604    -4975.272   -4730.0602    -4975.272            0    8567.3909    19.740219    19.630635    20.538107    7958.7844    8792.7315    8994.7397    7914.7016   -145.09904   -1635.2271    587.20999   -3735.6371 
26762000    140.32854   -4977.5265   -4706.8911   -4977.5265            0    7276.8771    19.698502    19.827246    20.394013    7965.2297    7140.6052    7486.3288    7203.6973    511.95251   -169.28103   -113.93063   -3861.5748 
26763000    136.49334   -4979.0834   -4715.8445   -4979.0834            0    6594.4153    19.907509    19.800695    20.356205    8024.0603     4978.455    8145.1862    6659.6048    83.701482    222.60271    344.71329   -3944.1483 
26764000    129.45704   -4986.7685   -4737.0997   -4986.7685            0    7084.7667    19.745709     19.81615    20.382661    7975.4076    6597.7287    7227.6654    7428.9061    160.20507   -479.76898   -296.11612   -3913.0482 
26765000    129.87926   -4985.0338   -4734.5507   -4985.0338            0    6909.5087    19.831108    19.890032    20.295678     8005.455     7572.174    5972.5143    7183.8376   -166.55823    402.53096    400.43678   -3927.8562 
26766000    132.98805   -4991.0193   -4734.5407   -4991.0193            0    6523.8954    19.800315     19.70948    20.479352    7992.1473    6097.4412    7615.4154    5858.8297    732.71329   -603.66391    652.48217   -3974.1332 
26767000    128.77266    -4986.213   -4737.8641    -4986.213            0    6462.0373    19.757021    19.850424    20.469166    8027.7048    6799.6658    5642.3825    6944.0636   -291.36304    1285.5841   -446.09754   -3981.3156 
26768000    124.69021    -4989.157   -4748.6814    -4989.157            0    7200.8627    19.730121     19.82992    20.467339    8007.7795    6969.0359    6321.5153     8312.037    191.58206    899.88673    248.22531   -3907.7269 
26769000    129.66661   -4987.3967   -4737.3237   -4987.3967            0    6296.0281    19.866049    19.802349    20.425217    8035.1664    5519.7813    7282.8492    6085.4538   -571.92987   -502.55513   -760.95231   -3999.5258 
26770000    129.19188   -4991.8894    -4742.732   -4991.8894            0     6484.226    19.974532    19.839298    20.360345    8068.4113    6501.2479    6265.7839    6685.6462    184.06666   -528.55229   -780.93169   -3979.7363 
26771000     123.0148   -4984.7318   -4747.4874   -4984.7318            0    7920.1718    19.805927    19.750964    20.450223    7999.8439    7907.2282    8827.3808    7025.9064    86.177081   -813.82563    506.67446   -3823.4448 
26772000    129.41371   -4978.3233   -4728.7381   -4978.3233            0    7316.9895    19.570796    19.901136    20.478339    7975.9254    7773.6753    6534.6377    7642.6555   -502.79482    473.37696    442.67129   -3877.6208 
26773000    127.25332   -4990.8708   -4745.4521   -4990.8708            0    7901.4497    19.997285    19.668472    20.316733    7990.8968    5654.3263    8995.6711    9054.3516   -200.25076   -1287.3411   -359.10053   -3824.6248 
26774000    126.78665   -4956.3036   -4711.7849   -4956.3036            0    7213.8273    19.823728    19.892604    20.366217    8031.3279    7205.0697    6266.2518    8170.1603    77.838246    -711.7175   -549.02764   -3866.8388 
26775000    132.96374   -4971.9194   -4715.4876   -4971.9194            0    8743.4433    19.880542    19.752386    20.282012    7964.5053    8342.9874    8691.9987     9195.344   -217.29909     924.3056    188.05989   -3699.9005 
26776000    134.79911   -4981.4618   -4721.4904   -4981.4618            0    7021.1248    19.836183    19.976966    20.240859    8020.7793    5775.0084    7145.0854    8143.2806   -270.02946   -561.11095   -219.86554   -3900.1954 
26777000    135.19606   -4975.9472   -4715.2102   -4975.9472            0    7107.9688    19.873203    19.772099    20.348507    7995.6392    6238.9556     6453.566    8631.3849      213.591   -311.19054   -1234.6153   -3886.3628 
26778000    128.67164   -4988.5257   -4740.3716   -4988.5257            0    8300.8033    19.855789    19.778941    20.352682    7993.0371    8433.4797     7797.106    8671.8243   -388.12812    181.29143   -508.80791   -3772.7449 
26779000      133.811   -4993.9758     -4735.91   -4993.9758            0    6840.1725    19.858057    19.741247    20.529649    8048.0907    6906.3462    6845.1763    6768.9949   -171.21609   -182.38313    575.26592   -3933.0575 
26780000    133.24487   -4985.7385   -4728.7646   -4985.7385            0    6796.5163    19.858937    19.724747    20.528823    8041.3968     6673.359    7565.5967    6150.5933   -736.02436   -1583.0509    274.44766   -3931.6996 
26781000    134.37783   -4982.8822   -4723.7233   -4982.8822            0    5424.3356     19.72517    19.868252    20.527513    8044.8273    5575.5327    4950.3963    5747.0778    83.064455    4.0726017    594.71314   -4087.3101 
26782000    127.17439   -4966.5298   -4721.2633   -4966.5298            0    7100.4109    19.748458    19.730841    20.563014    8012.4541    5931.1244    8798.2064     6571.902   -592.15038   -453.62561    1061.7878    -3891.556 
26783000    128.44858   -4978.0703   -4730.3464   -4978.0703            0    6794.6437    19.799922    19.731523    20.466273    7995.8174    7193.8224     7201.925    5988.1838    -188.2236    978.95647   -328.21246   -3938.0176 
26784000    124.78999   -4975.5128   -4734.8448   -4975.5128            0    6839.9496    19.782891    19.770794    20.322812    7948.7288    5503.2428    7889.3575    7127.2485   -697.77299   -715.73393    434.63857   -3941.9301 
26785000    126.38729   -4997.1234   -4753.3749   -4997.1234            0    7009.1286    19.549313    19.786206    20.533936    7942.6648    7724.1683    6842.3328    6460.8848    671.50482    213.11949   -128.22347   -3941.4681 
26786000    119.65648   -4981.9885    -4751.221   -4981.9885            0    6907.6005    19.739722    19.878871    20.458825    8028.1121    8412.6932    5812.8947    6497.2135   -199.43455    504.49812   -664.16215   -3942.4668 
26787000    135.66095   -4992.6077   -4730.9742   -4992.6077            0    9166.8706    19.722728    19.777378    20.455656    7979.0116    9098.2744    8974.9489    9427.3886    34.579667   -351.23576   -1457.4133   -3664.2649 
26788000    125.89058   -4967.2193   -4724.4287   -4967.2193            0    6947.4994    19.635408    19.858594    20.567303    8019.8413    7832.6425    7181.8598     5827.996   -278.24389   -727.63279    280.84362   -3911.8411 
26789000    126.55077   -4987.2385   -4743.1747   -4987.2385            0     7407.899    19.753632    19.914218    20.367925    8012.2963    7460.9991    7014.1028    7748.5952   -269.57087   -931.75036     1270.608   -3877.5533 
26790000    124.37739   -4978.9819   -4739.1096   -4978.9819            0    6031.4365    19.811143    19.882278    20.401867    8036.1045    6495.2217    5210.1356    6388.9521   -561.29503    868.19521    1439.9265   -4032.2353 
26791000     129.2446   -4976.0782   -4726.8191   -4976.0782            0    7521.3665    19.777954    19.839078    20.345618    7983.1398    6647.7174    7648.7596    8267.6225   -591.81979    837.57008    -544.8994   -3851.1372 
26792000    127.90661   -4984.3412   -4737.6625   -4984.3412            0    7433.2136    19.749398    19.828466    20.432421    8001.3415    6262.3785    8593.3616    7443.9006   -20.344647   -882.85507    -1387.291   -3870.2707 
26793000    131.76659   -4985.7983   -4731.6753   -4985.7983            0    6749.7421     19.77318    19.946735    20.390245    8042.1247    7518.8341    5573.4124    7156.9797    277.52032    882.10665    311.69276   -3940.0241 
26794000    125.91441   -4993.9339   -4751.0973   -4993.9339            0     6774.396    19.771296    19.881644    20.401523    8019.5502    8201.6093    4636.1262    7485.4525    771.16437   -554.51597    373.93744   -3958.7849 
26795000    126.83633   -4993.7945     -4749.18   -4993.7945            0    6671.0101    19.652144    19.978773    20.324846    7980.0574    6399.5332    5858.7401    7754.7568   -189.59217   -1305.1952    825.51192   -3972.8015 
26796000    131.38979    -4997.633   -4744.2367    -4997.633            0    6090.0206    19.812819    19.801733    20.434227    8016.9225    4958.2235     6887.467    6424.3714    50.683018    506.69838   -190.90197   -4032.2001 
26797000    128.93982   -4983.5247   -4734.8534   -4983.5247            0    7762.1147    19.899528    19.699867    20.303455    7959.3208    7719.6822    7858.4186    7708.2433   -403.48885    344.24553   -251.20212   -3833.8386 
26798000    122.14017   -4980.9424   -4745.3849   -4980.9424            0     6684.695    19.735421     19.82833    20.408075    7986.0967    6392.0486    7090.3127    6571.7238   -355.30551    912.87603   -566.60736   -3966.8249 
26799000    126.84261   -4969.9009   -4725.2743   -4969.9009            0    8203.2655    19.833347    19.819467    20.321671    7988.1719    7149.8472    9113.0988    8346.8505   -855.49157   -521.12722     542.4018   -3769.5997 
26800000    124.71271   -4994.9378   -4754.4189   -4994.9378            0    5488.8086    19.803563     19.88833    20.386739    8029.5167    4955.6325    5228.7379    6282.0553   -437.16818    -472.7794    1241.0705    -4111.667 
26801000    139.40533   -4978.9143   -4710.0594   -4978.9143            0    5884.6047    19.922895    19.833446    20.457192    8083.4482    5922.7184    5706.9983    6024.0975   -200.16721   -387.79795    429.86299   -4016.3304 
26802000    126.91999   -4993.1701   -4748.3942   -4993.1701            0    6859.1782    19.710983    19.823115    20.543629    8027.0756    6603.9229    6916.9944    7056.6174    234.99955   -352.64208   -407.97148   -3945.4131 
26803000     127.0064   -5000.8506   -4755.9081   -5000.8506            0    6714.0485    19.791654    19.875355    20.364034    8010.5214    7700.2543    5871.0526    6570.8386    181.68646    525.73565   -770.62286   -3971.5378 
26804000    133.26451   -4979.0858    -4722.074   -4979.0858            0    6321.4569     19.97161    19.838152    20.258269    8026.3226    5748.1482    5893.0467    7323.1757    495.32491    310.61442    1342.1338   -3982.1116 
26805000    126.69116   -4982.2254   -4737.8909   -4982.2254            0    6754.7442    19.977433    19.751106    20.405322    8051.4586    6323.5559    6711.2967    7229.3799   -85.576378    250.39793   -1252.4812   -3944.7335 
26806000    131.66413    -4969.139   -4715.2136    -4969.139            0    7041.7667    19.857535    19.803875    20.365948    8009.0339    7468.2325    6895.0493    6762.0184   -255.16054   -496.60993    773.24338   -3892.7103 
26807000    125.79013   -4999.4434   -4756.8466   -4999.4434            0    5863.5356    19.978137    19.757171    20.406587    8054.7143    6370.7743    4794.5698    6425.2628   -138.19136    -417.1179   -111.15903   -4068.0585 
26808000    128.30777   -4984.4251   -4736.9728   -4984.4251            0    6426.4467    19.836366    19.824882     20.45628    8044.5058    5184.1791    7216.0751    6879.0857    572.38078   -76.705238   -932.71459   -3983.0165 
26809000    128.79641   -4983.2876   -4734.8929   -4983.2876            0    6511.2889    19.646717    19.950054    20.375822    7986.3657    9311.9251     3525.095    6696.8466    275.06753    473.39235    439.62886   -3976.5039 
26810000    132.03118   -4988.4543    -4733.821   -4988.4543            0     7572.636    19.722308    19.931722    20.329152    7991.3808    6562.5466    8405.8904     7749.471    75.913432    122.17626    1879.6684   -3851.2599 
26811000    129.02906   -4979.8893   -4731.0459   -4979.8893            0    6669.5669     19.77266    19.808644    20.515761    8035.3996    7467.2749    6654.7807     5886.645   -958.39347     559.2227   -1117.9189   -3949.4523 
26812000    133.70807    -4975.143   -4717.2758    -4975.143            0    6310.5508    19.783098    19.866869    20.524947    8066.8834    7003.0789    6708.6231    5219.9502    354.17265    46.223634    178.83641    -3974.857 
26813000     129.7158   -4977.7621   -4727.5943   -4977.7621            0    6030.5798    19.736859    19.831125    20.603829    8064.4238    5657.5872    7149.8675    5284.2848   -293.29702   -274.26212    723.82077   -4018.3296 
26814000     125.4501   -4977.6916   -4735.7505   -4977.6916            0    6392.9847    19.774498    19.866779    20.434434    8027.7814    6881.6483    5924.4412    6372.8646    101.38489    855.46757    318.02461   -3987.2793 
26815000    125.95855   -4982.1498   -4739.2281   -4982.1498            0     6742.356    19.966902    19.791619    20.271422    8010.8058    6317.1527    6584.2158    7325.6995    186.51891    711.58927   -22.608824   -3951.5228 
26816000    135.47607   -4968.0793   -4706.8023   -4968.0793            0     7861.569    19.656306    19.828716    20.447714     7969.687    8373.5874    7543.9063    7667.2133   -449.26142    1088.8723    687.73537   -3793.0545 
26817000    123.47689   -4978.1011   -4739.9656   -4978.1011            0    5859.6182    19.736663    19.755747    20.476853    7984.1813    5610.9252    6148.5576    5819.3717   -240.13993   -197.40282   -918.56396   -4057.6652 
26818000    126.09225   -4978.8294   -4735.6499   -4978.8294            0    6916.1908    19.668809    19.750613    20.635311     8016.221    7949.6567    7809.9569    4988.9587   -286.58188   -208.20696    525.16464   -3927.0893 
26819000    123.56269   -4996.8383   -4758.5372   -4996.8383            0    6449.3672    19.837639    19.679303    20.662006    8066.2593    6012.7887     7304.197    6031.1158    -94.10139    1078.1252    266.78769   -3999.8458 
26820000    128.10014   -4972.4848   -4725.4329   -4972.4848            0    8140.4279    19.736758    19.725568    20.507902    7984.1108    6558.0225    10395.677    7467.5837    -249.7823   -24.426821     1176.557   -3777.5609 
26821000    129.56914   -4982.9691   -4733.0841   -4982.9691            0    7075.0385    19.865816    19.775172    20.474023    8043.2188    6864.8084    7655.5507    6704.7565    159.81385    194.37513   -546.52288   -3903.1672 
26822000    135.55792    -4969.383   -4707.9482    -4969.383            0    6085.0413    19.724147    19.971038    20.404021    8037.3822    6135.0611    5738.5184    6381.5444   -120.27861   -411.20815   -485.41623    -3994.678 
26823000     120.6298    -4988.798   -4756.1533    -4988.798            0    6531.9809    19.830506    19.828732    20.413284    8026.7846     4924.495    8204.2312    6467.2165   -263.77652   -389.31028    307.55495   -3991.5038 
26824000    119.28274   -4976.2487   -4746.2019   -4976.2487            0    6640.4014    19.726079    19.941617    20.398419    8024.1241    6718.2417    6042.7861    7160.1763   -66.290949   -261.08893    460.32786   -3969.1181 
26825000     127.3184   -4980.7852   -4735.2409   -4980.7852            0    7295.5372    19.900474     19.54939    20.474635    7965.4958    7269.3882    8079.8805    6537.3429   -71.310897    123.75801   -643.67792   -3887.7287 
26826000    131.61992   -4991.6162   -4737.7761   -4991.6162            0     6859.788    19.671607    19.974056    20.384673    8009.5821    7291.7992    6176.3711    7111.1938   -863.75439   -494.66185   -583.43753   -3936.4737 
26827000    122.69473    -4996.593   -4759.9659    -4996.593            0    6808.7095    19.705913    19.838649    20.517229    8020.9785     7386.756    6673.0034    6366.3691   -272.73452    1609.4776    434.78049   -3963.4984 
26828000    133.14577   -4970.5581   -4713.7753   -4970.5581            0    8702.9847    19.691403    19.907605    20.332323    7970.4473    7206.2105    9287.4736      9615.27   -714.93191   -1104.9018    696.89688   -3702.1334 
26829000    123.61561   -4982.3238   -4743.9207   -4982.3238            0    6351.3701    19.652159      19.9106     20.46575    8007.9669    6540.7119    6411.8827    6101.5158   -138.67537    344.74114   -668.78233    -4002.157 
26830000    133.15559   -4980.6122   -4723.8105   -4980.6122            0    7497.0701    19.843545    19.769123    20.412657    8007.6707    7226.7678      7550.33    7714.1126   -212.29011    545.42074    26.505794   -3848.2752 
26831000    129.83186    -4981.511   -4731.1193    -4981.511            0    7100.6844    19.775407    19.774343    20.532477    8029.1364    7222.9503    7216.7825    6862.3202   -33.986979    643.87366   -37.411398   -3899.6525 
26832000    127.42974   -4992.5544   -4746.7955   -4992.5544            0    6599.1569     19.93494    19.822933    20.233117       7995.5    6900.7824    5119.9629    7776.7254   -288.26585    638.79312   -511.57837   -3977.2931 
26833000     130.0715   -4972.3245   -4721.4707   -4972.3245            0    8584.8784    19.776702    19.720324    20.354887    7938.4662    8315.3467    8241.7587    9197.5296   -245.48551   -273.90583   -610.07817   -3727.5617 
26834000    132.14101   -4971.1585   -4716.3134   -4971.1585            0    7312.9657    19.671944    19.924992    20.435018    8009.7777    9067.4934     5673.759    7197.6446    608.10005    273.97962    395.54082   -3862.0538 
26835000    125.92667   -4987.6574   -4744.7973   -4987.6574            0    6533.7927    19.791393    19.791611    20.430169    8002.5696    4634.5586    7996.3914     6970.428   -79.308176    755.76883     263.4526   -3982.2431 
26836000    127.32002   -4989.7405   -4744.1931   -4989.7405            0    7240.3378    19.683018    19.954029    20.432788    8025.0898    8826.3856    6188.4225    6706.2055   -288.86145     82.56958     746.1677   -3896.8006 
26837000    122.88337   -4976.3729    -4739.382   -4976.3729            0    8267.2782    19.804847    19.799442     20.35688    7982.4398    7175.3398    9399.5866    8226.9082   -146.40025    1549.4593   -2240.7572    -3776.941 
26838000    133.16813   -4994.3082   -4737.4822   -4994.3082            0    5760.3945    19.726841    19.885998    20.520225    8049.8364    4395.6094     7135.129    5750.4452   -156.68598   -603.32816    1115.2627   -4061.2199 
26839000    117.06146   -4979.3027   -4753.5398   -4979.3027            0    7011.1003    19.609657    19.820499    20.440084    7944.5128    7184.3319     6930.744    6918.2251    34.942629    245.89084    989.40628   -3941.2157 
26840000    127.20315   -4989.1015   -4743.7795   -4989.1015            0    7271.7284    20.018637    19.808102    20.232359    8022.7617    8091.2414    6381.1328    7342.8112    364.84252   -233.38323    144.77162     -3892.96 
26841000    128.42137   -4988.9438   -4741.2724   -4988.9438            0    7908.0301    19.775193     19.81758    20.382406    7987.7929    8206.7886    8531.6282    6985.6734    74.645699    400.61526    745.41811   -3820.0362 
26842000    127.27296   -4980.1626    -4734.706   -4980.1626            0    6899.5148    19.738062    19.964387    20.259292    7983.3422    6875.6892    6840.1931    6982.6621   -1016.2841   -422.74226   -342.32046   -3931.4034 
26843000    134.63049   -4976.3566   -4716.7103   -4976.3566            0    7494.0123     19.72431    19.829366    20.381731    7971.7142    8503.8826    6656.0394    7322.1149   -276.81918    1577.9503    356.21367   -3845.4619 
26844000    124.27889   -4976.2846   -4736.6023   -4976.2846            0    7171.4037    19.687997     19.98601    20.354615    8009.2256    6671.8885    6926.4838    7915.8389   -634.00399    603.45778    191.93443   -3898.9368 
26845000     122.8302   -4996.3909   -4759.5025   -4996.3909            0    5666.5955    19.882331    19.888057    20.390679    8062.9015    6124.0998     4562.496    6313.1908   -313.59231    1059.1867    1014.9387   -4093.1724 
26846000     134.6135   -4985.3885    -4725.775   -4985.3885            0    7892.5641    19.627998    19.722049       20.578    7965.8331    8263.9079    7021.6983    8392.0861   -256.61518    1135.0542    41.862405   -3808.8682 
26847000    128.36606   -4989.4332   -4741.8685   -4989.4332            0    7293.1954     19.78867    19.808075    20.535461    8049.3968    7456.7121    8656.4846    5766.3897   -369.97545     108.1186   -760.54633   -3885.7042 
26848000    126.06899   -4980.7151   -4737.5804   -4980.7151            0    6737.5853    19.598541    20.051313    20.382603    8009.8836    8229.0149    5612.8356    6370.9054   -385.14122    36.626618    601.64292   -3950.5231 
26849000    126.32457   -4977.9292   -4734.3016   -4977.9292            0    7517.2209     19.68492    19.786328    20.494347    7982.3904    8841.6405    7275.3683    6434.6539    95.302963   -114.04545    713.72447   -3859.1845 
26850000    128.28486   -4985.4664   -4738.0583   -4985.4664            0    6955.3822    19.655104    19.927413    20.526607    8039.7667     8312.835    6494.6127    6058.6991    124.02621   -1010.4513    -795.1858   -3922.5275 
26851000    123.26827   -4994.3383   -4756.6051   -4994.3383            0    7363.6263    19.587822    19.834372    20.586078    7997.9418     6762.919    8270.6491    7057.3109    216.67221   -58.221396   -159.33793   -3897.6987 
26852000    132.58073   -4986.1221    -4730.429   -4986.1221            0    7874.1905    19.740966    19.855169    20.321236    7965.1165    7145.2174    7947.0728    8530.2813    149.33636    25.407987    924.30388    -3815.739 
26853000    127.42266   -4961.8914   -4716.1461   -4961.8914            0    7445.9558    19.713945      19.8336    20.272035    7926.3351    6830.1207    8484.6984    7023.0482   -266.07658     228.6391    141.40857   -3855.4125 
26854000    136.17227   -4985.9841   -4723.3645   -4985.9841            0    6767.9999    19.678686    19.824678    20.441133     7974.569    6318.3302    7110.1502    6875.5192      89.9136   -352.75655   -489.74304   -3936.2399 
26855000    137.08931   -4983.5521   -4719.1639   -4983.5521            0    5772.0371    19.869248    19.804056     20.39992    8027.1991     4723.399     7424.196    5168.5163   -131.59533    1074.0264   -698.90616   -4043.4404 
26856000    129.34028   -4998.3801   -4748.9365   -4998.3801            0    6795.9082    19.668359    19.885475    20.500565    8018.0714    8172.4728    5626.4431    6588.8088   -541.37211    885.66518   -1053.1435   -3954.2546 
26857000    125.50347   -4976.1475   -4734.1035   -4976.1475            0    7726.2596    19.669738     19.75804    20.674212    8034.7322    9157.2813    8346.9596    5674.5378   -147.47322   -551.24667    392.25252   -3828.7533 
26858000    130.47843     -4978.74   -4727.1013     -4978.74            0    6576.0821    19.763973    19.776991      20.5297    8024.4834    7180.3551    5877.3518    6670.5395   -269.77474   -584.64001    439.26739     -3957.51 
26859000    126.45402   -4969.2586   -4725.3814   -4969.2586            0    9611.1955    19.676195    19.822123    20.322719    7926.3471    9830.3561    9802.2013     9201.029   -567.02473    113.18039    201.84544   -3614.3498 
26860000    137.04105   -4985.3268   -4721.0316   -4985.3268            0    7051.1826    19.860171    19.828405    20.320149    8001.9838    6808.3956    6239.9973    8105.1548   -123.42908   -164.77033    1053.1973   -3898.1535 
26861000    132.38635   -4977.1029   -4721.7847   -4977.1029            0    7487.4307    19.826222      19.6608    20.549077    8010.0175    7792.3235    7685.3911    6984.5774   -71.938008     781.0636   -534.09488   -3847.1188 
26862000    131.92118    -4986.339   -4731.9179    -4986.339            0    6620.6864    19.721736    19.779461    20.551218    8016.7282    5760.4952    8479.0818    5622.4823   -219.23283    1268.8799   -447.80859   -3957.8554 
26863000    129.35668   -4993.8242    -4744.349   -4993.8242            0    7221.9127    20.042684    19.606314    20.349962    7996.7855    5992.6814    8032.5764    7640.4802   -614.79598    229.47959    652.08257   -3902.0941 
26864000    130.70513   -4981.5126   -4729.4367   -4981.5126            0     7743.529    19.748127    19.824451    20.478702    8017.3253    9491.2288    6719.7046    7019.6537   -356.42231    964.48646    285.50302   -3824.0288 
26865000    130.57648   -4984.9505   -4733.1228   -4984.9505            0    6014.8997    19.768202    19.786284    20.466848    8005.3882    7793.8056    5089.4739    5161.4196   -83.096051   -297.17278    861.69791    -4030.881 
26866000    121.94762   -4980.3716   -4745.1854   -4980.3716            0    7879.6658     19.75214    19.725812    20.473166    7976.8981    7462.5222    8322.1397    7854.3354   -581.63447    1264.0926    314.07722   -3828.5054 
26867000    120.81999   -4984.3868   -4751.3753   -4984.3868            0     6387.907    19.730433    19.727027    20.567195    8005.2208    6868.4869    5974.6116    6320.6225   -400.31284   -14.914511    12.209645   -4005.6003 
26868000    124.96881   -4990.2194   -4749.2065   -4990.2194            0    6352.2066    19.723544    19.880529    20.531881     8050.848    7569.5248    5003.2511     6483.844   -368.15114    923.17354   -932.66254   -4003.3726 
26869000    128.14622   -4993.7569   -4746.6161   -4993.7569            0     6359.238    19.618748    19.739325    20.693209    8013.6694    7196.7637    7051.8469    4829.1032    386.21506   -901.92501   -394.59124   -4003.4047 
26870000    130.00196   -4981.9396   -4731.2199   -4981.9396            0    7399.3187    19.841542    19.735881    20.468822    8015.3922    7254.7578    7344.1276    7599.0706   -286.80524   -392.88802    172.57556   -3866.2671 
26871000    121.83949   -4982.9385   -4747.9608   -4982.9385            0     8491.266    19.748951    19.764233    20.460038    7986.0212    6754.6845    10047.801    8671.3128    -179.6814    612.08569    91.380618   -3759.0006 
26872000     129.3954   -4969.3633   -4719.8134   -4969.3633            0    7303.7817    19.597871    19.781693    20.637069    8000.5591    6250.3564    8478.9502    7182.0385   -153.98661    138.87872    135.66785   -3867.6085 
26873000    128.56501   -4975.9945   -4728.0461   -4975.9945            0    7916.5827    19.645108    19.679087    20.506407    7927.7319    6926.6268    9423.8651    7399.2561   -91.688292   -355.56457    309.98843   -3812.7479 
26874000    126.89694   -4977.8878   -4733.1564   -4977.8878            0    6657.3461    19.767301    19.679366    20.587594    8008.7378    6717.8375    6579.0398    6675.1611     223.0838   -17.642463   -294.49847   -3955.5835 
26875000    135.95654   -4987.9055   -4725.7019   -4987.9055            0    7493.8003    19.825449    19.824846    20.393088    8015.2273    7144.6992    6487.5771    8849.1246    126.27566    271.44892   -412.75505   -3849.7226 
26876000    125.46427   -4993.1421   -4751.1737   -4993.1421            0    7176.4194    19.803258    19.636372    20.567075    7997.7977    6314.3612    7857.2745    7357.6225   -83.696707   -781.63315   -909.63063   -3914.1185 
26877000    123.89317    -4979.093   -4740.1546    -4979.093            0    7480.7342     19.85952    19.762472     20.43385    8019.7388    7221.5532    7720.0432    7500.6061   -166.95825    569.65154   -635.29273   -3865.2104 
26878000    127.60794   -4990.1471   -4744.0445   -4990.1471            0    6357.2513    19.754982    19.794966    20.482218     8009.555    5111.8397    7727.0645    6232.8498    171.84261   -304.24756    547.68779   -4001.4467 
26879000    138.99905   -4981.1484    -4713.077   -4981.1484            0    8268.3719    19.774972    19.794515    20.470589    8012.9253    8327.7181    7761.0401    8716.3575   -470.78228    185.98465    405.57694   -3746.8326 
26880000    122.20688   -4988.1112    -4752.425   -4988.1112            0    7831.2218     19.80324    19.777362     20.42002    7997.6202    7735.6958    7925.7995    7832.1701    17.364429   -238.70535      1077.72   -3839.0141 
26881000     125.7658   -4995.0185   -4752.4686   -4995.0185            0     7618.309    19.578012    19.922295    20.462141    7981.0317    8023.1558    7040.8881    7790.8831   -40.759835   -753.30423    1108.1269   -3865.7343 
26882000    132.20308   -4976.4286   -4721.4638   -4976.4286            0    5802.4629    19.831999    19.901123     20.37605    8042.0004    6787.0803     4830.185    5790.1233    -344.6217     472.4666   -861.54252   -4040.9259 
26883000    129.38179   -4964.7547   -4715.2311   -4964.7547            0    7743.7359     19.73598    19.762925    20.521097     8004.063    9126.5839    7265.5649     6839.059     578.6805   -637.67158   -551.09495   -3811.2966 
26884000    124.90871    -4982.289   -4741.3921    -4982.289            0    7462.3472    19.759769    19.899171    20.310517    7986.1568    8329.9108    6401.4393    7655.6916    207.70891    490.73092   -187.84653   -3872.2532 
26885000    127.95181   -4985.1302   -4738.3644   -4985.1302            0    6960.9881    19.770951    19.743717     20.44439      7980.51    6175.8562    7180.0366    7527.0714   -486.62688   -69.451098    321.53766    -3928.192 
26886000    130.64672   -4979.8476   -4727.8844   -4979.8476            0    7875.8815    19.822616     19.71493    20.407453    7975.2634    7174.5979    8540.3079    7912.7386   -72.714123    913.96601    -155.4261   -3811.8324 
26887000    127.74621   -4989.7782   -4743.4089   -4989.7782            0    8014.9159    19.798457    19.743926    20.415131    7980.2596    7042.0585     8527.942    8474.7471   -741.41843      495.288    297.96999   -3810.6017 
26888000    130.88914   -4993.2267    -4740.796   -4993.2267            0    7491.1843    19.814486    19.834243    20.348242    7996.9673    8615.0808    5820.9085    8037.5637     79.81151   -16.454989   -660.94289   -3867.1174 
26889000    121.18267   -4988.1904   -4754.4795   -4988.1904            0    7511.5367    19.698647    19.798272     20.45638    7977.9714    8739.4463    7096.3088     6698.855    432.38595    594.37045    -942.7067   -3880.5082 
26890000    131.70706   -4980.2399   -4726.2317   -4980.2399            0    6937.3109    19.858399    19.751514    20.388199    7996.9335     7889.771    5916.5993    7005.5623     12.87896   -108.87686   -1751.3964   -3917.1535 
26891000    128.75079   -4985.5846   -4737.2778   -4985.5846            0    7099.7331     19.88501    19.809534    20.265477    7982.8307    7079.7266    6592.1139    7627.3588   -404.60035    310.32301   -1204.9794    -3910.717 
26892000    125.20519   -4980.7501   -4739.2814   -4980.7501            0    6790.9865    19.806828    19.735435    20.551684    8033.5782    7020.1161    7077.6077    6275.2358   -478.77079    20.869124   -574.09252   -3943.6392 
26893000    122.19456   -4980.3982   -4744.7358   -4980.3982            0    6865.4588    19.730121    19.806605    20.571219    8038.9592    6756.3236    7615.7464    6224.3064   -308.67416   -1795.4306    591.94596   -3939.8295 
26894000    127.49414   -4977.1689   -4731.2858   -4977.1689            0    7807.9781    19.665752    19.880697    20.500677     8015.126    7433.4475    7502.9558    8487.5312     298.4493   -120.69842    666.35137   -3818.5925 
26895000     126.3666   -4988.7382   -4745.0296   -4988.7382            0    6441.5934    19.883922    19.767165    20.547326    8076.1009     4758.945    7636.7506    6929.0845    164.46312    52.562072   -460.19867   -3986.3281 
26896000    124.94955   -4980.2901   -4739.3144   -4980.2901            0    7971.2365    19.572846    19.819979    20.472529    7941.9776    7432.6174    8853.0056    7628.0864    122.78598    -2.594011   -738.83631   -3816.0412 
26897000     126.2131   -4994.8069   -4751.3943   -4994.8069            0    6869.6967    19.746518    19.781042    20.522558    8016.2487    6293.1109     7303.857     7012.122   -317.27081     524.5465    272.52133   -3948.2666 
26898000     128.3154   -4996.5785   -4749.1115   -4996.5785            0    6159.9981     19.70169    19.800151    20.563105    8021.5941    7652.8501    5583.2522    5243.8919   -303.14367     170.8933    991.26137   -4028.4735 
26899000    133.10894   -4981.0437   -4724.3319   -4981.0437            0    6818.8397    19.718514     19.78558    20.527269     8008.555     7897.305    6275.1177    6284.0965    297.85578   -811.35034   -899.96059   -3927.9149 
26900000    127.05615   -4989.5327   -4744.4943   -4989.5327            0    5695.0065    19.792652    19.696837    20.676858    8060.9275    5360.7091    6585.0356    5139.2747    -568.0827    726.71875    296.16879   -4074.9873 
26901000    130.69093    -4967.432   -4715.3835    -4967.432            0    7825.8221    19.685004    19.859292    20.410303    7979.0047    7840.3931    7644.7304    7992.3429   -56.479468   -188.25139    437.00328    -3804.727 
26902000    127.37227     -4970.87   -4725.2219     -4970.87            0    7930.9668    19.771816    19.610877    20.614054     7992.948    8265.3208     8597.589    6929.9905   -211.94366   -419.97127   -515.71547   -3800.7174 
26903000    131.02974   -4996.6796   -4743.9778   -4996.6796            0    5966.7629    19.735182    19.809821    20.563922    8039.4737    5013.8311    6850.5849    6035.8726    -322.4057    396.60278    229.16561   -4044.3899 
26904000    126.61899   -4984.1559   -4739.9605   -4984.1559            0    6886.0862    19.840413     19.80929    20.412463    8022.5979    5991.9214    6828.1787    7838.1584    -52.44378    578.85552     709.0492   -3934.2791 
26905000    129.18864   -4986.6591   -4737.5079   -4986.6591            0    7276.5639    19.793081     19.87771    20.328919    7998.2326     8121.216    6449.1346    7259.3411   -417.08125    699.84076    334.79442   -3888.7257 
26906000    126.33644   -4991.8661   -4748.2156   -4991.8661            0    6207.8915    19.691774    19.814814    20.525776    8008.9285    5946.1673    6482.4009    6195.1061   -139.81513    1019.9608   -153.06096   -4023.1214 
26907000    132.62989   -4985.4255   -4729.6376   -4985.4255            0    7991.8065    19.715716    19.692704    20.572376    7987.3434    7808.5431    8429.3691    7737.5074   -366.72657   -585.62321    401.61916   -3798.6944 
26908000    127.17706   -5001.4561   -4756.1844   -5001.4561            0    6502.3706    19.690413    19.851882    20.556644    8035.4222    7819.3462    5678.0412    6009.7243   -141.71228   -101.90895   -657.50198   -3994.1821 
26909000    122.61284   -4981.1115   -4744.6423   -4981.1115            0    7338.2493    19.531145    19.741011    20.756699    8003.0471    8013.5572    7219.8189    6781.3718   -523.82701    655.93537    408.52415   -3888.1495 
26910000    132.73674   -4985.5673   -4729.5733   -4985.5673            0     7677.436    19.794677    19.685634    20.474948    7978.4885    6713.3912    8855.3578    7463.5589   -119.96416    790.89461    283.19037   -3836.2417 
26911000    127.51665   -4987.6529   -4741.7263   -4987.6529            0    8361.8114    19.939564    19.657519    20.378994    7987.7984    6609.9297    9785.7713    8689.7333   -92.604828    449.06692   -259.56843   -3767.6267 
26912000    129.63801   -4984.1566   -4734.1388   -4984.1566            0    7395.4913    20.013575    19.657733    20.404572    8027.5974     5880.842    8543.9595    7761.6724    5.8277629    572.13669    336.00473    -3868.317 
26913000    134.09597   -4984.9202   -4726.3048   -4984.9202            0    7794.8957    19.753725    19.768138      20.4177    7972.9967    8525.5697    6802.5726    8056.5449     18.46843    639.68929    595.04108   -3819.9301 
26914000    125.01193   -4983.1267   -4742.0307   -4983.1267            0    7718.2505    19.852625    19.756212    20.324748    7971.6238    8000.3816    6596.9056    8557.4643   -235.80021   -435.54943   -886.19812   -3844.7227 
26915000    123.83083   -4978.5754   -4739.7573   -4978.5754            0    6777.6548    19.883775    19.971531    20.263067    8046.6551    6352.0834    6711.8035    7269.0775    375.73735   -20.081708    56.256261   -3944.3845 
26916000       127.82   -4977.0897    -4730.578   -4977.0897            0    6268.0916    19.769581    19.802516    20.499522    8025.3056    6118.8577    5840.1471      6845.27   -188.99811    173.72971    472.91569   -3996.9553 
26917000    128.59054   -4984.2815   -4736.2838   -4984.2815            0    7572.6243     19.62449    19.737385     20.67503    8008.1856    7990.9157    6856.0695    7870.8876    232.77361    1174.3504    902.89895   -3851.8681 
26918000    133.71888    -4976.455   -4718.5669    -4976.455            0    7617.3373    19.879297    19.705533    20.416849    7997.9362    6963.4737    8642.4094    7246.1286    3.0938042    685.75077    -91.96438   -3830.0678 
26919000    134.44897   -4979.2187   -4719.9226   -4979.2187            0    7707.9805    19.819796    19.823846    20.378327     8006.738    7240.0983    7472.4081    8411.4351    -390.6279   -348.53515    62.881976   -3819.8612 
26920000    131.52836   -4980.4423   -4726.7788   -4980.4423            0       7523.2    19.725287    19.750531     20.42205    7956.1222    8564.2254    7021.8203    6983.5542   -393.17371   -510.90424   -698.98801   -3853.8477 
26921000     125.7401    -4970.811   -4728.3107    -4970.811            0    8617.0959    19.713277    19.797076    20.456636    7983.5138    9594.1718    7625.2583    8631.8577   -120.63688    1560.4999     362.8411   -3725.0105 
26922000    126.88535   -4987.5986   -4742.8896   -4987.5986            0    7342.7266    19.822647    19.776222    20.425022    8006.9572    7700.3386    6706.3835    7621.4578    100.48963    819.62934    533.23952   -3885.4555 
26923000    127.08552   -4989.7158   -4744.6207   -4989.7158            0    7153.8915    19.670559    19.762475    20.535301    7982.8709    6671.4881    8927.5196    5862.6668     860.8025    -452.6848    116.28223   -3911.7504 
26924000     125.3705   -4982.0764   -4740.2888   -4982.0764            0    5746.6869    19.803073    19.950243    20.381201    8052.1258    5392.9799    5743.0814    6103.9994    130.48555   -580.85652    -286.6929   -4065.4439 
26925000    126.16856    -4985.223   -4741.8963    -4985.223            0     5892.033    19.806443    19.843136    20.425035     8027.487    5223.5916    6134.5048    6318.0027   -166.33376    824.78945   -163.37182   -4052.1003 
26926000    129.58788   -5005.4329   -4755.5118   -5005.4329            0    5791.2702    19.906489    19.775687    20.438316    8045.8393    5558.5704     5969.294    5845.9461   -483.12018    169.94918   -129.73138   -4075.9624 
26927000    128.41443   -4985.6044   -4737.9463   -4985.6044            0    6916.0143    19.714412    19.801775    20.541791    8019.1118    7667.3037    6337.0592    6743.6799    306.83148    442.97322   -475.18249   -3929.1149 
26928000    127.13228   -4981.0299   -4735.8446   -4981.0299            0    7637.8555    19.757288    19.834269    20.390051     7990.277    7466.4295    7549.4943    7897.6426   -381.83263   -603.69914    46.483372   -3845.8054 
26929000    138.68296   -4987.2786   -4719.8168   -4987.2786            0    8242.0161    19.725299    19.798398    20.440099    7982.4579     7853.808    8793.5432    8078.6971    360.10136    521.30742    486.64957   -3760.3146 
26930000    135.03635   -4983.1726   -4722.7436   -4983.1726            0    7041.5423    19.582783    19.857248    20.565444    7997.0822    7358.1128    7580.3302    6186.1839   -713.85726    206.49796   -141.53356   -3901.4939 
26931000    124.09399   -4984.4254   -4745.0997   -4984.4254            0     6505.943    19.830168      19.6679    20.674345    8063.3618    6983.8732    7761.8464    4772.1095    379.08752    437.75729    763.38742   -3980.0277 
26932000    131.42234   -4989.4999   -4736.0409   -4989.4999            0    7353.0147    19.532067    19.837558     20.62017    7989.6668    7045.9307    7677.3489    7335.7645     360.7699   -1112.4553   -433.99304   -3879.2596 
26933000    124.53532   -4990.6305   -4750.4537   -4990.6305            0    7268.1737     19.62904    19.827385    20.516797    7984.9841    6616.8288    8483.4692    6704.2231   -625.14712   -52.479632   -451.03082   -3904.0545 
26934000    128.11356   -4995.5303   -4748.4525   -4995.5303            0    8475.5858      19.7982    19.859683    20.307497    7984.6232    8575.2524    8389.8591    8461.6458   -645.80397   -409.82714    1569.5319   -3761.4914 
26935000    132.21083   -4981.1947    -4726.215   -4981.1947            0    7211.6403    19.865109    19.845774    20.357114    8025.5573    6875.1492    7025.9505     7733.821   -220.40468   -1395.1936    638.40898    -3882.132 
26936000    132.15658   -4977.2283   -4722.3532   -4977.2283            0    6935.6251    19.888044    19.846715     20.30546    8014.8157    6468.0502    6791.8001     7547.025   -30.756463    360.55042   -373.38119   -3911.6628 
26937000    118.52309   -4973.3923   -4744.8105   -4973.3923            0    6788.8941    19.831731    19.822007    20.434595    8032.9356    6577.4033    5995.7913    7793.4877   -201.11482   -219.77966   -319.85318   -3949.4772 
26938000    130.92518   -4978.9287   -4726.4284   -4978.9287            0    7984.5574    19.785633     19.77182    20.457947    8003.1075    9142.2165    7553.2077     7258.248   -300.21166   -335.56926    66.985518    -3794.494 
26939000    122.36184   -4986.5174   -4750.5323   -4986.5174            0    6615.7185    19.816817    19.695633    20.473601    7990.9436    5702.6471    8050.2504     6094.258   -247.50243     237.1588   -1203.1191   -3979.5383 
26940000    129.17603   -4964.1379    -4715.011   -4964.1379            0    7389.0356    19.738861    19.696141    20.545144    7987.5284    8391.2215    6686.7218    7089.1635   -264.78002    141.81592    797.80382   -3854.2629 
26941000    131.26444   -4980.5676    -4727.413   -4980.5676            0    8601.7503    19.731425    19.618791    20.569789     7962.703    8674.3539    9472.5805    7658.3165   -321.59819    170.74116   -625.46122   -3728.5102 
26942000    132.63046   -4981.9364   -4726.1474   -4981.9364            0     7117.891     19.90549    19.733276    20.303653    7975.2856     4890.909    7849.2041      8613.56    66.757202    695.78925   -617.28561   -3898.2559 
26943000    128.28302   -4979.6427   -4732.2381   -4979.6427            0    7248.1253     19.82077    19.718376    20.433965    7986.2759    8256.7472    6550.8729    6936.7558    96.117301    221.32064     1664.637    -3888.037 
26944000    134.89176   -4981.4498   -4721.2997   -4981.4498            0    7953.5896    19.837523    19.687713    20.429264    7978.7604    8626.9545     8181.348    7052.4662   -145.69418    573.17068    798.16881   -3795.8038 
26945000    130.63594   -4984.5149   -4732.5725   -4984.5149            0     6712.709    19.844801    19.725178     20.39248     7982.478    5858.3671    7587.0114    6692.7484   -693.04896    446.25653     45.45134   -3951.1041 
26946000    129.22175   -4987.3493   -4738.1342   -4987.3493            0    6692.5016    19.855998    19.625564    20.501448    7989.1099    6237.3272    7628.5875    6211.5902    23.552261    988.86677    1469.4586    -3958.371 
26947000    127.05943   -4982.1482   -4737.1034   -4982.1482            0    5769.6053    19.839392    19.819915    20.452361    8042.1763    4421.0623    7681.4606     5206.293    244.16292     268.7983    527.78784   -4060.4043 
26948000    132.08806   -4990.3781   -4735.6352   -4990.3781            0    6623.5493    19.821386     19.67074    20.568159    8019.5525     7307.161    7047.1592    5516.3277   -90.494972     125.3232    -237.5805   -3960.9651 
26949000    130.22139   -4972.6052   -4721.4623   -4972.6052            0    6906.7265    19.837516    19.826389    20.330933    7996.2845    6790.2059    6869.0628    7060.9107    293.39799    935.02059    1283.8043   -3916.0164 
26950000    127.63185   -4990.5678    -4744.419   -4990.5678            0    7538.7069     19.78617    19.841155    20.371484    7997.4464    8925.3718    5982.9178     7707.831   -95.712021   -909.30264   -439.39548   -3865.1453 
26951000    127.68525   -4985.8521   -4739.6003   -4985.8521            0    7620.1218    19.799813    19.761224    20.474509     8011.031    7484.4626    7191.2997    8184.6031   -487.55681    634.49762     509.9484   -3849.3212 
26952000    130.92493    -4991.689   -4739.1893    -4991.689            0    6021.7365    19.778396    19.767859    20.553852    8036.0738    3987.1974     7292.322    6785.6902    3.5444314   -460.48614   -390.27203   -4033.4544 
26953000    122.46205   -4985.8576   -4749.6793   -4985.8576            0    6254.4346    19.808885    19.690632     20.58468    8029.0434     7313.032    5352.1526    6098.1193    -234.7007    513.17079    458.91052    -4017.314 
26954000    131.31671   -5006.4209   -4753.1656   -5006.4209            0     6087.833    19.760825    19.870223    20.522268    8058.1094    6254.2511    6076.5943    5932.6536   -241.38476    129.43293   -16.826934    -4037.728 
26955000    122.33568   -4990.1563   -4754.2217   -4990.1563            0    7051.8814    19.720966     19.79448    20.492088    7999.4197    7168.4558    7463.3718    6523.8167   -603.43046   -1102.8102    85.842807   -3931.5257 
26956000    127.45565    -4994.039   -4748.2301    -4994.039            0    7864.4262    19.725797    19.736839    20.501427    7981.7156    9522.5736    6422.6412    7648.0638    108.64996    273.08036   -236.41671   -3832.7705 
26957000    131.94278   -4996.0084   -4741.5457   -4996.0084            0    6415.1855    19.935452    19.776126    20.379235    8034.4322    6082.4121    5998.1896    7164.9547    66.591141      128.956   -34.311394   -3989.8531 
26958000     131.6914   -4978.7974   -4724.8195   -4978.7974            0    8076.6001    19.677843     19.77441    20.413915    7943.4161    8712.2503    7725.9285    7791.6214   -377.13106    213.60008    154.82241    -3789.173 
26959000    126.19804    -4978.886   -4735.5025    -4978.886            0    6812.0006    19.933162    19.716903    20.385744    8012.0094    4217.9206    8312.9687    7905.1126    152.62259    63.391791    8.6186472   -3939.5411 
26960000    131.17255   -4976.3611   -4723.3838   -4976.3611            0    6852.2275    19.902032    19.804002    20.382389    8033.5121    6344.3525    6746.3896    7465.9404     135.6946    416.72661     2.527335   -3920.5731 
26961000    126.82908   -4979.0295   -4734.4289   -4979.0295            0    7079.3521    19.954173    19.708965    20.413409    8028.1055    6566.6303    7865.6304    6805.7956   -364.71778    348.75371    1172.9503   -3905.5664 
26962000    127.75078   -4989.5193   -4743.1412   -4989.5193            0    6962.6793    19.906439    19.825636    20.411948    8055.7349    5890.5074    7837.7669    7159.7636    61.203091     669.8916   -576.22334   -3925.1334 
26963000    128.84548   -4973.0461   -4724.5567   -4973.0461            0    5632.1202     19.74654    19.956886    20.376294    8029.8783    5550.4684     5133.367    6212.5253   -299.99025    1177.2718    495.41844    -4064.993 
26964000    136.55623   -4995.2347   -4731.8746   -4995.2347            0    8336.5094    19.808159     19.79917    20.405217    8002.6224     9201.642    6953.6633     8854.223    52.064029   -215.56223    328.47864   -3758.9202 
26965000    125.10178   -5000.7987   -4759.5294   -5000.7987            0    6762.2067    19.657171    19.852392    20.591827    8035.7931    7010.1796    6419.0646    6857.3758    74.010701    749.35687   -63.123886   -3967.0407 
26966000    126.37991   -4992.1302   -4748.3959   -4992.1302            0    6496.2913    19.663423    19.841834    20.587518    8032.3928    7138.6167    6542.3235    5807.9338    81.679885    1023.4971    1142.1656    -3987.393 
26967000    127.73526   -5000.6496   -4754.3014   -5000.6496            0    7354.2444    19.856221    19.716629    20.442226    8003.0855    7194.8465    7654.6723    7213.2145    381.82475    442.70967     174.9875   -3895.9376 
26968000    133.79518   -4978.9453   -4720.9101   -4978.9453            0    8318.0419    19.633655    19.922333    20.411749    7984.0194    7848.2493    8266.9451    8838.9314   -128.40819   -50.817187   -32.155682   -3752.3678 
26969000     128.8334   -4981.4394   -4732.9733   -4981.4394            0    6647.9839    19.691737    19.866094     20.46933    8007.5588    6065.3547    7470.8433    6407.7538    131.11538    1578.8602    1594.6118   -3956.6083 
26970000    130.68883   -4996.5752   -4744.5308   -4996.5752            0    7990.2989    19.739582    19.747033    20.396663    7950.5821    8177.3688    8440.5123    7353.0157   -292.32487    -1056.895     774.3115    -3818.047 
26971000    130.24689   -4981.7339   -4730.5418   -4981.7339            0    8265.3497    19.686634     19.80233    20.350759    7933.5646    8059.5079    7938.4696    8798.0714    -486.4887    981.33961    126.66511   -3774.2169 
26972000    127.63767   -4992.4459   -4746.2859   -4992.4459            0    7114.5404    19.907457    19.841918    20.291278    8015.0982    6661.3728    7400.0593    7282.1891   -819.89177    189.32949    832.91977   -3914.6531 
26973000    124.71966   -4987.0873    -4746.555   -4987.0873            0    6983.3392    19.873374    19.752586    20.410261    8012.0589    6762.4051    6802.3707    7385.2417    -1083.271    2089.5083    263.79276   -3930.5681 
26974000    128.26056   -4984.6811   -4737.3198   -4984.6811            0    7545.4332    19.684575     19.96724    20.347031    7997.3321     7528.347    7503.1281    7604.8244   -70.442523     956.5021   -739.58842   -3857.2742 
26975000    127.84265   -4985.2968   -4738.7415   -4985.2968            0    8039.8338    19.706854    19.904771    20.292687    7960.0177     7738.403    7171.3649    9209.7334    648.13796   -399.21838   -450.29612   -3805.4077 
26976000    127.25509   -4983.3465   -4737.9243   -4983.3465            0    6468.9293    19.805508    19.765554     20.45811    8008.6716    6808.4687    6095.3236    6502.9957    227.30177    198.38677    447.87911   -3982.3646 
26977000    141.23797   -4967.7853    -4695.396   -4967.7853            0    8787.5142    19.863262    19.675709    20.333815    7946.9381     7822.272    9474.9475     9065.323    188.46037   -564.01994    176.25688   -3676.9412 
26978000    135.77304   -4986.2186   -4724.3689   -4986.2186            0    5918.7807    19.896898    19.780512    20.450476    8048.7107    6638.8274    4386.9863    6730.5283   -479.89537   -951.24393   -181.43256   -4029.6094 
26979000    133.94721   -4983.3549   -4725.0264   -4983.3549            0    7837.3198    19.753222    19.721753    20.470395    7974.6142    7987.1915    8842.2526    6682.5154   -124.83859    628.32329    365.52472   -3813.5338 
26980000    133.13052   -4977.7272   -4720.9738   -4977.7272            0    7005.7366    19.849252    19.748994    20.493551    8033.5287    5099.4092    8789.8375    7127.9629    6.2662663    544.54594     497.0623   -3900.1763 
26981000    129.43318   -4971.9979   -4722.3751   -4971.9979            0    8071.9366    19.652362    19.836292    20.408108    7955.6923    7953.6827    8240.0479    8022.0791   -88.548905    634.91352    1058.5608   -3785.8237 
26982000    124.49751   -4978.8203   -4738.7163   -4978.8203            0    5286.4388    19.860721    19.942599     20.34385    8057.6779    5010.0198    4466.6372    6382.6592   -633.61627      800.088     -578.573   -4117.4912 
26983000    124.13648   -4985.9714   -4746.5638   -4985.9714            0    5759.5548    19.726071    19.879904    20.479635    8031.1379     7175.357    4990.5866    5112.7206    473.94357    410.95508     273.1348   -4071.9707 
26984000    133.42772   -4987.0638   -4729.7372   -4987.0638            0    7022.9258    19.874628    19.739073    20.458889    8026.1597     6821.187    7776.2075     6471.383   -195.13124   -1330.0055    352.59132   -3907.6805 
26985000    123.12778   -4987.2035   -4749.7412   -4987.2035            0    7564.1015    19.854381    19.845911     20.29601    7997.2016    7905.2768    7312.0378      7474.99    -253.7307   -674.85018    424.48545   -3867.5326 
26986000    125.51129   -4984.4024   -4742.3433   -4984.4024            0    7280.2536    19.849615     19.81535    20.304923    7986.4759    7796.3772    6390.9201    7653.4633   -730.54256   -252.54016    90.697377    -3894.379 
26987000    129.11051   -4981.6206   -4732.6201   -4981.6206            0    8301.6913    19.708887    19.663754    20.530861    7956.7493    9029.3479    7903.2435    7972.4824   -24.453849    777.84908   -185.60999   -3769.2833 
26988000    130.53399   -4983.5624   -4731.8166   -4983.5624            0    6385.9786    19.739312    19.887683    20.524656    8057.3476    6833.6495    6159.8096    6164.4766   -43.713132    457.50918    709.71743   -3981.4121 
26989000    127.95579   -4988.2241   -4741.4506   -4988.2241            0    7874.7563    19.680039    19.826255    20.573658    8027.4602    8972.4771    8069.5614    6582.2302   -248.72517    92.044136    347.15347    -3819.535 
26990000    130.32311   -4983.3792   -4732.0402   -4983.3792            0    6435.4536     19.68069    19.790507    20.574096     8013.422     6536.853    7120.0094    5649.4983   -56.401883   -784.26432    90.595405   -3979.9445 
26991000    127.34981   -4989.8105   -4744.2056   -4989.8105            0    8953.3657    19.707421    19.760858    20.497328    7982.3884    10011.197    8639.5724    8209.3279    392.81988    1254.4933    167.11458   -3701.9001 
26992000    125.99442   -4985.5129   -4742.5221   -4985.5129            0    7074.1712    19.737798    19.915609    20.425113    8028.9132    6358.5784    6985.0626    7878.8726   -140.44215   -249.54869    245.14588   -3914.1829 
26993000    132.40584   -4989.3605   -4734.0047   -4989.3605            0    5660.8132    19.794863    19.973794    20.437949    8080.7261    4658.7305    5673.9095    6649.7996   -582.55645     511.9382    773.08658    -4066.883 
26994000    133.50145   -4981.2046   -4723.7359   -4981.2046            0     7121.567    19.688588    19.950712    20.352101    7994.3326    8088.3281    6231.5851    7044.7878   -5.7482388   -411.71134   -763.37981   -3893.4385 
26995000    133.30028   -4973.9176   -4716.8368   -4973.9176            0    7782.4825    19.965354     19.83061    20.244624    8015.3555    7398.8636    7106.9219    8841.6621     472.6317     202.7215    90.176091   -3807.0978 
26996000    132.87488   -4988.0129   -4731.7525   -4988.0129            0    6535.0794    19.786069    19.940097    20.372087    8037.5246    6787.4609    6251.5516    6566.2257    167.46301    1343.3911    714.67768   -3965.7167 
26997000    129.77818   -4982.3805   -4732.0924   -4982.3805            0    6961.8487    19.575155    19.833045     20.46942    7946.9434    7258.4218    6556.5651    7070.5592   -469.63573    500.88982   -1020.9425   -3925.2279 
26998000    131.12723   -4972.1656   -4719.2757   -4972.1656            0    7537.5548    19.681304    19.874363    20.397116    7978.4009    8711.9066    5898.6531    8002.1046    488.87217    250.03419   -289.29568     -3842.23 
26999000    127.26953   -4991.0238   -4745.5738   -4991.0238            0    7227.0574    19.900302    19.701211    20.408964    8001.5392    7591.0094    6589.1281    7501.0346   -161.46154    39.151876   -538.56469   -3902.2178 
27000000    134.13007   -4968.6711     -4709.99   -4968.6711            0    6265.2195     19.59457    19.810764     20.52641    7968.0117    5954.1279     6271.135    6570.3956    142.47261    1255.5303     836.5751   -3981.9384 
Loop time of 361.359 on 64 procs for 250000 steps with 972 atoms

Performance: 119.549 ns/day, 0.201 hours/ns, 691.832 timesteps/s
193.2% CPU use with 32 MPI tasks x 2 OpenMP threads

MPI task timing breakdown:
Section |  min time  |  avg time  |  max time  |%varavg| %total
---------------------------------------------------------------
Pair    | 26.329     | 35.902     | 46.787     |  79.5 |  9.94
Bond    | 0.96854    | 1.2019     | 1.5472     |  11.0 |  0.33
Kspace  | 153.97     | 165.52     | 179.69     |  43.2 | 45.80
Neigh   | 0.82447    | 0.89668    | 1.0094     |   5.4 |  0.25
Comm    | 60.481     | 67.828     | 71.206     |  33.4 | 18.77
Output  | 0.66726    | 0.66761    | 0.66933    |   0.0 |  0.18
Modify  | 71.182     | 73.354     | 75.994     |  15.0 | 20.30
Other   |            | 15.99      |            |       |  4.42

Nlocal:        30.3750 ave          35 max          24 min
Histogram: 2 3 2 1 3 4 3 6 3 5
Nghost:        2755.91 ave        2782 max        2733 min
Histogram: 1 2 6 5 3 6 5 1 2 1
Neighs:        9848.47 ave       12646 max        6837 min
Histogram: 1 1 3 2 5 10 6 1 2 1

Total # of neighbors = 315151
Ave neighs/atom = 324.22942
Ave special neighs/atom = 2.0000000
Neighbor list builds = 2732
Dangerous builds = 0

unfix		3
unfix		2
unfix		1

write_data	data.final.${pid}
write_data	data.final.1
System init for write_data ...
PPPM initialization ...
  extracting TIP4P info from pair style
  using 12-bit tables for long-range coulomb (../kspace.cpp:340)
  G vector (1/distance) = 0.37236223
  grid = 24 24 24
  stencil order = 5
  estimated absolute RMS force accuracy = 0.0034900216
  estimated relative force accuracy = 1.0510096e-05
  using double precision FFTW3
  3d grid and FFT values/proc = 3211 432
Last active /omp style is kspace_style pppm/tip4p/omp
WARNING: Not all mixed pair coeffs generated from mixing. Use write_data with 'pair ij' option to store all pair coeffs. (../write_data.cpp:312)

write_restart   restart.lmp.${pid}
write_restart   restart.lmp.1
System init for write_restart ...
PPPM initialization ...
  extracting TIP4P info from pair style
  using 12-bit tables for long-range coulomb (../kspace.cpp:340)
  G vector (1/distance) = 0.37236223
  grid = 24 24 24
  stencil order = 5
  estimated absolute RMS force accuracy = 0.0034900216
  estimated relative force accuracy = 1.0510096e-05
  using double precision FFTW3
  3d grid and FFT values/proc = 3211 432
Last active /omp style is kspace_style pppm/tip4p/omp
Total wall time: 0:06:01
