LAMMPS (30 Jul 2021)
  using 1 OpenMP thread(s) per MPI task
package omp 0
using multi-threaded neighbor list subroutines
echo both

include		in.partitions
variable        pid world 0
include		in.temp
variable        temperature equal 243.23
variable	tempDamp equal 100.0
include		in.pressure
variable        pressure equal 4250.0
variable        pressureDamp equal 1000.0 # This is 1 ps
include		in.seed
variable        seed world 745823

units		real
atom_style	full
read_restart    restart.lmp.${pid}
read_restart    restart.lmp.0
Reading restart file ...
  restart file = 30 Jul 2021, LAMMPS = 30 Jul 2021
  restoring atom style full from restart
  triclinic box = (-3.2438348 -0.13492117 -0.20042670) to (14.853834 22.714920 19.430425) with tilt (-0.070035002 -6.6242763 0.024891319)
  4 by 4 by 4 MPI processor grid
  restoring pair style lj/cut/tip4p/long/omp from restart
  restoring bond style harmonic/omp from restart
  restoring angle style harmonic/omp from restart
  1008 atoms
  672 bonds
  336 angles
Finding 1-2 1-3 1-4 neighbors ...
  special bond factors lj:    0        0        0       
  special bond factors coul:  0        0        0       
     2 = max # of 1-2 neighbors
     1 = max # of 1-3 neighbors
     1 = max # of 1-4 neighbors
     2 = max # of special neighbors
  special bonds CPU = 2.237 seconds
  read_restart CPU = 2.837 seconds

include 	in.setup
variable	out_freq equal 1000
variable	out_freq2 equal 10000
variable	out_freq3 equal 1000

timestep	2.0

neigh_modify    delay 7 every 1

include		in.tip4p
# This is TIP4P/Ice

# create groups ###
group ox type 2
336 atoms in group ox
group hy type 1
672 atoms in group hy

# set charges - beside manually ###
set group ox charge -1.1794
Setting atom values ...
  336 settings made for charge
set group hy charge 0.5897
Setting atom values ...
  672 settings made for charge

# ### TIP3P Potential Parameters ###
pair_style lj/cut/tip4p/long/omp 2 1 1 1 0.1577 8.5
pair_coeff 1 1*2 0.000 0.000
pair_coeff 2 2 0.21084 3.1668
bond_style  harmonic
bond_coeff  1 450 0.9572
angle_style harmonic
angle_coeff 1 55 104.52
kspace_style pppm/tip4p/omp 1.0e-5
pair_modify tail yes

thermo          ${out_freq}
thermo          1000
thermo_style    custom step temp pe etotal epair emol press lx ly lz vol pxx pyy pzz pxy pxz pyz enthalpy

restart 	${out_freq3} restart.lmp.${pid} restart2.lmp.${pid}
restart 	1000 restart.lmp.${pid} restart2.lmp.${pid}
restart 	1000 restart.lmp.0 restart2.lmp.${pid}
restart 	1000 restart.lmp.0 restart2.lmp.0


include         in.dump
dump            myDump all atom ${out_freq2} dump.water.${pid}
dump            myDump all atom 10000 dump.water.${pid}
dump            myDump all atom 10000 dump.water.0
dump            myDump2 all dcd ${out_freq2} dump.dcd
dump            myDump2 all dcd 10000 dump.dcd
dump_modify     myDump append yes
dump_modify     myDump2 append yes


variable natoms 	equal  "count(all)"                        # NUMBER ATOMS
variable H      	equal  "enthalpy/v_natoms"                 # ENTHALPY-per-atom
variable Vol      	equal  "vol/v_natoms"                 # volume-per-atom
fix AVG all 		ave/time ${out_freq} 1 ${out_freq} v_Vol v_H file vol_enthalpy.dat
fix AVG all 		ave/time 1000 1 ${out_freq} v_Vol v_H file vol_enthalpy.dat
fix AVG all 		ave/time 1000 1 1000 v_Vol v_H file vol_enthalpy.dat



fix 		1 all shake 1e-6 200 0 b 1 a 1
       0 = # of size 2 clusters
       0 = # of size 3 clusters
       0 = # of size 4 clusters
     336 = # of frozen angles
  find clusters CPU = 0.395 seconds
fix             2 all nph tri ${pressure} ${pressure} ${pressureDamp}
fix             2 all nph tri 4250 ${pressure} ${pressureDamp}
fix             2 all nph tri 4250 4250 ${pressureDamp}
fix             2 all nph tri 4250 4250 1000
fix             3 all temp/csvr ${temperature} ${temperature} ${tempDamp} ${seed}
fix             3 all temp/csvr 243.23 ${temperature} ${tempDamp} ${seed}
fix             3 all temp/csvr 243.23 243.23 ${tempDamp} ${seed}
fix             3 all temp/csvr 243.23 243.23 100 ${seed}
fix             3 all temp/csvr 243.23 243.23 100 745823


run             250000
PPPM initialization ...
  extracting TIP4P info from pair style
  using 12-bit tables for long-range coulomb (../kspace.cpp:340)
  G vector (1/distance) = 0.37873187
  grid = 24 27 36
  stencil order = 5
  estimated absolute RMS force accuracy = 0.0024927465
  estimated relative force accuracy = 7.5068319e-06
  using double precision FFTW3
  3d grid and FFT values/proc = 4050 480
Last active /omp style is kspace_style pppm/tip4p/omp
Neighbor list info ...
  update every 1 steps, delay 7 steps, check yes
  max neighbors/atom: 2000, page size: 100000
  master list distance cutoff = 10.8154
  ghost atom cutoff = 10.8154
  binsize = 5.4077, bins = 5 5 4
  1 neighbor lists, perpetual/occasional/extra = 1 0 0
  (1) pair lj/cut/tip4p/long/omp, perpetual
      attributes: half, newton on, omp
      pair build: half/bin/newton/tri/omp
      stencil: half/bin/3d/tri
      bin: standard
Per MPI rank memory allocation (min/avg/max) = 9.326 | 9.338 | 9.353 Mbytes
Step Temp PotEng TotEng E_pair E_mol Press Lx Ly Lz Volume Pxx Pyy Pzz Pxy Pxz Pyz Enthalpy 
 1000000    257.22674   -4862.2754   -4347.7902   -4862.2754            0    3724.8319    18.097669    22.849841    19.630851    8117.9235    3794.5081    3981.1617    3398.8258   -136.40323    248.34966   -66.651388   -3906.8014 
 1001000    240.62229   -4856.3278   -4375.0535   -4856.3278            0    4348.7817    18.353704    22.611253    19.484126    8085.9175    4113.2722    4961.4242    3971.6488    177.81226   -230.12345   -646.49962   -3862.2242 
 1002000    244.10795   -4858.2944   -4370.0484   -4858.2944            0    3194.4318    18.169189    22.777466    19.663527    8137.7131    2782.0383    3943.4789    2857.7782   -609.06192    587.93211    567.18335   -3990.9326 
 1003000    240.34137   -4859.5028   -4378.7904   -4859.5028            0    4823.6691    18.211945    22.923798    19.318824    8065.3567    2081.5024    5717.2732    6672.2316    913.63847   -184.26469    931.46784   -3811.4065 
 1004000     230.2055   -4872.1194   -4411.6799   -4872.1194            0    3542.0365    17.839408    23.209788    19.505829    8076.3668    5737.4588    2717.9647    2170.6859   -664.65613    432.74108   -984.57146   -3994.4793 
 1005000    237.94437   -4839.9759   -4364.0578   -4839.9759            0    2559.9265    18.206225    23.284839    19.216801    8146.5599    2233.8803    2338.2749    3107.6242    624.60096    134.81982   -796.19341   -4059.9149 
 1006000    246.17606   -4847.4722   -4355.0896   -4847.4722            0    3621.1698    18.003243    23.421362    19.242199    8113.6746    3862.1485    3239.4082    3761.9528    419.90496    621.26709     722.0952    -3926.598 
 1007000    253.62988   -4873.5798   -4366.2888   -4873.5798            0    5940.8976    17.919889    22.946317    19.442511     7994.672    4963.2555    7017.4688    5841.9684    358.36975   -327.08187    1670.7562   -3673.6152 
 1008000    243.84399   -4848.4444   -4360.7263   -4848.4444            0    4373.8724    18.212458     22.97645    19.331638    8089.4715    4238.2872     4553.897    4329.4329    819.86378   -792.77116    404.06227   -3844.7115 
 1009000    260.08491   -4864.8258   -4344.6239   -4864.8258            0    4116.1993    18.048598    22.868392    19.660259     8114.623    4595.8707    4584.2178    3168.5093   -301.49695    1235.7011    1327.8302   -3857.4986 
 1010000    243.24708   -4841.9449   -4355.4207   -4841.9449            0    4950.5788    18.293783    22.903566    19.321093    8095.4004    4777.7299    4766.2363    5307.7702    312.71287    546.97296    1979.6632     -3770.94 
 1011000    241.83559    -4851.549   -4367.8479    -4851.549            0    5937.9332    18.051709    22.802451    19.474493    8016.1537    6949.4782    5341.8678    5522.4536    -2667.566   -575.52895    1103.8647   -3673.6597 
 1012000    259.42017   -4842.4516   -4323.5792   -4842.4516            0    4774.1637    18.135054    22.958324    19.388447    8072.3888    4699.2693    5500.8199     4122.402   -1153.4589    656.15548     1147.934   -3761.5288 
 1013000    244.00061   -4823.8098   -4335.7785   -4823.8098            0    3611.8689    18.164302    22.956593    19.397671    8088.6445    2467.9932    3865.5745     4502.039   -1614.7989    170.08178   -1070.2585   -3909.7059 
 1014000    245.70797   -4867.7641   -4376.3178   -4867.7641            0    2815.4525    18.062443    22.947178    19.611671    8128.6864    2854.1992    2903.6314    2688.5269    59.073007   -169.93374    1011.6154     -4042.55 
 1015000    249.36559   -4857.8651   -4359.1031   -4857.8651            0    4339.6357    18.269436    22.772655    19.434688    8085.6768    3903.9456    4501.8471    4613.1145   -1365.0009    917.28935    298.83885   -3847.3676 
 1016000    234.59688   -4834.2015   -4364.9788   -4834.2015            0    4603.2162    18.123992    22.913483    19.463891    8083.0382    5228.4518    3931.4727    4649.7241    775.20347    227.19613    2226.7722   -3822.3387 
 1017000    249.06736   -4862.9772   -4364.8118   -4862.9772            0    3861.5424    18.140706    22.993843    19.401712    8092.9304    4408.8021     3315.171    3860.6539   -2389.3374   -817.12127    835.23069   -3909.0452 
 1018000    231.04511   -4862.8374   -4400.7187   -4862.8374            0    3364.0459    18.216071     22.90602    19.469136    8123.6467    2895.7482    3763.8651    3432.5246    -581.6552   -134.27339    1636.2533   -4002.1631 
 1019000    234.12114   -4836.8357   -4368.5645   -4836.8357            0    5974.1639     18.06085    22.860205    19.481199    8043.2951    6729.0996    6326.7868    4866.6053   -219.18035    1094.0611   -1311.0362   -3667.7759 
 1020000    244.67339   -4856.9685   -4367.5915   -4856.9685            0    3105.0247    18.319118    22.949381     19.32465    8124.3232    361.39939    4743.9414    4209.7332   -928.82357    1261.4532    679.11398   -3999.6929 
 1021000    230.92864   -4853.5599   -4391.6741   -4853.5599            0    5215.6519     18.12048    22.734488    19.507264    8036.2097    6906.4693    5117.8445    3622.6418   -552.23914    451.33732    1893.6249   -3780.4003 
 1022000    250.62894   -4868.4268    -4367.138   -4868.4268            0    2237.1593     18.12853    22.999541    19.548242    8150.5979    817.47879    3088.0874    2805.9118   -1476.8203     505.9963   -438.78519   -4101.2111 
 1023000    238.21418   -4879.4088   -4402.9511   -4879.4088            0    5069.1685    18.148963    22.929634    19.378314    8064.2675    6737.9249    4091.5712    4378.0095   -833.55639   -417.81441   -56.522669   -3806.7709 
 1024000    243.67314    -4803.703   -4316.3266    -4803.703            0    4225.3313    17.957775    23.032651    19.594405    8104.5431    4674.8826    4209.2639    3791.8472   -1509.9971   -643.31787   -238.05578   -3816.9075 
 1025000    246.80737   -4832.3449   -4338.6997   -4832.3449            0    3662.2807    18.374746     22.89415    19.248261    8097.2464    884.34419     4357.502    5744.9959    200.73332   -8.9563284    1295.3688   -3906.2209 
 1026000    243.54215   -4842.6593   -4355.5449   -4842.6593            0    3056.1123    18.131274    22.961566    19.541239     8135.456    2239.2665    2999.0896    3929.9809     -904.811   -208.71065   -218.00185   -3992.9455 
 1027000    258.40053   -4849.2147   -4332.3817   -4849.2147            0    4779.6221     18.12429    22.826109    19.490701    8063.4395    6386.2883    4693.7837    3258.7942      298.104    467.21804    77.238458   -3770.3125 
 1028000     236.4697   -4855.5012   -4382.5326   -4855.5012            0    3835.8321    18.063593    22.934326    19.473466    8067.3961    2350.9029    4828.6292    4327.9642   -1414.8974    145.39878    422.81559   -3931.2289 
 1029000    235.40947   -4829.8592   -4359.0111   -4829.8592            0    6261.7355    17.880597     23.03766    19.471212    8020.7205    7420.7433    5600.2532    5764.2101    1354.4365    28.217105    1485.2933    -3626.551 
 1030000    245.76536   -4837.9298   -4346.3687   -4837.9298            0    3135.2918    18.151512    23.278763     19.25157    8134.6498     4520.576    2680.1455    2205.1539    -42.79361   -216.92032   -1426.7858   -3974.4117 
 1031000    239.88799   -4815.1361   -4335.3304   -4815.1361            0    4608.6761    17.835643    23.443634    19.364332    8096.8526    5051.7859    4069.3357    4704.9066    182.86788    545.11245   -369.40452   -3791.1182 
 1032000    248.83987   -4852.4356   -4354.7251   -4852.4356            0    4946.1582    18.005056    23.013427    19.410033    8042.7034    4224.4075    5318.3924    5295.6746    1525.1092   -832.80936    371.57971   -3774.5675 
 1033000    248.17634   -4859.8799   -4363.4965   -4859.8799            0    2715.9549    18.272281    22.850041    19.482038    8134.1866    3220.9903    3080.7459    1846.1284    1535.0147    112.60521    -175.2377   -4041.3062 
 1034000    234.16672   -4863.6801   -4395.3177   -4863.6801            0    4739.5327    18.128584    22.677564    19.567364    8044.3809     5685.425    4798.2125    3734.9608    1087.0941    -340.8799   -1016.0239   -3839.2802 
 1035000      238.258   -4878.7014   -4402.1559   -4878.7014            0    3281.2554    18.364906    22.548201    19.580993    8108.4033    1721.6295    4905.5848     3216.552    67.783435    179.98874    601.81891   -4014.1385 
 1036000    240.06101   -4877.2936   -4397.1419   -4877.2936            0    4180.8421    18.121396    22.853081    19.476377    8065.7466    4587.2877    4575.3392    3379.8993   -13.177318    148.77793   -1696.9756   -3905.3468 
 1037000    252.02421   -4867.8136    -4363.734   -4867.8136            0    4345.9643    18.045201    22.936012    19.508787    8074.3932    4018.0837    5012.5525    4007.2566    478.11663    -326.6517   -238.38059   -3851.9674 
 1038000    246.14046   -4860.9873    -4368.676   -4860.9873            0    3951.1248    18.093426    23.082052    19.430583    8114.8603    4704.9319    3796.3203    3352.1222    1440.2919     915.6134    391.16037   -3901.0725 
 1039000    243.14925   -4864.9644   -4378.6358   -4864.9644            0    3931.4542    18.142661    22.957043    19.412353    8085.2809    4250.8618    4477.4738    3066.0271     1089.425   -1029.7222   -340.03795   -3915.0563 
 1040000    238.95842    -4839.116   -4361.1696    -4839.116            0     2788.877    18.156656    22.892598    19.580848    8138.8384    2098.0918    3615.8686    2652.6706    515.04199   -14.215107   -22.424884   -4030.1394 
 1041000    253.61522   -4876.5025   -4369.2408   -4876.5025            0    3502.9093    18.232907     22.95111    19.375917    8108.1519    2458.6911    4986.1916    3063.8453    400.55067   -235.69651   -457.70234    -3955.025 
 1042000    250.95362   -4865.4191   -4363.4808   -4865.4191            0    3870.9874    17.933261    22.985621    19.612059    8084.2308    4864.8645    4492.0776    2256.0202    1115.0738   -226.26202    937.53216   -3907.0906 
 1043000    263.16816   -4878.0988     -4351.73   -4878.0988            0    3302.6597    18.345857    22.902293    19.327718    8120.7764    3399.1307    3175.7127    3333.1356     820.4158    983.97268    91.010904   -3960.5854 
 1044000     243.6023   -4879.2556   -4392.0209   -4879.2556            0    4453.4946    18.101176    22.729589    19.552754    8044.6344    6242.7779    5440.7002    1677.0058   -993.64159   -1066.9838    -1317.359   -3869.5247 
 1045000    238.45446   -4875.9274    -4398.989   -4875.9274            0    3349.3967    18.158285    22.975892     19.45557    8116.9184    2855.5383    4039.1329    3153.5189     1226.126   -319.28521    -26.51073   -4002.4977 
 1046000     239.5584   -4860.3941   -4381.2477   -4860.3941            0     3624.756     18.05263    22.867013    19.627746    8102.5244    2905.9319     3980.682     3987.654    -515.6662    1326.3201   -878.96204   -3952.9212 
 1047000    253.94044   -4877.2296   -4369.3174   -4877.2296            0    5685.6753    18.276209    22.846352    19.358782    8083.1573    5433.5287    5819.4156    5804.0815    287.43695   -198.38451   -265.99366   -3699.0641 
 1048000      243.889   -4878.8996   -4391.0914   -4878.8996            0    6692.3791    18.073915    22.505984    19.685238    8007.3891    5518.7218       7842.6    6715.8153   -541.50572    465.92706   -286.12168   -3609.5584 
 1049000    250.25153   -4845.3971   -4344.8631   -4845.3971            0    5340.6432     18.13716    22.698927     19.55092     8048.998    4558.4258    6752.4217    4711.0821   -10.401013     86.91511   -712.63737   -3717.9443 
 1050000    241.43356   -4873.2743   -4390.3774   -4873.2743            0    4322.8982    18.139065    22.924246    19.426647    8078.0734    5969.3589     3734.784    3264.5517     500.1583   -1438.3014    673.47162    -3881.095 
 1051000    264.88401    -4838.354   -4308.5533    -4838.354            0    3853.9173    18.114479     22.86288    19.510749    8080.3602    3482.1215    4031.9221    4047.7083   -278.61979   -1266.3142    681.93252   -3854.3931 
 1052000    244.28864   -4869.5324   -4380.9249   -4869.5324            0    6023.6787    18.128816    22.809904    19.359792    8005.5942    4826.4803    6900.4412    6344.1146    390.12367    921.24929    591.32667   -3677.6401 
 1053000    242.90384    -4889.806   -4403.9683    -4889.806            0    3681.1779    18.178929    22.910594    19.416854    8086.9265    3531.9623    3756.5574    3755.0141    250.60383    963.65417    628.91483   -3969.8119 
 1054000    253.38942   -4841.2425   -4334.4323   -4841.2425            0    4654.8716    18.145408    22.931864    19.434874    8087.0072    4632.7511    5712.1017    3619.7619    243.13747    589.24948    777.17674   -3785.4335 
 1055000    245.94173   -4841.0278   -4349.1139   -4841.0278            0    4533.9487    18.163001    22.942519    19.460354    8109.2264    4960.0619    3839.0028    4802.7812   -154.22983   -63.071467   -272.21718   -3812.9076 
 1056000     261.4215   -4850.2998   -4327.4245   -4850.2998            0    4555.9992     18.18221    23.019892    19.326843    8089.2986    3020.0987    4909.1743    5738.7246    290.10102   -488.24937      455.762   -3789.9345 
 1057000    238.61076   -4871.0728   -4393.8218   -4871.0728            0    3078.2953    18.036535    22.930233    19.621102    8114.9334    3858.5639    1390.9367    3985.3854    14.587093   -1680.1807    -416.8649   -4029.5118 
 1058000    238.10744   -4843.6511   -4367.4068   -4843.6511            0    4247.5768    18.060738    22.870121     19.50371    8056.0321      4645.78    4423.6746    3673.2758    68.560899   -165.30191   -894.17889   -3868.3634 
 1059000    243.57631   -4865.2281   -4378.0454   -4865.2281            0    3476.7209    18.317133    22.912651    19.434984     8156.748    1203.4452     4779.008    4447.7094    1602.7529     2129.135    1055.5539   -3964.4623 
 1060000    242.33445   -4861.9934   -4377.2946   -4861.9934            0    5317.8497    18.111582    22.894339    19.459121    8068.7766     5114.009    5427.2343     5412.306   -562.08764   -127.96172   -2232.5271   -3751.5175 
 1061000    237.45818   -4816.9658   -4342.0201   -4816.9658            0    3153.4885    18.122091    23.232621    19.380922    8159.8271     2993.501    3083.0815     3383.883    26.099027    202.31047    905.11053   -3966.7464 
 1062000    264.59203     -4842.61   -4313.3933     -4842.61            0    4167.5053    17.834858    23.348059      19.4141    8084.2123    4328.5029    3558.0784    4615.9345    715.33586   -182.95119    42.703419   -3822.0447 
 1063000    252.22278   -4846.7885   -4342.3118   -4846.7885            0    4021.7672    18.103017    23.227981    19.269076    8102.5797    5440.3162    3335.8918    3289.0935    1289.6847   -633.45966    322.10337   -3867.0683 
 1064000    239.23781   -4850.2329   -4371.7277   -4850.2329            0    4105.9986    17.876086    23.229231    19.505561    8099.6401    3479.0713    3463.7877    5375.1367     343.1686   -429.72868    281.82998   -3886.7069 
 1065000    234.57048   -4861.3767   -4392.2067   -4861.3767            0    4821.7628    18.364352     22.92138    19.183141    8074.8804    2512.2538    5201.7679    6751.2667    517.18544    728.67429    887.29754   -3824.3774 
 1066000    245.68875     -4815.39   -4323.9821     -4815.39            0    3194.9131    18.212133    22.741669    19.625553    8128.4001    3707.1259    3086.0769    2791.5363   -1412.4434   -282.19905   -1865.5829   -3945.2431 
 1067000    246.21109   -4877.8349   -4385.3823   -4877.8349            0    3475.0188    18.277847    22.676246     19.54939    8102.6933    3203.6465    4575.5777    2645.8323   -206.26813   -573.43803    80.540254   -3974.7412 
 1068000    249.89597   -4863.5996   -4363.7768   -4863.5996            0    3944.6859    18.143356    22.733377    19.515589    8049.3948    3865.3836    4478.3762    3490.2979   -211.34375   -552.74079   -1041.0701   -3900.7015 
 1069000    232.31117    -4870.285    -4405.634    -4870.285            0    4108.9364     18.12256    22.859746    19.567555    8106.3906    5594.3014     3234.264    3498.2439    562.63939   -978.55643    334.91741   -3919.8616 
 1070000    246.00907   -4852.4345    -4360.386   -4852.4345            0    4488.1448    18.210452    22.946867    19.347867    8084.9482    5716.6664    3371.4601    4376.3079    316.54611   -363.08575    44.134425   -3831.1858 
 1071000    251.46015   -4866.0471   -4363.0958   -4866.0471            0    5220.3941     17.99369    23.130501    19.388195    8069.4261     3986.479    5741.7501    5932.9532    1606.8729   -285.36524    1399.7432   -3748.7373 
 1072000    260.22773   -4833.2707   -4312.7831   -4833.2707            0    3642.3268    18.094011    23.169481    19.332889    8104.9043    4039.5177    2647.5109    4239.9519    43.570429     -743.615    294.37058   -3882.2538 
 1073000     240.2362    -4886.224   -4405.7219    -4886.224            0    3846.6068    17.901311    23.354788      19.2889    8064.3286    5013.8466    2050.4504    4475.5233   -990.81108   -817.96857   -1455.1827   -3953.3227 
 1074000    233.31856   -4875.0546   -4408.3887   -4875.0546            0    3519.7088    18.000883    23.179229    19.373716    8083.6172    3218.9786    3006.0931    4334.0547   -205.37403   -633.39974      433.715   -3993.4458 
 1075000    245.44042   -4868.1051    -4377.194   -4868.1051            0    3507.7383    18.051358    23.174672    19.285186    8067.6549    4299.4584    3141.0311    3082.7255   -770.98985   -40.822876   -138.27506   -3964.4788 
 1076000    237.50456   -4839.3028   -4364.2644   -4839.3028            0    3555.0501    18.119249    23.048138    19.431561    8114.9107    4075.9919    3035.7259    3553.4324   -187.64761   -294.15047   -1635.4491   -3943.5326 
 1077000     228.8009   -4868.7247   -4411.0947   -4868.7247            0     4563.436    18.176713    23.013875    19.267694    8059.9962    5911.6415    3953.7625    3824.9039   -1380.5992    458.51764   -1836.6296   -3874.6775 
 1078000    263.52442   -4849.6003   -4322.5189   -4849.6003            0    4178.1392    18.136523    22.836559    19.536892    8091.7071    3922.6563    5224.6173    3387.1439    308.90592   -494.30253   -714.93735   -3829.4598 
 1079000    246.90311      -4884.1   -4390.2633      -4884.1            0    3817.3933    18.141831    22.987348    19.440999    8107.5299    3018.1938    3966.2669    4467.7193   -144.91822    22.131645   -1340.0491   -3938.8947 
 1080000    252.47498   -4845.8603   -4340.8791   -4845.8603            0    4231.5337    18.001626    22.952842    19.602666     8099.596    6009.5901     5527.773    1157.2379   -635.86487   -617.58601   -878.95304   -3841.0322 
 1081000    248.48136   -4863.5793   -4366.5858   -4863.5793            0    2519.1358    18.239628    22.939353    19.376177    8107.0944     2497.847     2187.602    2871.9584    -36.44388   -1343.7389    664.29398   -4068.7392 
 1082000    230.52021   -4859.6334   -4398.5645   -4859.6334            0    4766.2557    17.996776    22.986789    19.449148    8045.8812    6075.0214    4257.7701    3965.9756    1233.3058   -626.32199   -387.56863   -3839.2877 
 1083000    248.98899    -4852.552   -4354.5433    -4852.552            0     5151.313    18.098847    23.067031    19.275551    8047.2855    3388.4763     5510.139    6555.3238    953.58102    915.07894   -281.08682   -3749.9779 
 1084000    254.26669   -4841.1148     -4332.55   -4841.1148            0    4002.0906    18.002759    23.127276    19.446829    8096.7801    3757.1904    3923.9231    4325.1583   -1280.4579    206.45175   -55.767401   -3859.9702 
 1085000    229.78875   -4839.1064   -4379.5005   -4839.1064            0    4499.0736    17.995321    23.107314    19.398451    8066.3326    5232.6106    3640.4471     4624.163    1246.7675   -2284.0702    277.47896   -3850.2331 
 1086000    230.44088   -4841.6905   -4380.7803   -4841.6905            0    2710.0328    18.158109    22.983447    19.473145    8126.8435    2743.2855    2576.6369    2810.1761    569.07307   -647.63904    1291.0044   -4059.5826 
 1087000    232.97587   -4843.1768   -4377.1963   -4843.1768            0    4169.7544    18.224168    22.676246    19.625211     8110.231    4570.7843    4062.6366    3875.8423    -248.5043    707.39601    1286.5952   -3884.0003 
 1088000    239.62425   -4851.8767   -4372.5986   -4851.8767            0    2568.8692    18.416663    22.546826    19.563548    8123.5149    2366.5852    2572.3453    2767.6771    1305.1802   -618.52675    363.45501   -4068.2566 
 1089000    230.83368   -4874.7177   -4413.0218   -4874.7177            0    4724.6223    18.206288    22.664177    19.516486    8053.0979    4771.7462    5071.5971    4330.5238   -174.79425    -280.6232    20.521033    -3858.133 
 1090000    236.83597    -4849.241   -4375.5398    -4849.241            0    6882.2776    18.136024    22.707385    19.426515      8000.26    6562.4287    7090.5834    6993.8207    546.78078   -534.90189   -93.322162    -3572.546 
 1091000    231.82103   -4844.6668    -4380.996   -4844.6668            0    4620.9817    18.129323    22.942413      19.4992    8110.3102    5539.6193    3905.3235    4418.0024   -53.822426   -62.088271   -1160.7325   -3834.4238 
 1092000    249.15742   -4878.0594   -4379.7138   -4878.0594            0     5202.906    18.145566    22.873415    19.374474    8041.3959    4718.7633    5703.3334    5186.6212   -472.79712    648.56778   -2070.8341   -3769.5404 
 1093000    241.61543   -4829.5766   -4346.3159   -4829.5766            0    3828.6547    18.108384    23.066823    19.544957     8163.985    5089.8028    3441.0464    2955.1148    579.84561    750.08241     1131.832   -3890.4634 
 1094000    247.64561   -4868.5603   -4373.2385   -4868.5603            0    4278.4285    18.145345    22.962431    19.373035    8071.9922    5881.6696    3017.1961    3936.4198   -1508.6615   -179.45607   -1631.5651   -3869.5745 
 1095000    230.61132   -4870.3952   -4409.1441   -4870.3952            0    5310.2736    17.882316    22.996931    19.455727    8000.9416    4796.8651    5989.9499    5144.0057    1373.0815   -54.152879    271.63149    -3789.512 
 1096000    245.35335   -4849.5906   -4358.8536   -4849.5906            0     3531.195    18.071461    23.187305    19.357456    8111.3256    4622.3154    2845.9293    3125.3404   -1286.2951  0.026750692   -2048.4285   -3941.1296 
 1097000    239.02641   -4844.9332   -4366.8509   -4844.9332            0     6379.579    18.054027    22.852663    19.378856    7995.3789    4577.6573    6720.9115    7840.1681   -1083.7399    123.05604     2027.809   -3622.9639 
 1098000    252.49623   -4876.6871   -4371.6635   -4876.6871            0    4360.2312    18.233228    22.934319    19.307469    8073.7399    1549.6955     5115.403    6415.5951   -382.79568    1727.4623   -1019.9122   -3858.2584 
 1099000     230.0733   -4836.5859   -4376.4109   -4836.5859            0    3532.9112      17.9654      22.9452    19.676576    8111.0719    2433.7408    3766.3517    4398.6409   -1069.0742   -267.30052    720.89184   -3958.4969 
 1100000    255.07385   -4873.2834   -4363.1041   -4873.2834            0    5709.5929     18.36088    22.746796     19.23607    8033.9679     4076.711    6020.2435     7031.824   -519.96545   -1007.4757   -655.62227   -3694.1272 
 1101000    231.81694   -4875.6579   -4411.9954   -4875.6579            0    3741.4756    18.101715    22.831581    19.570808    8088.4344     5451.435    3282.3379     2490.654   -116.60096   -1628.8867    475.91807   -3970.6452 
 1102000    237.65126    -4844.298   -4368.9662    -4844.298            0    4668.7949     18.32843    22.801341    19.367982    8094.1276     4469.006    4622.1535    4915.2251   -556.84004   -515.15481    419.59458   -3817.8404 
 1103000    250.50243   -4855.3859   -4354.3501   -4855.3859            0    3636.3514    18.032074    23.069984    19.394698    8068.1878    5722.9743    2667.7444    2518.3357   -1632.8636    755.51089   -2521.0702   -3926.4743 
 1104000    247.40368   -4856.7973   -4361.9593   -4856.7973            0    4461.0638    18.015777    23.061442    19.458096    8084.2512    5234.4428    4291.0892    3857.6595    389.91099   -371.11255    462.91881   -3835.9976 
 1105000    262.31981   -4845.7179   -4321.0459   -4845.7179            0     4237.651    18.137786    23.111624    19.295488    8088.5469    3867.4503    4045.0333    4800.4694     988.6208     -181.882   -1449.8611   -3821.1592 
 1106000    229.71572   -4857.0193   -4397.5594   -4857.0193            0    2972.9331    17.834595    23.192347     19.65723    8130.7436    3757.7688    3467.1561    1693.8745    278.21536   -487.50114    1516.2314   -4045.0333 
 1107000     239.2375   -4844.1605    -4365.656   -4844.1605            0    4622.1597     18.11666    23.183299    19.248811    8084.5763    6791.6306    4284.4713    2790.3772    84.880305   -76.348228    556.16644   -3820.6791 
 1108000    245.85825   -4848.1682   -4356.4213   -4848.1682            0    3152.9959    17.993608    23.174577    19.484356    8124.8647    3367.1398    3988.9854    2102.8624   -579.09934    373.99837   -1541.9492    -3982.814 
 1109000    242.14362   -4870.5442    -4386.227   -4870.5442            0    4877.4635    18.111709    23.043934    19.338918    8071.3882    5182.9317    3354.5565    6094.9023    193.02249   -1128.5037    1102.5951   -3812.0865 
 1110000    241.42844   -4824.1074   -4341.2207   -4824.1074            0    4891.3144    17.973312    22.998715    19.584624    8095.5606    6509.9276    4929.7154    3234.3002   -910.82836   -709.65667   -601.26575   -3763.7255 
 1111000    243.03488   -4823.4953   -4337.3955   -4823.4953            0    3693.5922    18.249412    22.967555    19.429817    8143.8983     4118.227    2945.0066     4017.543   -756.61471    721.55254    73.871892    -3898.706 
 1112000     243.8658   -4851.9932   -4364.2314   -4851.9932            0    3716.6751    18.108099    23.041078    19.411391    8099.0171    4644.8296    3072.6532    3432.5425   -1453.6847   -386.30518   -1212.4557   -3925.2332 
 1113000    243.69078   -4870.6168   -4383.2051   -4870.6168            0    5031.4674    18.099967    23.001335     19.35847    8059.3843    6300.3097     4274.942    4519.1504     1298.714    439.78677    430.33663   -3791.8173 
 1114000    249.65192   -4860.9587   -4361.6241   -4860.9587            0    3421.3501    18.182216     23.16586    19.266376    8115.1261    1745.0531    3826.0653    4692.9319   -255.24876     26.57848   -1276.1249   -3956.7046 
 1115000    234.63371   -4844.7796   -4375.4832   -4844.7796            0    3718.1371    17.952531    23.032227    19.596989    8103.0957    4934.6245    3339.5105    2880.2764   -215.45459    676.47071   -269.26819   -3936.0911 
 1116000    232.41063   -4849.8285   -4384.9785   -4849.8285            0    3585.4644    18.173044    23.097639    19.319443    8109.4212    2784.6015     3612.328    4359.4638    872.96456   -380.72215   -1166.7556   -3960.9343 
 1117000    234.59372   -4880.8068   -4411.5904   -4880.8068            0    3807.5329    18.092934    22.717776    19.683401    8090.4924    4266.0896     5010.092    2146.4171     1133.988   -62.185344   -1448.3046   -3962.3338 
 1118000    228.90762   -4857.7357   -4399.8922   -4857.7357            0     3833.061    18.311548    22.768292    19.403786    8089.8783    5522.0605    3659.6075    2317.5151    12.063211   -198.29408   -592.96174   -3947.6578 
 1119000    239.23362   -4868.7055   -4390.2087   -4868.7055            0     5621.524    18.220289    22.604324    19.548099    8051.0277    3644.2458    6004.7506    7215.5756   -509.22157    611.69835   -990.83999    -3730.152 
 1120000     242.1007   -4865.3199   -4381.0886   -4865.3199            0    3887.7094     18.38234    22.620845    19.532375    8122.0316    3093.3904     4700.505    3869.2329     74.15293    183.14861   -362.02133   -3920.5835 
 1121000    224.24005    -4841.966   -4393.4581    -4841.966            0    4960.4715    18.191661    22.534134    19.618537    8042.2918    4337.3069    5448.0757    5096.0318   -706.26975    -252.7072   -70.880564   -3811.6515 
 1122000    251.26069   -4843.4923   -4340.9399   -4843.4923            0    5732.2303    18.078888    22.925396    19.487138    8076.7495    5433.0468    5431.3119    6332.3323    1256.7189    -290.5493    372.49885   -3665.7341 
 1123000    236.07016   -4843.8085    -4371.639   -4843.8085            0    5162.0428    18.118487    22.996756    19.394916    8081.2104    3571.7822    6053.5661      5860.78    1070.5152     587.8132    2060.7301   -3763.2604 
 1124000    247.41738   -4845.3335   -4350.4681   -4845.3335            0    4950.3131    17.904478    23.238378    19.292547    8027.0698     5265.062    5049.9612    4535.9162    315.17942    333.23636   -957.16469   -3770.9519 
 1125000    249.11697   -4834.5294   -4336.2647   -4834.5294            0    3878.5374     17.80964    23.349658     19.46403    8094.0978    6095.5286    3238.0706    2302.0131    2111.2222   -486.23063    403.52924   -3878.4262 
 1126000    241.93997   -4860.4675   -4376.5577   -4860.4675            0    5017.5422    18.011158    23.064905    19.330104    8030.2206    3583.1898    5515.1161    5954.3207   -188.40329   -443.42505    963.51978   -3788.9406 
 1127000    233.83673   -4852.8874    -4385.185   -4852.8874            0    4961.5027    18.141005    23.111286    19.312028    8096.7982    5691.9108     4489.315    4703.2824    301.28017     83.11134    331.62214   -3799.3134 
 1128000    241.24355   -4869.7909    -4387.274   -4869.7909            0    3288.4699    18.066013    22.934879    19.555703    8102.7459    4491.1822    3084.3138    2289.9137    541.39503    231.52823   -1400.1136   -3998.6748 
 1129000    252.81636   -4826.6024   -4320.9384   -4826.6024            0    5006.1939    18.149217    23.027606    19.287874    8061.0396    4889.5934    5055.8128    5073.1757    314.96303    69.556303   -398.66353   -3732.4003 
 1130000    234.66443   -4879.0296   -4409.6717   -4879.0296            0    2185.7677    18.042202     23.03643    19.586415    8140.6613    3151.8596    1993.8042    1411.6392    82.494318   -794.10734     591.9694   -4150.1704 
 1131000     240.2893   -4883.0695   -4402.4612   -4883.0695            0    5832.9686    18.090949    23.027356    19.246891     8017.999    5372.0409    5327.3834    6799.4816      -842.97    487.43611   -416.80061   -3720.3871 
 1132000      245.422   -4834.4496   -4343.5753   -4834.4496            0    1636.0471    18.050188    23.201028    19.516329     8173.105    2562.7963    1359.7057    985.63939   -871.50166   -800.33386    -1120.173   -4148.5644 
 1133000    244.96229   -4842.3095   -4352.3547   -4842.3095            0    4082.4489    18.129235    23.021859    19.371399    8085.0153    5059.5965     2932.823    4254.9272   -834.71946   -519.00892   -200.68692   -3870.9864 
 1134000    231.49629   -4866.5761   -4403.5549   -4866.5761            0    3354.6471    18.331373    22.826677    19.389521     8113.435    2845.9207     3161.881    4056.1397    1643.4819   -158.33116    1037.6269   -4006.6125 
 1135000    235.57119   -4850.1307   -4378.9592   -4850.1307            0     5172.222    17.962757    22.748815    19.608122    8012.4949    4511.4475    5278.1269    5727.0914    666.06616   -459.78309    -786.7046   -3774.5643 
 1136000    248.13001   -4840.6834   -4344.3927   -4840.6834            0    4082.2125    18.238953    22.930462    19.341638    8089.2072    3514.0357     3811.658    4920.9439    585.33724   -1236.4592    1917.1579   -3862.8027 
 1137000    244.59404   -4870.5952   -4381.3769   -4870.5952            0    3743.8306    18.082358     22.80974     19.64117    8101.0769    3125.9559    4787.6173    3317.9185    464.85953    301.98694    18.627433   -3939.0586 
 1138000    245.75338   -4866.9212   -4375.3841   -4866.9212            0     3834.959    18.318799    22.784153    19.440012    8113.8395    2702.6045    4994.3158    3807.9565   -766.37144    416.89841   -54.251171   -3921.5856 
 1139000    247.01914   -4892.6658    -4398.597   -4892.6658            0     4113.449    18.124114    22.564881    19.656089     8038.721    4548.4766      5600.17    2191.7005    957.26854    722.03749      1148.97   -3916.3506 
 1140000    247.98284   -4851.8858   -4355.8895   -4851.8858            0    2985.9142    18.397651    22.605352    19.532695    8123.3624   -175.07551    3988.2558    5144.5622    1681.4647   -1341.4068    589.22799   -4002.1456 
 1141000    241.68517   -4863.1544   -4379.7542   -4863.1544            0    3230.9187     18.21145     22.79217    19.511465    8098.7889     3604.367    3263.0534    2825.3357   -337.78992   -318.17673    340.52135   -3998.1423 
 1142000    241.08152   -4856.3733   -4374.1805   -4856.3733            0    3584.4979    18.144476    22.815358    19.597097    8112.6635    3352.9176    3386.0418    4014.5342    309.88985    1121.5987    325.33782   -3950.0811 
 1143000    242.17368   -4869.1658   -4384.7885   -4869.1658            0    3514.7422    18.257814     23.02278    19.300586    8112.9173    1199.5257     3962.709     5381.992   -113.05549     118.1094    604.49234   -3968.9292 
 1144000    243.53767   -4859.7938   -4372.6884   -4859.7938            0    2201.5065    17.972656    23.413738    19.355786    8145.0517    2999.4795    1061.3289     2543.711    190.67135   -504.88131    -960.9652   -4111.1775 
 1145000    237.47749   -4837.7483    -4362.764   -4837.7483            0    6550.9514    17.943649    23.078196    19.353164    8014.2814    7884.6714       6424.9    5343.2829      826.633   -262.01068   -95.966647   -3597.0883 
 1146000    239.28871   -4860.9559   -4382.3489   -4860.9559            0    3728.4324     18.19364    23.202256    19.202697    8106.1019    2781.5104      3365.41    5038.3767    1142.4013   -118.67543    1094.2746   -3941.5767 
 1147000    243.69729   -4893.5233   -4406.0986   -4893.5233            0    4397.8434    17.998116    22.967388    19.446901      8038.76    3301.4363    4793.0361    5099.0576   -84.097492   -388.91877   -955.98115   -3890.5083 
 1148000    246.51308   -4873.3156   -4380.2589   -4873.3156            0    4645.1728    18.190397    23.114603    19.149828    8051.8093    3921.8796    4015.3805    5998.2582   -274.65176    383.25181   -796.11517   -3834.7885 
 1149000    246.22961   -4830.1156    -4337.626   -4830.1156            0    3475.1642    18.038546    22.852175    19.628108    8091.0991    4112.7495    3422.1951     2890.548    1101.4264    -566.1251    885.56219   -3927.5553 
 1150000    247.73235   -4883.0619   -4387.5666   -4883.0619            0    3544.2546    18.205022    22.770931    19.434906    8056.6491    3053.1881     4630.706    2948.8699    1258.1113    55.865487    164.51245   -3971.1239 
 1151000    255.82723   -4836.0874   -4324.4013   -4836.0874            0    4421.9833    18.126711    22.841174    19.535581    8088.4209    6256.6206    4189.4214    2819.9078   -436.41714    945.20794   -42.901738   -3802.7783 
 1152000    241.07146    -4845.818   -4363.6453    -4845.818            0    4915.1838    18.204686    22.890771     19.37779    8075.0988      2295.43    6638.9842    5811.1371   -321.31741    464.99216    1342.5586   -3784.7987 
 1153000    245.33977   -4846.0555   -4355.3457   -4846.0555            0    4410.8844    18.093417    22.876183    19.505717    8073.5783     3871.392    4748.8919    4612.3693   -807.91163   -887.77937   -977.78645   -3835.9867 
 1154000    251.99887   -4886.0847   -4382.0559   -4886.0847            0    2989.1181      18.1843    22.942668    19.431232    8106.6391    993.25879     3730.853    4243.2426    1510.5387   -539.32512    957.02323   -4028.6614 
 1155000    244.76802   -4871.4521   -4381.8859   -4871.4521            0    5471.3478    18.071045    22.685043    19.579047    8026.2823    4744.9758    6501.4145     5167.653    -1102.732    964.92605    -136.3412   -3741.4367 
 1156000    231.17022   -4864.2291   -4401.8601   -4864.2291            0     3828.849    18.307158    22.674568    19.553012    8116.5901    1838.1769    4904.0435    4744.3265     -226.927   -152.66811    215.95821   -3948.6311 
 1157000    247.01729   -4867.8633   -4373.7982   -4867.8633            0    5830.1854    18.226785    22.596465     19.55034     8052.021    6404.6266    6761.3649    4324.5645     652.2298    1548.3939    9.7957168   -3689.1568 
 1158000    242.85476    -4888.068   -4402.3284    -4888.068            0    4988.6062    18.234719    22.728337    19.407768    8043.4489     4200.923    5428.5729    5336.3227    286.55768   -168.69471    1104.3728   -3817.1377 
 1159000    239.21697    -4878.366   -4399.9025    -4878.366            0    3241.1671    18.087083    22.843183    19.594576    8095.8231     2611.865     3678.351    3433.2854    -259.7488    193.46081    1488.0782   -4017.2203 
 1160000     247.7347   -4855.8902   -4360.3902   -4855.8902            0    4785.1104     18.18544    23.082957    19.257528    8083.8041    2886.0491    5775.5054    5693.7766    1050.2695    777.64111   -230.36745   -3796.2545 
 1161000    232.88528   -4867.8953   -4402.0959   -4867.8953            0    2968.9891    18.034166    23.046875    19.509072    8108.5787    5129.8095    1412.0554    2365.1025    1430.7725   -511.19962    681.97728   -4050.9972 
 1162000    240.23512    -4851.045   -4370.5451    -4851.045            0    3200.0065    17.971107    23.087261    19.580026    8123.8243    4558.9705    2883.0865    2157.9623    507.47924   -237.23749   -383.49994   -3991.4159 
 1163000    228.62431    -4832.271   -4374.9941    -4832.271            0    6601.2799    18.007333    23.108376    19.295586    8029.2838    5617.1493    6538.0551    7648.6354   -655.48927    553.17802   -358.41667   -3601.9917 
 1164000    233.10047   -4855.6028   -4389.3731   -4855.6028            0    5202.8147    18.052923    23.068021    19.352217    8059.1384    5570.2707    4710.6588    5327.5146   -198.54219    226.44374   -1436.3699   -3777.8641 
 1165000    248.64703   -4868.2613   -4370.9365   -4868.2613            0    6152.8185    17.958583    22.915295    19.502262    8025.6922     7405.339    6092.3425    4960.7739    529.74181    810.56829   -1902.9581   -3650.7707 
 1166000    254.53643   -4844.0429   -4334.9386   -4844.0429            0    3048.9103    18.246294    22.999979     19.45912    8166.2995    1976.7803    3244.8922    3925.0584   -575.16241   -1469.5948   -375.96256   -3971.8222 
 1167000    246.82799    -4877.944   -4384.2575    -4877.944            0    5927.3886    18.034843     22.92102    19.410499    8023.8533    5517.6807    5719.4159    6545.0691    555.39604    109.22948    255.36098   -3690.6365 
 1168000    241.49571   -4829.0031   -4345.9818   -4829.0031            0    2649.0673    18.122361     23.04136    19.571737    8172.4497    2619.8678     2365.812    2961.5222   -524.61515    482.35634   -438.90396    -4030.248 
 1169000    257.50019   -4850.7414   -4335.7092   -4850.7414            0     4421.367    18.101365    23.089941    19.378224    8099.3121    5149.3648    3508.7342    4606.0021   -115.15947    508.09193    2114.1367   -3813.4566 
 1170000    250.55719    -4859.912   -4358.7667    -4859.912            0    4644.0329    18.036025     23.05299    19.388534    8061.4483    5437.5125    4674.1273    3820.4588    39.242791    1376.7582    1022.8971   -3812.7772 
 1171000    246.46113   -4852.6393   -4359.6866   -4852.6393            0    4197.2601    18.126562    23.102449    19.344421    8100.8239    3927.7731    4136.5969    4527.4102   -573.63842   -550.19289    70.580588    -3863.813 
 1172000    233.34158   -4852.1492   -4385.4372   -4852.1492            0    4829.6555     18.18765    22.965441    19.346453      8080.77    2823.8705    4704.3174    6960.7786   -351.44345   -315.79322   -200.12353   -3816.2636 
 1173000    247.54956   -4890.9765   -4395.8468   -4890.9765            0    4573.4364    18.075813     22.82602    19.522162    8054.8217    6532.2206    3342.1427     3845.946    648.76147   -383.43648    1049.0847   -3858.5992 
 1174000    238.93413   -4861.7223   -4383.8246   -4861.7223            0    3016.9724    18.243492    22.904884     19.43355    8120.6016    1702.9074    3399.1545    3948.8555    110.55579      466.217   -165.50177   -4026.5226 
 1175000     245.5434   -4877.6608   -4386.5437   -4877.6608            0    3793.3543    18.114674    22.870966    19.485536    8072.8592    3396.2794    4277.9362    3705.8472    104.42363    928.74974    408.28186   -3939.9355 
 1176000    235.25649     -4841.55   -4371.0079     -4841.55            0    4851.9499     17.97658    22.717231    19.668225    8032.0727    5024.6522    5762.3336    3768.8639    1126.5555    30.282927   -1356.6689   -3802.6527 
 1177000    246.07406   -4844.5645    -4352.386   -4844.5645            0    4081.8652    18.301921    22.828743    19.384981    8099.2363    2035.7405    4825.8412    5384.0138   -1070.9797   -224.04499   -1074.7899   -3870.2399 
 1178000    243.45856   -4856.1546   -4369.2074   -4856.1546            0    3633.6623    18.106699    23.045092    19.428857    8107.0894    3924.4129    3778.9391    3197.6348   -1558.0878    1380.3567   -926.28271   -3939.5865 
 1179000    245.76117   -4843.7955   -4352.2428   -4843.7955            0    4688.8996    18.264298    22.940928    19.294885    8084.5563    2698.4104    5362.8833    6005.4051   -469.24923    590.09349    280.89089   -3799.3983 
 1180000    231.84242   -4828.9681   -4365.2546   -4828.9681            0    2471.0687    18.087425    23.064245    19.516568    8141.7813    3031.6561    2299.6946    2081.8556   -149.88779   -15.561021   -492.55334   -4071.8411 
 1181000     247.1198   -4869.5476   -4375.2775   -4869.5476            0    5591.3744    18.183959    22.840077    19.362251    8041.5883    6083.8755    4379.0959    6311.1519   -174.26429   -578.80201   -889.44504   -3719.5305 
 1182000    243.28903   -4853.9002   -4367.2921   -4853.9002            0    3808.2813    18.052448     22.88315    19.612326     8101.791    5274.4075     4210.534    1939.9024   -889.58334    -627.2846    1233.4979   -3917.3196 
 1183000    239.11571   -4868.3663   -4390.1054   -4868.3663            0    4389.3626    18.415614    22.810977    19.303214    8108.8585    3379.8473    4771.4749    5016.7656   -236.51431    698.96557   -178.00028   -3871.0221 
 1184000       241.18   -4889.4095   -4407.0197   -4889.4095            0    3820.4805    18.067537    22.756324    19.665045    8085.2975    3949.7818     4175.352    3336.3076    1370.4569    1045.9506   -1048.6368   -3956.5248 
 1185000    247.29764   -4839.9703   -4345.3445   -4839.9703            0    5861.8781    18.225566    22.800401    19.396492    8060.2163     5515.841    5793.8858    6275.9075   -131.49226    374.93084   -1195.3927   -3656.2808 
 1186000    244.30336   -4840.9043   -4352.2674   -4840.9043            0    3453.6366    18.149185    23.067966    19.385924    8116.2035    3163.5991    2875.4807      4321.83    944.51659    20.088643   -134.12764   -3943.4725 
 1187000    242.68141   -4871.8576   -4386.4648   -4871.8576            0    4596.7292    17.977657    23.060737    19.488306    8079.4232    6224.9723    4391.0162    3174.1993   -89.270671   -785.37597    494.62213   -3844.8318 
 1188000    246.41474   -4842.8197   -4349.9598   -4842.8197            0    5036.8486    18.217475    22.983902    19.198748    8038.6821    4615.4661    4803.2304    5691.8493    1076.3311   -1263.6369   -1000.7783   -3759.4601 
 1189000    232.99983   -4869.6115   -4403.5831   -4869.6115            0    4812.9706    18.018883    23.178965    19.320427    8069.3513    4620.6038     4447.873     5370.435   -970.55489   -762.90743   -1822.8051   -3837.1772 
 1190000    253.53727   -4835.1431   -4328.0373   -4835.1431            0    4939.3004    18.177825    23.038329    19.318334    8090.2617    4645.3233    3990.9829    6181.5948   -32.374371   -538.86301    1260.9834   -3745.2583 
 1191000    248.79754   -4852.7759   -4355.1501   -4852.7759            0    3902.8455    17.874602    23.244428    19.489308    8097.5131    5938.5994    2634.4285    3135.5085    -232.6936   -32.613838    842.11947   -3894.2477 
 1192000    254.56224   -4869.4042   -4360.2482   -4869.4042            0    4744.0851     17.97739    23.190629    19.325075    8056.7588    4591.3448    5031.1201    4609.7903    37.557734   -51.765858    1529.1101   -3802.8203 
 1193000    244.09456   -4858.8821   -4370.6628   -4858.8821            0    5342.8183    18.013632    23.159838    19.253899     8032.588    5710.5826    4502.0253    5815.8471   -810.18755   -805.80621    1319.2318   -3744.7674 
 1194000    250.30415   -4858.8333    -4358.194   -4858.8333            0    4635.4938    17.899363     23.21097    19.372045    8048.3406    4803.4109    3360.5006    5742.5698    -315.7773   -1081.4982    440.21086   -3814.0947 
 1195000    245.33211    -4865.644   -4374.9495    -4865.644            0    5046.1945    18.134297     22.96552    19.335833    8052.6701    3449.8716     4807.972    6880.7398   -611.41772    42.981113    26.151647   -3782.3248 
 1196000    231.25209   -4835.7559   -4373.2231   -4835.7559            0    5135.2714    18.231958    22.799709    19.528698    8117.7541    5187.7023    6128.5719    4089.5401    539.23623    1006.9506    1384.3582   -3765.2629 
 1197000    244.76046   -4857.9428   -4368.3917   -4857.9428            0    5400.0013     18.09202    22.860408    19.455525    8046.6289    5279.0412    5924.9017    4996.0609    262.36088    498.96529    506.93124   -3734.6916 
 1198000    237.28602   -4844.5572   -4369.9559   -4844.5572            0    2605.4543    18.193547     23.19497    19.362651    8171.0148    1438.1062     2410.282    3967.9747    535.06175    593.62284   -748.44505   -4059.4746 
 1199000    253.81976   -4858.3602   -4350.6893   -4858.3602            0    4434.7229    17.941667    23.145614    19.409725    8060.2941     5503.835    3985.8293    3814.5045    1230.7385    359.60345    463.50761   -3829.3827 
 1200000    246.27265   -4869.4327   -4376.8569   -4869.4327            0    4865.4375    17.989714    23.132066    19.333245    8045.3221    5550.9286    4338.6658     4706.718   -1155.9826   -258.07806   -2098.5109   -3805.9817 
 1201000    239.39943   -4848.8473   -4370.0189   -4848.8473            0    5294.9833    17.909406    23.313106    19.297061    8056.9836    5368.9693      3094.07    7421.9105     1162.356   -406.51351    95.443497   -3747.8433 
 1202000    235.86382   -4842.3354   -4370.5786   -4842.3354            0    3817.4961    18.100913    23.334296    19.261576    8135.5517    4568.3961    2840.8561    4043.2359   -55.120179    401.42425   -216.44034   -3917.6377 
 1203000    235.29877   -4870.7772   -4400.1506   -4870.7772            0    5619.0399    17.965357    23.055652    19.404669    8037.4726    5975.5362    4445.2335    6436.3501     358.1799   -344.80435    92.566091   -3741.4963 
 1204000    227.79589   -4863.0231   -4407.4032   -4863.0231            0    4249.0739    18.101854    23.183007    19.280883     8091.327    4528.4273    3545.8797    4672.9148    544.72685   -1074.3314   -935.89008   -3905.9967 
 1205000    240.75577   -4885.4925   -4403.9512   -4885.4925            0     4233.978    17.964225    22.960313     19.50658    8045.7662    5883.1451    4009.1245    2809.6643    706.15648   -487.16006   -635.58703   -3907.1394 
 1206000    245.75923   -4880.6464   -4389.0976   -4880.6464            0    3635.7506    18.198579     22.76168    19.525039    8087.8612    2474.5206    5254.7203    3178.0109    7.6021276   -299.56767    1375.9181   -3960.2493 
 1207000    241.15278   -4848.8744    -4366.539   -4848.8744            0    3194.7282    18.186906    22.658511    19.670803    8106.1059    3188.4363    5143.7069    1252.0415    239.81598    349.27243   -303.73312   -3988.8607 
 1208000    250.33372    -4858.809   -4358.1107    -4858.809            0    4317.9753    18.258381    22.723191    19.473583    8079.3691    2432.2502    5080.3247     5441.351   -1647.8881    157.77472   -1800.6338   -3849.3266 
 1209000    247.69253   -4866.6594   -4371.2437   -4866.6594            0    3972.4656    18.133232    22.832405     19.53282    8087.0815    5066.8667    3630.9085    3219.6216    284.01445   -160.66232    1182.7371    -3902.724 
 1210000    251.70088   -4858.5411   -4355.1083   -4858.5411            0    3167.9696     18.29678    22.849506    19.447496    8130.4607     3491.256     2310.275    3702.3776    606.42424   -699.61103    934.12953   -3979.4681 
 1211000    247.78589   -4859.5555   -4363.9531   -4859.5555            0    5571.4439    17.973774     23.00437     19.50034    8062.9095    4969.1539    6210.7296    5534.4483    308.44231    1107.3477   -194.01618   -3708.8111 
 1212000    244.79598   -4855.7524   -4366.1302   -4855.7524            0    4531.2296    17.961958    23.249772    19.280266    8051.6594    4110.5056    4349.9816    5133.2018    619.09161    419.30092   -1257.4982   -3834.0497 
 1213000     242.6254    -4852.473   -4367.1923    -4852.473            0    3050.6667    18.024584     23.12293    19.463988    8112.2242    3621.9416    1956.0124     3574.046    -370.2408   -772.41046   -1391.7692   -4006.2726 
 1214000      237.455   -4849.2145   -4374.2752   -4849.2145            0    4884.1798    17.926589    23.103005    19.502063    8076.9369    4528.3888    4942.9943    5181.1565   -595.10673    295.65889    728.60045   -3798.9489 
 1215000    224.10585   -4869.5158   -4421.2765   -4869.5158            0    3169.6207     18.11762    23.132993     19.31539    8095.3652    2164.2552    3366.8839     3977.723    169.45509   -114.41843     256.4196   -4047.0628 
 1216000    236.27649   -4856.0267   -4383.4446   -4856.0267            0    4223.0802    18.131211    23.031178    19.393558    8098.4229     3620.879    3854.1998    5194.1619    849.84021    61.774173    690.56179   -3884.6684 
 1217000    232.25265   -4870.9033   -4406.3693   -4870.9033            0    4639.3264    17.911078    22.906342    19.633189    8055.0513    5420.2686    4352.4278    4145.2828   -1149.5255    281.52831    176.39502    -3861.366 
 1218000    249.74519    -4850.821   -4351.2998    -4850.821            0    3703.5324    18.225303    22.919088    19.368149    8090.2182    3575.9188    3542.4783       3992.2    177.00381    345.05797    137.20763   -3914.3291 
 1219000    236.17465   -4850.6152   -4378.2367   -4850.6152            0    3640.5527    18.138078    22.831372    19.582847    8109.5938    4650.0406    3262.4246    3009.1929   -208.40317     96.89941    510.75512   -3947.6681 
 1220000    239.66382   -4881.9485   -4402.5913   -4881.9485            0    6046.5864    18.122535    22.833883    19.346669    8005.8032    5973.5198    5748.0455    6418.1938   -658.73762   -196.47648    1020.2515   -3696.6135 
 1221000    240.55276   -4865.8992   -4384.7639   -4865.8992            0    4093.2455    18.230852    22.835132     19.45775    8100.3373    4348.9222    3904.4623     4026.352   -132.26291   -605.78529    1864.3503   -3901.2079 
 1222000     232.7295   -4883.3124   -4417.8246   -4883.3124            0    3783.6454    18.085824    22.812064    19.592513    8083.3803    4774.1227    4270.8856    2305.9279    913.33289   -587.39259   -417.64135    -3971.779 
 1223000    236.40312   -4874.0764    -4401.241   -4874.0764            0    4201.8479    18.232288    22.809438    19.372219    8056.2908    2177.9696    5127.5031    5300.0712     139.5756    235.29009     39.00023   -3907.5543 
 1224000    237.79709   -4851.2798   -4375.6563   -4851.2798            0    3557.6919     18.21932    22.632571    19.690557    8119.4026    3236.5077    4939.9106    2496.6575    984.24423    382.71142    1832.3151   -3954.3787 
 1225000    237.49809   -4870.3191   -4395.2936   -4870.3191            0    4910.8355    18.258994    22.706706    19.469288     8071.998    4488.2113    5576.8702    4667.4251   -28.047643   -361.30994   -2031.5846   -3817.1811 
 1226000    240.69665     -4857.72    -4376.297     -4857.72            0    4348.9614    18.196055    22.627334    19.613063    8075.2515    3245.5805    5013.5603    4787.7434    643.83225    539.70883     280.2659    -3864.123 
 1227000    268.57046   -4853.8422   -4316.6681   -4853.8422            0    5220.4358    18.212542    22.703528     19.64733    8123.9541    4526.9826    4880.7521    6253.5729    -1167.771   -141.42425    1434.9388   -3698.1532 
 1228000    251.01078   -4842.2357   -4340.1831   -4842.2357            0    5360.1336    18.167431    22.723514    19.489561     8045.834    4938.9062    6129.7751    5011.7194   -1049.4727    524.63348    277.12837   -3711.2238 
 1229000    238.99006    -4835.361   -4357.3513    -4835.361            0    2960.8634    18.126678    22.887753      19.5963    8130.0921    4206.0525    3137.3568     1539.181     1124.772    353.71113    360.47959   -4006.2845 
 1230000    262.03819   -4852.0666   -4327.9579   -4852.0666            0    3983.9295    18.255777     22.96877    19.216744    8057.8255    2972.7415    3761.0809    5217.9661   -1009.3799    -774.9001    318.84435   -3859.7859 
 1231000    256.44615   -4863.5004   -4350.5764   -4863.5004            0    3528.8879    17.956017    23.452486    19.302494     8128.536      3937.35    2957.7379    3691.5757    902.24797    288.34408    2371.9347   -3932.2396 
 1232000    242.98663   -4855.5714   -4369.5681   -4855.5714            0    6115.3828    18.049133     23.08568    19.303477    8043.3052    5251.3657    6280.9781    6813.8046   -448.99425     346.8077   -403.88389   -3652.2132 
 1233000    240.17598   -4865.1597   -4384.7781   -4865.1597            0    3718.4655    18.102396    23.012188    19.407064    8084.5121    3081.7461    4160.2009    3913.4495   -230.65752   -109.99241    35.325816    -3946.355 
 1234000    245.86639   -4842.4582    -4350.695   -4842.4582            0    5684.2153    18.114676    22.880377    19.430007    8053.1672    4505.1096    6097.2545    6450.2816     762.3085   -144.95638   -428.96169   -3683.0999 
 1235000    241.33001   -4870.7165   -4388.0267   -4870.7165            0      4677.34    18.005038    23.077284    19.415163    8067.1439    6212.7768    3865.1656    3954.0777   -575.62299   -853.28556    1255.9557   -3837.7328 
 1236000    237.58823   -4855.9932   -4380.7873   -4855.9932            0     3071.462    18.231942    23.078328    19.364808    8147.9897    2896.9003    1905.0218    4412.4639   -877.51511    147.00328   -895.71774   -4015.8053 
 1237000    236.46035   -4859.2285   -4386.2786   -4859.2285            0    5042.4821     18.03287    23.076785     19.39219    8069.8787     4042.497    5108.6297    5976.3198    655.65966    1665.2153      979.481   -3792.8243 
 1238000    250.77898   -4854.5129   -4352.9239   -4854.5129            0    5098.5976    18.162556    23.101961    19.265672     8083.696    5090.3894    4742.0308    5463.3725   -1814.2162    -346.4804    -695.4842    -3751.838 
 1239000    247.75587   -4867.8503   -4372.3079   -4867.8503            0      3331.59    18.048013    23.145678    19.475061    8135.3857     2495.387    3543.4695    3955.9133    469.87391    1064.9708   -496.88464   -3977.0272 
 1240000    242.70972   -4840.4054   -4354.9559   -4840.4054            0    3590.4967    18.191433    22.889562     19.45711    8101.8226    3471.4139    3442.4131     3857.663   -861.88615   -1325.9987     1538.988   -3930.7144 
 1241000    240.68404   -4871.8499   -4390.4521   -4871.8499            0    4868.2961    18.111661    22.818481    19.507752    8062.1753    5466.1113    5148.3836    3990.3933   -390.79704   -1183.7139   -1905.3565   -3818.0449 
 1242000    239.63092   -4862.6267   -4383.3352   -4862.6267            0    3548.1108    18.289693    22.657143    19.633124    8135.8133    3718.9616    4391.2157    2534.1552   -1499.8467    1367.4254   -1242.1202    -3962.343 
 1243000    251.50409   -4838.9328   -4335.8936   -4838.9328            0    4712.7811    18.330245    22.746121    19.444662    8107.2958     3890.663    5177.9027    5069.7775    1044.6761    1407.9583    -67.24571   -3778.6704 
 1244000     238.3661   -4826.1464   -4349.3848   -4826.1464            0    5079.3693    18.078374    22.750264    19.599506    8061.0374    7215.4951    4526.1281    3496.4847    560.08356    336.04147    963.32129   -3752.2442 
 1245000    246.36972   -4821.2673   -4328.4975   -4821.2673            0    3316.0426    18.107429    23.302744    19.306407    8146.3919    3604.3449    2974.1106    3369.6724    246.93799    469.77843   -534.79394   -3934.5291 
 1246000    236.87039     -4851.36     -4377.59     -4851.36            0    2970.7625    18.059467    23.073437     19.47764    8116.2151    3839.7691    2215.7161    2856.8024    703.40979   -1309.9901   -69.141897   -4025.9507 
 1247000     240.9608    -4860.295   -4378.3436    -4860.295            0    5496.7531    18.037906    23.060231    19.397716    8068.6405    6653.9086    4479.5494    5356.8013    1227.7229    -1233.131   -10.387978   -3731.5251 
 1248000    248.65187   -4839.6897   -4342.3552   -4839.6897            0    5059.4532    17.953338    23.170214    19.398203    8069.3166    4816.2006    5500.2261    4861.9328    1449.2391    264.61979     1151.069   -3746.9451 
 1249000    239.77421   -4857.8191   -4378.2411   -4857.8191            0    4308.5553    18.168222    22.992317    19.307698    8065.3951    3696.5394     4933.275    4295.8515   -892.99818    1100.3486   -429.80615   -3871.4451 
 1250000    253.28445   -4852.4074   -4345.8072   -4852.4074            0    3718.2295    18.146869     23.00952     19.51948    8150.3736    4081.7771    3523.0645     3549.847    462.99273    621.00922   -994.97928   -3903.8404 
Loop time of 512.882 on 64 procs for 250000 steps with 1008 atoms

Performance: 84.230 ns/day, 0.285 hours/ns, 487.442 timesteps/s
99.2% CPU use with 64 MPI tasks x 1 OpenMP threads

MPI task timing breakdown:
Section |  min time  |  avg time  |  max time  |%varavg| %total
---------------------------------------------------------------
Pair    | 27.765     | 32.262     | 36.434     |  34.2 |  6.29
Bond    | 0.27852    | 0.28691    | 0.29825    |   0.9 |  0.06
Kspace  | 231.16     | 240.83     | 253.01     |  33.5 | 46.96
Neigh   | 3.9204     | 4.3409     | 4.9779     |  15.0 |  0.85
Comm    | 97.95      | 109.78     | 118.66     |  50.0 | 21.40
Output  | 0.93708    | 0.93878    | 0.94847    |   0.2 |  0.18
Modify  | 110        | 114.96     | 121.3      |  28.6 | 22.41
Other   |            | 9.488      |            |       |  1.85

Nlocal:        15.7500 ave          20 max          10 min
Histogram: 1 0 2 3 10 17 4 16 6 5
Nghost:        2480.64 ave        2501 max        2457 min
Histogram: 4 5 4 5 8 11 9 8 3 7
Neighs:        5140.34 ave        6576 max        3249 min
Histogram: 1 2 3 7 15 7 13 10 5 1

Total # of neighbors = 328982
Ave neighs/atom = 326.37103
Ave special neighs/atom = 2.0000000
Neighbor list builds = 8458
Dangerous builds = 0

unfix		3
unfix		2
unfix		1

write_data	data.final.${pid}
write_data	data.final.0
System init for write_data ...
PPPM initialization ...
  extracting TIP4P info from pair style
  using 12-bit tables for long-range coulomb (../kspace.cpp:340)
  G vector (1/distance) = 0.38312923
  grid = 24 30 36
  stencil order = 5
  estimated absolute RMS force accuracy = 0.0019530133
  estimated relative force accuracy = 5.8814417e-06
  using double precision FFTW3
  3d grid and FFT values/proc = 4320 480
Last active /omp style is kspace_style pppm/tip4p/omp
WARNING: Not all mixed pair coeffs generated from mixing. Use write_data with 'pair ij' option to store all pair coeffs. (../write_data.cpp:312)

write_restart   restart.lmp.${pid}
write_restart   restart.lmp.0
System init for write_restart ...
PPPM initialization ...
  extracting TIP4P info from pair style
  using 12-bit tables for long-range coulomb (../kspace.cpp:340)
  G vector (1/distance) = 0.38312923
  grid = 24 30 36
  stencil order = 5
  estimated absolute RMS force accuracy = 0.0019530133
  estimated relative force accuracy = 5.8814417e-06
  using double precision FFTW3
  3d grid and FFT values/proc = 4320 480
Last active /omp style is kspace_style pppm/tip4p/omp
Total wall time: 0:08:37
