#include		in.partitions
include		in.temp
variable        temperature equal 276.69
variable	tempDamp equal 100.0
include		in.pressure
variable        pressure equal -1125.0
variable        pressureDamp equal 1000.0 # This is 1 ps
include		in.seed
variable        seed equal 745823

units		real
atom_style	full
#include		in.box
read_restart	restart.lmp.${pid}
read_restart	restart.lmp.0
Reading restart file ...
  restart file = 30 Jul 2021, LAMMPS = 30 Jul 2021
  restoring atom style full from restart
  orthogonal box = (-0.0090130189 -0.088397274 -0.086101092) to (18.216585 23.717575 22.299297)
  2 by 4 by 2 MPI processor grid
  restoring pair style lj/cut/tip4p/long/omp from restart
  restoring bond style harmonic/omp from restart
  restoring angle style harmonic/omp from restart
  864 atoms
  576 bonds
  288 angles
Finding 1-2 1-3 1-4 neighbors ...
  special bond factors lj:    0        0        0       
  special bond factors coul:  0        0        0       
     2 = max # of 1-2 neighbors
     1 = max # of 1-3 neighbors
     1 = max # of 1-4 neighbors
     2 = max # of special neighbors
  special bonds CPU = 0.001 seconds
  read_restart CPU = 0.005 seconds
include 	in.setup
variable	out_freq equal 1000
variable	out_freq2 equal 10000
variable	out_freq3 equal 1000

timestep	2.0

neigh_modify    delay 7 every 1

include		in.tip4p
# This is TIP4P/Ice

# create groups ###
group ox type 2
288 atoms in group ox
group hy type 1
576 atoms in group hy

# set charges - beside manually ###
set group ox charge -1.1794
Setting atom values ...
  288 settings made for charge
set group hy charge 0.5897
Setting atom values ...
  576 settings made for charge

# ### TIP3P Potential Parameters ###
pair_style lj/cut/tip4p/long/omp 2 1 1 1 0.1577 8.5
pair_coeff 1 1*2 0.000 0.000
pair_coeff 2 2 0.21084 3.1668
bond_style  harmonic
bond_coeff  1 450 0.9572
angle_style harmonic
angle_coeff 1 55 104.52
kspace_style pppm/tip4p/omp 1.0e-5
pair_modify tail yes

thermo          ${out_freq}
thermo          1000
thermo_style    custom step temp pe etotal epair emol press lx ly lz vol pxx pyy pzz pxy pxz pyz enthalpy

restart 	${out_freq3} restart.lmp.${pid} restart2.lmp.${pid}
restart 	1000 restart.lmp.${pid} restart2.lmp.${pid}
restart 	1000 restart.lmp.0 restart2.lmp.${pid}
restart 	1000 restart.lmp.0 restart2.lmp.0


include         in.dump
dump            myDump all atom ${out_freq2} dump.water.${pid}
dump            myDump all atom 10000 dump.water.${pid}
dump            myDump all atom 10000 dump.water.0
dump            myDump2 all dcd ${out_freq2} dump.dcd
dump            myDump2 all dcd 10000 dump.dcd
dump_modify     myDump append yes
dump_modify     myDump2 append yes


variable natoms 	equal  "count(all)"                        # NUMBER ATOMS
variable H      	equal  "enthalpy/v_natoms"                 # ENTHALPY-per-atom
variable Vol      	equal  "vol/v_natoms"                 # volume-per-atom
fix AVG all 		ave/time ${out_freq} 1 ${out_freq} v_Vol v_H file vol_enthalpy.dat
fix AVG all 		ave/time 1000 1 ${out_freq} v_Vol v_H file vol_enthalpy.dat
fix AVG all 		ave/time 1000 1 1000 v_Vol v_H file vol_enthalpy.dat


timer           timeout 23:50:00 every 1000
New timer settings: style=normal  mode=nosync  timeout=23:50:00

fix 		1 all shake 1e-6 200 0 b 1 a 1
       0 = # of size 2 clusters
       0 = # of size 3 clusters
       0 = # of size 4 clusters
     288 = # of frozen angles
  find clusters CPU = 0.000 seconds
fix             2 all nph aniso ${pressure} ${pressure} ${pressureDamp}
fix             2 all nph aniso -1125 ${pressure} ${pressureDamp}
fix             2 all nph aniso -1125 -1125 ${pressureDamp}
fix             2 all nph aniso -1125 -1125 1000
fix             3 all temp/csvr ${temperature} ${temperature} ${tempDamp} ${seed}
fix             3 all temp/csvr 276.69 ${temperature} ${tempDamp} ${seed}
fix             3 all temp/csvr 276.69 276.69 ${tempDamp} ${seed}
fix             3 all temp/csvr 276.69 276.69 100 ${seed}
fix             3 all temp/csvr 276.69 276.69 100 745823


run             250000
PPPM initialization ...
  extracting TIP4P info from pair style
  using 12-bit tables for long-range coulomb (../kspace.cpp:340)
  G vector (1/distance) = 0.37036434
  grid = 24 27 25
  stencil order = 5
  estimated absolute RMS force accuracy = 0.0033170095
  estimated relative force accuracy = 9.9890756e-06
  using double precision FFTW3
  3d grid and FFT values/proc = 6300 1296
Last active /omp style is kspace_style pppm/tip4p/omp
Neighbor list info ...
  update every 1 steps, delay 7 steps, check yes
  max neighbors/atom: 2000, page size: 100000
  master list distance cutoff = 10.8154
  ghost atom cutoff = 10.8154
  binsize = 5.4077, bins = 4 5 5
  1 neighbor lists, perpetual/occasional/extra = 1 0 0
  (1) pair lj/cut/tip4p/long/omp, perpetual
      attributes: half, newton on, omp
      pair build: half/bin/newton/omp
      stencil: half/bin/3d
      bin: standard
Per MPI rank memory allocation (min/avg/max) = 12.25 | 12.28 | 12.30 Mbytes
Step Temp PotEng TotEng E_pair E_mol Press Lx Ly Lz Volume Pxx Pyy Pzz Pxy Pxz Pyz Enthalpy 
 4500000    281.72945   -4153.9457   -3671.0711   -4153.9457            0   -2261.4014    18.225598    23.805972    22.385398    9712.5338    -2178.692   -3470.8201   -1134.6921   -600.90417    386.56734    374.23573   -3991.3926 
 4501000     279.9832   -4170.5139   -3690.6323   -4170.5139            0   -2431.3867    18.458756    23.748041    22.311794    9780.5821   -2517.5172   -3218.7392   -1557.9038    680.02006     302.5225    368.32508   -4037.4447 
 4502000    277.30475   -4182.7803   -3707.4895   -4182.7803            0   -410.21037     18.32487    23.456015    22.272947    9573.5459     322.9779   -619.66986   -933.93914   -201.11869    674.25828    60.977383   -3764.7632 
 4503000    278.78653   -4181.7522   -3703.9216   -4181.7522            0   -662.85311    18.171824    23.514267    22.531056     9627.455    1006.5141    7.1950726   -3002.2685    1155.0224   -645.16733    325.34615   -3796.9905 
 4504000    255.56581   -4185.3425   -3747.3114   -4185.3425            0   -1291.7378    18.145869    23.878293    22.149932    9597.3969   -836.26402   -2028.1165   -1010.8329    488.93534   -326.52118    67.524146   -3928.1136 
 4505000      288.677   -4185.9073   -3691.1248   -4185.9073            0   -473.58533    18.078054      23.6781    22.297405    9544.4928   -1064.6889   -794.74711    438.68002    269.33953    -416.7736    257.05766   -3757.0463 
 4506000    285.75801   -4178.8225   -3689.0431   -4178.8225            0   -512.64644    18.264047    23.605103    22.267166    9599.9252   -753.66079    132.84846     -917.127    130.07173      41.9287   -981.06391   -3760.8162 
 4507000    285.64192   -4191.3784    -3701.798   -4191.3784            0   -1768.8649    18.283016    23.527685    22.170475    9536.7859   -2184.5365   -1863.3025   -1258.7556    141.06537    595.88054    172.41781   -3947.8192 
 4508000     287.6217   -4183.6058    -3690.632   -4183.6058            0   -1705.0121    18.237317    23.554274    22.402842    9623.5161   -2636.9994   -164.83428   -2313.2024   -1014.5916    179.41351    217.47563    -3929.929 
 4509000     295.9695   -4182.2933   -3675.0117   -4182.2933            0   -51.127186    18.157152    23.880484    21.898065    9495.0356     782.8656   -533.74024   -402.50691   -573.59719   -29.813445    233.91251   -3682.0915 
 4510000    268.08102   -4156.2425   -3696.7608   -4156.2425            0   -1871.9384    18.218166    23.671818    22.397246    9658.9711   -2214.9441   -1313.8903   -2086.9808    641.36239    241.64925    379.43159   -3960.4536 
 4511000    284.19044   -4194.6908   -3707.5981   -4194.6908            0       358.59    18.160735    23.561511    22.237044    9515.1058    1791.3394    843.69037   -1559.2598   -964.10127   -348.41885   -319.30303   -3657.8373 
 4512000     273.1445   -4129.4024    -3661.242   -4129.4024            0   -1667.3039    18.245964    23.748297    22.224907    9630.2873    -2627.312   -518.60676    -1855.993   -893.03315    393.37434    331.74455   -3895.4113 
 4513000    278.75713   -4156.1705   -3678.3903   -4156.1705            0   -592.20609    18.142836    23.475001    22.380114    9531.7595     36.68856   -1154.3268   -658.98004     543.2547    493.92564    79.703477   -3760.7134 
 4514000    258.85822   -4173.0843   -3729.4101   -4173.0843            0   -1464.1197    18.401513    23.615414    22.338543    9707.4225   -1648.6247   -1419.1113   -1324.6232    986.57904    -113.9243    448.30738   -3936.6896 
 4515000    279.30587   -4172.9533   -3694.2326   -4172.9533            0    -1417.556    18.304546    23.692133    22.279365    9661.9755   -804.77312   -1538.6927   -1909.2022    829.12847    -203.6678   -3.0687521   -3893.9804 
 4516000    279.12083   -4179.5203   -3701.1167   -4179.5203            0    23.864034    18.208198    23.519395    22.231389    9520.4989   -1540.7033    2155.6869   -543.39146   -887.09203    167.27901    134.17359   -3697.8033 
 4517000    277.01585   -4175.3942   -3700.5985   -4175.3942            0   -1185.0718    18.271105    23.745885    22.118193    9596.2779   -365.07437   -2365.5345   -824.60672    30.074337   -208.34734    24.764033   -3866.4516 
 4518000    264.81725   -4190.9084   -3737.0207   -4190.9084            0   -1609.5934    18.193604    23.862981    22.279158    9672.5775   -1997.5016   -1160.7502   -1670.5283   -829.61617   -795.34255   -39.197725   -3964.0774 
 4519000    253.77369   -4128.9504    -3693.991   -4128.9504            0   -1751.1478    18.132845    23.715892    22.727113    9773.4905   -908.53306   -136.62894   -4208.2815    1074.1122   -173.27433    451.86426   -3943.5932 
 4520000    262.97104   -4182.1548   -3731.4314   -4182.1548            0   -2276.9871    18.374487    23.852543    22.196861    9728.4012   -2207.3517   -2652.3492   -1971.2603   -371.00094    70.600038   -963.11954   -4054.4875 
 4521000    271.09432   -4198.6375   -3733.9911   -4198.6375            0   -355.26425    18.411935    23.425346    22.311008    9622.8708   -2137.2542   -165.64181    1237.1033   -307.92615    135.14739     -744.645   -3783.8488 
 4522000    288.01034   -4172.8293   -3679.1895   -4172.8293            0   -1768.4488    18.319303    23.582855    22.322055     9643.607   -1124.2643   -1608.1529   -2572.9292    -255.8785    10.675162   -159.64053   -3927.9078 
 4523000    260.05272   -4185.4978   -3739.7763   -4185.4978            0    -1277.119    18.196773    23.750256    22.264947    9622.4208   -1606.7267   -1010.2091   -1214.4213    60.351382   -175.04942    51.167476   -3918.9984 
 4524000    288.21881   -4127.9485   -3633.9514   -4127.9485            0   -1414.1247     18.09061    23.736506    22.623955    9714.9044   -854.86626   -1465.9402   -1921.5678    3.9375938   -132.40382   -19.535726   -3834.3073 
 4525000    264.48561   -4149.2064   -3695.8872   -4149.2064            0   -651.79691    18.310177    23.721921     22.11991    9607.8397    -566.1358   -1772.5404    383.28544    1469.8394   -311.92576   -87.372469   -3787.2173 
 4526000    288.73926   -4163.7644   -3668.8752   -4163.7644            0    -664.4405    18.331845    23.384212    22.329569    9572.1443   -1414.3181    304.25878   -883.26218   -1137.0537    375.66708    447.59137    -3761.631 
 4527000    280.04489   -4158.6883   -3678.7009   -4158.6883            0   -885.82544    18.223816    23.588081    22.346105    9605.8048   -281.04505   -1304.3459   -1072.0854     429.4778    196.62479    12.085789   -3802.7969 
 4528000    280.59903   -4206.0163   -3725.0791   -4206.0163            0   -1118.0453    18.201727    23.823015    22.180432     9617.879    89.451034    -1782.573   -1661.0139      292.368    -377.9037   -2.0636805   -3881.9039 
 4529000    275.17076    -4215.708   -3744.0747    -4215.708            0   -523.30348    17.937362    23.702545    22.506731    9568.9872    934.15462   -1592.9933   -911.07178    -266.0634   -120.34345    54.889134   -3817.1038 
 4530000    285.63025   -4171.7087   -3682.1483   -4171.7087            0   -455.56035    18.232016     23.63933    22.157474    9549.7083    744.39134   -463.91726   -1647.1551   -337.19744   -777.36945   -300.51329   -3745.5954 
 4531000    285.87666   -4154.3017   -3664.3189   -4154.3017            0   -1404.1011    18.412602    23.582808    22.298856    9682.6284   -804.44888   -1184.3882   -2223.4664    13.449443   -319.81334   -186.10874   -3862.5937 
 4532000    276.44043   -4158.7595     -3684.95   -4158.7595            0   -2809.8837    18.302465    23.691967    22.514707    9762.8588   -3312.7929   -2595.1548   -2521.7034   -669.32861   -355.30441   -117.77648   -4085.0249 
 4533000    285.52028   -4187.7969   -3698.4249   -4187.7969            0    -2094.263    18.205869    23.948805    22.274899    9712.0521    113.42977   -1976.1158    -4420.103   -52.088666    -35.35761   -404.67527    -3995.057 
 4534000    264.67798   -4191.8838   -3738.2348   -4191.8838            0   -1310.5617    18.156268    23.775221    22.193795    9580.3795    -924.0867   -1113.6151   -1893.9832    845.74392    1036.4507   -932.68312   -3921.3465 
 4535000    276.35104   -4222.7006   -3749.0444   -4222.7006            0   -523.13489    18.133977    23.512539    22.234969    9480.4536    -893.7347   -515.99788   -159.67208   -1113.0871    344.56789   -335.89182   -3821.3744 
 4536000    273.29127   -4197.0059    -3728.594   -4197.0059            0    272.39418    17.952595    23.811996    22.163505     9474.613    1140.8959   -106.18177   -217.53153   -194.84193    104.21321    454.59892   -3690.9553 
 4537000    271.10903   -4165.4709   -3700.7993   -4165.4709            0   -576.31769    18.293162      23.5238    22.251464    9575.3541   -2272.8432    548.90895   -5.0187849     412.3907   -83.556329   -158.09257   -3781.2802 
 4538000    271.73337   -4166.7901   -3701.0484   -4166.7901            0   -937.12796    18.327497    23.588963    22.189886    9593.2792   -1574.7311   -647.58564   -589.06719   -196.14927   -191.47165    117.74756   -3832.1602 
 4539000    275.37336   -4165.1478   -3693.1673   -4165.1478            0   -1508.4468    18.150816    23.569417    22.679473    9702.3728   -1444.1703    276.29954   -3357.4696    -462.9015    226.52404    638.54708   -3906.6113 
 4540000    275.32938   -4179.4765   -3707.5714   -4179.4765            0   -2369.2314    18.284014    23.900534    22.249937    9723.1711   -1829.4909   -2513.6646   -2764.5388   -149.70051     -554.414   -538.25279   -4043.5343 
 4541000    274.36988   -4173.4489   -3703.1883   -4173.4489            0   -512.48183    18.258146     23.76969    22.124867    9601.9816    90.665226   -556.38871    -1071.722    992.11258   -519.89572    585.76971   -3774.9537 
 4542000    278.01022   -4184.5407   -3708.0407   -4184.5407            0   -1143.0635     18.23613    23.570663    22.402973    9629.6418   -1347.2843   -1149.6202   -932.28587   -127.81409    485.31964    887.79692   -3868.5707 
 4543000    292.25377   -4194.8729     -3693.96   -4194.8729            0   -185.97448    18.378724    23.471984    22.203838    9578.4058   -951.75599   -135.77198    529.60454    677.93759    638.95901   -112.60976    -3719.939 
 4544000    276.27471   -4176.3755   -3702.8501   -4176.3755            0   -721.03388    18.212959    23.736142    22.305302    9642.7021    272.93241   -1827.0386   -608.99544   -616.70357   -1023.3883    1207.3126   -3804.2483 
 4545000     263.8556   -4207.3156   -3755.0761   -4207.3156            0   -2010.3913    17.953529    24.024196    22.458956    9686.9771    582.16067   -3183.0912   -3430.2433    233.28085    358.46543    11.542663   -4039.0934 
 4546000    294.18386   -4192.1405   -3687.9195   -4192.1405            0   -1479.1398    18.418828    23.804287    22.089871    9685.2392   -2119.2634    -1618.382   -699.77419   -284.43418    150.20281    853.44597   -3896.8469 
 4547000    269.95647   -4185.6315   -3722.9354   -4185.6315            0   -1515.7587    18.277464    23.543561    22.406355    9641.8267   -1859.4585   -1505.0115    -1182.806    35.171278    238.24255     460.9289   -3936.0755 
 4548000    286.22475   -4186.9483   -3696.3689   -4186.9483            0   -1374.8193    18.316469    23.734308    22.216887    9658.3188   -1273.5334   -1025.5487   -1825.3758     -451.387    -532.7913   -276.85637   -3890.0214 
 4549000    292.16364   -4185.9612   -3685.2027   -4185.9612            0   -1495.5689    18.119567    24.020856    22.208302    9666.1079    -580.7976   -1921.9899   -1983.9193   -27.400369    313.50242    507.48713   -3896.0334 
 4550000     279.6404   -4199.8421    -3720.548   -4199.8421            0   -1567.1269    18.116386     23.79665    22.457537    9681.6534    -2183.372   -456.36538   -2061.6433    235.22758   -11.713507    617.65496   -3941.8216 
 4551000     281.9294   -4155.8832   -3672.6658   -4155.8832            0   -2000.9914    18.522985    23.716282    22.031805    9678.4917   -2482.5458   -2615.2191   -905.20921    382.76124    292.10513     192.5009   -3955.1075 
 4552000    275.87495   -4186.7915   -3713.9512   -4186.7915            0   -1918.5578    18.288412    23.618725    22.352289     9655.048   -1001.0652   -2365.0305   -2389.5779   -177.47692    18.289857    644.33697   -3984.1014 
 4553000    279.44482   -4202.2076   -3723.2488   -4202.2076            0   -40.572767    18.215867    23.596864    22.368722    9614.9114   -123.72503   -267.22164    269.22836    347.95419    645.64553   -378.46282    -3728.938 
 4554000    275.68994   -4141.4908   -3668.9676   -4141.4908            0   -1145.1008    18.471115    23.931425    21.862292    9664.0098   -797.26213   -4157.5412    1519.5009    502.17423   -344.79923   -982.90048   -3830.3578 
 4555000    275.76286    -4180.946   -3708.2979    -4180.946            0   -333.08045    18.125906    23.548725    22.610536    9651.1257    686.63827    479.87729   -2165.7569     198.9898   -21.887619    836.09003   -3755.1795 
 4556000    285.46464   -4153.5817   -3664.3051   -4153.5817            0   -1121.2013    18.134339    24.026815    22.123172     9639.296   -794.37201   -3013.8066    444.57483   -1146.2257    148.75203    662.22637   -3821.9227 
 4557000    288.63367   -4197.5414   -3702.8332   -4197.5414            0   -612.22027    18.358564    23.605955    22.267877    9650.2612   -521.53309    289.37654   -1604.5043      956.324    767.98709    1400.7563   -3788.9965 
 4558000    270.11554   -4160.0581   -3697.0893   -4160.0581            0   -934.22443    18.480736    23.244388     22.47572    9654.9711   -1027.2605   -1000.0159    -775.3969    -795.3183   -725.19996    283.65471   -3828.6354 
 4559000    265.52944   -4151.5485   -3696.4401   -4151.5485            0   -927.91547    18.205899    23.690799     22.28033    9609.7798   -1873.5098    566.86756   -1477.1042    292.61513    24.407043   -570.58386   -3826.4863 
 4560000    269.69235   -4192.8679   -3730.6244   -4192.8679            0   -2164.7953    18.032201    23.964558     22.40331     9681.226   -2213.5412    -2474.268   -1806.5766   -451.24393    556.61214    761.68671   -4036.2735 
 4561000    280.04571   -4176.3078    -3696.319   -4176.3078            0   -1925.8284    18.262255    23.624046    22.362278    9647.7206   -1375.0372   -1982.3029   -2420.1451    259.65997   -402.14556   -171.35469   -3967.2872 
 4562000    292.84791   -4185.4515   -3683.5202   -4185.4515            0   -1715.5775    18.469205    23.572523    22.299561    9708.4651   -2214.0018   -1492.0629   -1440.6677   -697.84774   -609.91029    175.22573   -3926.4254 
 4563000    296.45156   -4162.8376   -3654.7297   -4162.8376            0   -1618.4278     18.32676    23.615438    22.468888    9724.4107   -3101.3254    65.962678   -1819.9206   -81.349006   -451.72703   -309.02142   -3884.2561 
 4564000     288.3126   -4199.2528   -3705.0948   -4199.2528            0   -182.47772    18.061809    23.954088    22.263373    9632.3408    824.50007   -2541.4873    1169.5541    53.931639    219.02306   -444.29861   -3730.7289 
 4565000    266.76562   -4194.6257   -3737.3985   -4194.6257            0   -1252.7022    18.086395    23.948135    22.232651    9629.7489   -1530.7957   -1626.2482   -601.06269    356.80286   -368.73749    425.92818    -3913.328 
 4566000    282.28683   -4144.6301   -3660.8001   -4144.6301            0   -1551.2227    18.439764    23.666073    22.287501     9726.194   -669.18038   -1177.8509   -2806.6368    198.31503    224.32957    349.10566   -3880.8357 
 4567000    265.02614   -4203.2393   -3748.9935   -4203.2393            0   -1841.4996    18.464209    23.529159    22.301469    9688.8133   -3567.5769   -782.57799   -1174.3439   -605.43095   -642.40897   -6.3688612      -4009.2 
 4568000    277.38283   -4179.1721   -3703.7475   -4179.1721            0   -1037.7119    18.081018    23.748584    22.444411    9637.5981   -569.79111    -2019.256    -524.0884   -631.67029   -1226.2637   -210.91969   -3849.6025 
 4569000    260.35431   -4198.6741   -3752.4357   -4198.6741            0   -469.53348    18.165004    23.737159    22.232544    9586.3524   -1155.0714   -667.45718    413.92812   -1205.5734   -397.29285    2.9378342   -3818.0798 
 4570000    277.23994    -4181.149   -3705.9692    -4181.149            0   -881.51736    18.228216     23.62624    22.174755    9549.8737   -2041.3497    -825.2778     222.0754   -501.91927     130.3673   -80.708679   -3828.7427 
 4571000    280.32507   -4193.7278   -3713.2602   -4193.7278            0     299.4592    18.297986    23.533097    22.175607    9548.9998   -458.28019     1187.363    169.29484   -359.15031    247.59666   -817.66166   -3671.5568 
 4572000    280.65602   -4120.4686   -3639.4338   -4120.4686            0   -1649.0489    18.284425    23.460582    22.593505    9691.7838   -1824.1298    843.67507    -3966.692    1324.4254    188.47155    254.89948   -3872.5182 
 4573000     264.3377   -4198.0583   -3744.9925   -4198.0583            0   -2954.7945    18.216663    23.829751    22.326041    9691.7018   -2392.2937   -2906.8662   -3565.2235   -279.24866   -532.10451    391.26201   -4162.6336 
 4574000    275.01166   -4180.2618   -3708.9012   -4180.2618            0   -2081.5769    18.227282    24.040687    22.084693    9677.4326   -2403.0322    -2032.321   -1809.3774     908.5262   -409.68115   -113.49133   -4002.6855 
 4575000    270.48133    -4176.382   -3712.7863    -4176.382            0   -1256.2643    18.107001     23.63266    22.428737    9597.6294   -98.389226    -443.7802   -3226.6236   0.40121557    338.63634   -297.98036   -3888.6276 
 4576000    281.14476   -4196.4936   -3714.6211   -4196.4936            0   -731.25901    18.498402    23.615957     22.02482    9621.7067   -2057.6799    21.189278   -157.28644    1215.3759   -595.22515    154.43897   -3817.2333 
 4577000    273.60959   -4200.3033   -3731.3458   -4200.3033            0   -1118.6212    18.271024    23.477961    22.441379    9626.5973   -1702.7489   -5.0473391   -1648.0673   -591.54316   -692.67821   -314.53671   -3888.3936 
 4578000    291.40934   -4148.5017   -3649.0361   -4148.5017            0     -1502.61    18.197744     23.69438    22.316878    9622.6864    -1741.668   -896.51837   -1869.6435    796.74503    200.06052   -463.60449   -3859.9079 
 4579000    273.39687   -4188.7244   -3720.1316   -4188.7244            0    1164.0585    18.216715    23.757465    21.819611     9443.156    1044.6722    698.96461    1748.5386   -559.27497   -242.21868    998.87144   -3559.8189 
 4580000     291.5227   -4162.3045   -3662.6446   -4162.3045            0   -1142.7103    18.157776    23.648758    22.568999    9691.3279   -1225.9488   -319.12411   -1883.0581   -155.45199   -229.41221    133.63592    -3824.153 
 4581000    284.76417   -4186.0715   -3697.9955   -4186.0715            0   -1946.0213    18.253552    23.718409    22.368696    9684.4198   -601.92114   -1766.3127   -3469.8301    843.82104     730.5035    863.11484   -3972.8463 
 4582000    271.59113   -4199.0322   -3733.5343   -4199.0322            0   -1648.4367    18.391276    23.666914    22.036339    9591.6414    -912.8738   -2624.1794   -1408.2568   -142.12601   -307.38043    226.85445   -3964.1246 
 4583000     252.3519   -4162.8013   -3730.2788   -4162.8013            0   -1122.6752    18.214823    23.482861    22.554088    9647.1987   -991.64563   -1639.7082   -736.67192    554.63362   -329.79706    514.96528   -3888.2331 
 4584000    294.63319   -4165.7053   -3660.7141   -4165.7053            0    99.841386    18.331223    23.806882    21.953622    9580.7638   -178.95519   -439.10598    917.58532   -685.60639    612.30414   -1297.1525   -3646.7637 
 4585000    270.48685   -4178.4666   -3714.8614   -4178.4666            0   -566.74126    18.068648    23.695269    22.327749    9559.4354   -873.05373   -1474.9385    647.76847   -95.748118   -10.447781    -488.4716   -3793.8734 
 4586000    272.87926   -4171.3934   -3703.6877   -4171.3934            0   -989.10238    18.262011    23.612147    22.282551    9608.3539   -965.82139   -218.38264   -1783.1031    104.40831   -360.22075    783.47095   -3842.2886 
 4587000    273.87549   -4203.0753   -3733.6621   -4203.0753            0   -501.12445    18.372636    23.663827     22.19946    9651.5898   -1025.5842   -466.17846   -11.610706   -366.47654    -940.3121   -178.44967   -3804.1996 
 4588000    283.65359   -4152.3092   -3666.1366   -4152.3092            0   -2011.2253    18.230194    23.743628    22.477068    9729.2203   -1845.2289   -3170.9493   -1017.4975    177.56398    147.96826    701.23783   -3951.5108 
 4589000    266.67411   -4201.9588   -3744.8885   -4201.9588            0   -422.79368    18.173271    23.691893    22.305737    9603.9401   -1121.1256   -680.45193    533.19653   -294.70592    536.68432   -720.68905   -3804.1065 
 4590000    287.32382   -4201.8113   -3709.3482   -4201.8113            0   -771.39122    18.212261    23.764868    22.117291    9572.6284   -2028.5326    768.06797    -1053.709    1355.3284    204.55169    814.05239   -3817.0398 
 4591000    277.07252   -4209.1883   -3734.2955   -4209.1883            0   -930.66725    18.066014     23.65205    22.578991    9647.9641   -347.18487   -1770.1084    -674.7085   -46.186218   -190.13558    381.26057   -3865.2456 
 4592000    284.86359   -4176.2654    -3688.019   -4176.2654            0   -361.21499     18.43791    23.596293    21.966995    9557.0998   -567.83826   -457.22299    -58.58373    803.78513    735.75249    536.23388   -3738.3653 
 4593000    270.36983    -4195.097   -3731.6923    -4195.097            0   -742.03719    18.191603    23.454755    22.396214    9556.0069   -574.44189   -1461.0466   -190.62305    -886.9207    299.87993    819.23989    -3835.106 
 4594000    276.36923   -4183.0188   -3709.3314   -4183.0188            0   -885.22483     18.20396    23.681031    22.245842    9589.9277   -1245.0117   -2689.1266    1278.4638   -686.93426   -107.42424    502.48303   -3833.1383 
 4595000    278.25888    -4210.019   -3733.0928    -4210.019            0    204.13563    18.061721    23.774042    22.106366    9492.4761    1002.4957   -2147.3608     1757.272   -1216.8508   -80.788344    133.07163   -3704.8327 
 4596000    290.17535   -4188.2867   -3690.9361   -4188.2867            0   -139.59772    18.154229    23.699574    22.285135    9588.1237   -473.34208     433.6995   -379.15058   -176.21451    63.579193   -180.95537   -3710.4565 
 4597000    279.11863   -4179.3301   -3700.9303   -4179.3301            0   -1259.5874    18.537729    23.584188    22.171111    9693.1497   -921.29487   -2155.3264   -702.14076   -495.68093   -424.97514    239.21455   -3878.9914 
 4598000    270.73143   -4205.0129   -3740.9885   -4205.0129            0   -1750.9435     18.31825    23.635326    22.369771     9685.167   -1854.1901   -365.48161   -3033.1587    27.295973   -553.17982    75.489155   -3988.3062 
 4599000    284.69891   -4184.7543   -3696.7901   -4184.7543            0   -2050.2722    17.992581    23.896207    22.453267    9653.8817   -2002.8046   -1360.8398   -2787.1721    273.74844   -616.51394   -178.56467   -3985.4519 
 4600000    264.29649   -4182.6285   -3729.6334   -4182.6285            0   -804.10967    18.111528    24.004117    22.068576    9594.3409   -1874.0583     -1506.64    968.36934   -825.89243   -490.47984    640.74305   -3842.1473 
 4601000    278.06798    -4229.202    -3752.603    -4229.202            0   -144.78888    18.290921    23.524295    22.139607    9526.2528   -179.21727   -340.01694    84.867571    740.05144    473.71228    606.56694   -3772.7186 
 4602000    284.02095    -4175.435   -3688.6328    -4175.435            0   -776.61848     18.41279    23.235294    22.531998    9639.7879   -1130.7355    739.01504    -1938.135   -776.92058    169.39592    1003.9042   -3797.8148 
 4603000    286.02225   -4184.5285   -3694.2961   -4184.5285            0    -489.6107    18.262677    23.673985    22.146957    9575.2446   -1059.2362   -1362.6081    953.01227    1150.1544   -112.30609   -8.4571282   -3762.6679 
 4604000    287.73179   -4200.1972   -3707.0347   -4200.1972            0   -1454.6423    17.958955    23.789821    22.453443    9593.0165   -22.795253   -2366.8167   -1974.3151   -487.23732   -287.60515   -431.69673   -3910.5455 
 4605000    279.77442    -4167.256   -3687.7322    -4167.256            0   -1411.2468    18.230021    23.770177    22.282624    9655.7479   -2015.7868   -784.06908   -1433.8845    1108.0132    701.82869    -567.1894   -3886.4628 
 4606000     265.7581   -4188.3302   -3732.8299   -4188.3302            0   -3016.4128    18.458718    23.587225    22.444091    9771.9311   -2275.2012     -4121.09   -2652.9473   -395.43324   -854.97384   -225.78659   -4162.7097 
 4607000     268.1511   -4181.1262   -3721.5244   -4181.1262            0    -2704.961    18.303772    23.687424    22.377552    9702.2173   -3119.4803    -1800.482   -3194.9206    -131.7461   -357.71492    438.30279   -4104.2679 
 4608000    274.70169   -4170.8027   -3699.9734   -4170.8027            0   -1289.5898    18.025157    23.856897    22.427244    9644.2603    -1086.515   -1060.5167   -1721.7378   -804.13541   -112.76307    186.69467   -3881.3563 
 4609000    280.56982   -4206.3995   -3725.5125   -4206.3995            0   -1783.2788    18.205181    23.881193    22.218393    9659.7009   -1342.1868     -2955.85   -1051.7996   -418.35271   -43.417756   -227.86847   -3976.7351 
 4610000    277.14511   -4186.1796   -3711.1624   -4186.1796            0     -2368.06    18.348949    23.751394    22.324818    9729.4482   -2623.4417   -1460.9688   -3019.7695     1326.358   -646.54355    674.21599    -4047.176 
 4611000    287.96921   -4187.1753   -3693.6059   -4187.1753            0   -1600.0018    18.294699    23.689894    22.290362    9660.6317   -2379.2595     -1425.85   -994.89582   -244.58025    -593.5368    11.274134   -3919.0308 
 4612000    279.52232    -4186.335   -3707.2433    -4186.335            0   -2345.4731    18.400396    23.689465    22.338466    9737.2379   -2775.3768   -2438.3382   -1822.7042    320.78479    140.48032    589.81475   -4040.3184 
 4613000    265.80751   -4168.3589   -3712.7739   -4168.3589            0   -2299.4849    18.285696    23.625698    22.431178    9690.5455   -1900.3395    -2470.055   -2528.0601    530.59243   -895.08301   -181.42746   -4037.7525 
 4614000    287.46789   -4159.5514   -3666.8413   -4159.5514            0   -1641.0038    18.255482    23.839357     22.19156    9657.7441   -2948.4101   -1838.9594   -135.64201    166.73461     -495.466    171.88591   -3897.9739 
 4615000    281.08152   -4164.0926   -3682.3285   -4164.0926            0   -871.52929    18.140634    23.828935    22.332106    9653.5439   -1172.1708   -43.503213   -1398.9139   -1673.8251   -283.57222   -101.92108   -3805.0286 
 4616000    276.44802   -4199.9972   -3726.1748   -4199.9972            0   -763.83338    18.215487    23.675002    22.365818    9645.2969   -785.23363   -238.71572   -1267.5508   -77.223589     304.0783    353.89494   -3833.6207 
 4617000    261.21505   -4186.7866    -3739.073   -4186.7866            0   -2034.3617    18.475582    23.628136    22.292122    9731.4827   -3154.6867   -2287.5594   -660.83901   -967.99307   -373.02199    280.88883   -4027.7971 
 4618000    257.91319   -4174.3101   -3732.2558   -4174.3101            0   -829.99953    18.222442    23.710582    22.222009    9601.3456   -399.51972   -1918.5345   -171.94439    556.90066    -484.0456    1173.0424   -3848.4771 
 4619000    288.68821   -4193.4163   -3698.6145   -4193.4163            0   -92.175259    18.069119    23.731831     22.20707    9522.6862    855.06609   -460.61142   -670.98045    408.77111    711.61087    534.98122   -3711.4157 
 4620000    283.50715   -4215.7132   -3729.7917   -4215.7132            0   -1643.1623    18.268623    23.693293    22.336004    9668.0018   -1846.9084    -2294.303   -788.27558   -923.87095    147.36508    350.09503   -3961.4741 
 4621000    274.05556   -4193.6414   -3723.9196   -4193.6414            0   -970.71172    18.500691    23.339034    22.299866    9628.8201   -3141.2805   -110.48691    339.63228    409.02503    1372.2437   -434.47341   -3860.2332 
 4622000    280.02891    -4151.341    -3671.381    -4151.341            0   -1770.9664     18.36461    23.727537    22.249789     9695.278   -927.89511   -1672.8959   -2712.1082    52.005749    48.457551    246.76694   -3921.7881 
 4623000    270.80616   -4212.3329   -3748.1805   -4212.3329            0   -554.83005    18.002786    23.915816    22.190434    9554.1205   -419.79871   -512.43274   -732.25871   -462.18706   -26.300091   -224.45956   -3825.4888 
 4624000    278.70701   -4156.0212   -3678.3269   -4156.0212            0   -1517.9025     18.07303    23.964449     22.31488    9664.8027   -95.734417   -2011.2775   -2446.6955    -643.8018   -729.05567   -149.67968   -3892.2771 
 4625000    289.53427   -4158.9775   -3662.7257   -4158.9775            0    -1029.522    18.395871    23.607322    22.213365    9646.7591   -2192.7232   -210.00367   -685.83922   -302.83138    8.4616836    545.26297   -3807.5672 
 4626000    274.46193   -4174.1034    -3703.685   -4174.1034            0   -1206.4665    18.376166    23.409704    22.438907     9652.783   -1511.2204   -878.90694    -1229.272    -869.1924   -1.3877421     268.4507   -3873.5265 
 4627000    280.42252   -4174.7463   -3694.1117   -4174.7463            0   -1084.9337    18.058133    23.810332    22.398018     9630.479   -372.01799   -1150.8558   -1731.9273    486.72848   -837.71734     -390.191   -3846.4913 
 4628000    291.51057   -4201.7464   -3702.1072   -4201.7464            0   -2119.6151    18.168095    23.943617    22.175135    9646.4034   -2456.8486    -2834.382   -1067.6147    146.56748    359.44502    310.22994   -4000.3008 
 4629000    287.77612   -4172.2099   -3678.9715   -4172.2099            0     623.8518    18.095553    23.594953    22.423058    9573.8319    798.02783    2029.9988   -956.47125   -712.22815   -911.31938   -82.912089   -3591.8665 
 4630000    270.52639   -4201.5932   -3737.9202   -4201.5932            0    -1444.145    18.472881    23.547164    22.174837    9645.6984   -3458.3649   -666.57128    -207.4988    3.7955672   -101.73369    471.61177   -3941.0719 
 4631000    268.85871    -4202.016   -3741.2014    -4202.016            0   -747.22856     18.45422    23.385233    22.152623    9560.1023   -1360.7653    77.078667   -957.99903    580.98986   -591.50298    268.06054   -3845.3832 
 4632000      277.167   -4138.6931   -3663.6383   -4138.6931            0   -2284.2596    18.155914    23.751894    22.473848    9691.5627   -2402.5341   -1719.1286   -2731.1159    409.71597   -214.84633    783.90619    -3986.499 
 4633000      277.678   -4192.5623   -3716.6317   -4192.5623            0   -1414.0925    18.166552    24.046521     22.05119    9632.8939   -2100.2675   -2533.1041    391.09422   -235.42829   -1116.9721   -769.24943   -3915.2918 
 4634000    266.04631   -4194.5558   -3738.5616   -4194.5558            0   -1824.8547    18.273714    23.689083    22.331968    9667.2304   -2216.2201   -960.87988   -2297.4641   -2133.7196   -707.75634    727.33435   -3995.8417 
 4635000    259.53159   -4199.6736   -3754.8454   -4199.6736            0   -1300.2289    18.322203    23.394426    22.321107    9567.6622   -1595.2182    -1289.547   -1015.9216   -197.36972   -206.31638    864.06173   -3936.2722 
 4636000    277.96063   -4188.1868   -3711.7718   -4188.1868            0   -879.42945     18.27434    23.677953    22.186594     9600.116   -668.39835   -1272.4561   -697.43393    -332.1107     482.3073     486.9713   -3834.8988 
 4637000    260.40103   -4177.7415    -3731.423   -4177.7415            0   -1668.4376    18.025569    23.866142     22.49355    9676.7429   -1325.7667   -2190.9008   -1488.6455    -390.5714   -650.66061   -95.895312   -3966.8819 
 4638000    277.82644   -4184.7122   -3708.5272   -4184.7122            0   -1681.5868    18.118035    23.844147    22.356845    9658.3605   -2086.1138    -1945.829   -1012.8175    508.36708    419.55246    729.67707   -3945.3909 
 4639000     264.0124    -4215.102   -3762.5938    -4215.102            0    -1257.117    18.379726    23.685209    22.201772    9665.0449   -1434.4803   -846.38217   -1490.4885   -289.60812   -735.50719    4.4161087   -3939.7904 
 4640000    274.84628   -4178.0909   -3707.0138   -4178.0909            0   -1723.1006    18.406954    23.420333    22.510191    9704.0755   -2424.5013   -711.39038   -2033.4101    -385.7868    127.10045    98.018746   -3950.8739 
 4641000    265.39041   -4201.1797   -3746.3096   -4201.1797            0   -1515.7483    18.132896    23.792538    22.192427    9574.4259   -507.56729   -1918.0523   -2121.6252   -14.185062   -524.97751   -174.56572   -3957.9583 
 4642000    265.04082   -4184.2044   -3729.9335   -4184.2044            0   -171.07621    18.030596    23.752538    22.277813    9540.9726    38.463084   -572.62018    20.928451    106.95951   -143.07504   -1141.9291   -3753.7379 
 4643000    267.04133   -4184.8441   -3727.1444   -4184.8441            0     303.6073    18.221102    23.562825    22.310254    9578.6989   -1129.5677    1321.6825    718.70714    903.16054   -185.83349    -1337.187   -3684.7319 
 4644000    281.30808   -4205.2658   -3723.1133   -4205.2658            0   -159.01488    18.423873     23.49956    22.045984    9544.8727   -323.72544    138.27824   -291.59745   -587.81555    204.71922    565.22714   -3745.2485 
 4645000    291.22722   -4186.1606   -3687.0071   -4186.1606            0   -1368.1789    18.169264    23.697317    22.348888    9622.5998   -1241.3893   -960.84616   -1902.3014    967.21002    97.920119    226.36175   -3879.0116 
 4646000    270.58976   -4187.7708   -3723.9892   -4187.7708            0   -1801.1996     18.38834    23.747109    22.313192    9743.4995    -2221.818   -490.67237   -2691.1084    16.724251    197.54346    40.268305   -3979.9378 
 4647000     259.8178   -4188.0022   -3742.6834   -4188.0022            0   -1835.3385    18.396882    23.452152    22.412103    9669.6228   -1926.0956    -730.9651   -2848.9546   -536.98171   -151.18818    242.73224   -4001.5056 
 4648000    259.83935   -4198.6594   -3753.3036   -4198.6594            0    271.68776    18.138087     23.52323    22.203264    9473.3869    620.44533     914.1375   -719.51956   -666.80402   -195.83603    57.207252   -3715.7674 
 4649000    282.93093   -4158.6373   -3673.7033   -4158.6373            0    1034.0258     18.06609     23.68812     22.24097    9518.0607    2419.5356   -361.00222     1043.544    566.75251    425.38141   -176.96664    -3530.169 
 4650000    268.95683   -4186.1483   -3725.1655   -4186.1483            0   -741.39491    18.161506    23.727355    22.371594    9640.4682    761.23814   -702.86663   -2282.5562   -463.24673   -427.98007   -530.27309   -3829.4029 
 4651000    272.83757   -4152.4004   -3684.7661   -4152.4004            0   -1697.1325    18.486659     23.79577    22.091738    9718.2501   -2955.5113   -1720.8104   -415.07594   -783.11879    358.78399    54.974838   -3925.3019 
 4652000    275.95611   -4219.3998   -3746.4205   -4219.3998            0   -1778.5628    18.336348    23.513476    22.452678    9680.5009   -170.13458   -1726.3421   -3439.2115    635.82917    543.18534    225.99047   -3997.5183 
 4653000     279.4826   -4180.2673   -3701.2437   -4180.2673            0    801.56539    18.097884     23.58173    22.263369    9501.5475    2313.3386    1036.4506   -945.09306    318.65962   -755.19379    177.79944   -3590.1705 
 4654000    266.32652   -4189.9187   -3733.4441   -4189.9187            0   -850.14739    18.144719    23.806434    22.205774    9592.0293   -626.73922    1.1124751   -1924.8154    177.90608    322.29875    115.26952   -3852.3712 
 4655000    278.34131   -4201.3885    -3724.321   -4201.3885            0   -1633.9681    18.311863    23.615506    22.448766    9707.8322   -2165.2489   -184.08719   -2552.5681   -169.19734   -294.15604   -731.94791   -3955.6562 
 4656000    249.92207   -4191.7847   -3763.4268   -4191.7847            0   -2259.4729    18.296498    23.523929    22.425415    9652.0221   -2646.8882   -352.48982   -3779.0407   -386.24407    165.92732   -401.73387   -4081.4811 
 4657000    275.11523   -4194.6827   -3723.1447   -4194.6827            0   -496.65241    18.388448    23.780024    21.998863    9619.6128   -239.93829   -1426.2034    176.18445    728.60762    277.58714    189.13101   -3792.8211 
 4658000    277.07801   -4204.4155   -3729.5133   -4204.4155            0   -46.460413    18.125723     23.66123    22.165614    9506.3199    72.926451    865.80157   -1078.1093   -1565.3356   -685.87583   -396.86399   -3735.9546 
 4659000    276.01216   -4193.7683   -3720.6929   -4193.7683            0   -51.255651    17.922951    23.869339    22.265813    9525.5148    1532.7636   -633.51721   -1053.0134    263.64169    274.60328    1029.2069   -3727.8134 
 4660000    283.09565   -4160.7291   -3675.5129   -4160.7291            0   -582.05554    18.263755    23.545371     22.32165    9598.9093   -1886.7832    165.68302   -25.066423    33.653862    -36.35857   -596.13577   -3756.9949 
 4661000    255.11695   -4177.3754   -3740.1137   -4177.3754            0   -2604.5273    18.606621    23.666032    22.172372    9763.4906   -2631.4515   -3358.4684   -1823.6618    691.03622   -1029.9622   -245.73153   -4110.9736 
 4662000    261.39695    -4169.341   -3721.3156    -4169.341            0    -2274.347    18.274479    23.895543     22.22591     9705.579   -1627.3641   -3065.6869   -2129.9901   -1157.4432   -86.184394    354.31159   -4043.2401 
 4663000    279.29664   -4187.5697   -3708.8648   -4187.5697            0   -1106.8588    18.231834    23.728437    22.215957    9610.9097   -589.94343   -2311.7934   -418.83951    16.993276    207.03197   -576.96151    -3864.008 
 4664000     265.1753   -4182.9103   -3728.4089   -4182.9103            0   -1777.8926    18.301974    23.671697    22.220005    9626.5679   -2124.0011   -1427.7911   -1781.8857    105.67329   -17.044597    650.25162   -3978.0137 
 4665000     273.3794   -4171.4012   -3702.8382   -4171.4012            0   -1850.8539    18.416496    23.486132    22.532561    9746.0594   -2026.0329   -926.32748   -2600.2011    -13.01229    515.43525    827.51891   -3965.9117 
 4666000    280.66205   -4172.9578   -3691.9126   -4172.9578            0    -1059.134    18.307114    23.690546     22.26185    9655.0877   -1007.8854   -540.26918   -1629.2473   -719.51697   -461.82516   -239.02149   -3841.0488 
 4667000    273.06155     -4203.88   -3735.8619     -4203.88            0   -1829.2026    18.273583    23.768578    22.220822    9651.3271   -2567.2119   -1120.9449    -1799.451    529.87371    68.740342    725.83496   -3993.3307 
 4668000    281.58299   -4141.9189   -3659.2953   -4141.9189            0   -454.45672    18.258932    23.630928    22.399366    9664.7781   -282.82866   -421.44418   -659.09732    334.20014   -212.53347    71.777488   -3723.3514 
 4669000    277.99459   -4151.2545   -3674.7813   -4151.2545            0    -41.66376    18.192325     23.28933    22.487471    9527.6504    341.28805    804.59004   -1270.8694    354.35542    244.26279   -1008.2703   -3680.5705 
 4670000    276.34789   -4185.0872   -3711.4364   -4185.0872            0   -1078.4517    18.432366    23.620461    22.103193    9623.3097   -865.34947   -641.73031   -1728.2752   -565.69764   -490.39708    65.253631   -3862.7929 
 4671000    269.35232   -4177.0852   -3715.4245   -4177.0852            0    -975.0918    18.142342    23.898859    22.201881    9626.3198   -1813.1953   -1730.5202    618.44014     -694.867   -910.65145    13.185888   -3852.3176 
 4672000    279.51446   -4197.7476   -3718.6694   -4197.7476            0   -591.06056    18.045353    23.818724    22.400267    9628.0222    1172.6547   -1566.5574    -1379.279   -519.35321   -224.83386    165.79144   -3801.6631 
 4673000    255.31237   -4162.4995   -3724.9028   -4162.4995            0   -53.347398    18.281867    23.548818    22.231324    9570.9489    309.94068    1564.0669   -2034.0497   -158.83972    149.09182    1042.1369   -3732.3492 
 4674000    269.68801   -4197.3849   -3735.1489   -4197.3849            0   -826.38682    18.458087    23.373664    22.037691    9507.7902   -2363.2918    34.036893   -149.90551   -197.81802    410.26444    497.51956   -3849.7369 
 4675000    281.68804   -4178.5403   -3695.7367   -4178.5403            0    115.43409     18.26102    23.639112    22.285639    9620.1375    990.46209   -1345.8703    701.71044   -1550.9371     267.6315    334.21282   -3679.5413 
 4676000    277.18672   -4207.6255   -3732.5369   -4207.6255            0   -815.79633    18.249083    23.654383    22.197996    9582.2263     -1809.52    -1488.459    850.59009   -496.46327   -780.25861    69.986288   -3846.5419 
 4677000    276.52317   -4158.6574   -3684.7062   -4158.6574            0   -2547.1665    18.238193    23.970474    22.299942    9749.0471   -2163.8382   -2685.5275   -2792.1337   -760.34406    322.50468    646.70504   -4046.8619 
 4678000    285.12724   -4175.3841   -3686.6857   -4175.3841            0   -1026.1527    18.109491    23.890214    22.420074    9699.8125   -243.78085   -1663.3326   -1171.3445   -153.47946   -505.52174     591.5389   -3831.8471 
 4679000    270.70755   -4170.1643   -3706.1808   -4170.1643            0     -2183.73    18.368275    23.671098    22.282874    9688.5322   -1827.0359   -2365.7614   -2358.3927    802.74577   -114.88263    648.53325    -4014.736 
 4680000    271.51384   -4179.5266   -3714.1611   -4179.5266            0   -2082.9313    18.356631    23.555273    22.387726    9680.3511   -3878.8697   -880.72322   -1489.2011   -738.61809    314.83063   -81.962051   -4008.2252 
 4681000    287.36533   -4195.7357   -3703.2013   -4195.7357            0   -965.53731    18.244956    23.675694     22.25494    9613.2883   -379.98221    279.52674   -2796.1565     318.2111    34.265405    714.58786   -3838.5696 
 4682000    291.80027   -4167.3845   -3667.2488   -4167.3845            0   -1013.5836    18.202364    23.833351    22.081154    9579.3197    -824.5253   -2173.9594   -42.266068   -906.88139   -336.17209    703.55678   -3808.8511 
 4683000     277.0892   -4205.2551   -3730.3337   -4205.2551            0   -823.08916    18.030627    23.641266    22.473885    9579.8722     476.9183   -1739.9162   -1206.2696   -180.24026   -69.631866    593.10036   -3845.3296 
 4684000    265.75538   -4191.8645   -3736.3689   -4191.8645            0   -2344.1633    18.366244    23.738112    22.089688    9630.6613    -1954.399   -3342.3926   -1735.6982    135.67945    516.23426     711.1854   -4065.6144 
 4685000    270.63539   -4152.3427   -3688.4829   -4152.3427            0   -1206.4342    18.522475    23.430889    22.259263    9660.4771   -2391.7547    61.722918   -1289.2707   -129.93302    716.86013    174.46482   -3858.4552 
 4686000    279.20609   -4166.7026    -3688.153   -4166.7026            0   -1918.1537    18.307542    23.582055     22.44548    9690.3749   -574.76542   -3192.2588   -1987.4369   -1048.3609   -543.26695    186.94905   -3959.2345 
 4687000    271.32958   -4180.3999   -3715.3503   -4180.3999            0   -2001.4205    18.088817    23.923981    22.329509    9663.2408   -521.03063   -2721.9703   -2761.2607    942.91923   -87.237814   -646.33955   -3997.4074 
 4688000    286.86449   -4159.6873   -3668.0114   -4159.6873            0   -1032.0499    17.912524     24.00918    22.351796    9612.7252   -259.30057   -2212.8639   -623.98536    408.56937   -157.10393    227.12285   -3812.6963 
 4689000    261.82083   -4194.9546   -3746.2026   -4194.9546            0   -281.17079    18.320548    23.671471    22.121451    9593.5053   -1944.4958    435.31356     665.6699    171.88456   -241.58305     100.9313   -3785.5416 
 4690000     289.3118   -4155.6869   -3659.8164   -4155.6869            0   -84.382021    18.340563     23.39665    22.378602    9602.8309   -183.39268    1389.9504   -1459.7038    177.80273   -221.74098    210.76243   -3671.6339 
 4691000    278.00169   -4174.5599   -3698.0745   -4174.5599            0   -1300.4429    18.252672    23.661449     22.32664    9642.5334   -2299.9376   -1192.0141   -409.37706    355.33934    134.62889    16.004089   -3880.9512 
 4692000    281.27476   -4180.4601   -3698.3648   -4180.4601            0   -1532.5403    18.084277     23.93089    22.198245    9606.7977    -680.1728   -2062.9681   -1854.4801   -1073.8877   -86.326005   -662.72319   -3913.0818 
 4693000    273.16082   -4172.5165   -3704.3282   -4172.5165            0   -348.70081    18.200125    23.549233    22.207547    9518.1319    218.61858   -758.55168   -506.16931    425.26935     674.9095   -376.68183   -3752.7321 
 4694000    277.62296   -4156.0737   -3680.2375   -4156.0737            0   -632.53314    18.380316    23.304466    22.361458    9578.3842   -1377.7662   -1215.7667    695.93345    324.42152   -654.64877    938.63085   -3768.5966 
 4695000    268.92986   -4171.8603   -3710.9238   -4171.8603            0   -1537.6705    18.288442    23.768648    22.144055    9625.8337   -1757.2939   -2580.3579   -275.35957    787.92129   -621.34967    346.93537   -3926.7864 
 4696000    279.28308   -4174.7268   -3696.0451   -4174.7268            0    -1435.745    17.946862    23.848009    22.425683    9598.1234    469.40929   -4008.7937    -767.8505   -1023.1048    758.61464   -111.40709    -3897.019 
 4697000    273.23253   -4178.4037   -3710.0925   -4178.4037            0    -672.6611    18.172505    23.647306    22.162386    9523.8598   -510.38637   -697.33831   -810.25863   -466.27823    349.99263    527.46582   -3803.5222 
 4698000    274.42446   -4168.6944   -3698.3403   -4168.6944            0   -1488.5836    18.270081    23.654836    22.309689    9641.7068   -2845.3225    339.56048   -1959.9889    728.42998    619.58173   -346.48289   -3907.6566 
 4699000     290.2218   -4181.0254   -3683.5951   -4181.0254            0   -1228.0338    18.158283    23.461574    22.583689    9621.1465   -373.60383   -1585.0487   -1725.4489    457.79637   -361.82813   -422.38328   -3855.9061 
 4700000    276.58148   -4193.9611   -3719.9099   -4193.9611            0   -332.95173    18.284635    23.742485    22.159057    9619.7493   -585.59907   -309.93784   -103.31827    -50.69743    94.350278   -216.07076   -3766.6211 
 4701000     271.6578    -4164.641   -3699.0288    -4164.641            0   -1115.4049    18.016521    23.684677    22.620721    9652.6118    228.83877   -1384.0567   -2190.9969   -647.36407    240.05132     33.65948   -3856.0482 
 4702000    290.01571   -4185.2706   -3688.1936   -4185.2706            0   -2355.9793    18.284285    23.790269    22.431291    9757.3443   -1260.1958   -2706.3475   -3101.3947   -623.98887   -82.701998    311.20733   -4023.4515 
 4703000    267.09867   -4187.3009   -3729.5029   -4187.3009            0   -2084.1612    18.335957     23.80845    22.285747    9728.8584   -2582.5074   -1379.5035   -2290.4728   -625.42382    89.115333    83.296212    -4025.215 
 4704000    269.14891    -4196.655   -3735.3429    -4196.655            0   -426.61739    18.312389    23.507596    22.297189    9598.4995    -227.4888   -2.2344653   -1050.1289    205.09458   -371.11558   -668.22884   -3795.0627 
 4705000    275.04164   -4210.4435   -3739.0315   -4210.4435            0   -221.85113    18.450061    23.365505    22.179096    9561.2973   -782.65095    90.719043    26.378524   -303.40012   -182.07129   -158.17859   -3769.9668 
 4706000    275.51415   -4204.5801   -3732.3583   -4204.5801            0   -225.64856    18.073865    23.759998    22.392759    9616.2345    510.61406    28.269905   -1215.8296   -910.64998   -618.52673    -322.0421   -3764.0039 
 4707000    279.09415   -4188.1647   -3709.8069   -4188.1647            0   -3032.8977     18.15009    24.055945    22.292294    9733.2073   -2631.5401   -3523.1081    -2944.045    -517.2546    578.98907    19.324245   -4140.3232 
 4708000    277.97956   -4160.3141   -3683.8666   -4160.3141            0   -1586.8866     18.32479    23.861971    22.243896    9726.4906   -2332.3269   -1314.1566   -1114.1762    60.124082   -343.01158    -30.62993   -3908.9679 
 4709000    264.58014   -4157.6145   -3704.1332   -4157.6145            0   -1395.5724     18.39716    23.428223    22.475163    9687.0818   -1096.1902   -747.39468   -2343.1322   -402.86992   -757.13615    6.0069051   -3901.2943 
 4710000      268.912   -4137.1603   -3676.2543   -4137.1603            0   -224.60411    18.395991    23.589416    22.223066    9643.7149   -1477.0573   -129.12697    932.37191     344.7453    325.84012   -120.01604   -3707.8434 
 4711000    275.41769   -4200.0011   -3727.9446   -4200.0011            0    231.83121    18.132911    23.669832    22.279476     9562.417   -324.62474    233.26679    786.85158    758.80869   -542.15021    579.59374   -3695.6138 
 4712000    278.98628   -4183.7557   -3705.5827   -4183.7557            0    76.614679    18.058914    23.770724    22.314737    9579.1245    -34.42971     1060.056   -795.78224   -230.81732    275.36814    46.519736   -3694.8795 
 4713000    278.64037   -4167.0127   -3689.4327   -4167.0127            0   -1671.2045    18.317318    23.745551    22.288879     9694.655   -1297.8772   -1831.2572    -1884.479   -804.00264    58.258991    474.17671   -3925.7186 
 4714000    272.10009   -4178.3429   -3711.9727   -4178.3429            0   -1439.6158    18.324974    23.720632    22.201421    9650.5124   -1739.9983   -2363.0011     -215.848    867.38909    29.192181    530.88639   -3914.5883 
 4715000    270.94358   -4234.7057   -3770.3177   -4234.7057            0   -2131.8027    18.126455    23.808663    22.363835    9651.4853   -1869.9648   -2457.0609   -2068.3823    683.92526    164.78533   -479.88121   -4070.3838 
 4716000    272.56023   -4192.6688   -3725.5099   -4192.6688            0   -2131.2385    18.165735    23.911228     22.35261     9709.192    187.27249   -2608.8209    -3972.167    -758.5192   -211.37806    345.62075   -4027.2903 
 4717000    264.94227   -4201.1898   -3747.0878   -4201.1898            0   -1480.7407    18.277391    23.625884    22.348562    9650.5449    -2242.653   -1810.1028   -389.46635   -362.13652    224.33944    60.779152   -3955.4922 
 4718000    286.51061    -4189.177   -3698.1076    -4189.177            0   -1164.1832    18.533498    23.498794    22.093834    9622.1927    94.923083   -1617.0831   -1970.3895     1120.348   -611.42402   -137.77315   -3861.4772 
 4719000    284.39499   -4186.2786   -3698.8353   -4186.2786            0   -1489.6335    18.095225    23.596582    22.652249    9672.1807   -173.85821   -1273.8995   -3021.1428    436.52984    129.05178    35.416674   -3908.9612 
 4720000     268.2073   -4199.0889   -3739.3908   -4199.0889            0   -1009.6096    18.130774    23.741965    22.254961    9579.8753    -485.2406   -1154.9351   -1388.6532    197.54204    647.23523    28.046279    -3880.446 
 4721000    283.22109   -4200.5032   -3715.0719   -4200.5032            0    -917.9923    18.112983    23.748529    22.274579    9581.5592   -973.85397   -1447.1677   -332.95527    155.75137   -25.553649   -199.68497   -3843.3496 
 4722000     266.2265   -4190.4184   -3734.1153   -4190.4184            0   -616.09696    18.391854    23.422815    22.162725    9547.4577   -1619.7337   -558.68082     330.1236   -189.18073   -569.69636    360.55681   -3819.9006 
 4723000    270.16306   -4187.2036   -3724.1534   -4187.2036            0   -721.83956    18.411751    23.473578    22.180141    9586.0279   -1506.2997   -729.19792    69.978923    873.45784    264.51533    672.21629   -3825.0683 
 4724000     276.5786   -4187.1492   -3713.1029   -4187.1492            0   -1799.5659    18.130719    23.770719    22.340195    9628.1824    -971.8923   -2069.5474   -2357.2581    336.63119   -784.65185    749.59394   -3965.7929 
 4725000     269.0521   -4191.8255   -3730.6794   -4191.8255            0   -51.276639    17.905218    23.919815     22.24069     9525.454    1340.1434    76.549414   -1570.5227    -634.3213     597.7822    -392.5913   -3737.8027 
 4726000    281.94025    -4197.509    -3714.273    -4197.509            0   -1598.6929    18.220733    23.579137    22.363814    9608.1464    -1836.863   -90.676178   -2868.5395   -351.83398   -35.574921   -563.31648   -3938.2898 
 4727000    297.16984   -4155.7129   -3646.3739   -4155.7129            0   -820.10258    18.557739    23.340633    22.126859    9584.2355   -2736.9689    1201.0012   -924.34011    676.54602    619.50751    202.70453   -3761.0048 
 4728000    274.53563   -4151.6888   -3681.1441   -4151.6888            0   -2026.7247    18.371974    23.747283    22.286734    9723.3556   -2032.7418   -429.69055   -3617.7418   -1117.6917    175.62342    -575.0668   -3968.5442 
 4729000    275.06523   -4173.0281   -3701.5757   -4173.0281            0   -1249.5855    17.830037    23.856691    22.438421    9544.5343    613.26382   -1724.0469   -2637.9733   -648.57045    575.11957    371.18781   -3875.5146 
 4730000    287.84077   -4171.9874   -3678.6382   -4171.9874            0   -2526.6551    18.213492    23.809461    22.408983    9717.7321   -1444.2192   -3398.7423   -2737.0036   -634.02024   -594.58148    799.09096   -4036.7237 
 4731000    279.43747   -4169.7944   -3690.8482   -4169.7944            0   -2067.8941    18.433858    23.611049    22.229034    9675.0254   -3255.2059   -2306.6841   -641.79227   -530.81505   -102.59579   -189.14949   -3982.6287 
 4732000    271.76558   -4170.7432   -3704.9463   -4170.7432            0   -1298.1872    18.408051    23.342656    22.442567    9643.4095   -2146.3831   -527.68869   -1220.4898    105.31784   -534.65647    601.00792   -3887.5223 
 4733000     272.4715   -4194.9608    -3727.954   -4194.9608            0   -145.15392    18.216714    23.690044    22.133383    9551.7668    249.08054    942.81048   -1627.3528    849.66454     141.7337    108.11434   -3748.1743 
 4734000    281.65985   -4172.3932   -3689.6378   -4172.3932            0   -922.24488    18.054416     23.73036    22.341114    9571.7776   -1130.7556   -2558.3408    922.36173    706.09105    255.47434    247.74035   -3818.3782 
 4735000    267.77137   -4202.5011   -3743.5502   -4202.5011            0   -1066.4246    18.247253    23.766762    22.147049    9604.6909   -1041.5936   -1332.2289   -825.45139   -214.32618   -379.71839   -82.947423   -3892.9291 
 4736000    286.44052   -4202.4654   -3711.5162   -4202.4654            0   -2053.8692    18.356217    23.747757    22.269027    9707.4914   -2687.8566   -2044.2306   -1429.5205    -609.1982    153.40937   -264.71713   -4002.2902 
 4737000    286.31466   -4201.7419   -3711.0084   -4201.7419            0   -311.13107    18.113747    23.452853    22.519526    9566.7232    255.33867    852.48748   -2041.2193    462.41404   -363.21379    353.94172   -3754.4176 
 4738000    278.65236   -4170.0875   -3692.4869   -4170.0875            0   -922.68382    18.272526    23.859905    22.047851    9612.4382   -1090.4075    137.43214    -1815.076    657.59309   -141.62152   -140.00555   -3821.8357 
 4739000    276.31345   -4179.6441   -3706.0523   -4179.6441            0   -2761.0164    18.277417    23.803032    22.346086     9721.842   -1507.4998   -3251.3014   -3524.2481   -451.04491   -491.24048    508.08974   -4097.5178 
 4740000    276.29001   -4174.4321   -3700.8805   -4174.4321            0   -1108.6276    18.264175    23.497529    22.447097     9633.463   -225.50096   -541.11243   -2559.2693   -1425.4585    504.66482   -37.955146   -3856.6362 
 4741000    280.26133   -4212.9511   -3732.5927   -4212.9511            0   -1385.1435     18.40937    23.620215    22.130511    9623.0828   -1487.5501    -1448.702   -1219.1786   -36.045028   -200.31572    295.16804   -3926.9877 
 4742000    280.66393   -4172.4846   -3691.4362   -4172.4846            0   -2332.2077    18.226476    23.613138    22.632613    9740.7213   -2713.7827   -2333.9479   -1948.8925   -849.61842   -257.63506    162.38249    -4022.746 
 4743000    285.45369   -4170.5266   -3681.2687   -4170.5266            0   -527.22999    18.175965    23.769241    22.242902    9609.5761   -490.91037    499.67476   -1590.4544    1126.5517   -408.48244   -663.90416   -3755.1578 
 4744000    281.33825   -4181.0737   -3698.8696   -4181.0737            0    92.687337    18.169037    23.728675    22.095085    9525.7914     422.0109    249.88984   -393.83874   -600.50882    625.62759    274.47884   -3685.9931 
 4745000    269.30336   -4132.4961   -3670.9194   -4132.4961            0   -592.43402    18.235539    23.388221    22.457088    9577.8765   -1826.4294   -158.93391    208.06127    337.89426   -301.19222    91.563141   -3753.6726 
 4746000    273.71979   -4180.4498   -3711.3035   -4180.4498            0   -1750.7848    18.458054    23.647868    22.195278    9688.0971   -2188.9963   -1071.7969   -1991.5611    -1723.513   -387.92627    11.191729   -3958.6735 
 4747000    265.61634    -4168.004   -3712.7467    -4168.004            0   -2344.3246    18.185273    24.011186    22.300695    9737.5981   -2070.3329   -831.51912   -4131.1218   -203.86104    133.71158   -139.37561    -4045.671 
 4748000    279.85614   -4156.6891   -3677.0252   -4156.6891            0   -1883.5248    18.137437    23.841787    22.436028    9701.9868    -989.8265   -2121.4241   -2539.3237   -253.73026   -171.13617    761.30764   -3943.5318 
 4749000    278.38635    -4207.395   -3730.2503    -4207.395            0   -808.09139    18.389213    23.623002    22.080537    9591.9708   -1973.5293   -661.14335    210.39848    496.14002   -135.68091   -530.15214   -3843.2935 
 4750000    284.34436    -4147.971   -3660.6145    -4147.971            0   -1314.3281    18.442012    23.360481    22.400476     9650.445   -1398.4537    144.13594   -2688.6667   -581.32589   -341.45833   -220.11028   -3845.5955 
Loop time of 395.199 on 64 procs for 250000 steps with 864 atoms

Performance: 109.312 ns/day, 0.220 hours/ns, 632.593 timesteps/s
373.0% CPU use with 16 MPI tasks x 4 OpenMP threads

MPI task timing breakdown:
Section |  min time  |  avg time  |  max time  |%varavg| %total
---------------------------------------------------------------
Pair    | 24.484     | 27.364     | 30.241     |  36.4 |  6.92
Bond    | 1.6964     | 1.914      | 2.3537     |  12.1 |  0.48
Kspace  | 204.04     | 209.21     | 215.42     |  24.0 | 52.94
Neigh   | 1.8716     | 1.9777     | 2.1726     |   6.2 |  0.50
Comm    | 55.111     | 60.075     | 64.607     |  37.1 | 15.20
Output  | 0.56221    | 0.56246    | 0.56376    |   0.0 |  0.14
Modify  | 63.117     | 70.787     | 77.021     |  59.0 | 17.91
Other   |            | 23.31      |            |       |  5.90

Nlocal:        54.0000 ave          62 max          44 min
Histogram: 1 2 3 1 1 0 0 2 4 2
Nghost:        2469.19 ave        2507 max        2433 min
Histogram: 2 2 3 1 0 0 2 3 2 1
Neighs:        12625.9 ave       14248 max       10278 min
Histogram: 1 2 3 0 1 1 0 0 4 4

Total # of neighbors = 202015
Ave neighs/atom = 233.81366
Ave special neighs/atom = 2.0000000
Neighbor list builds = 7474
Dangerous builds = 0

unfix		3
unfix		2
unfix		1

write_data	data.final.${pid} nocoeff
write_data	data.final.0 nocoeff
System init for write_data ...
PPPM initialization ...
  extracting TIP4P info from pair style
  using 12-bit tables for long-range coulomb (../kspace.cpp:340)
  G vector (1/distance) = 0.37067429
  grid = 24 27 25
  stencil order = 5
  estimated absolute RMS force accuracy = 0.0032727208
  estimated relative force accuracy = 9.8557016e-06
  using double precision FFTW3
  3d grid and FFT values/proc = 6300 1296
Last active /omp style is kspace_style pppm/tip4p/omp

write_restart   restart.lmp.${pid}
write_restart   restart.lmp.0
System init for write_restart ...
PPPM initialization ...
  extracting TIP4P info from pair style
  using 12-bit tables for long-range coulomb (../kspace.cpp:340)
  G vector (1/distance) = 0.37067429
  grid = 24 27 25
  stencil order = 5
  estimated absolute RMS force accuracy = 0.0032727208
  estimated relative force accuracy = 9.8557016e-06
  using double precision FFTW3
  3d grid and FFT values/proc = 6300 1296
Last active /omp style is kspace_style pppm/tip4p/omp
Total wall time: 0:06:35
