#include		in.partitions
include		in.temp
variable        temperature equal 92.67
variable	tempDamp equal 100.0
include		in.pressure
variable        pressure equal 1668.8
variable        pressureDamp equal 1000.0 # This is 1 ps
include		in.seed
variable        seed equal 745823

units		real
atom_style	full
box tilt large
read_restart	restart.lmp.${pid}
read_restart	restart.lmp.0
Reading restart file ...
  restart file = 30 Jul 2021, LAMMPS = 30 Jul 2021
  restoring atom style full from restart
  triclinic box = (-10.627432 -9.2101982 0.10405935) to (12.607432 12.200196 21.755940) with tilt (-9.1838489 1.9864919 2.8823680)
  4 by 4 by 4 MPI processor grid
  restoring pair style lj/cut/tip4p/long/omp from restart
  restoring bond style harmonic/omp from restart
  restoring angle style harmonic/omp from restart
  1296 atoms
  864 bonds
  432 angles
Finding 1-2 1-3 1-4 neighbors ...
  special bond factors lj:    0        0        0       
  special bond factors coul:  0        0        0       
     2 = max # of 1-2 neighbors
     1 = max # of 1-3 neighbors
     1 = max # of 1-4 neighbors
     2 = max # of special neighbors
  special bonds CPU = 0.006 seconds
  read_restart CPU = 0.017 seconds
include 	in.setup
variable	out_freq equal 1000
variable	out_freq2 equal 10000
variable	out_freq3 equal 1000

timestep	2.0

neigh_modify    delay 7 every 1

include		in.tip4p
# This is TIP4P/Ice

# create groups ###
group ox type 2
432 atoms in group ox
group hy type 1
864 atoms in group hy

# set charges - beside manually ###
set group ox charge -1.1794
Setting atom values ...
  432 settings made for charge
set group hy charge 0.5897
Setting atom values ...
  864 settings made for charge

# ### TIP3P Potential Parameters ###
pair_style lj/cut/tip4p/long/omp 2 1 1 1 0.1577 8.5
pair_coeff 1 1*2 0.000 0.000
pair_coeff 2 2 0.21084 3.1668
bond_style  harmonic
bond_coeff  1 450 0.9572
angle_style harmonic
angle_coeff 1 55 104.52
kspace_style pppm/tip4p/omp 1.0e-5
pair_modify tail yes

thermo          ${out_freq}
thermo          1000
thermo_style    custom step temp pe etotal epair emol press lx ly lz vol pxx pyy pzz pxy pxz pyz enthalpy

restart 	${out_freq3} restart.lmp.${pid} restart2.lmp.${pid}
restart 	1000 restart.lmp.${pid} restart2.lmp.${pid}
restart 	1000 restart.lmp.0 restart2.lmp.${pid}
restart 	1000 restart.lmp.0 restart2.lmp.0


include         in.dump
dump            myDump all atom ${out_freq2} dump.water.${pid}
dump            myDump all atom 10000 dump.water.${pid}
dump            myDump all atom 10000 dump.water.0
dump            myDump2 all dcd ${out_freq2} dump.dcd
dump            myDump2 all dcd 10000 dump.dcd
dump_modify     myDump append yes
dump_modify     myDump2 append yes


variable natoms 	equal  "count(all)"                        # NUMBER ATOMS
variable H      	equal  "enthalpy/v_natoms"                 # ENTHALPY-per-atom
variable Vol      	equal  "vol/v_natoms"                 # volume-per-atom
fix AVG all 		ave/time ${out_freq} 1 ${out_freq} v_Vol v_H file vol_enthalpy.dat
fix AVG all 		ave/time 1000 1 ${out_freq} v_Vol v_H file vol_enthalpy.dat
fix AVG all 		ave/time 1000 1 1000 v_Vol v_H file vol_enthalpy.dat


timer           timeout 10:00:00 every 1000
New timer settings: style=normal  mode=nosync  timeout=10:00:00

fix 		1 all shake 1e-6 200 0 b 1 a 1
       0 = # of size 2 clusters
       0 = # of size 3 clusters
       0 = # of size 4 clusters
     432 = # of frozen angles
  find clusters CPU = 0.001 seconds
fix             2 all nph tri ${pressure} ${pressure} ${pressureDamp}
fix             2 all nph tri 1668.8 ${pressure} ${pressureDamp}
fix             2 all nph tri 1668.8 1668.8 ${pressureDamp}
fix             2 all nph tri 1668.8 1668.8 1000
fix             3 all temp/csvr ${temperature} ${temperature} ${tempDamp} ${seed}
fix             3 all temp/csvr 92.67 ${temperature} ${tempDamp} ${seed}
fix             3 all temp/csvr 92.67 92.67 ${tempDamp} ${seed}
fix             3 all temp/csvr 92.67 92.67 100 ${seed}
fix             3 all temp/csvr 92.67 92.67 100 745823


run             250000
PPPM initialization ...
  extracting TIP4P info from pair style
  using 12-bit tables for long-range coulomb (../kspace.cpp:340)
  G vector (1/distance) = 0.36695637
  grid = 30 40 32
  stencil order = 5
  estimated absolute RMS force accuracy = 0.0046268789
  estimated relative force accuracy = 1.3933708e-05
  using double precision FFTW3
  3d grid and FFT values/proc = 5168 640
Last active /omp style is kspace_style pppm/tip4p/omp
Neighbor list info ...
  update every 1 steps, delay 7 steps, check yes
  max neighbors/atom: 2000, page size: 100000
  master list distance cutoff = 10.8154
  ghost atom cutoff = 10.8154
  binsize = 5.4077, bins = 7 5 5
  1 neighbor lists, perpetual/occasional/extra = 1 0 0
  (1) pair lj/cut/tip4p/long/omp, perpetual
      attributes: half, newton on, omp
      pair build: half/bin/newton/tri/omp
      stencil: half/bin/3d/tri
      bin: standard
Per MPI rank memory allocation (min/avg/max) = 9.436 | 9.441 | 9.446 Mbytes
Step Temp PotEng TotEng E_pair E_mol Press Lx Ly Lz Volume Pxx Pyy Pzz Pxy Pxz Pyz Enthalpy 
 1750000    97.477974   -6771.9925   -6521.2363   -6771.9925            0    2004.0914    23.234864    21.410394     21.65188    10771.109    1920.0745    1686.5048    2405.6949   -206.59137    78.107898    201.22936   -6206.4225 
 1751000    96.035255   -6792.5481   -6545.5032   -6792.5481            0    471.38117    23.282988    21.350479    21.790521    10832.133    111.91803    1214.4432      87.7823   -191.54246    625.52773   -283.85162   -6471.0365 
 1752000    94.012159   -6781.7208   -6539.8803   -6781.7208            0    1590.7423     23.25636    21.311783    21.733825    10772.033    1567.6055    1773.7731    1430.8483    259.14749   -86.583325   -168.09924   -6289.9761 
 1753000    92.079613   -6778.7311   -6541.8619   -6778.7311            0    1173.3995    23.164944     21.48942    21.680268    10792.464    2053.3806   -4.7546413    1471.5726    194.21761   -988.32085    43.868633   -6357.1723 
 1754000    91.685241   -6790.3918   -6554.5371   -6790.3918            0    759.12133    23.354156    21.341137    21.706639    10818.681    885.92435    834.38732    557.05234   -347.96351    344.46682   -10.275066   -6434.7634 
 1755000     92.69576   -6783.5435   -6545.0893   -6783.5435            0    1719.4687    23.209863    21.403989    21.678733     10769.64    2217.7149    1390.8695    1549.8218    186.51132   -113.77516   -59.709902   -6275.0224 
 1756000    91.911127   -6766.7482   -6530.3125   -6766.7482            0    2316.2336    23.244881    21.412894    21.596281    10749.337    1948.4447    2508.5872    2491.6689    474.94553   -67.109958   -235.79263    -6167.201 
 1757000    90.859893   -6776.5901   -6542.8585   -6776.5901            0    2255.1247    23.297783    21.319651    21.643238    10750.209    2400.7692    1871.1149      2493.49   -700.29032   -862.00939   -74.773201   -6189.2983 
 1758000    93.628478   -6777.1203   -6536.2667   -6777.1203            0    2136.8768     23.14956    21.538283    21.580907    10760.278    2782.4511    1254.1595    2374.0198    10.717462    56.302597   -847.05506   -6200.9317 
 1759000    96.410184   -6772.0825   -6524.0732   -6772.0825            0    2496.1779    23.323908    21.286633    21.617482    10732.809    2113.7739    2120.1578     3254.602   -736.99105    8.7573601    412.13317   -6133.3539 
 1760000    96.005309   -6781.9158    -6534.948   -6781.9158            0    2216.1556    23.282091    21.356846    21.623267    10751.781    2323.4415    1668.9155      2656.11   -91.356387    310.52533   -498.83011   -6187.4466 
 1761000     90.86689   -6773.9208   -6540.1712   -6773.9208            0    1620.6841     23.11796    21.523179    21.688089    10791.386    2562.0567    643.13641    1656.8593   -557.86615    355.85805   -74.246476   -6285.1059 
 1762000    96.608771   -6771.4825   -6522.9623   -6771.4825            0     1813.175    23.362487    21.239603    21.694405    10764.979    739.41085     2623.923    2076.1911   -521.82979    176.98734   -805.17955   -6238.3008 
 1763000    94.525567   -6773.8216   -6530.6603   -6773.8216            0     2366.547    23.125074    21.491608    21.638826    10754.389    2888.3904    1797.9394     2413.311    4.8316623   -890.95222   -390.09678    -6159.487 
 1764000    89.126739   -6781.1327   -6551.8596   -6781.1327            0    1562.8313    23.328647    21.381951    21.592281    10770.489    1839.8609    631.97865    2216.6545   -274.87541   -436.57553    492.47895   -6306.3754 
 1765000    92.664895   -6776.0432   -6537.6684   -6776.0432            0    2722.3412    23.282788     21.29878    21.655772    10738.989    1796.8961    3873.6816    2496.4458    379.25008   -343.01001    -692.0993   -6111.3031 
 1766000    96.355363   -6789.5151   -6541.6468   -6789.5151            0    1884.2871    23.133393    21.447405    21.681286    10757.197    2191.3979    1502.1487    1959.3148    481.22518    284.51165    191.81588   -6246.0347 
 1767000    92.532872   -6779.6211   -6541.5859   -6779.6211            0    2026.7514    23.298357    21.270306    21.715954    10761.627    1935.2586    2316.6594    1828.3363    548.10906    -568.2115    -82.60015   -6223.4928 
 1768000     92.52408   -6793.1741   -6555.1615   -6793.1741            0    957.09017    23.176718    21.421584    21.724327    10785.738    1543.1562    817.29062     510.8237    260.84872      29.5466   -368.89694   -6404.6122 
 1769000    92.144978   -6780.9671   -6543.9298   -6780.9671            0    1081.6369     23.22459    21.382279    21.717333    10784.712    855.24213    1342.2876     1047.381    69.321807   -557.56153     233.2447   -6373.8056 
 1770000    96.052363   -6793.8828    -6546.794   -6793.8828            0    1747.6756    23.287878     21.27981     21.69596    10751.685    1742.4848    2226.5994    1273.9425    156.30121   -149.92678   -145.60812   -6272.7544 
 1771000     91.80444   -6789.1632   -6553.0019   -6789.1632            0    1919.2505    23.106436    21.468159    21.674189    10751.539    2199.1011     1507.938    2050.7124    226.41021    413.41049   -120.35197   -6252.0631 
 1772000    92.581536   -6775.9993   -6537.8389   -6775.9993            0    1716.1285    23.288572    21.253982     21.76006    10770.684    569.78193       2607.6    1971.0037    574.42975    428.19203    89.491239   -6268.2705 
 1773000    92.033528   -6780.4775   -6543.7269   -6780.4775            0    2031.3188    23.244236    21.290281    21.736816    10757.036    1123.8915    2767.1915    2202.8734    451.81019    685.55218   -166.01809   -6225.0529 
 1774000    99.674957   -6771.2868   -6514.8791   -6771.2868            0    2431.9419    23.137354    21.441587    21.649842    10740.521    2899.6076    2066.5777    2329.6406   -391.95791    657.82253    331.48867    -6133.941 
 1775000    97.016032   -6773.6407   -6524.0728   -6773.6407            0     1998.447    23.353019    21.230989    21.694974    10756.534    2139.3429    2612.4862     1243.512   -555.04332   -577.31753   -22.534961   -6210.5704 
 1776000    94.502922   -6772.3245   -6529.2215   -6772.3245            0    2121.0051    23.190133    21.380653    21.715604    10767.035    1914.0283    2306.4068    2142.5802   -219.09627    67.092167     389.2307   -6196.1683 
 1777000    91.026976   -6768.5017   -6534.3404   -6768.5017            0    2151.7658      23.1799    21.397878    21.690635     10758.57    2151.5371     2522.933    1780.8274    104.61838    253.55291   -170.56312   -6196.7225 
 1778000    89.957173   -6785.2773   -6553.8679   -6785.2773            0    1747.3278    23.405231    21.225163    21.675503    10767.953    1417.1658    2095.6371    1729.1804     563.0802   -1361.3724    7.3388598   -6279.4684 
 1779000     95.03036   -6794.2751   -6549.8153   -6794.2751            0     1801.817    23.122995    21.494618    21.637824     10754.43    2014.4923    1167.2048     2223.754    218.83285    351.33302    192.35058   -6267.2141 
 1780000    99.786049   -6783.3129   -6526.6194   -6783.3129            0    1861.8966    23.277842    21.374025    21.598857     10746.32    1516.4431    1948.8927    2120.3539    7.8376006   -366.67768    192.15003   -6234.8154 
 1781000    94.993301    -6774.447   -6530.0825    -6774.447            0    1873.6804    23.327304    21.330981    21.625635    10760.793     1728.179    2135.5127    1757.3494   -97.450546   -366.12121    379.19931   -6236.0362 
 1782000    93.094664   -6773.3367   -6533.8563   -6773.3367            0    2193.4163    23.048198    21.531109    21.660155    10748.923     2471.144    1478.0046    2631.1002    715.77967    271.19682    230.48957    -6190.012 
 1783000    93.023458   -6777.8082   -6538.5111   -6777.8082            0    1734.2128    23.321585    21.261313     21.73466    10777.077    1102.2026    2285.2367    1815.1991   -145.74036   -3.7510674   -42.818486   -6265.9403 
 1784000    92.813077     -6784.27    -6545.514     -6784.27            0    1306.6115    23.238749    21.427751    21.660606    10785.988    1080.9211    1091.4003     1747.513    6.1848897   -46.448867    108.49174   -6339.9806 
 1785000      88.1771   -6775.2298   -6548.3996   -6775.2298            0    2158.2242    23.173103    21.466611    21.592507    10741.149    1887.0858     2275.803    2311.7838    493.97968   -85.681424    -275.7966   -6210.3167 
 1786000    94.304363   -6790.4375   -6547.8453   -6790.4375            0    2405.0682    23.312188     21.27608    21.653137    10739.782    2159.0367    2869.8425    2186.3255   -747.83499    155.69191   -347.64873   -6171.1425 
 1787000     95.49242   -6783.5253   -6537.8769   -6783.5253            0    1980.1583    23.168915    21.438587    21.661903    10759.658    2186.4367    2140.6934    1613.3447    -480.0528     165.1735   -404.61125   -6227.1532 
 1788000     90.51796   -6775.6838   -6542.8318   -6775.6838            0     1738.139     23.30224    21.384127    21.643239    10784.784    1532.2463    1672.4925    2009.6782    318.84099   -319.33572   -353.87174   -6269.4486 
 1789000    92.448841   -6777.6389   -6539.8199   -6777.6389            0    2212.6274    23.304986    21.325565     21.63079     10750.33    2370.4674    1331.9743    2935.4406    -1057.863    420.59288   -86.297598   -6192.9185 
 1790000     91.82561   -6783.4565   -6547.2407   -6783.4565            0    694.65586    23.233629    21.512047    21.628246    10809.861      248.305    -60.90175    1896.5643     34.79558    841.31519    171.57635   -6437.7277 
 1791000    90.290735    -6779.477   -6547.2095    -6779.477            0    992.53409    23.389201    21.275959      21.7152    10806.084    484.05456    1834.2728    659.27495   -73.665116   -730.43671   -400.72232   -6390.7905 
 1792000    89.926403   -6774.0439   -6542.7137   -6774.0439            0    1448.9175    23.222367    21.371759    21.703641    10771.578    2176.8989    1061.6837    1108.1698   -237.31277    -75.39696    32.483995   -6315.0997 
 1793000    93.465558   -6776.2623   -6535.8278   -6776.2623            0     1468.387    23.238362    21.446474     21.62434    10777.158    970.17184    2055.2741    1379.7149    408.49036    288.74508   -320.15426   -6305.0359 
 1794000    94.850445   -6780.2421   -6536.2451   -6780.2421            0    719.94514    23.428413    21.365167    21.585666    10804.747    -77.83358    952.13382    1285.5352   -275.97544   -755.99352   -1004.8743   -6422.7989 
 1795000    86.581153   -6787.3326   -6564.6079   -6787.3326            0     289.2166    23.284681    21.441614    21.675913    10821.941   -326.30991    270.05604    923.90366    68.580064    146.85331   -518.64448   -6518.9617 
 1796000     93.64565   -6777.2309   -6536.3332   -6777.2309            0    1309.5556    23.249187    21.396629    21.704311    10796.901    1322.6905    1705.5061    900.47034   -6.6339188     573.5433   -692.52924   -6330.1283 
 1797000    91.816635   -6785.5476   -6549.3549   -6785.5476            0    2173.7254    23.284065    21.302506    21.654526    10740.839    1932.5091    2329.0848    2259.5821   -281.95195   -590.40654   -282.62275   -6208.8536 
 1798000    92.891739   -6769.1726   -6530.2143   -6769.1726            0    2391.1833    23.203482    21.452559    21.571278    10737.623    3486.2544    2120.8163    1566.4793   -515.52441   -719.84434   -897.62841   -6155.7616 
 1799000    94.735965   -6777.4073   -6533.7048   -6777.4073            0    1597.1272    23.351416    21.383343     21.57091    10771.031    1016.1914    884.81778    2890.3725   -213.51722   -13.448474    187.72139    -6282.821 
 1800000    92.558804   -6777.3021   -6539.2002   -6777.3021            0    1562.7085     23.28539    21.342147    21.661728    10765.017    771.33039    2292.7012     1624.094    144.13605   -932.83642   -54.092073     -6293.86 
 1801000    94.928821   -6774.4974   -6530.2988   -6774.4974            0    1200.7736    23.152507    21.450828    21.743346    10798.625    1422.2756    805.21024    1374.8349    -15.33921    927.32603   -762.07682   -6341.1927 
 1802000    93.131226   -6789.8515   -6550.2771   -6789.8515            0    1182.1534    23.332893    21.265477    21.752813    10793.422    1225.3127    1820.7726    500.37481    136.53531    334.09748    -300.4402   -6364.1932 
 1803000    93.778703   -6788.3101   -6547.0701   -6788.3101            0     1694.228    23.210578    21.454685    21.580478    10746.553      922.312    2014.3923    2145.9798    11.488175    61.234558    49.083358    -6281.538 
 1804000    95.138451   -6780.1996   -6535.4617   -6780.1996            0    1670.4393     23.29006    21.332305    21.673423    10768.021    1477.4498    1700.8299    1833.0383   -752.25378   -68.225571    87.520782    -6273.135 
 1805000    92.272597   -6774.1046   -6536.7389   -6774.1046            0    1954.5056    23.214532    21.347608    21.717729    10762.758    2334.0651    2040.9341    1488.5175    680.40765   -459.30178    399.45848   -6229.9524 
 1806000    96.245284    -6774.791   -6527.2059    -6774.791            0    999.62488    23.187082    21.447079    21.709309    10795.935     1044.389    800.77389    1153.7117    301.23281    285.43131    689.39184   -6369.8173 
 1807000    93.912884   -6781.5844   -6539.9992   -6781.5844            0    1468.4632    23.370667    21.215315    21.745315    10781.676    1128.1061    2048.9008    1228.3827   -143.07696    916.35462    448.68628   -6309.0985 
 1808000    93.022734   -6782.7311   -6543.4358   -6782.7311            0    1392.8253    23.165474     21.37059    21.772082    10778.484    2345.7753    1755.0299     77.67063   -414.84179    309.96036     116.0228   -6324.4932 
 1809000     94.05851   -6779.8968    -6537.937   -6779.8968            0     2202.908     23.16481    21.382149    21.725035    10760.701    1924.4098    2863.1779    1821.1361    201.38693    204.17442   -282.71968   -6192.2263 
 1810000    88.353347   -6781.2513   -6553.9677   -6781.2513            0    1818.7639    23.333004    21.259135    21.699108    10763.614    947.23073    2436.8575    2072.2034   -852.62268    221.92789    647.88677   -6268.4649 
 1811000    93.486645   -6781.3013   -6540.8126   -6781.3013            0    1988.6216    23.116896    21.430618    21.683229    10742.074    2180.4921    2394.8797     1390.493    700.69149   -830.36621    50.849265   -6229.2709 
 1812000    91.194838   -6768.8133   -6534.2202   -6768.8133            0    1643.8799     23.25967    21.389321    21.643986    10768.068    1011.4385      1206.36    2713.8412   -251.28533    211.66082    385.10422   -6276.0633 
 1813000    93.928302   -6767.1035   -6525.4787   -6767.1035            0    1349.3722    23.324466     21.32105     21.68669    10784.837    1862.3745    681.90608    1503.8359   -158.71314   -391.71932     183.2594   -6313.2416 
 1814000    93.704513   -6785.8124   -6544.7633   -6785.8124            0    2070.0186    23.142583    21.424799    21.691927    10755.403    2191.5337    2237.4765    1781.0457    788.38363   -4.9683136   -602.30739   -6220.0674 
 1815000     87.28566   -6784.8169   -6560.2799   -6784.8169            0     1998.358    23.240596    21.315891    21.695274    10747.709    2128.5274    2534.4358    1332.1109    107.36215    81.950184   -74.846915   -6247.0486 
 1816000    96.503393    -6777.286   -6529.0369    -6777.286            0    1530.3232    23.283783    21.350912    21.687432    10781.473    1841.9672    1415.8993    1333.1031   -124.88287   -245.05383    654.20432   -6288.4139 
 1817000    90.503085   -6788.7139   -6555.9002   -6788.7139            0    1801.3959     23.12844    21.464804    21.669089    10757.563    2256.7896    1477.4897    1669.9085   -369.59072   -81.676851    70.062218   -6273.2828 
 1818000    91.355832   -6788.0157   -6553.0084   -6788.0157            0    2249.4899    23.312477    21.287054    21.635055    10736.482    1456.9949    2646.7851    2644.6898    104.91209     -412.498    208.67033    -6200.782 
 1819000    91.192836   -6793.2657   -6558.6776   -6793.2657            0     2107.848    23.239469    21.371096    21.624864    10740.052    1691.7928    2021.8126    2609.9385    222.40547     249.5595   -482.70601   -6228.5198 
 1820000    92.685405   -6783.5454   -6545.1179   -6783.5454            0    1245.4045    23.172434    21.484367    21.663918    10785.275    2058.5659     420.9411    1256.7067   -344.31253    69.414505   -609.39324   -6349.2255 
 1821000    90.936541   -6772.5878    -6538.659   -6772.5878            0    1681.1395    23.352319    21.240678    21.691017    10759.159    1126.6771     2201.219    1715.5224   -91.632748   -66.997079   -652.53451   -6274.8693 
 1822000    96.516278   -6768.8568   -6520.5745   -6768.8568            0    1722.6186    23.209526    21.448389    21.650098    10777.569    1850.5221    1980.5983    1336.7354   -62.829368   -437.58071   -364.18735   -6249.8137 
 1823000    91.778331   -6788.7421    -6552.648   -6788.7421            0    1052.8713    23.237021    21.448499    21.668607    10799.617    1069.4661      1068.19    1020.9577   -283.09118    303.78219    350.33229   -6386.8193 
 1824000    91.131411   -6775.4644   -6541.0344   -6775.4644            0     1615.018    23.322971    21.304054    21.683554    10773.991    1360.7765    2390.1655     1094.112   -149.22007   -113.61856   -12.399069   -6287.2705 
 1825000    93.168385   -6779.6573   -6539.9873   -6779.6573            0    2018.2976    23.186901    21.429879    21.628558    10747.068    2385.6904    2361.2447    1307.9577    85.992399   -266.16449   -789.34427   -6223.6495 
 1826000    94.168807   -6785.8895    -6543.646   -6785.8895            0    2479.3291    23.387438    21.214591    21.647832    10740.679    1385.4859    3246.9224     2805.579    67.480285    413.09197    333.15179   -6155.2794 
 1827000    93.981229   -6790.4941   -6548.7331   -6790.4941            0    2308.4109    23.116656    21.385515    21.717928     10736.51    3311.6293     1467.721    2145.8824   -607.37273    1121.3502   -93.478716   -6187.2799 
 1828000    93.274103    -6769.552     -6529.61    -6769.552            0    1224.2508    23.200151    21.411532    21.730679    10794.731    2377.0262    611.61819    684.10805   -237.69745    332.39058   -768.19881   -6336.8761 
 1829000    91.354312   -6787.1533   -6552.1499   -6787.1533            0    842.36081    23.356986    21.281652     21.71899    10795.973    698.51121    1419.6779    408.89328     -406.868   -205.82569    115.43924   -6419.5217 
 1830000    96.534683   -6777.7941   -6529.4645   -6777.7941            0    2064.3053    23.194581    21.478943    21.536117    10729.188    1279.4584    2283.3785    2630.0789   -282.68006    589.94623   -188.70259    -6206.454 
 1831000    91.096522    -6781.422   -6547.0818    -6781.422            0    1603.9026    23.342797    21.347246    21.614658     10770.68    731.15697     2016.365     2064.186     497.5783     370.0879    327.18063   -6295.1418 
 1832000     88.43995   -6775.9139   -6548.4075   -6775.9139            0    2021.2013    23.210596    21.408654     21.67624    10771.089    2144.6992    2181.8051    1737.0997   -702.25654   -355.74494   -174.94756   -6230.9065 
 1833000    96.240922    -6790.405   -6542.8311    -6790.405            0    1362.8187    23.164876    21.414056    21.730794    10779.647    2121.6467    1550.5086    416.30089    -440.3533   -644.76705   -221.42283   -6328.5823 
 1834000    93.789689   -6765.8745   -6524.6063   -6765.8745            0    871.99846    23.350549    21.362667    21.709245    10829.222    901.85039    312.88251    1401.2625   -450.00691   -518.27907    406.43026   -6386.8889 
 1835000    93.156018    -6785.951   -6546.3128    -6785.951            0    510.26766    23.199212     21.48891    21.694456    10815.246    1040.6395    173.45764    316.70579    712.91024   -280.31492   -555.52833   -6465.8287 
 1836000    95.167126    -6792.888   -6548.0764    -6792.888            0    1283.4319    23.322059    21.324125    21.674311    10779.123    1305.1233    1839.4264    705.74614    332.18883   -220.52786   -591.09493   -6346.3177 
 1837000    90.409692   -6786.1927   -6553.6192   -6786.1927            0    1608.9186    23.244249    21.385033    21.666216    10769.822    1849.6616    775.84432    2201.2498   -189.48842    852.22236    0.3087655   -6300.9115 
 1838000    95.183152   -6781.8562   -6537.0033   -6781.8562            0    1758.6845    23.220577    21.467713    21.591992     10763.45    2186.4955    738.56688    2350.9911    561.36763    203.91191   -900.26996   -6260.9358 
 1839000    90.968747   -6795.0281   -6561.0165   -6795.0281            0    2193.7788    23.350457    21.288438    21.631798    10753.053    1618.4012    2947.4231    2015.5121   -411.70236   -326.26416    28.219808   -6216.9832 
 1840000    91.390614   -6783.0617   -6547.9649   -6783.0617            0    2021.3335    23.117687    21.430428    21.682095    10741.785      2345.79    1964.3042    1753.9064   -707.17862   -302.14422   -367.30952    -6231.307 
 1841000    90.389455   -6786.5892   -6554.0679   -6786.5892            0    1767.7787    23.109459    21.425131    21.743472    10765.697    2861.1406    1493.9087    948.28684   -1210.1157   -741.64418   -283.38385   -6276.5149 
 1842000    91.070233   -6777.4778   -6543.2052   -6777.4778            0    1830.0181    23.349367        21.27    21.675255    10764.821    1618.5569    2429.4381    1442.0593    390.72995   -335.17295   -686.59182   -6255.9036 
 1843000    89.839769   -6775.4049   -6544.2976   -6775.4049            0    1776.6883    23.261712    21.416882    21.607914    10764.919    1768.0064    1134.4214    2427.6372    643.16166    23.839837   -265.59319   -6265.3659 
 1844000    97.063054   -6785.9219   -6536.2331   -6785.9219            0    1557.8129    23.203028    21.345606    21.739053    10766.977    2261.2687    2162.5826    249.58737    788.79192    60.288938    -486.5291    -6291.617 
 1845000    88.565383   -6784.9849   -6557.1558   -6784.9849            0    2344.5826    23.212909    21.245703    21.788922    10745.742    1973.0828    3419.9058    1640.7591    45.575887    270.41116   -488.22088   -6189.7231 
 1846000    95.445233   -6776.2293   -6530.7023   -6776.2293            0    2678.1512    23.140656    21.394417     21.68979      10738.2    3256.7581    1892.1697    2885.5258   -715.06952    160.86935    743.57075   -6111.2887 
 1847000    94.001342   -6784.8918    -6543.079   -6784.8918            0    2505.0864    23.279495     21.32844    21.611707    10730.543    2688.2424    2306.7608    2520.2558   -884.13935   -835.92301    627.31863   -6151.0481 
 1848000     91.62467   -6795.4178   -6559.7189   -6795.4178            0    2046.0689    23.283005    21.347765    21.630247    10751.101    1957.2738     2127.205    2053.7279   -453.55496    324.88022    114.81815    -6238.908 
 1849000    96.187179   -6787.7213   -6540.2856   -6787.7213            0    1310.8412    23.114193    21.440801    21.735211    10771.683    2763.8935    630.86529    537.76499   -373.87503     44.31968    74.003713   -6334.3604 
 1850000    90.991534   -6785.3185   -6551.2483   -6785.3185            0    869.68928    23.324277    21.254623    21.792572     10803.64    1789.7123    492.63913    326.71645    241.01642    -377.0862    274.74672   -6414.2201 
 1851000    91.034186    -6789.339   -6555.1591    -6789.339            0    1457.1574    23.241254    21.329005    21.724898    10769.311    1697.7027    1732.9665    940.80298    57.023047   -166.47906   -522.10623   -6326.2989 
 1852000      94.1855   -6785.1766   -6542.8901   -6785.1766            0    1370.0962    23.212506    21.471234    21.597912    10764.424    1658.5632    1406.8141    1044.9112    44.139692     268.5389   -228.30801   -6327.8013 
 1853000    94.120649   -6772.2726    -6530.153   -6772.2726            0    1580.7782    23.358885    21.246069    21.687445    10763.142    810.78353    2054.5987    1876.9523    142.93092   -132.12945   -22.986615   -6282.0192 
 1854000      92.4256    -6777.458   -6539.6988    -6777.458            0    1364.1133    23.199172    21.429513    21.706341    10791.241    1892.9283    1195.4862    1003.9253   -128.74954   -451.97117    222.61314   -6325.0158 
 1855000    96.825106   -6784.0353   -6534.9586   -6784.0353            0    2076.9558     23.12296    21.419497     21.71494    10755.023    2144.6017    2252.5139    1833.7518    118.95878    274.03891   -437.71947    -6209.186 
 1856000    92.749605    -6785.569   -6546.9763    -6785.569            0    1783.4993    23.417531    21.247496    21.600903    10747.829    956.16382    1796.7102     2597.624    394.87018    577.70441    717.24971   -6267.4198 
 1857000    92.345029   -6783.5533   -6546.0014   -6783.5533            0    1746.1691     23.24722    21.402857    21.612647    10753.523    1227.3638    2139.4307    1871.7129    1025.9649     182.5875   -162.66885   -6272.1513 
 1858000    91.098204   -6782.7503   -6548.4058   -6782.7503            0    1714.2658    23.262841    21.355643    21.687295    10774.095    1697.7678    1421.2183    2023.8113   -6.9731822    134.28757    533.56431   -6279.0447 
 1859000    90.747975   -6784.8499   -6551.4062   -6784.8499            0    1221.6452     23.20656     21.34664    21.796043    10797.369    1505.2091    1729.9583    429.76833     -643.178   -309.01561   -744.86037   -6359.0355 
 1860000    90.961806   -6781.3387    -6547.345   -6781.3387            0    2172.1043    23.130174    21.390185    21.761001    10766.444    3230.7685    1878.5279    1407.0166   -536.03199   -463.60052    4.8128074   -6206.2865 
 1861000    91.819108   -6777.4704   -6541.2714   -6777.4704            0    2255.6307    23.295245    21.398137    21.543598    10738.941    1606.5924    2675.1781    2485.1216   -452.86479   -10.931711   -777.54566   -6188.0025 
 1862000    97.786429   -6791.3412   -6539.7916   -6791.3412            0    1444.8693    23.367758    21.308794    21.624617    10767.735     1495.219    1092.5905    1746.7985   -563.91632    -59.87031   -431.95492   -6312.8945 
 1863000    96.536033   -6789.1492   -6540.8162   -6789.1492            0    1489.1554    23.226394    21.380803    21.695486    10773.956    1158.6879    1698.5384    1610.2398    221.49209    271.92392   -556.81295   -6306.8295 
 1864000    91.220496   -6771.2474   -6536.5883   -6771.2474            0    1560.4768    23.201228    21.364277    21.785873    10798.767    1917.3119    1723.3622    1040.7563    937.21939    358.42349     -174.118   -6290.8304 
 1865000    92.272921   -6778.2842   -6540.9178   -6778.2842            0    840.95243    23.317401    21.385146    21.636999    10789.204   -31.345714    1370.7529    1183.4502    -758.3874    119.82647   -772.40044   -6408.5943 
 1866000    90.376779    -6792.249   -6559.7603    -6792.249            0    1051.2391    23.229263    21.475515    21.620282    10785.502     1418.066    200.04257    1535.6088   -927.04908    19.989005    290.00733   -6394.4051 
 1867000    85.755765   -6787.5593   -6566.9578   -6787.5593            0    1307.7411    23.297553    21.360782    21.639889    10769.176    1178.9404    1226.3132    1517.9698   -159.18415   -47.822206    326.06492   -6361.5674 
 1868000    90.161845   -6786.8397   -6554.9039   -6786.8397            0    1856.4891    23.223053     21.34342    21.739598    10775.435    1105.1833    2272.3245    2191.9596    411.58668   -94.414112   -59.300981   -6263.1591 
 1869000    92.675792   -6783.6884   -6545.2856   -6783.6884            0    2033.4632    23.213159    21.369785    21.683788    10756.464    2094.2106    1921.3508    2084.8281    409.13272    437.60608   -33.722789   -6226.2922 
 1870000    91.826373   -6780.1352   -6543.9174   -6780.1352            0     2065.994    23.322968    21.266301    21.691928     10759.05     2123.835    2564.7547    1509.3923    242.32023    73.372803   -301.28915   -6219.7429 
 1871000     92.52795   -6780.2329   -6542.2103   -6780.2329            0    2734.7629    23.177872    21.401667    21.613117    10721.081    2487.5982    2748.3944     2968.296    103.52285    299.65732   -815.91935   -6114.6139 
 1872000     92.17973    -6763.923   -6526.7963    -6763.923            0    2050.4955    23.286272    21.367297    21.625737    10760.203    1204.2472    2682.3128    2264.9263   -134.97224   -569.20548   -155.33654   -6205.0192 
 1873000    92.487989   -6786.5576   -6548.6379   -6786.5576            0    1720.9921    23.228344     21.37627    21.703115    10776.363     1738.158    1764.7523    1660.0661   -136.36926   -272.93167    463.41314    -6278.163 
 1874000    92.383857   -6778.0204   -6540.3686   -6778.0204            0    664.18048    23.248593    21.355381    21.797565    10822.111    639.10985    1072.5957    280.83587    343.11131   -515.49132   -45.947967   -6435.5414 
 1875000    96.683745   -6783.0834   -6534.3704   -6783.0834            0     759.0807     23.34928    21.274257     21.76251    10810.278    168.66335     1201.801    906.77779    -103.2879    957.14429    371.41756   -6414.6961 
 1876000    90.974965    -6779.098   -6545.0705    -6779.098            0    1862.3996     23.17616    21.373628    21.735409    10766.822    2130.6033    2089.8739    1366.7215    1176.0017    616.84675    324.91848   -6252.6308 
 1877000    94.830628   -6788.2019   -6544.2559   -6788.2019            0    1669.9907    23.279932    21.295249    21.703736     10759.67    1341.4903    2050.6646    1617.8172   -57.100593    1295.2124    213.49366   -6282.2031 
 1878000    94.789359   -6787.0218   -6543.1819   -6787.0218            0    1708.4538    23.278487    21.355509     21.65796     10766.69    2068.8105    1956.2245    1100.3263   -526.56191   -305.80064    614.41175   -6274.9186 
 1879000    92.164367   -6765.3211   -6528.2339   -6765.3211            0    736.36805     23.20652     21.41123    21.781488    10822.788    1138.4389    56.518602    1014.1466   -168.90847    -346.5132    1327.7017   -6412.0061 
 1880000    88.497903   -6790.6639   -6563.0085   -6790.6639            0    1493.4614    23.203156    21.345875    21.723345    10759.391    1574.5781    1706.6173     1199.189    415.17856   -436.27221    863.83587   -6328.6624 
 1881000    88.919937   -6786.2881    -6557.547   -6786.2881            0     1434.595    23.249803    21.313461    21.714314    10760.176    827.21318    1524.9765    1951.5954    -5.701284    351.74421    118.58818   -6332.4215 
 1882000    96.141602   -6776.1074    -6528.789   -6776.1074            0    1026.5176    23.290626    21.378981    21.689865    10800.031    480.74271    973.47156    1625.3386    1043.5067    104.94219    615.84137   -6367.1049 
 1883000    94.760588   -6778.5648    -6534.799   -6778.5648            0    1803.4807     23.22845    21.297413    21.741347    10755.573    2279.9635    1250.7359    1879.7427    544.73151   -215.50604    614.07748   -6251.9068 
 1884000    89.204503    -6781.871   -6552.3979    -6781.871            0     2077.415    23.207398    21.342928    21.691945     10744.32    1995.1899    1565.4876    2671.5675   -139.80673    877.90955    73.915034   -6226.8776 
 1885000    89.498769   -6787.2559   -6557.0258   -6787.2559            0    1635.8217     23.21188    21.345554    21.721097    10762.161    1324.4721    2003.7974    1579.1956     58.07836   -196.68322    326.98477   -6300.2753 
 1886000    97.397286   -6781.1393   -6530.5907   -6781.1393            0    1659.4507    23.223894    21.328501    21.709405    10753.338    1771.8538    1530.4872     1676.011    740.63671    35.921934    144.41483    -6270.345 
 1887000    93.855276   -6787.7406   -6546.3036   -6787.7406            0    1359.1118    23.279894    21.268988    21.773478    10780.915    505.21546    2436.0161    1136.1037    565.93531    901.78918    316.30623   -6332.6124 
 1888000    92.899028   -6792.6836   -6553.7065   -6792.6836            0    1849.5688    23.190683     21.33735    21.720623    10747.966    1735.1717    2157.3323    1656.2025    586.31192    796.11094    153.90181   -6263.7901 
 1889000     94.54943   -6791.1936   -6547.9709   -6791.1936            0    2118.5145    23.238275    21.376122    21.630353    10744.753    2207.9424    1923.3924    2224.2086    35.477867    60.931412    677.87423   -6215.9972 
 1890000    92.367484   -6783.5256   -6545.9158   -6783.5256            0    1444.4637    23.287507    21.320473    21.711871    10779.958    1324.3463    1903.8462    1105.1985   -257.88556   -56.454358    234.06414    -6318.825 
 1891000    90.669559   -6782.8821   -6549.6402   -6782.8821            0    1064.4645    23.118669    21.381322    21.814599    10783.124     2085.225    1167.9091   -59.740527   -1093.5925    115.14792   -114.89904   -6382.2416 
 1892000    92.897095   -6780.9745   -6542.0024   -6780.9745            0    1647.1605    23.182694    21.401805    21.706514     10769.72    1770.8702    2463.4289    707.18242   -335.61595   -153.66967    304.93965   -6283.2906 
 1893000    93.562825   -6782.8631   -6542.1785   -6782.8631            0    2014.5416    23.296602    21.304606    21.644771    10742.839    1665.9788      2098.84    2278.8059    791.63383   -49.951097    579.87333   -6226.5536 
 1894000    94.053138   -6788.7509   -6546.8049   -6788.7509            0    1410.4316    23.193849    21.459675    21.644118     10772.98    1257.1361    1387.1386      1587.02   -71.121709    745.04826    -54.76639    -6325.208 
 1895000    95.400862   -6774.1863   -6528.7734   -6774.1863            0    1484.6293    23.242299    21.351731    21.751016    10794.231    2157.3137     1439.127    857.44728   -676.48981    84.507641   -278.59277   -6295.0589 
 1896000    94.641725   -6791.4101     -6547.95   -6791.4101            0    1766.0898    23.290857    21.318457    21.694498    10771.863    694.33021    1961.6017    2642.3374    252.62568    3.9238712   -29.773373   -6270.5033 
 1897000     93.25211   -6791.5244    -6551.639   -6791.5244            0     2228.898    23.178857    21.427603    21.608415    10732.194    2106.0862    2167.0285    2413.5795    1552.0543   -269.36342     50.54941   -6202.7762 
 1898000    95.386635   -6799.5636   -6554.1873   -6799.5636            0    2042.8279    23.261348    21.368835    21.605183    10739.243    2168.1474    1311.7085    2648.6279   -215.51654   -38.677717    625.88703   -6234.2378 
 1899000    93.899397   -6773.6687   -6532.1182   -6773.6687            0    1118.2379    23.331077      21.3264    21.700133    10797.289    1125.4525    890.88804    1338.3731    255.63238   -25.986935   -267.80601   -6356.0322 
 1900000    88.957666   -6776.4502   -6547.6121   -6776.4502            0    680.52551    23.163119    21.482875    21.735001    10815.563    1877.4624   -582.00805    746.12218     16.86682   -366.43343   -157.37631   -6440.2701 
 1901000    97.977053   -6783.7145   -6531.6745   -6783.7145            0     1641.074    23.410664    21.341603    21.519991    10751.842    1405.5213     1307.052    2210.6488   -299.49774    -5.856263   -242.18823   -6274.3466 
 1902000     87.41321   -6779.5462    -6554.681   -6779.5462            0    967.12092    23.287226    21.422069    21.634775    10792.736    1406.2359    669.21124    825.91562   -117.23041    477.02833   -383.52102   -6402.4552 
 1903000    93.529826   -6773.2856   -6532.6858   -6773.2856            0    1594.4113    23.186877    21.432391    21.702156    10784.891    1964.0938    1415.7243    1403.4159   -221.04249   -520.98591    -775.1883   -6281.9063 
 1904000    94.030277   -6785.4953   -6543.6081   -6785.4953            0    1837.9523    23.263805    21.292735    21.709253    10753.679     1718.872    2332.7785    1462.2064    55.862731   -554.00817   -827.38377   -6255.3595 
 1905000    90.349633   -6785.5852   -6553.1663   -6785.5852            0    1938.8549    23.178882    21.468759     21.63973    10768.402    1932.1165      1496.33    2388.1181   -181.26506    485.90896    538.16395   -6248.6767 
 1906000    90.589905   -6799.4181   -6566.3811   -6799.4181            0    1442.6015    23.290332    21.415658     21.58051    10763.879    1463.5519    766.98742    2097.2651   -945.56512    -176.8941   -500.33762   -6339.9213 
 1907000    92.106201   -6788.7171   -6551.7795   -6788.7171            0    1164.8874    23.263302    21.383573    21.657042     10773.35    1438.4701    936.15829    1120.0339    342.58568   -287.23619   -991.91381   -6368.7544 
 1908000    92.095156   -6788.7708   -6551.8616   -6788.7708            0    970.55603    23.281105    21.425018    21.655459    10801.702    1483.0767    643.60199    784.98939     92.26715   -1015.0776   -647.81666   -6398.9682 
 1909000    92.190704   -6778.8012   -6541.6462   -6778.8012            0    1151.6524    23.320224    21.378938    21.630465    10784.119    723.87903    1465.2753     1265.803   -746.93403    522.01011   -799.43333   -6360.5197 
 1910000     90.04861   -6778.7902   -6547.1456   -6778.7902            0    1654.1978    23.176032    21.460078    21.657838     10771.73    2788.7603    1345.0148    828.81824    -607.6168   -794.43092    -1631.128     -6287.28 
 1911000    89.191679   -6786.0096   -6556.5695   -6786.0096            0    1178.6231    23.226069    21.445787    21.671176    10794.442    657.49403    939.63241    1938.7429   -131.22364   -148.17777    246.82423   -6371.0237 
 1912000    92.425676   -6779.1369   -6541.3775   -6779.1369            0    1579.8549    23.303925    21.369552    21.612608    10762.958    603.32373    2259.9804    1876.2606   -212.36177   -743.62592    -670.9418   -6293.3929 
 1913000    91.510982   -6776.4439   -6541.0375   -6776.4439            0    1934.3083      23.2031    21.567396    21.526539    10772.536     1199.924    1700.0736    2902.9272    423.95348   -433.79912   -440.01824   -6237.1453 
 1914000    91.102242    -6787.799   -6553.4441    -6787.799            0    1206.1072     23.38137    21.370068    21.582243    10783.815     109.1458    2131.8186    1377.3571   -204.00562    488.01754   -542.59436   -6363.7585 
 1915000    93.141166   -6783.2665   -6543.6665   -6783.2665            0    1270.2626    23.282851    21.420631    21.616153    10780.697    1474.2611     1072.676    1263.8507   -420.36067   -605.40282   -346.75402    -6343.949 
 1916000    94.499884    -6774.384   -6531.2888    -6774.384            0    1533.6908    23.265748    21.414885    21.699027    10811.178    1327.5022     1369.553    1904.0173   -490.87292   -481.78219   -251.36797   -6289.4718 
 1917000    92.317023   -6783.2699     -6545.79   -6783.2699            0    1593.0669    23.231526    21.336807    21.767535    10789.875    1495.6484    1769.5057    1514.0466    297.22698    27.038192    -385.9796   -6295.1061 
 1918000    96.222251   -6779.4144   -6531.8885   -6779.4144            0    1756.0802     23.17805    21.403676    21.712826    10771.635    1668.6449    2357.0743    1242.5215   -5.0052697   -482.90409   -766.08023   -6256.0201 
 1919000    97.343187    -6773.781   -6523.3716    -6773.781            0    1231.9408    23.335342    21.379601     21.65293    10802.654    1576.7282    853.17412    1265.9202     -515.053    -60.13619   -175.35862   -6329.2847 
 1920000    93.069265   -6785.9047   -6546.4897   -6785.9047            0    1772.2883    23.299119    21.409937    21.573892    10761.762    1940.1275    1226.2078    2150.5296    803.48791    78.198286    58.146228   -6268.3304 
 1921000     91.64704   -6779.8573   -6544.1009   -6779.8573            0    1348.0112    23.234654    21.409051    21.682493    10785.563    1510.1712    1484.5598    1049.3026    877.91348   -294.00246   -332.81935   -6332.0636 
 1922000    96.243341   -6788.4291    -6540.849   -6788.4291            0     950.6837    23.268179    21.311273    21.793006    10806.596     395.0201    1848.6504    608.38061   -378.36078    221.54257    400.22862   -6391.0183 
 1923000    91.961679   -6786.6658      -6550.1   -6786.6658            0    1278.7716    23.165278    21.421461    21.734835    10785.566     1167.854    1781.8491    886.61156    89.199842    359.14042   -253.60452   -6348.9538 
 1924000    92.700095   -6789.1556   -6550.6903   -6789.1556            0    1944.5328    23.332659    21.285333    21.631843    10743.313    1543.9781     2358.449    1931.1712   -101.22792    396.43359    315.10664   -6246.0205 
 1925000     91.60362   -6774.9118   -6539.2671   -6774.9118            0    1349.9745    23.317174    21.377749    21.625896    10779.832    1428.0101    1021.3606    1600.5529    351.52033    687.71823    225.68618   -6327.0338 
 1926000    94.188571   -6794.4498   -6552.1554   -6794.4498            0    1127.9446    23.219727    21.423924    21.662114    10775.985    1103.7573    903.04471    1377.0319   -288.91517    696.75781   -799.48966   -6374.8914 
 1927000    99.802925   -6784.5875   -6527.8506   -6784.5875            0    983.03737     23.23945    21.289544    21.843203    10807.084    846.71925    1770.1135    332.27934    49.370288   -31.127553  -0.71128861   -6372.9138 
 1928000     94.14659   -6779.7511   -6537.5648   -6779.7511            0    1480.0175    23.169354    21.346364     21.79479    10779.299    1708.0346    2687.6813    44.336558    981.35364   -1048.9183   -576.55151   -6304.8986 
 1929000    91.533992   -6776.7519   -6541.2863   -6776.7519            0    2177.4761    23.172039      21.4022      21.6735    10748.596    2669.3663    1944.6067    1918.4553    166.83677   -111.39719    1095.5724   -6199.9511 
 1930000    93.436522   -6779.4362   -6539.0764   -6779.4362            0    1958.2409    23.331298    21.299481    21.645998    10756.861    1973.7542    1863.9334    2037.0352   -428.82761    200.54539    715.57828    -6231.872 
 1931000    93.841252    -6786.942   -6545.5411    -6786.942            0    1799.3701    23.201627    21.473417    21.578219    10750.662    1741.2014     925.5811    2731.3277    228.16673    724.87134    637.50737   -6263.4226 
 1932000    92.821457   -6774.8469   -6536.0694   -6774.8469            0    1492.9107    23.231693     21.35083    21.701176    10764.129    1350.0172    1981.4127    1147.3023    383.50935    17.160505    243.27038   -6301.7066 
 1933000    93.576359   -6793.0191   -6552.2996   -6793.0191            0    1409.7922    23.278649    21.263025    21.786812    10783.916    899.09839    2205.4497    1124.8286   -312.09348   -46.617622    499.18389   -6330.5783 
 1934000     90.89604   -6784.6075   -6550.7829   -6784.6075            0    1043.0906    23.179853    21.451362     21.72904    10804.535    953.99953    1096.0318    1079.2406    582.38854     -98.0267    230.70937     -6386.42 
 1935000    96.808324   -6781.9842   -6532.9506   -6781.9842            0    2072.5723    23.301812    21.353449    21.609177    10752.166    1337.8514    2806.5899    2073.2756    485.96699    77.927447   -389.04973    -6207.952 
 1936000    97.361488   -6781.2297   -6530.7732   -6781.2297            0    2943.2271    23.247062    21.295383    21.619324    10702.757    3249.7862    2509.9882    3069.9068   -170.85106    352.15021    311.67412   -6071.3686 
 1937000    91.303605   -6791.2478   -6556.3748   -6791.2478            0    2404.1901    23.141949    21.425308    21.643819    10731.511    2811.8562    1695.1988    2705.5155   -49.802485   -85.345376    53.843946   -6180.0996 
 1938000    94.711248    -6775.973   -6532.3341    -6775.973            0    1660.1887    23.277259    21.316372    21.734395    10784.318    1909.7286    1024.4026     2046.435   -794.93654   -647.39023    371.50175   -6271.2226 
 1939000    90.441512   -6790.3024   -6557.6471   -6790.3024            0    2032.6388    23.111603    21.361768    21.792598    10759.108      1738.01    3101.1458    1258.7605    777.37639    41.935277    942.22306   -6238.7046 
 1940000    98.776641   -6776.1592   -6522.0623   -6776.1592            0    1508.8434    23.199752    21.419123    21.687564    10776.948     1676.083    874.76859    1975.6785    442.33096    134.07157    257.62713   -6284.9163 
 1941000    92.445884   -6772.3571   -6534.5457   -6772.3571            0    1288.3451    23.365649     21.34105    21.640582    10791.022     1032.954     593.8532     2238.228   -99.923484    91.633322    207.02957   -6331.7911 
 1942000    93.469884   -6781.1335   -6540.6879   -6781.1335            0    1965.2046     23.18017    21.393742    21.658051    10740.457    2138.0959    1674.1026    2083.4152   -488.09581    381.61308    334.02727   -6232.8611 
 1943000    91.095116   -6780.5582   -6546.2216   -6780.5582            0    1891.4376    23.167768     21.32884    21.791657    10768.165    1749.8426    2548.2856    1376.1845   -636.51445    748.63577   -122.59322   -6249.1852 
 1944000    89.029118   -6772.7763   -6543.7543   -6772.7763            0    1936.5073    23.199678    21.313436    21.773521    10766.241    1863.5163    2856.9149    1089.0908   -285.68177     19.18749   -294.18429   -6239.6945 
 1945000    97.281221   -6786.2698   -6536.0198   -6786.2698            0    1744.0996     23.14792    21.412783    21.703301    10757.488    2222.1002    1582.1441    1428.0545    761.21484   -116.28533     227.4398   -6262.3933 
 1946000    94.670335   -6790.3925   -6546.8588   -6790.3925            0    1815.0695    23.360429    21.288242    21.625757    10754.542     2112.253    2124.8209    1208.1348   -753.96197   -545.13322    101.49425   -6262.1761 
 1947000     89.09259     -6769.67   -6540.4848     -6769.67            0    874.66424     23.20618    21.469775    21.686722    10805.007    1063.3051    362.23328    1198.4543   -90.538796    445.21553     279.5076   -6402.6552 
 1948000    92.387597   -6773.6921   -6536.0307   -6773.6921            0    2475.9984    23.198028    21.259036    21.786703    10744.499    2342.3918    2884.1331    2201.4703    443.88272    689.68358   -79.660495   -6148.0479 
 1949000    95.463889   -6780.5252   -6534.9502   -6780.5252            0    2036.4974    23.226646    21.287451    21.744233    10751.134     2460.091    2377.8611    1271.5401     1.426845   -316.83965    -75.86558   -6215.6391 
 1950000    91.115075   -6784.7417   -6550.3537   -6784.7417            0     1114.022    23.227914    21.468117    21.637607      10789.8    1548.5484   -119.60598    1913.1237    -568.1944    88.638982    89.856909   -6375.0532 
 1951000    95.721712    -6789.616   -6543.3777    -6789.616            0    1285.0213    23.357617    21.348629    21.612839    10777.309    247.63356     1390.595    2216.8354    6.2835473    45.620755     445.3647   -6341.4032 
 1952000    95.446202   -6788.8176   -6543.2881   -6788.8176            0    2633.6804    23.199239    21.338546    21.614606    10700.052    3027.2688    2382.0282    2491.7442   -226.28772   -644.47287   -30.655431   -6132.3041 
 1953000     88.97899   -6791.4599   -6562.5668   -6791.4599            0    1341.2923    23.175312    21.425547    21.742421    10796.063    1080.3432    1836.3135    1107.2202    513.35143   -119.76285   -218.16448    -6351.381 
 1954000    88.747005   -6779.9636   -6551.6674   -6779.9636            0    2137.8747    23.273923    21.333573    21.682245     10765.58    1543.5839    2461.3598    2408.6805    -41.63268    377.57978    50.052384   -6216.0105 
 1955000    95.534602   -6792.9748   -6547.2179   -6792.9748            0    2523.4986    23.296339    21.372243    21.499524    10704.506    2192.4486    2092.9313    3285.1159   -72.044789   -27.337322   -430.48313   -6153.2638 
 1956000    89.213217   -6786.8565   -6557.3609   -6786.8565            0    1318.2579    23.278233     21.41795    21.648374    10793.274    1193.1818    1761.7558    999.83611     235.9063     245.8545   -751.48293   -6349.8554 
 1957000    91.941481   -6793.2641   -6556.7502   -6793.2641            0    754.38105    23.252972    21.375335    21.783903    10827.473    924.35617    857.05166    481.73531   -300.75409    394.63698   -79.832255   -6437.6277 
 1958000    93.091448   -6783.2844   -6543.8124   -6783.2844            0    1204.9156    23.207276    21.382143    21.738586    10787.149    1068.6651     1177.465    1368.6168   -443.21751    251.85604   -375.16891   -6354.2556 
 1959000    96.496809   -6784.1869   -6535.9547   -6784.1869            0    1172.7917    23.251732    21.429211    21.654901    10789.907    1868.6378    896.16768    753.56959    504.39401   -321.63832    64.884485   -6351.4045 
 1960000    91.540138   -6780.1558   -6544.6743   -6780.1558            0    1352.9492    23.405996    21.358115    21.556836    10776.434    1208.3508    1275.0024    1575.4943    269.51371   -465.78749   -519.66007   -6332.0405 
 1961000    93.700068   -6777.9847    -6536.947   -6777.9847            0     1639.186    23.219765    21.465059    21.626229    10778.807    1983.6808    987.94415     1945.933      -391.46   -114.52527    154.48892   -6279.2705 
 1962000    94.425257   -6795.1467   -6552.2435   -6795.1467            0    527.62383    23.238072    21.412297    21.764573    10829.627    1077.9007    301.48153    203.48928   -1039.6917   -341.07201   -171.84008   -6468.9111 
 1963000    90.870716   -6781.9398   -6548.1804   -6781.9398            0      1337.05    23.207777    21.378159     21.72958    10780.904    1293.6625    1119.9342    1597.5534   -583.37188    134.16317    -91.28155   -6337.9581 
 1964000    88.914497   -6771.0636   -6542.3365   -6771.0636            0    2462.7283    23.247756    21.344294    21.629719    10732.816    2927.9788    2413.9127    2046.2935    161.12279   -464.98645    166.94659   -6156.8528 
 1965000    88.107435   -6786.3479   -6559.6969   -6786.3479            0    1374.9238    23.307712    21.363666    21.648214    10779.472    1071.5519    1784.0865    1269.1329    468.89216    575.62296   -419.21467   -6343.5485 
 1966000    89.983175   -6776.6522   -6545.1759   -6776.6522            0    2345.6772    23.192361    21.403762    21.639144    10741.752    2777.6805    2090.9634    2168.3878    385.82201   -44.700099   -291.54682   -6177.7081 
 1967000    95.137109   -6788.8564    -6544.122   -6788.8564            0    2231.9371    23.223831    21.299402     21.71595    10741.875    2621.3991    2107.6687    1966.7436   -300.94104   -689.12404    298.46833   -6194.4684 
 1968000    93.489461   -6777.8206   -6537.3247   -6777.8206            0    1456.2108     23.20372    21.406016    21.719256    10787.937    1612.9601    1150.4199    1605.2525   -179.00662   -291.98076   -157.33946   -6308.2176 
 1969000    91.221951   -6782.0779    -6547.415   -6782.0779            0    931.57053    23.246936    21.438696    21.660382    10795.187    1017.5012    499.71745    1277.4929    -347.3319    99.580766   -217.50453   -6400.7516 
 1970000    91.936211   -6797.1765   -6560.6762   -6797.1765            0    1175.1899    23.302823    21.329207    21.673193    10772.243    1328.7377     1003.499    1193.3329    283.15665   -352.66455    53.572135   -6376.0514 
 1971000    93.611689   -6788.1531   -6547.3428   -6788.1531            0    1832.4764    23.245852    21.349344    21.685955    10762.386    1257.6668    2442.7192    1797.0431    303.13137    233.06967    172.26346   -6259.7203 
 1972000    92.612074   -6790.8014   -6552.5625   -6790.8014            0     1708.658      23.1683    21.387983    21.725395    10765.438    2083.9672    1672.0095    1369.9973    69.037779   -339.81858    179.38111   -6284.2983 
 1973000    91.276203   -6785.3538   -6550.5513   -6785.3538            0    1432.4752    23.303432    21.293921    21.720727    10778.291    949.44634    1662.6964    1685.2829    28.265046    9.4264339    28.351297   -6325.3801 
 1974000    91.779422   -6767.4206   -6531.3236   -6767.4206            0    1381.3316    23.185213    21.487196    21.660336    10790.859    1524.8722    964.96533    1654.1573   -276.50814   -227.45464    573.86292   -6313.9385 
 1975000    89.976602   -6782.1266   -6550.6672   -6782.1266            0    543.52854    23.369668    21.408764    21.616482    10815.066   -313.69014    958.55454    985.72122   -720.17104    226.98477   -488.65719   -6464.9383 
 1976000    91.708846   -6781.6188   -6545.7033   -6781.6188            0    1477.3967    23.192264    21.408636    21.687964    10768.394    1575.5855    1588.4318    1268.1727    334.94789   -558.29973    349.14784   -6313.6841 
 1977000     95.12596   -6767.4884   -6522.7827   -6767.4884            0    1379.5794    23.207226    21.396194    21.739409    10794.624    1942.4075    1298.0518    898.27901   -143.69849   -45.050962   -642.54377   -6305.5975 
 1978000    95.710497   -6770.2357   -6524.0263   -6770.2357            0    1761.3047    23.400032    21.237717    21.693444    10780.844     1115.834    1817.3728    2350.7074    240.31757   -874.75962    616.19676   -6247.1006 
 1979000    92.285205   -6774.5481     -6537.15   -6774.5481            0    1744.2907    23.125075    21.484231    21.654356    10758.414     1778.146    1655.9945    1798.7316   -88.850467    780.62455   -42.118167   -6263.4701 
 1980000    95.934965    -6779.843   -6533.0561    -6779.843            0    1257.6707    23.280894    21.299859    21.750497    10785.631    1653.3743    1354.7451    764.89258   -610.54611   -905.60592    771.93429   -6335.2278 
 1981000    91.628316    -6765.268   -6529.5598    -6765.268            0    1576.6146     23.34575    21.320274    21.662102    10782.047    1163.6679    1490.8135    2075.3625    -574.8578    167.64753    49.974847   -6281.6449 
 1982000    95.865461   -6783.1184   -6536.5104   -6783.1184            0    2168.7867    23.161598    21.444543    21.619849     10738.36    3275.0115     1181.186    2050.1627    300.50318   -214.10627   -45.614143   -6196.8611 
 1983000    92.536691   -6787.3357   -6549.2907   -6787.3357            0     2242.721    23.280136    21.301371    21.688693    10755.397    2538.5056     2058.588    2131.0695    -270.5764    387.02567    -1175.603   -6197.5055 
 1984000     93.23562   -6782.2621   -6542.4191   -6782.2621            0    2838.0201    23.144691    21.421193    21.627233    10722.498    3184.0754    2107.1803    3222.8048    354.61836   -390.62112     66.34976   -6098.6191 
 1985000    91.325919   -6783.0506   -6548.1202   -6783.0506            0    2136.5039    23.336981    21.353928    21.591985    10760.068    2238.4651    1816.0727    2354.9738    -972.4458    -316.9714   -191.01228   -6212.8503 
 1986000    92.533859   -6786.2538   -6548.2161   -6786.2538            0    1688.9432    23.324239    21.371011    21.601677    10767.627     1450.645    582.54645    3033.6382   -430.99696    177.88876    482.75418   -6282.9932 
 1987000    89.357525   -6783.4935   -6553.6267   -6783.4935            0    1274.6043    23.200971     21.46681      21.6336    10774.632    1415.1733    1166.9118    1241.7278    83.874955    538.28517    43.928235   -6353.3393 
 1988000     94.71722   -6773.7122   -6530.0579   -6773.7122            0    1536.1353    23.226195    21.324091    21.806069    10800.055    2276.0588    1788.4227    543.92452    586.93303   -472.52201   -339.71065   -6288.1047 
 1989000    92.280714   -6784.2081   -6546.8216   -6784.2081            0    1427.5539    23.298255    21.319543    21.701345    10779.235    1665.6173    1340.2499    1276.7947     119.8591   -422.18093   -413.54816   -6322.4043 
 1990000    90.414657   -6770.4534   -6537.8672   -6770.4534            0    1803.3221    23.228437    21.484211    21.595141    10776.939    2128.2584    1104.3602    2177.3476   -577.63297    71.555689    58.570279    -6254.438 
 1991000     92.79439   -6784.8048   -6546.0969   -6784.8048            0     2109.756    23.308211    21.326727    21.596432    10735.324    2264.4418    2182.5645    1882.2618    294.18758   -896.10648   -969.58167   -6215.7857 
 1992000     92.09801    -6783.897   -6546.9805    -6783.897            0    2410.5958    23.194795    21.370598    21.681436    10747.198    2390.9709    2510.2499    2330.5667    483.19115   -887.59908    113.45423   -6169.1513 
 1993000    89.914025    -6771.146   -6539.8476    -6771.146            0    2107.6131    23.203907    21.405994    21.672758    10764.917    2384.8194    1905.3548    2032.6652   -528.50796    307.75316   -120.92226   -6208.9623 
 1994000    92.294404   -6782.2427    -6544.821   -6782.2427            0    1730.0763     23.34799    21.313211    21.607763    10752.469    416.86224    2423.7427    2349.6241    722.22885   -234.38507    36.308647   -6273.5213 
 1995000    99.524783   -6782.5958   -6526.5744   -6782.5958            0    1510.7349    23.250913    21.419782    21.638103    10776.413    1465.2152    1285.0308    1781.9588    165.74494   -395.09296     554.2821   -6289.1428 
 1996000    90.837955   -6783.7465   -6550.0714   -6783.7465            0     1451.202    23.226069    21.371803    21.704715    10773.851    787.28217    1593.1813    1973.1426    351.16431    922.93139    38.777894   -6322.0505 
 1997000    92.792067   -6781.7527   -6543.0508   -6781.7527            0    1967.1531    23.242277    21.315332    21.701615    10751.346    2109.4146    2272.9951    1519.0495   -604.44636   -11.706751    19.162195   -6234.6064 
 1998000    91.738939   -6773.7365   -6537.7437   -6773.7365            0    1951.5255    23.223489    21.430437    21.613363    10756.744    1756.2172    1650.7795    2447.5798    116.11263    20.242588    514.98634    -6231.596 
 1999000    94.667763   -6791.8507   -6548.3237   -6791.8507            0     1850.235    23.248076    21.364579    21.675177    10765.743    2146.8645    1530.6902    1873.1505   -247.54851   -716.73171    254.03638   -6257.8232 
 2000000     97.69334   -6773.6675   -6522.3573   -6773.6675            0    2251.1916    23.240999    21.343495    21.683974    10756.209    2913.1406    2021.0324     1819.402    67.283961    -179.6663     322.1831   -6169.2168 
Loop time of 519.426 on 64 procs for 250000 steps with 1296 atoms

Performance: 83.169 ns/day, 0.289 hours/ns, 481.300 timesteps/s
99.1% CPU use with 64 MPI tasks x 1 OpenMP threads

MPI task timing breakdown:
Section |  min time  |  avg time  |  max time  |%varavg| %total
---------------------------------------------------------------
Pair    | 29.108     | 40.507     | 52.233     | 115.0 |  7.80
Bond    | 0.27957    | 0.28851    | 0.30076    |   0.8 |  0.06
Kspace  | 262.4      | 274.31     | 285.72     |  44.2 | 52.81
Neigh   | 1.1719     | 1.1897     | 1.2057     |   0.8 |  0.23
Comm    | 88.876     | 89.85      | 91.183     |   6.2 | 17.30
Output  | 0.57608    | 0.57674    | 0.57829    |   0.0 |  0.11
Modify  | 100.86     | 101.99     | 104.17     |   7.0 | 19.64
Other   |            | 10.71      |            |       |  2.06

Nlocal:        20.2500 ave          28 max          15 min
Histogram: 17 4 3 8 4 4 16 6 1 1
Nghost:        2606.16 ave        2633 max        2577 min
Histogram: 2 2 5 14 5 12 10 8 3 3
Neighs:        6492.17 ave        8990 max        4778 min
Histogram: 17 4 4 5 6 4 15 7 1 1

Total # of neighbors = 415499
Ave neighs/atom = 320.60108
Ave special neighs/atom = 2.0000000
Neighbor list builds = 2205
Dangerous builds = 0

unfix		3
unfix		2
unfix		1

write_data	data.final.${pid}
write_data	data.final.0
System init for write_data ...
PPPM initialization ...
  extracting TIP4P info from pair style
  using 12-bit tables for long-range coulomb (../kspace.cpp:340)
  G vector (1/distance) = 0.36719103
  grid = 30 40 32
  stencil order = 5
  estimated absolute RMS force accuracy = 0.0045723332
  estimated relative force accuracy = 1.3769446e-05
  using double precision FFTW3
  3d grid and FFT values/proc = 5168 640
Last active /omp style is kspace_style pppm/tip4p/omp
WARNING: Not all mixed pair coeffs generated from mixing. Use write_data with 'pair ij' option to store all pair coeffs. (../write_data.cpp:312)

write_restart   restart.lmp.${pid}
write_restart   restart.lmp.0
System init for write_restart ...
PPPM initialization ...
  extracting TIP4P info from pair style
  using 12-bit tables for long-range coulomb (../kspace.cpp:340)
  G vector (1/distance) = 0.36719103
  grid = 30 40 32
  stencil order = 5
  estimated absolute RMS force accuracy = 0.0045723332
  estimated relative force accuracy = 1.3769446e-05
  using double precision FFTW3
  3d grid and FFT values/proc = 5168 640
Last active /omp style is kspace_style pppm/tip4p/omp
Total wall time: 0:08:39
